     Program PWSCF v.5.0.2 starts on 22Mar2018 at 22:44:12

     Current dimensions of program PWSCF are:
     Max number of different atomic species (ntypx) = 10
     Max number of k-points (npk) =  40000
     Max angular momentum in pseudopotentials (lmaxx) =  3
     Waiting for input...
     Reading input from standard input

     Subspace diagonalization in iterative solution of the eigenvalue problem:
     a serial algorithm will be used

     bravais-lattice index     =            0
     lattice parameter (alat)  =       9.9235  a.u.
     unit-cell volume          =    1361.0366 (a.u.)^3
     number of atoms/cell      =           12
     number of atomic types    =            2
     number of electrons       =       256.00
     number of Kohn-Sham states=          154
     kinetic-energy cutoff     =      40.0000  Ry
     charge density cutoff     =     160.0000  Ry
     convergence threshold     =      1.0E-04
     mixing beta               =       0.7000
     number of iterations used =            8  plain     mixing
     Exchange-correlation      = SLA-PZ-NOGX-NOGC ( 1 1 0 0 0)
     EXX-fraction              =        0.00
     nstep                     =           50

     celldm(1)=   9.923489  celldm(2)=   0.000000  celldm(3)=   0.000000
     celldm(4)=   0.000000  celldm(5)=   0.000000  celldm(6)=   0.000000

     crystal axes: (cart. coord. in units of alat)
               a(1) = (   1.000000   0.000000   0.000000 )
               a(2) = (  -0.500000   0.866025   0.000000 )
               a(3) = (   0.000000   0.000000   1.608222 )

     reciprocal axes: (cart. coord. in units 2 pi/alat)
               b(1) = (  1.000000  0.577350  0.000000 )
               b(2) = (  0.000000  1.154701  0.000000 )
               b(3) = (  0.000000  0.000000  0.621805 )

     PseudoPot. # 1 for Er read from file:
     /home/cwx6513/pp.La/Er.UPF
     MD5 check sum: e152ae21b84514339d8526f066caf99b
     Pseudo is Norm-conserving, Zval = 22.0
     Generated in analytical, separable form
     Using radial grid of 1267 points,  6 beta functions with:
                l(1) =   0
                l(2) =   0
                l(3) =   1
                l(4) =   1
                l(5) =   2
                l(6) =   3

     PseudoPot. # 2 for Ho read from file:
     /home/cwx6513/pp.La/Ho.UPF
     MD5 check sum: f307ee11bce99f5b724fa279e3790763
     Pseudo is Norm-conserving, Zval = 21.0
     Generated in analytical, separable form
     Using radial grid of 1265 points,  6 beta functions with:
                l(1) =   0
                l(2) =   0
                l(3) =   1
                l(4) =   1
                l(5) =   2
                l(6) =   3

     atomic species   valence    mass     pseudopotential
        Mg            22.00    24.30500     Er( 1.00)
        Zn            21.00    65.39000     Ho( 1.00)

     24 Sym. Ops., with inversion, found (12 have fractional translation)

   Cartesian axes

     site n.     atom                  positions (alat units)
         1           Mg  tau(   1) = (  -0.0000005   0.5773506   0.1003820  )
         2           Mg  tau(   2) = (   0.5000005   0.2886748   0.9044931  )
         3           Mg  tau(   3) = (   0.5000005   0.2886748   1.5078402  )
         4           Mg  tau(   4) = (  -0.0000005   0.5773506   0.7037291  )
         5           Zn  tau(   5) = (   0.0000000   0.0000000   0.0000000  )
         6           Zn  tau(   6) = (   0.0000000   0.0000000   0.8041111  )
         7           Zn  tau(   7) = (   0.0000000   0.2950739   1.2061667  )
         8           Zn  tau(   8) = (   0.7444585   0.1475370   0.4020556  )
         9           Zn  tau(   9) = (   0.2555415   0.1475370   0.4020556  )
        10           Zn  tau(  10) = (   0.2444585   0.7184884   1.2061667  )
        11           Zn  tau(  11) = (  -0.2444585   0.7184884   1.2061667  )
        12           Zn  tau(  12) = (   0.5000000   0.5709515   0.4020556  )

     number of k points=    12  gaussian smearing, width (Ry)=  0.1000
                       cart. coord. in units 2pi/alat
        k(    1) = (   0.0000000   0.0000000   0.0000000), wk =   0.0833333
        k(    2) = (   0.0000000   0.0000000   0.1554512), wk =   0.1666667
        k(    3) = (   0.0000000   0.0000000  -0.3109023), wk =   0.0833333
        k(    4) = (   0.0000000   0.3849002   0.0000000), wk =   0.1666667
        k(    5) = (   0.0000000   0.3849002   0.1554512), wk =   0.3333333
        k(    6) = (   0.0000000   0.3849002  -0.3109023), wk =   0.1666667
        k(    7) = (  -0.5000000  -0.2886751   0.0000000), wk =   0.0833333
        k(    8) = (  -0.5000000  -0.2886751   0.1554512), wk =   0.1666667
        k(    9) = (  -0.5000000  -0.2886751  -0.3109023), wk =   0.0833333
        k(   10) = (  -0.5000000   0.0962250   0.0000000), wk =   0.1666667
        k(   11) = (  -0.5000000   0.0962250   0.1554512), wk =   0.3333333
        k(   12) = (  -0.5000000   0.0962250  -0.3109023), wk =   0.1666667

     Largest allocated arrays     est. size (Mb)     dimensions
     Largest temporary arrays     est. size (Mb)     dimensions

     Initial potential from superposition of free atoms

     Starting from uniform charge
     Starting wfc are    0 randomized atomic wfcs

     Self-consistent Calculation

     iteration #  1     ecut=    40.00 Ry     beta=0.70
     CG style diagonalization
     ethr =  1.00E-02,  avg # of iterations = 17.9

     total energy              =   -3266.19981986 Ry
     Harris-Foulkes estimate   =   -4476.52977264 Ry
     estimated scf accuracy    <    1527.79132196 Ry

[...]

     iteration #  3     ecut=    40.00 Ry     beta=0.70
     CG style diagonalization
     c_bands:  2 eigenvalues not converged
     c_bands:  2 eigenvalues not converged
     c_bands:  1 eigenvalues not converged
     c_bands:  1 eigenvalues not converged
     c_bands:  2 eigenvalues not converged
     c_bands:  3 eigenvalues not converged
     c_bands:  1 eigenvalues not converged
     c_bands:  1 eigenvalues not converged
     c_bands:  1 eigenvalues not converged
     c_bands:  1 eigenvalues not converged
     ethr =  1.00E-02,  avg # of iterations = 10.9

[...]

     End of self-consistent calculation

          k = 0.0000 0.0000 0.0000 (  5769 PWs)   bands (ev):

   -66.9682 -66.9579 -66.9514 -66.9210 -59.3361 -59.2932 -59.2732 -59.1893
   -59.1676 -59.1675 -59.1590 -59.1590 -29.0008 -28.9902 -28.9902 -28.9851
   -28.9676 -28.9675 -28.9491 -28.9337 -28.9337 -28.9256 -28.9256 -28.9236
   -24.6120 -24.3990 -24.1330 -23.7911 -23.7911 -23.7396 -23.7396 -23.6899
   -23.6899 -23.6603 -23.5032 -23.4195 -23.4195 -23.3851 -23.3851 -23.1756
   -23.1643 -23.1643 -23.1274 -23.1274 -23.1134 -23.1134 -23.0871 -23.0713
    15.0035  15.6130  15.9493  16.5037  16.5037  16.8553  16.8554  16.9876
    17.0020  17.1693  17.1693  17.1750  17.1751  17.1784  17.2406  17.2406
    17.3747  17.3747  17.6624  17.6625  17.6781  17.6793  17.6793  17.9018
    17.9018  17.9114  17.9114  17.9600  17.9600  18.0088  18.4611  18.4698
    18.4699  18.7274  18.8410  19.1907  19.1907  19.9186  19.9186  19.9649
    20.1198  20.1198  20.8820  20.8820  20.9553  21.2936  21.3414  21.3414
    21.3621  21.5198  21.5198  21.5314  21.6692  21.6692  21.6717  21.8933
    21.8933  22.7203  22.7204  23.0930  23.0931  23.8541  23.8555  27.7124
    27.7314  28.7752  29.0163  29.0164  29.4971  29.4972  29.6476  30.1942
    31.3779  31.3780  31.4062  32.0327  32.7106  32.7107  33.0562  33.0564
    33.0852  34.3305  34.3306  36.4801  37.2092  37.2624  37.5385  37.5386
    37.6315  37.6316  38.4198  38.5936  38.5937  38.6347  38.6463  38.6464
    38.9584  38.9585  39.2426  40.5173  40.8228  40.8229  40.9513  41.1043
    42.1539  42.3164

[...]

          k =-0.5000-0.2887 0.0000 (  5800 PWs)   bands (ev):

[...]

     the Fermi energy is    35.4281 ev

!    total energy              =   -3660.96991601 Ry
     Harris-Foulkes estimate   =   -3660.96994034 Ry
     estimated scf accuracy    <       0.00002702 Ry

     The total energy is the sum of the following terms:

     one-electron contribution =    -645.00608577 Ry
     hartree contribution      =     540.07843357 Ry
     xc contribution           =    -323.44624784 Ry
     ewald contribution        =   -3232.25341932 Ry
     smearing contrib. (-TS)   =      -0.34259665 Ry

     convergence has been achieved in  11 iterations

     Forces acting on atoms (Ry/au):

     atom    1 type  1   force =     0.00000000    0.00000000    0.03201084
     atom    2 type  1   force =     0.00000000    0.00000000    0.03201084
     atom    3 type  1   force =     0.00000000    0.00000000   -0.03201084
     atom    4 type  1   force =     0.00000000    0.00000000   -0.03201084
     atom    5 type  2   force =     0.00000000    0.00000000    0.00000000
     atom    6 type  2   force =     0.00000000    0.00000000    0.00000000
     atom    7 type  2   force =     0.00000000    0.06772707    0.00000000
     atom    8 type  2   force =    -0.05865336    0.03386353    0.00000000
     atom    9 type  2   force =     0.05865336    0.03386353    0.00000000
     atom   10 type  2   force =    -0.05865336   -0.03386353    0.00000000
     atom   11 type  2   force =     0.05865336   -0.03386353    0.00000000
     atom   12 type  2   force =     0.00000000   -0.06772707    0.00000000

     Total force =     0.177822     Total SCF correction =     0.000000

     entering subroutine stress ...

          total   stress  (Ry/bohr**3)                   (kbar)     P= 1166.12
   0.00792740   0.00000000   0.00000000       1166.16      0.00      0.00
   0.00000000   0.00792740   0.00000000          0.00   1166.16      0.00
   0.00000000   0.00000000   0.00792661          0.00      0.00   1166.04

     BFGS Geometry Optimization

     number of scf cycles    =   1
     number of bfgs steps    =   0

     enthalpy new            =   -3660.9699160122 Ry

     new trust radius        =       0.5000000000 bohr
     new conv_thr            =       0.0001000000 Ry

     new unit-cell volume =   1656.89149 a.u.^3 (   245.52598 Ang^3 )

CELL_PARAMETERS (alat=  9.92348860)
   1.067764947   0.000000000   0.000000000
  -0.533882474   0.924711570   0.000000000
   0.000000000   0.000000000   1.717192526

ATOMIC_POSITIONS (crystal)
Mg       0.333333000   0.666667000   0.063103837
Mg       0.666667000   0.333333000   0.563103837
Mg       0.666667000   0.333333000   0.936896163
Mg       0.333333000   0.666667000   0.436896163
Zn       0.000000000   0.000000000   0.000000000
Zn       0.000000000   0.000000000   0.500000000
Zn       0.171708323   0.343416646   0.750000000
Zn       0.828291677   0.171708323   0.250000000
Zn       0.343416646   0.171708323   0.250000000
Zn       0.656583354   0.828291677   0.750000000
Zn       0.171708323   0.828291677   0.750000000
Zn       0.828291677   0.656583354   0.250000000

     Writing output data file Prototype-La-hP12-MgZn2.save
     NEW-OLD atomic charge density approx. for the potential
     NEW k-points:
        k(    1) = (   0.0000000   0.0000000   0.0000000), wk =   0.0833333
        k(    2) = (   0.0000000   0.0000000   0.1455865), wk =   0.1666667
        k(    3) = (   0.0000000   0.0000000  -0.2911729), wk =   0.0833333
        k(    4) = (   0.0000000   0.3604728   0.0000000), wk =   0.1666667
        k(    5) = (   0.0000000   0.3604728   0.1455865), wk =   0.3333333
        k(    6) = (   0.0000000   0.3604728  -0.2911729), wk =   0.1666667
        k(    7) = (  -0.4682679  -0.2703546   0.0000000), wk =   0.0833333
        k(    8) = (  -0.4682679  -0.2703546   0.1455865), wk =   0.1666667
        k(    9) = (  -0.4682679  -0.2703546  -0.2911729), wk =   0.0833333
        k(   10) = (  -0.4682679   0.0901182   0.0000000), wk =   0.1666667
        k(   11) = (  -0.4682679   0.0901182   0.1455865), wk =   0.3333333
        k(   12) = (  -0.4682679   0.0901182  -0.2911729), wk =   0.1666667

[...]

     enthalpy old            =   -3660.9699160122 Ry
     enthalpy new            =   -3661.6848107566 Ry

     CASE: enthalpy_new < enthalpy_old

     small trust_radius: resetting bfgs history

     new trust radius        =       0.3952189725 bohr
     new conv_thr            =       0.0000167491 Ry

[...]

     number of scf cycles    =   3
     number of bfgs steps    =   2

     enthalpy old            =   -3661.6848107566 Ry
     enthalpy new            =   -3661.4099658549 Ry

     CASE: enthalpy_new > enthalpy_old

     new trust radius        =       0.1212932253 bohr

     trust_radius < trust_radius_min

     resetting bfgs history

     Message from routine bfgs:
     history already reset at previous step: stopping
     new conv_thr            =       0.0000167491 Ry

     new unit-cell volume =   1417.37719 a.u.^3 (   210.03363 Ang^3 )

[...]

ATOMIC_POSITIONS (crystal)
Mg       0.333333000   0.666667000   0.064164764
Mg       0.666667000   0.333333000   0.564164764
Mg       0.666667000   0.333333000   0.935835236
Mg       0.333333000   0.666667000   0.435835236
Zn       0.000000000   0.000000000   0.000000000
Zn       0.000000000   0.000000000   0.500000000
Zn       0.172715558   0.345431117   0.750000000
Zn       0.827284442   0.172715558   0.250000000
Zn       0.345431117   0.172715558   0.250000000
Zn       0.654568883   0.827284442   0.750000000
Zn       0.172715558   0.827284442   0.750000000
Zn       0.827284442   0.654568883   0.250000000

     Writing output data file Prototype-La-hP12-MgZn2.save
     NEW-OLD atomic charge density approx. for the potential
     NEW k-points:
        k(    1) = (   0.0000000   0.0000000   0.0000000), wk =   0.0833333
        k(    2) = (   0.0000000   0.0000000   0.1534070), wk =   0.1666667
        k(    3) = (   0.0000000   0.0000000  -0.3068139), wk =   0.0833333
        k(    4) = (   0.0000000   0.3796774   0.0000000), wk =   0.1666667
        k(    5) = (   0.0000000   0.3796774   0.1534070), wk =   0.3333333
        k(    6) = (   0.0000000   0.3796774  -0.3068139), wk =   0.1666667
        k(    7) = (  -0.4932154  -0.2847580   0.0000000), wk =   0.0833333
        k(    8) = (  -0.4932154  -0.2847580   0.1534070), wk =   0.1666667
        k(    9) = (  -0.4932154  -0.2847580  -0.3068139), wk =   0.0833333
        k(   10) = (  -0.4932154   0.0949193   0.0000000), wk =   0.1666667
        k(   11) = (  -0.4932154   0.0949193   0.1534070), wk =   0.3333333
        k(   12) = (  -0.4932154   0.0949193  -0.3068139), wk =   0.1666667

[...]

     The maximum number of steps has been reached.

     End of BFGS Geometry Optimization
Begin final coordinates
     new unit-cell volume =   1417.37719 a.u.^3 (   210.03363 Ang^3 )

CELL_PARAMETERS (alat=  9.92348860)
   1.013755858   0.000000000   0.000000000
  -0.506877929   0.877938326   0.000000000
   0.000000000   0.000000000   1.629652207

ATOMIC_POSITIONS (crystal)
Mg       0.333333000   0.666667000   0.064164764
Mg       0.666667000   0.333333000   0.564164764
Mg       0.666667000   0.333333000   0.935835236
Mg       0.333333000   0.666667000   0.435835236
Zn       0.000000000   0.000000000   0.000000000
Zn       0.000000000   0.000000000   0.500000000
Zn       0.172715558   0.345431117   0.750000000
Zn       0.827284442   0.172715558   0.250000000
Zn       0.345431117   0.172715558   0.250000000
Zn       0.654568883   0.827284442   0.750000000
Zn       0.172715558   0.827284442   0.750000000
Zn       0.827284442   0.654568883   0.250000000
End final coordinates

     A final scf calculation at the relaxed structure.
     The G-vectors are recalculated for the final unit cell
     Results may differ from those at the preceding step.

     bravais-lattice index     =            0
     lattice parameter (alat)  =       9.9235  a.u.
     unit-cell volume          =    1417.3772 (a.u.)^3
     number of atoms/cell      =           12
     number of atomic types    =            2
     number of electrons       =       256.00
     number of Kohn-Sham states=          154
     kinetic-energy cutoff     =      40.0000  Ry
     charge density cutoff     =     160.0000  Ry
     convergence threshold     =      1.7E-05
     mixing beta               =       0.7000
     number of iterations used =            8  plain     mixing
     Exchange-correlation      = SLA-PZ-NOGX-NOGC ( 1 1 0 0 0)
     EXX-fraction              =        0.00

     celldm(1)=   9.923489  celldm(2)=   0.000000  celldm(3)=   0.000000
     celldm(4)=   0.000000  celldm(5)=   0.000000  celldm(6)=   0.000000

     crystal axes: (cart. coord. in units of alat)
               a(1) = (   1.013756   0.000000   0.000000 )
               a(2) = (  -0.506878   0.877938   0.000000 )
               a(3) = (   0.000000   0.000000   1.629652 )

     reciprocal axes: (cart. coord. in units 2 pi/alat)
               b(1) = (  0.986431  0.569516  0.000000 )
               b(2) = (  0.000000  1.139032  0.000000 )
               b(3) = (  0.000000  0.000000  0.613628 )

     PseudoPot. # 1 for Er read from file:
     /home/cwx6513/pp.La/Er.UPF
     MD5 check sum: e152ae21b84514339d8526f066caf99b
     Pseudo is Norm-conserving, Zval = 22.0
     Generated in analytical, separable form
     Using radial grid of 1267 points,  6 beta functions with:
                l(1) =   0
                l(2) =   0
                l(3) =   1
                l(4) =   1
                l(5) =   2
                l(6) =   3

     PseudoPot. # 2 for Ho read from file:
     /home/cwx6513/pp.La/Ho.UPF
     MD5 check sum: f307ee11bce99f5b724fa279e3790763
     Pseudo is Norm-conserving, Zval = 21.0
     Generated in analytical, separable form
     Using radial grid of 1265 points,  6 beta functions with:
                l(1) =   0
                l(2) =   0
                l(3) =   1
                l(4) =   1
                l(5) =   2
                l(6) =   3

     atomic species   valence    mass     pseudopotential
        Mg            22.00    24.30500     Er( 1.00)
        Zn            21.00    65.39000     Ho( 1.00)

     24 Sym. Ops., with inversion, found (12 have fractional translation)

   Cartesian axes

     site n.     atom                  positions (alat units)
         1           Mg  tau(   1) = (  -0.0000005   0.5852925   0.1045662  )
         2           Mg  tau(   2) = (   0.5068784   0.2926458   0.9193924  )
         3           Mg  tau(   3) = (   0.5068784   0.2926458   1.5250860  )
         4           Mg  tau(   4) = (  -0.0000005   0.5852925   0.7102599  )
         5           Zn  tau(   5) = (   0.0000000   0.0000000   0.0000000  )
         6           Zn  tau(   6) = (   0.0000000   0.0000000   0.8148261  )
         7           Zn  tau(   7) = (   0.0000000   0.3032672   1.2222392  )
         8           Zn  tau(   8) = (   0.7511187   0.1516336   0.4074131  )
         9           Zn  tau(   9) = (   0.2626371   0.1516336   0.4074131  )
        10           Zn  tau(  10) = (   0.2442408   0.7263047   1.2222392  )
        11           Zn  tau(  11) = (  -0.2442408   0.7263047   1.2222392  )
        12           Zn  tau(  12) = (   0.5068779   0.5746711   0.4074131  )

     number of k points=    12  gaussian smearing, width (Ry)=  0.1000
                       cart. coord. in units 2pi/alat
        k(    1) = (   0.0000000   0.0000000   0.0000000), wk =   0.0833333
        k(    2) = (   0.0000000   0.0000000   0.1534070), wk =   0.1666667
        k(    3) = (   0.0000000   0.0000000  -0.3068139), wk =   0.0833333
        k(    4) = (   0.0000000   0.3796774   0.0000000), wk =   0.1666667
        k(    5) = (   0.0000000   0.3796774   0.1534070), wk =   0.3333333
        k(    6) = (   0.0000000   0.3796774  -0.3068139), wk =   0.1666667
        k(    7) = (  -0.4932154  -0.2847580   0.0000000), wk =   0.0833333
        k(    8) = (  -0.4932154  -0.2847580   0.1534070), wk =   0.1666667
        k(    9) = (  -0.4932154  -0.2847580  -0.3068139), wk =   0.0833333
        k(   10) = (  -0.4932154   0.0949193   0.0000000), wk =   0.1666667
        k(   11) = (  -0.4932154   0.0949193   0.1534070), wk =   0.3333333
        k(   12) = (  -0.4932154   0.0949193  -0.3068139), wk =   0.1666667

     Largest allocated arrays     est. size (Mb)     dimensions
     Largest temporary arrays     est. size (Mb)     dimensions

     Initial potential from superposition of free atoms

     Starting from uniform charge
     Starting wfc are    0 randomized atomic wfcs

     Writing output data file Prototype-La-hP12-MgZn2.save

     Self-consistent Calculation

[...]

     iteration #  9     ecut=    40.00 Ry     beta=0.70
     CG style diagonalization
     c_bands:  1 eigenvalues not converged
     ethr =  1.59E-06,  avg # of iterations =  3.8

[...]

     total energy              =   -3661.80659190 Ry
     Harris-Foulkes estimate   =   -3661.80666281 Ry
     estimated scf accuracy    <       0.00012935 Ry

     iteration # 11     ecut=    40.00 Ry     beta=0.70
     CG style diagonalization
     ethr =  5.05E-08,  avg # of iterations =  3.4

     End of self-consistent calculation

[...]

          k = 0.0000 0.3797-0.3068 (  6050 PWs)   bands (ev):

[...]

          k =-0.4932 0.0949-0.3068 (  6068 PWs)   bands (ev):

   -68.4382 -68.4382 -68.4296 -68.4296 -60.5777 -60.5777 -60.5373 -60.5373
   -60.4996 -60.4996 -60.4956 -60.4956 -30.4451 -30.4451 -30.4397 -30.4397
   -30.4317 -30.4317 -30.4146 -30.4145 -30.3985 -30.3985 -30.3951 -30.3951
   -25.4622 -25.4622 -25.2387 -25.2387 -24.9776 -24.9776 -24.9150 -24.9150
   -24.8602 -24.8602 -24.8275 -24.8275 -24.7125 -24.7125 -24.6306 -24.6305
   -24.5460 -24.5460 -24.5112 -24.5112 -24.5054 -24.5054 -24.4885 -24.4885
    15.3339  15.3339  15.5231  15.5231  15.6209  15.6209  15.6844  15.6845
    15.7696  15.7696  15.8954  15.8954  15.9332  15.9332  16.0942  16.0942
    16.2090  16.2090  16.2682  16.2682  16.4146  16.4146  16.6102  16.6102
    16.8951  16.8951  17.0629  17.0629  17.2513  17.2513  17.7907  17.7907
    17.9268  17.9268  18.2163  18.2163  18.4340  18.4340  18.5538  18.5538
    18.8006  18.8006  19.1467  19.1467  19.4973  19.4973  19.5487  19.5487
    19.6919  19.6919  19.8494  19.8494  20.1420  20.1420  20.2716  20.2716
    20.3684  20.3684  20.6314  20.6314  21.3987  21.3987  22.0945  22.0945
    23.9729  23.9729  26.4543  26.4543  28.0252  28.0252  28.5680  28.5680
    29.6142  29.6142  31.3411  31.3411  33.3104  33.3104  34.2008  34.2008
    34.8999  34.8999  35.5724  35.5724  35.9674  35.9675  36.4150  36.4150
    36.9037  36.9037  37.2276  37.2276  37.4143  37.4143  38.0667  38.0667
    38.3347  38.3347  39.1380  39.1380  39.7175  39.7176  40.0244  40.0245
    40.7326  40.7330

     the Fermi energy is    33.8102 ev

!    total energy              =   -3661.80661497 Ry
     Harris-Foulkes estimate   =   -3661.80661984 Ry
     estimated scf accuracy    <       0.00000545 Ry

     The total energy is the sum of the following terms:

     one-electron contribution =    -706.48139449 Ry
     hartree contribution      =     557.83057096 Ry
     xc contribution           =    -322.61714275 Ry
     ewald contribution        =   -3190.19892655 Ry
     smearing contrib. (-TS)   =      -0.33972214 Ry

     convergence has been achieved in  11 iterations

     Forces acting on atoms (Ry/au):

     atom    1 type  1   force =     0.00000000    0.00000000    0.01406861
     atom    2 type  1   force =     0.00000000    0.00000000    0.01406861
     atom    3 type  1   force =     0.00000000    0.00000000   -0.01406861
     atom    4 type  1   force =     0.00000000    0.00000000   -0.01406861
     atom    5 type  2   force =     0.00000000    0.00000000    0.00000000
     atom    6 type  2   force =     0.00000000    0.00000000    0.00000000
     atom    7 type  2   force =     0.00000000   -0.02715226    0.00000000
     atom    8 type  2   force =     0.02351455   -0.01357613    0.00000000
     atom    9 type  2   force =    -0.02351455   -0.01357613    0.00000000
     atom   10 type  2   force =     0.02351455    0.01357613    0.00000000
     atom   11 type  2   force =    -0.02351455    0.01357613    0.00000000
     atom   12 type  2   force =     0.00000000    0.02715226    0.00000000

     Total force =     0.072216     Total SCF correction =     0.000000

     entering subroutine stress ...

          total   stress  (Ry/bohr**3)                   (kbar)     P=  889.02
   0.00614929   0.00000000   0.00000000        904.59      0.00      0.00
   0.00000000   0.00614929   0.00000000          0.00    904.59      0.00
   0.00000000   0.00000000   0.00583182          0.00      0.00    857.89

     Writing output data file Prototype-La-hP12-MgZn2.save

     General routines

     Parallel routines

   This run was terminated on:  23:21:11  22Mar2018

   JOB DONE.