     Program PWSCF v.5.0.2 starts on 22Mar2018 at 22:44:12

     Current dimensions of program PWSCF are:
     Max number of different atomic species (ntypx) = 10
     Max number of k-points (npk) =  40000
     Max angular momentum in pseudopotentials (lmaxx) =  3
     Waiting for input...
     Reading input from standard input

     Subspace diagonalization in iterative solution of the eigenvalue problem:
     a serial algorithm will be used

     bravais-lattice index     =            0
     lattice parameter (alat)  =       8.5346  a.u.
     unit-cell volume          =     621.6493 (a.u.)^3
     number of atoms/cell      =            8
     number of atomic types    =            2
     number of electrons       =       174.00
     number of Kohn-Sham states=          104
     kinetic-energy cutoff     =      40.0000  Ry
     charge density cutoff     =     160.0000  Ry
     convergence threshold     =      1.0E-04
     mixing beta               =       0.7000
     number of iterations used =            8  plain     mixing
     Exchange-correlation      = SLA-PZ-NOGX-NOGC ( 1 1 0 0 0)
     EXX-fraction              =        0.00
     nstep                     =           50

     celldm(1)=   8.534573  celldm(2)=   0.000000  celldm(3)=   0.000000
     celldm(4)=   0.000000  celldm(5)=   0.000000  celldm(6)=   0.000000

     crystal axes: (cart. coord. in units of alat)
               a(1) = (   1.000000   0.000000   0.000000 )
               a(2) = (   0.000000   1.000000   0.000000 )
               a(3) = (   0.000000   0.000000   1.000000 )

     reciprocal axes: (cart. coord. in units 2 pi/alat)
               b(1) = (  1.000000  0.000000  0.000000 )
               b(2) = (  0.000000  1.000000  0.000000 )
               b(3) = (  0.000000  0.000000  1.000000 )

     PseudoPot. # 1 for Er read from file:
     /home/cwx6513/pp.La/Er.UPF
     MD5 check sum: e152ae21b84514339d8526f066caf99b
     Pseudo is Norm-conserving, Zval = 22.0
     Generated in analytical, separable form
     Using radial grid of 1267 points,  6 beta functions with:
                l(1) =   0
                l(2) =   0
                l(3) =   1
                l(4) =   1
                l(5) =   2
                l(6) =   3

     PseudoPot. # 2 for Ho read from file:
     /home/cwx6513/pp.La/Ho.UPF
     MD5 check sum: f307ee11bce99f5b724fa279e3790763
     Pseudo is Norm-conserving, Zval = 21.0
     Generated in analytical, separable form
     Using radial grid of 1265 points,  6 beta functions with:
                l(1) =   0
                l(2) =   0
                l(3) =   1
                l(4) =   1
                l(5) =   2
                l(6) =   3

     atomic species   valence    mass     pseudopotential
        Cr            22.00    51.99610     Er( 1.00)
        Si            21.00    28.08550     Ho( 1.00)

     48 Sym. Ops., with inversion, found (24 have fractional translation)

   Cartesian axes

     site n.     atom                  positions (alat units)
         1           Cr  tau(   1) = (   0.0000000   0.5000000   0.2500000  )
         2           Cr  tau(   2) = (   0.0000000   0.5000000   0.7500000  )
         3           Cr  tau(   3) = (   0.5000000   0.7500000   0.0000000  )
         4           Cr  tau(   4) = (   0.5000000   0.2500000   0.0000000  )
         5           Cr  tau(   5) = (   0.7500000   0.0000000   0.5000000  )
         6           Cr  tau(   6) = (   0.2500000   0.0000000   0.5000000  )
         7           Si  tau(   7) = (   0.5000000   0.5000000   0.5000000  )
         8           Si  tau(   8) = (   0.0000000   0.0000000   0.0000000  )

     number of k points=    48  gaussian smearing, width (Ry)=  0.1000
                       cart. coord. in units 2pi/alat
        k(    1) = (   0.0000000   0.0000000   0.0000000), wk =   0.0095238
        k(    2) = (   0.0000000   0.0000000   0.1428571), wk =   0.0190476
        k(    3) = (   0.0000000   0.0000000   0.2857143), wk =   0.0190476
        k(    4) = (   0.0000000   0.0000000   0.4285714), wk =   0.0190476
        k(    5) = (   0.0000000   0.1666667   0.0000000), wk =   0.0190476
        k(    6) = (   0.0000000   0.1666667   0.1428571), wk =   0.0380952
        k(    7) = (   0.0000000   0.1666667   0.2857143), wk =   0.0380952
        k(    8) = (   0.0000000   0.1666667   0.4285714), wk =   0.0380952
        k(    9) = (   0.0000000   0.3333333   0.0000000), wk =   0.0190476
        k(   10) = (   0.0000000   0.3333333   0.1428571), wk =   0.0380952
        k(   11) = (   0.0000000   0.3333333   0.2857143), wk =   0.0380952
        k(   12) = (   0.0000000   0.3333333   0.4285714), wk =   0.0380952
        k(   13) = (   0.0000000  -0.5000000   0.0000000), wk =   0.0095238
        k(   14) = (   0.0000000  -0.5000000   0.1428571), wk =   0.0190476
        k(   15) = (   0.0000000  -0.5000000   0.2857143), wk =   0.0190476
        k(   16) = (   0.0000000  -0.5000000   0.4285714), wk =   0.0190476
        k(   17) = (   0.2000000   0.0000000   0.0000000), wk =   0.0190476
        k(   18) = (   0.2000000   0.0000000   0.1428571), wk =   0.0380952
        k(   19) = (   0.2000000   0.0000000   0.2857143), wk =   0.0380952
        k(   20) = (   0.2000000   0.0000000   0.4285714), wk =   0.0380952
        k(   21) = (   0.2000000   0.1666667   0.0000000), wk =   0.0380952
        k(   22) = (   0.2000000   0.1666667   0.1428571), wk =   0.0761905
        k(   23) = (   0.2000000   0.1666667   0.2857143), wk =   0.0761905
        k(   24) = (   0.2000000   0.1666667   0.4285714), wk =   0.0761905
        k(   25) = (   0.2000000   0.3333333   0.0000000), wk =   0.0380952
        k(   26) = (   0.2000000   0.3333333   0.1428571), wk =   0.0761905
        k(   27) = (   0.2000000   0.3333333   0.2857143), wk =   0.0761905
        k(   28) = (   0.2000000   0.3333333   0.4285714), wk =   0.0761905
        k(   29) = (   0.2000000  -0.5000000   0.0000000), wk =   0.0190476
        k(   30) = (   0.2000000  -0.5000000   0.1428571), wk =   0.0380952
        k(   31) = (   0.2000000  -0.5000000   0.2857143), wk =   0.0380952
        k(   32) = (   0.2000000  -0.5000000   0.4285714), wk =   0.0380952
        k(   33) = (   0.4000000   0.0000000   0.0000000), wk =   0.0190476
        k(   34) = (   0.4000000   0.0000000   0.1428571), wk =   0.0380952
        k(   35) = (   0.4000000   0.0000000   0.2857143), wk =   0.0380952
        k(   36) = (   0.4000000   0.0000000   0.4285714), wk =   0.0380952
        k(   37) = (   0.4000000   0.1666667   0.0000000), wk =   0.0380952
        k(   38) = (   0.4000000   0.1666667   0.1428571), wk =   0.0761905
        k(   39) = (   0.4000000   0.1666667   0.2857143), wk =   0.0761905
        k(   40) = (   0.4000000   0.1666667   0.4285714), wk =   0.0761905
        k(   41) = (   0.4000000   0.3333333   0.0000000), wk =   0.0380952
        k(   42) = (   0.4000000   0.3333333   0.1428571), wk =   0.0761905
        k(   43) = (   0.4000000   0.3333333   0.2857143), wk =   0.0761905
        k(   44) = (   0.4000000   0.3333333   0.4285714), wk =   0.0761905
        k(   45) = (   0.4000000  -0.5000000   0.0000000), wk =   0.0190476
        k(   46) = (   0.4000000  -0.5000000   0.1428571), wk =   0.0380952
        k(   47) = (   0.4000000  -0.5000000   0.2857143), wk =   0.0380952
        k(   48) = (   0.4000000  -0.5000000   0.4285714), wk =   0.0380952

     Largest allocated arrays     est. size (Mb)     dimensions
     Largest temporary arrays     est. size (Mb)     dimensions

     Initial potential from superposition of free atoms

     Starting from uniform charge
     Starting wfc are    0 randomized atomic wfcs

     Self-consistent Calculation

     iteration #  1     ecut=    40.00 Ry     beta=0.70
     CG style diagonalization
     c_bands:  3 eigenvalues not converged
     c_bands:  3 eigenvalues not converged
     c_bands:  4 eigenvalues not converged
     c_bands:  4 eigenvalues not converged
     c_bands:  2 eigenvalues not converged
     c_bands:  4 eigenvalues not converged
     c_bands:  4 eigenvalues not converged
     c_bands:  4 eigenvalues not converged
     c_bands:  5 eigenvalues not converged
     c_bands:  2 eigenvalues not converged
     c_bands:  3 eigenvalues not converged
     c_bands:  3 eigenvalues not converged
     c_bands:  1 eigenvalues not converged
     c_bands:  5 eigenvalues not converged
     c_bands:  2 eigenvalues not converged
     c_bands:  2 eigenvalues not converged
     c_bands:  4 eigenvalues not converged
     c_bands:  2 eigenvalues not converged
     c_bands:  4 eigenvalues not converged
     c_bands:  4 eigenvalues not converged
     c_bands:  3 eigenvalues not converged
     c_bands:  3 eigenvalues not converged
     c_bands:  1 eigenvalues not converged
     c_bands:  2 eigenvalues not converged
     c_bands:  2 eigenvalues not converged
     ethr =  1.00E-02,  avg # of iterations = 13.9

     total energy              =   -2331.07106823 Ry
     Harris-Foulkes estimate   =   -2931.56764945 Ry
     estimated scf accuracy    <     767.33953130 Ry

[...]

     iteration #  3     ecut=    40.00 Ry     beta=0.70
     CG style diagonalization
     ethr =  1.00E-02,  avg # of iterations =  5.3

[...]

     End of self-consistent calculation

          k = 0.0000 0.0000 0.0000 (  2601 PWs)   bands (ev):

   -51.9552 -51.9552 -51.8989 -51.5034 -51.5034 -51.5034 -43.2618 -43.2166
   -15.8126 -15.8126 -15.6488 -14.2957 -14.2957 -14.2957 -13.8156 -13.8156
   -13.8156 -13.7147 -13.7147 -13.7147 -13.5982 -13.5982 -13.5982 -13.1515
   -13.1515 -13.1515  -7.7606  -7.7606  -7.7606  -7.7545  -7.7545  -7.7545
    26.3468  26.3468  26.5762  27.7042  27.7042  27.7042  29.5068  29.6416
    29.6416  29.6416  29.8244  29.9525  30.2344  30.2344  30.2790  30.2790
    30.2790  32.9991  32.9991  32.9991  33.0343  33.0343  33.2652  33.2652
    33.2652  33.6900  33.6900  33.6900  34.3186  34.3186  34.4928  34.4928
    34.4928  36.1979  36.1979  36.1979  36.2155  36.2155  37.2515  37.2515
    37.2515  42.5276  42.5276  42.5276  45.5828  45.5828  45.9111  49.6316
    50.7453  50.7453  50.7453  51.9804  51.9804  52.2134  52.2134  52.2134
    53.1932  53.1932  53.1932  53.4887  53.4887  53.4887  54.9602  54.9602
    54.9602  55.5857  55.9815  55.9815  55.9814  59.8234  60.8630  60.8626

[...]

     the Fermi energy is    53.3284 ev

!    total energy              =   -2550.71317155 Ry
     Harris-Foulkes estimate   =   -2550.71322816 Ry
     estimated scf accuracy    <       0.00006414 Ry

     The total energy is the sum of the following terms:

     one-electron contribution =     -21.17906560 Ry
     hartree contribution      =     256.04658918 Ry
     xc contribution           =    -228.99317261 Ry
     ewald contribution        =   -2556.22076695 Ry
     smearing contrib. (-TS)   =      -0.36675558 Ry

     convergence has been achieved in   7 iterations

     Forces acting on atoms (Ry/au):

     atom    1 type  1   force =     0.00000000    0.00000000    0.00000000
     atom    2 type  1   force =     0.00000000    0.00000000    0.00000000
     atom    3 type  1   force =     0.00000000    0.00000000    0.00000000
[...]

     new unit-cell volume =   1043.10409 a.u.^3 (   154.57208 Ang^3 )

[...]

ATOMIC_POSITIONS (crystal)
Cr       0.000000000   0.500000000   0.250000000
Cr       0.000000000   0.500000000   0.750000000
Cr       0.500000000   0.750000000   0.000000000
Cr       0.500000000   0.250000000   0.000000000
Cr       0.750000000   0.000000000   0.500000000
Cr       0.250000000   0.000000000   0.500000000
Si       0.500000000   0.500000000   0.500000000
Si       0.000000000   0.000000000   0.000000000

     Writing output data file Prototype-La-cP8-Cr3Si.save
     NEW-OLD atomic charge density approx. for the potential
     NEW k-points:
        k(    1) = (   0.0000000   0.0000000   0.0000000), wk =   0.0095238
        k(    2) = (   0.0000000   0.0000000   0.1202194), wk =   0.0190476
        k(    3) = (   0.0000000   0.0000000   0.2404388), wk =   0.0190476
        k(    4) = (   0.0000000   0.0000000   0.3606582), wk =   0.0190476
        k(    5) = (   0.0000000   0.1402560   0.0000000), wk =   0.0190476
        k(    6) = (   0.0000000   0.1402560   0.1202194), wk =   0.0380952
        k(    7) = (   0.0000000   0.1402560   0.2404388), wk =   0.0380952
        k(    8) = (   0.0000000   0.1402560   0.3606582), wk =   0.0380952
        k(    9) = (   0.0000000   0.2805119   0.0000000), wk =   0.0190476
        k(   10) = (   0.0000000   0.2805119   0.1202194), wk =   0.0380952
        k(   11) = (   0.0000000   0.2805119   0.2404388), wk =   0.0380952
        k(   12) = (   0.0000000   0.2805119   0.3606582), wk =   0.0380952
        k(   13) = (   0.0000000  -0.4207679   0.0000000), wk =   0.0095238
        k(   14) = (   0.0000000  -0.4207679   0.1202194), wk =   0.0190476
        k(   15) = (   0.0000000  -0.4207679   0.2404388), wk =   0.0190476
        k(   16) = (   0.0000000  -0.4207679   0.3606582), wk =   0.0190476
        k(   17) = (   0.1683072   0.0000000   0.0000000), wk =   0.0190476
        k(   18) = (   0.1683072   0.0000000   0.1202194), wk =   0.0380952
        k(   19) = (   0.1683072   0.0000000   0.2404388), wk =   0.0380952
        k(   20) = (   0.1683072   0.0000000   0.3606582), wk =   0.0380952
        k(   21) = (   0.1683072   0.1402560   0.0000000), wk =   0.0380952
        k(   22) = (   0.1683072   0.1402560   0.1202194), wk =   0.0761905
        k(   23) = (   0.1683072   0.1402560   0.2404388), wk =   0.0761905
        k(   24) = (   0.1683072   0.1402560   0.3606582), wk =   0.0761905
        k(   25) = (   0.1683072   0.2805119   0.0000000), wk =   0.0380952
        k(   26) = (   0.1683072   0.2805119   0.1202194), wk =   0.0761905
        k(   27) = (   0.1683072   0.2805119   0.2404388), wk =   0.0761905
        k(   28) = (   0.1683072   0.2805119   0.3606582), wk =   0.0761905
        k(   29) = (   0.1683072  -0.4207679   0.0000000), wk =   0.0190476
        k(   30) = (   0.1683072  -0.4207679   0.1202194), wk =   0.0380952
        k(   31) = (   0.1683072  -0.4207679   0.2404388), wk =   0.0380952
        k(   32) = (   0.1683072  -0.4207679   0.3606582), wk =   0.0380952
        k(   33) = (   0.3366143   0.0000000   0.0000000), wk =   0.0190476
        k(   34) = (   0.3366143   0.0000000   0.1202194), wk =   0.0380952
        k(   35) = (   0.3366143   0.0000000   0.2404388), wk =   0.0380952
        k(   36) = (   0.3366143   0.0000000   0.3606582), wk =   0.0380952
        k(   37) = (   0.3366143   0.1402560   0.0000000), wk =   0.0380952
        k(   38) = (   0.3366143   0.1402560   0.1202194), wk =   0.0761905
        k(   39) = (   0.3366143   0.1402560   0.2404388), wk =   0.0761905
        k(   40) = (   0.3366143   0.1402560   0.3606582), wk =   0.0761905
        k(   41) = (   0.3366143   0.2805119   0.0000000), wk =   0.0380952
        k(   42) = (   0.3366143   0.2805119   0.1202194), wk =   0.0761905
        k(   43) = (   0.3366143   0.2805119   0.2404388), wk =   0.0761905
        k(   44) = (   0.3366143   0.2805119   0.3606582), wk =   0.0761905
        k(   45) = (   0.3366143  -0.4207679   0.0000000), wk =   0.0190476
        k(   46) = (   0.3366143  -0.4207679   0.1202194), wk =   0.0380952
        k(   47) = (   0.3366143  -0.4207679   0.2404388), wk =   0.0380952
        k(   48) = (   0.3366143  -0.4207679   0.3606582), wk =   0.0380952

[...]

          total   stress  (Ry/bohr**3)                   (kbar)     P=-1063.14
  -0.00722706   0.00000000   0.00000000      -1063.14      0.00      0.00
   0.00000000  -0.00722706   0.00000000          0.00  -1063.14      0.00
   0.00000000   0.00000000  -0.00722706          0.00      0.00  -1063.14

     The maximum number of steps has been reached.

     End of BFGS Geometry Optimization
Begin final coordinates
     new unit-cell volume =   1043.10409 a.u.^3 (   154.57208 Ang^3 )

CELL_PARAMETERS (alat=  8.53457320)
   1.188303587   0.000000000   0.000000000
   0.000000000   1.188303587   0.000000000
   0.000000000   0.000000000   1.188303587

ATOMIC_POSITIONS (crystal)
Cr       0.000000000   0.500000000   0.250000000
Cr       0.000000000   0.500000000   0.750000000
Cr       0.500000000   0.750000000   0.000000000
Cr       0.500000000   0.250000000   0.000000000
Cr       0.750000000   0.000000000   0.500000000
Cr       0.250000000   0.000000000   0.500000000
Si       0.500000000   0.500000000   0.500000000
Si       0.000000000   0.000000000   0.000000000
End final coordinates

     A final scf calculation at the relaxed structure.
     The G-vectors are recalculated for the final unit cell
     Results may differ from those at the preceding step.

     bravais-lattice index     =            0
     lattice parameter (alat)  =       8.5346  a.u.
     unit-cell volume          =    1043.1041 (a.u.)^3
     number of atoms/cell      =            8
     number of atomic types    =            2
     number of electrons       =       174.00
     number of Kohn-Sham states=          104
     kinetic-energy cutoff     =      40.0000  Ry
     charge density cutoff     =     160.0000  Ry
     convergence threshold     =      1.0E-06
     mixing beta               =       0.7000
     number of iterations used =            8  plain     mixing
     Exchange-correlation      = SLA-PZ-NOGX-NOGC ( 1 1 0 0 0)
     EXX-fraction              =        0.00

     celldm(1)=   8.534573  celldm(2)=   0.000000  celldm(3)=   0.000000
     celldm(4)=   0.000000  celldm(5)=   0.000000  celldm(6)=   0.000000

     crystal axes: (cart. coord. in units of alat)
               a(1) = (   1.188304   0.000000   0.000000 )
               a(2) = (   0.000000   1.188304   0.000000 )
               a(3) = (   0.000000   0.000000   1.188304 )

     reciprocal axes: (cart. coord. in units 2 pi/alat)
               b(1) = (  0.841536  0.000000  0.000000 )
               b(2) = (  0.000000  0.841536  0.000000 )
               b(3) = (  0.000000  0.000000  0.841536 )

     PseudoPot. # 1 for Er read from file:
     /home/cwx6513/pp.La/Er.UPF
     MD5 check sum: e152ae21b84514339d8526f066caf99b
     Pseudo is Norm-conserving, Zval = 22.0
     Generated in analytical, separable form
     Using radial grid of 1267 points,  6 beta functions with:
                l(1) =   0
                l(2) =   0
                l(3) =   1
                l(4) =   1
                l(5) =   2
                l(6) =   3

     PseudoPot. # 2 for Ho read from file:
     /home/cwx6513/pp.La/Ho.UPF
     MD5 check sum: f307ee11bce99f5b724fa279e3790763
     Pseudo is Norm-conserving, Zval = 21.0
     Generated in analytical, separable form
     Using radial grid of 1265 points,  6 beta functions with:
                l(1) =   0
                l(2) =   0
                l(3) =   1
                l(4) =   1
                l(5) =   2
                l(6) =   3

     atomic species   valence    mass     pseudopotential
        Cr            22.00    51.99610     Er( 1.00)
        Si            21.00    28.08550     Ho( 1.00)

     48 Sym. Ops., with inversion, found (24 have fractional translation)

   Cartesian axes

     site n.     atom                  positions (alat units)
         1           Cr  tau(   1) = (   0.0000000   0.5941518   0.2970759  )
         2           Cr  tau(   2) = (   0.0000000   0.5941518   0.8912277  )
         3           Cr  tau(   3) = (   0.5941518   0.8912277   0.0000000  )
         4           Cr  tau(   4) = (   0.5941518   0.2970759   0.0000000  )
         5           Cr  tau(   5) = (   0.8912277   0.0000000   0.5941518  )
         6           Cr  tau(   6) = (   0.2970759   0.0000000   0.5941518  )
         7           Si  tau(   7) = (   0.5941518   0.5941518   0.5941518  )
         8           Si  tau(   8) = (   0.0000000   0.0000000   0.0000000  )

     number of k points=    48  gaussian smearing, width (Ry)=  0.1000
                       cart. coord. in units 2pi/alat
        k(    1) = (   0.0000000   0.0000000   0.0000000), wk =   0.0095238
        k(    2) = (   0.0000000   0.0000000   0.1202194), wk =   0.0190476
        k(    3) = (   0.0000000   0.0000000   0.2404388), wk =   0.0190476
        k(    4) = (   0.0000000   0.0000000   0.3606582), wk =   0.0190476
        k(    5) = (   0.0000000   0.1402560   0.0000000), wk =   0.0190476
        k(    6) = (   0.0000000   0.1402560   0.1202194), wk =   0.0380952
        k(    7) = (   0.0000000   0.1402560   0.2404388), wk =   0.0380952
        k(    8) = (   0.0000000   0.1402560   0.3606582), wk =   0.0380952
        k(    9) = (   0.0000000   0.2805119   0.0000000), wk =   0.0190476
        k(   10) = (   0.0000000   0.2805119   0.1202194), wk =   0.0380952
        k(   11) = (   0.0000000   0.2805119   0.2404388), wk =   0.0380952
        k(   12) = (   0.0000000   0.2805119   0.3606582), wk =   0.0380952
        k(   13) = (   0.0000000  -0.4207679   0.0000000), wk =   0.0095238
        k(   14) = (   0.0000000  -0.4207679   0.1202194), wk =   0.0190476
        k(   15) = (   0.0000000  -0.4207679   0.2404388), wk =   0.0190476
        k(   16) = (   0.0000000  -0.4207679   0.3606582), wk =   0.0190476
        k(   17) = (   0.1683072   0.0000000   0.0000000), wk =   0.0190476
        k(   18) = (   0.1683072   0.0000000   0.1202194), wk =   0.0380952
        k(   19) = (   0.1683072   0.0000000   0.2404388), wk =   0.0380952
        k(   20) = (   0.1683072   0.0000000   0.3606582), wk =   0.0380952
        k(   21) = (   0.1683072   0.1402560   0.0000000), wk =   0.0380952
        k(   22) = (   0.1683072   0.1402560   0.1202194), wk =   0.0761905
        k(   23) = (   0.1683072   0.1402560   0.2404388), wk =   0.0761905
        k(   24) = (   0.1683072   0.1402560   0.3606582), wk =   0.0761905
        k(   25) = (   0.1683072   0.2805119   0.0000000), wk =   0.0380952
        k(   26) = (   0.1683072   0.2805119   0.1202194), wk =   0.0761905
        k(   27) = (   0.1683072   0.2805119   0.2404388), wk =   0.0761905
        k(   28) = (   0.1683072   0.2805119   0.3606582), wk =   0.0761905
        k(   29) = (   0.1683072  -0.4207679   0.0000000), wk =   0.0190476
        k(   30) = (   0.1683072  -0.4207679   0.1202194), wk =   0.0380952
        k(   31) = (   0.1683072  -0.4207679   0.2404388), wk =   0.0380952
        k(   32) = (   0.1683072  -0.4207679   0.3606582), wk =   0.0380952
        k(   33) = (   0.3366143   0.0000000   0.0000000), wk =   0.0190476
        k(   34) = (   0.3366143   0.0000000   0.1202194), wk =   0.0380952
        k(   35) = (   0.3366143   0.0000000   0.2404388), wk =   0.0380952
        k(   36) = (   0.3366143   0.0000000   0.3606582), wk =   0.0380952
        k(   37) = (   0.3366143   0.1402560   0.0000000), wk =   0.0380952
        k(   38) = (   0.3366143   0.1402560   0.1202194), wk =   0.0761905
        k(   39) = (   0.3366143   0.1402560   0.2404388), wk =   0.0761905
        k(   40) = (   0.3366143   0.1402560   0.3606582), wk =   0.0761905
        k(   41) = (   0.3366143   0.2805119   0.0000000), wk =   0.0380952
        k(   42) = (   0.3366143   0.2805119   0.1202194), wk =   0.0761905
        k(   43) = (   0.3366143   0.2805119   0.2404388), wk =   0.0761905
        k(   44) = (   0.3366143   0.2805119   0.3606582), wk =   0.0761905
        k(   45) = (   0.3366143  -0.4207679   0.0000000), wk =   0.0190476
        k(   46) = (   0.3366143  -0.4207679   0.1202194), wk =   0.0380952
        k(   47) = (   0.3366143  -0.4207679   0.2404388), wk =   0.0380952
        k(   48) = (   0.3366143  -0.4207679   0.3606582), wk =   0.0380952

     Largest allocated arrays     est. size (Mb)     dimensions
     Largest temporary arrays     est. size (Mb)     dimensions

     Initial potential from superposition of free atoms

     Starting from uniform charge
     Starting wfc are    0 randomized atomic wfcs

     Writing output data file Prototype-La-cP8-Cr3Si.save

     Self-consistent Calculation

[...]

     iteration #  8     ecut=    40.00 Ry     beta=0.70
     CG style diagonalization
     c_bands:  1 eigenvalues not converged
     c_bands:  1 eigenvalues not converged
     c_bands:  1 eigenvalues not converged
     c_bands:  1 eigenvalues not converged
     c_bands:  1 eigenvalues not converged
     c_bands:  1 eigenvalues not converged
     c_bands:  1 eigenvalues not converged
     c_bands:  1 eigenvalues not converged
     c_bands:  2 eigenvalues not converged
     c_bands:  1 eigenvalues not converged
     c_bands:  1 eigenvalues not converged
     c_bands:  1 eigenvalues not converged
     c_bands:  1 eigenvalues not converged
     c_bands:  1 eigenvalues not converged
     ethr =  2.07E-06,  avg # of iterations =  4.0

[...]

     total energy              =   -2561.18056702 Ry
     Harris-Foulkes estimate   =   -2561.18056897 Ry
     estimated scf accuracy    <       0.00000354 Ry

     iteration # 11     ecut=    40.00 Ry     beta=0.70
     CG style diagonalization
     ethr =  2.03E-09,  avg # of iterations =  3.4

     End of self-consistent calculation

[...]

          k = 0.3366-0.4208 0.3607 (  4470 PWs)   bands (ev):

   -71.7486 -71.7457 -71.7410 -71.7370 -71.7349 -71.7334 -62.5393 -62.5393
   -33.9264 -33.9113 -33.8589 -33.8589 -33.7996 -33.7822 -33.6907 -33.6903
   -33.6828 -33.6818 -33.6761 -33.6726 -33.6698 -33.6681 -33.6658 -33.6590
   -33.6579 -33.6553 -26.7470 -26.7469 -26.7421 -26.7420 -26.7415 -26.7413
    11.9503  12.0882  12.2496  12.2567  12.3051  12.3175  12.4071  12.4140
    12.4704  12.4802  12.5269  12.5409  12.5966  12.6019  12.6414  12.6512
    12.9335  12.9337  13.1141  13.1289  13.1344  13.1617  13.2654  13.3215
    13.3746  13.4133  13.4504  13.4730  13.5050  13.5083  16.8281  16.8429
    16.8532  16.9043  16.9604  16.9737  17.2355  17.2361  17.2500  17.2504
    19.0311  19.0707  20.0092  20.0879  20.4852  20.5927  21.5515  21.5586
    29.9042  30.0990  30.6606  30.7193  31.4556  31.7870  32.1187  32.1836
    32.3190  32.3478  32.8277  32.8479  33.1720  33.2673  33.4477  33.5099
    33.8551  33.9707  34.2216  34.2277  34.3970  34.5415  34.8128  34.8758

     the Fermi energy is    30.5369 ev

!    total energy              =   -2561.18056760 Ry
     Harris-Foulkes estimate   =   -2561.18056773 Ry
     estimated scf accuracy    <       0.00000015 Ry

     The total energy is the sum of the following terms:

     one-electron contribution =    -609.34270595 Ry
     hartree contribution      =     420.08356032 Ry
     xc contribution           =    -220.52510665 Ry
     ewald contribution        =   -2151.15126691 Ry
     smearing contrib. (-TS)   =      -0.24504841 Ry

     convergence has been achieved in  11 iterations

     Forces acting on atoms (Ry/au):

     atom    1 type  1   force =     0.00000000    0.00000000    0.00000000
     atom    2 type  1   force =     0.00000000    0.00000000    0.00000000
     atom    3 type  1   force =     0.00000000    0.00000000    0.00000000
     atom    4 type  1   force =     0.00000000    0.00000000    0.00000000
     atom    5 type  1   force =     0.00000000    0.00000000    0.00000000
     atom    6 type  1   force =     0.00000000    0.00000000    0.00000000
     atom    7 type  2   force =     0.00000000    0.00000000    0.00000000
     atom    8 type  2   force =     0.00000000    0.00000000    0.00000000

     Total force =     0.000000     Total SCF correction =     0.000000

     entering subroutine stress ...

          total   stress  (Ry/bohr**3)                   (kbar)     P=  348.89
   0.00237168   0.00000000   0.00000000        348.89      0.00      0.00
   0.00000000   0.00237168   0.00000000          0.00    348.89      0.00
   0.00000000   0.00000000   0.00237168          0.00      0.00    348.89

     Writing output data file Prototype-La-cP8-Cr3Si.save

     General routines

     Parallel routines

   This run was terminated on:  23:23: 3  22Mar2018

   JOB DONE.