     Program PWSCF v.5.0.2 starts on 23Mar2018 at  2:19:48

     Current dimensions of program PWSCF are:
     Max number of different atomic species (ntypx) = 10
     Max number of k-points (npk) =  40000
     Max angular momentum in pseudopotentials (lmaxx) =  3
     Waiting for input...
     Reading input from standard input

     Subspace diagonalization in iterative solution of the eigenvalue problem:
     a serial algorithm will be used

     bravais-lattice index     =            0
     lattice parameter (alat)  =       9.9235  a.u.
     unit-cell volume          =    1361.0366 (a.u.)^3
     number of atoms/cell      =           12
     number of atomic types    =            2
     number of electrons       =       232.00
     number of Kohn-Sham states=          139
     kinetic-energy cutoff     =      40.0000  Ry
     charge density cutoff     =     160.0000  Ry
     convergence threshold     =      1.0E-04
     mixing beta               =       0.7000
     number of iterations used =            8  plain     mixing
     Exchange-correlation      = SLA-PZ-NOGX-NOGC ( 1 1 0 0 0)
     EXX-fraction              =        0.00
     nstep                     =           50

     celldm(1)=   9.923489  celldm(2)=   0.000000  celldm(3)=   0.000000
     celldm(4)=   0.000000  celldm(5)=   0.000000  celldm(6)=   0.000000

     crystal axes: (cart. coord. in units of alat)
               a(1) = (   1.000000   0.000000   0.000000 )
               a(2) = (  -0.500000   0.866025   0.000000 )
               a(3) = (   0.000000   0.000000   1.608222 )

     reciprocal axes: (cart. coord. in units 2 pi/alat)
               b(1) = (  1.000000  0.577350  0.000000 )
               b(2) = (  0.000000  1.154701  0.000000 )
               b(3) = (  0.000000  0.000000  0.621805 )

     PseudoPot. # 1 for Dy read from file:
     /home/cwx6513/pp.La/Dy.UPF
     MD5 check sum: 9597327bec62616a94a14d07f3fd9936
     Pseudo is Norm-conserving, Zval = 20.0
     Generated in analytical, separable form
     Using radial grid of 1265 points,  6 beta functions with:
                l(1) =   0
                l(2) =   0
                l(3) =   1
                l(4) =   1
                l(5) =   2
                l(6) =   3

     PseudoPot. # 2 for Tb read from file:
     /home/cwx6513/pp.La/Tb.UPF
     MD5 check sum: 3d6088a3f0cf7fd2e110c43f7f8e95c2
     Pseudo is Norm-conserving, Zval = 19.0
     Generated in analytical, separable form
     Using radial grid of 1263 points,  6 beta functions with:
                l(1) =   0
                l(2) =   0
                l(3) =   1
                l(4) =   1
                l(5) =   2
                l(6) =   3

     atomic species   valence    mass     pseudopotential
        Mg            20.00    24.30500     Dy( 1.00)
        Zn            19.00    65.39000     Tb( 1.00)

     24 Sym. Ops., with inversion, found (12 have fractional translation)

   Cartesian axes

     site n.     atom                  positions (alat units)
         1           Mg  tau(   1) = (  -0.0000005   0.5773506   0.1003820  )
         2           Mg  tau(   2) = (   0.5000005   0.2886748   0.9044931  )
         3           Mg  tau(   3) = (   0.5000005   0.2886748   1.5078402  )
         4           Mg  tau(   4) = (  -0.0000005   0.5773506   0.7037291  )
         5           Zn  tau(   5) = (   0.0000000   0.0000000   0.0000000  )
         6           Zn  tau(   6) = (   0.0000000   0.0000000   0.8041111  )
         7           Zn  tau(   7) = (   0.0000000   0.2950739   1.2061667  )
         8           Zn  tau(   8) = (   0.7444585   0.1475370   0.4020556  )
         9           Zn  tau(   9) = (   0.2555415   0.1475370   0.4020556  )
        10           Zn  tau(  10) = (   0.2444585   0.7184884   1.2061667  )
        11           Zn  tau(  11) = (  -0.2444585   0.7184884   1.2061667  )
        12           Zn  tau(  12) = (   0.5000000   0.5709515   0.4020556  )

     number of k points=    12  gaussian smearing, width (Ry)=  0.1000
                       cart. coord. in units 2pi/alat
        k(    1) = (   0.0000000   0.0000000   0.0000000), wk =   0.0833333
        k(    2) = (   0.0000000   0.0000000   0.1554512), wk =   0.1666667
        k(    3) = (   0.0000000   0.0000000  -0.3109023), wk =   0.0833333
        k(    4) = (   0.0000000   0.3849002   0.0000000), wk =   0.1666667
        k(    5) = (   0.0000000   0.3849002   0.1554512), wk =   0.3333333
        k(    6) = (   0.0000000   0.3849002  -0.3109023), wk =   0.1666667
        k(    7) = (  -0.5000000  -0.2886751   0.0000000), wk =   0.0833333
        k(    8) = (  -0.5000000  -0.2886751   0.1554512), wk =   0.1666667
        k(    9) = (  -0.5000000  -0.2886751  -0.3109023), wk =   0.0833333
        k(   10) = (  -0.5000000   0.0962250   0.0000000), wk =   0.1666667
        k(   11) = (  -0.5000000   0.0962250   0.1554512), wk =   0.3333333
        k(   12) = (  -0.5000000   0.0962250  -0.3109023), wk =   0.1666667

     Largest allocated arrays     est. size (Mb)     dimensions
     Largest temporary arrays     est. size (Mb)     dimensions

     Initial potential from superposition of free atoms

     Starting from uniform charge
     Starting wfc are    0 randomized atomic wfcs

     Self-consistent Calculation

     iteration #  1     ecut=    40.00 Ry     beta=0.70
     CG style diagonalization
     ethr =  1.00E-02,  avg # of iterations = 17.3

     total energy              =   -2648.75753531 Ry
     Harris-Foulkes estimate   =   -3421.63674289 Ry
     estimated scf accuracy    <     993.93356276 Ry

[...]

     iteration #  3     ecut=    40.00 Ry     beta=0.70
     CG style diagonalization
     c_bands:  2 eigenvalues not converged
     ethr =  1.00E-02,  avg # of iterations =  7.8

[...]

     End of self-consistent calculation

          k = 0.0000 0.0000 0.0000 (  5769 PWs)   bands (ev):

   -52.3761 -52.3759 -52.3652 -52.3628 -45.6500 -45.6057 -45.3702 -45.3701
   -45.3667 -45.3666 -45.3331 -45.2701 -19.3587 -19.3564 -19.3564 -19.3513
   -19.3321 -19.3320 -19.2781 -19.2617 -19.2617 -19.2615 -19.2615 -19.2604
   -15.6022 -15.3083 -14.8086 -14.4417 -14.4417 -14.3789 -14.3788 -14.2485
   -14.2485 -14.0564 -13.8223 -13.8222 -13.7935 -13.7216 -13.7216 -13.3414
   -13.3251 -13.2813 -13.2813 -13.2737 -13.2737 -13.2622 -13.1949 -13.1949
    17.7672  18.4492  18.7183  19.1264  19.4207  19.4207  19.9615  19.9616
    20.0114  20.0171  20.3276  20.3276  20.4847  20.5011  20.5011  20.5477
    20.5477  20.7489  20.7897  20.7897  21.1042  21.1042  21.4958  21.5073
    21.5073  21.9426  21.9427  22.0171  22.0172  22.1433  22.1434  22.1501
    22.3988  22.3988  22.7137  22.7137  22.7530  23.5400  23.5400  23.6705
    23.9752  24.3557  24.3557  24.7555  24.8476  24.8477  25.3057  25.4907
    25.6736  25.7006  25.7007  26.0023  26.0023  26.0811  26.0812  26.5170
    26.5171  27.6483  27.6484  28.0288  28.0288  29.3158  29.3206  30.4499
    30.6272  30.6906  31.2554  31.2554  31.9186  31.9704  31.9704  33.3246
    33.8323  33.8324  34.2814  34.9210  35.4632  35.4633  35.8891  36.6376
    36.6376  38.0767  38.0768  38.1817  38.3044  38.3048  38.3416  38.6086
    39.0859  39.1078  39.1090

[...]

          k =-0.5000-0.2887 0.0000 (  5800 PWs)   bands (ev):

[...]

     the Fermi energy is    31.1160 ev

!    total energy              =   -2875.61667992 Ry
     Harris-Foulkes estimate   =   -2875.61673871 Ry
     estimated scf accuracy    <       0.00007353 Ry

     The total energy is the sum of the following terms:

     one-electron contribution =    -316.72982986 Ry
     hartree contribution      =     372.20858101 Ry
     xc contribution           =    -275.62640022 Ry
     ewald contribution        =   -2655.21836032 Ry
     smearing contrib. (-TS)   =      -0.25067053 Ry

     convergence has been achieved in  10 iterations

     Forces acting on atoms (Ry/au):

     atom    1 type  1   force =     0.00000000    0.00000000    0.01010099
     atom    2 type  1   force =     0.00000000    0.00000000    0.01010099
     atom    3 type  1   force =     0.00000000    0.00000000   -0.01010099
     atom    4 type  1   force =     0.00000000    0.00000000   -0.01010099
     atom    5 type  2   force =     0.00000000    0.00000000    0.00000000
     atom    6 type  2   force =     0.00000000    0.00000000    0.00000000
     atom    7 type  2   force =     0.00000000    0.03676357    0.00000000
     atom    8 type  2   force =    -0.03183818    0.01838178    0.00000000
     atom    9 type  2   force =     0.03183818    0.01838178    0.00000000
     atom   10 type  2   force =    -0.03183818   -0.01838178    0.00000000
     atom   11 type  2   force =     0.03183818   -0.01838178    0.00000000
     atom   12 type  2   force =     0.00000000   -0.03676357    0.00000000

     Total force =     0.092290     Total SCF correction =     0.000000

     entering subroutine stress ...

          total   stress  (Ry/bohr**3)                   (kbar)     P=  597.30
   0.00414005   0.00000000   0.00000000        609.02      0.00      0.00
   0.00000000   0.00414005   0.00000000          0.00    609.02      0.00
   0.00000000   0.00000000   0.00390102          0.00      0.00    573.86

     BFGS Geometry Optimization

     number of scf cycles    =   1
     number of bfgs steps    =   0

     enthalpy new            =   -2875.6166799219 Ry

     new trust radius        =       0.5000000000 bohr
     new conv_thr            =       0.0001000000 Ry

     new unit-cell volume =   1650.83070 a.u.^3 (   244.62787 Ang^3 )

CELL_PARAMETERS (alat=  9.92348860)
   1.067764947   0.000000000   0.000000000
  -0.533882474   0.924711570   0.000000000
   0.000000000   0.000000000   1.710911167

ATOMIC_POSITIONS (crystal)
Mg       0.333333000   0.666667000   0.062832393
Mg       0.666667000   0.333333000   0.562832393
Mg       0.666667000   0.333333000   0.937167607
Mg       0.333333000   0.666667000   0.437167607
Zn       0.000000000   0.000000000   0.000000000
Zn       0.000000000   0.000000000   0.500000000
Zn       0.171761399   0.343522798   0.750000000
Zn       0.828238601   0.171761399   0.250000000
Zn       0.343522798   0.171761399   0.250000000
Zn       0.656477202   0.828238601   0.750000000
Zn       0.171761399   0.828238601   0.750000000
Zn       0.828238601   0.656477202   0.250000000

     Writing output data file Prototype-La-hP12-MgZn2.save
     NEW-OLD atomic charge density approx. for the potential
     NEW k-points:
        k(    1) = (   0.0000000   0.0000000   0.0000000), wk =   0.0833333
        k(    2) = (   0.0000000   0.0000000   0.1461210), wk =   0.1666667
        k(    3) = (   0.0000000   0.0000000  -0.2922419), wk =   0.0833333
        k(    4) = (   0.0000000   0.3604728   0.0000000), wk =   0.1666667
        k(    5) = (   0.0000000   0.3604728   0.1461210), wk =   0.3333333
        k(    6) = (   0.0000000   0.3604728  -0.2922419), wk =   0.1666667
        k(    7) = (  -0.4682679  -0.2703546   0.0000000), wk =   0.0833333
        k(    8) = (  -0.4682679  -0.2703546   0.1461210), wk =   0.1666667
        k(    9) = (  -0.4682679  -0.2703546  -0.2922419), wk =   0.0833333
        k(   10) = (  -0.4682679   0.0901182   0.0000000), wk =   0.1666667
        k(   11) = (  -0.4682679   0.0901182   0.1461210), wk =   0.3333333
        k(   12) = (  -0.4682679   0.0901182  -0.2922419), wk =   0.1666667

[...]

     enthalpy old            =   -2875.6166799219 Ry
     enthalpy new            =   -2875.4964118717 Ry

     CASE: enthalpy_new > enthalpy_old

     new trust radius        =       0.2326151057 bohr

     trust_radius < trust_radius_min

     resetting bfgs history

     new conv_thr            =       0.0001000000 Ry

[...]

     number of scf cycles    =   3
     number of bfgs steps    =   1

     enthalpy old            =   -2875.6166799219 Ry
     enthalpy new            =   -2875.5333893667 Ry

     CASE: enthalpy_new > enthalpy_old

     new trust radius        =       0.2317105210 bohr

     trust_radius < trust_radius_min

     resetting bfgs history

     Message from routine bfgs:
     history already reset at previous step: stopping
     new conv_thr            =       0.0001000000 Ry

     new unit-cell volume =   1641.01819 a.u.^3 (   243.17380 Ang^3 )

[...]

ATOMIC_POSITIONS (crystal)
Mg       0.333333000   0.666667000   0.062796932
Mg       0.666667000   0.333333000   0.562796932
Mg       0.666667000   0.333333000   0.937203068
Mg       0.333333000   0.666667000   0.437203068
Zn       0.000000000   0.000000000   0.000000000
Zn       0.000000000   0.000000000   0.500000000
Zn       0.171631376   0.343262753   0.750000000
Zn       0.828368624   0.171631376   0.250000000
Zn       0.343262753   0.171631376   0.250000000
Zn       0.656737247   0.828368624   0.750000000
Zn       0.171631376   0.828368624   0.750000000
Zn       0.828368624   0.656737247   0.250000000

     Writing output data file Prototype-La-hP12-MgZn2.save
     NEW-OLD atomic charge density approx. for the potential
     NEW k-points:
        k(    1) = (   0.0000000   0.0000000   0.0000000), wk =   0.0833333
        k(    2) = (   0.0000000   0.0000000   0.1464471), wk =   0.1666667
        k(    3) = (   0.0000000   0.0000000  -0.2928941), wk =   0.0833333
        k(    4) = (   0.0000000   0.3611461   0.0000000), wk =   0.1666667
        k(    5) = (   0.0000000   0.3611461   0.1464471), wk =   0.3333333
        k(    6) = (   0.0000000   0.3611461  -0.2928941), wk =   0.1666667
        k(    7) = (  -0.4691426  -0.2708596   0.0000000), wk =   0.0833333
        k(    8) = (  -0.4691426  -0.2708596   0.1464471), wk =   0.1666667
        k(    9) = (  -0.4691426  -0.2708596  -0.2928941), wk =   0.0833333
        k(   10) = (  -0.4691426   0.0902865   0.0000000), wk =   0.1666667
        k(   11) = (  -0.4691426   0.0902865   0.1464471), wk =   0.3333333
        k(   12) = (  -0.4691426   0.0902865  -0.2928941), wk =   0.1666667

[...]

     Threshold (ethr) on eigenvalues was too large:
     Diagonalizing with lowered threshold

     CG style diagonalization
     ethr =  7.06E-08,  avg # of iterations =  3.1

[...]

     The maximum number of steps has been reached.

     End of BFGS Geometry Optimization
Begin final coordinates
     new unit-cell volume =   1641.01819 a.u.^3 (   243.17380 Ang^3 )

CELL_PARAMETERS (alat=  9.92348860)
   1.065774047   0.000000000   0.000000000
  -0.532887024   0.922987400   0.000000000
   0.000000000   0.000000000   1.707101548

ATOMIC_POSITIONS (crystal)
Mg       0.333333000   0.666667000   0.062796932
Mg       0.666667000   0.333333000   0.562796932
Mg       0.666667000   0.333333000   0.937203068
Mg       0.333333000   0.666667000   0.437203068
Zn       0.000000000   0.000000000   0.000000000
Zn       0.000000000   0.000000000   0.500000000
Zn       0.171631376   0.343262753   0.750000000
Zn       0.828368624   0.171631376   0.250000000
Zn       0.343262753   0.171631376   0.250000000
Zn       0.656737247   0.828368624   0.750000000
Zn       0.171631376   0.828368624   0.750000000
Zn       0.828368624   0.656737247   0.250000000
End final coordinates

     A final scf calculation at the relaxed structure.
     The G-vectors are recalculated for the final unit cell
     Results may differ from those at the preceding step.

     bravais-lattice index     =            0
     lattice parameter (alat)  =       9.9235  a.u.
     unit-cell volume          =    1641.0182 (a.u.)^3
     number of atoms/cell      =           12
     number of atomic types    =            2
     number of electrons       =       232.00
     number of Kohn-Sham states=          139
     kinetic-energy cutoff     =      40.0000  Ry
     charge density cutoff     =     160.0000  Ry
     convergence threshold     =      1.0E-04
     mixing beta               =       0.7000
     number of iterations used =            8  plain     mixing
     Exchange-correlation      = SLA-PZ-NOGX-NOGC ( 1 1 0 0 0)
     EXX-fraction              =        0.00

     celldm(1)=   9.923489  celldm(2)=   0.000000  celldm(3)=   0.000000
     celldm(4)=   0.000000  celldm(5)=   0.000000  celldm(6)=   0.000000

     crystal axes: (cart. coord. in units of alat)
               a(1) = (   1.065774   0.000000   0.000000 )
               a(2) = (  -0.532887   0.922987   0.000000 )
               a(3) = (   0.000000   0.000000   1.707102 )

     reciprocal axes: (cart. coord. in units 2 pi/alat)
               b(1) = (  0.938285  0.541719  0.000000 )
               b(2) = (  0.000000  1.083438  0.000000 )
               b(3) = (  0.000000  0.000000  0.585788 )

     PseudoPot. # 1 for Dy read from file:
     /home/cwx6513/pp.La/Dy.UPF
     MD5 check sum: 9597327bec62616a94a14d07f3fd9936
     Pseudo is Norm-conserving, Zval = 20.0
     Generated in analytical, separable form
     Using radial grid of 1265 points,  6 beta functions with:
                l(1) =   0
                l(2) =   0
                l(3) =   1
                l(4) =   1
                l(5) =   2
                l(6) =   3

     PseudoPot. # 2 for Tb read from file:
     /home/cwx6513/pp.La/Tb.UPF
     MD5 check sum: 3d6088a3f0cf7fd2e110c43f7f8e95c2
     Pseudo is Norm-conserving, Zval = 19.0
     Generated in analytical, separable form
     Using radial grid of 1263 points,  6 beta functions with:
                l(1) =   0
                l(2) =   0
                l(3) =   1
                l(4) =   1
                l(5) =   2
                l(6) =   3

     atomic species   valence    mass     pseudopotential
        Mg            20.00    24.30500     Dy( 1.00)
        Zn            19.00    65.39000     Tb( 1.00)

     24 Sym. Ops., with inversion, found (12 have fractional translation)

   Cartesian axes

     site n.     atom                  positions (alat units)
         1           Mg  tau(   1) = (  -0.0000005   0.6153252   0.1072007  )
         2           Mg  tau(   2) = (   0.5328876   0.3076622   0.9607515  )
         3           Mg  tau(   3) = (   0.5328876   0.3076622   1.5999008  )
         4           Mg  tau(   4) = (  -0.0000005   0.6153252   0.7463500  )
         5           Zn  tau(   5) = (   0.0000000   0.0000000   0.0000000  )
         6           Zn  tau(   6) = (   0.0000000   0.0000000   0.8535508  )
         7           Zn  tau(   7) = (   0.0000000   0.3168272   1.2803262  )
         8           Zn  tau(   8) = (   0.7913936   0.1584136   0.4267754  )
         9           Zn  tau(   9) = (   0.2743804   0.1584136   0.4267754  )
        10           Zn  tau(  10) = (   0.2585066   0.7645738   1.2803262  )
        11           Zn  tau(  11) = (  -0.2585066   0.7645738   1.2803262  )
        12           Zn  tau(  12) = (   0.5328870   0.6061602   0.4267754  )

     number of k points=    12  gaussian smearing, width (Ry)=  0.1000
                       cart. coord. in units 2pi/alat
        k(    1) = (   0.0000000   0.0000000   0.0000000), wk =   0.0833333
        k(    2) = (   0.0000000   0.0000000   0.1464471), wk =   0.1666667
        k(    3) = (   0.0000000   0.0000000  -0.2928941), wk =   0.0833333
        k(    4) = (   0.0000000   0.3611461   0.0000000), wk =   0.1666667
        k(    5) = (   0.0000000   0.3611461   0.1464471), wk =   0.3333333
        k(    6) = (   0.0000000   0.3611461  -0.2928941), wk =   0.1666667
        k(    7) = (  -0.4691426  -0.2708596   0.0000000), wk =   0.0833333
        k(    8) = (  -0.4691426  -0.2708596   0.1464471), wk =   0.1666667
        k(    9) = (  -0.4691426  -0.2708596  -0.2928941), wk =   0.0833333
        k(   10) = (  -0.4691426   0.0902865   0.0000000), wk =   0.1666667
        k(   11) = (  -0.4691426   0.0902865   0.1464471), wk =   0.3333333
        k(   12) = (  -0.4691426   0.0902865  -0.2928941), wk =   0.1666667

     Largest allocated arrays     est. size (Mb)     dimensions
     Largest temporary arrays     est. size (Mb)     dimensions

     Initial potential from superposition of free atoms

     Starting from uniform charge
     Starting wfc are    0 randomized atomic wfcs

     Writing output data file Prototype-La-hP12-MgZn2.save

     Self-consistent Calculation

[...]

     iteration # 10     ecut=    40.00 Ry     beta=0.70
     CG style diagonalization
     c_bands:  2 eigenvalues not converged
     c_bands:  1 eigenvalues not converged
     ethr =  5.88E-07,  avg # of iterations =  3.8

     total energy              =   -2877.36902305 Ry
     Harris-Foulkes estimate   =   -2877.36911992 Ry
     estimated scf accuracy    <       0.00015399 Ry

     iteration # 11     ecut=    40.00 Ry     beta=0.70
     CG style diagonalization
     ethr =  6.64E-08,  avg # of iterations =  3.7

     End of self-consistent calculation

[...]

          k = 0.0000 0.3611-0.2929 (  6998 PWs)   bands (ev):

[...]

          k =-0.4691 0.0903-0.2929 (  7010 PWs)   bands (ev):

   -58.0332 -58.0332 -58.0301 -58.0300 -50.9506 -50.9506 -50.9087 -50.9086
   -50.8667 -50.8667 -50.7700 -50.7700 -24.9434 -24.9433 -24.9320 -24.9320
   -24.9200 -24.9199 -24.9116 -24.9115 -24.9074 -24.9074 -24.9047 -24.9046
   -19.8740 -19.8740 -19.6485 -19.6485 -19.4470 -19.4469 -19.4084 -19.4083
   -19.3706 -19.3706 -19.3403 -19.3403 -19.2090 -19.2090 -19.1222 -19.1221
   -19.0381 -19.0381 -18.9833 -18.9833 -18.9357 -18.9357 -18.9173 -18.9173
    14.9853  14.9853  15.2462  15.2462  15.3732  15.3732  15.5217  15.5217
    15.6046  15.6046  15.6348  15.6348  15.7819  15.7819  15.9812  15.9812
    16.0527  16.0527  16.1191  16.1191  16.3316  16.3316  16.5828  16.5828
    16.7523  16.7523  16.9047  16.9047  17.1543  17.1543  17.3948  17.3948
    17.6074  17.6074  17.9243  17.9243  18.0022  18.0022  18.0955  18.0956
    18.3604  18.3604  18.7332  18.7332  18.9085  18.9085  19.2628  19.2628
    19.4064  19.4064  19.6121  19.6121  19.7651  19.7651  20.0843  20.0843
    20.2303  20.2303  20.3067  20.3067  20.7951  20.7951  21.4510  21.4510
    22.3518  22.3518  24.3662  24.3662  25.7524  25.7524  26.0120  26.0120
    27.1993  27.1993  28.5661  28.5661  30.1653  30.1653  31.0060  31.0060
    31.3080  31.3081  31.9952  31.9952  32.4177  32.4179  32.8704  32.8706
    33.1970  33.1971  33.5602

     the Fermi energy is    24.5853 ev

!    total energy              =   -2877.36904395 Ry
     Harris-Foulkes estimate   =   -2877.36908646 Ry
     estimated scf accuracy    <       0.00004896 Ry

     The total energy is the sum of the following terms:

     one-electron contribution =    -550.51136642 Ry
     hartree contribution      =     441.16966127 Ry
     xc contribution           =    -272.43736583 Ry
     ewald contribution        =   -2495.32072481 Ry
     smearing contrib. (-TS)   =      -0.26924817 Ry

     convergence has been achieved in  11 iterations

     Forces acting on atoms (Ry/au):

     atom    1 type  1   force =     0.00000000    0.00000000    0.01042835
     atom    2 type  1   force =     0.00000000    0.00000000    0.01042835
     atom    3 type  1   force =     0.00000000    0.00000000   -0.01042835
     atom    4 type  1   force =     0.00000000    0.00000000   -0.01042835
     atom    5 type  2   force =     0.00000000    0.00000000    0.00000000
     atom    6 type  2   force =     0.00000000    0.00000000    0.00000000
     atom    7 type  2   force =     0.00000000   -0.03166245    0.00000000
     atom    8 type  2   force =     0.02742049   -0.01583122    0.00000000
     atom    9 type  2   force =    -0.02742049   -0.01583122    0.00000000
     atom   10 type  2   force =     0.02742049    0.01583122    0.00000000
     atom   11 type  2   force =    -0.02742049    0.01583122    0.00000000
     atom   12 type  2   force =     0.00000000    0.03166245    0.00000000

     Total force =     0.080312     Total SCF correction =     0.000000

     entering subroutine stress ...

          total   stress  (Ry/bohr**3)                   (kbar)     P= -186.74
  -0.00119285   0.00000000   0.00000000       -175.47      0.00      0.00
   0.00000000  -0.00119285   0.00000000          0.00   -175.47      0.00
   0.00000000   0.00000000  -0.00142262          0.00      0.00   -209.27

     Writing output data file Prototype-La-hP12-MgZn2.save

     General routines

     Parallel routines

   This run was terminated on:   2:43: 5  23Mar2018

   JOB DONE.