     Program PWSCF v.5.0.2 starts on 23Mar2018 at  1: 1:28

     Current dimensions of program PWSCF are:
     Max number of different atomic species (ntypx) = 10
     Max number of k-points (npk) =  40000
     Max angular momentum in pseudopotentials (lmaxx) =  3
     Waiting for input...
     Reading input from standard input

     Subspace diagonalization in iterative solution of the eigenvalue problem:
     a serial algorithm will be used

     bravais-lattice index     =            0
     lattice parameter (alat)  =       7.0151  a.u.
     unit-cell volume          =     862.2778 (a.u.)^3
     number of atoms/cell      =           12
     number of atomic types    =            2
     number of electrons       =       260.00
     number of Kohn-Sham states=          156
     kinetic-energy cutoff     =      40.0000  Ry
     charge density cutoff     =     160.0000  Ry
     convergence threshold     =      1.0E-04
     mixing beta               =       0.7000
     number of iterations used =            8  plain     mixing
     Exchange-correlation      = SLA-PZ-NOGX-NOGC ( 1 1 0 0 0)
     EXX-fraction              =        0.00
     nstep                     =           50

     celldm(1)=   7.015105  celldm(2)=   0.000000  celldm(3)=   0.000000
     celldm(4)=   0.000000  celldm(5)=   0.000000  celldm(6)=   0.000000

     crystal axes: (cart. coord. in units of alat)
               a(1) = (   1.000000   0.000000   0.000000 )
               a(2) = (   0.000000   1.315963   0.000000 )
               a(3) = (   0.000000   0.000000   1.898020 )

     reciprocal axes: (cart. coord. in units 2 pi/alat)
               b(1) = (  1.000000  0.000000  0.000000 )
               b(2) = (  0.000000  0.759900  0.000000 )
               b(3) = (  0.000000  0.000000  0.526865 )

     PseudoPot. # 1 for Ho read from file:
     /home/cwx6513/pp.La/Ho.UPF
     MD5 check sum: f307ee11bce99f5b724fa279e3790763
     Pseudo is Norm-conserving, Zval = 21.0
     Generated in analytical, separable form
     Using radial grid of 1265 points,  6 beta functions with:
                l(1) =   0
                l(2) =   0
                l(3) =   1
                l(4) =   1
                l(5) =   2
                l(6) =   3

     PseudoPot. # 2 for Tm read from file:
     /home/cwx6513/pp.La/Tm.UPF
     MD5 check sum: 245516e0878b5372ceeb9443ded2c4e1
     Pseudo is Norm-conserving, Zval = 23.0
     Generated in analytical, separable form
     Using radial grid of 1269 points,  6 beta functions with:
                l(1) =   0
                l(2) =   0
                l(3) =   1
                l(4) =   1
                l(5) =   2
                l(6) =   3

     atomic species   valence    mass     pseudopotential
        Co            21.00    58.93320     Ho( 1.00)
        Si            23.00    28.08550     Tm( 1.00)

      8 Sym. Ops., with inversion, found ( 6 have fractional translation)

   Cartesian axes

     site n.     atom                  positions (alat units)
         1           Co  tau(   1) = (   0.7500000   1.0875135   0.8270358  )
         2           Co  tau(   2) = (   0.2500000   0.2284499   1.0709846  )
         3           Co  tau(   3) = (   0.7500000   0.4295318   0.1219744  )
         4           Co  tau(   4) = (   0.2500000   0.8864316   1.7760460  )
         5           Co  tau(   5) = (   0.2500000   0.7067855   0.5358966  )
         6           Co  tau(   6) = (   0.7500000   0.6091779   1.3621238  )
         7           Co  tau(   7) = (   0.2500000   0.0488038   0.4131136  )
         8           Co  tau(   8) = (   0.7500000   1.2671596   1.4849068  )
         9           Si  tau(   9) = (   0.2500000   0.2669484   1.6960710  )
        10           Si  tau(  10) = (   0.7500000   1.0490149   0.2019494  )
        11           Si  tau(  11) = (   0.2500000   0.9249301   1.1509596  )
        12           Si  tau(  12) = (   0.7500000   0.3910333   0.7470608  )

     number of k points=    12  gaussian smearing, width (Ry)=  0.1000
                       cart. coord. in units 2pi/alat
        k(    1) = (   0.0000000   0.0000000   0.0000000), wk =   0.0833333
        k(    2) = (   0.0000000   0.0000000   0.1317162), wk =   0.1666667
        k(    3) = (   0.0000000   0.0000000  -0.2634324), wk =   0.0833333
        k(    4) = (   0.0000000   0.2532999   0.0000000), wk =   0.1666667
        k(    5) = (   0.0000000   0.2532999   0.1317162), wk =   0.3333333
        k(    6) = (   0.0000000   0.2532999  -0.2634324), wk =   0.1666667
        k(    7) = (  -0.5000000   0.0000000   0.0000000), wk =   0.0833333
        k(    8) = (  -0.5000000   0.0000000   0.1317162), wk =   0.1666667
        k(    9) = (  -0.5000000   0.0000000  -0.2634324), wk =   0.0833333
        k(   10) = (  -0.5000000   0.2532999   0.0000000), wk =   0.1666667
        k(   11) = (  -0.5000000   0.2532999   0.1317162), wk =   0.3333333
        k(   12) = (  -0.5000000   0.2532999  -0.2634324), wk =   0.1666667

     Largest allocated arrays     est. size (Mb)     dimensions
     Largest temporary arrays     est. size (Mb)     dimensions

     Initial potential from superposition of free atoms

     Starting from uniform charge
     Starting wfc are    0 randomized atomic wfcs

     Self-consistent Calculation

     iteration #  1     ecut=    40.00 Ry     beta=0.70
     CG style diagonalization
     c_bands:  2 eigenvalues not converged
     c_bands:  1 eigenvalues not converged
     c_bands:  2 eigenvalues not converged
     c_bands:  2 eigenvalues not converged
     c_bands:  1 eigenvalues not converged
     c_bands:  1 eigenvalues not converged
     c_bands:  3 eigenvalues not converged
     c_bands:  2 eigenvalues not converged
     c_bands:  2 eigenvalues not converged
     c_bands:  2 eigenvalues not converged
     c_bands:  2 eigenvalues not converged
     ethr =  1.00E-02,  avg # of iterations = 13.0

     total energy              =   -3382.84403179 Ry
     Harris-Foulkes estimate   =   -4347.49688414 Ry
     estimated scf accuracy    <    1224.25532441 Ry

     iteration #  2     ecut=    40.00 Ry     beta=0.70
     CG style diagonalization
     ethr =  1.00E-02,  avg # of iterations =  9.1

[...]

     End of self-consistent calculation

          k = 0.0000 0.0000 0.0000 (  3675 PWs)   bands (ev):

   -57.7819 -57.7646 -57.7628 -57.7417 -39.7688 -39.7135 -39.6800 -39.6710
   -39.4593 -39.3919 -39.2850 -39.2849 -17.0894 -17.0609 -17.0366 -17.0172
   -17.0155 -17.0006 -16.9686 -16.9602 -16.7070 -16.6926 -16.6506 -16.6080
    -5.0830  -4.8495  -4.7631  -4.7465  -4.6209  -4.6176  -4.5988  -4.5348
    -4.4119  -4.3455  -4.2171  -4.1882  -4.0986  -4.0139  -3.9696  -3.9303
    -3.8990  -3.8021  -3.7740  -3.6641  -3.6605  -3.5098  -3.3204  -3.2562
    28.7228  28.8806  28.9635  28.9950  29.2899  29.3593  29.3790  29.4309
    29.5685  29.5843  29.5954  29.7000  29.8729  29.9944  30.3149  30.6482
    31.0126  31.0127  31.1460  31.2920  32.3891  33.4718  34.7958  34.9961
    35.1176  35.3464  35.5005  35.8401  36.2530  36.3974  36.4507  36.5843
    36.6803  36.7936  37.5005  37.5351  37.7501  37.8088  37.9776  38.1066
    38.5372  38.7596  38.7973  39.2216  39.2878  39.5400  40.0164  40.3348
    40.5974  40.7563  40.8368  40.9444  41.3159  41.7332  41.7942  41.9711
    42.1190  42.2243  42.2887  42.3588  42.4748  43.0048  43.3476  46.8812
    46.9155  47.3734  47.7003  48.0802  51.2913  51.5522  52.8831  53.3450
    55.1056  55.4290  55.7455  55.8450  55.9470  56.3173  56.5056  56.5863
    56.6556  57.3951  57.4094  57.4652  57.5485  57.7189  58.2672  58.5002
    58.5240  58.5530  58.7614  58.9592  59.1676  59.4475  59.6243  59.9482
    60.2715  60.3983  60.7737  61.1055  61.2198  61.6573  61.9018  62.4649
    62.7423  62.7935  63.0872  63.1735

[...]

          k =-0.5000 0.0000 0.0000 (  3722 PWs)   bands (ev):

[...]

     the Fermi energy is    57.2814 ev

!    total energy              =   -3796.07136969 Ry
     Harris-Foulkes estimate   =   -3796.07137436 Ry
     estimated scf accuracy    <       0.00000592 Ry

     The total energy is the sum of the following terms:

     one-electron contribution =     102.79733518 Ry
     hartree contribution      =     351.80913638 Ry
     xc contribution           =    -344.30973847 Ry
     ewald contribution        =   -3905.83171464 Ry
     smearing contrib. (-TS)   =      -0.53638813 Ry

     convergence has been achieved in  10 iterations

     Forces acting on atoms (Ry/au):

     atom    1 type  1   force =     0.00000000   -0.03850957   -0.07554765
     atom    2 type  1   force =     0.00000000    0.03850957    0.07554765
     atom    3 type  1   force =     0.00000000   -0.03850957    0.07554765
     atom    4 type  1   force =     0.00000000    0.03850957   -0.07554765
     atom    5 type  1   force =     0.00000000    0.12809559   -0.27881949
     atom    6 type  1   force =     0.00000000   -0.12809559    0.27881949
     atom    7 type  1   force =     0.00000000    0.12809559    0.27881949
     atom    8 type  1   force =     0.00000000   -0.12809559   -0.27881949
     atom    9 type  2   force =     0.00000000   -0.22976992    0.02558164
     atom   10 type  2   force =     0.00000000    0.22976992   -0.02558164
     atom   11 type  2   force =     0.00000000   -0.22976992   -0.02558164
     atom   12 type  2   force =     0.00000000    0.22976992    0.02558164

     Total force =     0.786862     Total SCF correction =     0.000000

     entering subroutine stress ...

          total   stress  (Ry/bohr**3)                   (kbar)     P= 7725.76
   0.05679147   0.00000000   0.00000000       8354.31      0.00      0.00
   0.00000000   0.04899378   0.00000000          0.00   7207.23      0.00
   0.00000000   0.00000000   0.05177076          0.00      0.00   7615.74

     BFGS Geometry Optimization

     number of scf cycles    =   1
     number of bfgs steps    =   0

     enthalpy new            =   -3796.0713696878 Ry

     new trust radius        =       0.5000000000 bohr
     new conv_thr            =       0.0001000000 Ry

     new unit-cell volume =   1082.36537 a.u.^3 (   160.39000 Ang^3 )

CELL_PARAMETERS (alat=  7.01510508)
   1.085136619   0.000000000   0.000000000
   0.000000000   1.412616989   0.000000000
   0.000000000   0.000000000   2.045325818

ATOMIC_POSITIONS (crystal)
Co       0.750000000   0.826150860   0.435395765
Co       0.250000000   0.173849140   0.564604235
Co       0.750000000   0.326150860   0.064604235
Co       0.250000000   0.673849140   0.935395765
Co       0.250000000   0.537918050   0.281089313
Co       0.750000000   0.462081950   0.718910687
Co       0.250000000   0.037918050   0.218910687
Co       0.750000000   0.962081950   0.781089313
Si       0.250000000   0.201361520   0.893715209
Si       0.750000000   0.798638480   0.106284791
Si       0.250000000   0.701361520   0.606284791
Si       0.750000000   0.298638480   0.393715209

     Writing output data file Prototype-La-oP12-Co2Si.save
     NEW-OLD atomic charge density approx. for the potential
     NEW k-points:
        k(    1) = (   0.0000000   0.0000000   0.0000000), wk =   0.0833333
        k(    2) = (   0.0000000   0.0000000   0.1222299), wk =   0.1666667
        k(    3) = (   0.0000000   0.0000000  -0.2444598), wk =   0.0833333
        k(    4) = (   0.0000000   0.2359687   0.0000000), wk =   0.1666667
        k(    5) = (   0.0000000   0.2359687   0.1222299), wk =   0.3333333
        k(    6) = (   0.0000000   0.2359687  -0.2444598), wk =   0.1666667
        k(    7) = (  -0.4607715   0.0000000   0.0000000), wk =   0.0833333
        k(    8) = (  -0.4607715   0.0000000   0.1222299), wk =   0.1666667
        k(    9) = (  -0.4607715   0.0000000  -0.2444598), wk =   0.0833333
        k(   10) = (  -0.4607715   0.2359687   0.0000000), wk =   0.1666667
        k(   11) = (  -0.4607715   0.2359687   0.1222299), wk =   0.3333333
        k(   12) = (  -0.4607715   0.2359687  -0.2444598), wk =   0.1666667

[...]

     enthalpy old            =   -3796.0713696878 Ry
     enthalpy new            =   -3803.6974093923 Ry

     CASE: enthalpy_new < enthalpy_old

     small trust_radius: resetting bfgs history

     new trust radius        =       3.6025428644 bohr
     new conv_thr            =       0.0001000000 Ry

[...]

          total   stress  (Ry/bohr**3)                   (kbar)     P=-4651.65
  -0.03650003   0.00000000   0.00000000      -5369.34      0.00      0.00
   0.00000000  -0.02812555   0.00000000          0.00  -4137.41      0.00
   0.00000000   0.00000000  -0.03023831          0.00      0.00  -4448.21

     number of scf cycles    =   3
     number of bfgs steps    =   2

     enthalpy old            =   -3803.6974093923 Ry
     enthalpy new            =   -3758.1753901413 Ry

     CASE: enthalpy_new > enthalpy_old

     new trust radius        =       0.8456708937 bohr

     trust_radius < trust_radius_min

     resetting bfgs history

     Message from routine bfgs:
     history already reset at previous step: stopping
     new conv_thr            =       0.0001000000 Ry

     new unit-cell volume =   1264.00888 a.u.^3 (   187.30679 Ang^3 )

[...]

ATOMIC_POSITIONS (crystal)
Co       0.750000000   0.826002822   0.435284487
Co       0.250000000   0.173997178   0.564715513
Co       0.750000000   0.326002822   0.064715513
Co       0.250000000   0.673997178   0.935284487
Co       0.250000000   0.538495111   0.280218317
Co       0.750000000   0.461504889   0.719781683
Co       0.250000000   0.038495111   0.219781683
Co       0.750000000   0.961504889   0.780218317
Si       0.250000000   0.200474524   0.893907839
Si       0.750000000   0.799525476   0.106092161
Si       0.250000000   0.700474524   0.606092161
Si       0.750000000   0.299525476   0.393907839

     Writing output data file Prototype-La-oP12-Co2Si.save
     NEW-OLD atomic charge density approx. for the potential
     NEW k-points:
        k(    1) = (   0.0000000   0.0000000   0.0000000), wk =   0.0833333
        k(    2) = (   0.0000000   0.0000000   0.1164379), wk =   0.1666667
        k(    3) = (   0.0000000   0.0000000  -0.2328758), wk =   0.0833333
        k(    4) = (   0.0000000   0.2259406   0.0000000), wk =   0.1666667
        k(    5) = (   0.0000000   0.2259406   0.1164379), wk =   0.3333333
        k(    6) = (   0.0000000   0.2259406  -0.2328758), wk =   0.1666667
        k(    7) = (  -0.4325661   0.0000000   0.0000000), wk =   0.0833333
        k(    8) = (  -0.4325661   0.0000000   0.1164379), wk =   0.1666667
        k(    9) = (  -0.4325661   0.0000000  -0.2328758), wk =   0.0833333
        k(   10) = (  -0.4325661   0.2259406   0.0000000), wk =   0.1666667
        k(   11) = (  -0.4325661   0.2259406   0.1164379), wk =   0.3333333
        k(   12) = (  -0.4325661   0.2259406  -0.2328758), wk =   0.1666667

[...]

     The maximum number of steps has been reached.

     End of BFGS Geometry Optimization
Begin final coordinates
     new unit-cell volume =   1264.00888 a.u.^3 (   187.30679 Ang^3 )

CELL_PARAMETERS (alat=  7.01510508)
   1.155892700   0.000000000   0.000000000
   0.000000000   1.475313976   0.000000000
   0.000000000   0.000000000   2.147067041

ATOMIC_POSITIONS (crystal)
Co       0.750000000   0.826002822   0.435284487
Co       0.250000000   0.173997178   0.564715513
Co       0.750000000   0.326002822   0.064715513
Co       0.250000000   0.673997178   0.935284487
Co       0.250000000   0.538495111   0.280218317
Co       0.750000000   0.461504889   0.719781683
Co       0.250000000   0.038495111   0.219781683
Co       0.750000000   0.961504889   0.780218317
Si       0.250000000   0.200474524   0.893907839
Si       0.750000000   0.799525476   0.106092161
Si       0.250000000   0.700474524   0.606092161
Si       0.750000000   0.299525476   0.393907839
End final coordinates

     A final scf calculation at the relaxed structure.
     The G-vectors are recalculated for the final unit cell
     Results may differ from those at the preceding step.

     bravais-lattice index     =            0
     lattice parameter (alat)  =       7.0151  a.u.
     unit-cell volume          =    1264.0089 (a.u.)^3
     number of atoms/cell      =           12
     number of atomic types    =            2
     number of electrons       =       260.00
     number of Kohn-Sham states=          156
     kinetic-energy cutoff     =      40.0000  Ry
     charge density cutoff     =     160.0000  Ry
     convergence threshold     =      1.0E-04
     mixing beta               =       0.7000
     number of iterations used =            8  plain     mixing
     Exchange-correlation      = SLA-PZ-NOGX-NOGC ( 1 1 0 0 0)
     EXX-fraction              =        0.00

     celldm(1)=   7.015105  celldm(2)=   0.000000  celldm(3)=   0.000000
     celldm(4)=   0.000000  celldm(5)=   0.000000  celldm(6)=   0.000000

     crystal axes: (cart. coord. in units of alat)
               a(1) = (   1.155893   0.000000   0.000000 )
               a(2) = (   0.000000   1.475314   0.000000 )
               a(3) = (   0.000000   0.000000   2.147067 )

     reciprocal axes: (cart. coord. in units 2 pi/alat)
               b(1) = (  0.865132  0.000000  0.000000 )
               b(2) = (  0.000000  0.677822  0.000000 )
               b(3) = (  0.000000  0.000000  0.465752 )

     PseudoPot. # 1 for Ho read from file:
     /home/cwx6513/pp.La/Ho.UPF
     MD5 check sum: f307ee11bce99f5b724fa279e3790763
     Pseudo is Norm-conserving, Zval = 21.0
     Generated in analytical, separable form
     Using radial grid of 1265 points,  6 beta functions with:
                l(1) =   0
                l(2) =   0
                l(3) =   1
                l(4) =   1
                l(5) =   2
                l(6) =   3

     PseudoPot. # 2 for Tm read from file:
     /home/cwx6513/pp.La/Tm.UPF
     MD5 check sum: 245516e0878b5372ceeb9443ded2c4e1
     Pseudo is Norm-conserving, Zval = 23.0
     Generated in analytical, separable form
     Using radial grid of 1269 points,  6 beta functions with:
                l(1) =   0
                l(2) =   0
                l(3) =   1
                l(4) =   1
                l(5) =   2
                l(6) =   3

     atomic species   valence    mass     pseudopotential
        Co            21.00    58.93320     Ho( 1.00)
        Si            23.00    28.08550     Tm( 1.00)

      8 Sym. Ops., with inversion, found ( 6 have fractional translation)

   Cartesian axes

     site n.     atom                  positions (alat units)
         1           Co  tau(   1) = (   0.8669195   1.2186135   0.9345850  )
         2           Co  tau(   2) = (   0.2889732   0.2567005   1.2124821  )
         3           Co  tau(   3) = (   0.8669195   0.4809565   0.1389485  )
         4           Co  tau(   4) = (   0.2889732   0.9943575   2.0081185  )
         5           Co  tau(   5) = (   0.2889732   0.7944494   0.6016475  )
         6           Co  tau(   6) = (   0.8669195   0.6808646   1.5454195  )
         7           Co  tau(   7) = (   0.2889732   0.0567924   0.4718860  )
         8           Co  tau(   8) = (   0.8669195   1.4185216   1.6751810  )
         9           Si  tau(   9) = (   0.2889732   0.2957629   1.9192801  )
        10           Si  tau(  10) = (   0.8669195   1.1795511   0.2277870  )
        11           Si  tau(  11) = (   0.2889732   1.0334199   1.3013205  )
        12           Si  tau(  12) = (   0.8669195   0.4418941   0.8457465  )

     number of k points=    12  gaussian smearing, width (Ry)=  0.1000
                       cart. coord. in units 2pi/alat
        k(    1) = (   0.0000000   0.0000000   0.0000000), wk =   0.0833333
        k(    2) = (   0.0000000   0.0000000   0.1164379), wk =   0.1666667
        k(    3) = (   0.0000000   0.0000000  -0.2328758), wk =   0.0833333
        k(    4) = (   0.0000000   0.2259406   0.0000000), wk =   0.1666667
        k(    5) = (   0.0000000   0.2259406   0.1164379), wk =   0.3333333
        k(    6) = (   0.0000000   0.2259406  -0.2328758), wk =   0.1666667
        k(    7) = (  -0.4325661   0.0000000   0.0000000), wk =   0.0833333
        k(    8) = (  -0.4325661   0.0000000   0.1164379), wk =   0.1666667
        k(    9) = (  -0.4325661   0.0000000  -0.2328758), wk =   0.0833333
        k(   10) = (  -0.4325661   0.2259406   0.0000000), wk =   0.1666667
        k(   11) = (  -0.4325661   0.2259406   0.1164379), wk =   0.3333333
        k(   12) = (  -0.4325661   0.2259406  -0.2328758), wk =   0.1666667

     Largest allocated arrays     est. size (Mb)     dimensions
     Largest temporary arrays     est. size (Mb)     dimensions

     Initial potential from superposition of free atoms

     Starting from uniform charge
     Starting wfc are    0 randomized atomic wfcs

     Writing output data file Prototype-La-oP12-Co2Si.save

     Self-consistent Calculation

[...]

     iteration #  9     ecut=    40.00 Ry     beta=0.70
     CG style diagonalization
     c_bands:  1 eigenvalues not converged
     ethr =  2.74E-06,  avg # of iterations =  3.7

     total energy              =   -3811.91500206 Ry
     Harris-Foulkes estimate   =   -3811.91563611 Ry
     estimated scf accuracy    <       0.00108298 Ry

     iteration # 10     ecut=    40.00 Ry     beta=0.70
     CG style diagonalization
     ethr =  4.17E-07,  avg # of iterations =  3.6

     End of self-consistent calculation

[...]

          k = 0.0000 0.2259-0.2329 (  5406 PWs)   bands (ev):

[...]

          k =-0.4326 0.2259-0.2329 (  5424 PWs)   bands (ev):

   -74.6473 -74.6473 -74.6404 -74.6404 -55.6242 -55.6242 -55.6203 -55.6203
   -55.3981 -55.3981 -55.3851 -55.3851 -33.4737 -33.4737 -33.4726 -33.4726
   -33.4615 -33.4615 -33.4584 -33.4584 -33.3555 -33.3555 -33.3490 -33.3490
   -20.0329 -20.0329 -20.0033 -20.0033 -19.9915 -19.9915 -19.9783 -19.9783
   -19.9021 -19.9021 -19.8827 -19.8827 -19.7939 -19.7939 -19.6918 -19.6918
   -19.6790 -19.6790 -19.6620 -19.6620 -19.6318 -19.6318 -19.5793 -19.5793
    14.6794  14.6794  14.7128  14.7128  14.8415  14.8415  14.8755  14.8755
    14.9191  14.9191  14.9555  14.9555  15.0421  15.0421  15.0553  15.0553
    15.2719  15.2719  15.3478  15.3478  20.5897  20.5897  21.0869  21.0869
    21.8784  21.8784  22.1936  22.1936  22.2070  22.2070  22.3343  22.3343
    22.3428  22.3428  22.7640  22.7640  22.8331  22.8331  23.1227  23.1227
    23.1491  23.1491  23.5602  23.5602  23.6695  23.6695  23.8529  23.8529
    23.8862  23.8862  24.1499  24.1499  24.3063  24.3063  24.7284  24.7284
    24.9418  24.9418  25.3514  25.3514  26.0235  26.0235  26.0857  26.0857
    28.2171  28.2171  28.2244  28.2244  30.8862  30.8862  33.2159  33.2159
    34.4547  34.4547  34.5250  34.5250  36.3941  36.3941  37.2751  37.2751
    39.7355  39.7355  40.9405  40.9405  41.1827  41.1827  41.5906  41.5907
    41.6261  41.6261  41.8807  41.8807  42.2603  42.2603  42.4355  42.4356
    43.0469  43.0471  43.3840  43.3841  43.4033  43.4033  43.9645  43.9647
    44.1102  44.1104  44.6917  44.6918

     the Fermi energy is    38.5462 ev

!    total energy              =   -3811.91528094 Ry
     Harris-Foulkes estimate   =   -3811.91532244 Ry
     estimated scf accuracy    <       0.00005080 Ry

     The total energy is the sum of the following terms:

     one-electron contribution =    -561.16956728 Ry
     hartree contribution      =     522.74173643 Ry
     xc contribution           =    -333.23206592 Ry
     ewald contribution        =   -3439.95202019 Ry
     smearing contrib. (-TS)   =      -0.30336397 Ry

     convergence has been achieved in  10 iterations

     Forces acting on atoms (Ry/au):

     atom    1 type  1   force =     0.00000000   -0.04245454    0.02133608
     atom    2 type  1   force =     0.00000000    0.04245454   -0.02133608
     atom    3 type  1   force =     0.00000000   -0.04245454   -0.02133608
     atom    4 type  1   force =     0.00000000    0.04245454    0.02133608
     atom    5 type  1   force =     0.00000000    0.04099089   -0.10184779
     atom    6 type  1   force =     0.00000000   -0.04099089    0.10184779
     atom    7 type  1   force =     0.00000000    0.04099089    0.10184779
     atom    8 type  1   force =     0.00000000   -0.04099089   -0.10184779
     atom    9 type  2   force =     0.00000000   -0.08579439    0.04306306
     atom   10 type  2   force =     0.00000000    0.08579439   -0.04306306
     atom   11 type  2   force =     0.00000000   -0.08579439   -0.04306306
     atom   12 type  2   force =     0.00000000    0.08579439    0.04306306

     Total force =     0.306763     Total SCF correction =     0.000000

     entering subroutine stress ...

          total   stress  (Ry/bohr**3)                   (kbar)     P= 1711.37
   0.01316644   0.00000000   0.00000000       1936.85      0.00      0.00
   0.00000000   0.01055079   0.00000000          0.00   1552.08      0.00
   0.00000000   0.00000000   0.01118369          0.00      0.00   1645.18

     Writing output data file Prototype-La-oP12-Co2Si.save

     General routines

     Parallel routines

   This run was terminated on:   1:25:40  23Mar2018

   JOB DONE.