     Program PWSCF v.5.0.2 starts on 23Mar2018 at  1: 1:26

     Current dimensions of program PWSCF are:
     Max number of different atomic species (ntypx) = 10
     Max number of k-points (npk) =  40000
     Max angular momentum in pseudopotentials (lmaxx) =  3
     Waiting for input...
     Reading input from standard input

     Subspace diagonalization in iterative solution of the eigenvalue problem:
     a serial algorithm will be used

     bravais-lattice index     =            0
     lattice parameter (alat)  =       8.5346  a.u.
     unit-cell volume          =     621.6493 (a.u.)^3
     number of atoms/cell      =            8
     number of atomic types    =            2
     number of electrons       =       172.00
     number of Kohn-Sham states=          103
     kinetic-energy cutoff     =      40.0000  Ry
     charge density cutoff     =     160.0000  Ry
     convergence threshold     =      1.0E-04
     mixing beta               =       0.7000
     number of iterations used =            8  plain     mixing
     Exchange-correlation      = SLA-PZ-NOGX-NOGC ( 1 1 0 0 0)
     EXX-fraction              =        0.00
     nstep                     =           50

     celldm(1)=   8.534573  celldm(2)=   0.000000  celldm(3)=   0.000000
     celldm(4)=   0.000000  celldm(5)=   0.000000  celldm(6)=   0.000000

     crystal axes: (cart. coord. in units of alat)
               a(1) = (   1.000000   0.000000   0.000000 )
               a(2) = (   0.000000   1.000000   0.000000 )
               a(3) = (   0.000000   0.000000   1.000000 )

     reciprocal axes: (cart. coord. in units 2 pi/alat)
               b(1) = (  1.000000  0.000000  0.000000 )
               b(2) = (  0.000000  1.000000  0.000000 )
               b(3) = (  0.000000  0.000000  1.000000 )

     PseudoPot. # 1 for Ho read from file:
     /home/cwx6513/pp.La/Ho.UPF
     MD5 check sum: f307ee11bce99f5b724fa279e3790763
     Pseudo is Norm-conserving, Zval = 21.0
     Generated in analytical, separable form
     Using radial grid of 1265 points,  6 beta functions with:
                l(1) =   0
                l(2) =   0
                l(3) =   1
                l(4) =   1
                l(5) =   2
                l(6) =   3

     PseudoPot. # 2 for Tm read from file:
     /home/cwx6513/pp.La/Tm.UPF
     MD5 check sum: 245516e0878b5372ceeb9443ded2c4e1
     Pseudo is Norm-conserving, Zval = 23.0
     Generated in analytical, separable form
     Using radial grid of 1269 points,  6 beta functions with:
                l(1) =   0
                l(2) =   0
                l(3) =   1
                l(4) =   1
                l(5) =   2
                l(6) =   3

     atomic species   valence    mass     pseudopotential
        Cr            21.00    51.99610     Ho( 1.00)
        Si            23.00    28.08550     Tm( 1.00)

     48 Sym. Ops., with inversion, found (24 have fractional translation)

   Cartesian axes

     site n.     atom                  positions (alat units)
         1           Cr  tau(   1) = (   0.0000000   0.5000000   0.2500000  )
         2           Cr  tau(   2) = (   0.0000000   0.5000000   0.7500000  )
         3           Cr  tau(   3) = (   0.5000000   0.7500000   0.0000000  )
         4           Cr  tau(   4) = (   0.5000000   0.2500000   0.0000000  )
         5           Cr  tau(   5) = (   0.7500000   0.0000000   0.5000000  )
         6           Cr  tau(   6) = (   0.2500000   0.0000000   0.5000000  )
         7           Si  tau(   7) = (   0.5000000   0.5000000   0.5000000  )
         8           Si  tau(   8) = (   0.0000000   0.0000000   0.0000000  )

     number of k points=    48  gaussian smearing, width (Ry)=  0.1000
                       cart. coord. in units 2pi/alat
        k(    1) = (   0.0000000   0.0000000   0.0000000), wk =   0.0095238
        k(    2) = (   0.0000000   0.0000000   0.1428571), wk =   0.0190476
        k(    3) = (   0.0000000   0.0000000   0.2857143), wk =   0.0190476
        k(    4) = (   0.0000000   0.0000000   0.4285714), wk =   0.0190476
        k(    5) = (   0.0000000   0.1666667   0.0000000), wk =   0.0190476
        k(    6) = (   0.0000000   0.1666667   0.1428571), wk =   0.0380952
        k(    7) = (   0.0000000   0.1666667   0.2857143), wk =   0.0380952
        k(    8) = (   0.0000000   0.1666667   0.4285714), wk =   0.0380952
        k(    9) = (   0.0000000   0.3333333   0.0000000), wk =   0.0190476
        k(   10) = (   0.0000000   0.3333333   0.1428571), wk =   0.0380952
        k(   11) = (   0.0000000   0.3333333   0.2857143), wk =   0.0380952
        k(   12) = (   0.0000000   0.3333333   0.4285714), wk =   0.0380952
        k(   13) = (   0.0000000  -0.5000000   0.0000000), wk =   0.0095238
        k(   14) = (   0.0000000  -0.5000000   0.1428571), wk =   0.0190476
        k(   15) = (   0.0000000  -0.5000000   0.2857143), wk =   0.0190476
        k(   16) = (   0.0000000  -0.5000000   0.4285714), wk =   0.0190476
        k(   17) = (   0.2000000   0.0000000   0.0000000), wk =   0.0190476
        k(   18) = (   0.2000000   0.0000000   0.1428571), wk =   0.0380952
        k(   19) = (   0.2000000   0.0000000   0.2857143), wk =   0.0380952
        k(   20) = (   0.2000000   0.0000000   0.4285714), wk =   0.0380952
        k(   21) = (   0.2000000   0.1666667   0.0000000), wk =   0.0380952
        k(   22) = (   0.2000000   0.1666667   0.1428571), wk =   0.0761905
        k(   23) = (   0.2000000   0.1666667   0.2857143), wk =   0.0761905
        k(   24) = (   0.2000000   0.1666667   0.4285714), wk =   0.0761905
        k(   25) = (   0.2000000   0.3333333   0.0000000), wk =   0.0380952
        k(   26) = (   0.2000000   0.3333333   0.1428571), wk =   0.0761905
        k(   27) = (   0.2000000   0.3333333   0.2857143), wk =   0.0761905
        k(   28) = (   0.2000000   0.3333333   0.4285714), wk =   0.0761905
        k(   29) = (   0.2000000  -0.5000000   0.0000000), wk =   0.0190476
        k(   30) = (   0.2000000  -0.5000000   0.1428571), wk =   0.0380952
        k(   31) = (   0.2000000  -0.5000000   0.2857143), wk =   0.0380952
        k(   32) = (   0.2000000  -0.5000000   0.4285714), wk =   0.0380952
        k(   33) = (   0.4000000   0.0000000   0.0000000), wk =   0.0190476
        k(   34) = (   0.4000000   0.0000000   0.1428571), wk =   0.0380952
        k(   35) = (   0.4000000   0.0000000   0.2857143), wk =   0.0380952
        k(   36) = (   0.4000000   0.0000000   0.4285714), wk =   0.0380952
        k(   37) = (   0.4000000   0.1666667   0.0000000), wk =   0.0380952
        k(   38) = (   0.4000000   0.1666667   0.1428571), wk =   0.0761905
        k(   39) = (   0.4000000   0.1666667   0.2857143), wk =   0.0761905
        k(   40) = (   0.4000000   0.1666667   0.4285714), wk =   0.0761905
        k(   41) = (   0.4000000   0.3333333   0.0000000), wk =   0.0380952
        k(   42) = (   0.4000000   0.3333333   0.1428571), wk =   0.0761905
        k(   43) = (   0.4000000   0.3333333   0.2857143), wk =   0.0761905
        k(   44) = (   0.4000000   0.3333333   0.4285714), wk =   0.0761905
        k(   45) = (   0.4000000  -0.5000000   0.0000000), wk =   0.0190476
        k(   46) = (   0.4000000  -0.5000000   0.1428571), wk =   0.0380952
        k(   47) = (   0.4000000  -0.5000000   0.2857143), wk =   0.0380952
        k(   48) = (   0.4000000  -0.5000000   0.4285714), wk =   0.0380952

     Largest allocated arrays     est. size (Mb)     dimensions
     Largest temporary arrays     est. size (Mb)     dimensions

     Initial potential from superposition of free atoms

     Starting from uniform charge
     Starting wfc are    0 randomized atomic wfcs

     Self-consistent Calculation

     iteration #  1     ecut=    40.00 Ry     beta=0.70
     CG style diagonalization
     c_bands:  1 eigenvalues not converged
     c_bands:  1 eigenvalues not converged
     c_bands:  1 eigenvalues not converged
     c_bands:  1 eigenvalues not converged
     c_bands:  1 eigenvalues not converged
     c_bands:  2 eigenvalues not converged
     c_bands:  3 eigenvalues not converged
     c_bands:  1 eigenvalues not converged
     c_bands:  1 eigenvalues not converged
     c_bands:  1 eigenvalues not converged
     c_bands:  2 eigenvalues not converged
     c_bands:  2 eigenvalues not converged
     c_bands:  1 eigenvalues not converged
     c_bands:  1 eigenvalues not converged
     c_bands:  1 eigenvalues not converged
     c_bands:  1 eigenvalues not converged
     c_bands:  4 eigenvalues not converged
     c_bands:  3 eigenvalues not converged
     c_bands:  1 eigenvalues not converged
     c_bands:  1 eigenvalues not converged
     c_bands:  2 eigenvalues not converged
     c_bands:  1 eigenvalues not converged
     c_bands:  2 eigenvalues not converged
     c_bands:  2 eigenvalues not converged
     c_bands:  1 eigenvalues not converged
     c_bands:  1 eigenvalues not converged
     c_bands:  2 eigenvalues not converged
     ethr =  1.00E-02,  avg # of iterations = 12.4

     total energy              =   -2170.99512706 Ry
     Harris-Foulkes estimate   =   -2873.84308811 Ry
     estimated scf accuracy    <     885.40711393 Ry

[...]

     iteration #  4     ecut=    40.00 Ry     beta=0.70
     CG style diagonalization
     ethr =  1.00E-02,  avg # of iterations =  4.2

[...]

     End of self-consistent calculation

          k = 0.0000 0.0000 0.0000 (  2601 PWs)   bands (ev):

   -61.5784 -61.5182 -43.7972 -43.7789 -43.7789 -43.2592 -43.2592 -43.2592
   -20.5966 -20.5966 -20.5966 -20.5666 -20.5666 -20.5666 -10.1853 -10.1853
    -9.9578  -8.3920  -8.3920  -8.3920  -7.7700  -7.7700  -7.7700  -7.7440
    -7.7440  -7.7440  -7.5681  -7.5681  -7.5681  -6.8208  -6.8208  -6.8208
    26.1511  26.1511  26.9395  26.9395  26.9395  26.9428  26.9428  27.3525
    27.3525  27.3525  29.3439  29.3914  29.9066  29.9066  29.9066  30.1032
    30.1032  30.6091  31.7446  31.7446  31.7446  32.2221  34.6276  34.6276
    34.6276  34.9312  34.9312  36.1649  36.1649  36.1649  36.6370  36.6370
    36.6370  37.8836  37.8836  38.5414  38.5414  38.5414  38.8316  38.8316
    38.8316  44.3480  44.3480  44.3480  45.6703  45.6703  46.0732  47.6557
    51.8508  51.8508  51.8508  52.4293  52.4293  52.4293  52.8174  52.8174
    52.8174  53.1206  53.1206  53.6856  53.6856  53.6856  54.0130  54.0130
    54.0130  56.3395  56.3395  56.3395  57.1868  59.6472  60.8769

[...]

     the Fermi energy is    53.1609 ev

!    total energy              =   -2484.67222413 Ry
     Harris-Foulkes estimate   =   -2484.67229897 Ry
     estimated scf accuracy    <       0.00008881 Ry

     The total energy is the sum of the following terms:

     one-electron contribution =      -6.80235085 Ry
     hartree contribution      =     246.72640192 Ry
     xc contribution           =    -224.92189588 Ry
     ewald contribution        =   -2499.32783633 Ry
     smearing contrib. (-TS)   =      -0.34654299 Ry

     convergence has been achieved in   8 iterations

     Forces acting on atoms (Ry/au):

     atom    1 type  1   force =     0.00000000    0.00000000    0.00000000
     atom    2 type  1   force =     0.00000000    0.00000000    0.00000000
[...]

     number of scf cycles    =   3
     number of bfgs steps    =   2

     enthalpy old            =   -2489.0272581463 Ry
     enthalpy new            =   -2485.1398146648 Ry

     CASE: enthalpy_new > enthalpy_old

     new trust radius        =       0.2447690842 bohr

     trust_radius < trust_radius_min

     resetting bfgs history

     Message from routine bfgs:
     history already reset at previous step: stopping
     new conv_thr            =       0.0000010000 Ry

     new unit-cell volume =   1043.33617 a.u.^3 (   154.60647 Ang^3 )

[...]

ATOMIC_POSITIONS (crystal)
Cr       0.000000000   0.500000000   0.250000000
Cr       0.000000000   0.500000000   0.750000000
Cr       0.500000000   0.750000000   0.000000000
Cr       0.500000000   0.250000000   0.000000000
Cr       0.750000000   0.000000000   0.500000000
Cr       0.250000000   0.000000000   0.500000000
Si       0.500000000   0.500000000   0.500000000
Si       0.000000000   0.000000000   0.000000000

     Writing output data file Prototype-La-cP8-Cr3Si.save
     NEW-OLD atomic charge density approx. for the potential
     NEW k-points:
        k(    1) = (   0.0000000   0.0000000   0.0000000), wk =   0.0095238
        k(    2) = (   0.0000000   0.0000000   0.1202105), wk =   0.0190476
        k(    3) = (   0.0000000   0.0000000   0.2404210), wk =   0.0190476
        k(    4) = (   0.0000000   0.0000000   0.3606315), wk =   0.0190476
        k(    5) = (   0.0000000   0.1402456   0.0000000), wk =   0.0190476
        k(    6) = (   0.0000000   0.1402456   0.1202105), wk =   0.0380952
        k(    7) = (   0.0000000   0.1402456   0.2404210), wk =   0.0380952
        k(    8) = (   0.0000000   0.1402456   0.3606315), wk =   0.0380952
        k(    9) = (   0.0000000   0.2804911   0.0000000), wk =   0.0190476
        k(   10) = (   0.0000000   0.2804911   0.1202105), wk =   0.0380952
        k(   11) = (   0.0000000   0.2804911   0.2404210), wk =   0.0380952
        k(   12) = (   0.0000000   0.2804911   0.3606315), wk =   0.0380952
        k(   13) = (   0.0000000  -0.4207367   0.0000000), wk =   0.0095238
        k(   14) = (   0.0000000  -0.4207367   0.1202105), wk =   0.0190476
        k(   15) = (   0.0000000  -0.4207367   0.2404210), wk =   0.0190476
        k(   16) = (   0.0000000  -0.4207367   0.3606315), wk =   0.0190476
        k(   17) = (   0.1682947   0.0000000   0.0000000), wk =   0.0190476
        k(   18) = (   0.1682947   0.0000000   0.1202105), wk =   0.0380952
        k(   19) = (   0.1682947   0.0000000   0.2404210), wk =   0.0380952
        k(   20) = (   0.1682947   0.0000000   0.3606315), wk =   0.0380952
        k(   21) = (   0.1682947   0.1402456   0.0000000), wk =   0.0380952
        k(   22) = (   0.1682947   0.1402456   0.1202105), wk =   0.0761905
        k(   23) = (   0.1682947   0.1402456   0.2404210), wk =   0.0761905
        k(   24) = (   0.1682947   0.1402456   0.3606315), wk =   0.0761905
        k(   25) = (   0.1682947   0.2804911   0.0000000), wk =   0.0380952
        k(   26) = (   0.1682947   0.2804911   0.1202105), wk =   0.0761905
        k(   27) = (   0.1682947   0.2804911   0.2404210), wk =   0.0761905
        k(   28) = (   0.1682947   0.2804911   0.3606315), wk =   0.0761905
        k(   29) = (   0.1682947  -0.4207367   0.0000000), wk =   0.0190476
        k(   30) = (   0.1682947  -0.4207367   0.1202105), wk =   0.0380952
        k(   31) = (   0.1682947  -0.4207367   0.2404210), wk =   0.0380952
        k(   32) = (   0.1682947  -0.4207367   0.3606315), wk =   0.0380952
        k(   33) = (   0.3365894   0.0000000   0.0000000), wk =   0.0190476
        k(   34) = (   0.3365894   0.0000000   0.1202105), wk =   0.0380952
        k(   35) = (   0.3365894   0.0000000   0.2404210), wk =   0.0380952
        k(   36) = (   0.3365894   0.0000000   0.3606315), wk =   0.0380952
        k(   37) = (   0.3365894   0.1402456   0.0000000), wk =   0.0380952
        k(   38) = (   0.3365894   0.1402456   0.1202105), wk =   0.0761905
        k(   39) = (   0.3365894   0.1402456   0.2404210), wk =   0.0761905
        k(   40) = (   0.3365894   0.1402456   0.3606315), wk =   0.0761905
        k(   41) = (   0.3365894   0.2804911   0.0000000), wk =   0.0380952
        k(   42) = (   0.3365894   0.2804911   0.1202105), wk =   0.0761905
        k(   43) = (   0.3365894   0.2804911   0.2404210), wk =   0.0761905
        k(   44) = (   0.3365894   0.2804911   0.3606315), wk =   0.0761905
        k(   45) = (   0.3365894  -0.4207367   0.0000000), wk =   0.0190476
        k(   46) = (   0.3365894  -0.4207367   0.1202105), wk =   0.0380952
        k(   47) = (   0.3365894  -0.4207367   0.2404210), wk =   0.0380952
        k(   48) = (   0.3365894  -0.4207367   0.3606315), wk =   0.0380952

[...]

          total   stress  (Ry/bohr**3)                   (kbar)     P=-1062.88
  -0.00722529   0.00000000   0.00000000      -1062.88      0.00      0.00
   0.00000000  -0.00722529   0.00000000          0.00  -1062.88      0.00
   0.00000000   0.00000000  -0.00722529          0.00      0.00  -1062.88

     The maximum number of steps has been reached.

     End of BFGS Geometry Optimization
Begin final coordinates
     new unit-cell volume =   1043.33617 a.u.^3 (   154.60647 Ang^3 )

CELL_PARAMETERS (alat=  8.53457320)
   1.188391711   0.000000000   0.000000000
   0.000000000   1.188391711   0.000000000
   0.000000000   0.000000000   1.188391711

ATOMIC_POSITIONS (crystal)
Cr       0.000000000   0.500000000   0.250000000
Cr       0.000000000   0.500000000   0.750000000
Cr       0.500000000   0.750000000   0.000000000
Cr       0.500000000   0.250000000   0.000000000
Cr       0.750000000   0.000000000   0.500000000
Cr       0.250000000   0.000000000   0.500000000
Si       0.500000000   0.500000000   0.500000000
Si       0.000000000   0.000000000   0.000000000
End final coordinates

     A final scf calculation at the relaxed structure.
     The G-vectors are recalculated for the final unit cell
     Results may differ from those at the preceding step.

     bravais-lattice index     =            0
     lattice parameter (alat)  =       8.5346  a.u.
     unit-cell volume          =    1043.3362 (a.u.)^3
     number of atoms/cell      =            8
     number of atomic types    =            2
     number of electrons       =       172.00
     number of Kohn-Sham states=          103
     kinetic-energy cutoff     =      40.0000  Ry
     charge density cutoff     =     160.0000  Ry
     convergence threshold     =      1.0E-06
     mixing beta               =       0.7000
     number of iterations used =            8  plain     mixing
     Exchange-correlation      = SLA-PZ-NOGX-NOGC ( 1 1 0 0 0)
     EXX-fraction              =        0.00

     celldm(1)=   8.534573  celldm(2)=   0.000000  celldm(3)=   0.000000
     celldm(4)=   0.000000  celldm(5)=   0.000000  celldm(6)=   0.000000

     crystal axes: (cart. coord. in units of alat)
               a(1) = (   1.188392   0.000000   0.000000 )
               a(2) = (   0.000000   1.188392   0.000000 )
               a(3) = (   0.000000   0.000000   1.188392 )

     reciprocal axes: (cart. coord. in units 2 pi/alat)
               b(1) = (  0.841473  0.000000  0.000000 )
               b(2) = (  0.000000  0.841473  0.000000 )
               b(3) = (  0.000000  0.000000  0.841473 )

     PseudoPot. # 1 for Ho read from file:
     /home/cwx6513/pp.La/Ho.UPF
     MD5 check sum: f307ee11bce99f5b724fa279e3790763
     Pseudo is Norm-conserving, Zval = 21.0
     Generated in analytical, separable form
     Using radial grid of 1265 points,  6 beta functions with:
                l(1) =   0
                l(2) =   0
                l(3) =   1
                l(4) =   1
                l(5) =   2
                l(6) =   3

     PseudoPot. # 2 for Tm read from file:
     /home/cwx6513/pp.La/Tm.UPF
     MD5 check sum: 245516e0878b5372ceeb9443ded2c4e1
     Pseudo is Norm-conserving, Zval = 23.0
     Generated in analytical, separable form
     Using radial grid of 1269 points,  6 beta functions with:
                l(1) =   0
                l(2) =   0
                l(3) =   1
                l(4) =   1
                l(5) =   2
                l(6) =   3

     atomic species   valence    mass     pseudopotential
        Cr            21.00    51.99610     Ho( 1.00)
        Si            23.00    28.08550     Tm( 1.00)

     48 Sym. Ops., with inversion, found (24 have fractional translation)

   Cartesian axes

     site n.     atom                  positions (alat units)
         1           Cr  tau(   1) = (   0.0000000   0.5941959   0.2970979  )
         2           Cr  tau(   2) = (   0.0000000   0.5941959   0.8912938  )
         3           Cr  tau(   3) = (   0.5941959   0.8912938   0.0000000  )
         4           Cr  tau(   4) = (   0.5941959   0.2970979   0.0000000  )
         5           Cr  tau(   5) = (   0.8912938   0.0000000   0.5941959  )
         6           Cr  tau(   6) = (   0.2970979   0.0000000   0.5941959  )
         7           Si  tau(   7) = (   0.5941959   0.5941959   0.5941959  )
         8           Si  tau(   8) = (   0.0000000   0.0000000   0.0000000  )

     number of k points=    48  gaussian smearing, width (Ry)=  0.1000
                       cart. coord. in units 2pi/alat
        k(    1) = (   0.0000000   0.0000000   0.0000000), wk =   0.0095238
        k(    2) = (   0.0000000   0.0000000   0.1202105), wk =   0.0190476
        k(    3) = (   0.0000000   0.0000000   0.2404210), wk =   0.0190476
        k(    4) = (   0.0000000   0.0000000   0.3606315), wk =   0.0190476
        k(    5) = (   0.0000000   0.1402456   0.0000000), wk =   0.0190476
        k(    6) = (   0.0000000   0.1402456   0.1202105), wk =   0.0380952
        k(    7) = (   0.0000000   0.1402456   0.2404210), wk =   0.0380952
        k(    8) = (   0.0000000   0.1402456   0.3606315), wk =   0.0380952
        k(    9) = (   0.0000000   0.2804911   0.0000000), wk =   0.0190476
        k(   10) = (   0.0000000   0.2804911   0.1202105), wk =   0.0380952
        k(   11) = (   0.0000000   0.2804911   0.2404210), wk =   0.0380952
        k(   12) = (   0.0000000   0.2804911   0.3606315), wk =   0.0380952
        k(   13) = (   0.0000000  -0.4207367   0.0000000), wk =   0.0095238
        k(   14) = (   0.0000000  -0.4207367   0.1202105), wk =   0.0190476
        k(   15) = (   0.0000000  -0.4207367   0.2404210), wk =   0.0190476
        k(   16) = (   0.0000000  -0.4207367   0.3606315), wk =   0.0190476
        k(   17) = (   0.1682947   0.0000000   0.0000000), wk =   0.0190476
        k(   18) = (   0.1682947   0.0000000   0.1202105), wk =   0.0380952
        k(   19) = (   0.1682947   0.0000000   0.2404210), wk =   0.0380952
        k(   20) = (   0.1682947   0.0000000   0.3606315), wk =   0.0380952
        k(   21) = (   0.1682947   0.1402456   0.0000000), wk =   0.0380952
        k(   22) = (   0.1682947   0.1402456   0.1202105), wk =   0.0761905
        k(   23) = (   0.1682947   0.1402456   0.2404210), wk =   0.0761905
        k(   24) = (   0.1682947   0.1402456   0.3606315), wk =   0.0761905
        k(   25) = (   0.1682947   0.2804911   0.0000000), wk =   0.0380952
        k(   26) = (   0.1682947   0.2804911   0.1202105), wk =   0.0761905
        k(   27) = (   0.1682947   0.2804911   0.2404210), wk =   0.0761905
        k(   28) = (   0.1682947   0.2804911   0.3606315), wk =   0.0761905
        k(   29) = (   0.1682947  -0.4207367   0.0000000), wk =   0.0190476
        k(   30) = (   0.1682947  -0.4207367   0.1202105), wk =   0.0380952
        k(   31) = (   0.1682947  -0.4207367   0.2404210), wk =   0.0380952
        k(   32) = (   0.1682947  -0.4207367   0.3606315), wk =   0.0380952
        k(   33) = (   0.3365894   0.0000000   0.0000000), wk =   0.0190476
        k(   34) = (   0.3365894   0.0000000   0.1202105), wk =   0.0380952
        k(   35) = (   0.3365894   0.0000000   0.2404210), wk =   0.0380952
        k(   36) = (   0.3365894   0.0000000   0.3606315), wk =   0.0380952
        k(   37) = (   0.3365894   0.1402456   0.0000000), wk =   0.0380952
        k(   38) = (   0.3365894   0.1402456   0.1202105), wk =   0.0761905
        k(   39) = (   0.3365894   0.1402456   0.2404210), wk =   0.0761905
        k(   40) = (   0.3365894   0.1402456   0.3606315), wk =   0.0761905
        k(   41) = (   0.3365894   0.2804911   0.0000000), wk =   0.0380952
        k(   42) = (   0.3365894   0.2804911   0.1202105), wk =   0.0761905
        k(   43) = (   0.3365894   0.2804911   0.2404210), wk =   0.0761905
        k(   44) = (   0.3365894   0.2804911   0.3606315), wk =   0.0761905
        k(   45) = (   0.3365894  -0.4207367   0.0000000), wk =   0.0190476
        k(   46) = (   0.3365894  -0.4207367   0.1202105), wk =   0.0380952
        k(   47) = (   0.3365894  -0.4207367   0.2404210), wk =   0.0380952
        k(   48) = (   0.3365894  -0.4207367   0.3606315), wk =   0.0380952

     Largest allocated arrays     est. size (Mb)     dimensions
     Largest temporary arrays     est. size (Mb)     dimensions

     Initial potential from superposition of free atoms

     Starting from uniform charge
     Starting wfc are    0 randomized atomic wfcs

     Writing output data file Prototype-La-cP8-Cr3Si.save

     Self-consistent Calculation

[...]

     negative rho (up, down):  0.111E-03 0.000E+00

[...]

     iteration # 11     ecut=    40.00 Ry     beta=0.70
     CG style diagonalization
     c_bands:  1 eigenvalues not converged
     ethr =  9.93E-08,  avg # of iterations =  3.4

[...]

     total energy              =   -2494.82973785 Ry
     Harris-Foulkes estimate   =   -2494.82973968 Ry
     estimated scf accuracy    <       0.00000312 Ry

     iteration # 13     ecut=    40.00 Ry     beta=0.70
     CG style diagonalization
     ethr =  1.82E-09,  avg # of iterations =  3.5

     End of self-consistent calculation

[...]

          k = 0.3366-0.4207 0.3606 (  4472 PWs)   bands (ev):

   -82.2117 -82.2116 -62.9235 -62.9183 -62.9146 -62.9138 -62.9113 -62.9074
   -40.8973 -40.8973 -40.8925 -40.8924 -40.8911 -40.8910 -27.3337 -27.3111
   -27.2398 -27.2395 -27.1644 -27.1379 -27.0952 -27.0949 -27.0737 -27.0709
   -27.0630 -27.0577 -27.0529 -27.0496 -27.0484 -27.0389 -27.0377 -27.0363
     7.9300   7.9300   7.9325   7.9327   7.9753   7.9789   7.9862   7.9873
     7.9931   7.9934  15.0081  15.0087  15.4615  15.6144  15.7583  15.7779
    15.8558  15.8834  15.9873  15.9906  16.1598  16.1684  16.2146  16.2417
    16.3820  16.3931  16.4738  16.4739  16.5680  16.5941  16.6834  16.7211
    16.9119  17.0282  17.2426  17.2906  17.3508  17.3689  17.3735  17.3948
    19.3672  19.3702  20.3998  20.4963  20.9137  20.9999  21.8701  21.9141
    29.9641  29.9783  30.9105  31.1605  31.2762  31.5882  32.1544  32.3662
    32.4096  32.5061  33.1125  33.1853  33.3999  33.4202  33.5814  33.6928
    33.9439  34.1452  34.6772  34.8256  34.8885  34.9580  35.4150

     the Fermi energy is    30.1940 ev

!    total energy              =   -2494.82973862 Ry
     Harris-Foulkes estimate   =   -2494.82973865 Ry
     estimated scf accuracy    <       0.00000004 Ry

     The total energy is the sum of the following terms:

     one-electron contribution =    -581.13047481 Ry
     hartree contribution      =     406.19579008 Ry
     xc contribution           =    -216.54534568 Ry
     ewald contribution        =   -2103.11786444 Ry
     smearing contrib. (-TS)   =      -0.23184377 Ry

     convergence has been achieved in  13 iterations

     Forces acting on atoms (Ry/au):

     atom    1 type  1   force =     0.00000000    0.00000000    0.00000000
     atom    2 type  1   force =     0.00000000    0.00000000    0.00000000
     atom    3 type  1   force =     0.00000000    0.00000000    0.00000000
     atom    4 type  1   force =     0.00000000    0.00000000    0.00000000
     atom    5 type  1   force =     0.00000000    0.00000000    0.00000000
     atom    6 type  1   force =     0.00000000    0.00000000    0.00000000
     atom    7 type  2   force =     0.00000000    0.00000000    0.00000000
     atom    8 type  2   force =     0.00000000    0.00000000    0.00000000

     Total force =     0.000000     Total SCF correction =     0.000000

     entering subroutine stress ...

          total   stress  (Ry/bohr**3)                   (kbar)     P=  308.78
   0.00209902   0.00000000   0.00000000        308.78      0.00      0.00
   0.00000000   0.00209902   0.00000000          0.00    308.78      0.00
   0.00000000   0.00000000   0.00209902          0.00      0.00    308.78

     Writing output data file Prototype-La-cP8-Cr3Si.save

     General routines

     Parallel routines

   This run was terminated on:   1:30:50  23Mar2018

   JOB DONE.