     Program PWSCF v.5.0.2 starts on 22Mar2018 at 17:36:51

     Current dimensions of program PWSCF are:
     Max number of different atomic species (ntypx) = 10
     Max number of k-points (npk) =  40000
     Max angular momentum in pseudopotentials (lmaxx) =  3
     Waiting for input...
     Reading input from standard input

     Subspace diagonalization in iterative solution of the eigenvalue problem:
     a serial algorithm will be used

     bravais-lattice index     =            0
     lattice parameter (alat)  =       8.5346  a.u.
     unit-cell volume          =     621.6493 (a.u.)^3
     number of atoms/cell      =            8
     number of atomic types    =            2
     number of electrons       =       132.00
     number of Kohn-Sham states=           79
     kinetic-energy cutoff     =      40.0000  Ry
     charge density cutoff     =     160.0000  Ry
     convergence threshold     =      1.0E-04
     mixing beta               =       0.7000
     number of iterations used =            8  plain     mixing
     Exchange-correlation      = SLA-PZ-NOGX-NOGC ( 1 1 0 0 0)
     EXX-fraction              =        0.00
     nstep                     =           50

     celldm(1)=   8.534573  celldm(2)=   0.000000  celldm(3)=   0.000000
     celldm(4)=   0.000000  celldm(5)=   0.000000  celldm(6)=   0.000000

     crystal axes: (cart. coord. in units of alat)
               a(1) = (   1.000000   0.000000   0.000000 )
               a(2) = (   0.000000   1.000000   0.000000 )
               a(3) = (   0.000000   0.000000   1.000000 )

     reciprocal axes: (cart. coord. in units 2 pi/alat)
               b(1) = (  1.000000  0.000000  0.000000 )
               b(2) = (  0.000000  1.000000  0.000000 )
               b(3) = (  0.000000  0.000000  1.000000 )

     PseudoPot. # 1 for Nd read from file:
     /home/cwx6513/pp.La/Nd.UPF
     MD5 check sum: c66c5b6abe7b5840ced9b1e244e3bed6
     Pseudo is Norm-conserving, Zval = 14.0
     Generated in analytical, separable form
     Using radial grid of 1257 points,  6 beta functions with:
                l(1) =   0
                l(2) =   0
                l(3) =   1
                l(4) =   1
                l(5) =   2
                l(6) =   3

     PseudoPot. # 2 for Yb read from file:
     /home/cwx6513/pp.La/Yb.UPF
     MD5 check sum: 3e859b81cc28c53ec6aa3a2e888efcdf
     Pseudo is Norm-conserving, Zval = 24.0
     Generated in analytical, separable form
     Using radial grid of 1269 points,  6 beta functions with:
                l(1) =   0
                l(2) =   0
                l(3) =   1
                l(4) =   1
                l(5) =   2
                l(6) =   3

     atomic species   valence    mass     pseudopotential
        Cr            14.00    51.99610     Nd( 1.00)
        Si            24.00    28.08550     Yb( 1.00)

     48 Sym. Ops., with inversion, found (24 have fractional translation)

   Cartesian axes

     site n.     atom                  positions (alat units)
         1           Cr  tau(   1) = (   0.0000000   0.5000000   0.2500000  )
         2           Cr  tau(   2) = (   0.0000000   0.5000000   0.7500000  )
         3           Cr  tau(   3) = (   0.5000000   0.7500000   0.0000000  )
         4           Cr  tau(   4) = (   0.5000000   0.2500000   0.0000000  )
         5           Cr  tau(   5) = (   0.7500000   0.0000000   0.5000000  )
         6           Cr  tau(   6) = (   0.2500000   0.0000000   0.5000000  )
         7           Si  tau(   7) = (   0.5000000   0.5000000   0.5000000  )
         8           Si  tau(   8) = (   0.0000000   0.0000000   0.0000000  )

     number of k points=    48  gaussian smearing, width (Ry)=  0.1000
                       cart. coord. in units 2pi/alat
        k(    1) = (   0.0000000   0.0000000   0.0000000), wk =   0.0095238
        k(    2) = (   0.0000000   0.0000000   0.1428571), wk =   0.0190476
        k(    3) = (   0.0000000   0.0000000   0.2857143), wk =   0.0190476
        k(    4) = (   0.0000000   0.0000000   0.4285714), wk =   0.0190476
        k(    5) = (   0.0000000   0.1666667   0.0000000), wk =   0.0190476
        k(    6) = (   0.0000000   0.1666667   0.1428571), wk =   0.0380952
        k(    7) = (   0.0000000   0.1666667   0.2857143), wk =   0.0380952
        k(    8) = (   0.0000000   0.1666667   0.4285714), wk =   0.0380952
        k(    9) = (   0.0000000   0.3333333   0.0000000), wk =   0.0190476
        k(   10) = (   0.0000000   0.3333333   0.1428571), wk =   0.0380952
        k(   11) = (   0.0000000   0.3333333   0.2857143), wk =   0.0380952
        k(   12) = (   0.0000000   0.3333333   0.4285714), wk =   0.0380952
        k(   13) = (   0.0000000  -0.5000000   0.0000000), wk =   0.0095238
        k(   14) = (   0.0000000  -0.5000000   0.1428571), wk =   0.0190476
        k(   15) = (   0.0000000  -0.5000000   0.2857143), wk =   0.0190476
        k(   16) = (   0.0000000  -0.5000000   0.4285714), wk =   0.0190476
        k(   17) = (   0.2000000   0.0000000   0.0000000), wk =   0.0190476
        k(   18) = (   0.2000000   0.0000000   0.1428571), wk =   0.0380952
        k(   19) = (   0.2000000   0.0000000   0.2857143), wk =   0.0380952
        k(   20) = (   0.2000000   0.0000000   0.4285714), wk =   0.0380952
        k(   21) = (   0.2000000   0.1666667   0.0000000), wk =   0.0380952
        k(   22) = (   0.2000000   0.1666667   0.1428571), wk =   0.0761905
        k(   23) = (   0.2000000   0.1666667   0.2857143), wk =   0.0761905
        k(   24) = (   0.2000000   0.1666667   0.4285714), wk =   0.0761905
        k(   25) = (   0.2000000   0.3333333   0.0000000), wk =   0.0380952
        k(   26) = (   0.2000000   0.3333333   0.1428571), wk =   0.0761905
        k(   27) = (   0.2000000   0.3333333   0.2857143), wk =   0.0761905
        k(   28) = (   0.2000000   0.3333333   0.4285714), wk =   0.0761905
        k(   29) = (   0.2000000  -0.5000000   0.0000000), wk =   0.0190476
        k(   30) = (   0.2000000  -0.5000000   0.1428571), wk =   0.0380952
        k(   31) = (   0.2000000  -0.5000000   0.2857143), wk =   0.0380952
        k(   32) = (   0.2000000  -0.5000000   0.4285714), wk =   0.0380952
        k(   33) = (   0.4000000   0.0000000   0.0000000), wk =   0.0190476
        k(   34) = (   0.4000000   0.0000000   0.1428571), wk =   0.0380952
        k(   35) = (   0.4000000   0.0000000   0.2857143), wk =   0.0380952
        k(   36) = (   0.4000000   0.0000000   0.4285714), wk =   0.0380952
        k(   37) = (   0.4000000   0.1666667   0.0000000), wk =   0.0380952
        k(   38) = (   0.4000000   0.1666667   0.1428571), wk =   0.0761905
        k(   39) = (   0.4000000   0.1666667   0.2857143), wk =   0.0761905
        k(   40) = (   0.4000000   0.1666667   0.4285714), wk =   0.0761905
        k(   41) = (   0.4000000   0.3333333   0.0000000), wk =   0.0380952
        k(   42) = (   0.4000000   0.3333333   0.1428571), wk =   0.0761905
        k(   43) = (   0.4000000   0.3333333   0.2857143), wk =   0.0761905
        k(   44) = (   0.4000000   0.3333333   0.4285714), wk =   0.0761905
        k(   45) = (   0.4000000  -0.5000000   0.0000000), wk =   0.0190476
        k(   46) = (   0.4000000  -0.5000000   0.1428571), wk =   0.0380952
        k(   47) = (   0.4000000  -0.5000000   0.2857143), wk =   0.0380952
        k(   48) = (   0.4000000  -0.5000000   0.4285714), wk =   0.0380952

     Largest allocated arrays     est. size (Mb)     dimensions
     Largest temporary arrays     est. size (Mb)     dimensions

     Initial potential from superposition of free atoms

     Starting from uniform charge
     Starting wfc are    0 randomized atomic wfcs

     Self-consistent Calculation

     iteration #  1     ecut=    40.00 Ry     beta=0.70
     CG style diagonalization
     c_bands:  3 eigenvalues not converged
     c_bands:  1 eigenvalues not converged
     c_bands:  2 eigenvalues not converged
     c_bands:  2 eigenvalues not converged
     c_bands:  1 eigenvalues not converged
     c_bands:  1 eigenvalues not converged
     c_bands:  3 eigenvalues not converged
     c_bands:  1 eigenvalues not converged
     c_bands:  2 eigenvalues not converged
     c_bands:  2 eigenvalues not converged
     c_bands:  1 eigenvalues not converged
     c_bands:  1 eigenvalues not converged
     c_bands:  1 eigenvalues not converged
     c_bands:  3 eigenvalues not converged
     c_bands:  1 eigenvalues not converged
     c_bands:  1 eigenvalues not converged
     c_bands:  3 eigenvalues not converged
     c_bands:  2 eigenvalues not converged
     c_bands:  1 eigenvalues not converged
     c_bands:  1 eigenvalues not converged
     c_bands:  2 eigenvalues not converged
     c_bands:  1 eigenvalues not converged
     c_bands:  2 eigenvalues not converged
     c_bands:  1 eigenvalues not converged
     c_bands:  2 eigenvalues not converged
     c_bands:  4 eigenvalues not converged
     c_bands:  1 eigenvalues not converged
     c_bands:  2 eigenvalues not converged
     c_bands:  1 eigenvalues not converged
     c_bands:  1 eigenvalues not converged
     c_bands:  2 eigenvalues not converged
     c_bands:  3 eigenvalues not converged
     c_bands:  1 eigenvalues not converged
     c_bands:  1 eigenvalues not converged
     c_bands:  1 eigenvalues not converged
     c_bands:  2 eigenvalues not converged
     c_bands:  2 eigenvalues not converged
     c_bands:  2 eigenvalues not converged
     c_bands:  2 eigenvalues not converged
     c_bands:  1 eigenvalues not converged
     c_bands:  1 eigenvalues not converged
     c_bands:  2 eigenvalues not converged
     c_bands:  1 eigenvalues not converged
     ethr =  1.00E-02,  avg # of iterations = 12.7

     total energy              =    -911.07822763 Ry
     Harris-Foulkes estimate   =   -1887.66757499 Ry
     estimated scf accuracy    <    1160.19928550 Ry

[...]

     iteration #  4     ecut=    40.00 Ry     beta=0.70
     CG style diagonalization
     ethr =  1.00E-02,  avg # of iterations =  3.3

[...]

     End of self-consistent calculation

          k = 0.0000 0.0000 0.0000 (  2601 PWs)   bands (ev):

   -79.5634 -79.4727 -38.5571 -38.5571 -38.5571 -38.5447 -38.5447 -38.5447
    -5.9909  -4.5829  -4.5829  -2.1050  -2.1050  -2.1050  11.1497  11.1497
    12.3732  14.3689  14.3689  14.3689  15.5628  15.5628  15.5628  17.0025
    17.0025  17.0025  18.1395  18.1395  18.1395  18.6207  18.6207  19.1904
    19.1904  21.0819  21.0819  21.0819  21.1795  21.1795  21.1795  23.3299
    23.3299  23.3299  30.0058  30.0582  33.8033  33.8033  33.8033  35.9061
    35.9061  35.9061  36.3540  38.9674  39.0397  39.0397  41.7200  41.7200
    41.7200  41.9545  41.9545  43.5695  43.5695  43.5695  44.9660  44.9660
    44.9660  47.5142  49.0287  49.0289  49.0289  50.0349  50.0350  50.3285
    50.3285  50.3286  50.9570  50.9571  50.9573  51.2346  51.2346

[...]

     the Fermi energy is    46.1604 ev

!    total energy              =   -1474.92283682 Ry
     Harris-Foulkes estimate   =   -1474.92286637 Ry
     estimated scf accuracy    <       0.00003168 Ry

     The total energy is the sum of the following terms:

     one-electron contribution =      47.81638330 Ry
[...]
     enthalpy new            =   -1478.7722125279 Ry

     CASE: enthalpy_new < enthalpy_old

     small trust_radius: resetting bfgs history

     new trust radius        =       0.9354989343 bohr
     new conv_thr            =       0.0000010000 Ry

[...]

          total   stress  (Ry/bohr**3)                   (kbar)     P=-1799.87
  -0.01223525   0.00000000   0.00000000      -1799.87      0.00      0.00
   0.00000000  -0.01223525   0.00000000          0.00  -1799.87      0.00
   0.00000000   0.00000000  -0.01223525          0.00      0.00  -1799.87

     number of scf cycles    =   3
     number of bfgs steps    =   2

     enthalpy old            =   -1478.7722125279 Ry
     enthalpy new            =   -1476.2894400927 Ry

     CASE: enthalpy_new > enthalpy_old

     new trust radius        =       0.2592121950 bohr

     trust_radius < trust_radius_min

     resetting bfgs history

     Message from routine bfgs:
     history already reset at previous step: stopping
     new conv_thr            =       0.0000010000 Ry

     new unit-cell volume =   1044.74366 a.u.^3 (   154.81504 Ang^3 )

[...]

ATOMIC_POSITIONS (crystal)
Cr       0.000000000   0.500000000   0.250000000
Cr       0.000000000   0.500000000   0.750000000
Cr       0.500000000   0.750000000   0.000000000
Cr       0.500000000   0.250000000   0.000000000
Cr       0.750000000   0.000000000   0.500000000
Cr       0.250000000   0.000000000   0.500000000
Si       0.500000000   0.500000000   0.500000000
Si       0.000000000   0.000000000   0.000000000

     Writing output data file Prototype-La-cP8-Cr3Si.save
     NEW-OLD atomic charge density approx. for the potential
     NEW k-points:
        k(    1) = (   0.0000000   0.0000000   0.0000000), wk =   0.0095238
        k(    2) = (   0.0000000   0.0000000   0.1201565), wk =   0.0190476
        k(    3) = (   0.0000000   0.0000000   0.2403130), wk =   0.0190476
        k(    4) = (   0.0000000   0.0000000   0.3604694), wk =   0.0190476
        k(    5) = (   0.0000000   0.1401826   0.0000000), wk =   0.0190476
        k(    6) = (   0.0000000   0.1401826   0.1201565), wk =   0.0380952
        k(    7) = (   0.0000000   0.1401826   0.2403130), wk =   0.0380952
        k(    8) = (   0.0000000   0.1401826   0.3604694), wk =   0.0380952
        k(    9) = (   0.0000000   0.2803651   0.0000000), wk =   0.0190476
        k(   10) = (   0.0000000   0.2803651   0.1201565), wk =   0.0380952
        k(   11) = (   0.0000000   0.2803651   0.2403130), wk =   0.0380952
        k(   12) = (   0.0000000   0.2803651   0.3604694), wk =   0.0380952
        k(   13) = (   0.0000000  -0.4205477   0.0000000), wk =   0.0095238
        k(   14) = (   0.0000000  -0.4205477   0.1201565), wk =   0.0190476
        k(   15) = (   0.0000000  -0.4205477   0.2403130), wk =   0.0190476
        k(   16) = (   0.0000000  -0.4205477   0.3604694), wk =   0.0190476
        k(   17) = (   0.1682191   0.0000000   0.0000000), wk =   0.0190476
        k(   18) = (   0.1682191   0.0000000   0.1201565), wk =   0.0380952
        k(   19) = (   0.1682191   0.0000000   0.2403130), wk =   0.0380952
        k(   20) = (   0.1682191   0.0000000   0.3604694), wk =   0.0380952
        k(   21) = (   0.1682191   0.1401826   0.0000000), wk =   0.0380952
        k(   22) = (   0.1682191   0.1401826   0.1201565), wk =   0.0761905
        k(   23) = (   0.1682191   0.1401826   0.2403130), wk =   0.0761905
        k(   24) = (   0.1682191   0.1401826   0.3604694), wk =   0.0761905
        k(   25) = (   0.1682191   0.2803651   0.0000000), wk =   0.0380952
        k(   26) = (   0.1682191   0.2803651   0.1201565), wk =   0.0761905
        k(   27) = (   0.1682191   0.2803651   0.2403130), wk =   0.0761905
        k(   28) = (   0.1682191   0.2803651   0.3604694), wk =   0.0761905
        k(   29) = (   0.1682191  -0.4205477   0.0000000), wk =   0.0190476
        k(   30) = (   0.1682191  -0.4205477   0.1201565), wk =   0.0380952
        k(   31) = (   0.1682191  -0.4205477   0.2403130), wk =   0.0380952
        k(   32) = (   0.1682191  -0.4205477   0.3604694), wk =   0.0380952
        k(   33) = (   0.3364381   0.0000000   0.0000000), wk =   0.0190476
        k(   34) = (   0.3364381   0.0000000   0.1201565), wk =   0.0380952
        k(   35) = (   0.3364381   0.0000000   0.2403130), wk =   0.0380952
        k(   36) = (   0.3364381   0.0000000   0.3604694), wk =   0.0380952
        k(   37) = (   0.3364381   0.1401826   0.0000000), wk =   0.0380952
        k(   38) = (   0.3364381   0.1401826   0.1201565), wk =   0.0761905
        k(   39) = (   0.3364381   0.1401826   0.2403130), wk =   0.0761905
        k(   40) = (   0.3364381   0.1401826   0.3604694), wk =   0.0761905
        k(   41) = (   0.3364381   0.2803651   0.0000000), wk =   0.0380952
        k(   42) = (   0.3364381   0.2803651   0.1201565), wk =   0.0761905
        k(   43) = (   0.3364381   0.2803651   0.2403130), wk =   0.0761905
        k(   44) = (   0.3364381   0.2803651   0.3604694), wk =   0.0761905
        k(   45) = (   0.3364381  -0.4205477   0.0000000), wk =   0.0190476
        k(   46) = (   0.3364381  -0.4205477   0.1201565), wk =   0.0380952
        k(   47) = (   0.3364381  -0.4205477   0.2403130), wk =   0.0380952
        k(   48) = (   0.3364381  -0.4205477   0.3604694), wk =   0.0380952

[...]

     The maximum number of steps has been reached.

     End of BFGS Geometry Optimization
Begin final coordinates
     new unit-cell volume =   1044.74366 a.u.^3 (   154.81504 Ang^3 )

CELL_PARAMETERS (alat=  8.53457320)
   1.188925861   0.000000000   0.000000000
   0.000000000   1.188925861   0.000000000
   0.000000000   0.000000000   1.188925861

ATOMIC_POSITIONS (crystal)
Cr       0.000000000   0.500000000   0.250000000
Cr       0.000000000   0.500000000   0.750000000
Cr       0.500000000   0.750000000   0.000000000
Cr       0.500000000   0.250000000   0.000000000
Cr       0.750000000   0.000000000   0.500000000
Cr       0.250000000   0.000000000   0.500000000
Si       0.500000000   0.500000000   0.500000000
Si       0.000000000   0.000000000   0.000000000
End final coordinates

     A final scf calculation at the relaxed structure.
     The G-vectors are recalculated for the final unit cell
     Results may differ from those at the preceding step.

     bravais-lattice index     =            0
     lattice parameter (alat)  =       8.5346  a.u.
     unit-cell volume          =    1044.7437 (a.u.)^3
     number of atoms/cell      =            8
     number of atomic types    =            2
     number of electrons       =       132.00
     number of Kohn-Sham states=           79
     kinetic-energy cutoff     =      40.0000  Ry
     charge density cutoff     =     160.0000  Ry
     convergence threshold     =      1.0E-06
     mixing beta               =       0.7000
     number of iterations used =            8  plain     mixing
     Exchange-correlation      = SLA-PZ-NOGX-NOGC ( 1 1 0 0 0)
     EXX-fraction              =        0.00

     celldm(1)=   8.534573  celldm(2)=   0.000000  celldm(3)=   0.000000
     celldm(4)=   0.000000  celldm(5)=   0.000000  celldm(6)=   0.000000

     crystal axes: (cart. coord. in units of alat)
               a(1) = (   1.188926   0.000000   0.000000 )
               a(2) = (   0.000000   1.188926   0.000000 )
               a(3) = (   0.000000   0.000000   1.188926 )

     reciprocal axes: (cart. coord. in units 2 pi/alat)
               b(1) = (  0.841095  0.000000  0.000000 )
               b(2) = (  0.000000  0.841095  0.000000 )
               b(3) = (  0.000000  0.000000  0.841095 )

     PseudoPot. # 1 for Nd read from file:
     /home/cwx6513/pp.La/Nd.UPF
     MD5 check sum: c66c5b6abe7b5840ced9b1e244e3bed6
     Pseudo is Norm-conserving, Zval = 14.0
     Generated in analytical, separable form
     Using radial grid of 1257 points,  6 beta functions with:
                l(1) =   0
                l(2) =   0
                l(3) =   1
                l(4) =   1
                l(5) =   2
                l(6) =   3

     PseudoPot. # 2 for Yb read from file:
     /home/cwx6513/pp.La/Yb.UPF
     MD5 check sum: 3e859b81cc28c53ec6aa3a2e888efcdf
     Pseudo is Norm-conserving, Zval = 24.0
     Generated in analytical, separable form
     Using radial grid of 1269 points,  6 beta functions with:
                l(1) =   0
                l(2) =   0
                l(3) =   1
                l(4) =   1
                l(5) =   2
                l(6) =   3

     atomic species   valence    mass     pseudopotential
        Cr            14.00    51.99610     Nd( 1.00)
        Si            24.00    28.08550     Yb( 1.00)

     48 Sym. Ops., with inversion, found (24 have fractional translation)

   Cartesian axes

     site n.     atom                  positions (alat units)
         1           Cr  tau(   1) = (   0.0000000   0.5944629   0.2972315  )
         2           Cr  tau(   2) = (   0.0000000   0.5944629   0.8916944  )
         3           Cr  tau(   3) = (   0.5944629   0.8916944   0.0000000  )
         4           Cr  tau(   4) = (   0.5944629   0.2972315   0.0000000  )
         5           Cr  tau(   5) = (   0.8916944   0.0000000   0.5944629  )
         6           Cr  tau(   6) = (   0.2972315   0.0000000   0.5944629  )
         7           Si  tau(   7) = (   0.5944629   0.5944629   0.5944629  )
         8           Si  tau(   8) = (   0.0000000   0.0000000   0.0000000  )

     number of k points=    48  gaussian smearing, width (Ry)=  0.1000
                       cart. coord. in units 2pi/alat
        k(    1) = (   0.0000000   0.0000000   0.0000000), wk =   0.0095238
        k(    2) = (   0.0000000   0.0000000   0.1201565), wk =   0.0190476
        k(    3) = (   0.0000000   0.0000000   0.2403130), wk =   0.0190476
        k(    4) = (   0.0000000   0.0000000   0.3604694), wk =   0.0190476
        k(    5) = (   0.0000000   0.1401826   0.0000000), wk =   0.0190476
        k(    6) = (   0.0000000   0.1401826   0.1201565), wk =   0.0380952
        k(    7) = (   0.0000000   0.1401826   0.2403130), wk =   0.0380952
        k(    8) = (   0.0000000   0.1401826   0.3604694), wk =   0.0380952
        k(    9) = (   0.0000000   0.2803651   0.0000000), wk =   0.0190476
        k(   10) = (   0.0000000   0.2803651   0.1201565), wk =   0.0380952
        k(   11) = (   0.0000000   0.2803651   0.2403130), wk =   0.0380952
        k(   12) = (   0.0000000   0.2803651   0.3604694), wk =   0.0380952
        k(   13) = (   0.0000000  -0.4205477   0.0000000), wk =   0.0095238
        k(   14) = (   0.0000000  -0.4205477   0.1201565), wk =   0.0190476
        k(   15) = (   0.0000000  -0.4205477   0.2403130), wk =   0.0190476
        k(   16) = (   0.0000000  -0.4205477   0.3604694), wk =   0.0190476
        k(   17) = (   0.1682191   0.0000000   0.0000000), wk =   0.0190476
        k(   18) = (   0.1682191   0.0000000   0.1201565), wk =   0.0380952
        k(   19) = (   0.1682191   0.0000000   0.2403130), wk =   0.0380952
        k(   20) = (   0.1682191   0.0000000   0.3604694), wk =   0.0380952
        k(   21) = (   0.1682191   0.1401826   0.0000000), wk =   0.0380952
        k(   22) = (   0.1682191   0.1401826   0.1201565), wk =   0.0761905
        k(   23) = (   0.1682191   0.1401826   0.2403130), wk =   0.0761905
        k(   24) = (   0.1682191   0.1401826   0.3604694), wk =   0.0761905
        k(   25) = (   0.1682191   0.2803651   0.0000000), wk =   0.0380952
        k(   26) = (   0.1682191   0.2803651   0.1201565), wk =   0.0761905
        k(   27) = (   0.1682191   0.2803651   0.2403130), wk =   0.0761905
        k(   28) = (   0.1682191   0.2803651   0.3604694), wk =   0.0761905
        k(   29) = (   0.1682191  -0.4205477   0.0000000), wk =   0.0190476
        k(   30) = (   0.1682191  -0.4205477   0.1201565), wk =   0.0380952
        k(   31) = (   0.1682191  -0.4205477   0.2403130), wk =   0.0380952
        k(   32) = (   0.1682191  -0.4205477   0.3604694), wk =   0.0380952
        k(   33) = (   0.3364381   0.0000000   0.0000000), wk =   0.0190476
        k(   34) = (   0.3364381   0.0000000   0.1201565), wk =   0.0380952
        k(   35) = (   0.3364381   0.0000000   0.2403130), wk =   0.0380952
        k(   36) = (   0.3364381   0.0000000   0.3604694), wk =   0.0380952
        k(   37) = (   0.3364381   0.1401826   0.0000000), wk =   0.0380952
        k(   38) = (   0.3364381   0.1401826   0.1201565), wk =   0.0761905
        k(   39) = (   0.3364381   0.1401826   0.2403130), wk =   0.0761905
        k(   40) = (   0.3364381   0.1401826   0.3604694), wk =   0.0761905
        k(   41) = (   0.3364381   0.2803651   0.0000000), wk =   0.0380952
        k(   42) = (   0.3364381   0.2803651   0.1201565), wk =   0.0761905
        k(   43) = (   0.3364381   0.2803651   0.2403130), wk =   0.0761905
        k(   44) = (   0.3364381   0.2803651   0.3604694), wk =   0.0761905
        k(   45) = (   0.3364381  -0.4205477   0.0000000), wk =   0.0190476
        k(   46) = (   0.3364381  -0.4205477   0.1201565), wk =   0.0380952
        k(   47) = (   0.3364381  -0.4205477   0.2403130), wk =   0.0380952
        k(   48) = (   0.3364381  -0.4205477   0.3604694), wk =   0.0380952

     Largest allocated arrays     est. size (Mb)     dimensions
     Largest temporary arrays     est. size (Mb)     dimensions

     Initial potential from superposition of free atoms

     Starting from uniform charge
     Starting wfc are    0 randomized atomic wfcs

     Writing output data file Prototype-La-cP8-Cr3Si.save

     Self-consistent Calculation

[...]

     iteration #  9     ecut=    40.00 Ry     beta=0.70
     CG style diagonalization
     c_bands:  1 eigenvalues not converged
     c_bands:  1 eigenvalues not converged
     ethr =  9.30E-07,  avg # of iterations =  4.5

[...]

     total energy              =   -1481.61754806 Ry
     Harris-Foulkes estimate   =   -1481.61754903 Ry
     estimated scf accuracy    <       0.00000235 Ry

     iteration # 12     ecut=    40.00 Ry     beta=0.70
     CG style diagonalization
     ethr =  1.78E-09,  avg # of iterations =  4.1

     End of self-consistent calculation

[...]

          k = 0.3364-0.4205 0.3605 (  4480 PWs)   bands (ev):

   -98.0837 -98.0837 -56.8548 -56.8548 -56.8523 -56.8522 -56.8509 -56.8508
   -21.6232 -21.5994 -21.5247 -21.5239 -21.4521 -21.4265  -0.9192  -0.7851
    -0.6596  -0.6517  -0.4360  -0.4356  -0.2094  -0.1580  -0.0518  -0.0501
    -0.0187   0.0134   0.1054   0.1336   0.2810   0.2941   0.3632   0.4022
     1.2280   1.2329   1.2749   1.2789   1.3334   1.3516   1.5463   1.5465
     1.5565   1.5567  14.5509  14.5517  20.0146  20.1142  20.3264  20.3562
    20.4010  20.4149  22.7814  22.7909  22.8984  22.9820  23.1061  23.1447
    24.2558  24.2673  24.4669  24.4708  24.5602  24.7495  24.9285  24.9593
    25.4741  25.5009  27.0971  27.1505  27.3356  27.3499  27.5274  27.6084
    28.0643  28.0993  28.1576  28.3929  28.5244  28.5427  29.1059

     the Fermi energy is    26.7402 ev

!    total energy              =   -1481.61754873 Ry
     Harris-Foulkes estimate   =   -1481.61754886 Ry
     estimated scf accuracy    <       0.00000014 Ry

     The total energy is the sum of the following terms:

     one-electron contribution =    -285.00030187 Ry
     hartree contribution      =     227.70440137 Ry
     xc contribution           =    -143.56141107 Ry
     ewald contribution        =   -1280.38328352 Ry
     smearing contrib. (-TS)   =      -0.37695364 Ry

     convergence has been achieved in  12 iterations

     Forces acting on atoms (Ry/au):

     atom    1 type  1   force =     0.00000000    0.00000000    0.00000000
     atom    2 type  1   force =     0.00000000    0.00000000    0.00000000
     atom    3 type  1   force =     0.00000000    0.00000000    0.00000000
     atom    4 type  1   force =     0.00000000    0.00000000    0.00000000
     atom    5 type  1   force =     0.00000000    0.00000000    0.00000000
     atom    6 type  1   force =     0.00000000    0.00000000    0.00000000
     atom    7 type  2   force =     0.00000000    0.00000000    0.00000000
     atom    8 type  2   force =     0.00000000    0.00000000    0.00000000

     Total force =     0.000000     Total SCF correction =     0.000000

     entering subroutine stress ...

          total   stress  (Ry/bohr**3)                   (kbar)     P=  172.19
   0.00117052   0.00000000   0.00000000        172.19      0.00      0.00
   0.00000000   0.00117052   0.00000000          0.00    172.19      0.00
   0.00000000   0.00000000   0.00117052          0.00      0.00    172.19

     Writing output data file Prototype-La-cP8-Cr3Si.save

     General routines

     Parallel routines

   This run was terminated on:  17:59:14  22Mar2018

   JOB DONE.