     Program PWSCF v.5.0.2 starts on 22Mar2018 at 21:37: 9

     Current dimensions of program PWSCF are:
     Max number of different atomic species (ntypx) = 10
     Max number of k-points (npk) =  40000
     Max angular momentum in pseudopotentials (lmaxx) =  3
     Waiting for input...
     Reading input from standard input

     Subspace diagonalization in iterative solution of the eigenvalue problem:
     a serial algorithm will be used

     bravais-lattice index     =            0
     lattice parameter (alat)  =       7.0151  a.u.
     unit-cell volume          =     862.2778 (a.u.)^3
     number of atoms/cell      =           12
     number of atomic types    =            2
     number of electrons       =       280.00
     number of Kohn-Sham states=          168
     kinetic-energy cutoff     =      40.0000  Ry
     charge density cutoff     =     160.0000  Ry
     convergence threshold     =      1.0E-04
     mixing beta               =       0.7000
     number of iterations used =            8  plain     mixing
     Exchange-correlation      = SLA-PZ-NOGX-NOGC ( 1 1 0 0 0)
     EXX-fraction              =        0.00
     nstep                     =           50

     celldm(1)=   7.015105  celldm(2)=   0.000000  celldm(3)=   0.000000
     celldm(4)=   0.000000  celldm(5)=   0.000000  celldm(6)=   0.000000

     crystal axes: (cart. coord. in units of alat)
               a(1) = (   1.000000   0.000000   0.000000 )
               a(2) = (   0.000000   1.315963   0.000000 )
               a(3) = (   0.000000   0.000000   1.898020 )

     reciprocal axes: (cart. coord. in units 2 pi/alat)
               b(1) = (  1.000000  0.000000  0.000000 )
               b(2) = (  0.000000  0.759900  0.000000 )
               b(3) = (  0.000000  0.000000  0.526865 )

     PseudoPot. # 1 for Tm read from file:
     /home/cwx6513/pp.La/Tm.UPF
     MD5 check sum: 245516e0878b5372ceeb9443ded2c4e1
     Pseudo is Norm-conserving, Zval = 23.0
     Generated in analytical, separable form
     Using radial grid of 1269 points,  6 beta functions with:
                l(1) =   0
                l(2) =   0
                l(3) =   1
                l(4) =   1
                l(5) =   2
                l(6) =   3

     PseudoPot. # 2 for Yb read from file:
     /home/cwx6513/pp.La/Yb.UPF
     MD5 check sum: 3e859b81cc28c53ec6aa3a2e888efcdf
     Pseudo is Norm-conserving, Zval = 24.0
     Generated in analytical, separable form
     Using radial grid of 1269 points,  6 beta functions with:
                l(1) =   0
                l(2) =   0
                l(3) =   1
                l(4) =   1
                l(5) =   2
                l(6) =   3

     atomic species   valence    mass     pseudopotential
        Co            23.00    58.93320     Tm( 1.00)
        Si            24.00    28.08550     Yb( 1.00)

      8 Sym. Ops., with inversion, found ( 6 have fractional translation)

   Cartesian axes

     site n.     atom                  positions (alat units)
         1           Co  tau(   1) = (   0.7500000   1.0875135   0.8270358  )
         2           Co  tau(   2) = (   0.2500000   0.2284499   1.0709846  )
         3           Co  tau(   3) = (   0.7500000   0.4295318   0.1219744  )
         4           Co  tau(   4) = (   0.2500000   0.8864316   1.7760460  )
         5           Co  tau(   5) = (   0.2500000   0.7067855   0.5358966  )
         6           Co  tau(   6) = (   0.7500000   0.6091779   1.3621238  )
         7           Co  tau(   7) = (   0.2500000   0.0488038   0.4131136  )
         8           Co  tau(   8) = (   0.7500000   1.2671596   1.4849068  )
         9           Si  tau(   9) = (   0.2500000   0.2669484   1.6960710  )
        10           Si  tau(  10) = (   0.7500000   1.0490149   0.2019494  )
        11           Si  tau(  11) = (   0.2500000   0.9249301   1.1509596  )
        12           Si  tau(  12) = (   0.7500000   0.3910333   0.7470608  )

     number of k points=    12  gaussian smearing, width (Ry)=  0.1000
                       cart. coord. in units 2pi/alat
        k(    1) = (   0.0000000   0.0000000   0.0000000), wk =   0.0833333
        k(    2) = (   0.0000000   0.0000000   0.1317162), wk =   0.1666667
        k(    3) = (   0.0000000   0.0000000  -0.2634324), wk =   0.0833333
        k(    4) = (   0.0000000   0.2532999   0.0000000), wk =   0.1666667
        k(    5) = (   0.0000000   0.2532999   0.1317162), wk =   0.3333333
        k(    6) = (   0.0000000   0.2532999  -0.2634324), wk =   0.1666667
        k(    7) = (  -0.5000000   0.0000000   0.0000000), wk =   0.0833333
        k(    8) = (  -0.5000000   0.0000000   0.1317162), wk =   0.1666667
        k(    9) = (  -0.5000000   0.0000000  -0.2634324), wk =   0.0833333
        k(   10) = (  -0.5000000   0.2532999   0.0000000), wk =   0.1666667
        k(   11) = (  -0.5000000   0.2532999   0.1317162), wk =   0.3333333
        k(   12) = (  -0.5000000   0.2532999  -0.2634324), wk =   0.1666667

     Largest allocated arrays     est. size (Mb)     dimensions
     Largest temporary arrays     est. size (Mb)     dimensions

     Initial potential from superposition of free atoms

     Starting from uniform charge
     Starting wfc are    0 randomized atomic wfcs

     Self-consistent Calculation

     iteration #  1     ecut=    40.00 Ry     beta=0.70
     CG style diagonalization
     ethr =  1.00E-02,  avg # of iterations = 16.8

     total energy              =   -3919.30054132 Ry
     Harris-Foulkes estimate   =   -5288.84700368 Ry
     estimated scf accuracy    <    1713.01634729 Ry

     iteration #  2     ecut=    40.00 Ry     beta=0.70
     CG style diagonalization
     c_bands:  1 eigenvalues not converged
     c_bands:  1 eigenvalues not converged
     ethr =  1.00E-02,  avg # of iterations =  9.8

[...]

     End of self-consistent calculation

          k = 0.0000 0.0000 0.0000 (  3675 PWs)   bands (ev):

   -67.8708 -67.8407 -67.8371 -67.8074 -55.0280 -55.0175 -55.0150 -54.9975
   -54.8025 -54.7573 -54.6906 -54.6864 -27.0988 -27.0890 -27.0772 -27.0597
   -27.0319 -27.0305 -27.0122 -27.0102 -26.8025 -26.7948 -26.7763 -26.7568
   -14.5009 -14.3905 -14.3342 -14.2820 -14.2595 -14.2308 -14.2147 -14.1962
   -14.1920 -14.1003 -14.0053 -13.9715 -13.9380 -13.8998 -13.8139 -13.8035
   -13.7405 -13.7214 -13.6801 -13.6745 -13.6387 -13.5342 -13.4067 -13.3744
    27.0740  27.1298  27.4162  27.5413  27.5677  27.5931  27.7729  27.7851
    27.7888  27.8658  27.9207  28.0490  28.2288  28.2615  28.5749  29.0512
    29.3259  29.4113  29.4281  29.8053  30.9690  31.0245  31.3063  31.4730
    31.8525  32.0211  32.1010  32.3575  32.3968  32.4347  32.5356  32.6390
    32.6698  33.0639  33.2859  33.6128  33.8688  33.9623  33.9834  34.0700
    34.0706  34.0734  34.2805  34.5241  34.7523  34.9809  35.1696  35.2104
    35.6840  35.7527  35.8610  36.0760  36.0766  36.1066  36.3245  36.4337
    36.6929  36.7311  36.7358  37.0544  37.1174  37.7310  37.9759  43.1439
    43.3427  44.6426  44.8506  44.8569  47.6100  47.6414  49.9392  50.5959
    52.0709  52.4065  52.8790  53.0597  53.0668  53.4181  53.8349  54.6920
    54.9611  55.0625  55.2683  55.4438  56.1655  57.0699  57.2515  57.3243
    57.3275  57.4877  57.5148  57.9624  58.2143  58.2370  58.4033  58.4656
    59.1092  59.2670  59.3641  60.3126  60.3811  61.2064  61.4176  61.5411
    61.9117  61.9657  62.3646  62.4003  62.4498  63.0627  63.1203  63.6663
    64.0121  64.0537  64.4630  64.7870  65.7371  65.9931  66.0196  66.6178

[...]

          k =-0.5000 0.0000 0.0000 (  3722 PWs)   bands (ev):

[...]

     the Fermi energy is    58.6657 ev

!    total energy              =   -4553.36733478 Ry
     Harris-Foulkes estimate   =   -4553.36734580 Ry
     estimated scf accuracy    <       0.00001328 Ry

     The total energy is the sum of the following terms:

     one-electron contribution =    -107.20830569 Ry
     hartree contribution      =     468.44712930 Ry
     xc contribution           =    -386.60332348 Ry
     ewald contribution        =   -4527.43247537 Ry
     smearing contrib. (-TS)   =      -0.57035954 Ry

     convergence has been achieved in  10 iterations

     Forces acting on atoms (Ry/au):

     atom    1 type  1   force =     0.00000000   -0.04155128   -0.05699400
     atom    2 type  1   force =     0.00000000    0.04155128    0.05699400
     atom    3 type  1   force =     0.00000000   -0.04155128    0.05699400
     atom    4 type  1   force =     0.00000000    0.04155128   -0.05699400
     atom    5 type  1   force =     0.00000000    0.14716076   -0.35383644
     atom    6 type  1   force =     0.00000000   -0.14716076    0.35383644
     atom    7 type  1   force =     0.00000000    0.14716076    0.35383644
     atom    8 type  1   force =     0.00000000   -0.14716076   -0.35383644
     atom    9 type  2   force =     0.00000000   -0.26053720    0.03282559
     atom   10 type  2   force =     0.00000000    0.26053720   -0.03282559
     atom   11 type  2   force =     0.00000000   -0.26053720   -0.03282559
     atom   12 type  2   force =     0.00000000    0.26053720    0.03282559

     Total force =     0.939763     Total SCF correction =     0.000000

     entering subroutine stress ...

          total   stress  (Ry/bohr**3)                   (kbar)     P= 7862.11
   0.05784248   0.00000000   0.00000000       8508.92      0.00      0.00
   0.00000000   0.04969300   0.00000000          0.00   7310.09      0.00
   0.00000000   0.00000000   0.05280123          0.00      0.00   7767.33

     BFGS Geometry Optimization

     number of scf cycles    =   1
     number of bfgs steps    =   0

     enthalpy new            =   -4553.3673347827 Ry

     new trust radius        =       0.5000000000 bohr
     new conv_thr            =       0.0001000000 Ry

     new unit-cell volume =   1082.16441 a.u.^3 (   160.36022 Ang^3 )

CELL_PARAMETERS (alat=  7.01510508)
   1.085136619   0.000000000   0.000000000
   0.000000000   1.412215105   0.000000000
   0.000000000   0.000000000   2.045528021

ATOMIC_POSITIONS (crystal)
Co       0.750000000   0.826136006   0.435483987
Co       0.250000000   0.173863994   0.564516013
Co       0.750000000   0.326136006   0.064516013
Co       0.250000000   0.673863994   0.935483987
Co       0.250000000   0.538024520   0.280780423
Co       0.750000000   0.461975480   0.719219577
Co       0.250000000   0.038024520   0.219219577
Co       0.750000000   0.961975480   0.780780423
Si       0.250000000   0.201192420   0.893745147
Si       0.750000000   0.798807580   0.106254853
Si       0.250000000   0.701192420   0.606254853
Si       0.750000000   0.298807580   0.393745147

     Writing output data file Prototype-La-oP12-Co2Si.save
     NEW-OLD atomic charge density approx. for the potential
     NEW k-points:
        k(    1) = (   0.0000000   0.0000000   0.0000000), wk =   0.0833333
        k(    2) = (   0.0000000   0.0000000   0.1222178), wk =   0.1666667
        k(    3) = (   0.0000000   0.0000000  -0.2444357), wk =   0.0833333
        k(    4) = (   0.0000000   0.2360358   0.0000000), wk =   0.1666667
        k(    5) = (   0.0000000   0.2360358   0.1222178), wk =   0.3333333
        k(    6) = (   0.0000000   0.2360358  -0.2444357), wk =   0.1666667
        k(    7) = (  -0.4607715   0.0000000   0.0000000), wk =   0.0833333
        k(    8) = (  -0.4607715   0.0000000   0.1222178), wk =   0.1666667
        k(    9) = (  -0.4607715   0.0000000  -0.2444357), wk =   0.0833333
        k(   10) = (  -0.4607715   0.2360358   0.0000000), wk =   0.1666667
        k(   11) = (  -0.4607715   0.2360358   0.1222178), wk =   0.3333333
        k(   12) = (  -0.4607715   0.2360358  -0.2444357), wk =   0.1666667

[...]

     enthalpy old            =   -4553.3673347827 Ry
     enthalpy new            =   -4560.8612387173 Ry

     CASE: enthalpy_new < enthalpy_old

     small trust_radius: resetting bfgs history

     new trust radius        =       3.0216738308 bohr
     new conv_thr            =       0.0001000000 Ry

[...]

          total   stress  (Ry/bohr**3)                   (kbar)     P=-7065.22
  -0.04997422   0.00000000   0.00000000      -7351.46      0.00      0.00
   0.00000000  -0.04547613   0.00000000          0.00  -6689.77      0.00
   0.00000000   0.00000000  -0.04863488          0.00      0.00  -7154.44

     number of scf cycles    =   3
     number of bfgs steps    =   2

     enthalpy old            =   -4560.8612387173 Ry
     enthalpy new            =   -4498.6862705338 Ry

     CASE: enthalpy_new > enthalpy_old

     new trust radius        =       0.5422676147 bohr

     trust_radius < trust_radius_min

     resetting bfgs history

     Message from routine bfgs:
     history already reset at previous step: stopping
     new conv_thr            =       0.0001000000 Ry

     new unit-cell volume =   1294.05029 a.u.^3 (   191.75847 Ang^3 )

[...]

ATOMIC_POSITIONS (crystal)
Co       0.750000000   0.825935209   0.435356179
Co       0.250000000   0.174064791   0.564643821
Co       0.750000000   0.325935209   0.064643821
Co       0.250000000   0.674064791   0.935356179
Co       0.250000000   0.538795844   0.279278593
Co       0.750000000   0.461204156   0.720721407
Co       0.250000000   0.038795844   0.220721407
Co       0.750000000   0.961204156   0.779278593
Si       0.250000000   0.199336303   0.893955683
Si       0.750000000   0.800663697   0.106044317
Si       0.250000000   0.699336303   0.606044317
Si       0.750000000   0.300663697   0.393955683

     Writing output data file Prototype-La-oP12-Co2Si.save
     NEW-OLD atomic charge density approx. for the potential
     NEW k-points:
        k(    1) = (   0.0000000   0.0000000   0.0000000), wk =   0.0833333
        k(    2) = (   0.0000000   0.0000000   0.1149152), wk =   0.1666667
        k(    3) = (   0.0000000   0.0000000  -0.2298305), wk =   0.0833333
        k(    4) = (   0.0000000   0.2232719   0.0000000), wk =   0.1666667
        k(    5) = (   0.0000000   0.2232719   0.1149152), wk =   0.3333333
        k(    6) = (   0.0000000   0.2232719  -0.2298305), wk =   0.1666667
        k(    7) = (  -0.4332399   0.0000000   0.0000000), wk =   0.0833333
        k(    8) = (  -0.4332399   0.0000000   0.1149152), wk =   0.1666667
        k(    9) = (  -0.4332399   0.0000000  -0.2298305), wk =   0.0833333
        k(   10) = (  -0.4332399   0.2232719   0.0000000), wk =   0.1666667
        k(   11) = (  -0.4332399   0.2232719   0.1149152), wk =   0.3333333
        k(   12) = (  -0.4332399   0.2232719  -0.2298305), wk =   0.1666667

[...]

     The maximum number of steps has been reached.

     End of BFGS Geometry Optimization
Begin final coordinates
     new unit-cell volume =   1294.05029 a.u.^3 (   191.75847 Ang^3 )

CELL_PARAMETERS (alat=  7.01510508)
   1.154094894   0.000000000   0.000000000
   0.000000000   1.492948192   0.000000000
   0.000000000   0.000000000   2.175516377

ATOMIC_POSITIONS (crystal)
Co       0.750000000   0.825935209   0.435356179
Co       0.250000000   0.174064791   0.564643821
Co       0.750000000   0.325935209   0.064643821
Co       0.250000000   0.674064791   0.935356179
Co       0.250000000   0.538795844   0.279278593
Co       0.750000000   0.461204156   0.720721407
Co       0.250000000   0.038795844   0.220721407
Co       0.750000000   0.961204156   0.779278593
Si       0.250000000   0.199336303   0.893955683
Si       0.750000000   0.800663697   0.106044317
Si       0.250000000   0.699336303   0.606044317
Si       0.750000000   0.300663697   0.393955683
End final coordinates

     A final scf calculation at the relaxed structure.
     The G-vectors are recalculated for the final unit cell
     Results may differ from those at the preceding step.

     bravais-lattice index     =            0
     lattice parameter (alat)  =       7.0151  a.u.
     unit-cell volume          =    1294.0503 (a.u.)^3
     number of atoms/cell      =           12
     number of atomic types    =            2
     number of electrons       =       280.00
     number of Kohn-Sham states=          168
     kinetic-energy cutoff     =      40.0000  Ry
     charge density cutoff     =     160.0000  Ry
     convergence threshold     =      1.0E-04
     mixing beta               =       0.7000
     number of iterations used =            8  plain     mixing
     Exchange-correlation      = SLA-PZ-NOGX-NOGC ( 1 1 0 0 0)
     EXX-fraction              =        0.00

     celldm(1)=   7.015105  celldm(2)=   0.000000  celldm(3)=   0.000000
     celldm(4)=   0.000000  celldm(5)=   0.000000  celldm(6)=   0.000000

     crystal axes: (cart. coord. in units of alat)
               a(1) = (   1.154095   0.000000   0.000000 )
               a(2) = (   0.000000   1.492948   0.000000 )
               a(3) = (   0.000000   0.000000   2.175516 )

     reciprocal axes: (cart. coord. in units 2 pi/alat)
               b(1) = (  0.866480  0.000000  0.000000 )
               b(2) = (  0.000000  0.669816  0.000000 )
               b(3) = (  0.000000  0.000000  0.459661 )

     PseudoPot. # 1 for Tm read from file:
     /home/cwx6513/pp.La/Tm.UPF
     MD5 check sum: 245516e0878b5372ceeb9443ded2c4e1
     Pseudo is Norm-conserving, Zval = 23.0
     Generated in analytical, separable form
     Using radial grid of 1269 points,  6 beta functions with:
                l(1) =   0
                l(2) =   0
                l(3) =   1
                l(4) =   1
                l(5) =   2
                l(6) =   3

     PseudoPot. # 2 for Yb read from file:
     /home/cwx6513/pp.La/Yb.UPF
     MD5 check sum: 3e859b81cc28c53ec6aa3a2e888efcdf
     Pseudo is Norm-conserving, Zval = 24.0
     Generated in analytical, separable form
     Using radial grid of 1269 points,  6 beta functions with:
                l(1) =   0
                l(2) =   0
                l(3) =   1
                l(4) =   1
                l(5) =   2
                l(6) =   3

     atomic species   valence    mass     pseudopotential
        Co            23.00    58.93320     Tm( 1.00)
        Si            24.00    28.08550     Yb( 1.00)

      8 Sym. Ops., with inversion, found ( 6 have fractional translation)

   Cartesian axes

     site n.     atom                  positions (alat units)
         1           Co  tau(   1) = (   0.8655712   1.2330785   0.9471245  )
         2           Co  tau(   2) = (   0.2885237   0.2598697   1.2283919  )
         3           Co  tau(   3) = (   0.8655712   0.4866044   0.1406337  )
         4           Co  tau(   4) = (   0.2885237   1.0063438   2.0348827  )
         5           Co  tau(   5) = (   0.2885237   0.8043943   0.6075752  )
         6           Co  tau(   6) = (   0.8655712   0.6885539   1.5679412  )
         7           Co  tau(   7) = (   0.2885237   0.0579202   0.4801830  )
         8           Co  tau(   8) = (   0.8655712   1.4350280   1.6953333  )
         9           Si  tau(   9) = (   0.2885237   0.2975988   1.9448152  )
        10           Si  tau(  10) = (   0.8655712   1.1953494   0.2307011  )
        11           Si  tau(  11) = (   0.2885237   1.0440729   1.3184593  )
        12           Si  tau(  12) = (   0.8655712   0.4488753   0.8570570  )

     number of k points=    12  gaussian smearing, width (Ry)=  0.1000
                       cart. coord. in units 2pi/alat
        k(    1) = (   0.0000000   0.0000000   0.0000000), wk =   0.0833333
        k(    2) = (   0.0000000   0.0000000   0.1149152), wk =   0.1666667
        k(    3) = (   0.0000000   0.0000000  -0.2298305), wk =   0.0833333
        k(    4) = (   0.0000000   0.2232719   0.0000000), wk =   0.1666667
        k(    5) = (   0.0000000   0.2232719   0.1149152), wk =   0.3333333
        k(    6) = (   0.0000000   0.2232719  -0.2298305), wk =   0.1666667
        k(    7) = (  -0.4332399   0.0000000   0.0000000), wk =   0.0833333
        k(    8) = (  -0.4332399   0.0000000   0.1149152), wk =   0.1666667
        k(    9) = (  -0.4332399   0.0000000  -0.2298305), wk =   0.0833333
        k(   10) = (  -0.4332399   0.2232719   0.0000000), wk =   0.1666667
        k(   11) = (  -0.4332399   0.2232719   0.1149152), wk =   0.3333333
        k(   12) = (  -0.4332399   0.2232719  -0.2298305), wk =   0.1666667

     Largest allocated arrays     est. size (Mb)     dimensions
     Largest temporary arrays     est. size (Mb)     dimensions

     Initial potential from superposition of free atoms

     Starting from uniform charge
     Starting wfc are    0 randomized atomic wfcs

     Writing output data file Prototype-La-oP12-Co2Si.save

     Self-consistent Calculation

[...]

     iteration #  9     ecut=    40.00 Ry     beta=0.70
     CG style diagonalization
     c_bands:  1 eigenvalues not converged
     ethr =  4.18E-06,  avg # of iterations =  3.7

[...]

     total energy              =   -4570.71923262 Ry
     Harris-Foulkes estimate   =   -4570.71930169 Ry
     estimated scf accuracy    <       0.00012321 Ry

     iteration # 11     ecut=    40.00 Ry     beta=0.70
     CG style diagonalization
     ethr =  4.40E-08,  avg # of iterations =  4.1

     End of self-consistent calculation

[...]

          k = 0.0000 0.2233-0.2298 (  5506 PWs)   bands (ev):

[...]

          k =-0.4332 0.2233-0.2298 (  5536 PWs)   bands (ev):

   -86.1648 -86.1648 -86.1606 -86.1606 -73.0837 -73.0837 -73.0710 -73.0710
   -72.9873 -72.9873 -72.9865 -72.9865 -45.0944 -45.0944 -45.0930 -45.0930
   -45.0433 -45.0433 -45.0419 -45.0419 -44.9831 -44.9831 -44.9822 -44.9822
   -31.9139 -31.9139 -31.9092 -31.9092 -31.8772 -31.8772 -31.8723 -31.8723
   -31.8340 -31.8340 -31.8253 -31.8253 -31.8066 -31.8066 -31.7792 -31.7792
   -31.7760 -31.7760 -31.7566 -31.7566 -31.6957 -31.6957 -31.6753 -31.6753
    11.9631  11.9631  11.9886  11.9886  12.1039  12.1039  12.1386  12.1386
    12.2173  12.2173  12.2304  12.2304  12.3694  12.3694  12.3704  12.3704
    12.5599  12.5599  12.6260  12.6260  15.6918  15.6918  15.9287  15.9287
    16.0768  16.0768  16.1370  16.1370  16.1776  16.1776  16.3654  16.3654
    16.4881  16.4881  16.5682  16.5682  16.6514  16.6514  16.7592  16.7592
    16.7861  16.7861  16.9878  16.9878  17.0244  17.0244  17.1156  17.1156
    17.1241  17.1241  17.2834  17.2834  17.3149  17.3149  17.5136  17.5136
    17.6474  17.6474  17.8168  17.8168  22.2120  22.2120  22.5233  22.5233
    24.4919  24.4919  24.7408  24.7408  28.1539  28.1539  29.0731  29.0731
    30.5576  30.5576  30.9457  30.9457  32.9242  32.9242  33.5138  33.5138
    36.9665  36.9665  37.9177  37.9177  38.4252  38.4252  38.8858  38.8858
    39.0610  39.0610  39.5412  39.5412  40.6414  40.6414  40.7771  40.7771
    41.1352  41.1352  41.2471  41.2471  41.3698  41.3698  41.8525  41.8525
    42.1189  42.1189  42.3660  42.3660  42.4238  42.4238  44.2739  44.2739
    44.5529  44.5529  45.0112  45.0113  46.2716  46.2716  46.6578  46.6580

     the Fermi energy is    39.6420 ev

!    total energy              =   -4570.71927868 Ry
     Harris-Foulkes estimate   =   -4570.71928610 Ry
     estimated scf accuracy    <       0.00000873 Ry

     The total energy is the sum of the following terms:

     one-electron contribution =    -927.11588876 Ry
     hartree contribution      =     686.76106317 Ry
     xc contribution           =    -373.81674652 Ry
     ewald contribution        =   -3956.08235674 Ry
     smearing contrib. (-TS)   =      -0.46534982 Ry

     convergence has been achieved in  11 iterations

     Forces acting on atoms (Ry/au):

     atom    1 type  1   force =     0.00000000   -0.01512847   -0.03159040
     atom    2 type  1   force =     0.00000000    0.01512847    0.03159040
     atom    3 type  1   force =     0.00000000   -0.01512847    0.03159040
     atom    4 type  1   force =     0.00000000    0.01512847   -0.03159040
     atom    5 type  1   force =     0.00000000    0.06206896   -0.14690039
     atom    6 type  1   force =     0.00000000   -0.06206896    0.14690039
     atom    7 type  1   force =     0.00000000    0.06206896    0.14690039
     atom    8 type  1   force =     0.00000000   -0.06206896   -0.14690039
     atom    9 type  2   force =     0.00000000   -0.13664719    0.01614935
     atom   10 type  2   force =     0.00000000    0.13664719   -0.01614935
     atom   11 type  2   force =     0.00000000   -0.13664719   -0.01614935
     atom   12 type  2   force =     0.00000000    0.13664719    0.01614935

     Total force =     0.427047     Total SCF correction =     0.000000

     entering subroutine stress ...

          total   stress  (Ry/bohr**3)                   (kbar)     P= 1568.42
   0.01039803   0.00000000   0.00000000       1529.60      0.00      0.00
   0.00000000   0.01058830   0.00000000          0.00   1557.59      0.00
   0.00000000   0.00000000   0.01099942          0.00      0.00   1618.07

     Writing output data file Prototype-La-oP12-Co2Si.save

     General routines

     Parallel routines

   This run was terminated on:  22: 2:22  22Mar2018

   JOB DONE.