     Program PWSCF v.5.0.2 starts on 22Mar2018 at 21:37: 9

     Current dimensions of program PWSCF are:
     Max number of different atomic species (ntypx) = 10
     Max number of k-points (npk) =  40000
     Max angular momentum in pseudopotentials (lmaxx) =  3
     Waiting for input...
     Reading input from standard input

     Subspace diagonalization in iterative solution of the eigenvalue problem:
     a serial algorithm will be used

     bravais-lattice index     =            0
     lattice parameter (alat)  =      12.0168  a.u.
     unit-cell volume          =    1187.3413 (a.u.)^3
     number of atoms/cell      =            8
     number of atomic types    =            2
     number of electrons       =       186.00
     number of Kohn-Sham states=          112
     kinetic-energy cutoff     =      40.0000  Ry
     charge density cutoff     =     160.0000  Ry
     convergence threshold     =      1.0E-04
     mixing beta               =       0.7000
     number of iterations used =            8  plain     mixing
     Exchange-correlation      = SLA-PZ-NOGX-NOGC ( 1 1 0 0 0)
     EXX-fraction              =        0.00
     nstep                     =           50

     celldm(1)=  12.016801  celldm(2)=   0.000000  celldm(3)=   0.000000
     celldm(4)=   0.000000  celldm(5)=   0.000000  celldm(6)=   0.000000

     crystal axes: (cart. coord. in units of alat)
               a(1) = (   1.000000   0.000000   0.000000 )
               a(2) = (  -0.500000   0.866025   0.000000 )
               a(3) = (   0.000000   0.000000   0.790093 )

     reciprocal axes: (cart. coord. in units 2 pi/alat)
               b(1) = (  1.000000  0.577350  0.000000 )
               b(2) = (  0.000000  1.154701  0.000000 )
               b(3) = (  0.000000  0.000000  1.265674 )

     PseudoPot. # 1 for Tm read from file:
     /home/cwx6513/pp.La/Tm.UPF
     MD5 check sum: 245516e0878b5372ceeb9443ded2c4e1
     Pseudo is Norm-conserving, Zval = 23.0
     Generated in analytical, separable form
     Using radial grid of 1269 points,  6 beta functions with:
                l(1) =   0
                l(2) =   0
                l(3) =   1
                l(4) =   1
                l(5) =   2
                l(6) =   3

     PseudoPot. # 2 for Yb read from file:
     /home/cwx6513/pp.La/Yb.UPF
     MD5 check sum: 3e859b81cc28c53ec6aa3a2e888efcdf
     Pseudo is Norm-conserving, Zval = 24.0
     Generated in analytical, separable form
     Using radial grid of 1269 points,  6 beta functions with:
                l(1) =   0
                l(2) =   0
                l(3) =   1
                l(4) =   1
                l(5) =   2
                l(6) =   3

     atomic species   valence    mass     pseudopotential
        Mg            23.00    24.30500     Tm( 1.00)
        Cd            24.00   112.41100     Yb( 1.00)

     24 Sym. Ops., with inversion, found (12 have fractional translation)

   Cartesian axes

     site n.     atom                  positions (alat units)
         1           Mg  tau(   1) = (   0.2478935   0.7204716   0.1975233  )
         2           Mg  tau(   2) = (   0.7478935   0.1455538   0.5925699  )
         3           Mg  tau(   3) = (   0.2521065   0.1455538   0.5925699  )
         4           Mg  tau(   4) = (  -0.2478935   0.7204716   0.1975233  )
         5           Mg  tau(   5) = (   0.0000000   0.2911075   0.1975233  )
         6           Mg  tau(   6) = (   0.5000000   0.5749179   0.5925699  )
         7           Cd  tau(   7) = (   0.5000005   0.2886748   0.1975233  )
         8           Cd  tau(   8) = (  -0.0000005   0.5773506   0.5925699  )

     number of k points=    64  gaussian smearing, width (Ry)=  0.1000
                       cart. coord. in units 2pi/alat
        k(    1) = (   0.0000000   0.0000000   0.0000000), wk =   0.0095238
        k(    2) = (   0.0000000   0.0000000   0.1808105), wk =   0.0190476
        k(    3) = (   0.0000000   0.0000000   0.3616210), wk =   0.0190476
        k(    4) = (   0.0000000   0.0000000   0.5424315), wk =   0.0190476
        k(    5) = (   0.0000000   0.1924501   0.0000000), wk =   0.0190476
        k(    6) = (   0.0000000   0.1924501   0.1808105), wk =   0.0380952
        k(    7) = (   0.0000000   0.1924501   0.3616210), wk =   0.0380952
        k(    8) = (   0.0000000   0.1924501   0.5424315), wk =   0.0380952
        k(    9) = (   0.0000000   0.3849002   0.0000000), wk =   0.0190476
        k(   10) = (   0.0000000   0.3849002   0.1808105), wk =   0.0380952
        k(   11) = (   0.0000000   0.3849002   0.3616210), wk =   0.0380952
        k(   12) = (   0.0000000   0.3849002   0.5424315), wk =   0.0380952
        k(   13) = (   0.0000000  -0.5773503   0.0000000), wk =   0.0095238
        k(   14) = (   0.0000000  -0.5773503   0.1808105), wk =   0.0190476
        k(   15) = (   0.0000000  -0.5773503   0.3616210), wk =   0.0190476
        k(   16) = (   0.0000000  -0.5773503   0.5424315), wk =   0.0190476
        k(   17) = (   0.2000000   0.1154701   0.0000000), wk =   0.0190476
        k(   18) = (   0.2000000   0.1154701   0.1808105), wk =   0.0380952
        k(   19) = (   0.2000000   0.1154701   0.3616210), wk =   0.0380952
        k(   20) = (   0.2000000   0.1154701   0.5424315), wk =   0.0380952
        k(   21) = (   0.2000000   0.3079201   0.0000000), wk =   0.0190476
        k(   22) = (   0.2000000   0.3079201   0.1808105), wk =   0.0380952
        k(   23) = (   0.2000000   0.3079201   0.3616210), wk =   0.0380952
        k(   24) = (   0.2000000   0.3079201   0.5424315), wk =   0.0380952
        k(   25) = (   0.2000000   0.5003702   0.0000000), wk =   0.0190476
        k(   26) = (   0.2000000   0.5003702   0.1808105), wk =   0.0380952
        k(   27) = (   0.2000000   0.5003702   0.3616210), wk =   0.0380952
        k(   28) = (   0.2000000   0.5003702   0.5424315), wk =   0.0380952
        k(   29) = (   0.2000000  -0.4618802   0.0000000), wk =   0.0190476
        k(   30) = (   0.2000000  -0.4618802   0.1808105), wk =   0.0380952
        k(   31) = (   0.2000000  -0.4618802   0.3616210), wk =   0.0380952
        k(   32) = (   0.2000000  -0.4618802   0.5424315), wk =   0.0380952
        k(   33) = (   0.2000000  -0.2694301   0.0000000), wk =   0.0190476
        k(   34) = (   0.2000000  -0.2694301   0.1808105), wk =   0.0380952
        k(   35) = (   0.2000000  -0.2694301   0.3616210), wk =   0.0380952
        k(   36) = (   0.2000000  -0.2694301   0.5424315), wk =   0.0380952
        k(   37) = (   0.2000000  -0.0769800   0.0000000), wk =   0.0190476
        k(   38) = (   0.2000000  -0.0769800   0.1808105), wk =   0.0380952
        k(   39) = (   0.2000000  -0.0769800   0.3616210), wk =   0.0380952
        k(   40) = (   0.2000000  -0.0769800   0.5424315), wk =   0.0380952
        k(   41) = (   0.4000000   0.2309401   0.0000000), wk =   0.0190476
        k(   42) = (   0.4000000   0.2309401   0.1808105), wk =   0.0380952
        k(   43) = (   0.4000000   0.2309401   0.3616210), wk =   0.0380952
        k(   44) = (   0.4000000   0.2309401   0.5424315), wk =   0.0380952
        k(   45) = (   0.4000000   0.4233902   0.0000000), wk =   0.0190476
        k(   46) = (   0.4000000   0.4233902   0.1808105), wk =   0.0380952
        k(   47) = (   0.4000000   0.4233902   0.3616210), wk =   0.0380952
        k(   48) = (   0.4000000   0.4233902   0.5424315), wk =   0.0380952
        k(   49) = (   0.4000000   0.6158403   0.0000000), wk =   0.0190476
        k(   50) = (   0.4000000   0.6158403   0.1808105), wk =   0.0380952
        k(   51) = (   0.4000000   0.6158403   0.3616210), wk =   0.0380952
        k(   52) = (   0.4000000   0.6158403   0.5424315), wk =   0.0380952
        k(   53) = (   0.4000000  -0.3464102   0.0000000), wk =   0.0190476
        k(   54) = (   0.4000000  -0.3464102   0.1808105), wk =   0.0380952
        k(   55) = (   0.4000000  -0.3464102   0.3616210), wk =   0.0380952
        k(   56) = (   0.4000000  -0.3464102   0.5424315), wk =   0.0380952
        k(   57) = (   0.4000000  -0.1539601   0.0000000), wk =   0.0190476
        k(   58) = (   0.4000000  -0.1539601   0.1808105), wk =   0.0380952
        k(   59) = (   0.4000000  -0.1539601   0.3616210), wk =   0.0380952
        k(   60) = (   0.4000000  -0.1539601   0.5424315), wk =   0.0380952
        k(   61) = (   0.4000000   0.0384900   0.0000000), wk =   0.0190476
        k(   62) = (   0.4000000   0.0384900   0.1808105), wk =   0.0380952
        k(   63) = (   0.4000000   0.0384900   0.3616210), wk =   0.0380952
        k(   64) = (   0.4000000   0.0384900   0.5424315), wk =   0.0380952

     Largest allocated arrays     est. size (Mb)     dimensions
     Largest temporary arrays     est. size (Mb)     dimensions

     Initial potential from superposition of free atoms

     Starting from uniform charge
     Starting wfc are    0 randomized atomic wfcs

     Self-consistent Calculation

     iteration #  1     ecut=    40.00 Ry     beta=0.70
     CG style diagonalization
     ethr =  1.00E-02,  avg # of iterations = 19.6

     total energy              =   -2546.22880213 Ry
     Harris-Foulkes estimate   =   -3917.53149558 Ry
     estimated scf accuracy    <    1697.10939447 Ry

     iteration #  2     ecut=    40.00 Ry     beta=0.70
     CG style diagonalization
     c_bands:  1 eigenvalues not converged
     c_bands:  2 eigenvalues not converged
     c_bands:  1 eigenvalues not converged
     c_bands:  1 eigenvalues not converged
     c_bands:  1 eigenvalues not converged
     c_bands:  1 eigenvalues not converged
     ethr =  1.00E-02,  avg # of iterations =  9.9

[...]

     End of self-consistent calculation

          k = 0.0000 0.0000 0.0000 (  5047 PWs)   bands (ev):

   -96.7178 -96.7062 -84.0437 -84.0436 -84.0404 -84.0025 -84.0024 -83.9788
   -55.5480 -55.5451 -55.5198 -55.5198 -55.5149 -55.5149 -42.7822 -42.7370
   -42.7369 -42.7190 -42.7151 -42.7019 -42.7019 -42.6981 -42.6980 -42.6858
   -42.6814 -42.6813 -42.6532 -42.6380 -42.6379 -42.6351 -42.6351 -42.6309
     2.3777   2.3882   2.4024   2.4024   2.4172   2.4172   2.4458   2.4458
     2.4484   2.4484   5.6924   5.7230   5.7714   5.7714   5.8698   5.9359
     5.9427   5.9996   5.9997   6.0191   6.0192   6.1586   6.1586   6.3696
     6.3741   6.3840   6.3841   6.4969   6.4970   6.5706   6.5706   6.6458
     6.6459   6.7228   6.7228   6.8462   6.8462   6.8640   6.9511   6.9546
    10.6146  15.6040  16.8557  16.8559  17.3410  17.4627  17.4629  18.0871
    18.6482  22.5819  22.8371  22.9912  22.9913  23.3939  23.3940  23.6084
    24.2788  24.2789  26.3723  26.3723  26.7690  27.0092  27.3123  27.3124
    31.0841  31.0842  31.3712  31.6014  31.6014  31.7975  32.2742  32.3012
    32.3012  32.3282  32.4135  32.4135  32.9317  33.0470  34.9831  34.9832

[...]

     the Fermi energy is    27.7422 ev

!    total energy              =   -3023.05949425 Ry
     Harris-Foulkes estimate   =   -3023.05952239 Ry
     estimated scf accuracy    <       0.00003311 Ry

     The total energy is the sum of the following terms:

     one-electron contribution =    -993.25274222 Ry
     hartree contribution      =     572.57442091 Ry
[...]
        k(   18) = (   0.2062076   0.1190540   0.1854340), wk =   0.0380952
        k(   19) = (   0.2062076   0.1190540   0.3708679), wk =   0.0380952
        k(   20) = (   0.2062076   0.1190540   0.5563019), wk =   0.0380952
        k(   21) = (   0.2062076   0.3174774   0.0000000), wk =   0.0190476
        k(   22) = (   0.2062076   0.3174774   0.1854340), wk =   0.0380952
        k(   23) = (   0.2062076   0.3174774   0.3708679), wk =   0.0380952
        k(   24) = (   0.2062076   0.3174774   0.5563019), wk =   0.0380952
        k(   25) = (   0.2062076   0.5159007   0.0000000), wk =   0.0190476
        k(   26) = (   0.2062076   0.5159007   0.1854340), wk =   0.0380952
        k(   27) = (   0.2062076   0.5159007   0.3708679), wk =   0.0380952
        k(   28) = (   0.2062076   0.5159007   0.5563019), wk =   0.0380952
        k(   29) = (   0.2062076  -0.4762161   0.0000000), wk =   0.0190476
        k(   30) = (   0.2062076  -0.4762161   0.1854340), wk =   0.0380952
        k(   31) = (   0.2062076  -0.4762161   0.3708679), wk =   0.0380952
        k(   32) = (   0.2062076  -0.4762161   0.5563019), wk =   0.0380952
        k(   33) = (   0.2062076  -0.2777927   0.0000000), wk =   0.0190476
        k(   34) = (   0.2062076  -0.2777927   0.1854340), wk =   0.0380952
        k(   35) = (   0.2062076  -0.2777927   0.3708679), wk =   0.0380952
        k(   36) = (   0.2062076  -0.2777927   0.5563019), wk =   0.0380952
        k(   37) = (   0.2062076  -0.0793693   0.0000000), wk =   0.0190476
        k(   38) = (   0.2062076  -0.0793693   0.1854340), wk =   0.0380952
        k(   39) = (   0.2062076  -0.0793693   0.3708679), wk =   0.0380952
        k(   40) = (   0.2062076  -0.0793693   0.5563019), wk =   0.0380952
        k(   41) = (   0.4124152   0.2381080   0.0000000), wk =   0.0190476
        k(   42) = (   0.4124152   0.2381080   0.1854340), wk =   0.0380952
        k(   43) = (   0.4124152   0.2381080   0.3708679), wk =   0.0380952
        k(   44) = (   0.4124152   0.2381080   0.5563019), wk =   0.0380952
        k(   45) = (   0.4124152   0.4365314   0.0000000), wk =   0.0190476
        k(   46) = (   0.4124152   0.4365314   0.1854340), wk =   0.0380952
        k(   47) = (   0.4124152   0.4365314   0.3708679), wk =   0.0380952
        k(   48) = (   0.4124152   0.4365314   0.5563019), wk =   0.0380952
        k(   49) = (   0.4124152   0.6349548   0.0000000), wk =   0.0190476
        k(   50) = (   0.4124152   0.6349548   0.1854340), wk =   0.0380952
        k(   51) = (   0.4124152   0.6349548   0.3708679), wk =   0.0380952
        k(   52) = (   0.4124152   0.6349548   0.5563019), wk =   0.0380952
        k(   53) = (   0.4124152  -0.3571620   0.0000000), wk =   0.0190476
        k(   54) = (   0.4124152  -0.3571620   0.1854340), wk =   0.0380952
        k(   55) = (   0.4124152  -0.3571620   0.3708679), wk =   0.0380952
        k(   56) = (   0.4124152  -0.3571620   0.5563019), wk =   0.0380952
        k(   57) = (   0.4124152  -0.1587387   0.0000000), wk =   0.0190476
        k(   58) = (   0.4124152  -0.1587387   0.1854340), wk =   0.0380952
        k(   59) = (   0.4124152  -0.1587387   0.3708679), wk =   0.0380952
        k(   60) = (   0.4124152  -0.1587387   0.5563019), wk =   0.0380952
        k(   61) = (   0.4124152   0.0396847   0.0000000), wk =   0.0190476
        k(   62) = (   0.4124152   0.0396847   0.1854340), wk =   0.0380952
        k(   63) = (   0.4124152   0.0396847   0.3708679), wk =   0.0380952
        k(   64) = (   0.4124152   0.0396847   0.5563019), wk =   0.0380952

[...]

     Threshold (ethr) on eigenvalues was too large:
     Diagonalizing with lowered threshold

     CG style diagonalization
     ethr =  5.16E-09,  avg # of iterations =  3.5

[...]

     The maximum number of steps has been reached.

     End of BFGS Geometry Optimization
Begin final coordinates
     new unit-cell volume =   1089.08203 a.u.^3 (   161.38530 Ang^3 )

CELL_PARAMETERS (alat= 12.01680127)
   0.969896331   0.000000000   0.000000000
  -0.484948166   0.839954862   0.000000000
   0.000000000   0.000000000   0.770393641

ATOMIC_POSITIONS (crystal)
Mg       0.664806670   0.832403335   0.250000000
Mg       0.832403335   0.167596665   0.750000000
Mg       0.335193330   0.167596665   0.750000000
Mg       0.167596665   0.832403335   0.250000000
Mg       0.167596665   0.335193330   0.250000000
Mg       0.832403335   0.664806670   0.750000000
Cd       0.666667000   0.333333000   0.250000000
Cd       0.333333000   0.666667000   0.750000000
End final coordinates

     A final scf calculation at the relaxed structure.
     The G-vectors are recalculated for the final unit cell
     Results may differ from those at the preceding step.

     bravais-lattice index     =            0
     lattice parameter (alat)  =      12.0168  a.u.
     unit-cell volume          =    1089.0820 (a.u.)^3
     number of atoms/cell      =            8
     number of atomic types    =            2
     number of electrons       =       186.00
     number of Kohn-Sham states=          112
     kinetic-energy cutoff     =      40.0000  Ry
     charge density cutoff     =     160.0000  Ry
     convergence threshold     =      1.0E-04
     mixing beta               =       0.7000
     number of iterations used =            8  plain     mixing
     Exchange-correlation      = SLA-PZ-NOGX-NOGC ( 1 1 0 0 0)
     EXX-fraction              =        0.00

     celldm(1)=  12.016801  celldm(2)=   0.000000  celldm(3)=   0.000000
     celldm(4)=   0.000000  celldm(5)=   0.000000  celldm(6)=   0.000000

     crystal axes: (cart. coord. in units of alat)
               a(1) = (   0.969896   0.000000   0.000000 )
               a(2) = (  -0.484948   0.839955   0.000000 )
               a(3) = (   0.000000   0.000000   0.770394 )

     reciprocal axes: (cart. coord. in units 2 pi/alat)
               b(1) = (  1.031038  0.595270  0.000000 )
               b(2) = (  0.000000  1.190540  0.000000 )
               b(3) = (  0.000000  0.000000  1.298038 )

     PseudoPot. # 1 for Tm read from file:
     /home/cwx6513/pp.La/Tm.UPF
     MD5 check sum: 245516e0878b5372ceeb9443ded2c4e1
     Pseudo is Norm-conserving, Zval = 23.0
     Generated in analytical, separable form
     Using radial grid of 1269 points,  6 beta functions with:
                l(1) =   0
                l(2) =   0
                l(3) =   1
                l(4) =   1
                l(5) =   2
                l(6) =   3

     PseudoPot. # 2 for Yb read from file:
     /home/cwx6513/pp.La/Yb.UPF
     MD5 check sum: 3e859b81cc28c53ec6aa3a2e888efcdf
     Pseudo is Norm-conserving, Zval = 24.0
     Generated in analytical, separable form
     Using radial grid of 1269 points,  6 beta functions with:
                l(1) =   0
                l(2) =   0
                l(3) =   1
                l(4) =   1
                l(5) =   2
                l(6) =   3

     atomic species   valence    mass     pseudopotential
        Mg            23.00    24.30500     Tm( 1.00)
        Cd            24.00   112.41100     Yb( 1.00)

     24 Sym. Ops., with inversion, found (12 have fractional translation)

   Cartesian axes

     site n.     atom                  positions (alat units)
         1           Mg  tau(   1) = (   0.2411211   0.6991812   0.1925984  )
         2           Mg  tau(   2) = (   0.7260692   0.1407736   0.5777952  )
         3           Mg  tau(   3) = (   0.2438271   0.1407736   0.5777952  )
         4           Mg  tau(   4) = (  -0.2411211   0.6991812   0.1925984  )
         5           Mg  tau(   5) = (   0.0000000   0.2815473   0.1925984  )
         6           Mg  tau(   6) = (   0.4849482   0.5584076   0.5777952  )
         7           Cd  tau(   7) = (   0.4849487   0.2799847   0.1925984  )
         8           Cd  tau(   8) = (  -0.0000005   0.5599702   0.5777952  )

     number of k points=    64  gaussian smearing, width (Ry)=  0.1000
                       cart. coord. in units 2pi/alat
        k(    1) = (   0.0000000   0.0000000   0.0000000), wk =   0.0095238
        k(    2) = (   0.0000000   0.0000000   0.1854340), wk =   0.0190476
        k(    3) = (   0.0000000   0.0000000   0.3708679), wk =   0.0190476
        k(    4) = (   0.0000000   0.0000000   0.5563019), wk =   0.0190476
        k(    5) = (   0.0000000   0.1984234   0.0000000), wk =   0.0190476
        k(    6) = (   0.0000000   0.1984234   0.1854340), wk =   0.0380952
        k(    7) = (   0.0000000   0.1984234   0.3708679), wk =   0.0380952
        k(    8) = (   0.0000000   0.1984234   0.5563019), wk =   0.0380952
        k(    9) = (   0.0000000   0.3968467   0.0000000), wk =   0.0190476
        k(   10) = (   0.0000000   0.3968467   0.1854340), wk =   0.0380952
        k(   11) = (   0.0000000   0.3968467   0.3708679), wk =   0.0380952
        k(   12) = (   0.0000000   0.3968467   0.5563019), wk =   0.0380952
        k(   13) = (   0.0000000  -0.5952701   0.0000000), wk =   0.0095238
        k(   14) = (   0.0000000  -0.5952701   0.1854340), wk =   0.0190476
        k(   15) = (   0.0000000  -0.5952701   0.3708679), wk =   0.0190476
        k(   16) = (   0.0000000  -0.5952701   0.5563019), wk =   0.0190476
        k(   17) = (   0.2062076   0.1190540   0.0000000), wk =   0.0190476
        k(   18) = (   0.2062076   0.1190540   0.1854340), wk =   0.0380952
        k(   19) = (   0.2062076   0.1190540   0.3708679), wk =   0.0380952
        k(   20) = (   0.2062076   0.1190540   0.5563019), wk =   0.0380952
        k(   21) = (   0.2062076   0.3174774   0.0000000), wk =   0.0190476
        k(   22) = (   0.2062076   0.3174774   0.1854340), wk =   0.0380952
        k(   23) = (   0.2062076   0.3174774   0.3708679), wk =   0.0380952
        k(   24) = (   0.2062076   0.3174774   0.5563019), wk =   0.0380952
        k(   25) = (   0.2062076   0.5159007   0.0000000), wk =   0.0190476
        k(   26) = (   0.2062076   0.5159007   0.1854340), wk =   0.0380952
        k(   27) = (   0.2062076   0.5159007   0.3708679), wk =   0.0380952
        k(   28) = (   0.2062076   0.5159007   0.5563019), wk =   0.0380952
        k(   29) = (   0.2062076  -0.4762161   0.0000000), wk =   0.0190476
        k(   30) = (   0.2062076  -0.4762161   0.1854340), wk =   0.0380952
        k(   31) = (   0.2062076  -0.4762161   0.3708679), wk =   0.0380952
        k(   32) = (   0.2062076  -0.4762161   0.5563019), wk =   0.0380952
        k(   33) = (   0.2062076  -0.2777927   0.0000000), wk =   0.0190476
        k(   34) = (   0.2062076  -0.2777927   0.1854340), wk =   0.0380952
        k(   35) = (   0.2062076  -0.2777927   0.3708679), wk =   0.0380952
        k(   36) = (   0.2062076  -0.2777927   0.5563019), wk =   0.0380952
        k(   37) = (   0.2062076  -0.0793693   0.0000000), wk =   0.0190476
        k(   38) = (   0.2062076  -0.0793693   0.1854340), wk =   0.0380952
        k(   39) = (   0.2062076  -0.0793693   0.3708679), wk =   0.0380952
        k(   40) = (   0.2062076  -0.0793693   0.5563019), wk =   0.0380952
        k(   41) = (   0.4124152   0.2381080   0.0000000), wk =   0.0190476
        k(   42) = (   0.4124152   0.2381080   0.1854340), wk =   0.0380952
        k(   43) = (   0.4124152   0.2381080   0.3708679), wk =   0.0380952
        k(   44) = (   0.4124152   0.2381080   0.5563019), wk =   0.0380952
        k(   45) = (   0.4124152   0.4365314   0.0000000), wk =   0.0190476
        k(   46) = (   0.4124152   0.4365314   0.1854340), wk =   0.0380952
        k(   47) = (   0.4124152   0.4365314   0.3708679), wk =   0.0380952
        k(   48) = (   0.4124152   0.4365314   0.5563019), wk =   0.0380952
        k(   49) = (   0.4124152   0.6349548   0.0000000), wk =   0.0190476
        k(   50) = (   0.4124152   0.6349548   0.1854340), wk =   0.0380952
        k(   51) = (   0.4124152   0.6349548   0.3708679), wk =   0.0380952
        k(   52) = (   0.4124152   0.6349548   0.5563019), wk =   0.0380952
        k(   53) = (   0.4124152  -0.3571620   0.0000000), wk =   0.0190476
        k(   54) = (   0.4124152  -0.3571620   0.1854340), wk =   0.0380952
        k(   55) = (   0.4124152  -0.3571620   0.3708679), wk =   0.0380952
        k(   56) = (   0.4124152  -0.3571620   0.5563019), wk =   0.0380952
        k(   57) = (   0.4124152  -0.1587387   0.0000000), wk =   0.0190476
        k(   58) = (   0.4124152  -0.1587387   0.1854340), wk =   0.0380952
        k(   59) = (   0.4124152  -0.1587387   0.3708679), wk =   0.0380952
        k(   60) = (   0.4124152  -0.1587387   0.5563019), wk =   0.0380952
        k(   61) = (   0.4124152   0.0396847   0.0000000), wk =   0.0190476
        k(   62) = (   0.4124152   0.0396847   0.1854340), wk =   0.0380952
        k(   63) = (   0.4124152   0.0396847   0.3708679), wk =   0.0380952
        k(   64) = (   0.4124152   0.0396847   0.5563019), wk =   0.0380952

     Largest allocated arrays     est. size (Mb)     dimensions
     Largest temporary arrays     est. size (Mb)     dimensions

     Initial potential from superposition of free atoms

     Starting from uniform charge
     Starting wfc are    0 randomized atomic wfcs

     Writing output data file Prototype-La-hP8-Mg3Cd.save

     Self-consistent Calculation

[...]

     iteration #  7     ecut=    40.00 Ry     beta=0.70
     CG style diagonalization
     ethr =  4.66E-04,  avg # of iterations =  3.7

[...]

     total energy              =   -3022.33416585 Ry
     Harris-Foulkes estimate   =   -3022.33424390 Ry
     estimated scf accuracy    <       0.00013978 Ry

     iteration # 10     ecut=    40.00 Ry     beta=0.70
     CG style diagonalization
     c_bands:  1 eigenvalues not converged
     c_bands:  1 eigenvalues not converged
     ethr =  7.52E-08,  avg # of iterations =  4.1

     End of self-consistent calculation

[...]

          k = 0.4124 0.0397 0.5563 (  4651 PWs)   bands (ev):

   -94.0886 -94.0778 -81.3620 -81.3552 -81.3517 -81.3477 -81.3421 -81.3328
   -52.9122 -52.9103 -52.8912 -52.8882 -52.8867 -52.8850 -40.0926 -40.0794
   -40.0733 -40.0725 -40.0692 -40.0649 -40.0482 -40.0423 -40.0287 -40.0277
   -40.0219 -40.0210 -40.0096 -40.0032 -39.9944 -39.9890 -39.9882 -39.9809
     4.9021   4.9036   4.9303   4.9412   4.9446   4.9525   4.9721   4.9796
     4.9931   5.0012   8.2301   8.2315   8.2441   8.3320   8.3991   8.4184
     8.4419   8.4583   8.5353   8.5651   8.6943   8.7273   8.7697   8.8879
     8.9175   8.9286   8.9592   9.0519   9.0790   9.1238   9.1283   9.1936
     9.2050   9.2177   9.2702   9.3029   9.4454   9.4781   9.5481   9.6197
    14.6348  15.7867  17.1512  17.7033  18.3195  18.9191  20.8010  21.8000
    22.2790  23.3350  25.0886  25.6135  26.1059  26.6609  27.1012  27.9744
    29.0080  29.5959  30.2375  30.6607  31.1595  31.4198  31.6273  31.9257
    32.1062  32.7211  32.9115  33.0795  33.1982  33.4444  33.5305  33.7382
    35.6675  35.9840  36.1099  36.2292  36.5584  36.8435  36.8826  37.9460

     the Fermi energy is    30.6042 ev

!    total energy              =   -3022.33420957 Ry
     Harris-Foulkes estimate   =   -3022.33422140 Ry
     estimated scf accuracy    <       0.00001406 Ry

     The total energy is the sum of the following terms:

     one-electron contribution =    -887.98499966 Ry
     hartree contribution      =     538.23151159 Ry
     xc contribution           =    -244.44270130 Ry
     ewald contribution        =   -2427.85412393 Ry
     smearing contrib. (-TS)   =      -0.28389627 Ry

     convergence has been achieved in  10 iterations

     Forces acting on atoms (Ry/au):

     atom    1 type  1   force =     0.00536729    0.00309881    0.00000000
     atom    2 type  1   force =     0.00536729   -0.00309881    0.00000000
     atom    3 type  1   force =    -0.00536729   -0.00309881    0.00000000
     atom    4 type  1   force =    -0.00536729    0.00309881    0.00000000
     atom    5 type  1   force =     0.00000000   -0.00619762    0.00000000
     atom    6 type  1   force =     0.00000000    0.00619762    0.00000000
     atom    7 type  2   force =     0.00000000    0.00000000    0.00000000
     atom    8 type  2   force =     0.00000000    0.00000000    0.00000000

     Total force =     0.015181     Total SCF correction =     0.000000

     entering subroutine stress ...

          total   stress  (Ry/bohr**3)                   (kbar)     P=  118.85
   0.00074244   0.00000000   0.00000000        109.22      0.00      0.00
   0.00000000   0.00074244   0.00000000          0.00    109.22      0.00
   0.00000000   0.00000000   0.00093897          0.00      0.00    138.13

     Writing output data file Prototype-La-hP8-Mg3Cd.save

     General routines

     Parallel routines

   This run was terminated on:  22:31:20  22Mar2018

   JOB DONE.