     Program PWSCF v.5.0.2 starts on 22Mar2018 at 12: 7:51

     Current dimensions of program PWSCF are:
     Max number of different atomic species (ntypx) = 10
     Max number of k-points (npk) =  40000
     Max angular momentum in pseudopotentials (lmaxx) =  3
     Waiting for input...
     Reading input from standard input

     Subspace diagonalization in iterative solution of the eigenvalue problem:
     a serial algorithm will be used

     bravais-lattice index     =            0
     lattice parameter (alat)  =       7.0151  a.u.
     unit-cell volume          =     862.2778 (a.u.)^3
     number of atoms/cell      =           12
     number of atomic types    =            2
     number of electrons       =       260.00
     number of Kohn-Sham states=          156
     kinetic-energy cutoff     =      40.0000  Ry
     charge density cutoff     =     160.0000  Ry
     convergence threshold     =      1.0E-04
     mixing beta               =       0.7000
     number of iterations used =            8  plain     mixing
     Exchange-correlation      = SLA-PZ-NOGX-NOGC ( 1 1 0 0 0)
     EXX-fraction              =        0.00
     nstep                     =           50

     celldm(1)=   7.015105  celldm(2)=   0.000000  celldm(3)=   0.000000
     celldm(4)=   0.000000  celldm(5)=   0.000000  celldm(6)=   0.000000

     crystal axes: (cart. coord. in units of alat)
               a(1) = (   1.000000   0.000000   0.000000 )
               a(2) = (   0.000000   1.315963   0.000000 )
               a(3) = (   0.000000   0.000000   1.898020 )

     reciprocal axes: (cart. coord. in units 2 pi/alat)
               b(1) = (  1.000000  0.000000  0.000000 )
               b(2) = (  0.000000  0.759900  0.000000 )
               b(3) = (  0.000000  0.000000  0.526865 )

     PseudoPot. # 1 for Yb read from file:
     /home/jld5415/pp.La/Yb.UPF
     MD5 check sum: 3e859b81cc28c53ec6aa3a2e888efcdf
     Pseudo is Norm-conserving, Zval = 24.0
     Generated in analytical, separable form
     Using radial grid of 1269 points,  6 beta functions with:
                l(1) =   0
                l(2) =   0
                l(3) =   1
                l(4) =   1
                l(5) =   2
                l(6) =   3

     PseudoPot. # 2 for Eu read from file:
     /home/jld5415/pp.La/Eu.UPF
     MD5 check sum: 5efdbbfc50c6a10138933a6429836ad2
     Pseudo is Norm-conserving, Zval = 17.0
     Generated in analytical, separable form
     Using radial grid of 1261 points,  6 beta functions with:
                l(1) =   0
                l(2) =   0
                l(3) =   1
                l(4) =   1
                l(5) =   2
                l(6) =   3

     atomic species   valence    mass     pseudopotential
        Co            24.00    58.93320     Yb( 1.00)
        Si            17.00    28.08550     Eu( 1.00)

      8 Sym. Ops., with inversion, found ( 6 have fractional translation)

   Cartesian axes

     site n.     atom                  positions (alat units)
         1           Co  tau(   1) = (   0.7500000   1.0875135   0.8270358  )
         2           Co  tau(   2) = (   0.2500000   0.2284499   1.0709846  )
         3           Co  tau(   3) = (   0.7500000   0.4295318   0.1219744  )
         4           Co  tau(   4) = (   0.2500000   0.8864316   1.7760460  )
         5           Co  tau(   5) = (   0.2500000   0.7067855   0.5358966  )
         6           Co  tau(   6) = (   0.7500000   0.6091779   1.3621238  )
         7           Co  tau(   7) = (   0.2500000   0.0488038   0.4131136  )
         8           Co  tau(   8) = (   0.7500000   1.2671596   1.4849068  )
         9           Si  tau(   9) = (   0.2500000   0.2669484   1.6960710  )
        10           Si  tau(  10) = (   0.7500000   1.0490149   0.2019494  )
        11           Si  tau(  11) = (   0.2500000   0.9249301   1.1509596  )
        12           Si  tau(  12) = (   0.7500000   0.3910333   0.7470608  )

     number of k points=    12  gaussian smearing, width (Ry)=  0.1000
                       cart. coord. in units 2pi/alat
        k(    1) = (   0.0000000   0.0000000   0.0000000), wk =   0.0833333
        k(    2) = (   0.0000000   0.0000000   0.1317162), wk =   0.1666667
        k(    3) = (   0.0000000   0.0000000  -0.2634324), wk =   0.0833333
        k(    4) = (   0.0000000   0.2532999   0.0000000), wk =   0.1666667
        k(    5) = (   0.0000000   0.2532999   0.1317162), wk =   0.3333333
        k(    6) = (   0.0000000   0.2532999  -0.2634324), wk =   0.1666667
        k(    7) = (  -0.5000000   0.0000000   0.0000000), wk =   0.0833333
        k(    8) = (  -0.5000000   0.0000000   0.1317162), wk =   0.1666667
        k(    9) = (  -0.5000000   0.0000000  -0.2634324), wk =   0.0833333
        k(   10) = (  -0.5000000   0.2532999   0.0000000), wk =   0.1666667
        k(   11) = (  -0.5000000   0.2532999   0.1317162), wk =   0.3333333
        k(   12) = (  -0.5000000   0.2532999  -0.2634324), wk =   0.1666667

     Largest allocated arrays     est. size (Mb)     dimensions
     Largest temporary arrays     est. size (Mb)     dimensions

     Initial potential from superposition of free atoms

     Starting from uniform charge
     Starting wfc are    0 randomized atomic wfcs

     Self-consistent Calculation

     iteration #  1     ecut=    40.00 Ry     beta=0.70
     CG style diagonalization
     ethr =  1.00E-02,  avg # of iterations = 17.7

     total energy              =   -2903.18065614 Ry
     Harris-Foulkes estimate   =   -4685.96868083 Ry
     estimated scf accuracy    <    2178.26067933 Ry

     iteration #  2     ecut=    40.00 Ry     beta=0.70
     CG style diagonalization
     c_bands:  5 eigenvalues not converged
     c_bands:  4 eigenvalues not converged
     c_bands:  2 eigenvalues not converged
     c_bands:  1 eigenvalues not converged
     c_bands:  3 eigenvalues not converged
     ethr =  1.00E-02,  avg # of iterations = 14.2

[...]

     End of self-consistent calculation

          k = 0.0000 0.0000 0.0000 (  3675 PWs)   bands (ev):

   -69.5313 -69.5302 -69.5019 -69.4757 -69.4673 -69.4356 -69.3811 -69.3768
   -28.8434 -28.7702 -28.7521 -28.6943 -28.6898 -28.6613 -28.6363 -28.6196
   -28.6142 -28.5496 -28.5311 -28.5032 -28.5029 -28.4838 -28.4630 -28.4489
   -28.4121 -28.4102 -28.3999 -28.3874 -28.3779 -28.2776 -28.2013 -28.1919
   -11.2464 -11.1600 -11.1583 -11.1348  13.9771  14.2798  14.3356  14.3755
    14.4012  14.4016  14.5618  14.5837  14.9041  15.1976  15.2389  15.6051
    25.6403  25.7407  25.8028  25.8252  25.9704  26.1692  26.2345  26.3357
    26.8520  26.9436  27.0640  27.1296  27.2820  27.5576  27.7011  28.0166
    28.1619  28.2388  28.2876  28.2877  28.3278  28.4607  28.5888  28.6061
    28.8244  28.8510  28.8846  28.9891  29.2319  29.4942  29.5369  29.5806
    29.7416  29.8005  30.2275  30.2714  30.4046  30.5648  30.6712  30.6882
    31.9957  36.6371  36.7061  36.7637  40.4527  40.8521  41.3751  42.0184
    42.0996  43.0361  43.3751  43.6704  44.7036  44.7913  45.1109  45.1174
    45.5802  45.8044  46.0711  46.6892  47.5986  47.8949  48.2085  48.2723
    48.2886  48.7872  49.0029  50.6416  51.4440  52.1606  52.5011  53.4580
    53.7713  54.5201  55.2306  55.4699  55.7504  55.9275  55.9788  56.6347
    56.6386  57.4811  57.7231  57.7497  57.8858  57.9257  58.2962  58.3124
    58.4149  58.6446  58.7345  58.8799  59.1956  59.4795  59.6169  59.6858
    59.9705  60.4406  60.6413  61.1110  62.0182  62.2616  62.8095  62.9836
    63.0400  63.1883  63.7095  63.7703

[...]

          k =-0.5000 0.0000 0.0000 (  3722 PWs)   bands (ev):

[...]

     the Fermi energy is    57.1445 ev

!    total energy              =   -3958.91821684 Ry
     Harris-Foulkes estimate   =   -3958.91824956 Ry
     estimated scf accuracy    <       0.00003859 Ry

     The total energy is the sum of the following terms:

     one-electron contribution =     -55.88170072 Ry
     hartree contribution      =     403.03824100 Ry
     xc contribution           =    -346.54605760 Ry
     ewald contribution        =   -3959.10849286 Ry
     smearing contrib. (-TS)   =      -0.42020666 Ry

     convergence has been achieved in  10 iterations

     Forces acting on atoms (Ry/au):

     atom    1 type  1   force =     0.00000000   -0.06308112   -0.10415186
     atom    2 type  1   force =     0.00000000    0.06308112    0.10415186
     atom    3 type  1   force =     0.00000000   -0.06308112    0.10415186
     atom    4 type  1   force =     0.00000000    0.06308112   -0.10415186
     atom    5 type  1   force =     0.00000000    0.08888695   -0.04742177
     atom    6 type  1   force =     0.00000000   -0.08888695    0.04742177
     atom    7 type  1   force =     0.00000000    0.08888695    0.04742177
     atom    8 type  1   force =     0.00000000   -0.08888695   -0.04742177
     atom    9 type  2   force =     0.00000000   -0.19548270    0.07315516
     atom   10 type  2   force =     0.00000000    0.19548270   -0.07315516
     atom   11 type  2   force =     0.00000000   -0.19548270   -0.07315516
     atom   12 type  2   force =     0.00000000    0.19548270    0.07315516

     Total force =     0.523609     Total SCF correction =     0.000000

     entering subroutine stress ...

          total   stress  (Ry/bohr**3)                   (kbar)     P= 7348.68
   0.05098531   0.00000000   0.00000000       7500.20      0.00      0.00
   0.00000000   0.04883235   0.00000000          0.00   7183.48      0.00
   0.00000000   0.00000000   0.05004828          0.00      0.00   7362.35

     BFGS Geometry Optimization

     number of scf cycles    =   1
     number of bfgs steps    =   0

     enthalpy new            =   -3958.9182168393 Ry

     new trust radius        =       0.5000000000 bohr
     new conv_thr            =       0.0001000000 Ry

     new unit-cell volume =   1096.56051 a.u.^3 (   162.49350 Ang^3 )

CELL_PARAMETERS (alat=  7.01510508)
   1.085136619   0.000000000   0.000000000
   0.000000000   1.423269073   0.000000000
   0.000000000   0.000000000   2.056641650

ATOMIC_POSITIONS (crystal)
Co       0.750000000   0.825944593   0.435213528
Co       0.250000000   0.174055407   0.564786472
Co       0.750000000   0.325944593   0.064786472
Co       0.250000000   0.674055407   0.935213528
Co       0.250000000   0.537729119   0.282107111
Co       0.750000000   0.462270881   0.717892889
Co       0.250000000   0.037729119   0.217892889
Co       0.750000000   0.962270881   0.782107111
Si       0.250000000   0.201439634   0.893966979
Si       0.750000000   0.798560366   0.106033021
Si       0.250000000   0.701439634   0.606033021
Si       0.750000000   0.298560366   0.393966979

     Writing output data file Prototype-La-oP12-Co2Si.save
     NEW-OLD atomic charge density approx. for the potential
     NEW k-points:
        k(    1) = (   0.0000000   0.0000000   0.0000000), wk =   0.0833333
        k(    2) = (   0.0000000   0.0000000   0.1215574), wk =   0.1666667
        k(    3) = (   0.0000000   0.0000000  -0.2431148), wk =   0.0833333
        k(    4) = (   0.0000000   0.2342026   0.0000000), wk =   0.1666667
        k(    5) = (   0.0000000   0.2342026   0.1215574), wk =   0.3333333
        k(    6) = (   0.0000000   0.2342026  -0.2431148), wk =   0.1666667
        k(    7) = (  -0.4607715   0.0000000   0.0000000), wk =   0.0833333
        k(    8) = (  -0.4607715   0.0000000   0.1215574), wk =   0.1666667
        k(    9) = (  -0.4607715   0.0000000  -0.2431148), wk =   0.0833333
        k(   10) = (  -0.4607715   0.2342026   0.0000000), wk =   0.1666667
        k(   11) = (  -0.4607715   0.2342026   0.1215574), wk =   0.3333333
        k(   12) = (  -0.4607715   0.2342026  -0.2431148), wk =   0.1666667

[...]

     enthalpy old            =   -3958.9182168393 Ry
     enthalpy new            =   -3966.1080950764 Ry

     CASE: enthalpy_new < enthalpy_old

     small trust_radius: resetting bfgs history

     new trust radius        =       2.5278335116 bohr
     new conv_thr            =       0.0001000000 Ry

[...]

          total   stress  (Ry/bohr**3)                   (kbar)     P=-5617.40
  -0.03871435   0.00000000   0.00000000      -5695.08      0.00      0.00
   0.00000000  -0.03755683   0.00000000          0.00  -5524.80      0.00
   0.00000000   0.00000000  -0.03828769          0.00      0.00  -5632.31

     number of scf cycles    =   3
     number of bfgs steps    =   2

     enthalpy old            =   -3966.1080950764 Ry
     enthalpy new            =   -3927.7581784069 Ry

     CASE: enthalpy_new > enthalpy_old

     new trust radius        =       0.4917556105 bohr

     trust_radius < trust_radius_min

     resetting bfgs history

     Message from routine bfgs:
     history already reset at previous step: stopping
     new conv_thr            =       0.0001000000 Ry

     new unit-cell volume =   1320.11308 a.u.^3 (   195.62057 Ang^3 )

[...]

ATOMIC_POSITIONS (crystal)
Co       0.750000000   0.825544251   0.434797533
Co       0.250000000   0.174455749   0.565202467
Co       0.750000000   0.325544251   0.065202467
Co       0.250000000   0.674455749   0.934797533
Co       0.250000000   0.537835307   0.282210845
Co       0.750000000   0.462164693   0.717789155
Co       0.250000000   0.037835307   0.217789155
Co       0.750000000   0.962164693   0.782210845
Si       0.250000000   0.199970200   0.894648558
Si       0.750000000   0.800029800   0.105351442
Si       0.250000000   0.699970200   0.605351442
Si       0.750000000   0.300029800   0.394648558

     Writing output data file Prototype-La-oP12-Co2Si.save
     NEW-OLD atomic charge density approx. for the potential
     NEW k-points:
        k(    1) = (   0.0000000   0.0000000   0.0000000), wk =   0.0833333
        k(    2) = (   0.0000000   0.0000000   0.1142044), wk =   0.1666667
        k(    3) = (   0.0000000   0.0000000  -0.2284087), wk =   0.0833333
        k(    4) = (   0.0000000   0.2203860   0.0000000), wk =   0.1666667
        k(    5) = (   0.0000000   0.2203860   0.1142044), wk =   0.3333333
        k(    6) = (   0.0000000   0.2203860  -0.2284087), wk =   0.1666667
        k(    7) = (  -0.4329257   0.0000000   0.0000000), wk =   0.0833333
        k(    8) = (  -0.4329257   0.0000000   0.1142044), wk =   0.1666667
        k(    9) = (  -0.4329257   0.0000000  -0.2284087), wk =   0.0833333
        k(   10) = (  -0.4329257   0.2203860   0.0000000), wk =   0.1666667
        k(   11) = (  -0.4329257   0.2203860   0.1142044), wk =   0.3333333
        k(   12) = (  -0.4329257   0.2203860  -0.2284087), wk =   0.1666667

[...]

     The maximum number of steps has been reached.

     End of BFGS Geometry Optimization
Begin final coordinates
     new unit-cell volume =   1320.11308 a.u.^3 (   195.62057 Ang^3 )

CELL_PARAMETERS (alat=  7.01510508)
   1.154932516   0.000000000   0.000000000
   0.000000000   1.512497556   0.000000000
   0.000000000   0.000000000   2.189058169

ATOMIC_POSITIONS (crystal)
Co       0.750000000   0.825544251   0.434797533
Co       0.250000000   0.174455749   0.565202467
Co       0.750000000   0.325544251   0.065202467
Co       0.250000000   0.674455749   0.934797533
Co       0.250000000   0.537835307   0.282210845
Co       0.750000000   0.462164693   0.717789155
Co       0.250000000   0.037835307   0.217789155
Co       0.750000000   0.962164693   0.782210845
Si       0.250000000   0.199970200   0.894648558
Si       0.750000000   0.800029800   0.105351442
Si       0.250000000   0.699970200   0.605351442
Si       0.750000000   0.300029800   0.394648558
End final coordinates

     A final scf calculation at the relaxed structure.
     The G-vectors are recalculated for the final unit cell
     Results may differ from those at the preceding step.

     bravais-lattice index     =            0
     lattice parameter (alat)  =       7.0151  a.u.
     unit-cell volume          =    1320.1131 (a.u.)^3
     number of atoms/cell      =           12
     number of atomic types    =            2
     number of electrons       =       260.00
     number of Kohn-Sham states=          156
     kinetic-energy cutoff     =      40.0000  Ry
     charge density cutoff     =     160.0000  Ry
     convergence threshold     =      1.0E-04
     mixing beta               =       0.7000
     number of iterations used =            8  plain     mixing
     Exchange-correlation      = SLA-PZ-NOGX-NOGC ( 1 1 0 0 0)
     EXX-fraction              =        0.00

     celldm(1)=   7.015105  celldm(2)=   0.000000  celldm(3)=   0.000000
     celldm(4)=   0.000000  celldm(5)=   0.000000  celldm(6)=   0.000000

     crystal axes: (cart. coord. in units of alat)
               a(1) = (   1.154933   0.000000   0.000000 )
               a(2) = (   0.000000   1.512498   0.000000 )
               a(3) = (   0.000000   0.000000   2.189058 )

     reciprocal axes: (cart. coord. in units 2 pi/alat)
               b(1) = (  0.865851  0.000000  0.000000 )
               b(2) = (  0.000000  0.661158  0.000000 )
               b(3) = (  0.000000  0.000000  0.456817 )

     PseudoPot. # 1 for Yb read from file:
     /home/jld5415/pp.La/Yb.UPF
     MD5 check sum: 3e859b81cc28c53ec6aa3a2e888efcdf
     Pseudo is Norm-conserving, Zval = 24.0
     Generated in analytical, separable form
     Using radial grid of 1269 points,  6 beta functions with:
                l(1) =   0
                l(2) =   0
                l(3) =   1
                l(4) =   1
                l(5) =   2
                l(6) =   3

     PseudoPot. # 2 for Eu read from file:
     /home/jld5415/pp.La/Eu.UPF
     MD5 check sum: 5efdbbfc50c6a10138933a6429836ad2
     Pseudo is Norm-conserving, Zval = 17.0
     Generated in analytical, separable form
     Using radial grid of 1261 points,  6 beta functions with:
                l(1) =   0
                l(2) =   0
                l(3) =   1
                l(4) =   1
                l(5) =   2
                l(6) =   3

     atomic species   valence    mass     pseudopotential
        Co            24.00    58.93320     Yb( 1.00)
        Si            17.00    28.08550     Eu( 1.00)

      8 Sym. Ops., with inversion, found ( 6 have fractional translation)

   Cartesian axes

     site n.     atom                  positions (alat units)
         1           Co  tau(   1) = (   0.8661994   1.2486337   0.9517971  )
         2           Co  tau(   2) = (   0.2887331   0.2638639   1.2372611  )
         3           Co  tau(   3) = (   0.8661994   0.4923849   0.1427320  )
         4           Co  tau(   4) = (   0.2887331   1.0201127   2.0463262  )
         5           Co  tau(   5) = (   0.2887331   0.8134746   0.6177760  )
         6           Co  tau(   6) = (   0.8661994   0.6990230   1.5712822  )
         7           Co  tau(   7) = (   0.2887331   0.0572258   0.4767531  )
         8           Co  tau(   8) = (   0.8661994   1.4552717   1.7123050  )
         9           Si  tau(   9) = (   0.2887331   0.3024544   1.9584377  )
        10           Si  tau(  10) = (   0.8661994   1.2100431   0.2306204  )
        11           Si  tau(  11) = (   0.2887331   1.0587032   1.3251495  )
        12           Si  tau(  12) = (   0.8661994   0.4537943   0.8639086  )

     number of k points=    12  gaussian smearing, width (Ry)=  0.1000
                       cart. coord. in units 2pi/alat
        k(    1) = (   0.0000000   0.0000000   0.0000000), wk =   0.0833333
        k(    2) = (   0.0000000   0.0000000   0.1142044), wk =   0.1666667
        k(    3) = (   0.0000000   0.0000000  -0.2284087), wk =   0.0833333
        k(    4) = (   0.0000000   0.2203860   0.0000000), wk =   0.1666667
        k(    5) = (   0.0000000   0.2203860   0.1142044), wk =   0.3333333
        k(    6) = (   0.0000000   0.2203860  -0.2284087), wk =   0.1666667
        k(    7) = (  -0.4329257   0.0000000   0.0000000), wk =   0.0833333
        k(    8) = (  -0.4329257   0.0000000   0.1142044), wk =   0.1666667
        k(    9) = (  -0.4329257   0.0000000  -0.2284087), wk =   0.0833333
        k(   10) = (  -0.4329257   0.2203860   0.0000000), wk =   0.1666667
        k(   11) = (  -0.4329257   0.2203860   0.1142044), wk =   0.3333333
        k(   12) = (  -0.4329257   0.2203860  -0.2284087), wk =   0.1666667

     Largest allocated arrays     est. size (Mb)     dimensions
     Largest temporary arrays     est. size (Mb)     dimensions

     Initial potential from superposition of free atoms

     Starting from uniform charge
     Starting wfc are    0 randomized atomic wfcs

     Writing output data file Prototype-La-oP12-Co2Si.save

     Self-consistent Calculation

[...]

     iteration #  9     ecut=    40.00 Ry     beta=0.70
     CG style diagonalization
     c_bands:  1 eigenvalues not converged
     ethr =  1.66E-06,  avg # of iterations =  4.5

[...]

     total energy              =   -3973.97002896 Ry
     Harris-Foulkes estimate   =   -3973.97008034 Ry
     estimated scf accuracy    <       0.00010171 Ry

     iteration # 11     ecut=    40.00 Ry     beta=0.70
     CG style diagonalization
     ethr =  3.91E-08,  avg # of iterations =  3.6

     End of self-consistent calculation

[...]

          k = 0.0000 0.2204-0.2284 (  5606 PWs)   bands (ev):

[...]

          k =-0.4329 0.2204-0.2284 (  5652 PWs)   bands (ev):

   -88.6362 -88.6362 -88.6220 -88.6220 -88.5301 -88.5301 -88.5293 -88.5293
   -47.4831 -47.4831 -47.4826 -47.4826 -47.4614 -47.4614 -47.4594 -47.4594
   -47.4325 -47.4325 -47.4290 -47.4290 -47.4008 -47.4008 -47.3855 -47.3855
   -47.3769 -47.3769 -47.3759 -47.3759 -47.3239 -47.3239 -47.3146 -47.3146
   -28.0798 -28.0798 -28.0772 -28.0772  -1.4472  -1.4472  -1.4252  -1.4252
    -1.2996  -1.2996  -1.2973  -1.2973  -1.0526  -1.0526  -1.0408  -1.0408
     9.6515   9.6515   9.8297   9.8297   9.8561   9.8561   9.9488   9.9488
     9.9526   9.9526  10.0599  10.0599  10.1029  10.1029  10.2052  10.2052
    10.2601  10.2601  10.3243  10.3243  10.3456  10.3456  10.4574  10.4574
    10.4659  10.4659  10.5283  10.5283  10.5452  10.5452  10.6186  10.6186
    10.6629  10.6629  10.8384  10.8384  10.8752  10.8752  11.0248  11.0248
    20.4436  20.4436  21.2214  21.2214  22.1812  22.1812  22.6721  22.6721
    26.3875  26.3875  26.6676  26.6676  27.2938  27.2938  27.3752  27.3752
    28.2711  28.2711  29.0901  29.0901  29.5604  29.5604  30.0025  30.0025
    30.0436  30.0436  30.7598  30.7598  32.1971  32.1971  32.7357  32.7357
    33.5526  33.5526  34.4419  34.4419  34.8631  34.8631  35.4437  35.4437
    37.0857  37.0857  37.1051  37.1051  38.3367  38.3367  38.6796  38.6796
    39.8271  39.8271  39.8747  39.8747  40.3346  40.3347  40.5216  40.5216
    41.3196  41.3196  41.4927  41.4928  41.7770  41.7770  42.0603  42.0603
    42.8711  42.8714  43.1124  43.1126

     the Fermi energy is    36.6727 ev

!    total energy              =   -3973.97005428 Ry
     Harris-Foulkes estimate   =   -3973.97005838 Ry
     estimated scf accuracy    <       0.00000402 Ry

     The total energy is the sum of the following terms:

     one-electron contribution =    -797.35337146 Ry
     hartree contribution      =     592.97274335 Ry
     xc contribution           =    -333.41227753 Ry
     ewald contribution        =   -3435.77999250 Ry
     smearing contrib. (-TS)   =      -0.39715614 Ry

     convergence has been achieved in  11 iterations

     Forces acting on atoms (Ry/au):

     atom    1 type  1   force =     0.00000000   -0.01502677   -0.04004618
     atom    2 type  1   force =     0.00000000    0.01502677    0.04004618
     atom    3 type  1   force =     0.00000000   -0.01502677    0.04004618
     atom    4 type  1   force =     0.00000000    0.01502677   -0.04004618
     atom    5 type  1   force =     0.00000000   -0.00804740    0.02341926
     atom    6 type  1   force =     0.00000000    0.00804740   -0.02341926
     atom    7 type  1   force =     0.00000000   -0.00804740   -0.02341926
     atom    8 type  1   force =     0.00000000    0.00804740    0.02341926
     atom    9 type  2   force =     0.00000000   -0.06948865    0.05000443
     atom   10 type  2   force =     0.00000000    0.06948865   -0.05000443
     atom   11 type  2   force =     0.00000000   -0.06948865   -0.05000443
     atom   12 type  2   force =     0.00000000    0.06948865    0.05000443

     Total force =     0.197705     Total SCF correction =     0.000000

     entering subroutine stress ...

          total   stress  (Ry/bohr**3)                   (kbar)     P= 1105.02
   0.00757756   0.00000000   0.00000000       1114.70      0.00      0.00
   0.00000000   0.00751738   0.00000000          0.00   1105.84      0.00
   0.00000000   0.00000000   0.00744035          0.00      0.00   1094.51

     Writing output data file Prototype-La-oP12-Co2Si.save

     General routines

     Parallel routines

   This run was terminated on:  12:40:33  22Mar2018

   JOB DONE.