     Program PWSCF v.5.0.2 starts on 22Mar2018 at 12: 7:50

     Current dimensions of program PWSCF are:
     Max number of different atomic species (ntypx) = 10
     Max number of k-points (npk) =  40000
     Max angular momentum in pseudopotentials (lmaxx) =  3
     Waiting for input...
     Reading input from standard input

     Subspace diagonalization in iterative solution of the eigenvalue problem:
     a serial algorithm will be used

     bravais-lattice index     =            0
     lattice parameter (alat)  =       8.5346  a.u.
     unit-cell volume          =     621.6493 (a.u.)^3
     number of atoms/cell      =            8
     number of atomic types    =            2
     number of electrons       =       178.00
     number of Kohn-Sham states=          107
     kinetic-energy cutoff     =      40.0000  Ry
     charge density cutoff     =     160.0000  Ry
     convergence threshold     =      1.0E-04
     mixing beta               =       0.7000
     number of iterations used =            8  plain     mixing
     Exchange-correlation      = SLA-PZ-NOGX-NOGC ( 1 1 0 0 0)
     EXX-fraction              =        0.00
     nstep                     =           50

     celldm(1)=   8.534573  celldm(2)=   0.000000  celldm(3)=   0.000000
     celldm(4)=   0.000000  celldm(5)=   0.000000  celldm(6)=   0.000000

     crystal axes: (cart. coord. in units of alat)
               a(1) = (   1.000000   0.000000   0.000000 )
               a(2) = (   0.000000   1.000000   0.000000 )
               a(3) = (   0.000000   0.000000   1.000000 )

     reciprocal axes: (cart. coord. in units 2 pi/alat)
               b(1) = (  1.000000  0.000000  0.000000 )
               b(2) = (  0.000000  1.000000  0.000000 )
               b(3) = (  0.000000  0.000000  1.000000 )

     PseudoPot. # 1 for Yb read from file:
     /home/jld5415/pp.La/Yb.UPF
     MD5 check sum: 3e859b81cc28c53ec6aa3a2e888efcdf
     Pseudo is Norm-conserving, Zval = 24.0
     Generated in analytical, separable form
     Using radial grid of 1269 points,  6 beta functions with:
                l(1) =   0
                l(2) =   0
                l(3) =   1
                l(4) =   1
                l(5) =   2
                l(6) =   3

     PseudoPot. # 2 for Eu read from file:
     /home/jld5415/pp.La/Eu.UPF
     MD5 check sum: 5efdbbfc50c6a10138933a6429836ad2
     Pseudo is Norm-conserving, Zval = 17.0
     Generated in analytical, separable form
     Using radial grid of 1261 points,  6 beta functions with:
                l(1) =   0
                l(2) =   0
                l(3) =   1
                l(4) =   1
                l(5) =   2
                l(6) =   3

     atomic species   valence    mass     pseudopotential
        Cr            24.00    51.99610     Yb( 1.00)
        Si            17.00    28.08550     Eu( 1.00)

     48 Sym. Ops., with inversion, found (24 have fractional translation)

   Cartesian axes

     site n.     atom                  positions (alat units)
         1           Cr  tau(   1) = (   0.0000000   0.5000000   0.2500000  )
         2           Cr  tau(   2) = (   0.0000000   0.5000000   0.7500000  )
         3           Cr  tau(   3) = (   0.5000000   0.7500000   0.0000000  )
         4           Cr  tau(   4) = (   0.5000000   0.2500000   0.0000000  )
         5           Cr  tau(   5) = (   0.7500000   0.0000000   0.5000000  )
         6           Cr  tau(   6) = (   0.2500000   0.0000000   0.5000000  )
         7           Si  tau(   7) = (   0.5000000   0.5000000   0.5000000  )
         8           Si  tau(   8) = (   0.0000000   0.0000000   0.0000000  )

     number of k points=    48  gaussian smearing, width (Ry)=  0.1000
                       cart. coord. in units 2pi/alat
        k(    1) = (   0.0000000   0.0000000   0.0000000), wk =   0.0095238
        k(    2) = (   0.0000000   0.0000000   0.1428571), wk =   0.0190476
        k(    3) = (   0.0000000   0.0000000   0.2857143), wk =   0.0190476
        k(    4) = (   0.0000000   0.0000000   0.4285714), wk =   0.0190476
        k(    5) = (   0.0000000   0.1666667   0.0000000), wk =   0.0190476
        k(    6) = (   0.0000000   0.1666667   0.1428571), wk =   0.0380952
        k(    7) = (   0.0000000   0.1666667   0.2857143), wk =   0.0380952
        k(    8) = (   0.0000000   0.1666667   0.4285714), wk =   0.0380952
        k(    9) = (   0.0000000   0.3333333   0.0000000), wk =   0.0190476
        k(   10) = (   0.0000000   0.3333333   0.1428571), wk =   0.0380952
        k(   11) = (   0.0000000   0.3333333   0.2857143), wk =   0.0380952
        k(   12) = (   0.0000000   0.3333333   0.4285714), wk =   0.0380952
        k(   13) = (   0.0000000  -0.5000000   0.0000000), wk =   0.0095238
        k(   14) = (   0.0000000  -0.5000000   0.1428571), wk =   0.0190476
        k(   15) = (   0.0000000  -0.5000000   0.2857143), wk =   0.0190476
        k(   16) = (   0.0000000  -0.5000000   0.4285714), wk =   0.0190476
        k(   17) = (   0.2000000   0.0000000   0.0000000), wk =   0.0190476
        k(   18) = (   0.2000000   0.0000000   0.1428571), wk =   0.0380952
        k(   19) = (   0.2000000   0.0000000   0.2857143), wk =   0.0380952
        k(   20) = (   0.2000000   0.0000000   0.4285714), wk =   0.0380952
        k(   21) = (   0.2000000   0.1666667   0.0000000), wk =   0.0380952
        k(   22) = (   0.2000000   0.1666667   0.1428571), wk =   0.0761905
        k(   23) = (   0.2000000   0.1666667   0.2857143), wk =   0.0761905
        k(   24) = (   0.2000000   0.1666667   0.4285714), wk =   0.0761905
        k(   25) = (   0.2000000   0.3333333   0.0000000), wk =   0.0380952
        k(   26) = (   0.2000000   0.3333333   0.1428571), wk =   0.0761905
        k(   27) = (   0.2000000   0.3333333   0.2857143), wk =   0.0761905
        k(   28) = (   0.2000000   0.3333333   0.4285714), wk =   0.0761905
        k(   29) = (   0.2000000  -0.5000000   0.0000000), wk =   0.0190476
        k(   30) = (   0.2000000  -0.5000000   0.1428571), wk =   0.0380952
        k(   31) = (   0.2000000  -0.5000000   0.2857143), wk =   0.0380952
        k(   32) = (   0.2000000  -0.5000000   0.4285714), wk =   0.0380952
        k(   33) = (   0.4000000   0.0000000   0.0000000), wk =   0.0190476
        k(   34) = (   0.4000000   0.0000000   0.1428571), wk =   0.0380952
        k(   35) = (   0.4000000   0.0000000   0.2857143), wk =   0.0380952
        k(   36) = (   0.4000000   0.0000000   0.4285714), wk =   0.0380952
        k(   37) = (   0.4000000   0.1666667   0.0000000), wk =   0.0380952
        k(   38) = (   0.4000000   0.1666667   0.1428571), wk =   0.0761905
        k(   39) = (   0.4000000   0.1666667   0.2857143), wk =   0.0761905
        k(   40) = (   0.4000000   0.1666667   0.4285714), wk =   0.0761905
        k(   41) = (   0.4000000   0.3333333   0.0000000), wk =   0.0380952
        k(   42) = (   0.4000000   0.3333333   0.1428571), wk =   0.0761905
        k(   43) = (   0.4000000   0.3333333   0.2857143), wk =   0.0761905
        k(   44) = (   0.4000000   0.3333333   0.4285714), wk =   0.0761905
        k(   45) = (   0.4000000  -0.5000000   0.0000000), wk =   0.0190476
        k(   46) = (   0.4000000  -0.5000000   0.1428571), wk =   0.0380952
        k(   47) = (   0.4000000  -0.5000000   0.2857143), wk =   0.0380952
        k(   48) = (   0.4000000  -0.5000000   0.4285714), wk =   0.0380952

     Largest allocated arrays     est. size (Mb)     dimensions
     Largest temporary arrays     est. size (Mb)     dimensions

     Initial potential from superposition of free atoms

     Starting from uniform charge
     Starting wfc are    0 randomized atomic wfcs

     Self-consistent Calculation

     iteration #  1     ecut=    40.00 Ry     beta=0.70
     CG style diagonalization
     ethr =  1.00E-02,  avg # of iterations = 17.6

     total energy              =   -2182.04762805 Ry
     Harris-Foulkes estimate   =   -3365.82813328 Ry
     estimated scf accuracy    <    1447.72549810 Ry

     iteration #  2     ecut=    40.00 Ry     beta=0.70
     CG style diagonalization
     c_bands:  5 eigenvalues not converged
     c_bands:  4 eigenvalues not converged
     c_bands:  2 eigenvalues not converged
     c_bands:  4 eigenvalues not converged
     c_bands:  4 eigenvalues not converged
     c_bands:  1 eigenvalues not converged
     c_bands:  4 eigenvalues not converged
     c_bands:  3 eigenvalues not converged
     c_bands:  2 eigenvalues not converged
     c_bands:  3 eigenvalues not converged
     c_bands:  4 eigenvalues not converged
     c_bands:  4 eigenvalues not converged
     c_bands:  3 eigenvalues not converged
     c_bands:  5 eigenvalues not converged
     c_bands:  2 eigenvalues not converged
     c_bands:  3 eigenvalues not converged
     c_bands:  3 eigenvalues not converged
     c_bands:  2 eigenvalues not converged
     c_bands:  2 eigenvalues not converged
     c_bands:  3 eigenvalues not converged
     c_bands:  2 eigenvalues not converged
     c_bands:  3 eigenvalues not converged
     c_bands:  2 eigenvalues not converged
     c_bands:  3 eigenvalues not converged
     c_bands:  1 eigenvalues not converged
     c_bands:  1 eigenvalues not converged
     c_bands:  2 eigenvalues not converged
     c_bands:  2 eigenvalues not converged
     c_bands:  3 eigenvalues not converged
     c_bands:  5 eigenvalues not converged
     c_bands:  2 eigenvalues not converged
     c_bands:  3 eigenvalues not converged
     c_bands:  2 eigenvalues not converged
     c_bands:  2 eigenvalues not converged
     c_bands:  1 eigenvalues not converged
     c_bands:  1 eigenvalues not converged
     c_bands:  1 eigenvalues not converged
     c_bands:  2 eigenvalues not converged
     c_bands:  1 eigenvalues not converged
     ethr =  1.00E-02,  avg # of iterations = 13.6

[...]

     End of self-consistent calculation

          k = 0.0000 0.0000 0.0000 (  2601 PWs)   bands (ev):

   -73.0158 -73.0158 -72.7841 -72.6202 -72.6202 -72.6202 -32.8250 -32.8250
   -32.7713 -31.8636 -31.8636 -31.8636 -31.6989 -31.6989 -31.6989 -31.6405
   -31.6405 -31.6405 -31.6024 -31.6024 -31.6024 -31.5027 -31.5027 -31.5027
   -13.7264 -13.7195  12.4324  12.4324  12.4324  12.4529  12.4529  12.4529
    20.5549  20.5718  20.5718  22.4368  22.4368  22.4368  23.9801  24.3353
    24.3353  24.3353  24.7394  24.7394  24.8068  24.8068  24.8068  25.1164
    26.0211  26.0211  26.0211  26.7956  26.7956  26.9919  26.9919  26.9919
    27.0275  27.0275  27.0275  28.1055  28.1055  28.1055  28.4127  34.5090
    34.5090  39.8378  39.8378  39.8378  40.3004  40.3004  41.1480  41.1480
    41.1480  42.1252  42.1252  42.1252  43.6290  46.6952  46.6952  46.6952
    49.2132  49.2132  50.4237  50.4237  50.4237  50.5095  50.5095  52.7362
    54.6562  55.1749  55.1749  55.1749  55.1777  55.1777  55.1777  55.3074
    55.3074  55.3074  56.4948  56.4949  56.4949  57.9075  59.4555  59.4556
    59.4556  60.1195  60.1196

[...]

     the Fermi energy is    53.5620 ev

!    total energy              =   -2797.07462645 Ry
     Harris-Foulkes estimate   =   -2797.07463181 Ry
     estimated scf accuracy    <       0.00000617 Ry

[...]

     number of scf cycles    =   3
     number of bfgs steps    =   2

     enthalpy old            =   -2801.2051743078 Ry
     enthalpy new            =   -2797.5494392234 Ry

     CASE: enthalpy_new > enthalpy_old

     new trust radius        =       0.1584948118 bohr

     trust_radius < trust_radius_min

     resetting bfgs history

     Message from routine bfgs:
     history already reset at previous step: stopping
     new conv_thr            =       0.0000010000 Ry

     new unit-cell volume =   1046.68217 a.u.^3 (   155.10229 Ang^3 )

[...]

ATOMIC_POSITIONS (crystal)
Cr       0.000000000   0.500000000   0.250000000
Cr       0.000000000   0.500000000   0.750000000
Cr       0.500000000   0.750000000   0.000000000
Cr       0.500000000   0.250000000   0.000000000
Cr       0.750000000   0.000000000   0.500000000
Cr       0.250000000   0.000000000   0.500000000
Si       0.500000000   0.500000000   0.500000000
Si       0.000000000   0.000000000   0.000000000

     Writing output data file Prototype-La-cP8-Cr3Si.save
     NEW-OLD atomic charge density approx. for the potential
     NEW k-points:
        k(    1) = (   0.0000000   0.0000000   0.0000000), wk =   0.0095238
        k(    2) = (   0.0000000   0.0000000   0.1200823), wk =   0.0190476
        k(    3) = (   0.0000000   0.0000000   0.2401645), wk =   0.0190476
        k(    4) = (   0.0000000   0.0000000   0.3602468), wk =   0.0190476
        k(    5) = (   0.0000000   0.1400960   0.0000000), wk =   0.0190476
        k(    6) = (   0.0000000   0.1400960   0.1200823), wk =   0.0380952
        k(    7) = (   0.0000000   0.1400960   0.2401645), wk =   0.0380952
        k(    8) = (   0.0000000   0.1400960   0.3602468), wk =   0.0380952
        k(    9) = (   0.0000000   0.2801919   0.0000000), wk =   0.0190476
        k(   10) = (   0.0000000   0.2801919   0.1200823), wk =   0.0380952
        k(   11) = (   0.0000000   0.2801919   0.2401645), wk =   0.0380952
        k(   12) = (   0.0000000   0.2801919   0.3602468), wk =   0.0380952
        k(   13) = (   0.0000000  -0.4202879   0.0000000), wk =   0.0095238
        k(   14) = (   0.0000000  -0.4202879   0.1200823), wk =   0.0190476
        k(   15) = (   0.0000000  -0.4202879   0.2401645), wk =   0.0190476
        k(   16) = (   0.0000000  -0.4202879   0.3602468), wk =   0.0190476
        k(   17) = (   0.1681152   0.0000000   0.0000000), wk =   0.0190476
        k(   18) = (   0.1681152   0.0000000   0.1200823), wk =   0.0380952
        k(   19) = (   0.1681152   0.0000000   0.2401645), wk =   0.0380952
        k(   20) = (   0.1681152   0.0000000   0.3602468), wk =   0.0380952
        k(   21) = (   0.1681152   0.1400960   0.0000000), wk =   0.0380952
        k(   22) = (   0.1681152   0.1400960   0.1200823), wk =   0.0761905
        k(   23) = (   0.1681152   0.1400960   0.2401645), wk =   0.0761905
        k(   24) = (   0.1681152   0.1400960   0.3602468), wk =   0.0761905
        k(   25) = (   0.1681152   0.2801919   0.0000000), wk =   0.0380952
        k(   26) = (   0.1681152   0.2801919   0.1200823), wk =   0.0761905
        k(   27) = (   0.1681152   0.2801919   0.2401645), wk =   0.0761905
        k(   28) = (   0.1681152   0.2801919   0.3602468), wk =   0.0761905
        k(   29) = (   0.1681152  -0.4202879   0.0000000), wk =   0.0190476
        k(   30) = (   0.1681152  -0.4202879   0.1200823), wk =   0.0380952
        k(   31) = (   0.1681152  -0.4202879   0.2401645), wk =   0.0380952
        k(   32) = (   0.1681152  -0.4202879   0.3602468), wk =   0.0380952
        k(   33) = (   0.3362303   0.0000000   0.0000000), wk =   0.0190476
        k(   34) = (   0.3362303   0.0000000   0.1200823), wk =   0.0380952
        k(   35) = (   0.3362303   0.0000000   0.2401645), wk =   0.0380952
        k(   36) = (   0.3362303   0.0000000   0.3602468), wk =   0.0380952
        k(   37) = (   0.3362303   0.1400960   0.0000000), wk =   0.0380952
        k(   38) = (   0.3362303   0.1400960   0.1200823), wk =   0.0761905
        k(   39) = (   0.3362303   0.1400960   0.2401645), wk =   0.0761905
        k(   40) = (   0.3362303   0.1400960   0.3602468), wk =   0.0761905
        k(   41) = (   0.3362303   0.2801919   0.0000000), wk =   0.0380952
        k(   42) = (   0.3362303   0.2801919   0.1200823), wk =   0.0761905
        k(   43) = (   0.3362303   0.2801919   0.2401645), wk =   0.0761905
        k(   44) = (   0.3362303   0.2801919   0.3602468), wk =   0.0761905
        k(   45) = (   0.3362303  -0.4202879   0.0000000), wk =   0.0190476
        k(   46) = (   0.3362303  -0.4202879   0.1200823), wk =   0.0380952
        k(   47) = (   0.3362303  -0.4202879   0.2401645), wk =   0.0380952
        k(   48) = (   0.3362303  -0.4202879   0.3602468), wk =   0.0380952

[...]

          total   stress  (Ry/bohr**3)                   (kbar)     P=-1574.46
  -0.01070296   0.00000000   0.00000000      -1574.46      0.00      0.00
   0.00000000  -0.01070296   0.00000000          0.00  -1574.46      0.00
   0.00000000   0.00000000  -0.01070296          0.00      0.00  -1574.46

     The maximum number of steps has been reached.

     End of BFGS Geometry Optimization
Begin final coordinates
     new unit-cell volume =   1046.68217 a.u.^3 (   155.10229 Ang^3 )

CELL_PARAMETERS (alat=  8.53457320)
   1.189660755   0.000000000   0.000000000
   0.000000000   1.189660755   0.000000000
   0.000000000   0.000000000   1.189660755

ATOMIC_POSITIONS (crystal)
Cr       0.000000000   0.500000000   0.250000000
Cr       0.000000000   0.500000000   0.750000000
Cr       0.500000000   0.750000000   0.000000000
Cr       0.500000000   0.250000000   0.000000000
Cr       0.750000000   0.000000000   0.500000000
Cr       0.250000000   0.000000000   0.500000000
Si       0.500000000   0.500000000   0.500000000
Si       0.000000000   0.000000000   0.000000000
End final coordinates

     A final scf calculation at the relaxed structure.
     The G-vectors are recalculated for the final unit cell
     Results may differ from those at the preceding step.

     bravais-lattice index     =            0
     lattice parameter (alat)  =       8.5346  a.u.
     unit-cell volume          =    1046.6822 (a.u.)^3
     number of atoms/cell      =            8
     number of atomic types    =            2
     number of electrons       =       178.00
     number of Kohn-Sham states=          107
     kinetic-energy cutoff     =      40.0000  Ry
     charge density cutoff     =     160.0000  Ry
     convergence threshold     =      1.0E-06
     mixing beta               =       0.7000
     number of iterations used =            8  plain     mixing
     Exchange-correlation      = SLA-PZ-NOGX-NOGC ( 1 1 0 0 0)
     EXX-fraction              =        0.00

     celldm(1)=   8.534573  celldm(2)=   0.000000  celldm(3)=   0.000000
     celldm(4)=   0.000000  celldm(5)=   0.000000  celldm(6)=   0.000000

     crystal axes: (cart. coord. in units of alat)
               a(1) = (   1.189661   0.000000   0.000000 )
               a(2) = (   0.000000   1.189661   0.000000 )
               a(3) = (   0.000000   0.000000   1.189661 )

     reciprocal axes: (cart. coord. in units 2 pi/alat)
               b(1) = (  0.840576  0.000000  0.000000 )
               b(2) = (  0.000000  0.840576  0.000000 )
               b(3) = (  0.000000  0.000000  0.840576 )

     PseudoPot. # 1 for Yb read from file:
     /home/jld5415/pp.La/Yb.UPF
     MD5 check sum: 3e859b81cc28c53ec6aa3a2e888efcdf
     Pseudo is Norm-conserving, Zval = 24.0
     Generated in analytical, separable form
     Using radial grid of 1269 points,  6 beta functions with:
                l(1) =   0
                l(2) =   0
                l(3) =   1
                l(4) =   1
                l(5) =   2
                l(6) =   3

     PseudoPot. # 2 for Eu read from file:
     /home/jld5415/pp.La/Eu.UPF
     MD5 check sum: 5efdbbfc50c6a10138933a6429836ad2
     Pseudo is Norm-conserving, Zval = 17.0
     Generated in analytical, separable form
     Using radial grid of 1261 points,  6 beta functions with:
                l(1) =   0
                l(2) =   0
                l(3) =   1
                l(4) =   1
                l(5) =   2
                l(6) =   3

     atomic species   valence    mass     pseudopotential
        Cr            24.00    51.99610     Yb( 1.00)
        Si            17.00    28.08550     Eu( 1.00)

     48 Sym. Ops., with inversion, found (24 have fractional translation)

   Cartesian axes

     site n.     atom                  positions (alat units)
         1           Cr  tau(   1) = (   0.0000000   0.5948304   0.2974152  )
         2           Cr  tau(   2) = (   0.0000000   0.5948304   0.8922456  )
         3           Cr  tau(   3) = (   0.5948304   0.8922456   0.0000000  )
         4           Cr  tau(   4) = (   0.5948304   0.2974152   0.0000000  )
         5           Cr  tau(   5) = (   0.8922456   0.0000000   0.5948304  )
         6           Cr  tau(   6) = (   0.2974152   0.0000000   0.5948304  )
         7           Si  tau(   7) = (   0.5948304   0.5948304   0.5948304  )
         8           Si  tau(   8) = (   0.0000000   0.0000000   0.0000000  )

     number of k points=    48  gaussian smearing, width (Ry)=  0.1000
                       cart. coord. in units 2pi/alat
        k(    1) = (   0.0000000   0.0000000   0.0000000), wk =   0.0095238
        k(    2) = (   0.0000000   0.0000000   0.1200823), wk =   0.0190476
        k(    3) = (   0.0000000   0.0000000   0.2401645), wk =   0.0190476
        k(    4) = (   0.0000000   0.0000000   0.3602468), wk =   0.0190476
        k(    5) = (   0.0000000   0.1400960   0.0000000), wk =   0.0190476
        k(    6) = (   0.0000000   0.1400960   0.1200823), wk =   0.0380952
        k(    7) = (   0.0000000   0.1400960   0.2401645), wk =   0.0380952
        k(    8) = (   0.0000000   0.1400960   0.3602468), wk =   0.0380952
        k(    9) = (   0.0000000   0.2801919   0.0000000), wk =   0.0190476
        k(   10) = (   0.0000000   0.2801919   0.1200823), wk =   0.0380952
        k(   11) = (   0.0000000   0.2801919   0.2401645), wk =   0.0380952
        k(   12) = (   0.0000000   0.2801919   0.3602468), wk =   0.0380952
        k(   13) = (   0.0000000  -0.4202879   0.0000000), wk =   0.0095238
        k(   14) = (   0.0000000  -0.4202879   0.1200823), wk =   0.0190476
        k(   15) = (   0.0000000  -0.4202879   0.2401645), wk =   0.0190476
        k(   16) = (   0.0000000  -0.4202879   0.3602468), wk =   0.0190476
        k(   17) = (   0.1681152   0.0000000   0.0000000), wk =   0.0190476
        k(   18) = (   0.1681152   0.0000000   0.1200823), wk =   0.0380952
        k(   19) = (   0.1681152   0.0000000   0.2401645), wk =   0.0380952
        k(   20) = (   0.1681152   0.0000000   0.3602468), wk =   0.0380952
        k(   21) = (   0.1681152   0.1400960   0.0000000), wk =   0.0380952
        k(   22) = (   0.1681152   0.1400960   0.1200823), wk =   0.0761905
        k(   23) = (   0.1681152   0.1400960   0.2401645), wk =   0.0761905
        k(   24) = (   0.1681152   0.1400960   0.3602468), wk =   0.0761905
        k(   25) = (   0.1681152   0.2801919   0.0000000), wk =   0.0380952
        k(   26) = (   0.1681152   0.2801919   0.1200823), wk =   0.0761905
        k(   27) = (   0.1681152   0.2801919   0.2401645), wk =   0.0761905
        k(   28) = (   0.1681152   0.2801919   0.3602468), wk =   0.0761905
        k(   29) = (   0.1681152  -0.4202879   0.0000000), wk =   0.0190476
        k(   30) = (   0.1681152  -0.4202879   0.1200823), wk =   0.0380952
        k(   31) = (   0.1681152  -0.4202879   0.2401645), wk =   0.0380952
        k(   32) = (   0.1681152  -0.4202879   0.3602468), wk =   0.0380952
        k(   33) = (   0.3362303   0.0000000   0.0000000), wk =   0.0190476
        k(   34) = (   0.3362303   0.0000000   0.1200823), wk =   0.0380952
        k(   35) = (   0.3362303   0.0000000   0.2401645), wk =   0.0380952
        k(   36) = (   0.3362303   0.0000000   0.3602468), wk =   0.0380952
        k(   37) = (   0.3362303   0.1400960   0.0000000), wk =   0.0380952
        k(   38) = (   0.3362303   0.1400960   0.1200823), wk =   0.0761905
        k(   39) = (   0.3362303   0.1400960   0.2401645), wk =   0.0761905
        k(   40) = (   0.3362303   0.1400960   0.3602468), wk =   0.0761905
        k(   41) = (   0.3362303   0.2801919   0.0000000), wk =   0.0380952
        k(   42) = (   0.3362303   0.2801919   0.1200823), wk =   0.0761905
        k(   43) = (   0.3362303   0.2801919   0.2401645), wk =   0.0761905
        k(   44) = (   0.3362303   0.2801919   0.3602468), wk =   0.0761905
        k(   45) = (   0.3362303  -0.4202879   0.0000000), wk =   0.0190476
        k(   46) = (   0.3362303  -0.4202879   0.1200823), wk =   0.0380952
        k(   47) = (   0.3362303  -0.4202879   0.2401645), wk =   0.0380952
        k(   48) = (   0.3362303  -0.4202879   0.3602468), wk =   0.0380952

     Largest allocated arrays     est. size (Mb)     dimensions
     Largest temporary arrays     est. size (Mb)     dimensions

     Initial potential from superposition of free atoms

     Starting from uniform charge
     Starting wfc are    0 randomized atomic wfcs

     Writing output data file Prototype-La-cP8-Cr3Si.save

     Self-consistent Calculation

[...]

     iteration # 10     ecut=    40.00 Ry     beta=0.70
     CG style diagonalization
     c_bands:  1 eigenvalues not converged
     ethr =  3.47E-08,  avg # of iterations =  4.2

     total energy              =   -2806.82491613 Ry
     Harris-Foulkes estimate   =   -2806.82491823 Ry
     estimated scf accuracy    <       0.00000415 Ry

     iteration # 11     ecut=    40.00 Ry     beta=0.70
     CG style diagonalization
     ethr =  2.33E-09,  avg # of iterations =  3.9

     End of self-consistent calculation

[...]

          k = 0.3362-0.4203 0.3602 (  4488 PWs)   bands (ev):

   -94.1717 -94.1623 -94.1600 -94.1574 -94.1570 -94.1494 -53.0845 -53.0793
   -53.0613 -53.0613 -53.0384 -53.0312 -52.9078 -52.9074 -52.9059 -52.9051
   -52.9049 -52.9045 -52.9037 -52.9030 -52.9011 -52.9009 -52.8986 -52.8981
   -32.9459 -32.9459  -5.8776  -5.8775  -5.8755  -5.8755  -5.8731  -5.8731
     4.2471   4.3478   4.6026   4.6034   4.6925   4.6979   4.7200   4.7327
     4.8103   4.8109   4.8382   4.8668   4.8708   4.8906   4.9312   4.9378
     5.0692   5.0694   5.1380   5.1392   5.1530   5.1619   5.1721   5.1909
     5.2641   5.2678   5.2829   5.2830   5.3038   5.3159  15.8821  15.8891
    16.5479  16.5483  17.1148  17.1258  21.2968  21.2968  24.4122  24.4133
    24.4945  24.4983  25.3790  25.4336  25.7098  25.7603  25.9904  26.0100
    27.1620  27.1982  27.8407  27.8841  28.6928  29.0998  30.4511  30.4962
    31.0678  31.0688  31.6203  31.7946  32.7751  32.7789  32.9274  32.9415
    33.6460  33.6670  34.6988  34.7609  35.2484  35.4326  35.5607  35.5677
    38.0906  38.2267  38.4742

     the Fermi energy is    30.7347 ev

!    total energy              =   -2806.82491744 Ry
     Harris-Foulkes estimate   =   -2806.82491750 Ry
     estimated scf accuracy    <       0.00000008 Ry

     The total energy is the sum of the following terms:

     one-electron contribution =    -796.20210242 Ry
     hartree contribution      =     488.14768344 Ry
     xc contribution           =    -228.99125526 Ry
     ewald contribution        =   -2269.43562773 Ry
     smearing contrib. (-TS)   =      -0.34361546 Ry

     convergence has been achieved in  11 iterations

     Forces acting on atoms (Ry/au):

     atom    1 type  1   force =     0.00000000    0.00000000    0.00000000
     atom    2 type  1   force =     0.00000000    0.00000000    0.00000000
     atom    3 type  1   force =     0.00000000    0.00000000    0.00000000
     atom    4 type  1   force =     0.00000000    0.00000000    0.00000000
     atom    5 type  1   force =     0.00000000    0.00000000    0.00000000
     atom    6 type  1   force =     0.00000000    0.00000000    0.00000000
     atom    7 type  2   force =     0.00000000    0.00000000    0.00000000
     atom    8 type  2   force =     0.00000000    0.00000000    0.00000000

     Total force =     0.000000     Total SCF correction =     0.000000

     entering subroutine stress ...

          total   stress  (Ry/bohr**3)                   (kbar)     P=  249.32
   0.00169481   0.00000000   0.00000000        249.32      0.00      0.00
   0.00000000   0.00169481   0.00000000          0.00    249.32      0.00
   0.00000000   0.00000000   0.00169481          0.00      0.00    249.32

     Writing output data file Prototype-La-cP8-Cr3Si.save

     General routines

     Parallel routines

   This run was terminated on:  12:45: 0  22Mar2018

   JOB DONE.