     Program PWSCF v.5.0.2 starts on 22Mar2018 at 12: 7:52

     Current dimensions of program PWSCF are:
     Max number of different atomic species (ntypx) = 10
     Max number of k-points (npk) =  40000
     Max angular momentum in pseudopotentials (lmaxx) =  3
     Waiting for input...
     Reading input from standard input

     Subspace diagonalization in iterative solution of the eigenvalue problem:
     a serial algorithm will be used

     bravais-lattice index     =            0
     lattice parameter (alat)  =      13.3930  a.u.
     unit-cell volume          =    1134.0956 (a.u.)^3
     number of atoms/cell      =            4
     number of atomic types    =            2
     number of electrons       =        82.00
     number of Kohn-Sham states=           49
     kinetic-energy cutoff     =      40.0000  Ry
     charge density cutoff     =     160.0000  Ry
     convergence threshold     =      1.0E-04
     mixing beta               =       0.7000
     number of iterations used =            8  plain     mixing
     Exchange-correlation      = SLA-PZ-NOGX-NOGC ( 1 1 0 0 0)
     EXX-fraction              =        0.00
     nstep                     =           50

     celldm(1)=  13.392972  celldm(2)=   0.000000  celldm(3)=   0.000000
     celldm(4)=   0.000000  celldm(5)=   0.000000  celldm(6)=   0.000000

     crystal axes: (cart. coord. in units of alat)
               a(1) = (   1.000000   0.000000   0.000000 )
               a(2) = (  -0.776311   0.630350   0.000000 )
               a(3) = (   0.000000   0.000000   0.748922 )

     reciprocal axes: (cart. coord. in units 2 pi/alat)
               b(1) = (  1.000000  1.231554  0.000000 )
               b(2) = (  0.000000  1.586419  0.000000 )
               b(3) = (  0.000000  0.000000  1.335252 )

     PseudoPot. # 1 for Yb read from file:
     /home/jld5415/pp.La/Yb.UPF
     MD5 check sum: 3e859b81cc28c53ec6aa3a2e888efcdf
     Pseudo is Norm-conserving, Zval = 24.0
     Generated in analytical, separable form
     Using radial grid of 1269 points,  6 beta functions with:
                l(1) =   0
                l(2) =   0
                l(3) =   1
                l(4) =   1
                l(5) =   2
                l(6) =   3

     PseudoPot. # 2 for Eu read from file:
     /home/jld5415/pp.La/Eu.UPF
     MD5 check sum: 5efdbbfc50c6a10138933a6429836ad2
     Pseudo is Norm-conserving, Zval = 17.0
     Generated in analytical, separable form
     Using radial grid of 1261 points,  6 beta functions with:
                l(1) =   0
                l(2) =   0
                l(3) =   1
                l(4) =   1
                l(5) =   2
                l(6) =   3

     atomic species   valence    mass     pseudopotential
        Tl            24.00   204.38300     Yb( 1.00)
        I             17.00   126.90400     Eu( 1.00)

      2 Sym. Ops., with inversion, found
          (note:  2 additional sym.ops. were found but ignored
           their fractional translations are incommensurate with FFT grid)

   Cartesian axes

     site n.     atom                  positions (alat units)
         1           Tl  tau(   1) = (  -0.0906317   0.3870269   0.5616917  )
         2           Tl  tau(   2) = (   0.3143210   0.2433234   0.1872306  )
         3           I   tau(   3) = (  -0.5408004   0.5467760   0.5616917  )
         4           I   tau(   4) = (   0.7644896   0.0835744   0.1872306  )

     number of k points=   106  gaussian smearing, width (Ry)=  0.1000

     Number of k-points >= 100: set verbosity='high' to print them.

     Largest allocated arrays     est. size (Mb)     dimensions
     Largest temporary arrays     est. size (Mb)     dimensions

     Initial potential from superposition of free atoms

     Starting from uniform charge
     Starting wfc are    0 randomized atomic wfcs

     Self-consistent Calculation

     iteration #  1     ecut=    40.00 Ry     beta=0.70
     CG style diagonalization
     ethr =  1.00E-02,  avg # of iterations = 21.6

     total energy              =    -520.79623977 Ry
     Harris-Foulkes estimate   =   -1750.92261031 Ry
     estimated scf accuracy    <    1464.30553142 Ry

     iteration #  2     ecut=    40.00 Ry     beta=0.70
     CG style diagonalization
     c_bands:  5 eigenvalues not converged
     c_bands:  5 eigenvalues not converged
     c_bands:  5 eigenvalues not converged
     c_bands:  5 eigenvalues not converged
     c_bands:  5 eigenvalues not converged
     ethr =  1.00E-02,  avg # of iterations = 17.3

[...]

     End of self-consistent calculation

     Number of k-points >= 100: set verbosity='high' to print the bands.

     the Fermi energy is     9.9334 ev

!    total energy              =   -1169.57119642 Ry
     Harris-Foulkes estimate   =   -1169.57119629 Ry
     estimated scf accuracy    <       0.00000048 Ry

     The total energy is the sum of the following terms:

     one-electron contribution =    -646.84429336 Ry
     hartree contribution      =     318.60996034 Ry
     xc contribution           =     -97.91328446 Ry
     ewald contribution        =    -743.05249296 Ry
     smearing contrib. (-TS)   =      -0.37108598 Ry

     convergence has been achieved in  14 iterations

     Forces acting on atoms (Ry/au):

     atom    1 type  1   force =    -0.03184200    0.01129718   -0.00090752
     atom    2 type  1   force =     0.03184200   -0.01129718    0.00090752
     atom    3 type  2   force =     0.00942763   -0.00336708   -0.00108417
     atom    4 type  2   force =    -0.00942763    0.00336708    0.00108417

     Total force =     0.049875     Total SCF correction =     0.000000

     entering subroutine stress ...

          total   stress  (Ry/bohr**3)                   (kbar)     P= -462.45
  -0.00309494  -0.00001764  -0.00000007       -455.28     -2.59     -0.01
  -0.00001764  -0.00313813   0.00000000         -2.59   -461.63      0.00
  -0.00000007   0.00000000  -0.00319804         -0.01      0.00   -470.45

     BFGS Geometry Optimization

     number of scf cycles    =   1
     number of bfgs steps    =   0

     enthalpy new            =   -1169.5711964153 Ry

     new trust radius        =       0.5000000000 bohr
     new conv_thr            =       0.0001000000 Ry

     new unit-cell volume =    903.49021 a.u.^3 (   133.88343 Ang^3 )

CELL_PARAMETERS (alat= 13.39297219)
   0.928157125  -0.000409405  -0.000001725
  -0.720796422   0.584750079   0.000001363
  -0.000001292   0.000000029   0.693325154

ATOMIC_POSITIONS (crystal)
Tl       0.384770007   0.615229519   0.749915989
Tl       0.615229993   0.384770481   0.250084011
I        0.132950118   0.867045672   0.749899637
I        0.867049882   0.132954328   0.250100363

     Writing output data file Prototype-La-oS8-TlI.save
     NEW-OLD atomic charge density approx. for the potential
     NEW k-points: (use verbosity='high' to print them)

[...]

     enthalpy old            =   -1169.5711964153 Ry
     enthalpy new            =   -1170.2108980910 Ry

     CASE: enthalpy_new < enthalpy_old

     small trust_radius: resetting bfgs history

[...]

     number of scf cycles    =   3
     number of bfgs steps    =   2

     enthalpy old            =   -1170.2108980910 Ry
     enthalpy new            =   -1170.4714637792 Ry

     CASE: enthalpy_new < enthalpy_old

     Message from routine bfgs:
     history already reset at previous step: stopping
     small trust_radius: resetting bfgs history

     new trust radius        =       0.1711446075 bohr
     new conv_thr            =       0.0000164896 Ry

     new unit-cell volume =    695.06748 a.u.^3 (   102.99837 Ang^3 )

[...]

ATOMIC_POSITIONS (crystal)
Tl       0.380482934   0.619498487   0.750793546
Tl       0.619517066   0.380501513   0.249206454
I        0.133287386   0.866737027   0.751508651
I        0.866712614   0.133262973   0.248491349

     Writing output data file Prototype-La-oS8-TlI.save
     NEW-OLD atomic charge density approx. for the potential
     NEW k-points: (use verbosity='high' to print them)

[...]

     The maximum number of steps has been reached.

     End of BFGS Geometry Optimization
Begin final coordinates
     new unit-cell volume =    695.06748 a.u.^3 (   102.99837 Ang^3 )

CELL_PARAMETERS (alat= 13.39297219)
   0.855129144  -0.003573701   0.000058289
  -0.666098637   0.536248501  -0.000058725
   0.000043416  -0.000015920   0.634247269

ATOMIC_POSITIONS (crystal)
Tl       0.380482934   0.619498487   0.750793546
Tl       0.619517066   0.380501513   0.249206454
I        0.133287386   0.866737027   0.751508651
I        0.866712614   0.133262973   0.248491349
End final coordinates

     A final scf calculation at the relaxed structure.
     The G-vectors are recalculated for the final unit cell
     Results may differ from those at the preceding step.

     bravais-lattice index     =            0
     lattice parameter (alat)  =      13.3930  a.u.
     unit-cell volume          =     695.0675 (a.u.)^3
     number of atoms/cell      =            4
     number of atomic types    =            2
     number of electrons       =        82.00
     number of Kohn-Sham states=           49
     kinetic-energy cutoff     =      40.0000  Ry
     charge density cutoff     =     160.0000  Ry
     convergence threshold     =      1.6E-05
     mixing beta               =       0.7000
     number of iterations used =            8  plain     mixing
     Exchange-correlation      = SLA-PZ-NOGX-NOGC ( 1 1 0 0 0)
     EXX-fraction              =        0.00

     celldm(1)=  13.392972  celldm(2)=   0.000000  celldm(3)=   0.000000
     celldm(4)=   0.000000  celldm(5)=   0.000000  celldm(6)=   0.000000

     crystal axes: (cart. coord. in units of alat)
               a(1) = (   0.855129  -0.003574   0.000058 )
               a(2) = (  -0.666099   0.536249  -0.000059 )
               a(3) = (   0.000043  -0.000016   0.634247 )

     reciprocal axes: (cart. coord. in units 2 pi/alat)
               b(1) = (  1.175516  1.460162 -0.000044 )
               b(2) = (  0.007834  1.874538  0.000047 )
               b(3) = ( -0.000107  0.000039  1.576672 )

     PseudoPot. # 1 for Yb read from file:
     /home/jld5415/pp.La/Yb.UPF
     MD5 check sum: 3e859b81cc28c53ec6aa3a2e888efcdf
     Pseudo is Norm-conserving, Zval = 24.0
     Generated in analytical, separable form
     Using radial grid of 1269 points,  6 beta functions with:
                l(1) =   0
                l(2) =   0
                l(3) =   1
                l(4) =   1
                l(5) =   2
                l(6) =   3

     PseudoPot. # 2 for Eu read from file:
     /home/jld5415/pp.La/Eu.UPF
     MD5 check sum: 5efdbbfc50c6a10138933a6429836ad2
     Pseudo is Norm-conserving, Zval = 17.0
     Generated in analytical, separable form
     Using radial grid of 1261 points,  6 beta functions with:
                l(1) =   0
                l(2) =   0
                l(3) =   1
                l(4) =   1
                l(5) =   2
                l(6) =   3

     atomic species   valence    mass     pseudopotential
        Tl            24.00   204.38300     Yb( 1.00)
        I             17.00   126.90400     Eu( 1.00)

      2 Sym. Ops., with inversion, found
          (note:  2 additional sym.ops. were found but ignored
           their fractional translations are incommensurate with FFT grid)

   Cartesian axes

     site n.     atom                  positions (alat units)
         1           Tl  tau(   1) = (  -0.0872525   0.3308335   0.4761746  )
         2           Tl  tau(   2) = (   0.2763264   0.2018254   0.1580723  )
         3           I   tau(   3) = (  -0.4633218   0.4642981   0.4765992  )
         4           I   tau(   4) = (   0.6523957   0.0683607   0.1576477  )

     number of k points=   106  gaussian smearing, width (Ry)=  0.1000

     Number of k-points >= 100: set verbosity='high' to print them.

     Largest allocated arrays     est. size (Mb)     dimensions
     Largest temporary arrays     est. size (Mb)     dimensions

     Initial potential from superposition of free atoms

     Starting from uniform charge
     Starting wfc are    0 randomized atomic wfcs

     Writing output data file Prototype-La-oS8-TlI.save

     Self-consistent Calculation

[...]

     iteration #  9     ecut=    40.00 Ry     beta=0.70
     CG style diagonalization
     c_bands:  1 eigenvalues not converged
     c_bands:  1 eigenvalues not converged
     c_bands:  1 eigenvalues not converged
     ethr =  7.69E-07,  avg # of iterations =  4.4

[...]

     total energy              =   -1169.76482160 Ry
     Harris-Foulkes estimate   =   -1169.76483070 Ry
     estimated scf accuracy    <       0.00001837 Ry

     iteration # 11     ecut=    40.00 Ry     beta=0.70
     CG style diagonalization
     ethr =  2.24E-08,  avg # of iterations =  3.6

     End of self-consistent calculation

     Number of k-points >= 100: set verbosity='high' to print the bands.

     the Fermi energy is    19.9866 ev

!    total energy              =   -1169.76482538 Ry
     Harris-Foulkes estimate   =   -1169.76482591 Ry
     estimated scf accuracy    <       0.00000079 Ry

     The total energy is the sum of the following terms:

     one-electron contribution =    -437.92292953 Ry
     hartree contribution      =     242.28108473 Ry
     xc contribution           =     -99.39539576 Ry
     ewald contribution        =    -874.53523744 Ry
     smearing contrib. (-TS)   =      -0.19234738 Ry

     convergence has been achieved in  11 iterations

     Forces acting on atoms (Ry/au):

     atom    1 type  1   force =     0.00038492   -0.00002595   -0.00052390
     atom    2 type  1   force =    -0.00038492    0.00002595    0.00052390
     atom    3 type  2   force =    -0.05706144    0.02025990   -0.00026520
     atom    4 type  2   force =     0.05706144   -0.02025990    0.00026520

     Total force =     0.085638     Total SCF correction =     0.000000

     entering subroutine stress ...

          total   stress  (Ry/bohr**3)                   (kbar)     P= -445.68
  -0.00284370  -0.00014603   0.00000064       -418.32    -21.48      0.09
  -0.00014603  -0.00320586  -0.00000017        -21.48   -471.60     -0.03
   0.00000064  -0.00000017  -0.00303939          0.09     -0.03   -447.11

     Writing output data file Prototype-La-oS8-TlI.save

     General routines

     Parallel routines

   This run was terminated on:  13: 1:38  22Mar2018

   JOB DONE.