     Program PWSCF v.5.0.2 starts on 22Mar2018 at 22:50:29

     Current dimensions of program PWSCF are:
     Max number of different atomic species (ntypx) = 10
     Max number of k-points (npk) =  40000
     Max angular momentum in pseudopotentials (lmaxx) =  3
     Waiting for input...
     Reading input from standard input

     Subspace diagonalization in iterative solution of the eigenvalue problem:
     a serial algorithm will be used

     bravais-lattice index     =            0
     lattice parameter (alat)  =       9.9235  a.u.
     unit-cell volume          =    1361.0366 (a.u.)^3
     number of atoms/cell      =           12
     number of atomic types    =            2
     number of electrons       =       264.00
     number of Kohn-Sham states=          158
     kinetic-energy cutoff     =      40.0000  Ry
     charge density cutoff     =     160.0000  Ry
     convergence threshold     =      1.0E-04
     mixing beta               =       0.7000
     number of iterations used =            8  plain     mixing
     Exchange-correlation      = SLA-PZ-NOGX-NOGC ( 1 1 0 0 0)
     EXX-fraction              =        0.00
     nstep                     =           50

     celldm(1)=   9.923489  celldm(2)=   0.000000  celldm(3)=   0.000000
     celldm(4)=   0.000000  celldm(5)=   0.000000  celldm(6)=   0.000000

     crystal axes: (cart. coord. in units of alat)
               a(1) = (   1.000000   0.000000   0.000000 )
               a(2) = (  -0.500000   0.866025   0.000000 )
               a(3) = (   0.000000   0.000000   1.608222 )

     reciprocal axes: (cart. coord. in units 2 pi/alat)
               b(1) = (  1.000000  0.577350  0.000000 )
               b(2) = (  0.000000  1.154701  0.000000 )
               b(3) = (  0.000000  0.000000  0.621805 )

     PseudoPot. # 1 for Gd read from file:
     /home/cwx6513/pp.La/Gd.UPF
     MD5 check sum: 09a8be538722f05520810cb6aac0efd2
     Pseudo is Norm-conserving, Zval = 18.0
     Generated in analytical, separable form
     Using radial grid of 1263 points,  6 beta functions with:
                l(1) =   0
                l(2) =   0
                l(3) =   1
                l(4) =   1
                l(5) =   2
                l(6) =   3

     PseudoPot. # 2 for Yb read from file:
     /home/cwx6513/pp.La/Yb.UPF
     MD5 check sum: 3e859b81cc28c53ec6aa3a2e888efcdf
     Pseudo is Norm-conserving, Zval = 24.0
     Generated in analytical, separable form
     Using radial grid of 1269 points,  6 beta functions with:
                l(1) =   0
                l(2) =   0
                l(3) =   1
                l(4) =   1
                l(5) =   2
                l(6) =   3

     atomic species   valence    mass     pseudopotential
        Mg            18.00    24.30500     Gd( 1.00)
        Zn            24.00    65.39000     Yb( 1.00)

     24 Sym. Ops., with inversion, found (12 have fractional translation)

   Cartesian axes

     site n.     atom                  positions (alat units)
         1           Mg  tau(   1) = (  -0.0000005   0.5773506   0.1003820  )
         2           Mg  tau(   2) = (   0.5000005   0.2886748   0.9044931  )
         3           Mg  tau(   3) = (   0.5000005   0.2886748   1.5078402  )
         4           Mg  tau(   4) = (  -0.0000005   0.5773506   0.7037291  )
         5           Zn  tau(   5) = (   0.0000000   0.0000000   0.0000000  )
         6           Zn  tau(   6) = (   0.0000000   0.0000000   0.8041111  )
         7           Zn  tau(   7) = (   0.0000000   0.2950739   1.2061667  )
         8           Zn  tau(   8) = (   0.7444585   0.1475370   0.4020556  )
         9           Zn  tau(   9) = (   0.2555415   0.1475370   0.4020556  )
        10           Zn  tau(  10) = (   0.2444585   0.7184884   1.2061667  )
        11           Zn  tau(  11) = (  -0.2444585   0.7184884   1.2061667  )
        12           Zn  tau(  12) = (   0.5000000   0.5709515   0.4020556  )

     number of k points=    12  gaussian smearing, width (Ry)=  0.1000
                       cart. coord. in units 2pi/alat
        k(    1) = (   0.0000000   0.0000000   0.0000000), wk =   0.0833333
        k(    2) = (   0.0000000   0.0000000   0.1554512), wk =   0.1666667
        k(    3) = (   0.0000000   0.0000000  -0.3109023), wk =   0.0833333
        k(    4) = (   0.0000000   0.3849002   0.0000000), wk =   0.1666667
        k(    5) = (   0.0000000   0.3849002   0.1554512), wk =   0.3333333
        k(    6) = (   0.0000000   0.3849002  -0.3109023), wk =   0.1666667
        k(    7) = (  -0.5000000  -0.2886751   0.0000000), wk =   0.0833333
        k(    8) = (  -0.5000000  -0.2886751   0.1554512), wk =   0.1666667
        k(    9) = (  -0.5000000  -0.2886751  -0.3109023), wk =   0.0833333
        k(   10) = (  -0.5000000   0.0962250   0.0000000), wk =   0.1666667
        k(   11) = (  -0.5000000   0.0962250   0.1554512), wk =   0.3333333
        k(   12) = (  -0.5000000   0.0962250  -0.3109023), wk =   0.1666667

     Largest allocated arrays     est. size (Mb)     dimensions
     Largest temporary arrays     est. size (Mb)     dimensions

     Initial potential from superposition of free atoms

     Starting from uniform charge
     Starting wfc are    0 randomized atomic wfcs

     Self-consistent Calculation

     iteration #  1     ecut=    40.00 Ry     beta=0.70
     CG style diagonalization
     ethr =  1.00E-02,  avg # of iterations = 21.2

     total energy              =   -2418.85602362 Ry
     Harris-Foulkes estimate   =   -5470.10456482 Ry
     estimated scf accuracy    <    3639.16490372 Ry

[...]

     iteration #  3     ecut=    40.00 Ry     beta=0.70
     CG style diagonalization
     c_bands:  5 eigenvalues not converged
     c_bands:  3 eigenvalues not converged
     c_bands:  2 eigenvalues not converged
     c_bands:  1 eigenvalues not converged
     c_bands:  1 eigenvalues not converged
     c_bands:  3 eigenvalues not converged
     c_bands:  2 eigenvalues not converged
     c_bands:  2 eigenvalues not converged
     ethr =  1.00E-02,  avg # of iterations = 13.6

[...]

     End of self-consistent calculation

          k = 0.0000 0.0000 0.0000 (  5769 PWs)   bands (ev):

   -90.2136 -90.1947 -90.1644 -90.1644 -90.1596 -90.1404 -90.1404 -90.0647
   -49.4563 -49.3766 -49.3025 -49.1851 -49.1479 -49.1479 -49.1326 -49.1326
   -49.0944 -49.0943 -49.0185 -49.0165 -49.0164 -48.9918 -48.9918 -48.9456
   -48.9439 -48.9439 -48.9258 -48.9258 -48.9186 -48.9186 -48.8811 -48.8733
   -33.9713 -33.9653 -33.9510 -33.9386  -5.1865  -5.1820  -5.1583  -5.1583
    -5.1368  -5.1368  -5.0212  -5.0063  -4.9823  -4.9823  -4.9725  -4.9725
     5.7592   6.0929   6.3417   6.8389   6.8389   6.9202   6.9202   7.1238
     7.1239   7.2898   7.4316   7.4316   7.9131   8.2361   8.2776   8.2776
     8.3555   8.3555   8.6941   8.8165   8.8165   9.0520   9.0520   9.1524
     9.1644   9.1644   9.2493   9.2493   9.2508   9.2605   9.3763   9.3764
     9.5128   9.5129   9.8972   9.8973  10.1126  10.1127  10.4356  10.4364
    14.8701  16.2829  18.9552  21.1307  21.6805  23.0751  23.0752  23.8050
    24.7140  24.7140  24.9851  24.9852  25.1349  25.1349  25.7407  25.7408
    27.2638  27.9566  27.9566  28.8781  29.9076  30.2195  30.2196  30.3781
    30.3781  30.5240  30.7770  30.7771  30.8227  30.8227  30.8233  30.9902
    30.9902  31.3927  32.6405  32.6406  32.6566  33.3123  33.3123  34.3702
    34.4187  34.4187  34.9030  35.3897  35.3897  35.9968  36.2872  36.5745
    36.5745  36.6867  37.1892  37.5205  37.5206  37.5399  37.6806  37.6806
    37.6957  37.6957  38.9035  38.9936  39.2747  39.2884  39.2886  39.3211
    40.2559  40.5528  41.1025  41.2598  41.3511  41.3526

[...]

          k =-0.5000-0.2887 0.0000 (  5800 PWs)   bands (ev):

[...]

     the Fermi energy is    35.4417 ev

!    total energy              =   -4076.98338987 Ry
     Harris-Foulkes estimate   =   -4076.98347379 Ry
     estimated scf accuracy    <       0.00009953 Ry

     The total energy is the sum of the following terms:

     one-electron contribution =   -1005.28376352 Ry
     hartree contribution      =     688.61805472 Ry
     xc contribution           =    -340.67603458 Ry
     ewald contribution        =   -3419.19275159 Ry
     smearing contrib. (-TS)   =      -0.44889490 Ry

     convergence has been achieved in  10 iterations

     Forces acting on atoms (Ry/au):

     atom    1 type  1   force =     0.00000000    0.00000000   -0.00728976
     atom    2 type  1   force =     0.00000000    0.00000000   -0.00728976
     atom    3 type  1   force =     0.00000000    0.00000000    0.00728976
     atom    4 type  1   force =     0.00000000    0.00000000    0.00728976
     atom    5 type  2   force =     0.00000000    0.00000000    0.00000000
     atom    6 type  2   force =     0.00000000    0.00000000    0.00000000
     atom    7 type  2   force =     0.00000000    0.17013203    0.00000000
     atom    8 type  2   force =    -0.14733866    0.08506602    0.00000000
     atom    9 type  2   force =     0.14733866    0.08506602    0.00000000
     atom   10 type  2   force =    -0.14733866   -0.08506602    0.00000000
     atom   11 type  2   force =     0.14733866   -0.08506602    0.00000000
     atom   12 type  2   force =     0.00000000   -0.17013203    0.00000000

     Total force =     0.416992     Total SCF correction =     0.000000

     entering subroutine stress ...

          total   stress  (Ry/bohr**3)                   (kbar)     P= 1298.91
   0.00895311   0.00000000   0.00000000       1317.05      0.00      0.00
   0.00000000   0.00895311   0.00000000          0.00   1317.05      0.00
   0.00000000   0.00000000   0.00858319          0.00      0.00   1262.63

     BFGS Geometry Optimization

     number of scf cycles    =   1
     number of bfgs steps    =   0

     enthalpy new            =   -4076.9833898744 Ry

     new trust radius        =       0.5000000000 bohr
     new conv_thr            =       0.0001000000 Ry

     new unit-cell volume =   1652.55719 a.u.^3 (   244.88371 Ang^3 )

CELL_PARAMETERS (alat=  9.92348860)
   1.067764947   0.000000000   0.000000000
  -0.533882474   0.924711570   0.000000000
   0.000000000   0.000000000   1.712700486

ATOMIC_POSITIONS (crystal)
Mg       0.333333000   0.666667000   0.062279709
Mg       0.666667000   0.333333000   0.562279709
Mg       0.666667000   0.333333000   0.937720291
Mg       0.333333000   0.666667000   0.437720291
Zn       0.000000000   0.000000000   0.000000000
Zn       0.000000000   0.000000000   0.500000000
Zn       0.173357763   0.346715525   0.750000000
Zn       0.826642237   0.173357763   0.250000000
Zn       0.346715525   0.173357763   0.250000000
Zn       0.653284475   0.826642237   0.750000000
Zn       0.173357763   0.826642237   0.750000000
Zn       0.826642237   0.653284475   0.250000000

     Writing output data file Prototype-La-hP12-MgZn2.save
     NEW-OLD atomic charge density approx. for the potential
     NEW k-points:
        k(    1) = (   0.0000000   0.0000000   0.0000000), wk =   0.0833333
        k(    2) = (   0.0000000   0.0000000   0.1459683), wk =   0.1666667
        k(    3) = (   0.0000000   0.0000000  -0.2919366), wk =   0.0833333
        k(    4) = (   0.0000000   0.3604728   0.0000000), wk =   0.1666667
        k(    5) = (   0.0000000   0.3604728   0.1459683), wk =   0.3333333
        k(    6) = (   0.0000000   0.3604728  -0.2919366), wk =   0.1666667
        k(    7) = (  -0.4682679  -0.2703546   0.0000000), wk =   0.0833333
        k(    8) = (  -0.4682679  -0.2703546   0.1459683), wk =   0.1666667
        k(    9) = (  -0.4682679  -0.2703546  -0.2919366), wk =   0.0833333
        k(   10) = (  -0.4682679   0.0901182   0.0000000), wk =   0.1666667
        k(   11) = (  -0.4682679   0.0901182   0.1459683), wk =   0.3333333
        k(   12) = (  -0.4682679   0.0901182  -0.2919366), wk =   0.1666667

[...]

     enthalpy old            =   -4076.9833898744 Ry
     enthalpy new            =   -4077.9631693519 Ry

     CASE: enthalpy_new < enthalpy_old

     small trust_radius: resetting bfgs history

     new trust radius        =       0.3026584390 bohr
     new conv_thr            =       0.0000177342 Ry

[...]

     number of scf cycles    =   3
     number of bfgs steps    =   2

     enthalpy old            =   -4077.9631693520 Ry
     enthalpy new            =   -4077.8662032634 Ry

     CASE: enthalpy_new > enthalpy_old

     new trust radius        =       0.0968855328 bohr

     trust_radius < trust_radius_min

     resetting bfgs history

     Message from routine bfgs:
     history already reset at previous step: stopping
     new conv_thr            =       0.0000177342 Ry

     new unit-cell volume =   1509.38903 a.u.^3 (   223.66837 Ang^3 )

[...]

ATOMIC_POSITIONS (crystal)
Mg       0.333333000   0.666667000   0.063405392
Mg       0.666667000   0.333333000   0.563405392
Mg       0.666667000   0.333333000   0.936594608
Mg       0.333333000   0.666667000   0.436594608
Zn       0.000000000   0.000000000   0.000000000
Zn       0.000000000   0.000000000   0.500000000
Zn       0.172500565   0.345001129   0.750000000
Zn       0.827499435   0.172500565   0.250000000
Zn       0.345001129   0.172500565   0.250000000
Zn       0.654998871   0.827499435   0.750000000
Zn       0.172500565   0.827499435   0.750000000
Zn       0.827499435   0.654998871   0.250000000

     Writing output data file Prototype-La-hP12-MgZn2.save
     NEW-OLD atomic charge density approx. for the potential
     NEW k-points:
        k(    1) = (   0.0000000   0.0000000   0.0000000), wk =   0.0833333
        k(    2) = (   0.0000000   0.0000000   0.1516848), wk =   0.1666667
        k(    3) = (   0.0000000   0.0000000  -0.3033696), wk =   0.0833333
        k(    4) = (   0.0000000   0.3700057   0.0000000), wk =   0.1666667
        k(    5) = (   0.0000000   0.3700057   0.1516848), wk =   0.3333333
        k(    6) = (   0.0000000   0.3700057  -0.3033696), wk =   0.1666667
        k(    7) = (  -0.4806515  -0.2775043   0.0000000), wk =   0.0833333
        k(    8) = (  -0.4806515  -0.2775043   0.1516848), wk =   0.1666667
        k(    9) = (  -0.4806515  -0.2775043  -0.3033696), wk =   0.0833333
        k(   10) = (  -0.4806515   0.0925014   0.0000000), wk =   0.1666667
        k(   11) = (  -0.4806515   0.0925014   0.1516848), wk =   0.3333333
        k(   12) = (  -0.4806515   0.0925014  -0.3033696), wk =   0.1666667

[...]

     The maximum number of steps has been reached.

     End of BFGS Geometry Optimization
Begin final coordinates
     new unit-cell volume =   1509.38903 a.u.^3 (   223.66837 Ang^3 )

CELL_PARAMETERS (alat=  9.92348860)
   1.040254787   0.000000000   0.000000000
  -0.520127394   0.900887072   0.000000000
   0.000000000   0.000000000   1.648154744

ATOMIC_POSITIONS (crystal)
Mg       0.333333000   0.666667000   0.063405392
Mg       0.666667000   0.333333000   0.563405392
Mg       0.666667000   0.333333000   0.936594608
Mg       0.333333000   0.666667000   0.436594608
Zn       0.000000000   0.000000000   0.000000000
Zn       0.000000000   0.000000000   0.500000000
Zn       0.172500565   0.345001129   0.750000000
Zn       0.827499435   0.172500565   0.250000000
Zn       0.345001129   0.172500565   0.250000000
Zn       0.654998871   0.827499435   0.750000000
Zn       0.172500565   0.827499435   0.750000000
Zn       0.827499435   0.654998871   0.250000000
End final coordinates

     A final scf calculation at the relaxed structure.
     The G-vectors are recalculated for the final unit cell
     Results may differ from those at the preceding step.

     bravais-lattice index     =            0
     lattice parameter (alat)  =       9.9235  a.u.
     unit-cell volume          =    1509.3890 (a.u.)^3
     number of atoms/cell      =           12
     number of atomic types    =            2
     number of electrons       =       264.00
     number of Kohn-Sham states=          158
     kinetic-energy cutoff     =      40.0000  Ry
     charge density cutoff     =     160.0000  Ry
     convergence threshold     =      1.8E-05
     mixing beta               =       0.7000
     number of iterations used =            8  plain     mixing
     Exchange-correlation      = SLA-PZ-NOGX-NOGC ( 1 1 0 0 0)
     EXX-fraction              =        0.00

     celldm(1)=   9.923489  celldm(2)=   0.000000  celldm(3)=   0.000000
     celldm(4)=   0.000000  celldm(5)=   0.000000  celldm(6)=   0.000000

     crystal axes: (cart. coord. in units of alat)
               a(1) = (   1.040255   0.000000   0.000000 )
               a(2) = (  -0.520127   0.900887   0.000000 )
               a(3) = (   0.000000   0.000000   1.648155 )

     reciprocal axes: (cart. coord. in units 2 pi/alat)
               b(1) = (  0.961303  0.555009  0.000000 )
               b(2) = (  0.000000  1.110017  0.000000 )
               b(3) = (  0.000000  0.000000  0.606739 )

     PseudoPot. # 1 for Gd read from file:
     /home/cwx6513/pp.La/Gd.UPF
     MD5 check sum: 09a8be538722f05520810cb6aac0efd2
     Pseudo is Norm-conserving, Zval = 18.0
     Generated in analytical, separable form
     Using radial grid of 1263 points,  6 beta functions with:
                l(1) =   0
                l(2) =   0
                l(3) =   1
                l(4) =   1
                l(5) =   2
                l(6) =   3

     PseudoPot. # 2 for Yb read from file:
     /home/cwx6513/pp.La/Yb.UPF
     MD5 check sum: 3e859b81cc28c53ec6aa3a2e888efcdf
     Pseudo is Norm-conserving, Zval = 24.0
     Generated in analytical, separable form
     Using radial grid of 1269 points,  6 beta functions with:
                l(1) =   0
                l(2) =   0
                l(3) =   1
                l(4) =   1
                l(5) =   2
                l(6) =   3

     atomic species   valence    mass     pseudopotential
        Mg            18.00    24.30500     Gd( 1.00)
        Zn            24.00    65.39000     Yb( 1.00)

     24 Sym. Ops., with inversion, found (12 have fractional translation)

   Cartesian axes

     site n.     atom                  positions (alat units)
         1           Mg  tau(   1) = (  -0.0000005   0.6005917   0.1045019  )
         2           Mg  tau(   2) = (   0.5201279   0.3002954   0.9285793  )
         3           Mg  tau(   3) = (   0.5201279   0.3002954   1.5436528  )
         4           Mg  tau(   4) = (  -0.0000005   0.6005917   0.7195755  )
         5           Zn  tau(   5) = (   0.0000000   0.0000000   0.0000000  )
         6           Zn  tau(   6) = (   0.0000000   0.0000000   0.8240774  )
         7           Zn  tau(   7) = (   0.0000000   0.3108071   1.2361161  )
         8           Zn  tau(   8) = (   0.7710880   0.1554035   0.4120387  )
         9           Zn  tau(   9) = (   0.2691668   0.1554035   0.4120387  )
        10           Zn  tau(  10) = (   0.2509606   0.7454835   1.2361161  )
        11           Zn  tau(  11) = (  -0.2509606   0.7454835   1.2361161  )
        12           Zn  tau(  12) = (   0.5201274   0.5900800   0.4120387  )

     number of k points=    12  gaussian smearing, width (Ry)=  0.1000
                       cart. coord. in units 2pi/alat
        k(    1) = (   0.0000000   0.0000000   0.0000000), wk =   0.0833333
        k(    2) = (   0.0000000   0.0000000   0.1516848), wk =   0.1666667
        k(    3) = (   0.0000000   0.0000000  -0.3033696), wk =   0.0833333
        k(    4) = (   0.0000000   0.3700057   0.0000000), wk =   0.1666667
        k(    5) = (   0.0000000   0.3700057   0.1516848), wk =   0.3333333
        k(    6) = (   0.0000000   0.3700057  -0.3033696), wk =   0.1666667
        k(    7) = (  -0.4806515  -0.2775043   0.0000000), wk =   0.0833333
        k(    8) = (  -0.4806515  -0.2775043   0.1516848), wk =   0.1666667
        k(    9) = (  -0.4806515  -0.2775043  -0.3033696), wk =   0.0833333
        k(   10) = (  -0.4806515   0.0925014   0.0000000), wk =   0.1666667
        k(   11) = (  -0.4806515   0.0925014   0.1516848), wk =   0.3333333
        k(   12) = (  -0.4806515   0.0925014  -0.3033696), wk =   0.1666667

     Largest allocated arrays     est. size (Mb)     dimensions
     Largest temporary arrays     est. size (Mb)     dimensions

     Initial potential from superposition of free atoms

     Starting from uniform charge
     Starting wfc are    0 randomized atomic wfcs

     Writing output data file Prototype-La-hP12-MgZn2.save

     Self-consistent Calculation

[...]

     iteration # 10     ecut=    40.00 Ry     beta=0.70
     CG style diagonalization
     c_bands:  1 eigenvalues not converged
     c_bands:  1 eigenvalues not converged
     ethr =  2.62E-07,  avg # of iterations =  3.6

     total energy              =   -4078.98988509 Ry
     Harris-Foulkes estimate   =   -4078.98997376 Ry
     estimated scf accuracy    <       0.00017914 Ry

     iteration # 11     ecut=    40.00 Ry     beta=0.70
     CG style diagonalization
     ethr =  6.79E-08,  avg # of iterations =  3.5

     End of self-consistent calculation

[...]

          k = 0.0000 0.3700-0.3034 (  6460 PWs)   bands (ev):

[...]

          k =-0.4807 0.0925-0.3034 (  6446 PWs)   bands (ev):

   -93.8350 -93.8350 -93.7972 -93.7972 -93.7743 -93.7742 -93.7660 -93.7660
   -52.8379 -52.8379 -52.7971 -52.7971 -52.6985 -52.6985 -52.6853 -52.6853
   -52.6430 -52.6430 -52.6370 -52.6370 -52.5800 -52.5800 -52.5763 -52.5763
   -52.5674 -52.5674 -52.5615 -52.5615 -52.5553 -52.5553 -52.5271 -52.5271
   -37.3615 -37.3614 -37.3525 -37.3524  -8.5162  -8.5162  -8.4631  -8.4631
    -8.4356  -8.4356  -8.3870  -8.3870  -8.3592  -8.3592  -8.3431  -8.3431
     3.6533   3.6533   3.9149   3.9149   4.0593   4.0593   4.1535   4.1535
     4.2442   4.2443   4.6114   4.6114   4.8193   4.8193   4.9578   4.9578
     5.0681   5.0681   5.1095   5.1095   5.2674   5.2674   5.3158   5.3158
     5.4263   5.4263   5.5534   5.5534   5.6191   5.6191   5.7449   5.7449
     5.7589   5.7589   5.8325   5.8325   5.9520   5.9520   6.2256   6.2257
    13.5792  13.5792  15.4341  15.4341  18.6864  18.6864  18.8472  18.8472
    21.9154  21.9154  23.0726  23.0726  23.4209  23.4209  24.5529  24.5530
    24.9484  24.9484  25.5574  25.5574  26.1663  26.1663  26.4858  26.4858
    26.8673  26.8673  27.0416  27.0416  27.2193  27.2193  27.4870  27.4870
    27.7976  27.7976  28.7014  28.7014  29.1310  29.1311  29.7480  29.7480
    30.6829  30.6829  31.1846  31.1846  31.6231  31.6231  32.4993  32.4993
    33.0013  33.0013  33.5328  33.5328  34.2103  34.2103  34.6867  34.6867
    35.3065  35.3066  36.0462  36.0462  36.1876  36.1876  36.7871  36.7872
    37.0929  37.0930  37.2998  37.2999  37.7531  37.7532

     the Fermi energy is    31.4836 ev

!    total energy              =   -4078.98992932 Ry
     Harris-Foulkes estimate   =   -4078.98993526 Ry
     estimated scf accuracy    <       0.00000770 Ry

     The total energy is the sum of the following terms:

     one-electron contribution =   -1171.09895482 Ry
     hartree contribution      =     736.78345834 Ry
     xc contribution           =    -338.42153093 Ry
     ewald contribution        =   -3305.81067669 Ry
     smearing contrib. (-TS)   =      -0.44222521 Ry

     convergence has been achieved in  11 iterations

     Forces acting on atoms (Ry/au):

     atom    1 type  1   force =     0.00000000    0.00000000    0.01654630
     atom    2 type  1   force =     0.00000000    0.00000000    0.01654630
     atom    3 type  1   force =     0.00000000    0.00000000   -0.01654630
     atom    4 type  1   force =     0.00000000    0.00000000   -0.01654630
     atom    5 type  2   force =     0.00000000    0.00000000    0.00000000
     atom    6 type  2   force =     0.00000000    0.00000000    0.00000000
     atom    7 type  2   force =     0.00000000    0.04241577    0.00000000
     atom    8 type  2   force =    -0.03673313    0.02120789    0.00000000
     atom    9 type  2   force =     0.03673313    0.02120789    0.00000000
     atom   10 type  2   force =    -0.03673313   -0.02120789    0.00000000
     atom   11 type  2   force =     0.03673313   -0.02120789    0.00000000
     atom   12 type  2   force =     0.00000000   -0.04241577    0.00000000

     Total force =     0.109040     Total SCF correction =     0.000000

     entering subroutine stress ...

          total   stress  (Ry/bohr**3)                   (kbar)     P=  644.84
   0.00451075   0.00000000   0.00000000        663.55      0.00      0.00
   0.00000000   0.00451075   0.00000000          0.00    663.55      0.00
   0.00000000   0.00000000   0.00412903          0.00      0.00    607.40

     Writing output data file Prototype-La-hP12-MgZn2.save

     General routines

     Parallel routines

   This run was terminated on:  23:29: 4  22Mar2018

   JOB DONE.