     Program PWSCF v.5.0.2 starts on 22Mar2018 at 22:50:29

     Current dimensions of program PWSCF are:
     Max number of different atomic species (ntypx) = 10
     Max number of k-points (npk) =  40000
     Max angular momentum in pseudopotentials (lmaxx) =  3
     Waiting for input...
     Reading input from standard input

     Subspace diagonalization in iterative solution of the eigenvalue problem:
     a serial algorithm will be used

     bravais-lattice index     =            0
     lattice parameter (alat)  =       8.5346  a.u.
     unit-cell volume          =     621.6493 (a.u.)^3
     number of atoms/cell      =            8
     number of atomic types    =            2
     number of electrons       =       156.00
     number of Kohn-Sham states=           94
     kinetic-energy cutoff     =      40.0000  Ry
     charge density cutoff     =     160.0000  Ry
     convergence threshold     =      1.0E-04
     mixing beta               =       0.7000
     number of iterations used =            8  plain     mixing
     Exchange-correlation      = SLA-PZ-NOGX-NOGC ( 1 1 0 0 0)
     EXX-fraction              =        0.00
     nstep                     =           50

     celldm(1)=   8.534573  celldm(2)=   0.000000  celldm(3)=   0.000000
     celldm(4)=   0.000000  celldm(5)=   0.000000  celldm(6)=   0.000000

     crystal axes: (cart. coord. in units of alat)
               a(1) = (   1.000000   0.000000   0.000000 )
               a(2) = (   0.000000   1.000000   0.000000 )
               a(3) = (   0.000000   0.000000   1.000000 )

     reciprocal axes: (cart. coord. in units 2 pi/alat)
               b(1) = (  1.000000  0.000000  0.000000 )
               b(2) = (  0.000000  1.000000  0.000000 )
               b(3) = (  0.000000  0.000000  1.000000 )

     PseudoPot. # 1 for Gd read from file:
     /home/cwx6513/pp.La/Gd.UPF
     MD5 check sum: 09a8be538722f05520810cb6aac0efd2
     Pseudo is Norm-conserving, Zval = 18.0
     Generated in analytical, separable form
     Using radial grid of 1263 points,  6 beta functions with:
                l(1) =   0
                l(2) =   0
                l(3) =   1
                l(4) =   1
                l(5) =   2
                l(6) =   3

     PseudoPot. # 2 for Yb read from file:
     /home/cwx6513/pp.La/Yb.UPF
     MD5 check sum: 3e859b81cc28c53ec6aa3a2e888efcdf
     Pseudo is Norm-conserving, Zval = 24.0
     Generated in analytical, separable form
     Using radial grid of 1269 points,  6 beta functions with:
                l(1) =   0
                l(2) =   0
                l(3) =   1
                l(4) =   1
                l(5) =   2
                l(6) =   3

     atomic species   valence    mass     pseudopotential
        Cr            18.00    51.99610     Gd( 1.00)
        Si            24.00    28.08550     Yb( 1.00)

     48 Sym. Ops., with inversion, found (24 have fractional translation)

   Cartesian axes

     site n.     atom                  positions (alat units)
         1           Cr  tau(   1) = (   0.0000000   0.5000000   0.2500000  )
         2           Cr  tau(   2) = (   0.0000000   0.5000000   0.7500000  )
         3           Cr  tau(   3) = (   0.5000000   0.7500000   0.0000000  )
         4           Cr  tau(   4) = (   0.5000000   0.2500000   0.0000000  )
         5           Cr  tau(   5) = (   0.7500000   0.0000000   0.5000000  )
         6           Cr  tau(   6) = (   0.2500000   0.0000000   0.5000000  )
         7           Si  tau(   7) = (   0.5000000   0.5000000   0.5000000  )
         8           Si  tau(   8) = (   0.0000000   0.0000000   0.0000000  )

     number of k points=    48  gaussian smearing, width (Ry)=  0.1000
                       cart. coord. in units 2pi/alat
        k(    1) = (   0.0000000   0.0000000   0.0000000), wk =   0.0095238
        k(    2) = (   0.0000000   0.0000000   0.1428571), wk =   0.0190476
        k(    3) = (   0.0000000   0.0000000   0.2857143), wk =   0.0190476
        k(    4) = (   0.0000000   0.0000000   0.4285714), wk =   0.0190476
        k(    5) = (   0.0000000   0.1666667   0.0000000), wk =   0.0190476
        k(    6) = (   0.0000000   0.1666667   0.1428571), wk =   0.0380952
        k(    7) = (   0.0000000   0.1666667   0.2857143), wk =   0.0380952
        k(    8) = (   0.0000000   0.1666667   0.4285714), wk =   0.0380952
        k(    9) = (   0.0000000   0.3333333   0.0000000), wk =   0.0190476
        k(   10) = (   0.0000000   0.3333333   0.1428571), wk =   0.0380952
        k(   11) = (   0.0000000   0.3333333   0.2857143), wk =   0.0380952
        k(   12) = (   0.0000000   0.3333333   0.4285714), wk =   0.0380952
        k(   13) = (   0.0000000  -0.5000000   0.0000000), wk =   0.0095238
        k(   14) = (   0.0000000  -0.5000000   0.1428571), wk =   0.0190476
        k(   15) = (   0.0000000  -0.5000000   0.2857143), wk =   0.0190476
        k(   16) = (   0.0000000  -0.5000000   0.4285714), wk =   0.0190476
        k(   17) = (   0.2000000   0.0000000   0.0000000), wk =   0.0190476
        k(   18) = (   0.2000000   0.0000000   0.1428571), wk =   0.0380952
        k(   19) = (   0.2000000   0.0000000   0.2857143), wk =   0.0380952
        k(   20) = (   0.2000000   0.0000000   0.4285714), wk =   0.0380952
        k(   21) = (   0.2000000   0.1666667   0.0000000), wk =   0.0380952
        k(   22) = (   0.2000000   0.1666667   0.1428571), wk =   0.0761905
        k(   23) = (   0.2000000   0.1666667   0.2857143), wk =   0.0761905
        k(   24) = (   0.2000000   0.1666667   0.4285714), wk =   0.0761905
        k(   25) = (   0.2000000   0.3333333   0.0000000), wk =   0.0380952
        k(   26) = (   0.2000000   0.3333333   0.1428571), wk =   0.0761905
        k(   27) = (   0.2000000   0.3333333   0.2857143), wk =   0.0761905
        k(   28) = (   0.2000000   0.3333333   0.4285714), wk =   0.0761905
        k(   29) = (   0.2000000  -0.5000000   0.0000000), wk =   0.0190476
        k(   30) = (   0.2000000  -0.5000000   0.1428571), wk =   0.0380952
        k(   31) = (   0.2000000  -0.5000000   0.2857143), wk =   0.0380952
        k(   32) = (   0.2000000  -0.5000000   0.4285714), wk =   0.0380952
        k(   33) = (   0.4000000   0.0000000   0.0000000), wk =   0.0190476
        k(   34) = (   0.4000000   0.0000000   0.1428571), wk =   0.0380952
        k(   35) = (   0.4000000   0.0000000   0.2857143), wk =   0.0380952
        k(   36) = (   0.4000000   0.0000000   0.4285714), wk =   0.0380952
        k(   37) = (   0.4000000   0.1666667   0.0000000), wk =   0.0380952
        k(   38) = (   0.4000000   0.1666667   0.1428571), wk =   0.0761905
        k(   39) = (   0.4000000   0.1666667   0.2857143), wk =   0.0761905
        k(   40) = (   0.4000000   0.1666667   0.4285714), wk =   0.0761905
        k(   41) = (   0.4000000   0.3333333   0.0000000), wk =   0.0380952
        k(   42) = (   0.4000000   0.3333333   0.1428571), wk =   0.0761905
        k(   43) = (   0.4000000   0.3333333   0.2857143), wk =   0.0761905
        k(   44) = (   0.4000000   0.3333333   0.4285714), wk =   0.0761905
        k(   45) = (   0.4000000  -0.5000000   0.0000000), wk =   0.0190476
        k(   46) = (   0.4000000  -0.5000000   0.1428571), wk =   0.0380952
        k(   47) = (   0.4000000  -0.5000000   0.2857143), wk =   0.0380952
        k(   48) = (   0.4000000  -0.5000000   0.4285714), wk =   0.0380952

     Largest allocated arrays     est. size (Mb)     dimensions
     Largest temporary arrays     est. size (Mb)     dimensions

     Initial potential from superposition of free atoms

     Starting from uniform charge
     Starting wfc are    0 randomized atomic wfcs

     Self-consistent Calculation

     iteration #  1     ecut=    40.00 Ry     beta=0.70
     CG style diagonalization
     ethr =  1.00E-02,  avg # of iterations = 12.1

     total energy              =   -1537.70463233 Ry
     Harris-Foulkes estimate   =   -2387.74085143 Ry
     estimated scf accuracy    <    1030.21244401 Ry

     iteration #  2     ecut=    40.00 Ry     beta=0.70
     CG style diagonalization
     c_bands:  3 eigenvalues not converged
     c_bands:  3 eigenvalues not converged
     c_bands:  1 eigenvalues not converged
     c_bands:  1 eigenvalues not converged
     c_bands:  4 eigenvalues not converged
     c_bands:  2 eigenvalues not converged
     c_bands:  2 eigenvalues not converged
     c_bands:  3 eigenvalues not converged
     c_bands:  2 eigenvalues not converged
     c_bands:  1 eigenvalues not converged
     c_bands:  5 eigenvalues not converged
     c_bands:  2 eigenvalues not converged
     c_bands:  4 eigenvalues not converged
     c_bands:  1 eigenvalues not converged
     c_bands:  1 eigenvalues not converged
     c_bands:  1 eigenvalues not converged
     c_bands:  2 eigenvalues not converged
     c_bands:  2 eigenvalues not converged
     c_bands:  1 eigenvalues not converged
     c_bands:  1 eigenvalues not converged
     c_bands:  1 eigenvalues not converged
     c_bands:  1 eigenvalues not converged
     c_bands:  4 eigenvalues not converged
     c_bands:  1 eigenvalues not converged
     c_bands:  2 eigenvalues not converged
     c_bands:  1 eigenvalues not converged
     c_bands:  2 eigenvalues not converged
     c_bands:  1 eigenvalues not converged
     c_bands:  4 eigenvalues not converged
     c_bands:  1 eigenvalues not converged
     c_bands:  1 eigenvalues not converged
     c_bands:  2 eigenvalues not converged
     ethr =  1.00E-02,  avg # of iterations =  9.6

[...]

     End of self-consistent calculation

          k = 0.0000 0.0000 0.0000 (  2601 PWs)   bands (ev):

   -77.6277 -77.5376 -36.6077 -36.6077 -36.6077 -36.5947 -36.5947 -36.5947
   -23.8483 -23.4848 -23.4848 -22.4856 -22.4856 -22.4856   1.9238   1.9238
     2.4594   4.2973   4.2973   4.2973   5.6258   5.6258   5.6258   5.8405
     5.8405   5.8405   6.1669   6.1669   6.1669   8.1825   8.1825   8.1825
    20.3435  20.3435  20.6185  20.6185  20.7836  20.7836  20.7836  20.8134
    20.8134  20.8134  29.2851  30.2661  32.9207  32.9207  32.9207  34.3522
    34.3522  34.3522  34.6646  34.9205  34.9205  35.5038  38.7742  38.7742
    38.7742  39.1060  39.1060  39.5180  39.5180  39.5180  41.7320  41.7320
    41.7320  44.7483  44.7483  45.5144  45.5144  45.5144  45.8194  45.8194
    45.8194  46.7914  48.7692  48.7692  48.7692  50.1746  50.1746  50.2959
    50.2959  50.2959  50.3782  53.8015  53.8015  53.8015  53.9586  53.9586
    53.9586  54.0448  54.0448  54.0448  56.6644  56.8972

[...]

     the Fermi energy is    49.0850 ev

!    total energy              =   -2020.39719692 Ry
     Harris-Foulkes estimate   =   -2020.39719797 Ry
     estimated scf accuracy    <       0.00000204 Ry

     The total energy is the sum of the following terms:

     one-electron contribution =      58.47051793 Ry
     hartree contribution      =     187.59535331 Ry
     xc contribution           =    -193.55388599 Ry
     ewald contribution        =   -2072.78700597 Ry
     smearing contrib. (-TS)   =      -0.12217620 Ry

     convergence has been achieved in   8 iterations

     Forces acting on atoms (Ry/au):

[...]
   0.00000000  -0.00967427   0.00000000          0.00  -1423.13      0.00
   0.00000000   0.00000000  -0.00967427          0.00      0.00  -1423.13

     number of scf cycles    =   3
     number of bfgs steps    =   2

     enthalpy old            =   -2023.9483123989 Ry
     enthalpy new            =   -2022.7645384783 Ry

     CASE: enthalpy_new > enthalpy_old

     new trust radius        =       0.1468006466 bohr

     trust_radius < trust_radius_min

     resetting bfgs history

     Message from routine bfgs:
     history already reset at previous step: stopping
     new conv_thr            =       0.0000010000 Ry

     new unit-cell volume =   1050.97587 a.u.^3 (   155.73855 Ang^3 )

[...]

ATOMIC_POSITIONS (crystal)
Cr       0.000000000   0.500000000   0.250000000
Cr       0.000000000   0.500000000   0.750000000
Cr       0.500000000   0.750000000   0.000000000
Cr       0.500000000   0.250000000   0.000000000
Cr       0.750000000   0.000000000   0.500000000
Cr       0.250000000   0.000000000   0.500000000
Si       0.500000000   0.500000000   0.500000000
Si       0.000000000   0.000000000   0.000000000

     Writing output data file Prototype-La-cP8-Cr3Si.save
     NEW-OLD atomic charge density approx. for the potential
     NEW k-points:
        k(    1) = (   0.0000000   0.0000000   0.0000000), wk =   0.0095238
        k(    2) = (   0.0000000   0.0000000   0.1199185), wk =   0.0190476
        k(    3) = (   0.0000000   0.0000000   0.2398370), wk =   0.0190476
        k(    4) = (   0.0000000   0.0000000   0.3597555), wk =   0.0190476
        k(    5) = (   0.0000000   0.1399049   0.0000000), wk =   0.0190476
        k(    6) = (   0.0000000   0.1399049   0.1199185), wk =   0.0380952
        k(    7) = (   0.0000000   0.1399049   0.2398370), wk =   0.0380952
        k(    8) = (   0.0000000   0.1399049   0.3597555), wk =   0.0380952
        k(    9) = (   0.0000000   0.2798098   0.0000000), wk =   0.0190476
        k(   10) = (   0.0000000   0.2798098   0.1199185), wk =   0.0380952
        k(   11) = (   0.0000000   0.2798098   0.2398370), wk =   0.0380952
        k(   12) = (   0.0000000   0.2798098   0.3597555), wk =   0.0380952
        k(   13) = (   0.0000000  -0.4197147   0.0000000), wk =   0.0095238
        k(   14) = (   0.0000000  -0.4197147   0.1199185), wk =   0.0190476
        k(   15) = (   0.0000000  -0.4197147   0.2398370), wk =   0.0190476
        k(   16) = (   0.0000000  -0.4197147   0.3597555), wk =   0.0190476
        k(   17) = (   0.1678859   0.0000000   0.0000000), wk =   0.0190476
        k(   18) = (   0.1678859   0.0000000   0.1199185), wk =   0.0380952
        k(   19) = (   0.1678859   0.0000000   0.2398370), wk =   0.0380952
        k(   20) = (   0.1678859   0.0000000   0.3597555), wk =   0.0380952
        k(   21) = (   0.1678859   0.1399049   0.0000000), wk =   0.0380952
        k(   22) = (   0.1678859   0.1399049   0.1199185), wk =   0.0761905
        k(   23) = (   0.1678859   0.1399049   0.2398370), wk =   0.0761905
        k(   24) = (   0.1678859   0.1399049   0.3597555), wk =   0.0761905
        k(   25) = (   0.1678859   0.2798098   0.0000000), wk =   0.0380952
        k(   26) = (   0.1678859   0.2798098   0.1199185), wk =   0.0761905
        k(   27) = (   0.1678859   0.2798098   0.2398370), wk =   0.0761905
        k(   28) = (   0.1678859   0.2798098   0.3597555), wk =   0.0761905
        k(   29) = (   0.1678859  -0.4197147   0.0000000), wk =   0.0190476
        k(   30) = (   0.1678859  -0.4197147   0.1199185), wk =   0.0380952
        k(   31) = (   0.1678859  -0.4197147   0.2398370), wk =   0.0380952
        k(   32) = (   0.1678859  -0.4197147   0.3597555), wk =   0.0380952
        k(   33) = (   0.3357718   0.0000000   0.0000000), wk =   0.0190476
        k(   34) = (   0.3357718   0.0000000   0.1199185), wk =   0.0380952
        k(   35) = (   0.3357718   0.0000000   0.2398370), wk =   0.0380952
        k(   36) = (   0.3357718   0.0000000   0.3597555), wk =   0.0380952
        k(   37) = (   0.3357718   0.1399049   0.0000000), wk =   0.0380952
        k(   38) = (   0.3357718   0.1399049   0.1199185), wk =   0.0761905
        k(   39) = (   0.3357718   0.1399049   0.2398370), wk =   0.0761905
        k(   40) = (   0.3357718   0.1399049   0.3597555), wk =   0.0761905
        k(   41) = (   0.3357718   0.2798098   0.0000000), wk =   0.0380952
        k(   42) = (   0.3357718   0.2798098   0.1199185), wk =   0.0761905
        k(   43) = (   0.3357718   0.2798098   0.2398370), wk =   0.0761905
        k(   44) = (   0.3357718   0.2798098   0.3597555), wk =   0.0761905
        k(   45) = (   0.3357718  -0.4197147   0.0000000), wk =   0.0190476
        k(   46) = (   0.3357718  -0.4197147   0.1199185), wk =   0.0380952
        k(   47) = (   0.3357718  -0.4197147   0.2398370), wk =   0.0380952
        k(   48) = (   0.3357718  -0.4197147   0.3597555), wk =   0.0380952

[...]

          total   stress  (Ry/bohr**3)                   (kbar)     P=-1168.91
  -0.00794608   0.00000000   0.00000000      -1168.91      0.00      0.00
   0.00000000  -0.00794608   0.00000000          0.00  -1168.91      0.00
   0.00000000   0.00000000  -0.00794608          0.00      0.00  -1168.91

     The maximum number of steps has been reached.

     End of BFGS Geometry Optimization
Begin final coordinates
     new unit-cell volume =   1050.97587 a.u.^3 (   155.73855 Ang^3 )

CELL_PARAMETERS (alat=  8.53457320)
   1.191285276   0.000000000   0.000000000
   0.000000000   1.191285276   0.000000000
   0.000000000   0.000000000   1.191285276

ATOMIC_POSITIONS (crystal)
Cr       0.000000000   0.500000000   0.250000000
Cr       0.000000000   0.500000000   0.750000000
Cr       0.500000000   0.750000000   0.000000000
Cr       0.500000000   0.250000000   0.000000000
Cr       0.750000000   0.000000000   0.500000000
Cr       0.250000000   0.000000000   0.500000000
Si       0.500000000   0.500000000   0.500000000
Si       0.000000000   0.000000000   0.000000000
End final coordinates

     A final scf calculation at the relaxed structure.
     The G-vectors are recalculated for the final unit cell
     Results may differ from those at the preceding step.

     bravais-lattice index     =            0
     lattice parameter (alat)  =       8.5346  a.u.
     unit-cell volume          =    1050.9759 (a.u.)^3
     number of atoms/cell      =            8
     number of atomic types    =            2
     number of electrons       =       156.00
     number of Kohn-Sham states=           94
     kinetic-energy cutoff     =      40.0000  Ry
     charge density cutoff     =     160.0000  Ry
     convergence threshold     =      1.0E-06
     mixing beta               =       0.7000
     number of iterations used =            8  plain     mixing
     Exchange-correlation      = SLA-PZ-NOGX-NOGC ( 1 1 0 0 0)
     EXX-fraction              =        0.00

     celldm(1)=   8.534573  celldm(2)=   0.000000  celldm(3)=   0.000000
     celldm(4)=   0.000000  celldm(5)=   0.000000  celldm(6)=   0.000000

     crystal axes: (cart. coord. in units of alat)
               a(1) = (   1.191285   0.000000   0.000000 )
               a(2) = (   0.000000   1.191285   0.000000 )
               a(3) = (   0.000000   0.000000   1.191285 )

     reciprocal axes: (cart. coord. in units 2 pi/alat)
               b(1) = (  0.839429  0.000000  0.000000 )
               b(2) = (  0.000000  0.839429  0.000000 )
               b(3) = (  0.000000  0.000000  0.839429 )

     PseudoPot. # 1 for Gd read from file:
     /home/cwx6513/pp.La/Gd.UPF
     MD5 check sum: 09a8be538722f05520810cb6aac0efd2
     Pseudo is Norm-conserving, Zval = 18.0
     Generated in analytical, separable form
     Using radial grid of 1263 points,  6 beta functions with:
                l(1) =   0
                l(2) =   0
                l(3) =   1
                l(4) =   1
                l(5) =   2
                l(6) =   3

     PseudoPot. # 2 for Yb read from file:
     /home/cwx6513/pp.La/Yb.UPF
     MD5 check sum: 3e859b81cc28c53ec6aa3a2e888efcdf
     Pseudo is Norm-conserving, Zval = 24.0
     Generated in analytical, separable form
     Using radial grid of 1269 points,  6 beta functions with:
                l(1) =   0
                l(2) =   0
                l(3) =   1
                l(4) =   1
                l(5) =   2
                l(6) =   3

     atomic species   valence    mass     pseudopotential
        Cr            18.00    51.99610     Gd( 1.00)
        Si            24.00    28.08550     Yb( 1.00)

     48 Sym. Ops., with inversion, found (24 have fractional translation)

   Cartesian axes

     site n.     atom                  positions (alat units)
         1           Cr  tau(   1) = (   0.0000000   0.5956426   0.2978213  )
         2           Cr  tau(   2) = (   0.0000000   0.5956426   0.8934640  )
         3           Cr  tau(   3) = (   0.5956426   0.8934640   0.0000000  )
         4           Cr  tau(   4) = (   0.5956426   0.2978213   0.0000000  )
         5           Cr  tau(   5) = (   0.8934640   0.0000000   0.5956426  )
         6           Cr  tau(   6) = (   0.2978213   0.0000000   0.5956426  )
         7           Si  tau(   7) = (   0.5956426   0.5956426   0.5956426  )
         8           Si  tau(   8) = (   0.0000000   0.0000000   0.0000000  )

     number of k points=    48  gaussian smearing, width (Ry)=  0.1000
                       cart. coord. in units 2pi/alat
        k(    1) = (   0.0000000   0.0000000   0.0000000), wk =   0.0095238
        k(    2) = (   0.0000000   0.0000000   0.1199185), wk =   0.0190476
        k(    3) = (   0.0000000   0.0000000   0.2398370), wk =   0.0190476
        k(    4) = (   0.0000000   0.0000000   0.3597555), wk =   0.0190476
        k(    5) = (   0.0000000   0.1399049   0.0000000), wk =   0.0190476
        k(    6) = (   0.0000000   0.1399049   0.1199185), wk =   0.0380952
        k(    7) = (   0.0000000   0.1399049   0.2398370), wk =   0.0380952
        k(    8) = (   0.0000000   0.1399049   0.3597555), wk =   0.0380952
        k(    9) = (   0.0000000   0.2798098   0.0000000), wk =   0.0190476
        k(   10) = (   0.0000000   0.2798098   0.1199185), wk =   0.0380952
        k(   11) = (   0.0000000   0.2798098   0.2398370), wk =   0.0380952
        k(   12) = (   0.0000000   0.2798098   0.3597555), wk =   0.0380952
        k(   13) = (   0.0000000  -0.4197147   0.0000000), wk =   0.0095238
        k(   14) = (   0.0000000  -0.4197147   0.1199185), wk =   0.0190476
        k(   15) = (   0.0000000  -0.4197147   0.2398370), wk =   0.0190476
        k(   16) = (   0.0000000  -0.4197147   0.3597555), wk =   0.0190476
        k(   17) = (   0.1678859   0.0000000   0.0000000), wk =   0.0190476
        k(   18) = (   0.1678859   0.0000000   0.1199185), wk =   0.0380952
        k(   19) = (   0.1678859   0.0000000   0.2398370), wk =   0.0380952
        k(   20) = (   0.1678859   0.0000000   0.3597555), wk =   0.0380952
        k(   21) = (   0.1678859   0.1399049   0.0000000), wk =   0.0380952
        k(   22) = (   0.1678859   0.1399049   0.1199185), wk =   0.0761905
        k(   23) = (   0.1678859   0.1399049   0.2398370), wk =   0.0761905
        k(   24) = (   0.1678859   0.1399049   0.3597555), wk =   0.0761905
        k(   25) = (   0.1678859   0.2798098   0.0000000), wk =   0.0380952
        k(   26) = (   0.1678859   0.2798098   0.1199185), wk =   0.0761905
        k(   27) = (   0.1678859   0.2798098   0.2398370), wk =   0.0761905
        k(   28) = (   0.1678859   0.2798098   0.3597555), wk =   0.0761905
        k(   29) = (   0.1678859  -0.4197147   0.0000000), wk =   0.0190476
        k(   30) = (   0.1678859  -0.4197147   0.1199185), wk =   0.0380952
        k(   31) = (   0.1678859  -0.4197147   0.2398370), wk =   0.0380952
        k(   32) = (   0.1678859  -0.4197147   0.3597555), wk =   0.0380952
        k(   33) = (   0.3357718   0.0000000   0.0000000), wk =   0.0190476
        k(   34) = (   0.3357718   0.0000000   0.1199185), wk =   0.0380952
        k(   35) = (   0.3357718   0.0000000   0.2398370), wk =   0.0380952
        k(   36) = (   0.3357718   0.0000000   0.3597555), wk =   0.0380952
        k(   37) = (   0.3357718   0.1399049   0.0000000), wk =   0.0380952
        k(   38) = (   0.3357718   0.1399049   0.1199185), wk =   0.0761905
        k(   39) = (   0.3357718   0.1399049   0.2398370), wk =   0.0761905
        k(   40) = (   0.3357718   0.1399049   0.3597555), wk =   0.0761905
        k(   41) = (   0.3357718   0.2798098   0.0000000), wk =   0.0380952
        k(   42) = (   0.3357718   0.2798098   0.1199185), wk =   0.0761905
        k(   43) = (   0.3357718   0.2798098   0.2398370), wk =   0.0761905
        k(   44) = (   0.3357718   0.2798098   0.3597555), wk =   0.0761905
        k(   45) = (   0.3357718  -0.4197147   0.0000000), wk =   0.0190476
        k(   46) = (   0.3357718  -0.4197147   0.1199185), wk =   0.0380952
        k(   47) = (   0.3357718  -0.4197147   0.2398370), wk =   0.0380952
        k(   48) = (   0.3357718  -0.4197147   0.3597555), wk =   0.0380952

     Largest allocated arrays     est. size (Mb)     dimensions
     Largest temporary arrays     est. size (Mb)     dimensions

     Initial potential from superposition of free atoms

     Starting from uniform charge
     Starting wfc are    0 randomized atomic wfcs

     Writing output data file Prototype-La-cP8-Cr3Si.save

     Self-consistent Calculation

[...]

     iteration # 10     ecut=    40.00 Ry     beta=0.70
     CG style diagonalization
     c_bands:  1 eigenvalues not converged
     ethr =  6.61E-07,  avg # of iterations =  4.2

[...]

     total energy              =   -2027.32224248 Ry
     Harris-Foulkes estimate   =   -2027.32224278 Ry
     estimated scf accuracy    <       0.00000121 Ry

     iteration # 19     ecut=    40.00 Ry     beta=0.70
     CG style diagonalization
     ethr =  7.74E-10,  avg # of iterations =  3.1

     End of self-consistent calculation

[...]

          k = 0.3358-0.4197 0.3598 (  4512 PWs)   bands (ev):

   -98.3605 -98.3604 -57.1104 -57.1103 -57.1090 -57.1089 -57.1069 -57.1067
   -42.0700 -42.0635 -42.0449 -42.0447 -42.0269 -42.0201 -13.4547 -13.3954
   -13.2484 -13.2463 -13.1961 -13.1942 -13.1248 -13.0988 -13.0526 -13.0425
   -13.0247 -13.0205 -12.9920 -12.9869 -12.9808 -12.9727 -12.9726 -12.9640
     1.0317   1.0317   1.0327   1.0328   1.0412   1.0425   1.0447   1.0452
     1.0467   1.0469  13.8816  13.8820  18.7915  18.8918  19.1111  19.1440
    19.2756  19.3047  20.4720  20.4838  20.5577  20.5644  20.6600  20.7443
    20.9813  21.1404  21.5050  21.5525  21.6095  21.6961  21.7569  21.7738
    22.0948  22.1405  23.2362  23.3047  23.3970  23.4407  23.5744  23.6660
    23.7694  23.7953  24.2232  24.3244  24.4323  24.5879  25.0188  25.0885
    29.9735  29.9745  31.6880  31.7440  31.8851  31.8910  32.5149  32.5209
    33.7009  33.9676  34.6767  34.6931  35.0734  35.0823

     the Fermi energy is    26.3351 ev

!    total energy              =   -2027.32224221 Ry
     Harris-Foulkes estimate   =   -2027.32224257 Ry
     estimated scf accuracy    <       0.00000039 Ry

     The total energy is the sum of the following terms:

     one-electron contribution =    -411.10977481 Ry
     hartree contribution      =     308.82861526 Ry
     xc contribution           =    -184.82897177 Ry
     ewald contribution        =   -1739.95855399 Ry
     smearing contrib. (-TS)   =      -0.25355690 Ry

     convergence has been achieved in  19 iterations

     Forces acting on atoms (Ry/au):

     atom    1 type  1   force =     0.00000000    0.00000000    0.00000000
     atom    2 type  1   force =     0.00000000    0.00000000    0.00000000
     atom    3 type  1   force =     0.00000000    0.00000000    0.00000000
     atom    4 type  1   force =     0.00000000    0.00000000    0.00000000
     atom    5 type  1   force =     0.00000000    0.00000000    0.00000000
     atom    6 type  1   force =     0.00000000    0.00000000    0.00000000
     atom    7 type  2   force =     0.00000000    0.00000000    0.00000000
     atom    8 type  2   force =     0.00000000    0.00000000    0.00000000

     Total force =     0.000000     Total SCF correction =     0.000000

     entering subroutine stress ...

          total   stress  (Ry/bohr**3)                   (kbar)     P=  -28.66
  -0.00019484   0.00000000   0.00000000        -28.66      0.00      0.00
   0.00000000  -0.00019484   0.00000000          0.00    -28.66      0.00
   0.00000000   0.00000000  -0.00019484          0.00      0.00    -28.66

     Writing output data file Prototype-La-cP8-Cr3Si.save

     General routines

     Parallel routines

   This run was terminated on:  23:20:28  22Mar2018

   JOB DONE.