     Program PWSCF v.5.0.2 starts on 22Mar2018 at 21:32:22

     Current dimensions of program PWSCF are:
     Max number of different atomic species (ntypx) = 10
     Max number of k-points (npk) =  40000
     Max angular momentum in pseudopotentials (lmaxx) =  3
     Waiting for input...
     Reading input from standard input

     Subspace diagonalization in iterative solution of the eigenvalue problem:
     a serial algorithm will be used

     bravais-lattice index     =            0
     lattice parameter (alat)  =      12.0168  a.u.
     unit-cell volume          =    1187.3413 (a.u.)^3
     number of atoms/cell      =            8
     number of atomic types    =            2
     number of electrons       =       162.00
     number of Kohn-Sham states=           97
     kinetic-energy cutoff     =      40.0000  Ry
     charge density cutoff     =     160.0000  Ry
     convergence threshold     =      1.0E-04
     mixing beta               =       0.7000
     number of iterations used =            8  plain     mixing
     Exchange-correlation      = SLA-PZ-NOGX-NOGC ( 1 1 0 0 0)
     EXX-fraction              =        0.00
     nstep                     =           50

     celldm(1)=  12.016801  celldm(2)=   0.000000  celldm(3)=   0.000000
     celldm(4)=   0.000000  celldm(5)=   0.000000  celldm(6)=   0.000000

     crystal axes: (cart. coord. in units of alat)
               a(1) = (   1.000000   0.000000   0.000000 )
               a(2) = (  -0.500000   0.866025   0.000000 )
               a(3) = (   0.000000   0.000000   0.790093 )

     reciprocal axes: (cart. coord. in units 2 pi/alat)
               b(1) = (  1.000000  0.577350  0.000000 )
               b(2) = (  0.000000  1.154701  0.000000 )
               b(3) = (  0.000000  0.000000  1.265674 )

     PseudoPot. # 1 for Tm read from file:
     /home/cwx6513/pp.La/Tm.UPF
     MD5 check sum: 245516e0878b5372ceeb9443ded2c4e1
     Pseudo is Norm-conserving, Zval = 23.0
     Generated in analytical, separable form
     Using radial grid of 1269 points,  6 beta functions with:
                l(1) =   0
                l(2) =   0
                l(3) =   1
                l(4) =   1
                l(5) =   2
                l(6) =   3

     PseudoPot. # 2 for Ce read from file:
     /home/cwx6513/pp.La/Ce.UPF
     MD5 check sum: 44451aa79a44a00cf2bc029dc19922f6
     Pseudo is Norm-conserving, Zval = 12.0
     Generated in analytical, separable form
     Using radial grid of 1255 points,  6 beta functions with:
                l(1) =   0
                l(2) =   0
                l(3) =   1
                l(4) =   1
                l(5) =   2
                l(6) =   3

     atomic species   valence    mass     pseudopotential
        Mg            23.00    24.30500     Tm( 1.00)
        Cd            12.00   112.41100     Ce( 1.00)

     24 Sym. Ops., with inversion, found (12 have fractional translation)

   Cartesian axes

     site n.     atom                  positions (alat units)
         1           Mg  tau(   1) = (   0.2478935   0.7204716   0.1975233  )
         2           Mg  tau(   2) = (   0.7478935   0.1455538   0.5925699  )
         3           Mg  tau(   3) = (   0.2521065   0.1455538   0.5925699  )
         4           Mg  tau(   4) = (  -0.2478935   0.7204716   0.1975233  )
         5           Mg  tau(   5) = (   0.0000000   0.2911075   0.1975233  )
         6           Mg  tau(   6) = (   0.5000000   0.5749179   0.5925699  )
         7           Cd  tau(   7) = (   0.5000005   0.2886748   0.1975233  )
         8           Cd  tau(   8) = (  -0.0000005   0.5773506   0.5925699  )

     number of k points=    64  gaussian smearing, width (Ry)=  0.1000
                       cart. coord. in units 2pi/alat
        k(    1) = (   0.0000000   0.0000000   0.0000000), wk =   0.0095238
        k(    2) = (   0.0000000   0.0000000   0.1808105), wk =   0.0190476
        k(    3) = (   0.0000000   0.0000000   0.3616210), wk =   0.0190476
        k(    4) = (   0.0000000   0.0000000   0.5424315), wk =   0.0190476
        k(    5) = (   0.0000000   0.1924501   0.0000000), wk =   0.0190476
        k(    6) = (   0.0000000   0.1924501   0.1808105), wk =   0.0380952
        k(    7) = (   0.0000000   0.1924501   0.3616210), wk =   0.0380952
        k(    8) = (   0.0000000   0.1924501   0.5424315), wk =   0.0380952
        k(    9) = (   0.0000000   0.3849002   0.0000000), wk =   0.0190476
        k(   10) = (   0.0000000   0.3849002   0.1808105), wk =   0.0380952
        k(   11) = (   0.0000000   0.3849002   0.3616210), wk =   0.0380952
        k(   12) = (   0.0000000   0.3849002   0.5424315), wk =   0.0380952
        k(   13) = (   0.0000000  -0.5773503   0.0000000), wk =   0.0095238
        k(   14) = (   0.0000000  -0.5773503   0.1808105), wk =   0.0190476
        k(   15) = (   0.0000000  -0.5773503   0.3616210), wk =   0.0190476
        k(   16) = (   0.0000000  -0.5773503   0.5424315), wk =   0.0190476
        k(   17) = (   0.2000000   0.1154701   0.0000000), wk =   0.0190476
        k(   18) = (   0.2000000   0.1154701   0.1808105), wk =   0.0380952
        k(   19) = (   0.2000000   0.1154701   0.3616210), wk =   0.0380952
        k(   20) = (   0.2000000   0.1154701   0.5424315), wk =   0.0380952
        k(   21) = (   0.2000000   0.3079201   0.0000000), wk =   0.0190476
        k(   22) = (   0.2000000   0.3079201   0.1808105), wk =   0.0380952
        k(   23) = (   0.2000000   0.3079201   0.3616210), wk =   0.0380952
        k(   24) = (   0.2000000   0.3079201   0.5424315), wk =   0.0380952
        k(   25) = (   0.2000000   0.5003702   0.0000000), wk =   0.0190476
        k(   26) = (   0.2000000   0.5003702   0.1808105), wk =   0.0380952
        k(   27) = (   0.2000000   0.5003702   0.3616210), wk =   0.0380952
        k(   28) = (   0.2000000   0.5003702   0.5424315), wk =   0.0380952
        k(   29) = (   0.2000000  -0.4618802   0.0000000), wk =   0.0190476
        k(   30) = (   0.2000000  -0.4618802   0.1808105), wk =   0.0380952
        k(   31) = (   0.2000000  -0.4618802   0.3616210), wk =   0.0380952
        k(   32) = (   0.2000000  -0.4618802   0.5424315), wk =   0.0380952
        k(   33) = (   0.2000000  -0.2694301   0.0000000), wk =   0.0190476
        k(   34) = (   0.2000000  -0.2694301   0.1808105), wk =   0.0380952
        k(   35) = (   0.2000000  -0.2694301   0.3616210), wk =   0.0380952
        k(   36) = (   0.2000000  -0.2694301   0.5424315), wk =   0.0380952
        k(   37) = (   0.2000000  -0.0769800   0.0000000), wk =   0.0190476
        k(   38) = (   0.2000000  -0.0769800   0.1808105), wk =   0.0380952
        k(   39) = (   0.2000000  -0.0769800   0.3616210), wk =   0.0380952
        k(   40) = (   0.2000000  -0.0769800   0.5424315), wk =   0.0380952
        k(   41) = (   0.4000000   0.2309401   0.0000000), wk =   0.0190476
        k(   42) = (   0.4000000   0.2309401   0.1808105), wk =   0.0380952
        k(   43) = (   0.4000000   0.2309401   0.3616210), wk =   0.0380952
        k(   44) = (   0.4000000   0.2309401   0.5424315), wk =   0.0380952
        k(   45) = (   0.4000000   0.4233902   0.0000000), wk =   0.0190476
        k(   46) = (   0.4000000   0.4233902   0.1808105), wk =   0.0380952
        k(   47) = (   0.4000000   0.4233902   0.3616210), wk =   0.0380952
        k(   48) = (   0.4000000   0.4233902   0.5424315), wk =   0.0380952
        k(   49) = (   0.4000000   0.6158403   0.0000000), wk =   0.0190476
        k(   50) = (   0.4000000   0.6158403   0.1808105), wk =   0.0380952
        k(   51) = (   0.4000000   0.6158403   0.3616210), wk =   0.0380952
        k(   52) = (   0.4000000   0.6158403   0.5424315), wk =   0.0380952
        k(   53) = (   0.4000000  -0.3464102   0.0000000), wk =   0.0190476
        k(   54) = (   0.4000000  -0.3464102   0.1808105), wk =   0.0380952
        k(   55) = (   0.4000000  -0.3464102   0.3616210), wk =   0.0380952
        k(   56) = (   0.4000000  -0.3464102   0.5424315), wk =   0.0380952
        k(   57) = (   0.4000000  -0.1539601   0.0000000), wk =   0.0190476
        k(   58) = (   0.4000000  -0.1539601   0.1808105), wk =   0.0380952
        k(   59) = (   0.4000000  -0.1539601   0.3616210), wk =   0.0380952
        k(   60) = (   0.4000000  -0.1539601   0.5424315), wk =   0.0380952
        k(   61) = (   0.4000000   0.0384900   0.0000000), wk =   0.0190476
        k(   62) = (   0.4000000   0.0384900   0.1808105), wk =   0.0380952
        k(   63) = (   0.4000000   0.0384900   0.3616210), wk =   0.0380952
        k(   64) = (   0.4000000   0.0384900   0.5424315), wk =   0.0380952

     Largest allocated arrays     est. size (Mb)     dimensions
     Largest temporary arrays     est. size (Mb)     dimensions

     Initial potential from superposition of free atoms

     Starting from uniform charge
     Starting wfc are    0 randomized atomic wfcs

     Self-consistent Calculation

     iteration #  1     ecut=    40.00 Ry     beta=0.70
     CG style diagonalization
     ethr =  1.00E-02,  avg # of iterations = 13.6

     total energy              =   -1803.48356694 Ry
     Harris-Foulkes estimate   =   -3232.85604183 Ry
     estimated scf accuracy    <    1747.83250412 Ry

     iteration #  2     ecut=    40.00 Ry     beta=0.70
     CG style diagonalization
     c_bands:  3 eigenvalues not converged
     c_bands:  1 eigenvalues not converged
     c_bands:  1 eigenvalues not converged
     c_bands:  1 eigenvalues not converged
     c_bands:  3 eigenvalues not converged
     c_bands:  1 eigenvalues not converged
     c_bands:  1 eigenvalues not converged
     c_bands:  2 eigenvalues not converged
     c_bands:  1 eigenvalues not converged
     c_bands:  1 eigenvalues not converged
     c_bands:  1 eigenvalues not converged
     c_bands:  4 eigenvalues not converged
     c_bands:  1 eigenvalues not converged
     c_bands:  2 eigenvalues not converged
     c_bands:  5 eigenvalues not converged
     c_bands:  1 eigenvalues not converged
     c_bands:  1 eigenvalues not converged
     c_bands:  1 eigenvalues not converged
     c_bands:  1 eigenvalues not converged
     c_bands:  2 eigenvalues not converged
     c_bands:  3 eigenvalues not converged
     c_bands:  2 eigenvalues not converged
     c_bands:  2 eigenvalues not converged
     c_bands:  2 eigenvalues not converged
     c_bands:  1 eigenvalues not converged
     c_bands:  4 eigenvalues not converged
     c_bands:  1 eigenvalues not converged
     c_bands:  1 eigenvalues not converged
     c_bands:  1 eigenvalues not converged
     c_bands:  1 eigenvalues not converged
     c_bands:  3 eigenvalues not converged
     c_bands:  2 eigenvalues not converged
     c_bands:  1 eigenvalues not converged
     c_bands:  1 eigenvalues not converged
     c_bands:  1 eigenvalues not converged
     c_bands:  2 eigenvalues not converged
     c_bands:  1 eigenvalues not converged
     c_bands:  4 eigenvalues not converged
     c_bands:  1 eigenvalues not converged
     c_bands:  3 eigenvalues not converged
     c_bands:  1 eigenvalues not converged
     c_bands:  2 eigenvalues not converged
     c_bands:  2 eigenvalues not converged
[...]
        k(   18) = (   0.2007746   0.1159173   0.1766283), wk =   0.0380952
        k(   19) = (   0.2007746   0.1159173   0.3532565), wk =   0.0380952
        k(   20) = (   0.2007746   0.1159173   0.5298848), wk =   0.0380952
        k(   21) = (   0.2007746   0.3091127   0.0000000), wk =   0.0190476
        k(   22) = (   0.2007746   0.3091127   0.1766283), wk =   0.0380952
        k(   23) = (   0.2007746   0.3091127   0.3532565), wk =   0.0380952
        k(   24) = (   0.2007746   0.3091127   0.5298848), wk =   0.0380952
        k(   25) = (   0.2007746   0.5023082   0.0000000), wk =   0.0190476
        k(   26) = (   0.2007746   0.5023082   0.1766283), wk =   0.0380952
        k(   27) = (   0.2007746   0.5023082   0.3532565), wk =   0.0380952
        k(   28) = (   0.2007746   0.5023082   0.5298848), wk =   0.0380952
        k(   29) = (   0.2007746  -0.4636691   0.0000000), wk =   0.0190476
        k(   30) = (   0.2007746  -0.4636691   0.1766283), wk =   0.0380952
        k(   31) = (   0.2007746  -0.4636691   0.3532565), wk =   0.0380952
        k(   32) = (   0.2007746  -0.4636691   0.5298848), wk =   0.0380952
        k(   33) = (   0.2007746  -0.2704736   0.0000000), wk =   0.0190476
        k(   34) = (   0.2007746  -0.2704736   0.1766283), wk =   0.0380952
        k(   35) = (   0.2007746  -0.2704736   0.3532565), wk =   0.0380952
        k(   36) = (   0.2007746  -0.2704736   0.5298848), wk =   0.0380952
        k(   37) = (   0.2007746  -0.0772782   0.0000000), wk =   0.0190476
        k(   38) = (   0.2007746  -0.0772782   0.1766283), wk =   0.0380952
        k(   39) = (   0.2007746  -0.0772782   0.3532565), wk =   0.0380952
        k(   40) = (   0.2007746  -0.0772782   0.5298848), wk =   0.0380952
        k(   41) = (   0.4015492   0.2318345   0.0000000), wk =   0.0190476
        k(   42) = (   0.4015492   0.2318345   0.1766283), wk =   0.0380952
        k(   43) = (   0.4015492   0.2318345   0.3532565), wk =   0.0380952
        k(   44) = (   0.4015492   0.2318345   0.5298848), wk =   0.0380952
        k(   45) = (   0.4015492   0.4250300   0.0000000), wk =   0.0190476
        k(   46) = (   0.4015492   0.4250300   0.1766283), wk =   0.0380952
        k(   47) = (   0.4015492   0.4250300   0.3532565), wk =   0.0380952
        k(   48) = (   0.4015492   0.4250300   0.5298848), wk =   0.0380952
        k(   49) = (   0.4015492   0.6182255   0.0000000), wk =   0.0190476
        k(   50) = (   0.4015492   0.6182255   0.1766283), wk =   0.0380952
        k(   51) = (   0.4015492   0.6182255   0.3532565), wk =   0.0380952
        k(   52) = (   0.4015492   0.6182255   0.5298848), wk =   0.0380952
        k(   53) = (   0.4015492  -0.3477518   0.0000000), wk =   0.0190476
        k(   54) = (   0.4015492  -0.3477518   0.1766283), wk =   0.0380952
        k(   55) = (   0.4015492  -0.3477518   0.3532565), wk =   0.0380952
        k(   56) = (   0.4015492  -0.3477518   0.5298848), wk =   0.0380952
        k(   57) = (   0.4015492  -0.1545564   0.0000000), wk =   0.0190476
        k(   58) = (   0.4015492  -0.1545564   0.1766283), wk =   0.0380952
        k(   59) = (   0.4015492  -0.1545564   0.3532565), wk =   0.0380952
        k(   60) = (   0.4015492  -0.1545564   0.5298848), wk =   0.0380952
        k(   61) = (   0.4015492   0.0386391   0.0000000), wk =   0.0190476
        k(   62) = (   0.4015492   0.0386391   0.1766283), wk =   0.0380952
        k(   63) = (   0.4015492   0.0386391   0.3532565), wk =   0.0380952
        k(   64) = (   0.4015492   0.0386391   0.5298848), wk =   0.0380952

[...]

     The maximum number of steps has been reached.

     End of BFGS Geometry Optimization
Begin final coordinates
     new unit-cell volume =   1206.09480 a.u.^3 (   178.72481 Ang^3 )

CELL_PARAMETERS (alat= 12.01680127)
   0.996141908   0.000000000   0.000000000
  -0.498070954   0.862684198   0.000000000
   0.000000000   0.000000000   0.808801138

ATOMIC_POSITIONS (crystal)
Mg       0.661153543   0.830576771   0.250000000
Mg       0.830576771   0.169423229   0.750000000
Mg       0.338846457   0.169423229   0.750000000
Mg       0.169423229   0.830576771   0.250000000
Mg       0.169423229   0.338846457   0.250000000
Mg       0.830576771   0.661153543   0.750000000
Cd       0.666667000   0.333333000   0.250000000
Cd       0.333333000   0.666667000   0.750000000
End final coordinates

     A final scf calculation at the relaxed structure.
     The G-vectors are recalculated for the final unit cell
     Results may differ from those at the preceding step.

     bravais-lattice index     =            0
     lattice parameter (alat)  =      12.0168  a.u.
     unit-cell volume          =    1206.0948 (a.u.)^3
     number of atoms/cell      =            8
     number of atomic types    =            2
     number of electrons       =       162.00
     number of Kohn-Sham states=           97
     kinetic-energy cutoff     =      40.0000  Ry
     charge density cutoff     =     160.0000  Ry
     convergence threshold     =      4.5E-05
     mixing beta               =       0.7000
     number of iterations used =            8  plain     mixing
     Exchange-correlation      = SLA-PZ-NOGX-NOGC ( 1 1 0 0 0)
     EXX-fraction              =        0.00

     celldm(1)=  12.016801  celldm(2)=   0.000000  celldm(3)=   0.000000
     celldm(4)=   0.000000  celldm(5)=   0.000000  celldm(6)=   0.000000

     crystal axes: (cart. coord. in units of alat)
               a(1) = (   0.996142   0.000000   0.000000 )
               a(2) = (  -0.498071   0.862684   0.000000 )
               a(3) = (   0.000000   0.000000   0.808801 )

     reciprocal axes: (cart. coord. in units 2 pi/alat)
               b(1) = (  1.003873  0.579586  0.000000 )
               b(2) = (  0.000000  1.159173  0.000000 )
               b(3) = (  0.000000  0.000000  1.236398 )

     PseudoPot. # 1 for Tm read from file:
     /home/cwx6513/pp.La/Tm.UPF
     MD5 check sum: 245516e0878b5372ceeb9443ded2c4e1
     Pseudo is Norm-conserving, Zval = 23.0
     Generated in analytical, separable form
     Using radial grid of 1269 points,  6 beta functions with:
                l(1) =   0
                l(2) =   0
                l(3) =   1
                l(4) =   1
                l(5) =   2
                l(6) =   3

     PseudoPot. # 2 for Ce read from file:
     /home/cwx6513/pp.La/Ce.UPF
     MD5 check sum: 44451aa79a44a00cf2bc029dc19922f6
     Pseudo is Norm-conserving, Zval = 12.0
     Generated in analytical, separable form
     Using radial grid of 1255 points,  6 beta functions with:
                l(1) =   0
                l(2) =   0
                l(3) =   1
                l(4) =   1
                l(5) =   2
                l(6) =   3

     atomic species   valence    mass     pseudopotential
        Mg            23.00    24.30500     Tm( 1.00)
        Cd            12.00   112.41100     Ce( 1.00)

     24 Sym. Ops., with inversion, found (12 have fractional translation)

   Cartesian axes

     site n.     atom                  positions (alat units)
         1           Mg  tau(   1) = (   0.2449166   0.7165255   0.2022003  )
         2           Mg  tau(   2) = (   0.7429875   0.1461587   0.6066009  )
         3           Mg  tau(   3) = (   0.2531544   0.1461587   0.6066009  )
         4           Mg  tau(   4) = (  -0.2449166   0.7165255   0.2022003  )
         5           Mg  tau(   5) = (   0.0000000   0.2923175   0.2022003  )
         6           Mg  tau(   6) = (   0.4980710   0.5703667   0.6066009  )
         7           Cd  tau(   7) = (   0.4980715   0.2875611   0.2022003  )
         8           Cd  tau(   8) = (  -0.0000005   0.5751231   0.6066009  )

     number of k points=    64  gaussian smearing, width (Ry)=  0.1000
                       cart. coord. in units 2pi/alat
        k(    1) = (   0.0000000   0.0000000   0.0000000), wk =   0.0095238
        k(    2) = (   0.0000000   0.0000000   0.1766283), wk =   0.0190476
        k(    3) = (   0.0000000   0.0000000   0.3532565), wk =   0.0190476
        k(    4) = (   0.0000000   0.0000000   0.5298848), wk =   0.0190476
        k(    5) = (   0.0000000   0.1931955   0.0000000), wk =   0.0190476
        k(    6) = (   0.0000000   0.1931955   0.1766283), wk =   0.0380952
        k(    7) = (   0.0000000   0.1931955   0.3532565), wk =   0.0380952
        k(    8) = (   0.0000000   0.1931955   0.5298848), wk =   0.0380952
        k(    9) = (   0.0000000   0.3863909   0.0000000), wk =   0.0190476
        k(   10) = (   0.0000000   0.3863909   0.1766283), wk =   0.0380952
        k(   11) = (   0.0000000   0.3863909   0.3532565), wk =   0.0380952
        k(   12) = (   0.0000000   0.3863909   0.5298848), wk =   0.0380952
        k(   13) = (   0.0000000  -0.5795864   0.0000000), wk =   0.0095238
        k(   14) = (   0.0000000  -0.5795864   0.1766283), wk =   0.0190476
        k(   15) = (   0.0000000  -0.5795864   0.3532565), wk =   0.0190476
        k(   16) = (   0.0000000  -0.5795864   0.5298848), wk =   0.0190476
        k(   17) = (   0.2007746   0.1159173   0.0000000), wk =   0.0190476
        k(   18) = (   0.2007746   0.1159173   0.1766283), wk =   0.0380952
        k(   19) = (   0.2007746   0.1159173   0.3532565), wk =   0.0380952
        k(   20) = (   0.2007746   0.1159173   0.5298848), wk =   0.0380952
        k(   21) = (   0.2007746   0.3091127   0.0000000), wk =   0.0190476
        k(   22) = (   0.2007746   0.3091127   0.1766283), wk =   0.0380952
        k(   23) = (   0.2007746   0.3091127   0.3532565), wk =   0.0380952
        k(   24) = (   0.2007746   0.3091127   0.5298848), wk =   0.0380952
        k(   25) = (   0.2007746   0.5023082   0.0000000), wk =   0.0190476
        k(   26) = (   0.2007746   0.5023082   0.1766283), wk =   0.0380952
        k(   27) = (   0.2007746   0.5023082   0.3532565), wk =   0.0380952
        k(   28) = (   0.2007746   0.5023082   0.5298848), wk =   0.0380952
        k(   29) = (   0.2007746  -0.4636691   0.0000000), wk =   0.0190476
        k(   30) = (   0.2007746  -0.4636691   0.1766283), wk =   0.0380952
        k(   31) = (   0.2007746  -0.4636691   0.3532565), wk =   0.0380952
        k(   32) = (   0.2007746  -0.4636691   0.5298848), wk =   0.0380952
        k(   33) = (   0.2007746  -0.2704736   0.0000000), wk =   0.0190476
        k(   34) = (   0.2007746  -0.2704736   0.1766283), wk =   0.0380952
        k(   35) = (   0.2007746  -0.2704736   0.3532565), wk =   0.0380952
        k(   36) = (   0.2007746  -0.2704736   0.5298848), wk =   0.0380952
        k(   37) = (   0.2007746  -0.0772782   0.0000000), wk =   0.0190476
        k(   38) = (   0.2007746  -0.0772782   0.1766283), wk =   0.0380952
        k(   39) = (   0.2007746  -0.0772782   0.3532565), wk =   0.0380952
        k(   40) = (   0.2007746  -0.0772782   0.5298848), wk =   0.0380952
        k(   41) = (   0.4015492   0.2318345   0.0000000), wk =   0.0190476
        k(   42) = (   0.4015492   0.2318345   0.1766283), wk =   0.0380952
        k(   43) = (   0.4015492   0.2318345   0.3532565), wk =   0.0380952
        k(   44) = (   0.4015492   0.2318345   0.5298848), wk =   0.0380952
        k(   45) = (   0.4015492   0.4250300   0.0000000), wk =   0.0190476
        k(   46) = (   0.4015492   0.4250300   0.1766283), wk =   0.0380952
        k(   47) = (   0.4015492   0.4250300   0.3532565), wk =   0.0380952
        k(   48) = (   0.4015492   0.4250300   0.5298848), wk =   0.0380952
        k(   49) = (   0.4015492   0.6182255   0.0000000), wk =   0.0190476
        k(   50) = (   0.4015492   0.6182255   0.1766283), wk =   0.0380952
        k(   51) = (   0.4015492   0.6182255   0.3532565), wk =   0.0380952
        k(   52) = (   0.4015492   0.6182255   0.5298848), wk =   0.0380952
        k(   53) = (   0.4015492  -0.3477518   0.0000000), wk =   0.0190476
        k(   54) = (   0.4015492  -0.3477518   0.1766283), wk =   0.0380952
        k(   55) = (   0.4015492  -0.3477518   0.3532565), wk =   0.0380952
        k(   56) = (   0.4015492  -0.3477518   0.5298848), wk =   0.0380952
        k(   57) = (   0.4015492  -0.1545564   0.0000000), wk =   0.0190476
        k(   58) = (   0.4015492  -0.1545564   0.1766283), wk =   0.0380952
        k(   59) = (   0.4015492  -0.1545564   0.3532565), wk =   0.0380952
        k(   60) = (   0.4015492  -0.1545564   0.5298848), wk =   0.0380952
        k(   61) = (   0.4015492   0.0386391   0.0000000), wk =   0.0190476
        k(   62) = (   0.4015492   0.0386391   0.1766283), wk =   0.0380952
        k(   63) = (   0.4015492   0.0386391   0.3532565), wk =   0.0380952
        k(   64) = (   0.4015492   0.0386391   0.5298848), wk =   0.0380952

     Largest allocated arrays     est. size (Mb)     dimensions
     Largest temporary arrays     est. size (Mb)     dimensions

     Initial potential from superposition of free atoms

     Starting from uniform charge
     Starting wfc are    0 randomized atomic wfcs

     Writing output data file Prototype-La-hP8-Mg3Cd.save

     Self-consistent Calculation

[...]

     iteration # 11     ecut=    40.00 Ry     beta=0.70
     CG style diagonalization
     c_bands:  1 eigenvalues not converged
     c_bands:  1 eigenvalues not converged
     c_bands:  1 eigenvalues not converged
     c_bands:  2 eigenvalues not converged
     c_bands:  1 eigenvalues not converged
     c_bands:  1 eigenvalues not converged
     c_bands:  1 eigenvalues not converged
     c_bands:  1 eigenvalues not converged
     c_bands:  1 eigenvalues not converged
     c_bands:  1 eigenvalues not converged
     c_bands:  1 eigenvalues not converged
     ethr =  3.06E-06,  avg # of iterations =  4.0

[...]

     total energy              =   -2358.73151106 Ry
     Harris-Foulkes estimate   =   -2358.73153090 Ry
     estimated scf accuracy    <       0.00006783 Ry

     iteration # 13     ecut=    40.00 Ry     beta=0.70
     CG style diagonalization
     ethr =  4.19E-08,  avg # of iterations =  3.1

     End of self-consistent calculation

[...]

          k = 0.4015 0.0386 0.5299 (  5159 PWs)   bands (ev):

   -86.2694 -86.2639 -86.2581 -86.2514 -86.2461 -86.2346 -44.9596 -44.9575
   -44.9352 -44.9336 -44.9258 -44.9240 -44.9116 -44.9068 -44.9001 -44.8964
   -44.8940 -44.8897 -44.8774 -44.8710 -44.8673 -44.8654 -44.8580 -44.8556
   -12.6063 -12.6041   3.5543   3.5764   3.6368   3.6480   3.6998   3.7371
     3.7624   3.8189   3.8319   3.8358   3.9608   3.9762   3.9837   4.0341
     4.0529   4.0913   4.1357   4.2283   4.2386   4.2819   4.3051   4.3530
     4.3602   4.3651   4.4037   4.4124   4.5380   4.5590   4.6250   4.6782
     5.1157   5.1313   5.4046   5.4935   5.6810   5.7004  12.6850  13.5842
    14.5828  15.0211  15.7604  16.1665  19.2341  19.7844  19.8645  20.3025
    21.6434  21.7111  22.9147  23.1458  23.6105  23.7716  25.1402  25.2535
    25.4572  25.6185  26.0609  26.5298  26.6815  26.8613  27.5806  28.1064
    28.6208  28.8160  29.0709  29.3377  29.6664  30.0124  30.5850  30.7177
    30.7985

     the Fermi energy is    25.4708 ev

!    total energy              =   -2358.73149885 Ry
     Harris-Foulkes estimate   =   -2358.73151542 Ry
     estimated scf accuracy    <       0.00001840 Ry

     The total energy is the sum of the following terms:

     one-electron contribution =    -799.03766773 Ry
     hartree contribution      =     470.83980237 Ry
     xc contribution           =    -200.08290229 Ry
     ewald contribution        =   -1830.10539359 Ry
     smearing contrib. (-TS)   =      -0.34533762 Ry

     convergence has been achieved in  13 iterations

     Forces acting on atoms (Ry/au):

     atom    1 type  1   force =     0.01111046    0.00641463    0.00000000
     atom    2 type  1   force =     0.01111046   -0.00641463    0.00000000
     atom    3 type  1   force =    -0.01111046   -0.00641463    0.00000000
     atom    4 type  1   force =    -0.01111046    0.00641463    0.00000000
     atom    5 type  1   force =     0.00000000   -0.01282925    0.00000000
     atom    6 type  1   force =     0.00000000    0.01282925    0.00000000
     atom    7 type  2   force =     0.00000000    0.00000000    0.00000000
     atom    8 type  2   force =     0.00000000    0.00000000    0.00000000

     Total force =     0.031425     Total SCF correction =     0.000000

     entering subroutine stress ...

          total   stress  (Ry/bohr**3)                   (kbar)     P= -167.57
  -0.00129408   0.00000000   0.00000000       -190.36      0.00      0.00
   0.00000000  -0.00129408   0.00000000          0.00   -190.36      0.00
   0.00000000   0.00000000  -0.00082911          0.00      0.00   -121.97

     Writing output data file Prototype-La-hP8-Mg3Cd.save

     General routines

     Parallel routines

   This run was terminated on:  22:42:36  22Mar2018

   JOB DONE.