     Program PWSCF v.5.0.2 starts on 23Mar2018 at  2:18:13

     Current dimensions of program PWSCF are:
     Max number of different atomic species (ntypx) = 10
     Max number of k-points (npk) =  40000
     Max angular momentum in pseudopotentials (lmaxx) =  3
     Waiting for input...
     Reading input from standard input

     Subspace diagonalization in iterative solution of the eigenvalue problem:
     a serial algorithm will be used

     bravais-lattice index     =            0
     lattice parameter (alat)  =       7.0151  a.u.
     unit-cell volume          =     862.2778 (a.u.)^3
     number of atoms/cell      =           12
     number of atomic types    =            2
     number of electrons       =       232.00
     number of Kohn-Sham states=          139
     kinetic-energy cutoff     =      40.0000  Ry
     charge density cutoff     =     160.0000  Ry
     convergence threshold     =      1.0E-04
     mixing beta               =       0.7000
     number of iterations used =            8  plain     mixing
     Exchange-correlation      = SLA-PZ-NOGX-NOGC ( 1 1 0 0 0)
     EXX-fraction              =        0.00
     nstep                     =           50

     celldm(1)=   7.015105  celldm(2)=   0.000000  celldm(3)=   0.000000
     celldm(4)=   0.000000  celldm(5)=   0.000000  celldm(6)=   0.000000

     crystal axes: (cart. coord. in units of alat)
               a(1) = (   1.000000   0.000000   0.000000 )
               a(2) = (   0.000000   1.315963   0.000000 )
               a(3) = (   0.000000   0.000000   1.898020 )

     reciprocal axes: (cart. coord. in units 2 pi/alat)
               b(1) = (  1.000000  0.000000  0.000000 )
               b(2) = (  0.000000  0.759900  0.000000 )
               b(3) = (  0.000000  0.000000  0.526865 )

     PseudoPot. # 1 for Dy read from file:
     /home/cwx6513/pp.La/Dy.UPF
     MD5 check sum: 9597327bec62616a94a14d07f3fd9936
     Pseudo is Norm-conserving, Zval = 20.0
     Generated in analytical, separable form
     Using radial grid of 1265 points,  6 beta functions with:
                l(1) =   0
                l(2) =   0
                l(3) =   1
                l(4) =   1
                l(5) =   2
                l(6) =   3

     PseudoPot. # 2 for Gd read from file:
     /home/cwx6513/pp.La/Gd.UPF
     MD5 check sum: 09a8be538722f05520810cb6aac0efd2
     Pseudo is Norm-conserving, Zval = 18.0
     Generated in analytical, separable form
     Using radial grid of 1263 points,  6 beta functions with:
                l(1) =   0
                l(2) =   0
                l(3) =   1
                l(4) =   1
                l(5) =   2
                l(6) =   3

     atomic species   valence    mass     pseudopotential
        Co            20.00    58.93320     Dy( 1.00)
        Si            18.00    28.08550     Gd( 1.00)

      8 Sym. Ops., with inversion, found ( 6 have fractional translation)

   Cartesian axes

     site n.     atom                  positions (alat units)
         1           Co  tau(   1) = (   0.7500000   1.0875135   0.8270358  )
         2           Co  tau(   2) = (   0.2500000   0.2284499   1.0709846  )
         3           Co  tau(   3) = (   0.7500000   0.4295318   0.1219744  )
         4           Co  tau(   4) = (   0.2500000   0.8864316   1.7760460  )
         5           Co  tau(   5) = (   0.2500000   0.7067855   0.5358966  )
         6           Co  tau(   6) = (   0.7500000   0.6091779   1.3621238  )
         7           Co  tau(   7) = (   0.2500000   0.0488038   0.4131136  )
         8           Co  tau(   8) = (   0.7500000   1.2671596   1.4849068  )
         9           Si  tau(   9) = (   0.2500000   0.2669484   1.6960710  )
        10           Si  tau(  10) = (   0.7500000   1.0490149   0.2019494  )
        11           Si  tau(  11) = (   0.2500000   0.9249301   1.1509596  )
        12           Si  tau(  12) = (   0.7500000   0.3910333   0.7470608  )

     number of k points=    12  gaussian smearing, width (Ry)=  0.1000
                       cart. coord. in units 2pi/alat
        k(    1) = (   0.0000000   0.0000000   0.0000000), wk =   0.0833333
        k(    2) = (   0.0000000   0.0000000   0.1317162), wk =   0.1666667
        k(    3) = (   0.0000000   0.0000000  -0.2634324), wk =   0.0833333
        k(    4) = (   0.0000000   0.2532999   0.0000000), wk =   0.1666667
        k(    5) = (   0.0000000   0.2532999   0.1317162), wk =   0.3333333
        k(    6) = (   0.0000000   0.2532999  -0.2634324), wk =   0.1666667
        k(    7) = (  -0.5000000   0.0000000   0.0000000), wk =   0.0833333
        k(    8) = (  -0.5000000   0.0000000   0.1317162), wk =   0.1666667
        k(    9) = (  -0.5000000   0.0000000  -0.2634324), wk =   0.0833333
        k(   10) = (  -0.5000000   0.2532999   0.0000000), wk =   0.1666667
        k(   11) = (  -0.5000000   0.2532999   0.1317162), wk =   0.3333333
        k(   12) = (  -0.5000000   0.2532999  -0.2634324), wk =   0.1666667

     Largest allocated arrays     est. size (Mb)     dimensions
     Largest temporary arrays     est. size (Mb)     dimensions

     Initial potential from superposition of free atoms

     Starting from uniform charge
     Starting wfc are    0 randomized atomic wfcs

     Self-consistent Calculation

     iteration #  1     ecut=    40.00 Ry     beta=0.70
     CG style diagonalization
     c_bands:  2 eigenvalues not converged
     c_bands:  1 eigenvalues not converged
     c_bands:  4 eigenvalues not converged
     c_bands:  5 eigenvalues not converged
     c_bands:  1 eigenvalues not converged
     c_bands:  1 eigenvalues not converged
     ethr =  1.00E-02,  avg # of iterations = 12.3

     total energy              =   -2724.35901330 Ry
     Harris-Foulkes estimate   =   -3169.78446846 Ry
     estimated scf accuracy    <     589.26393488 Ry

     iteration #  2     ecut=    40.00 Ry     beta=0.70
     CG style diagonalization
     ethr =  1.00E-02,  avg # of iterations =  8.2

[...]

     End of self-consistent calculation

          k = 0.0000 0.0000 0.0000 (  3675 PWs)   bands (ev):

   -34.6979 -34.5139 -34.4665 -34.3907 -34.3524 -34.2688 -34.2493 -34.2320
   -20.1022 -20.0916 -20.0617 -20.0306  -3.0280  -2.9745  -2.7231  -2.6356
    -2.5868  -2.3545  -2.2858  -2.1801  -2.1653  -2.1441  -1.8599  -1.8169
    -1.7437  -1.7294  -1.7131  -1.7109  -1.4972  -1.4773  -1.4529  -1.3474
    -1.2548  -1.1692  -0.9593  -0.8649   7.9669   8.0845   8.1026   8.1381
     8.2093   8.3041   8.3683   8.4090   8.5017   8.5260   8.6625   8.7202
    32.1875  32.4516  32.6553  32.9874  32.9883  33.0001  33.3085  33.6236
    33.6554  34.3884  34.5615  35.0468  35.0498  35.3409  35.5980  35.8260
    36.1828  36.1890  36.4909  37.0583  37.4300  37.6811  37.8019  37.8381
    37.8964  38.2351  38.3742  38.8410  38.9138  39.0338  39.1135  39.3161
    39.3279  39.7820  39.8360  39.9780  40.6844  40.7567  40.9184  42.0256
    42.2897  42.5762  42.6833  42.9491  43.1952  43.6352  44.0733  44.3268
    44.7974  44.8890  45.6414  45.6937  46.1152  46.4329  46.4851  46.5728
    47.8439  47.8663  47.9239  48.0498  48.1060  48.9224  49.2201  49.7074
    50.0446  52.5741  52.8777  53.6678  54.2157  54.8705  55.3183  55.8072
    56.5519  57.1195  57.2288  57.4696  57.5135  57.8046  58.4858  58.5555
    58.6038  58.6388  58.6805  58.8020  59.3043  59.6848  59.7652  59.8025
    60.8205  60.9891  61.0088

[...]

          k =-0.5000 0.0000 0.0000 (  3722 PWs)   bands (ev):

[...]

     the Fermi energy is    53.3832 ev

!    total energy              =   -2875.78563200 Ry
     Harris-Foulkes estimate   =   -2875.78569410 Ry
     estimated scf accuracy    <       0.00007381 Ry

     The total energy is the sum of the following terms:

     one-electron contribution =     311.84572441 Ry
     hartree contribution      =     214.28243900 Ry
     xc contribution           =    -287.83964795 Ry
     ewald contribution        =   -3113.93914152 Ry
     smearing contrib. (-TS)   =      -0.13500594 Ry

     convergence has been achieved in   8 iterations

     Forces acting on atoms (Ry/au):

     atom    1 type  1   force =     0.00000000   -0.08544129   -0.03095320
     atom    2 type  1   force =     0.00000000    0.08544129    0.03095320
     atom    3 type  1   force =     0.00000000   -0.08544129    0.03095320
     atom    4 type  1   force =     0.00000000    0.08544129   -0.03095320
     atom    5 type  1   force =     0.00000000    0.14990072   -0.20729533
     atom    6 type  1   force =     0.00000000   -0.14990072    0.20729533
     atom    7 type  1   force =     0.00000000    0.14990072    0.20729533
     atom    8 type  1   force =     0.00000000   -0.14990072   -0.20729533
     atom    9 type  2   force =     0.00000000   -0.19990221    0.02969959
     atom   10 type  2   force =     0.00000000    0.19990221   -0.02969959
     atom   11 type  2   force =     0.00000000   -0.19990221   -0.02969959
     atom   12 type  2   force =     0.00000000    0.19990221    0.02969959

     Total force =     0.676884     Total SCF correction =     0.000000

     entering subroutine stress ...

          total   stress  (Ry/bohr**3)                   (kbar)     P= 7456.82
   0.05427151   0.00000000   0.00000000       7983.61      0.00      0.00
   0.00000000   0.04742467   0.00000000          0.00   6976.41      0.00
   0.00000000   0.00000000   0.05037518          0.00      0.00   7410.44

     BFGS Geometry Optimization

     number of scf cycles    =   1
     number of bfgs steps    =   0

     enthalpy new            =   -2875.7856319981 Ry

     new trust radius        =       0.5000000000 bohr
     new conv_thr            =       0.0001000000 Ry

     new unit-cell volume =   1084.74394 a.u.^3 (   160.74247 Ang^3 )

CELL_PARAMETERS (alat=  7.01510508)
   1.085136619   0.000000000   0.000000000
   0.000000000   1.413865620   0.000000000
   0.000000000   0.000000000   2.048010300

ATOMIC_POSITIONS (crystal)
Co       0.750000000   0.825820243   0.435590127
Co       0.250000000   0.174179757   0.564409873
Co       0.750000000   0.325820243   0.064409873
Co       0.250000000   0.674179757   0.935590127
Co       0.250000000   0.538104897   0.281368080
Co       0.750000000   0.461895103   0.718631920
Co       0.250000000   0.038104897   0.218631920
Co       0.750000000   0.961895103   0.781368080
Si       0.250000000   0.201495236   0.893739965
Si       0.750000000   0.798504764   0.106260035
Si       0.250000000   0.701495236   0.606260035
Si       0.750000000   0.298504764   0.393739965

     Writing output data file Prototype-La-oP12-Co2Si.save
     NEW-OLD atomic charge density approx. for the potential
     NEW k-points:
        k(    1) = (   0.0000000   0.0000000   0.0000000), wk =   0.0833333
        k(    2) = (   0.0000000   0.0000000   0.1220697), wk =   0.1666667
        k(    3) = (   0.0000000   0.0000000  -0.2441394), wk =   0.0833333
        k(    4) = (   0.0000000   0.2357603   0.0000000), wk =   0.1666667
        k(    5) = (   0.0000000   0.2357603   0.1220697), wk =   0.3333333
        k(    6) = (   0.0000000   0.2357603  -0.2441394), wk =   0.1666667
        k(    7) = (  -0.4607715   0.0000000   0.0000000), wk =   0.0833333
        k(    8) = (  -0.4607715   0.0000000   0.1220697), wk =   0.1666667
        k(    9) = (  -0.4607715   0.0000000  -0.2441394), wk =   0.0833333
        k(   10) = (  -0.4607715   0.2357603   0.0000000), wk =   0.1666667
        k(   11) = (  -0.4607715   0.2357603   0.1220697), wk =   0.3333333
        k(   12) = (  -0.4607715   0.2357603  -0.2441394), wk =   0.1666667

[...]

     enthalpy old            =   -2875.7856319981 Ry
     enthalpy new            =   -2882.5882112160 Ry

     CASE: enthalpy_new < enthalpy_old

     small trust_radius: resetting bfgs history

     new trust radius        =       2.7148627124 bohr
     new conv_thr            =       0.0001000000 Ry

[...]

          total   stress  (Ry/bohr**3)                   (kbar)     P=-2081.03
  -0.01537126   0.00000000   0.00000000      -2261.19      0.00      0.00
   0.00000000  -0.01307618   0.00000000          0.00  -1923.57      0.00
   0.00000000   0.00000000  -0.01399230          0.00      0.00  -2058.34

     number of scf cycles    =   3
     number of bfgs steps    =   2

     enthalpy old            =   -2882.5882112160 Ry
     enthalpy new            =   -2867.8747826699 Ry

     CASE: enthalpy_new > enthalpy_old

     new trust radius        =       0.8866550752 bohr

     trust_radius < trust_radius_min

     resetting bfgs history

     Message from routine bfgs:
     history already reset at previous step: stopping
     new conv_thr            =       0.0001000000 Ry

     new unit-cell volume =   1287.54008 a.u.^3 (   190.79375 Ang^3 )

[...]

ATOMIC_POSITIONS (crystal)
Co       0.750000000   0.825327870   0.435243380
Co       0.250000000   0.174672130   0.564756620
Co       0.750000000   0.325327870   0.064756620
Co       0.250000000   0.674672130   0.935243380
Co       0.250000000   0.539211712   0.280177100
Co       0.750000000   0.460788288   0.719822900
Co       0.250000000   0.039211712   0.219822900
Co       0.750000000   0.960788288   0.780177100
Si       0.250000000   0.200199634   0.893582910
Si       0.750000000   0.799800366   0.106417090
Si       0.250000000   0.700199634   0.606417090
Si       0.750000000   0.299800366   0.393582910

     Writing output data file Prototype-La-oP12-Co2Si.save
     NEW-OLD atomic charge density approx. for the potential
     NEW k-points:
        k(    1) = (   0.0000000   0.0000000   0.0000000), wk =   0.0833333
        k(    2) = (   0.0000000   0.0000000   0.1153070), wk =   0.1666667
        k(    3) = (   0.0000000   0.0000000  -0.2306139), wk =   0.0833333
        k(    4) = (   0.0000000   0.2241457   0.0000000), wk =   0.1666667
        k(    5) = (   0.0000000   0.2241457   0.1153070), wk =   0.3333333
        k(    6) = (   0.0000000   0.2241457  -0.2306139), wk =   0.1666667
        k(    7) = (  -0.4322596   0.0000000   0.0000000), wk =   0.0833333
        k(    8) = (  -0.4322596   0.0000000   0.1153070), wk =   0.1666667
        k(    9) = (  -0.4322596   0.0000000  -0.2306139), wk =   0.0833333
        k(   10) = (  -0.4322596   0.2241457   0.0000000), wk =   0.1666667
        k(   11) = (  -0.4322596   0.2241457   0.1153070), wk =   0.3333333
        k(   12) = (  -0.4322596   0.2241457  -0.2306139), wk =   0.1666667

[...]

     The maximum number of steps has been reached.

     End of BFGS Geometry Optimization
Begin final coordinates
     new unit-cell volume =   1287.54008 a.u.^3 (   190.79375 Ang^3 )

CELL_PARAMETERS (alat=  7.01510508)
   1.156712184   0.000000000   0.000000000
   0.000000000   1.487128204   0.000000000
   0.000000000   0.000000000   2.168125881

ATOMIC_POSITIONS (crystal)
Co       0.750000000   0.825327870   0.435243380
Co       0.250000000   0.174672130   0.564756620
Co       0.750000000   0.325327870   0.064756620
Co       0.250000000   0.674672130   0.935243380
Co       0.250000000   0.539211712   0.280177100
Co       0.750000000   0.460788288   0.719822900
Co       0.250000000   0.039211712   0.219822900
Co       0.750000000   0.960788288   0.780177100
Si       0.250000000   0.200199634   0.893582910
Si       0.750000000   0.799800366   0.106417090
Si       0.250000000   0.700199634   0.606417090
Si       0.750000000   0.299800366   0.393582910
End final coordinates

     A final scf calculation at the relaxed structure.
     The G-vectors are recalculated for the final unit cell
     Results may differ from those at the preceding step.

     bravais-lattice index     =            0
     lattice parameter (alat)  =       7.0151  a.u.
     unit-cell volume          =    1287.5401 (a.u.)^3
     number of atoms/cell      =           12
     number of atomic types    =            2
     number of electrons       =       232.00
     number of Kohn-Sham states=          139
     kinetic-energy cutoff     =      40.0000  Ry
     charge density cutoff     =     160.0000  Ry
     convergence threshold     =      1.0E-04
     mixing beta               =       0.7000
     number of iterations used =            8  plain     mixing
     Exchange-correlation      = SLA-PZ-NOGX-NOGC ( 1 1 0 0 0)
     EXX-fraction              =        0.00

     celldm(1)=   7.015105  celldm(2)=   0.000000  celldm(3)=   0.000000
     celldm(4)=   0.000000  celldm(5)=   0.000000  celldm(6)=   0.000000

     crystal axes: (cart. coord. in units of alat)
               a(1) = (   1.156712   0.000000   0.000000 )
               a(2) = (   0.000000   1.487128   0.000000 )
               a(3) = (   0.000000   0.000000   2.168126 )

     reciprocal axes: (cart. coord. in units 2 pi/alat)
               b(1) = (  0.864519  0.000000  0.000000 )
               b(2) = (  0.000000  0.672437  0.000000 )
               b(3) = (  0.000000  0.000000  0.461228 )

     PseudoPot. # 1 for Dy read from file:
     /home/cwx6513/pp.La/Dy.UPF
     MD5 check sum: 9597327bec62616a94a14d07f3fd9936
     Pseudo is Norm-conserving, Zval = 20.0
     Generated in analytical, separable form
     Using radial grid of 1265 points,  6 beta functions with:
                l(1) =   0
                l(2) =   0
                l(3) =   1
                l(4) =   1
                l(5) =   2
                l(6) =   3

     PseudoPot. # 2 for Gd read from file:
     /home/cwx6513/pp.La/Gd.UPF
     MD5 check sum: 09a8be538722f05520810cb6aac0efd2
     Pseudo is Norm-conserving, Zval = 18.0
     Generated in analytical, separable form
     Using radial grid of 1263 points,  6 beta functions with:
                l(1) =   0
                l(2) =   0
                l(3) =   1
                l(4) =   1
                l(5) =   2
                l(6) =   3

     atomic species   valence    mass     pseudopotential
        Co            20.00    58.93320     Dy( 1.00)
        Si            18.00    28.08550     Gd( 1.00)

      8 Sym. Ops., with inversion, found ( 6 have fractional translation)

   Cartesian axes

     site n.     atom                  positions (alat units)
         1           Co  tau(   1) = (   0.8675341   1.2273684   0.9436624  )
         2           Co  tau(   2) = (   0.2891780   0.2597599   1.2244634  )
         3           Co  tau(   3) = (   0.8675341   0.4838043   0.1404005  )
         4           Co  tau(   4) = (   0.2891780   1.0033240   2.0277254  )
         5           Co  tau(   5) = (   0.2891780   0.8018769   0.6074592  )
         6           Co  tau(   6) = (   0.8675341   0.6852513   1.5606667  )
         7           Co  tau(   7) = (   0.2891780   0.0583128   0.4766037  )
         8           Co  tau(   8) = (   0.8675341   1.4288154   1.6915222  )
         9           Si  tau(   9) = (   0.2891780   0.2977225   1.9374002  )
        10           Si  tau(  10) = (   0.8675341   1.1894057   0.2307256  )
        11           Si  tau(  11) = (   0.2891780   1.0412866   1.3147886  )
        12           Si  tau(  12) = (   0.8675341   0.4458416   0.8533373  )

     number of k points=    12  gaussian smearing, width (Ry)=  0.1000
                       cart. coord. in units 2pi/alat
        k(    1) = (   0.0000000   0.0000000   0.0000000), wk =   0.0833333
        k(    2) = (   0.0000000   0.0000000   0.1153070), wk =   0.1666667
        k(    3) = (   0.0000000   0.0000000  -0.2306139), wk =   0.0833333
        k(    4) = (   0.0000000   0.2241457   0.0000000), wk =   0.1666667
        k(    5) = (   0.0000000   0.2241457   0.1153070), wk =   0.3333333
        k(    6) = (   0.0000000   0.2241457  -0.2306139), wk =   0.1666667
        k(    7) = (  -0.4322596   0.0000000   0.0000000), wk =   0.0833333
        k(    8) = (  -0.4322596   0.0000000   0.1153070), wk =   0.1666667
        k(    9) = (  -0.4322596   0.0000000  -0.2306139), wk =   0.0833333
        k(   10) = (  -0.4322596   0.2241457   0.0000000), wk =   0.1666667
        k(   11) = (  -0.4322596   0.2241457   0.1153070), wk =   0.3333333
        k(   12) = (  -0.4322596   0.2241457  -0.2306139), wk =   0.1666667

     Largest allocated arrays     est. size (Mb)     dimensions
     Largest temporary arrays     est. size (Mb)     dimensions

     Initial potential from superposition of free atoms

     Starting from uniform charge
     Starting wfc are    0 randomized atomic wfcs

     Writing output data file Prototype-La-oP12-Co2Si.save

     Self-consistent Calculation

[...]

     iteration #  9     ecut=    40.00 Ry     beta=0.70
     CG style diagonalization
     c_bands:  1 eigenvalues not converged
     ethr =  2.20E-07,  avg # of iterations =  3.8

     total energy              =   -2887.97111789 Ry
     Harris-Foulkes estimate   =   -2887.97117560 Ry
     estimated scf accuracy    <       0.00010729 Ry

     iteration # 10     ecut=    40.00 Ry     beta=0.70
     CG style diagonalization
     ethr =  4.62E-08,  avg # of iterations =  3.5

     End of self-consistent calculation

[...]

          k = 0.0000 0.2241-0.2306 (  5492 PWs)   bands (ev):

[...]

          k =-0.4323 0.2241-0.2306 (  5516 PWs)   bands (ev):

   -50.7461 -50.7461 -50.7247 -50.7247 -50.6487 -50.6487 -50.6432 -50.6432
   -36.1755 -36.1755 -36.1739 -36.1739 -17.9863 -17.9863 -17.8694 -17.8694
   -17.8456 -17.8456 -17.8100 -17.8100 -17.7932 -17.7932 -17.7042 -17.7042
   -17.6390 -17.6390 -17.6223 -17.6223 -17.6081 -17.6081 -17.5868 -17.5868
   -17.5492 -17.5492 -17.5388 -17.5388  -7.4699  -7.4699  -7.4525  -7.4525
    -7.4075  -7.4075  -7.4056  -7.4056  -7.2994  -7.2994  -7.2966  -7.2966
    20.5541  20.5541  21.0955  21.0955  21.1352  21.1352  21.2370  21.2370
    21.4961  21.4961  21.7258  21.7258  21.8184  21.8184  22.0509  22.0509
    22.1475  22.1475  22.3014  22.3014  22.3584  22.3584  22.7866  22.7866
    22.8611  22.8611  23.0977  23.0977  23.1242  23.1242  23.4813  23.4813
    23.6443  23.6443  24.1869  24.1869  24.2553  24.2553  24.6259  24.6259
    25.1784  25.1784  25.2387  25.2387  26.9471  26.9471  27.3005  27.3005
    27.7322  27.7322  27.7987  27.7987  28.3136  28.3136  28.3789  28.3789
    28.7792  28.7792  29.1831  29.1831  29.6799  29.6799  29.7508  29.7508
    31.4059  31.4059  31.6114  31.6114  32.7324  32.7324  35.6621  35.6621
    36.8599  36.8600  37.6321  37.6321  39.0037  39.0037  39.3984  39.3984
    40.2488  40.2489  41.4397  41.4397  41.9942  41.9944  42.2859  42.2861
    42.4008  42.4011  42.5246

     the Fermi energy is    33.3960 ev

!    total energy              =   -2887.97113391 Ry
     Harris-Foulkes estimate   =   -2887.97114258 Ry
     estimated scf accuracy    <       0.00000958 Ry

     The total energy is the sum of the following terms:

     one-electron contribution =    -227.76133353 Ry
     hartree contribution      =     341.76661984 Ry
     xc contribution           =    -276.50228524 Ry
     ewald contribution        =   -2725.31500618 Ry
     smearing contrib. (-TS)   =      -0.15912880 Ry

     convergence has been achieved in  10 iterations

     Forces acting on atoms (Ry/au):

     atom    1 type  1   force =     0.00000000   -0.02765936   -0.00139814
     atom    2 type  1   force =     0.00000000    0.02765936    0.00139814
     atom    3 type  1   force =     0.00000000   -0.02765936    0.00139814
     atom    4 type  1   force =     0.00000000    0.02765936   -0.00139814
     atom    5 type  1   force =     0.00000000    0.05299762   -0.07745444
     atom    6 type  1   force =     0.00000000   -0.05299762    0.07745444
     atom    7 type  1   force =     0.00000000    0.05299762    0.07745444
     atom    8 type  1   force =     0.00000000   -0.05299762   -0.07745444
     atom    9 type  2   force =     0.00000000   -0.06263513    0.00470928
     atom   10 type  2   force =     0.00000000    0.06263513   -0.00470928
     atom   11 type  2   force =     0.00000000   -0.06263513   -0.00470928
     atom   12 type  2   force =     0.00000000    0.06263513    0.00470928

     Total force =     0.232553     Total SCF correction =     0.000000

     entering subroutine stress ...

          total   stress  (Ry/bohr**3)                   (kbar)     P=  982.28
   0.00711828   0.00000000   0.00000000       1047.13      0.00      0.00
   0.00000000   0.00619102   0.00000000          0.00    910.73      0.00
   0.00000000   0.00000000   0.00672286          0.00      0.00    988.97

     Writing output data file Prototype-La-oP12-Co2Si.save

     General routines

     Parallel routines

   This run was terminated on:   2:35:58  23Mar2018

   JOB DONE.