     Program PWSCF v.5.0.2 starts on 23Mar2018 at  1: 3:50

     Current dimensions of program PWSCF are:
     Max number of different atomic species (ntypx) = 10
     Max number of k-points (npk) =  40000
     Max angular momentum in pseudopotentials (lmaxx) =  3
     Waiting for input...
     Reading input from standard input

     Subspace diagonalization in iterative solution of the eigenvalue problem:
     a serial algorithm will be used

     bravais-lattice index     =            0
     lattice parameter (alat)  =       7.0151  a.u.
     unit-cell volume          =     862.2778 (a.u.)^3
     number of atoms/cell      =           12
     number of atomic types    =            2
     number of electrons       =       264.00
     number of Kohn-Sham states=          158
     kinetic-energy cutoff     =      40.0000  Ry
     charge density cutoff     =     160.0000  Ry
     convergence threshold     =      1.0E-04
     mixing beta               =       0.7000
     number of iterations used =            8  plain     mixing
     Exchange-correlation      = SLA-PZ-NOGX-NOGC ( 1 1 0 0 0)
     EXX-fraction              =        0.00
     nstep                     =           50

     celldm(1)=   7.015105  celldm(2)=   0.000000  celldm(3)=   0.000000
     celldm(4)=   0.000000  celldm(5)=   0.000000  celldm(6)=   0.000000

     crystal axes: (cart. coord. in units of alat)
               a(1) = (   1.000000   0.000000   0.000000 )
               a(2) = (   0.000000   1.315963   0.000000 )
               a(3) = (   0.000000   0.000000   1.898020 )

     reciprocal axes: (cart. coord. in units 2 pi/alat)
               b(1) = (  1.000000  0.000000  0.000000 )
               b(2) = (  0.000000  0.759900  0.000000 )
               b(3) = (  0.000000  0.000000  0.526865 )

     PseudoPot. # 1 for Ho read from file:
     /home/cwx6513/pp.La/Ho.UPF
     MD5 check sum: f307ee11bce99f5b724fa279e3790763
     Pseudo is Norm-conserving, Zval = 21.0
     Generated in analytical, separable form
     Using radial grid of 1265 points,  6 beta functions with:
                l(1) =   0
                l(2) =   0
                l(3) =   1
                l(4) =   1
                l(5) =   2
                l(6) =   3

     PseudoPot. # 2 for Yb read from file:
     /home/cwx6513/pp.La/Yb.UPF
     MD5 check sum: 3e859b81cc28c53ec6aa3a2e888efcdf
     Pseudo is Norm-conserving, Zval = 24.0
     Generated in analytical, separable form
     Using radial grid of 1269 points,  6 beta functions with:
                l(1) =   0
                l(2) =   0
                l(3) =   1
                l(4) =   1
                l(5) =   2
                l(6) =   3

     atomic species   valence    mass     pseudopotential
        Co            21.00    58.93320     Ho( 1.00)
        Si            24.00    28.08550     Yb( 1.00)

      8 Sym. Ops., with inversion, found ( 6 have fractional translation)

   Cartesian axes

     site n.     atom                  positions (alat units)
         1           Co  tau(   1) = (   0.7500000   1.0875135   0.8270358  )
         2           Co  tau(   2) = (   0.2500000   0.2284499   1.0709846  )
         3           Co  tau(   3) = (   0.7500000   0.4295318   0.1219744  )
         4           Co  tau(   4) = (   0.2500000   0.8864316   1.7760460  )
         5           Co  tau(   5) = (   0.2500000   0.7067855   0.5358966  )
         6           Co  tau(   6) = (   0.7500000   0.6091779   1.3621238  )
         7           Co  tau(   7) = (   0.2500000   0.0488038   0.4131136  )
         8           Co  tau(   8) = (   0.7500000   1.2671596   1.4849068  )
         9           Si  tau(   9) = (   0.2500000   0.2669484   1.6960710  )
        10           Si  tau(  10) = (   0.7500000   1.0490149   0.2019494  )
        11           Si  tau(  11) = (   0.2500000   0.9249301   1.1509596  )
        12           Si  tau(  12) = (   0.7500000   0.3910333   0.7470608  )

     number of k points=    12  gaussian smearing, width (Ry)=  0.1000
                       cart. coord. in units 2pi/alat
        k(    1) = (   0.0000000   0.0000000   0.0000000), wk =   0.0833333
        k(    2) = (   0.0000000   0.0000000   0.1317162), wk =   0.1666667
        k(    3) = (   0.0000000   0.0000000  -0.2634324), wk =   0.0833333
        k(    4) = (   0.0000000   0.2532999   0.0000000), wk =   0.1666667
        k(    5) = (   0.0000000   0.2532999   0.1317162), wk =   0.3333333
        k(    6) = (   0.0000000   0.2532999  -0.2634324), wk =   0.1666667
        k(    7) = (  -0.5000000   0.0000000   0.0000000), wk =   0.0833333
        k(    8) = (  -0.5000000   0.0000000   0.1317162), wk =   0.1666667
        k(    9) = (  -0.5000000   0.0000000  -0.2634324), wk =   0.0833333
        k(   10) = (  -0.5000000   0.2532999   0.0000000), wk =   0.1666667
        k(   11) = (  -0.5000000   0.2532999   0.1317162), wk =   0.3333333
        k(   12) = (  -0.5000000   0.2532999  -0.2634324), wk =   0.1666667

     Largest allocated arrays     est. size (Mb)     dimensions
     Largest temporary arrays     est. size (Mb)     dimensions

     Initial potential from superposition of free atoms

     Starting from uniform charge
     Starting wfc are    0 randomized atomic wfcs

     Self-consistent Calculation

     iteration #  1     ecut=    40.00 Ry     beta=0.70
     CG style diagonalization
     c_bands:  2 eigenvalues not converged
     c_bands:  1 eigenvalues not converged
     c_bands:  1 eigenvalues not converged
     c_bands:  2 eigenvalues not converged
     c_bands:  1 eigenvalues not converged
     c_bands:  1 eigenvalues not converged
     c_bands:  1 eigenvalues not converged
     c_bands:  2 eigenvalues not converged
     c_bands:  3 eigenvalues not converged
     c_bands:  3 eigenvalues not converged
     c_bands:  2 eigenvalues not converged
     ethr =  1.00E-02,  avg # of iterations = 12.2

     total energy              =   -3395.98871160 Ry
     Harris-Foulkes estimate   =   -4582.42607886 Ry
     estimated scf accuracy    <    1482.31732026 Ry

[...]

     iteration #  3     ecut=    40.00 Ry     beta=0.70
     CG style diagonalization
     ethr =  1.00E-02,  avg # of iterations =  9.7

[...]

     End of self-consistent calculation

          k = 0.0000 0.0000 0.0000 (  3675 PWs)   bands (ev):

   -69.6970 -69.6670 -69.6620 -69.6331 -39.2995 -39.2480 -39.2109 -39.1992
   -38.9632 -38.8981 -38.7887 -38.7883 -28.8892 -28.8858 -28.8730 -28.8582
   -28.8580 -28.8573 -28.8367 -28.8320 -28.5790 -28.5739 -28.5598 -28.5382
    -4.6233  -4.3964  -4.3730  -4.2865  -4.2012  -4.1566  -4.1487  -4.1088
    -3.9966  -3.9330  -3.7703  -3.7175  -3.6498  -3.5858  -3.4965  -3.4676
    -3.4198  -3.3279  -3.2983  -3.2434  -3.1792  -3.0557  -2.8400  -2.7746
    26.4851  26.5122  26.7272  26.7401  26.8676  26.9554  26.9793  27.0030
    27.0079  27.0091  27.0262  27.2122  27.2246  27.3003  27.5904  27.7330
    28.0854  28.1015  28.2803  28.3331  31.8469  32.9186  34.4650  34.5190
    34.7008  35.1070  35.5667  36.0202  36.2732  36.3139  36.3952  36.4303
    36.5266  36.5466  37.2790  37.3544  37.5063  37.7015  37.7505  37.9785
    38.4578  38.9186  39.0638  39.1696  39.5102  39.5250  40.1609  40.5618
    40.5988  40.7356  40.7405  40.9224  41.2813  41.3752  41.9311  42.1283
    42.2976  42.3149  42.3292  42.4303  42.7358  43.2928  43.6941  45.8786
    46.1859  46.3840  47.3577  47.5306  50.3651  50.6839  52.3470  52.9767
    53.1371  53.8515  54.8196  55.3987  55.4269  56.3143  56.3446  56.4548
    56.5970  56.6560  57.1584  57.5150  57.5298  57.6380  57.6968  57.9905
    58.1757  58.3059  58.5509  58.7860  58.9679  59.2246  59.4286  59.5684
    59.6950  60.2514  60.4840  60.9928  61.0520  61.6690  61.7685  62.0614
    62.2634  62.7192  63.0257  63.1034  63.4149  63.4493

[...]

          k =-0.5000 0.0000 0.0000 (  3722 PWs)   bands (ev):

[...]

     the Fermi energy is    57.5016 ev

!    total energy              =   -3964.85782532 Ry
     Harris-Foulkes estimate   =   -3964.85782993 Ry
     estimated scf accuracy    <       0.00000616 Ry

     The total energy is the sum of the following terms:

     one-electron contribution =      39.28391564 Ry
     hartree contribution      =     379.64470313 Ry
     xc contribution           =    -352.46125548 Ry
     ewald contribution        =   -4030.81857801 Ry
     smearing contrib. (-TS)   =      -0.50661061 Ry

     convergence has been achieved in  10 iterations

     Forces acting on atoms (Ry/au):

     atom    1 type  1   force =     0.00000000   -0.01847003   -0.07141965
     atom    2 type  1   force =     0.00000000    0.01847003    0.07141965
     atom    3 type  1   force =     0.00000000   -0.01847003    0.07141965
     atom    4 type  1   force =     0.00000000    0.01847003   -0.07141965
     atom    5 type  1   force =     0.00000000    0.13292533   -0.29928769
     atom    6 type  1   force =     0.00000000   -0.13292533    0.29928769
     atom    7 type  1   force =     0.00000000    0.13292533    0.29928769
     atom    8 type  1   force =     0.00000000   -0.13292533   -0.29928769
     atom    9 type  2   force =     0.00000000   -0.22692725    0.02694394
     atom   10 type  2   force =     0.00000000    0.22692725   -0.02694394
     atom   11 type  2   force =     0.00000000   -0.22692725   -0.02694394
     atom   12 type  2   force =     0.00000000    0.22692725    0.02694394

     Total force =     0.812173     Total SCF correction =     0.000000

     entering subroutine stress ...

          total   stress  (Ry/bohr**3)                   (kbar)     P= 7842.43
   0.05783093   0.00000000   0.00000000       8507.22      0.00      0.00
   0.00000000   0.04962204   0.00000000          0.00   7299.65      0.00
   0.00000000   0.00000000   0.05248232          0.00      0.00   7720.41

     BFGS Geometry Optimization

     number of scf cycles    =   1
     number of bfgs steps    =   0

     enthalpy new            =   -3964.8578253242 Ry

     new trust radius        =       0.5000000000 bohr
     new conv_thr            =       0.0001000000 Ry

     new unit-cell volume =   1081.61798 a.u.^3 (   160.27925 Ang^3 )

CELL_PARAMETERS (alat=  7.01510508)
   1.085136619   0.000000000   0.000000000
   0.000000000   1.412096850   0.000000000
   0.000000000   0.000000000   2.044666366

ATOMIC_POSITIONS (crystal)
Co       0.750000000   0.826283184   0.435420137
Co       0.250000000   0.173716816   0.564579863
Co       0.750000000   0.326283184   0.064579863
Co       0.250000000   0.673716816   0.935420137
Co       0.250000000   0.537933903   0.281021360
Co       0.750000000   0.462066097   0.718978640
Co       0.250000000   0.037933903   0.218978640
Co       0.750000000   0.962066097   0.781021360
Si       0.250000000   0.201406479   0.893719163
Si       0.750000000   0.798593521   0.106280837
Si       0.250000000   0.701406479   0.606280837
Si       0.750000000   0.298593521   0.393719163

     Writing output data file Prototype-La-oP12-Co2Si.save
     NEW-OLD atomic charge density approx. for the potential
     NEW k-points:
        k(    1) = (   0.0000000   0.0000000   0.0000000), wk =   0.0833333
        k(    2) = (   0.0000000   0.0000000   0.1222693), wk =   0.1666667
        k(    3) = (   0.0000000   0.0000000  -0.2445387), wk =   0.0833333
        k(    4) = (   0.0000000   0.2360556   0.0000000), wk =   0.1666667
        k(    5) = (   0.0000000   0.2360556   0.1222693), wk =   0.3333333
        k(    6) = (   0.0000000   0.2360556  -0.2445387), wk =   0.1666667
        k(    7) = (  -0.4607715   0.0000000   0.0000000), wk =   0.0833333
        k(    8) = (  -0.4607715   0.0000000   0.1222693), wk =   0.1666667
        k(    9) = (  -0.4607715   0.0000000  -0.2445387), wk =   0.0833333
        k(   10) = (  -0.4607715   0.2360556   0.0000000), wk =   0.1666667
        k(   11) = (  -0.4607715   0.2360556   0.1222693), wk =   0.3333333
        k(   12) = (  -0.4607715   0.2360556  -0.2445387), wk =   0.1666667

[...]

     enthalpy old            =   -3964.8578253242 Ry
     enthalpy new            =   -3972.6328539451 Ry

     CASE: enthalpy_new < enthalpy_old

     small trust_radius: resetting bfgs history

     new trust radius        =       3.7005419356 bohr
     new conv_thr            =       0.0001000000 Ry

[...]

          total   stress  (Ry/bohr**3)                   (kbar)     P=-5550.93
  -0.04273286   0.00000000   0.00000000      -6286.22      0.00      0.00
   0.00000000  -0.03396944   0.00000000          0.00  -4997.08      0.00
   0.00000000   0.00000000  -0.03650112          0.00      0.00  -5369.50

     number of scf cycles    =   3
     number of bfgs steps    =   2

     enthalpy old            =   -3972.6328539452 Ry
     enthalpy new            =   -3915.2840383779 Ry

     CASE: enthalpy_new > enthalpy_old

     new trust radius        =       0.8046368533 bohr

     trust_radius < trust_radius_min

     resetting bfgs history

     Message from routine bfgs:
     history already reset at previous step: stopping
     new conv_thr            =       0.0001000000 Ry

     new unit-cell volume =   1265.77934 a.u.^3 (   187.56914 Ang^3 )

[...]

ATOMIC_POSITIONS (crystal)
Co       0.750000000   0.826147604   0.435394499
Co       0.250000000   0.173852396   0.564605501
Co       0.750000000   0.326147604   0.064605501
Co       0.250000000   0.673852396   0.935394499
Co       0.250000000   0.538470240   0.280181877
Co       0.750000000   0.461529760   0.719818123
Co       0.250000000   0.038470240   0.219818123
Co       0.750000000   0.961529760   0.780181877
Si       0.250000000   0.200503009   0.893979553
Si       0.750000000   0.799496991   0.106020447
Si       0.250000000   0.700503009   0.606020447
Si       0.750000000   0.299496991   0.393979553

     Writing output data file Prototype-La-oP12-Co2Si.save
     NEW-OLD atomic charge density approx. for the potential
     NEW k-points:
        k(    1) = (   0.0000000   0.0000000   0.0000000), wk =   0.0833333
        k(    2) = (   0.0000000   0.0000000   0.1162991), wk =   0.1666667
        k(    3) = (   0.0000000   0.0000000  -0.2325982), wk =   0.0833333
        k(    4) = (   0.0000000   0.2257263   0.0000000), wk =   0.1666667
        k(    5) = (   0.0000000   0.2257263   0.1162991), wk =   0.3333333
        k(    6) = (   0.0000000   0.2257263  -0.2325982), wk =   0.1666667
        k(    7) = (  -0.4328873   0.0000000   0.0000000), wk =   0.0833333
        k(    8) = (  -0.4328873   0.0000000   0.1162991), wk =   0.1666667
        k(    9) = (  -0.4328873   0.0000000  -0.2325982), wk =   0.0833333
        k(   10) = (  -0.4328873   0.2257263   0.0000000), wk =   0.1666667
        k(   11) = (  -0.4328873   0.2257263   0.1162991), wk =   0.3333333
        k(   12) = (  -0.4328873   0.2257263  -0.2325982), wk =   0.1666667

[...]

     The maximum number of steps has been reached.

     End of BFGS Geometry Optimization
Begin final coordinates
     new unit-cell volume =   1265.77934 a.u.^3 (   187.56914 Ang^3 )

CELL_PARAMETERS (alat=  7.01510508)
   1.155035029   0.000000000   0.000000000
   0.000000000   1.476714807   0.000000000
   0.000000000   0.000000000   2.149629803

ATOMIC_POSITIONS (crystal)
Co       0.750000000   0.826147604   0.435394499
Co       0.250000000   0.173852396   0.564605501
Co       0.750000000   0.326147604   0.064605501
Co       0.250000000   0.673852396   0.935394499
Co       0.250000000   0.538470240   0.280181877
Co       0.750000000   0.461529760   0.719818123
Co       0.250000000   0.038470240   0.219818123
Co       0.750000000   0.961529760   0.780181877
Si       0.250000000   0.200503009   0.893979553
Si       0.750000000   0.799496991   0.106020447
Si       0.250000000   0.700503009   0.606020447
Si       0.750000000   0.299496991   0.393979553
End final coordinates

     A final scf calculation at the relaxed structure.
     The G-vectors are recalculated for the final unit cell
     Results may differ from those at the preceding step.

     bravais-lattice index     =            0
     lattice parameter (alat)  =       7.0151  a.u.
     unit-cell volume          =    1265.7793 (a.u.)^3
     number of atoms/cell      =           12
     number of atomic types    =            2
     number of electrons       =       264.00
     number of Kohn-Sham states=          158
     kinetic-energy cutoff     =      40.0000  Ry
     charge density cutoff     =     160.0000  Ry
     convergence threshold     =      1.0E-04
     mixing beta               =       0.7000
     number of iterations used =            8  plain     mixing
     Exchange-correlation      = SLA-PZ-NOGX-NOGC ( 1 1 0 0 0)
     EXX-fraction              =        0.00

     celldm(1)=   7.015105  celldm(2)=   0.000000  celldm(3)=   0.000000
     celldm(4)=   0.000000  celldm(5)=   0.000000  celldm(6)=   0.000000

     crystal axes: (cart. coord. in units of alat)
               a(1) = (   1.155035   0.000000   0.000000 )
               a(2) = (   0.000000   1.476715   0.000000 )
               a(3) = (   0.000000   0.000000   2.149630 )

     reciprocal axes: (cart. coord. in units 2 pi/alat)
               b(1) = (  0.865775  0.000000  0.000000 )
               b(2) = (  0.000000  0.677179  0.000000 )
               b(3) = (  0.000000  0.000000  0.465196 )

     PseudoPot. # 1 for Ho read from file:
     /home/cwx6513/pp.La/Ho.UPF
     MD5 check sum: f307ee11bce99f5b724fa279e3790763
     Pseudo is Norm-conserving, Zval = 21.0
     Generated in analytical, separable form
     Using radial grid of 1265 points,  6 beta functions with:
                l(1) =   0
                l(2) =   0
                l(3) =   1
                l(4) =   1
                l(5) =   2
                l(6) =   3

     PseudoPot. # 2 for Yb read from file:
     /home/cwx6513/pp.La/Yb.UPF
     MD5 check sum: 3e859b81cc28c53ec6aa3a2e888efcdf
     Pseudo is Norm-conserving, Zval = 24.0
     Generated in analytical, separable form
     Using radial grid of 1269 points,  6 beta functions with:
                l(1) =   0
                l(2) =   0
                l(3) =   1
                l(4) =   1
                l(5) =   2
                l(6) =   3

     atomic species   valence    mass     pseudopotential
        Co            21.00    58.93320     Ho( 1.00)
        Si            24.00    28.08550     Yb( 1.00)

      8 Sym. Ops., with inversion, found ( 6 have fractional translation)

   Cartesian axes

     site n.     atom                  positions (alat units)
         1           Co  tau(   1) = (   0.8662763   1.2199844   0.9359370  )
         2           Co  tau(   2) = (   0.2887588   0.2567304   1.2136928  )
         3           Co  tau(   3) = (   0.8662763   0.4816270   0.1388779  )
         4           Co  tau(   4) = (   0.2887588   0.9950878   2.0107519  )
         5           Co  tau(   5) = (   0.2887588   0.7951670   0.6022873  )
         6           Co  tau(   6) = (   0.8662763   0.6815478   1.5473425  )
         7           Co  tau(   7) = (   0.2887588   0.0568096   0.4725276  )
         8           Co  tau(   8) = (   0.8662763   1.4199052   1.6771022  )
         9           Si  tau(   9) = (   0.2887588   0.2960858   1.9217251  )
        10           Si  tau(  10) = (   0.8662763   1.1806290   0.2279047  )
        11           Si  tau(  11) = (   0.2887588   1.0344432   1.3027196  )
        12           Si  tau(  12) = (   0.8662763   0.4422716   0.8469102  )

     number of k points=    12  gaussian smearing, width (Ry)=  0.1000
                       cart. coord. in units 2pi/alat
        k(    1) = (   0.0000000   0.0000000   0.0000000), wk =   0.0833333
        k(    2) = (   0.0000000   0.0000000   0.1162991), wk =   0.1666667
        k(    3) = (   0.0000000   0.0000000  -0.2325982), wk =   0.0833333
        k(    4) = (   0.0000000   0.2257263   0.0000000), wk =   0.1666667
        k(    5) = (   0.0000000   0.2257263   0.1162991), wk =   0.3333333
        k(    6) = (   0.0000000   0.2257263  -0.2325982), wk =   0.1666667
        k(    7) = (  -0.4328873   0.0000000   0.0000000), wk =   0.0833333
        k(    8) = (  -0.4328873   0.0000000   0.1162991), wk =   0.1666667
        k(    9) = (  -0.4328873   0.0000000  -0.2325982), wk =   0.0833333
        k(   10) = (  -0.4328873   0.2257263   0.0000000), wk =   0.1666667
        k(   11) = (  -0.4328873   0.2257263   0.1162991), wk =   0.3333333
        k(   12) = (  -0.4328873   0.2257263  -0.2325982), wk =   0.1666667

     Largest allocated arrays     est. size (Mb)     dimensions
     Largest temporary arrays     est. size (Mb)     dimensions

     Initial potential from superposition of free atoms

     Starting from uniform charge
     Starting wfc are    0 randomized atomic wfcs

     Writing output data file Prototype-La-oP12-Co2Si.save

     Self-consistent Calculation

[...]

     iteration #  9     ecut=    40.00 Ry     beta=0.70
     CG style diagonalization
     c_bands:  1 eigenvalues not converged
     ethr =  2.23E-06,  avg # of iterations =  4.2

     total energy              =   -3980.78016064 Ry
     Harris-Foulkes estimate   =   -3980.78055252 Ry
     estimated scf accuracy    <       0.00072286 Ry

     iteration # 10     ecut=    40.00 Ry     beta=0.70
     CG style diagonalization
     ethr =  2.74E-07,  avg # of iterations =  3.8

     End of self-consistent calculation

[...]

          k = 0.0000 0.2257-0.2326 (  5422 PWs)   bands (ev):

[...]

          k =-0.4329 0.2257-0.2326 (  5428 PWs)   bands (ev):

   -87.1179 -87.1179 -87.1115 -87.1115 -55.2952 -55.2952 -55.2899 -55.2899
   -55.0626 -55.0626 -55.0498 -55.0498 -46.0158 -46.0158 -46.0145 -46.0145
   -46.0099 -46.0099 -46.0084 -46.0084 -45.9160 -45.9160 -45.9123 -45.9123
   -19.7057 -19.7057 -19.6790 -19.6790 -19.6700 -19.6700 -19.6595 -19.6595
   -19.5767 -19.5767 -19.5588 -19.5589 -19.4570 -19.4570 -19.3675 -19.3675
   -19.3540 -19.3540 -19.3277 -19.3277 -19.2931 -19.2931 -19.2367 -19.2367
    11.2765  11.2765  11.2915  11.2915  11.4056  11.4056  11.4146  11.4146
    11.4638  11.4638  11.4855  11.4855  11.5577  11.5577  11.5604  11.5604
    11.7064  11.7064  11.7587  11.7587  20.1453  20.1453  20.5255  20.5255
    22.0261  22.0261  22.2379  22.2379  22.3060  22.3060  22.5150  22.5150
    22.5736  22.5736  22.9366  22.9366  23.0026  23.0026  23.1429  23.1429
    23.3127  23.3127  23.6282  23.6282  23.8372  23.8372  24.0597  24.0597
    24.0805  24.0805  24.3281  24.3281  24.4908  24.4908  24.9105  24.9105
    25.0805  25.0805  25.5370  25.5370  25.7552  25.7552  25.9858  25.9858
    27.8600  27.8600  27.9205  27.9205  30.1605  30.1605  32.4229  32.4229
    33.6469  33.6469  33.8639  33.8639  35.7082  35.7082  36.4866  36.4866
    39.0835  39.0835  40.1677  40.1677  40.8523  40.8523  40.9927  40.9927
    41.2132  41.2132  41.5659  41.5659  41.6668  41.6668  42.3253  42.3253
    42.5907  42.5908  43.1555  43.1555  43.1818  43.1819  43.6835  43.6837
    43.8879  43.8879  44.3897  44.3898  44.4979  44.4980

     the Fermi energy is    38.9293 ev

!    total energy              =   -3980.78035039 Ry
     Harris-Foulkes estimate   =   -3980.78037037 Ry
     estimated scf accuracy    <       0.00002555 Ry

     The total energy is the sum of the following terms:

     one-electron contribution =    -648.49140041 Ry
     hartree contribution      =     557.52762718 Ry
     xc contribution           =    -341.09808566 Ry
     ewald contribution        =   -3548.41148149 Ry
     smearing contrib. (-TS)   =      -0.30701001 Ry

     convergence has been achieved in  10 iterations

     Forces acting on atoms (Ry/au):

     atom    1 type  1   force =     0.00000000   -0.04456042    0.00503805
     atom    2 type  1   force =     0.00000000    0.04456042   -0.00503805
     atom    3 type  1   force =     0.00000000   -0.04456042   -0.00503805
     atom    4 type  1   force =     0.00000000    0.04456042    0.00503805
     atom    5 type  1   force =     0.00000000    0.04269394   -0.10801135
     atom    6 type  1   force =     0.00000000   -0.04269394    0.10801135
     atom    7 type  1   force =     0.00000000    0.04269394    0.10801135
     atom    8 type  1   force =     0.00000000   -0.04269394   -0.10801135
     atom    9 type  2   force =     0.00000000   -0.10089998    0.03782946
     atom   10 type  2   force =     0.00000000    0.10089998   -0.03782946
     atom   11 type  2   force =     0.00000000   -0.10089998   -0.03782946
     atom   12 type  2   force =     0.00000000    0.10089998    0.03782946

     Total force =     0.329315     Total SCF correction =     0.000000

     entering subroutine stress ...

          total   stress  (Ry/bohr**3)                   (kbar)     P= 1779.93
   0.01333028   0.00000000   0.00000000       1960.95      0.00      0.00
   0.00000000   0.01110680   0.00000000          0.00   1633.87      0.00
   0.00000000   0.00000000   0.01186213          0.00      0.00   1744.98

     Writing output data file Prototype-La-oP12-Co2Si.save

     General routines

     Parallel routines

   This run was terminated on:   1:30:19  23Mar2018

   JOB DONE.