     Program PWSCF v.5.0.2 starts on 22Mar2018 at 21:11:57

     Current dimensions of program PWSCF are:
     Max number of different atomic species (ntypx) = 10
     Max number of k-points (npk) =  40000
     Max angular momentum in pseudopotentials (lmaxx) =  3
     Waiting for input...
     Reading input from standard input

     Subspace diagonalization in iterative solution of the eigenvalue problem:
     a serial algorithm will be used

     bravais-lattice index     =            0
     lattice parameter (alat)  =       9.9235  a.u.
     unit-cell volume          =    1361.0366 (a.u.)^3
     number of atoms/cell      =           12
     number of atomic types    =            2
     number of electrons       =       228.00
     number of Kohn-Sham states=          137
     kinetic-energy cutoff     =      40.0000  Ry
     charge density cutoff     =     160.0000  Ry
     convergence threshold     =      1.0E-04
     mixing beta               =       0.7000
     number of iterations used =            8  plain     mixing
     Exchange-correlation      = SLA-PZ-NOGX-NOGC ( 1 1 0 0 0)
     EXX-fraction              =        0.00
     nstep                     =           50

     celldm(1)=   9.923489  celldm(2)=   0.000000  celldm(3)=   0.000000
     celldm(4)=   0.000000  celldm(5)=   0.000000  celldm(6)=   0.000000

     crystal axes: (cart. coord. in units of alat)
               a(1) = (   1.000000   0.000000   0.000000 )
               a(2) = (  -0.500000   0.866025   0.000000 )
               a(3) = (   0.000000   0.000000   1.608222 )

     reciprocal axes: (cart. coord. in units 2 pi/alat)
               b(1) = (  1.000000  0.577350  0.000000 )
               b(2) = (  0.000000  1.154701  0.000000 )
               b(3) = (  0.000000  0.000000  0.621805 )

     PseudoPot. # 1 for Eu read from file:
     /home/cwx6513/pp.La/Eu.UPF
     MD5 check sum: 5efdbbfc50c6a10138933a6429836ad2
     Pseudo is Norm-conserving, Zval = 17.0
     Generated in analytical, separable form
     Using radial grid of 1261 points,  6 beta functions with:
                l(1) =   0
                l(2) =   0
                l(3) =   1
                l(4) =   1
                l(5) =   2
                l(6) =   3

     PseudoPot. # 2 for Dy read from file:
     /home/cwx6513/pp.La/Dy.UPF
     MD5 check sum: 9597327bec62616a94a14d07f3fd9936
     Pseudo is Norm-conserving, Zval = 20.0
     Generated in analytical, separable form
     Using radial grid of 1265 points,  6 beta functions with:
                l(1) =   0
                l(2) =   0
                l(3) =   1
                l(4) =   1
                l(5) =   2
                l(6) =   3

     atomic species   valence    mass     pseudopotential
        Mg            17.00    24.30500     Eu( 1.00)
        Zn            20.00    65.39000     Dy( 1.00)

     24 Sym. Ops., with inversion, found (12 have fractional translation)

   Cartesian axes

     site n.     atom                  positions (alat units)
         1           Mg  tau(   1) = (  -0.0000005   0.5773506   0.1003820  )
         2           Mg  tau(   2) = (   0.5000005   0.2886748   0.9044931  )
         3           Mg  tau(   3) = (   0.5000005   0.2886748   1.5078402  )
         4           Mg  tau(   4) = (  -0.0000005   0.5773506   0.7037291  )
         5           Zn  tau(   5) = (   0.0000000   0.0000000   0.0000000  )
         6           Zn  tau(   6) = (   0.0000000   0.0000000   0.8041111  )
         7           Zn  tau(   7) = (   0.0000000   0.2950739   1.2061667  )
         8           Zn  tau(   8) = (   0.7444585   0.1475370   0.4020556  )
         9           Zn  tau(   9) = (   0.2555415   0.1475370   0.4020556  )
        10           Zn  tau(  10) = (   0.2444585   0.7184884   1.2061667  )
        11           Zn  tau(  11) = (  -0.2444585   0.7184884   1.2061667  )
        12           Zn  tau(  12) = (   0.5000000   0.5709515   0.4020556  )

     number of k points=    12  gaussian smearing, width (Ry)=  0.1000
                       cart. coord. in units 2pi/alat
        k(    1) = (   0.0000000   0.0000000   0.0000000), wk =   0.0833333
        k(    2) = (   0.0000000   0.0000000   0.1554512), wk =   0.1666667
        k(    3) = (   0.0000000   0.0000000  -0.3109023), wk =   0.0833333
        k(    4) = (   0.0000000   0.3849002   0.0000000), wk =   0.1666667
        k(    5) = (   0.0000000   0.3849002   0.1554512), wk =   0.3333333
        k(    6) = (   0.0000000   0.3849002  -0.3109023), wk =   0.1666667
        k(    7) = (  -0.5000000  -0.2886751   0.0000000), wk =   0.0833333
        k(    8) = (  -0.5000000  -0.2886751   0.1554512), wk =   0.1666667
        k(    9) = (  -0.5000000  -0.2886751  -0.3109023), wk =   0.0833333
        k(   10) = (  -0.5000000   0.0962250   0.0000000), wk =   0.1666667
        k(   11) = (  -0.5000000   0.0962250   0.1554512), wk =   0.3333333
        k(   12) = (  -0.5000000   0.0962250  -0.3109023), wk =   0.1666667

     Largest allocated arrays     est. size (Mb)     dimensions
     Largest temporary arrays     est. size (Mb)     dimensions

     Initial potential from superposition of free atoms

     Starting from uniform charge
     Starting wfc are    0 randomized atomic wfcs

     Self-consistent Calculation

     iteration #  1     ecut=    40.00 Ry     beta=0.70
     CG style diagonalization
     c_bands:  1 eigenvalues not converged
     ethr =  1.00E-02,  avg # of iterations = 18.0

     total energy              =   -2163.71778237 Ry
     Harris-Foulkes estimate   =   -3451.19856474 Ry
     estimated scf accuracy    <    1579.77453366 Ry

     iteration #  2     ecut=    40.00 Ry     beta=0.70
     CG style diagonalization
     ethr =  1.00E-02,  avg # of iterations = 17.6

[...]

     End of self-consistent calculation

          k = 0.0000 0.0000 0.0000 (  5769 PWs)   bands (ev):

   -53.4508 -53.4130 -53.2922 -53.2495 -53.2494 -53.2438 -53.2437 -53.2264
   -31.8864 -31.8739 -31.8497 -31.8327 -21.7013 -21.4628 -21.0714 -20.7023
   -20.7023 -20.6502 -20.6501 -20.5255 -20.5255 -20.4132 -20.3481 -20.1875
   -20.1874 -20.1539 -20.1539 -19.8988 -19.8988 -19.8833 -19.8393 -19.8393
   -19.8285 -19.8167 -19.8152 -19.8152  -4.8363  -4.8335  -4.8169  -4.8168
    -4.7935  -4.7935  -4.6149  -4.5888  -4.5779  -4.5779  -4.5664  -4.5664
    15.0101  15.7311  16.2130  17.2566  17.2566  17.6004  17.6004  17.8322
    17.9302  17.9302  18.4333  18.4333  18.9594  19.0762  19.3092  19.4242
    19.4243  19.9206  19.9206  20.8079  20.9908  20.9908  21.0308  21.0309
    21.0816  21.9258  22.1933  22.1934  22.2008  22.2009  22.2264  22.2553
    22.2553  22.3266  22.3266  22.3280  23.1471  23.5513  23.5513  24.3003
    24.3003  25.3035  25.3060  25.5618  25.5618  25.6422  25.7640  25.7640
    26.5063  26.5545  26.5546  26.6227  26.9204  26.9205  27.4470  27.4471
    27.7075  27.7075  29.3304  29.3948  29.3948  29.4202  29.6043  29.6043
    29.7473  32.1689  32.1690  33.1408  33.7399  33.7399  34.3356  35.0418
    35.0584  35.2999  35.6328  35.6329  35.7453  35.7453  36.0549  36.0549
    36.3860  37.6713  37.6714  37.7754  37.9541  37.9542  37.9837  38.3002
    38.6861

[...]

          k =-0.5000-0.2887 0.0000 (  5800 PWs)   bands (ev):

[...]

     the Fermi energy is    30.8504 ev

!    total energy              =   -2783.14691839 Ry
     Harris-Foulkes estimate   =   -2783.14692137 Ry
     estimated scf accuracy    <       0.00000379 Ry

     The total energy is the sum of the following terms:

     one-electron contribution =    -343.35441949 Ry
     hartree contribution      =     378.08868412 Ry
     xc contribution           =    -268.07716436 Ry
     ewald contribution        =   -2549.51743094 Ry
     smearing contrib. (-TS)   =      -0.28658772 Ry

     convergence has been achieved in  11 iterations

     Forces acting on atoms (Ry/au):

     atom    1 type  1   force =     0.00000000    0.00000000    0.01862748
     atom    2 type  1   force =     0.00000000    0.00000000    0.01862748
     atom    3 type  1   force =     0.00000000    0.00000000   -0.01862748
     atom    4 type  1   force =     0.00000000    0.00000000   -0.01862748
     atom    5 type  2   force =     0.00000000    0.00000000    0.00000000
     atom    6 type  2   force =     0.00000000    0.00000000    0.00000000
     atom    7 type  2   force =     0.00000000    0.07994154    0.00000000
     atom    8 type  2   force =    -0.06923141    0.03997077    0.00000000
     atom    9 type  2   force =     0.06923141    0.03997077    0.00000000
     atom   10 type  2   force =    -0.06923141   -0.03997077    0.00000000
     atom   11 type  2   force =     0.06923141   -0.03997077    0.00000000
     atom   12 type  2   force =     0.00000000   -0.07994154    0.00000000

     Total force =     0.199328     Total SCF correction =     0.000000

     entering subroutine stress ...

          total   stress  (Ry/bohr**3)                   (kbar)     P=  691.41
   0.00472747   0.00000000   0.00000000        695.43      0.00      0.00
   0.00000000   0.00472747   0.00000000          0.00    695.43      0.00
   0.00000000   0.00000000   0.00464539          0.00      0.00    683.36

     BFGS Geometry Optimization

     number of scf cycles    =   1
     number of bfgs steps    =   0

     enthalpy new            =   -2783.1469183864 Ry

     new trust radius        =       0.5000000000 bohr
     new conv_thr            =       0.0001000000 Ry

     new unit-cell volume =   1655.07617 a.u.^3 (   245.25698 Ang^3 )

CELL_PARAMETERS (alat=  9.92348860)
   1.067764947   0.000000000   0.000000000
  -0.533882474   0.924711570   0.000000000
   0.000000000   0.000000000   1.715311144

ATOMIC_POSITIONS (crystal)
Mg       0.333333000   0.666667000   0.063087238
Mg       0.666667000   0.333333000   0.563087238
Mg       0.666667000   0.333333000   0.936912762
Mg       0.333333000   0.666667000   0.436912762
Zn       0.000000000   0.000000000   0.000000000
Zn       0.000000000   0.000000000   0.500000000
Zn       0.173027762   0.346055524   0.750000000
Zn       0.826972238   0.173027762   0.250000000
Zn       0.346055524   0.173027762   0.250000000
Zn       0.653944476   0.826972238   0.750000000
Zn       0.173027762   0.826972238   0.750000000
Zn       0.826972238   0.653944476   0.250000000

     Writing output data file Prototype-La-hP12-MgZn2.save
     NEW-OLD atomic charge density approx. for the potential
     NEW k-points:
        k(    1) = (   0.0000000   0.0000000   0.0000000), wk =   0.0833333
        k(    2) = (   0.0000000   0.0000000   0.1457462), wk =   0.1666667
        k(    3) = (   0.0000000   0.0000000  -0.2914923), wk =   0.0833333
        k(    4) = (   0.0000000   0.3604728   0.0000000), wk =   0.1666667
        k(    5) = (   0.0000000   0.3604728   0.1457462), wk =   0.3333333
        k(    6) = (   0.0000000   0.3604728  -0.2914923), wk =   0.1666667
        k(    7) = (  -0.4682679  -0.2703546   0.0000000), wk =   0.0833333
        k(    8) = (  -0.4682679  -0.2703546   0.1457462), wk =   0.1666667
        k(    9) = (  -0.4682679  -0.2703546  -0.2914923), wk =   0.0833333
        k(   10) = (  -0.4682679   0.0901182   0.0000000), wk =   0.1666667
        k(   11) = (  -0.4682679   0.0901182   0.1457462), wk =   0.3333333
        k(   12) = (  -0.4682679   0.0901182  -0.2914923), wk =   0.1666667

[...]

     enthalpy old            =   -2783.1469183864 Ry
     enthalpy new            =   -2783.2652311116 Ry

     CASE: enthalpy_new < enthalpy_old

     small trust_radius: resetting bfgs history

     new trust radius        =       0.6139524978 bohr
     new conv_thr            =       0.0000246973 Ry

[...]

     number of scf cycles    =   3
     number of bfgs steps    =   2

     enthalpy old            =   -2783.2652311116 Ry
     enthalpy new            =   -2782.9652794177 Ry

     CASE: enthalpy_new > enthalpy_old

     new trust radius        =       0.2293626480 bohr

     trust_radius < trust_radius_min

     resetting bfgs history

     Message from routine bfgs:
     history already reset at previous step: stopping
     new conv_thr            =       0.0000246973 Ry

     new unit-cell volume =   1372.55933 a.u.^3 (   203.39231 Ang^3 )

[...]

ATOMIC_POSITIONS (crystal)
Mg       0.333333000   0.666667000   0.063670648
Mg       0.666667000   0.333333000   0.563670648
Mg       0.666667000   0.333333000   0.936329352
Mg       0.333333000   0.666667000   0.436329352
Zn       0.000000000   0.000000000   0.000000000
Zn       0.000000000   0.000000000   0.500000000
Zn       0.171803290   0.343606580   0.750000000
Zn       0.828196710   0.171803290   0.250000000
Zn       0.343606580   0.171803290   0.250000000
Zn       0.656393420   0.828196710   0.750000000
Zn       0.171803290   0.828196710   0.750000000
Zn       0.828196710   0.656393420   0.250000000

     Writing output data file Prototype-La-hP12-MgZn2.save
     NEW-OLD atomic charge density approx. for the potential
     NEW k-points:
        k(    1) = (   0.0000000   0.0000000   0.0000000), wk =   0.0833333
        k(    2) = (   0.0000000   0.0000000   0.1556249), wk =   0.1666667
        k(    3) = (   0.0000000   0.0000000  -0.3112498), wk =   0.0833333
        k(    4) = (   0.0000000   0.3830671   0.0000000), wk =   0.1666667
        k(    5) = (   0.0000000   0.3830671   0.1556249), wk =   0.3333333
        k(    6) = (   0.0000000   0.3830671  -0.3112498), wk =   0.1666667
        k(    7) = (  -0.4976188  -0.2873003   0.0000000), wk =   0.0833333
        k(    8) = (  -0.4976188  -0.2873003   0.1556249), wk =   0.1666667
        k(    9) = (  -0.4976188  -0.2873003  -0.3112498), wk =   0.0833333
        k(   10) = (  -0.4976188   0.0957668   0.0000000), wk =   0.1666667
        k(   11) = (  -0.4976188   0.0957668   0.1556249), wk =   0.3333333
        k(   12) = (  -0.4976188   0.0957668  -0.3112498), wk =   0.1666667

[...]

     The maximum number of steps has been reached.

     End of BFGS Geometry Optimization
Begin final coordinates
     new unit-cell volume =   1372.55933 a.u.^3 (   203.39231 Ang^3 )

CELL_PARAMETERS (alat=  9.92348860)
   1.004785263   0.000000000   0.000000000
  -0.502392631   0.870169563   0.000000000
   0.000000000   0.000000000   1.606426490

ATOMIC_POSITIONS (crystal)
Mg       0.333333000   0.666667000   0.063670648
Mg       0.666667000   0.333333000   0.563670648
Mg       0.666667000   0.333333000   0.936329352
Mg       0.333333000   0.666667000   0.436329352
Zn       0.000000000   0.000000000   0.000000000
Zn       0.000000000   0.000000000   0.500000000
Zn       0.171803290   0.343606580   0.750000000
Zn       0.828196710   0.171803290   0.250000000
Zn       0.343606580   0.171803290   0.250000000
Zn       0.656393420   0.828196710   0.750000000
Zn       0.171803290   0.828196710   0.750000000
Zn       0.828196710   0.656393420   0.250000000
End final coordinates

     A final scf calculation at the relaxed structure.
     The G-vectors are recalculated for the final unit cell
     Results may differ from those at the preceding step.

     bravais-lattice index     =            0
     lattice parameter (alat)  =       9.9235  a.u.
     unit-cell volume          =    1372.5593 (a.u.)^3
     number of atoms/cell      =           12
     number of atomic types    =            2
     number of electrons       =       228.00
     number of Kohn-Sham states=          137
     kinetic-energy cutoff     =      40.0000  Ry
     charge density cutoff     =     160.0000  Ry
     convergence threshold     =      2.5E-05
     mixing beta               =       0.7000
     number of iterations used =            8  plain     mixing
     Exchange-correlation      = SLA-PZ-NOGX-NOGC ( 1 1 0 0 0)
     EXX-fraction              =        0.00

     celldm(1)=   9.923489  celldm(2)=   0.000000  celldm(3)=   0.000000
     celldm(4)=   0.000000  celldm(5)=   0.000000  celldm(6)=   0.000000

     crystal axes: (cart. coord. in units of alat)
               a(1) = (   1.004785   0.000000   0.000000 )
               a(2) = (  -0.502393   0.870170   0.000000 )
               a(3) = (   0.000000   0.000000   1.606426 )

     reciprocal axes: (cart. coord. in units 2 pi/alat)
               b(1) = (  0.995238  0.574601  0.000000 )
               b(2) = (  0.000000  1.149201  0.000000 )
               b(3) = (  0.000000  0.000000  0.622500 )

     PseudoPot. # 1 for Eu read from file:
     /home/cwx6513/pp.La/Eu.UPF
     MD5 check sum: 5efdbbfc50c6a10138933a6429836ad2
     Pseudo is Norm-conserving, Zval = 17.0
     Generated in analytical, separable form
     Using radial grid of 1261 points,  6 beta functions with:
                l(1) =   0
                l(2) =   0
                l(3) =   1
                l(4) =   1
                l(5) =   2
                l(6) =   3

     PseudoPot. # 2 for Dy read from file:
     /home/cwx6513/pp.La/Dy.UPF
     MD5 check sum: 9597327bec62616a94a14d07f3fd9936
     Pseudo is Norm-conserving, Zval = 20.0
     Generated in analytical, separable form
     Using radial grid of 1265 points,  6 beta functions with:
                l(1) =   0
                l(2) =   0
                l(3) =   1
                l(4) =   1
                l(5) =   2
                l(6) =   3

     atomic species   valence    mass     pseudopotential
        Mg            17.00    24.30500     Eu( 1.00)
        Zn            20.00    65.39000     Dy( 1.00)

     24 Sym. Ops., with inversion, found (12 have fractional translation)

   Cartesian axes

     site n.     atom                  positions (alat units)
         1           Mg  tau(   1) = (  -0.0000005   0.5801133   0.1022822  )
         2           Mg  tau(   2) = (   0.5023931   0.2900562   0.9054955  )
         3           Mg  tau(   3) = (   0.5023931   0.2900562   1.5041443  )
         4           Mg  tau(   4) = (  -0.0000005   0.5801133   0.7009310  )
         5           Zn  tau(   5) = (   0.0000000   0.0000000   0.0000000  )
         6           Zn  tau(   6) = (   0.0000000   0.0000000   0.8032132  )
         7           Zn  tau(   7) = (   0.0000000   0.2989960   1.2048199  )
         8           Zn  tau(   8) = (   0.7458471   0.1494980   0.4016066  )
         9           Zn  tau(   9) = (   0.2589381   0.1494980   0.4016066  )
        10           Zn  tau(  10) = (   0.2434545   0.7206716   1.2048199  )
        11           Zn  tau(  11) = (  -0.2434545   0.7206716   1.2048199  )
        12           Zn  tau(  12) = (   0.5023926   0.5711736   0.4016066  )

     number of k points=    12  gaussian smearing, width (Ry)=  0.1000
                       cart. coord. in units 2pi/alat
        k(    1) = (   0.0000000   0.0000000   0.0000000), wk =   0.0833333
        k(    2) = (   0.0000000   0.0000000   0.1556249), wk =   0.1666667
        k(    3) = (   0.0000000   0.0000000  -0.3112498), wk =   0.0833333
        k(    4) = (   0.0000000   0.3830671   0.0000000), wk =   0.1666667
        k(    5) = (   0.0000000   0.3830671   0.1556249), wk =   0.3333333
        k(    6) = (   0.0000000   0.3830671  -0.3112498), wk =   0.1666667
        k(    7) = (  -0.4976188  -0.2873003   0.0000000), wk =   0.0833333
        k(    8) = (  -0.4976188  -0.2873003   0.1556249), wk =   0.1666667
        k(    9) = (  -0.4976188  -0.2873003  -0.3112498), wk =   0.0833333
        k(   10) = (  -0.4976188   0.0957668   0.0000000), wk =   0.1666667
        k(   11) = (  -0.4976188   0.0957668   0.1556249), wk =   0.3333333
        k(   12) = (  -0.4976188   0.0957668  -0.3112498), wk =   0.1666667

     Largest allocated arrays     est. size (Mb)     dimensions
     Largest temporary arrays     est. size (Mb)     dimensions

     Initial potential from superposition of free atoms

     Starting from uniform charge
     Starting wfc are    0 randomized atomic wfcs

     Writing output data file Prototype-La-hP12-MgZn2.save

     Self-consistent Calculation

[...]

     iteration #  8     ecut=    40.00 Ry     beta=0.70
     CG style diagonalization
     ethr =  6.30E-05,  avg # of iterations =  3.4

[...]

     total energy              =   -2783.26573889 Ry
     Harris-Foulkes estimate   =   -2783.26593584 Ry
     estimated scf accuracy    <       0.00041264 Ry

     iteration # 11     ecut=    40.00 Ry     beta=0.70
     CG style diagonalization
     c_bands:  1 eigenvalues not converged
     ethr =  1.81E-07,  avg # of iterations =  3.5

     End of self-consistent calculation

[...]

          k = 0.0000 0.3831-0.3112 (  5862 PWs)   bands (ev):

[...]

          k =-0.4976 0.0958-0.3112 (  5876 PWs)   bands (ev):

   -53.6440 -53.6440 -53.5875 -53.5874 -53.5085 -53.5085 -53.4965 -53.4965
   -32.1669 -32.1668 -32.1458 -32.1456 -21.4939 -21.4939 -21.1824 -21.1824
   -20.8312 -20.8312 -20.7533 -20.7533 -20.6821 -20.6821 -20.6345 -20.6345
   -20.4875 -20.4875 -20.3569 -20.3568 -20.2428 -20.2428 -20.1853 -20.1853
   -20.1738 -20.1737 -20.1469 -20.1469  -5.1484  -5.1483  -5.1119  -5.1119
    -5.0419  -5.0418  -4.9416  -4.9415  -4.8630  -4.8630  -4.8534  -4.8534
    16.3993  16.3993  17.3967  17.3967  17.7562  17.7562  18.0607  18.0607
    18.2262  18.2262  18.7076  18.7076  19.1159  19.1159  19.2044  19.2044
    19.6394  19.6394  19.7878  19.7878  20.0670  20.0670  20.4440  20.4440
    20.6828  20.6828  21.1549  21.1549  21.3241  21.3241  21.4998  21.4998
    21.8328  21.8328  21.9518  21.9518  22.0816  22.0816  22.4481  22.4481
    23.3433  23.3433  23.8181  23.8181  25.4171  25.4171  26.0494  26.0494
    26.5157  26.5158  26.7807  26.7807  26.8614  26.8615  27.4350  27.4351
    27.9874  27.9875  28.5982  28.5982  28.7834  28.7834  28.9959  28.9959
    29.7159  29.7159  30.5433  30.5433  32.5286  32.5286  33.9987  33.9987
    34.9770  34.9770  35.1540  35.1540  37.2930  37.2930  37.7328  37.7329
    38.1768  38.1768  38.5334  38.5335  38.9326  38.9327  39.1994  39.1995
    39.6002

     the Fermi energy is    30.5332 ev

!    total energy              =   -2783.26582906 Ry
     Harris-Foulkes estimate   =   -2783.26583299 Ry
     estimated scf accuracy    <       0.00000425 Ry

     The total energy is the sum of the following terms:

     one-electron contribution =    -351.38306933 Ry
     hartree contribution      =     379.83045068 Ry
     xc contribution           =    -267.89887513 Ry
     ewald contribution        =   -2543.52478776 Ry
     smearing contrib. (-TS)   =      -0.28954753 Ry

     convergence has been achieved in  11 iterations

     Forces acting on atoms (Ry/au):

     atom    1 type  1   force =     0.00000000    0.00000000    0.01516474
     atom    2 type  1   force =     0.00000000    0.00000000    0.01516474
     atom    3 type  1   force =     0.00000000    0.00000000   -0.01516474
     atom    4 type  1   force =     0.00000000    0.00000000   -0.01516474
     atom    5 type  2   force =     0.00000000    0.00000000    0.00000000
     atom    6 type  2   force =     0.00000000    0.00000000    0.00000000
     atom    7 type  2   force =     0.00000000    0.01901033    0.00000000
     atom    8 type  2   force =    -0.01646343    0.00950516    0.00000000
     atom    9 type  2   force =     0.01646343    0.00950516    0.00000000
     atom   10 type  2   force =    -0.01646343   -0.00950516    0.00000000
     atom   11 type  2   force =     0.01646343   -0.00950516    0.00000000
     atom   12 type  2   force =     0.00000000   -0.01901033    0.00000000

     Total force =     0.055572     Total SCF correction =     0.000000

     entering subroutine stress ...

          total   stress  (Ry/bohr**3)                   (kbar)     P=  639.10
   0.00439813   0.00000000   0.00000000        646.99      0.00      0.00
   0.00000000   0.00439813   0.00000000          0.00    646.99      0.00
   0.00000000   0.00000000   0.00423723          0.00      0.00    623.32

     Writing output data file Prototype-La-hP12-MgZn2.save

     General routines

     Parallel routines

   This run was terminated on:  21:35:26  22Mar2018

   JOB DONE.