     Program PWSCF v.5.0.2 starts on 22Mar2018 at 21:11:56

     Current dimensions of program PWSCF are:
     Max number of different atomic species (ntypx) = 10
     Max number of k-points (npk) =  40000
     Max angular momentum in pseudopotentials (lmaxx) =  3
     Waiting for input...
     Reading input from standard input

     Subspace diagonalization in iterative solution of the eigenvalue problem:
     a serial algorithm will be used

     bravais-lattice index     =            0
     lattice parameter (alat)  =       8.5346  a.u.
     unit-cell volume          =     621.6493 (a.u.)^3
     number of atoms/cell      =            8
     number of atomic types    =            2
     number of electrons       =       142.00
     number of Kohn-Sham states=           85
     kinetic-energy cutoff     =      40.0000  Ry
     charge density cutoff     =     160.0000  Ry
     convergence threshold     =      1.0E-04
     mixing beta               =       0.7000
     number of iterations used =            8  plain     mixing
     Exchange-correlation      = SLA-PZ-NOGX-NOGC ( 1 1 0 0 0)
     EXX-fraction              =        0.00
     nstep                     =           50

     celldm(1)=   8.534573  celldm(2)=   0.000000  celldm(3)=   0.000000
     celldm(4)=   0.000000  celldm(5)=   0.000000  celldm(6)=   0.000000

     crystal axes: (cart. coord. in units of alat)
               a(1) = (   1.000000   0.000000   0.000000 )
               a(2) = (   0.000000   1.000000   0.000000 )
               a(3) = (   0.000000   0.000000   1.000000 )

     reciprocal axes: (cart. coord. in units 2 pi/alat)
               b(1) = (  1.000000  0.000000  0.000000 )
               b(2) = (  0.000000  1.000000  0.000000 )
               b(3) = (  0.000000  0.000000  1.000000 )

     PseudoPot. # 1 for Eu read from file:
     /home/cwx6513/pp.La/Eu.UPF
     MD5 check sum: 5efdbbfc50c6a10138933a6429836ad2
     Pseudo is Norm-conserving, Zval = 17.0
     Generated in analytical, separable form
     Using radial grid of 1261 points,  6 beta functions with:
                l(1) =   0
                l(2) =   0
                l(3) =   1
                l(4) =   1
                l(5) =   2
                l(6) =   3

     PseudoPot. # 2 for Dy read from file:
     /home/cwx6513/pp.La/Dy.UPF
     MD5 check sum: 9597327bec62616a94a14d07f3fd9936
     Pseudo is Norm-conserving, Zval = 20.0
     Generated in analytical, separable form
     Using radial grid of 1265 points,  6 beta functions with:
                l(1) =   0
                l(2) =   0
                l(3) =   1
                l(4) =   1
                l(5) =   2
                l(6) =   3

     atomic species   valence    mass     pseudopotential
        Cr            17.00    51.99610     Eu( 1.00)
        Si            20.00    28.08550     Dy( 1.00)

     48 Sym. Ops., with inversion, found (24 have fractional translation)

   Cartesian axes

     site n.     atom                  positions (alat units)
         1           Cr  tau(   1) = (   0.0000000   0.5000000   0.2500000  )
         2           Cr  tau(   2) = (   0.0000000   0.5000000   0.7500000  )
         3           Cr  tau(   3) = (   0.5000000   0.7500000   0.0000000  )
         4           Cr  tau(   4) = (   0.5000000   0.2500000   0.0000000  )
         5           Cr  tau(   5) = (   0.7500000   0.0000000   0.5000000  )
         6           Cr  tau(   6) = (   0.2500000   0.0000000   0.5000000  )
         7           Si  tau(   7) = (   0.5000000   0.5000000   0.5000000  )
         8           Si  tau(   8) = (   0.0000000   0.0000000   0.0000000  )

     number of k points=    48  gaussian smearing, width (Ry)=  0.1000
                       cart. coord. in units 2pi/alat
        k(    1) = (   0.0000000   0.0000000   0.0000000), wk =   0.0095238
        k(    2) = (   0.0000000   0.0000000   0.1428571), wk =   0.0190476
        k(    3) = (   0.0000000   0.0000000   0.2857143), wk =   0.0190476
        k(    4) = (   0.0000000   0.0000000   0.4285714), wk =   0.0190476
        k(    5) = (   0.0000000   0.1666667   0.0000000), wk =   0.0190476
        k(    6) = (   0.0000000   0.1666667   0.1428571), wk =   0.0380952
        k(    7) = (   0.0000000   0.1666667   0.2857143), wk =   0.0380952
        k(    8) = (   0.0000000   0.1666667   0.4285714), wk =   0.0380952
        k(    9) = (   0.0000000   0.3333333   0.0000000), wk =   0.0190476
        k(   10) = (   0.0000000   0.3333333   0.1428571), wk =   0.0380952
        k(   11) = (   0.0000000   0.3333333   0.2857143), wk =   0.0380952
        k(   12) = (   0.0000000   0.3333333   0.4285714), wk =   0.0380952
        k(   13) = (   0.0000000  -0.5000000   0.0000000), wk =   0.0095238
        k(   14) = (   0.0000000  -0.5000000   0.1428571), wk =   0.0190476
        k(   15) = (   0.0000000  -0.5000000   0.2857143), wk =   0.0190476
        k(   16) = (   0.0000000  -0.5000000   0.4285714), wk =   0.0190476
        k(   17) = (   0.2000000   0.0000000   0.0000000), wk =   0.0190476
        k(   18) = (   0.2000000   0.0000000   0.1428571), wk =   0.0380952
        k(   19) = (   0.2000000   0.0000000   0.2857143), wk =   0.0380952
        k(   20) = (   0.2000000   0.0000000   0.4285714), wk =   0.0380952
        k(   21) = (   0.2000000   0.1666667   0.0000000), wk =   0.0380952
        k(   22) = (   0.2000000   0.1666667   0.1428571), wk =   0.0761905
        k(   23) = (   0.2000000   0.1666667   0.2857143), wk =   0.0761905
        k(   24) = (   0.2000000   0.1666667   0.4285714), wk =   0.0761905
        k(   25) = (   0.2000000   0.3333333   0.0000000), wk =   0.0380952
        k(   26) = (   0.2000000   0.3333333   0.1428571), wk =   0.0761905
        k(   27) = (   0.2000000   0.3333333   0.2857143), wk =   0.0761905
        k(   28) = (   0.2000000   0.3333333   0.4285714), wk =   0.0761905
        k(   29) = (   0.2000000  -0.5000000   0.0000000), wk =   0.0190476
        k(   30) = (   0.2000000  -0.5000000   0.1428571), wk =   0.0380952
        k(   31) = (   0.2000000  -0.5000000   0.2857143), wk =   0.0380952
        k(   32) = (   0.2000000  -0.5000000   0.4285714), wk =   0.0380952
        k(   33) = (   0.4000000   0.0000000   0.0000000), wk =   0.0190476
        k(   34) = (   0.4000000   0.0000000   0.1428571), wk =   0.0380952
        k(   35) = (   0.4000000   0.0000000   0.2857143), wk =   0.0380952
        k(   36) = (   0.4000000   0.0000000   0.4285714), wk =   0.0380952
        k(   37) = (   0.4000000   0.1666667   0.0000000), wk =   0.0380952
        k(   38) = (   0.4000000   0.1666667   0.1428571), wk =   0.0761905
        k(   39) = (   0.4000000   0.1666667   0.2857143), wk =   0.0761905
        k(   40) = (   0.4000000   0.1666667   0.4285714), wk =   0.0761905
        k(   41) = (   0.4000000   0.3333333   0.0000000), wk =   0.0380952
        k(   42) = (   0.4000000   0.3333333   0.1428571), wk =   0.0761905
        k(   43) = (   0.4000000   0.3333333   0.2857143), wk =   0.0761905
        k(   44) = (   0.4000000   0.3333333   0.4285714), wk =   0.0761905
        k(   45) = (   0.4000000  -0.5000000   0.0000000), wk =   0.0190476
        k(   46) = (   0.4000000  -0.5000000   0.1428571), wk =   0.0380952
        k(   47) = (   0.4000000  -0.5000000   0.2857143), wk =   0.0380952
        k(   48) = (   0.4000000  -0.5000000   0.4285714), wk =   0.0380952

     Largest allocated arrays     est. size (Mb)     dimensions
     Largest temporary arrays     est. size (Mb)     dimensions

     Initial potential from superposition of free atoms

     Starting from uniform charge
     Starting wfc are    0 randomized atomic wfcs

     Self-consistent Calculation

     iteration #  1     ecut=    40.00 Ry     beta=0.70
     CG style diagonalization
     c_bands:  2 eigenvalues not converged
     c_bands:  5 eigenvalues not converged
     c_bands:  2 eigenvalues not converged
     c_bands:  4 eigenvalues not converged
     c_bands:  3 eigenvalues not converged
     c_bands:  4 eigenvalues not converged
     c_bands:  3 eigenvalues not converged
     c_bands:  5 eigenvalues not converged
     c_bands:  4 eigenvalues not converged
     c_bands:  2 eigenvalues not converged
     c_bands:  3 eigenvalues not converged
     c_bands:  1 eigenvalues not converged
     c_bands:  4 eigenvalues not converged
     c_bands:  4 eigenvalues not converged
     c_bands:  4 eigenvalues not converged
     c_bands:  3 eigenvalues not converged
     c_bands:  5 eigenvalues not converged
     ethr =  1.00E-02,  avg # of iterations = 13.1

     total energy              =   -1248.33749558 Ry
     Harris-Foulkes estimate   =   -1735.70078291 Ry
     estimated scf accuracy    <     604.70426981 Ry

[...]

     iteration #  4     ecut=    40.00 Ry     beta=0.70
     CG style diagonalization
     ethr =  9.72E-03,  avg # of iterations =  3.5

[...]

     End of self-consistent calculation

          k = 0.0000 0.0000 0.0000 (  2601 PWs)   bands (ev):

   -39.7163 -39.6976 -20.4592 -19.9649 -19.9649 -18.7171 -18.7171 -18.7171
    -7.0808  -7.0808  -7.0808  -7.0404  -7.0404  -7.0404   3.1573   3.1573
     3.8450   6.1296   6.1296   6.1296   7.6105   7.6105   7.6105   8.0050
     8.0050   8.0050   8.3049   8.3049   8.3049  10.5882  10.5882  10.5882
    30.9654  30.9654  32.1944  32.4851  32.4851  32.4851  32.6176  32.6176
    32.6176  32.9920  32.9920  33.3289  33.3289  33.3289  33.9539  34.6435
    34.7216  35.4317  35.4317  35.6091  35.6091  35.6091  39.8217  39.8217
    39.8217  40.2207  40.2207  41.2875  41.2875  41.2875  41.7005  41.7005
    41.7005  44.6637  44.6637  45.6615  45.6615  45.6615  46.8007  46.8007
    46.8007  49.2358  50.7666  50.7666  50.7666  51.1096  51.1096  51.1096
    53.4613  53.4615  53.7249  53.7249  53.7251

[...]

     the Fermi energy is    45.7198 ev

!    total energy              =   -1566.08232533 Ry
     Harris-Foulkes estimate   =   -1566.08232711 Ry
     estimated scf accuracy    <       0.00000221 Ry

     The total energy is the sum of the following terms:

     one-electron contribution =     197.04242432 Ry
     hartree contribution      =     109.78997768 Ry
     xc contribution           =    -165.92176269 Ry
     ewald contribution        =   -1706.72691547 Ry
     smearing contrib. (-TS)   =      -0.26604918 Ry

     convergence has been achieved in   9 iterations

     Forces acting on atoms (Ry/au):

     atom    1 type  1   force =     0.00000000    0.00000000    0.00000000
     atom    2 type  1   force =     0.00000000    0.00000000    0.00000000
     atom    3 type  1   force =     0.00000000    0.00000000    0.00000000
     atom    4 type  1   force =     0.00000000    0.00000000    0.00000000
     atom    5 type  1   force =     0.00000000    0.00000000    0.00000000
     atom    6 type  1   force =     0.00000000    0.00000000    0.00000000
     atom    7 type  2   force =     0.00000000    0.00000000    0.00000000
     atom    8 type  2   force =     0.00000000    0.00000000    0.00000000

     Total force =     0.000000     Total SCF correction =     0.000000

     entering subroutine stress ...

[...]
        k(   46) = (   0.3635474  -0.4544343   0.1298384), wk =   0.0380952
        k(   47) = (   0.3635474  -0.4544343   0.2596767), wk =   0.0380952
        k(   48) = (   0.3635474  -0.4544343   0.3895151), wk =   0.0380952

[...]

     enthalpy old            =   -1566.0823253317 Ry
     enthalpy new            =   -1569.1570548728 Ry

     CASE: enthalpy_new < enthalpy_old

     small trust_radius: resetting bfgs history

     new trust radius        =       0.4280599818 bohr
     new conv_thr            =       0.0000010000 Ry

[...]

     number of scf cycles    =   3
     number of bfgs steps    =   2

     enthalpy old            =   -1569.1570548728 Ry
     enthalpy new            =   -1568.6305806406 Ry

     CASE: enthalpy_new > enthalpy_old

     new trust radius        =       0.1133180214 bohr

     trust_radius < trust_radius_min

     resetting bfgs history

     Message from routine bfgs:
     history already reset at previous step: stopping
     new conv_thr            =       0.0000010000 Ry

     new unit-cell volume =   1012.17571 a.u.^3 (   149.98896 Ang^3 )

[...]

ATOMIC_POSITIONS (crystal)
Cr       0.000000000   0.500000000   0.250000000
Cr       0.000000000   0.500000000   0.750000000
Cr       0.500000000   0.750000000   0.000000000
Cr       0.500000000   0.250000000   0.000000000
Cr       0.750000000   0.000000000   0.500000000
Cr       0.250000000   0.000000000   0.500000000
Si       0.500000000   0.500000000   0.500000000
Si       0.000000000   0.000000000   0.000000000

     Writing output data file Prototype-La-cP8-Cr3Si.save
     NEW-OLD atomic charge density approx. for the potential
     NEW k-points:
        k(    1) = (   0.0000000   0.0000000   0.0000000), wk =   0.0095238
        k(    2) = (   0.0000000   0.0000000   0.1214316), wk =   0.0190476
        k(    3) = (   0.0000000   0.0000000   0.2428632), wk =   0.0190476
        k(    4) = (   0.0000000   0.0000000   0.3642949), wk =   0.0190476
        k(    5) = (   0.0000000   0.1416702   0.0000000), wk =   0.0190476
        k(    6) = (   0.0000000   0.1416702   0.1214316), wk =   0.0380952
        k(    7) = (   0.0000000   0.1416702   0.2428632), wk =   0.0380952
        k(    8) = (   0.0000000   0.1416702   0.3642949), wk =   0.0380952
        k(    9) = (   0.0000000   0.2833405   0.0000000), wk =   0.0190476
        k(   10) = (   0.0000000   0.2833405   0.1214316), wk =   0.0380952
        k(   11) = (   0.0000000   0.2833405   0.2428632), wk =   0.0380952
        k(   12) = (   0.0000000   0.2833405   0.3642949), wk =   0.0380952
        k(   13) = (   0.0000000  -0.4250107   0.0000000), wk =   0.0095238
        k(   14) = (   0.0000000  -0.4250107   0.1214316), wk =   0.0190476
        k(   15) = (   0.0000000  -0.4250107   0.2428632), wk =   0.0190476
        k(   16) = (   0.0000000  -0.4250107   0.3642949), wk =   0.0190476
        k(   17) = (   0.1700043   0.0000000   0.0000000), wk =   0.0190476
        k(   18) = (   0.1700043   0.0000000   0.1214316), wk =   0.0380952
        k(   19) = (   0.1700043   0.0000000   0.2428632), wk =   0.0380952
        k(   20) = (   0.1700043   0.0000000   0.3642949), wk =   0.0380952
        k(   21) = (   0.1700043   0.1416702   0.0000000), wk =   0.0380952
        k(   22) = (   0.1700043   0.1416702   0.1214316), wk =   0.0761905
        k(   23) = (   0.1700043   0.1416702   0.2428632), wk =   0.0761905
        k(   24) = (   0.1700043   0.1416702   0.3642949), wk =   0.0761905
        k(   25) = (   0.1700043   0.2833405   0.0000000), wk =   0.0380952
        k(   26) = (   0.1700043   0.2833405   0.1214316), wk =   0.0761905
        k(   27) = (   0.1700043   0.2833405   0.2428632), wk =   0.0761905
        k(   28) = (   0.1700043   0.2833405   0.3642949), wk =   0.0761905
        k(   29) = (   0.1700043  -0.4250107   0.0000000), wk =   0.0190476
        k(   30) = (   0.1700043  -0.4250107   0.1214316), wk =   0.0380952
        k(   31) = (   0.1700043  -0.4250107   0.2428632), wk =   0.0380952
        k(   32) = (   0.1700043  -0.4250107   0.3642949), wk =   0.0380952
        k(   33) = (   0.3400085   0.0000000   0.0000000), wk =   0.0190476
        k(   34) = (   0.3400085   0.0000000   0.1214316), wk =   0.0380952
        k(   35) = (   0.3400085   0.0000000   0.2428632), wk =   0.0380952
        k(   36) = (   0.3400085   0.0000000   0.3642949), wk =   0.0380952
        k(   37) = (   0.3400085   0.1416702   0.0000000), wk =   0.0380952
        k(   38) = (   0.3400085   0.1416702   0.1214316), wk =   0.0761905
        k(   39) = (   0.3400085   0.1416702   0.2428632), wk =   0.0761905
        k(   40) = (   0.3400085   0.1416702   0.3642949), wk =   0.0761905
        k(   41) = (   0.3400085   0.2833405   0.0000000), wk =   0.0380952
        k(   42) = (   0.3400085   0.2833405   0.1214316), wk =   0.0761905
        k(   43) = (   0.3400085   0.2833405   0.2428632), wk =   0.0761905
        k(   44) = (   0.3400085   0.2833405   0.3642949), wk =   0.0761905
        k(   45) = (   0.3400085  -0.4250107   0.0000000), wk =   0.0190476
        k(   46) = (   0.3400085  -0.4250107   0.1214316), wk =   0.0380952
        k(   47) = (   0.3400085  -0.4250107   0.2428632), wk =   0.0380952
        k(   48) = (   0.3400085  -0.4250107   0.3642949), wk =   0.0380952

[...]

     The maximum number of steps has been reached.

     End of BFGS Geometry Optimization
Begin final coordinates
     new unit-cell volume =   1012.17571 a.u.^3 (   149.98896 Ang^3 )

CELL_PARAMETERS (alat=  8.53457320)
   1.176441032   0.000000000   0.000000000
   0.000000000   1.176441032   0.000000000
   0.000000000   0.000000000   1.176441032

ATOMIC_POSITIONS (crystal)
Cr       0.000000000   0.500000000   0.250000000
Cr       0.000000000   0.500000000   0.750000000
Cr       0.500000000   0.750000000   0.000000000
Cr       0.500000000   0.250000000   0.000000000
Cr       0.750000000   0.000000000   0.500000000
Cr       0.250000000   0.000000000   0.500000000
Si       0.500000000   0.500000000   0.500000000
Si       0.000000000   0.000000000   0.000000000
End final coordinates

     A final scf calculation at the relaxed structure.
     The G-vectors are recalculated for the final unit cell
     Results may differ from those at the preceding step.

     bravais-lattice index     =            0
     lattice parameter (alat)  =       8.5346  a.u.
     unit-cell volume          =    1012.1757 (a.u.)^3
     number of atoms/cell      =            8
     number of atomic types    =            2
     number of electrons       =       142.00
     number of Kohn-Sham states=           85
     kinetic-energy cutoff     =      40.0000  Ry
     charge density cutoff     =     160.0000  Ry
     convergence threshold     =      1.0E-06
     mixing beta               =       0.7000
     number of iterations used =            8  plain     mixing
     Exchange-correlation      = SLA-PZ-NOGX-NOGC ( 1 1 0 0 0)
     EXX-fraction              =        0.00

     celldm(1)=   8.534573  celldm(2)=   0.000000  celldm(3)=   0.000000
     celldm(4)=   0.000000  celldm(5)=   0.000000  celldm(6)=   0.000000

     crystal axes: (cart. coord. in units of alat)
               a(1) = (   1.176441   0.000000   0.000000 )
               a(2) = (   0.000000   1.176441   0.000000 )
               a(3) = (   0.000000   0.000000   1.176441 )

     reciprocal axes: (cart. coord. in units 2 pi/alat)
               b(1) = (  0.850021  0.000000  0.000000 )
               b(2) = (  0.000000  0.850021  0.000000 )
               b(3) = (  0.000000  0.000000  0.850021 )

     PseudoPot. # 1 for Eu read from file:
     /home/cwx6513/pp.La/Eu.UPF
     MD5 check sum: 5efdbbfc50c6a10138933a6429836ad2
     Pseudo is Norm-conserving, Zval = 17.0
     Generated in analytical, separable form
     Using radial grid of 1261 points,  6 beta functions with:
                l(1) =   0
                l(2) =   0
                l(3) =   1
                l(4) =   1
                l(5) =   2
                l(6) =   3

     PseudoPot. # 2 for Dy read from file:
     /home/cwx6513/pp.La/Dy.UPF
     MD5 check sum: 9597327bec62616a94a14d07f3fd9936
     Pseudo is Norm-conserving, Zval = 20.0
     Generated in analytical, separable form
     Using radial grid of 1265 points,  6 beta functions with:
                l(1) =   0
                l(2) =   0
                l(3) =   1
                l(4) =   1
                l(5) =   2
                l(6) =   3

     atomic species   valence    mass     pseudopotential
        Cr            17.00    51.99610     Eu( 1.00)
        Si            20.00    28.08550     Dy( 1.00)

     48 Sym. Ops., with inversion, found (24 have fractional translation)

   Cartesian axes

     site n.     atom                  positions (alat units)
         1           Cr  tau(   1) = (   0.0000000   0.5882205   0.2941103  )
         2           Cr  tau(   2) = (   0.0000000   0.5882205   0.8823308  )
         3           Cr  tau(   3) = (   0.5882205   0.8823308   0.0000000  )
         4           Cr  tau(   4) = (   0.5882205   0.2941103   0.0000000  )
         5           Cr  tau(   5) = (   0.8823308   0.0000000   0.5882205  )
         6           Cr  tau(   6) = (   0.2941103   0.0000000   0.5882205  )
         7           Si  tau(   7) = (   0.5882205   0.5882205   0.5882205  )
         8           Si  tau(   8) = (   0.0000000   0.0000000   0.0000000  )

     number of k points=    48  gaussian smearing, width (Ry)=  0.1000
                       cart. coord. in units 2pi/alat
        k(    1) = (   0.0000000   0.0000000   0.0000000), wk =   0.0095238
        k(    2) = (   0.0000000   0.0000000   0.1214316), wk =   0.0190476
        k(    3) = (   0.0000000   0.0000000   0.2428632), wk =   0.0190476
        k(    4) = (   0.0000000   0.0000000   0.3642949), wk =   0.0190476
        k(    5) = (   0.0000000   0.1416702   0.0000000), wk =   0.0190476
        k(    6) = (   0.0000000   0.1416702   0.1214316), wk =   0.0380952
        k(    7) = (   0.0000000   0.1416702   0.2428632), wk =   0.0380952
        k(    8) = (   0.0000000   0.1416702   0.3642949), wk =   0.0380952
        k(    9) = (   0.0000000   0.2833405   0.0000000), wk =   0.0190476
        k(   10) = (   0.0000000   0.2833405   0.1214316), wk =   0.0380952
        k(   11) = (   0.0000000   0.2833405   0.2428632), wk =   0.0380952
        k(   12) = (   0.0000000   0.2833405   0.3642949), wk =   0.0380952
        k(   13) = (   0.0000000  -0.4250107   0.0000000), wk =   0.0095238
        k(   14) = (   0.0000000  -0.4250107   0.1214316), wk =   0.0190476
        k(   15) = (   0.0000000  -0.4250107   0.2428632), wk =   0.0190476
        k(   16) = (   0.0000000  -0.4250107   0.3642949), wk =   0.0190476
        k(   17) = (   0.1700043   0.0000000   0.0000000), wk =   0.0190476
        k(   18) = (   0.1700043   0.0000000   0.1214316), wk =   0.0380952
        k(   19) = (   0.1700043   0.0000000   0.2428632), wk =   0.0380952
        k(   20) = (   0.1700043   0.0000000   0.3642949), wk =   0.0380952
        k(   21) = (   0.1700043   0.1416702   0.0000000), wk =   0.0380952
        k(   22) = (   0.1700043   0.1416702   0.1214316), wk =   0.0761905
        k(   23) = (   0.1700043   0.1416702   0.2428632), wk =   0.0761905
        k(   24) = (   0.1700043   0.1416702   0.3642949), wk =   0.0761905
        k(   25) = (   0.1700043   0.2833405   0.0000000), wk =   0.0380952
        k(   26) = (   0.1700043   0.2833405   0.1214316), wk =   0.0761905
        k(   27) = (   0.1700043   0.2833405   0.2428632), wk =   0.0761905
        k(   28) = (   0.1700043   0.2833405   0.3642949), wk =   0.0761905
        k(   29) = (   0.1700043  -0.4250107   0.0000000), wk =   0.0190476
        k(   30) = (   0.1700043  -0.4250107   0.1214316), wk =   0.0380952
        k(   31) = (   0.1700043  -0.4250107   0.2428632), wk =   0.0380952
        k(   32) = (   0.1700043  -0.4250107   0.3642949), wk =   0.0380952
        k(   33) = (   0.3400085   0.0000000   0.0000000), wk =   0.0190476
        k(   34) = (   0.3400085   0.0000000   0.1214316), wk =   0.0380952
        k(   35) = (   0.3400085   0.0000000   0.2428632), wk =   0.0380952
        k(   36) = (   0.3400085   0.0000000   0.3642949), wk =   0.0380952
        k(   37) = (   0.3400085   0.1416702   0.0000000), wk =   0.0380952
        k(   38) = (   0.3400085   0.1416702   0.1214316), wk =   0.0761905
        k(   39) = (   0.3400085   0.1416702   0.2428632), wk =   0.0761905
        k(   40) = (   0.3400085   0.1416702   0.3642949), wk =   0.0761905
        k(   41) = (   0.3400085   0.2833405   0.0000000), wk =   0.0380952
        k(   42) = (   0.3400085   0.2833405   0.1214316), wk =   0.0761905
        k(   43) = (   0.3400085   0.2833405   0.2428632), wk =   0.0761905
        k(   44) = (   0.3400085   0.2833405   0.3642949), wk =   0.0761905
        k(   45) = (   0.3400085  -0.4250107   0.0000000), wk =   0.0190476
        k(   46) = (   0.3400085  -0.4250107   0.1214316), wk =   0.0380952
        k(   47) = (   0.3400085  -0.4250107   0.2428632), wk =   0.0380952
        k(   48) = (   0.3400085  -0.4250107   0.3642949), wk =   0.0380952

     Largest allocated arrays     est. size (Mb)     dimensions
     Largest temporary arrays     est. size (Mb)     dimensions

     Initial potential from superposition of free atoms

     Starting from uniform charge
     Starting wfc are    0 randomized atomic wfcs

     Writing output data file Prototype-La-cP8-Cr3Si.save

     Self-consistent Calculation

[...]

     iteration # 10     ecut=    40.00 Ry     beta=0.70
     CG style diagonalization
     c_bands:  1 eigenvalues not converged
     ethr =  5.09E-08,  avg # of iterations =  4.3

     total energy              =   -1571.81722397 Ry
     Harris-Foulkes estimate   =   -1571.81730081 Ry
     estimated scf accuracy    <       0.00014027 Ry

     iteration # 11     ecut=    40.00 Ry     beta=0.70
     CG style diagonalization
     ethr =  5.09E-08,  avg # of iterations =  3.6

     End of self-consistent calculation

[...]

          k = 0.3400-0.4250 0.3643 (  4322 PWs)   bands (ev):

   -56.6904 -56.6904 -37.2475 -37.2367 -37.2072 -37.2072 -37.1781 -37.1670
   -23.6171 -23.6171 -23.6159 -23.6158 -23.6128 -23.6127 -10.5766 -10.4938
   -10.2753 -10.2730 -10.1197 -10.1178 -10.0711 -10.0094  -9.9139  -9.8914
    -9.8580  -9.8411  -9.8036  -9.7936  -9.7730  -9.7692  -9.7595  -9.7589
    16.7610  16.7749  16.8278  16.8590  16.8819  16.8847  16.9306  16.9392
    16.9700  16.9749  19.2796  19.2798  20.5303  20.5774  20.8974  20.9207
    21.0113  21.0358  21.2115  21.3960  21.6228  21.6612  21.9250  21.9682
    22.1639  22.2544  22.7601  22.8152  23.1654  23.2917  23.4140  23.4432
    23.6611  23.7816  24.3037  24.4430  24.5738  24.6126  24.6453  24.7205
    25.5374  25.5744  26.2969  26.4992  26.7188  27.0383  27.7236  27.8078
    33.5870  33.5901  34.9648  35.2397  35.8057

     the Fermi energy is    25.6951 ev

!    total energy              =   -1571.81725519 Ry
     Harris-Foulkes estimate   =   -1571.81725573 Ry
     estimated scf accuracy    <       0.00000060 Ry

     The total energy is the sum of the following terms:

     one-electron contribution =    -155.31386804 Ry
     hartree contribution      =     192.49328857 Ry
     xc contribution           =    -157.77016533 Ry
     ewald contribution        =   -1450.75432484 Ry
     smearing contrib. (-TS)   =      -0.47218554 Ry

     convergence has been achieved in  11 iterations

     Forces acting on atoms (Ry/au):

     atom    1 type  1   force =     0.00000000    0.00000000    0.00000000
     atom    2 type  1   force =     0.00000000    0.00000000    0.00000000
     atom    3 type  1   force =     0.00000000    0.00000000    0.00000000
     atom    4 type  1   force =     0.00000000    0.00000000    0.00000000
     atom    5 type  1   force =     0.00000000    0.00000000    0.00000000
     atom    6 type  1   force =     0.00000000    0.00000000    0.00000000
     atom    7 type  2   force =     0.00000000    0.00000000    0.00000000
     atom    8 type  2   force =     0.00000000    0.00000000    0.00000000

     Total force =     0.000000     Total SCF correction =     0.000000

     entering subroutine stress ...

          total   stress  (Ry/bohr**3)                   (kbar)     P=  -14.09
  -0.00009577   0.00000000   0.00000000        -14.09      0.00      0.00
   0.00000000  -0.00009577   0.00000000          0.00    -14.09      0.00
   0.00000000   0.00000000  -0.00009577          0.00      0.00    -14.09

     Writing output data file Prototype-La-cP8-Cr3Si.save

     General routines

     Parallel routines

   This run was terminated on:  21:31:40  22Mar2018

   JOB DONE.