     Program PWSCF v.5.0.2 starts on 22Mar2018 at 17:31:10

     Current dimensions of program PWSCF are:
     Max number of different atomic species (ntypx) = 10
     Max number of k-points (npk) =  40000
     Max angular momentum in pseudopotentials (lmaxx) =  3
     Waiting for input...
     Reading input from standard input

     Subspace diagonalization in iterative solution of the eigenvalue problem:
     a serial algorithm will be used

     bravais-lattice index     =            0
     lattice parameter (alat)  =       7.0151  a.u.
     unit-cell volume          =     862.2778 (a.u.)^3
     number of atoms/cell      =           12
     number of atomic types    =            2
     number of electrons       =       200.00
     number of Kohn-Sham states=          120
     kinetic-energy cutoff     =      40.0000  Ry
     charge density cutoff     =     160.0000  Ry
     convergence threshold     =      1.0E-04
     mixing beta               =       0.7000
     number of iterations used =            8  plain     mixing
     Exchange-correlation      = SLA-PZ-NOGX-NOGC ( 1 1 0 0 0)
     EXX-fraction              =        0.00
     nstep                     =           50

     celldm(1)=   7.015105  celldm(2)=   0.000000  celldm(3)=   0.000000
     celldm(4)=   0.000000  celldm(5)=   0.000000  celldm(6)=   0.000000

     crystal axes: (cart. coord. in units of alat)
               a(1) = (   1.000000   0.000000   0.000000 )
               a(2) = (   0.000000   1.315963   0.000000 )
               a(3) = (   0.000000   0.000000   1.898020 )

     reciprocal axes: (cart. coord. in units 2 pi/alat)
               b(1) = (  1.000000  0.000000  0.000000 )
               b(2) = (  0.000000  0.759900  0.000000 )
               b(3) = (  0.000000  0.000000  0.526865 )

     PseudoPot. # 1 for Nd read from file:
     /home/cwx6513/pp.La/Nd.UPF
     MD5 check sum: c66c5b6abe7b5840ced9b1e244e3bed6
     Pseudo is Norm-conserving, Zval = 14.0
     Generated in analytical, separable form
     Using radial grid of 1257 points,  6 beta functions with:
                l(1) =   0
                l(2) =   0
                l(3) =   1
                l(4) =   1
                l(5) =   2
                l(6) =   3

     PseudoPot. # 2 for Er read from file:
     /home/cwx6513/pp.La/Er.UPF
     MD5 check sum: e152ae21b84514339d8526f066caf99b
     Pseudo is Norm-conserving, Zval = 22.0
     Generated in analytical, separable form
     Using radial grid of 1267 points,  6 beta functions with:
                l(1) =   0
                l(2) =   0
                l(3) =   1
                l(4) =   1
                l(5) =   2
                l(6) =   3

     atomic species   valence    mass     pseudopotential
        Co            14.00    58.93320     Nd( 1.00)
        Si            22.00    28.08550     Er( 1.00)

      8 Sym. Ops., with inversion, found ( 6 have fractional translation)

   Cartesian axes

     site n.     atom                  positions (alat units)
         1           Co  tau(   1) = (   0.7500000   1.0875135   0.8270358  )
         2           Co  tau(   2) = (   0.2500000   0.2284499   1.0709846  )
         3           Co  tau(   3) = (   0.7500000   0.4295318   0.1219744  )
         4           Co  tau(   4) = (   0.2500000   0.8864316   1.7760460  )
         5           Co  tau(   5) = (   0.2500000   0.7067855   0.5358966  )
         6           Co  tau(   6) = (   0.7500000   0.6091779   1.3621238  )
         7           Co  tau(   7) = (   0.2500000   0.0488038   0.4131136  )
         8           Co  tau(   8) = (   0.7500000   1.2671596   1.4849068  )
         9           Si  tau(   9) = (   0.2500000   0.2669484   1.6960710  )
        10           Si  tau(  10) = (   0.7500000   1.0490149   0.2019494  )
        11           Si  tau(  11) = (   0.2500000   0.9249301   1.1509596  )
        12           Si  tau(  12) = (   0.7500000   0.3910333   0.7470608  )

     number of k points=    12  gaussian smearing, width (Ry)=  0.1000
                       cart. coord. in units 2pi/alat
        k(    1) = (   0.0000000   0.0000000   0.0000000), wk =   0.0833333
        k(    2) = (   0.0000000   0.0000000   0.1317162), wk =   0.1666667
        k(    3) = (   0.0000000   0.0000000  -0.2634324), wk =   0.0833333
        k(    4) = (   0.0000000   0.2532999   0.0000000), wk =   0.1666667
        k(    5) = (   0.0000000   0.2532999   0.1317162), wk =   0.3333333
        k(    6) = (   0.0000000   0.2532999  -0.2634324), wk =   0.1666667
        k(    7) = (  -0.5000000   0.0000000   0.0000000), wk =   0.0833333
        k(    8) = (  -0.5000000   0.0000000   0.1317162), wk =   0.1666667
        k(    9) = (  -0.5000000   0.0000000  -0.2634324), wk =   0.0833333
        k(   10) = (  -0.5000000   0.2532999   0.0000000), wk =   0.1666667
        k(   11) = (  -0.5000000   0.2532999   0.1317162), wk =   0.3333333
        k(   12) = (  -0.5000000   0.2532999  -0.2634324), wk =   0.1666667

     Largest allocated arrays     est. size (Mb)     dimensions
     Largest temporary arrays     est. size (Mb)     dimensions

     Initial potential from superposition of free atoms

     Starting from uniform charge
     Starting wfc are    0 randomized atomic wfcs

     Self-consistent Calculation

     iteration #  1     ecut=    40.00 Ry     beta=0.70
     CG style diagonalization
     c_bands:  5 eigenvalues not converged
     c_bands:  5 eigenvalues not converged
     c_bands:  1 eigenvalues not converged
     c_bands:  1 eigenvalues not converged
     c_bands:  2 eigenvalues not converged
     ethr =  1.00E-02,  avg # of iterations = 14.6

     total energy              =   -1288.79407015 Ry
     Harris-Foulkes estimate   =   -2674.20594949 Ry
     estimated scf accuracy    <    1659.66051600 Ry

     iteration #  2     ecut=    40.00 Ry     beta=0.70
     CG style diagonalization
     ethr =  1.00E-02,  avg # of iterations = 17.1

[...]

     End of self-consistent calculation

          k = 0.0000 0.0000 0.0000 (  3675 PWs)   bands (ev):

   -54.3336 -54.3242 -54.3206 -54.3045 -16.8751 -16.8641 -16.8285 -16.8256
   -16.8101 -16.7977 -16.7941 -16.7932 -16.6173 -16.5818 -16.5252 -16.4877
    -2.1666  -0.9839  -0.6132  -0.1019   0.2000   0.5209   0.5714   0.7397
    15.8731  16.5628  17.3303  17.4191  17.5517  17.6827  18.2370  18.6632
    19.0054  19.3753  19.3839  19.6988  19.8234  20.5151  20.5300  21.1033
    21.1849  21.4053  21.8042  22.4152  22.7091  23.2959  23.7601  24.2863
    27.4805  28.0714  28.3164  28.4463  28.4991  28.6887  28.7134  28.8116
    29.1254  29.3381  29.6154  29.9057  30.1231  30.7716  30.8427  30.8888
    31.3013  31.4174  31.4688  31.5124  35.7854  37.3341  38.8438  39.0775
    39.7781  39.8579  40.9730  41.6694  41.8393  42.1996  42.3040  42.5209
    42.5757  42.8509  42.9568  43.1622  43.4226  44.2385  44.7926  45.2244
    45.2526  46.8725  46.9728  47.3380  47.4436  47.9413  48.3305  49.1777
    49.3575  49.6562  49.8043  49.8105  50.3180  50.3638  51.0063  51.6609
    52.1476  52.1717  52.2530  52.6266  53.1929  53.2092  53.5714  54.1534
    54.8316  55.5326  55.6185  56.0017  56.1930  56.6577  57.0985  57.1707

[...]

          k =-0.5000 0.0000 0.0000 (  3722 PWs)   bands (ev):

[...]

     the Fermi energy is    49.7175 ev

!    total energy              =   -2186.07256532 Ry
     Harris-Foulkes estimate   =   -2186.07257637 Ry
     estimated scf accuracy    <       0.00000886 Ry

     The total energy is the sum of the following terms:

     one-electron contribution =     221.95676943 Ry
     hartree contribution      =     193.68306144 Ry
     xc contribution           =    -233.93913542 Ry
     ewald contribution        =   -2367.42874471 Ry
     smearing contrib. (-TS)   =      -0.34451606 Ry

     convergence has been achieved in  11 iterations

     Forces acting on atoms (Ry/au):

     atom    1 type  1   force =     0.00000000   -0.05039376   -0.04015795
     atom    2 type  1   force =     0.00000000    0.05039376    0.04015795
     atom    3 type  1   force =     0.00000000   -0.05039376    0.04015795
     atom    4 type  1   force =     0.00000000    0.05039376   -0.04015795
     atom    5 type  1   force =     0.00000000    0.19720970   -0.31271343
     atom    6 type  1   force =     0.00000000   -0.19720970    0.31271343
     atom    7 type  1   force =     0.00000000    0.19720970    0.31271343
     atom    8 type  1   force =     0.00000000   -0.19720970   -0.31271343
     atom    9 type  2   force =     0.00000000   -0.18818510    0.00871869
     atom   10 type  2   force =     0.00000000    0.18818510   -0.00871869
     atom   11 type  2   force =     0.00000000   -0.18818510   -0.00871869
     atom   12 type  2   force =     0.00000000    0.18818510    0.00871869

     Total force =     0.839817     Total SCF correction =     0.000000

     entering subroutine stress ...

          total   stress  (Ry/bohr**3)                   (kbar)     P= 6875.05
   0.05050578   0.00000000   0.00000000       7429.66      0.00      0.00
   0.00000000   0.04299654   0.00000000          0.00   6325.01      0.00
   0.00000000   0.00000000   0.04670468          0.00      0.00   6870.49

     BFGS Geometry Optimization

     number of scf cycles    =   1
     number of bfgs steps    =   0

     enthalpy new            =   -2186.0725653248 Ry

     new trust radius        =       0.5000000000 bohr
     new conv_thr            =       0.0001000000 Ry

     new unit-cell volume =   1082.51181 a.u.^3 (   160.41170 Ang^3 )

CELL_PARAMETERS (alat=  7.01510508)
   1.085136619   0.000000000   0.000000000
   0.000000000   1.411342364   0.000000000
   0.000000000   0.000000000   2.047449986

ATOMIC_POSITIONS (crystal)
Co       0.750000000   0.826032927   0.435532637
Co       0.250000000   0.173967073   0.564467363
Co       0.750000000   0.326032927   0.064467363
Co       0.250000000   0.673967073   0.935532637
Co       0.250000000   0.538526408   0.280761395
Co       0.750000000   0.461473592   0.719238605
Co       0.250000000   0.038526408   0.219238605
Co       0.750000000   0.961473592   0.780761395
Si       0.250000000   0.201479507   0.893644152
Si       0.750000000   0.798520493   0.106355848
Si       0.250000000   0.701479507   0.606355848
Si       0.750000000   0.298520493   0.393644152

     Writing output data file Prototype-La-oP12-Co2Si.save
     NEW-OLD atomic charge density approx. for the potential
     NEW k-points:
        k(    1) = (   0.0000000   0.0000000   0.0000000), wk =   0.0833333
        k(    2) = (   0.0000000   0.0000000   0.1221031), wk =   0.1666667
        k(    3) = (   0.0000000   0.0000000  -0.2442062), wk =   0.0833333
        k(    4) = (   0.0000000   0.2361818   0.0000000), wk =   0.1666667
        k(    5) = (   0.0000000   0.2361818   0.1221031), wk =   0.3333333
        k(    6) = (   0.0000000   0.2361818  -0.2442062), wk =   0.1666667
        k(    7) = (  -0.4607715   0.0000000   0.0000000), wk =   0.0833333
        k(    8) = (  -0.4607715   0.0000000   0.1221031), wk =   0.1666667
        k(    9) = (  -0.4607715   0.0000000  -0.2442062), wk =   0.0833333
        k(   10) = (  -0.4607715   0.2361818   0.0000000), wk =   0.1666667
        k(   11) = (  -0.4607715   0.2361818   0.1221031), wk =   0.3333333
        k(   12) = (  -0.4607715   0.2361818  -0.2442062), wk =   0.1666667

[...]

     enthalpy old            =   -2186.0725653248 Ry
     enthalpy new            =   -2192.6894813911 Ry

     CASE: enthalpy_new < enthalpy_old

     small trust_radius: resetting bfgs history

     new trust radius        =       2.9968185890 bohr
     new conv_thr            =       0.0001000000 Ry

[...]

          total   stress  (Ry/bohr**3)                   (kbar)     P=-2318.20
  -0.01705689   0.00000000   0.00000000      -2509.16      0.00      0.00
   0.00000000  -0.01449113   0.00000000          0.00  -2131.72      0.00
   0.00000000   0.00000000  -0.01572830          0.00      0.00  -2313.71

     number of scf cycles    =   3
     number of bfgs steps    =   2

     enthalpy old            =   -2192.6894813911 Ry
     enthalpy new            =   -2174.1171064369 Ry

     CASE: enthalpy_new > enthalpy_old

     new trust radius        =       0.9564554989 bohr

     trust_radius < trust_radius_min

     resetting bfgs history

     Message from routine bfgs:
     history already reset at previous step: stopping
     new conv_thr            =       0.0001000000 Ry

     new unit-cell volume =   1278.21676 a.u.^3 (   189.41218 Ang^3 )

[...]

ATOMIC_POSITIONS (crystal)
Co       0.750000000   0.825513622   0.435479066
Co       0.250000000   0.174486378   0.564520934
Co       0.750000000   0.325513622   0.064520934
Co       0.250000000   0.674486378   0.935479066
Co       0.250000000   0.539753112   0.279600300
Co       0.750000000   0.460246888   0.720399700
Co       0.250000000   0.039753112   0.220399700
Co       0.750000000   0.960246888   0.779600300
Si       0.250000000   0.200144419   0.893781219
Si       0.750000000   0.799855581   0.106218781
Si       0.250000000   0.700144419   0.606218781
Si       0.750000000   0.299855581   0.393781219

     Writing output data file Prototype-La-oP12-Co2Si.save
     NEW-OLD atomic charge density approx. for the potential
     NEW k-points:
        k(    1) = (   0.0000000   0.0000000   0.0000000), wk =   0.0833333
        k(    2) = (   0.0000000   0.0000000   0.1154977), wk =   0.1666667
        k(    3) = (   0.0000000   0.0000000  -0.2309954), wk =   0.0833333
        k(    4) = (   0.0000000   0.2253473   0.0000000), wk =   0.1666667
        k(    5) = (   0.0000000   0.2253473   0.1154977), wk =   0.3333333
        k(    6) = (   0.0000000   0.2253473  -0.2309954), wk =   0.1666667
        k(    7) = (  -0.4323754   0.0000000   0.0000000), wk =   0.0833333
        k(    8) = (  -0.4323754   0.0000000   0.1154977), wk =   0.1666667
        k(    9) = (  -0.4323754   0.0000000  -0.2309954), wk =   0.0833333
        k(   10) = (  -0.4323754   0.2253473   0.0000000), wk =   0.1666667
        k(   11) = (  -0.4323754   0.2253473   0.1154977), wk =   0.3333333
        k(   12) = (  -0.4323754   0.2253473  -0.2309954), wk =   0.1666667

[...]

     The maximum number of steps has been reached.

     End of BFGS Geometry Optimization
Begin final coordinates
     new unit-cell volume =   1278.21676 a.u.^3 (   189.41218 Ang^3 )

CELL_PARAMETERS (alat=  7.01510508)
   1.156402425   0.000000000   0.000000000
   0.000000000   1.479198274   0.000000000
   0.000000000   0.000000000   2.164544811

ATOMIC_POSITIONS (crystal)
Co       0.750000000   0.825513622   0.435479066
Co       0.250000000   0.174486378   0.564520934
Co       0.750000000   0.325513622   0.064520934
Co       0.250000000   0.674486378   0.935479066
Co       0.250000000   0.539753112   0.279600300
Co       0.750000000   0.460246888   0.720399700
Co       0.250000000   0.039753112   0.220399700
Co       0.750000000   0.960246888   0.779600300
Si       0.250000000   0.200144419   0.893781219
Si       0.750000000   0.799855581   0.106218781
Si       0.250000000   0.700144419   0.606218781
Si       0.750000000   0.299855581   0.393781219
End final coordinates

     A final scf calculation at the relaxed structure.
     The G-vectors are recalculated for the final unit cell
     Results may differ from those at the preceding step.

     bravais-lattice index     =            0
     lattice parameter (alat)  =       7.0151  a.u.
     unit-cell volume          =    1278.2168 (a.u.)^3
     number of atoms/cell      =           12
     number of atomic types    =            2
     number of electrons       =       200.00
     number of Kohn-Sham states=          120
     kinetic-energy cutoff     =      40.0000  Ry
     charge density cutoff     =     160.0000  Ry
     convergence threshold     =      1.0E-04
     mixing beta               =       0.7000
     number of iterations used =            8  plain     mixing
     Exchange-correlation      = SLA-PZ-NOGX-NOGC ( 1 1 0 0 0)
     EXX-fraction              =        0.00

     celldm(1)=   7.015105  celldm(2)=   0.000000  celldm(3)=   0.000000
     celldm(4)=   0.000000  celldm(5)=   0.000000  celldm(6)=   0.000000

     crystal axes: (cart. coord. in units of alat)
               a(1) = (   1.156402   0.000000   0.000000 )
               a(2) = (   0.000000   1.479198   0.000000 )
               a(3) = (   0.000000   0.000000   2.164545 )

     reciprocal axes: (cart. coord. in units 2 pi/alat)
               b(1) = (  0.864751  0.000000  0.000000 )
               b(2) = (  0.000000  0.676042  0.000000 )
               b(3) = (  0.000000  0.000000  0.461991 )

     PseudoPot. # 1 for Nd read from file:
     /home/cwx6513/pp.La/Nd.UPF
     MD5 check sum: c66c5b6abe7b5840ced9b1e244e3bed6
     Pseudo is Norm-conserving, Zval = 14.0
     Generated in analytical, separable form
     Using radial grid of 1257 points,  6 beta functions with:
                l(1) =   0
                l(2) =   0
                l(3) =   1
                l(4) =   1
                l(5) =   2
                l(6) =   3

     PseudoPot. # 2 for Er read from file:
     /home/cwx6513/pp.La/Er.UPF
     MD5 check sum: e152ae21b84514339d8526f066caf99b
     Pseudo is Norm-conserving, Zval = 22.0
     Generated in analytical, separable form
     Using radial grid of 1267 points,  6 beta functions with:
                l(1) =   0
                l(2) =   0
                l(3) =   1
                l(4) =   1
                l(5) =   2
                l(6) =   3

     atomic species   valence    mass     pseudopotential
        Co            14.00    58.93320     Nd( 1.00)
        Si            22.00    28.08550     Er( 1.00)

      8 Sym. Ops., with inversion, found ( 6 have fractional translation)

   Cartesian axes

     site n.     atom                  positions (alat units)
         1           Co  tau(   1) = (   0.8673018   1.2210983   0.9426140  )
         2           Co  tau(   2) = (   0.2891006   0.2580999   1.2219309  )
         3           Co  tau(   3) = (   0.8673018   0.4814992   0.1396585  )
         4           Co  tau(   4) = (   0.2891006   0.9976991   2.0248864  )
         5           Co  tau(   5) = (   0.2891006   0.7984019   0.6052074  )
         6           Co  tau(   6) = (   0.8673018   0.6807964   1.5593374  )
         7           Co  tau(   7) = (   0.2891006   0.0588027   0.4770650  )
         8           Co  tau(   8) = (   0.8673018   1.4203955   1.6874798  )
         9           Si  tau(   9) = (   0.2891006   0.2960533   1.9346295  )
        10           Si  tau(  10) = (   0.8673018   1.1831450   0.2299153  )
        11           Si  tau(  11) = (   0.2891006   1.0356524   1.3121877  )
        12           Si  tau(  12) = (   0.8673018   0.4435459   0.8523571  )

     number of k points=    12  gaussian smearing, width (Ry)=  0.1000
                       cart. coord. in units 2pi/alat
        k(    1) = (   0.0000000   0.0000000   0.0000000), wk =   0.0833333
        k(    2) = (   0.0000000   0.0000000   0.1154977), wk =   0.1666667
        k(    3) = (   0.0000000   0.0000000  -0.2309954), wk =   0.0833333
        k(    4) = (   0.0000000   0.2253473   0.0000000), wk =   0.1666667
        k(    5) = (   0.0000000   0.2253473   0.1154977), wk =   0.3333333
        k(    6) = (   0.0000000   0.2253473  -0.2309954), wk =   0.1666667
        k(    7) = (  -0.4323754   0.0000000   0.0000000), wk =   0.0833333
        k(    8) = (  -0.4323754   0.0000000   0.1154977), wk =   0.1666667
        k(    9) = (  -0.4323754   0.0000000  -0.2309954), wk =   0.0833333
        k(   10) = (  -0.4323754   0.2253473   0.0000000), wk =   0.1666667
        k(   11) = (  -0.4323754   0.2253473   0.1154977), wk =   0.3333333
        k(   12) = (  -0.4323754   0.2253473  -0.2309954), wk =   0.1666667

     Largest allocated arrays     est. size (Mb)     dimensions
     Largest temporary arrays     est. size (Mb)     dimensions

     Initial potential from superposition of free atoms

     Starting from uniform charge
     Starting wfc are    0 randomized atomic wfcs

     Writing output data file Prototype-La-oP12-Co2Si.save

     Self-consistent Calculation

[...]

     iteration #  7     ecut=    40.00 Ry     beta=0.70
     CG style diagonalization
     ethr =  4.55E-04,  avg # of iterations =  4.1

[...]

     total energy              =   -2197.67454144 Ry
     Harris-Foulkes estimate   =   -2197.67490823 Ry
     estimated scf accuracy    <       0.00081112 Ry

     iteration # 11     ecut=    40.00 Ry     beta=0.70
     CG style diagonalization
     c_bands:  1 eigenvalues not converged
     ethr =  4.06E-07,  avg # of iterations =  3.6

     End of self-consistent calculation

[...]

          k = 0.0000 0.2253-0.2310 (  5448 PWs)   bands (ev):

[...]

          k =-0.4324 0.2253-0.2310 (  5480 PWs)   bands (ev):

   -69.0122 -69.0122 -68.9960 -68.9960 -31.0842 -31.0842 -31.0818 -31.0818
   -31.0637 -31.0637 -31.0612 -31.0612 -31.0061 -31.0061 -30.9953 -30.9953
   -15.4614 -15.4614 -15.2804 -15.2804 -15.1708 -15.1708 -15.1333 -15.1333
     4.4766   4.4766   4.8153   4.8153   4.9306   4.9306   5.1014   5.1014
     5.1611   5.1611   5.9243   5.9243   6.1904   6.1904   6.4187   6.4187
     6.6515   6.6515   6.6641   6.6641   6.9313   6.9313   7.0557   7.0557
    15.2732  15.2732  15.2843  15.2843  15.3752  15.3752  15.4422  15.4422
    15.5946  15.5946  15.6481  15.6480  15.7611  15.7611  15.8020  15.8020
    15.9148  15.9148  15.9201  15.9201  23.0850  23.0850  23.8648  23.8648
    26.7128  26.7128  26.8415  26.8415  27.4492  27.4492  27.9378  27.9378
    28.0711  28.0711  28.8248  28.8248  28.8315  28.8315  29.1730  29.1730
    29.6531  29.6531  30.1084  30.1084  30.5324  30.5324  31.5392  31.5392
    31.8583  31.8583  32.0637  32.0637  32.8093  32.8093  33.4561  33.4561
    33.6106  33.6106  33.7916  33.7916  34.3677  34.3677  35.1710  35.1711
    36.8612  36.8613  37.5419  37.5419  38.6868  38.6868  39.7398  39.7404

     the Fermi energy is    32.7174 ev

!    total energy              =   -2197.67473921 Ry
     Harris-Foulkes estimate   =   -2197.67477057 Ry
     estimated scf accuracy    <       0.00003590 Ry

     The total energy is the sum of the following terms:

     one-electron contribution =    -173.37944438 Ry
     hartree contribution      =     276.20205640 Ry
     xc contribution           =    -222.37937493 Ry
     ewald contribution        =   -2077.59815371 Ry
     smearing contrib. (-TS)   =      -0.51982258 Ry

     convergence has been achieved in  11 iterations

     Forces acting on atoms (Ry/au):

     atom    1 type  1   force =     0.00000000   -0.04996594    0.00048114
     atom    2 type  1   force =     0.00000000    0.04996594   -0.00048114
     atom    3 type  1   force =     0.00000000   -0.04996594   -0.00048114
     atom    4 type  1   force =     0.00000000    0.04996594    0.00048114
     atom    5 type  1   force =     0.00000000    0.07342549   -0.11287040
     atom    6 type  1   force =     0.00000000   -0.07342549    0.11287040
     atom    7 type  1   force =     0.00000000    0.07342549    0.11287040
     atom    8 type  1   force =     0.00000000   -0.07342549   -0.11287040
     atom    9 type  2   force =     0.00000000   -0.09033787    0.00341923
     atom   10 type  2   force =     0.00000000    0.09033787   -0.00341923
     atom   11 type  2   force =     0.00000000   -0.09033787   -0.00341923
     atom   12 type  2   force =     0.00000000    0.09033787    0.00341923

     Total force =     0.339414     Total SCF correction =     0.000000

     entering subroutine stress ...

          total   stress  (Ry/bohr**3)                   (kbar)     P= 1260.53
   0.00937742   0.00000000   0.00000000       1379.47      0.00      0.00
   0.00000000   0.00777346   0.00000000          0.00   1143.52      0.00
   0.00000000   0.00000000   0.00855586          0.00      0.00   1258.61

     Writing output data file Prototype-La-oP12-Co2Si.save

     General routines

     Parallel routines

   This run was terminated on:  17:52:40  22Mar2018

   JOB DONE.