     Program PWSCF v.5.0.2 starts on 22Mar2018 at 17:31:10

     Current dimensions of program PWSCF are:
     Max number of different atomic species (ntypx) = 10
     Max number of k-points (npk) =  40000
     Max angular momentum in pseudopotentials (lmaxx) =  3
     Waiting for input...
     Reading input from standard input

     Subspace diagonalization in iterative solution of the eigenvalue problem:
     a serial algorithm will be used

     bravais-lattice index     =            0
     lattice parameter (alat)  =      12.0168  a.u.
     unit-cell volume          =    1187.3413 (a.u.)^3
     number of atoms/cell      =            8
     number of atomic types    =            2
     number of electrons       =       128.00
     number of Kohn-Sham states=           77
     kinetic-energy cutoff     =      40.0000  Ry
     charge density cutoff     =     160.0000  Ry
     convergence threshold     =      1.0E-04
     mixing beta               =       0.7000
     number of iterations used =            8  plain     mixing
     Exchange-correlation      = SLA-PZ-NOGX-NOGC ( 1 1 0 0 0)
     EXX-fraction              =        0.00
     nstep                     =           50

     celldm(1)=  12.016801  celldm(2)=   0.000000  celldm(3)=   0.000000
     celldm(4)=   0.000000  celldm(5)=   0.000000  celldm(6)=   0.000000

     crystal axes: (cart. coord. in units of alat)
               a(1) = (   1.000000   0.000000   0.000000 )
               a(2) = (  -0.500000   0.866025   0.000000 )
               a(3) = (   0.000000   0.000000   0.790093 )

     reciprocal axes: (cart. coord. in units 2 pi/alat)
               b(1) = (  1.000000  0.577350  0.000000 )
               b(2) = (  0.000000  1.154701  0.000000 )
               b(3) = (  0.000000  0.000000  1.265674 )

     PseudoPot. # 1 for Nd read from file:
     /home/cwx6513/pp.La/Nd.UPF
     MD5 check sum: c66c5b6abe7b5840ced9b1e244e3bed6
     Pseudo is Norm-conserving, Zval = 14.0
     Generated in analytical, separable form
     Using radial grid of 1257 points,  6 beta functions with:
                l(1) =   0
                l(2) =   0
                l(3) =   1
                l(4) =   1
                l(5) =   2
                l(6) =   3

     PseudoPot. # 2 for Er read from file:
     /home/cwx6513/pp.La/Er.UPF
     MD5 check sum: e152ae21b84514339d8526f066caf99b
     Pseudo is Norm-conserving, Zval = 22.0
     Generated in analytical, separable form
     Using radial grid of 1267 points,  6 beta functions with:
                l(1) =   0
                l(2) =   0
                l(3) =   1
                l(4) =   1
                l(5) =   2
                l(6) =   3

     atomic species   valence    mass     pseudopotential
        Mg            14.00    24.30500     Nd( 1.00)
        Cd            22.00   112.41100     Er( 1.00)

     24 Sym. Ops., with inversion, found (12 have fractional translation)

   Cartesian axes

     site n.     atom                  positions (alat units)
         1           Mg  tau(   1) = (   0.2478935   0.7204716   0.1975233  )
         2           Mg  tau(   2) = (   0.7478935   0.1455538   0.5925699  )
         3           Mg  tau(   3) = (   0.2521065   0.1455538   0.5925699  )
         4           Mg  tau(   4) = (  -0.2478935   0.7204716   0.1975233  )
         5           Mg  tau(   5) = (   0.0000000   0.2911075   0.1975233  )
         6           Mg  tau(   6) = (   0.5000000   0.5749179   0.5925699  )
         7           Cd  tau(   7) = (   0.5000005   0.2886748   0.1975233  )
         8           Cd  tau(   8) = (  -0.0000005   0.5773506   0.5925699  )

     number of k points=    64  gaussian smearing, width (Ry)=  0.1000
                       cart. coord. in units 2pi/alat
        k(    1) = (   0.0000000   0.0000000   0.0000000), wk =   0.0095238
        k(    2) = (   0.0000000   0.0000000   0.1808105), wk =   0.0190476
        k(    3) = (   0.0000000   0.0000000   0.3616210), wk =   0.0190476
        k(    4) = (   0.0000000   0.0000000   0.5424315), wk =   0.0190476
        k(    5) = (   0.0000000   0.1924501   0.0000000), wk =   0.0190476
        k(    6) = (   0.0000000   0.1924501   0.1808105), wk =   0.0380952
        k(    7) = (   0.0000000   0.1924501   0.3616210), wk =   0.0380952
        k(    8) = (   0.0000000   0.1924501   0.5424315), wk =   0.0380952
        k(    9) = (   0.0000000   0.3849002   0.0000000), wk =   0.0190476
        k(   10) = (   0.0000000   0.3849002   0.1808105), wk =   0.0380952
        k(   11) = (   0.0000000   0.3849002   0.3616210), wk =   0.0380952
        k(   12) = (   0.0000000   0.3849002   0.5424315), wk =   0.0380952
        k(   13) = (   0.0000000  -0.5773503   0.0000000), wk =   0.0095238
        k(   14) = (   0.0000000  -0.5773503   0.1808105), wk =   0.0190476
        k(   15) = (   0.0000000  -0.5773503   0.3616210), wk =   0.0190476
        k(   16) = (   0.0000000  -0.5773503   0.5424315), wk =   0.0190476
        k(   17) = (   0.2000000   0.1154701   0.0000000), wk =   0.0190476
        k(   18) = (   0.2000000   0.1154701   0.1808105), wk =   0.0380952
        k(   19) = (   0.2000000   0.1154701   0.3616210), wk =   0.0380952
        k(   20) = (   0.2000000   0.1154701   0.5424315), wk =   0.0380952
        k(   21) = (   0.2000000   0.3079201   0.0000000), wk =   0.0190476
        k(   22) = (   0.2000000   0.3079201   0.1808105), wk =   0.0380952
        k(   23) = (   0.2000000   0.3079201   0.3616210), wk =   0.0380952
        k(   24) = (   0.2000000   0.3079201   0.5424315), wk =   0.0380952
        k(   25) = (   0.2000000   0.5003702   0.0000000), wk =   0.0190476
        k(   26) = (   0.2000000   0.5003702   0.1808105), wk =   0.0380952
        k(   27) = (   0.2000000   0.5003702   0.3616210), wk =   0.0380952
        k(   28) = (   0.2000000   0.5003702   0.5424315), wk =   0.0380952
        k(   29) = (   0.2000000  -0.4618802   0.0000000), wk =   0.0190476
        k(   30) = (   0.2000000  -0.4618802   0.1808105), wk =   0.0380952
        k(   31) = (   0.2000000  -0.4618802   0.3616210), wk =   0.0380952
        k(   32) = (   0.2000000  -0.4618802   0.5424315), wk =   0.0380952
        k(   33) = (   0.2000000  -0.2694301   0.0000000), wk =   0.0190476
        k(   34) = (   0.2000000  -0.2694301   0.1808105), wk =   0.0380952
        k(   35) = (   0.2000000  -0.2694301   0.3616210), wk =   0.0380952
        k(   36) = (   0.2000000  -0.2694301   0.5424315), wk =   0.0380952
        k(   37) = (   0.2000000  -0.0769800   0.0000000), wk =   0.0190476
        k(   38) = (   0.2000000  -0.0769800   0.1808105), wk =   0.0380952
        k(   39) = (   0.2000000  -0.0769800   0.3616210), wk =   0.0380952
        k(   40) = (   0.2000000  -0.0769800   0.5424315), wk =   0.0380952
        k(   41) = (   0.4000000   0.2309401   0.0000000), wk =   0.0190476
        k(   42) = (   0.4000000   0.2309401   0.1808105), wk =   0.0380952
        k(   43) = (   0.4000000   0.2309401   0.3616210), wk =   0.0380952
        k(   44) = (   0.4000000   0.2309401   0.5424315), wk =   0.0380952
        k(   45) = (   0.4000000   0.4233902   0.0000000), wk =   0.0190476
        k(   46) = (   0.4000000   0.4233902   0.1808105), wk =   0.0380952
        k(   47) = (   0.4000000   0.4233902   0.3616210), wk =   0.0380952
        k(   48) = (   0.4000000   0.4233902   0.5424315), wk =   0.0380952
        k(   49) = (   0.4000000   0.6158403   0.0000000), wk =   0.0190476
        k(   50) = (   0.4000000   0.6158403   0.1808105), wk =   0.0380952
        k(   51) = (   0.4000000   0.6158403   0.3616210), wk =   0.0380952
        k(   52) = (   0.4000000   0.6158403   0.5424315), wk =   0.0380952
        k(   53) = (   0.4000000  -0.3464102   0.0000000), wk =   0.0190476
        k(   54) = (   0.4000000  -0.3464102   0.1808105), wk =   0.0380952
        k(   55) = (   0.4000000  -0.3464102   0.3616210), wk =   0.0380952
        k(   56) = (   0.4000000  -0.3464102   0.5424315), wk =   0.0380952
        k(   57) = (   0.4000000  -0.1539601   0.0000000), wk =   0.0190476
        k(   58) = (   0.4000000  -0.1539601   0.1808105), wk =   0.0380952
        k(   59) = (   0.4000000  -0.1539601   0.3616210), wk =   0.0380952
        k(   60) = (   0.4000000  -0.1539601   0.5424315), wk =   0.0380952
        k(   61) = (   0.4000000   0.0384900   0.0000000), wk =   0.0190476
        k(   62) = (   0.4000000   0.0384900   0.1808105), wk =   0.0380952
        k(   63) = (   0.4000000   0.0384900   0.3616210), wk =   0.0380952
        k(   64) = (   0.4000000   0.0384900   0.5424315), wk =   0.0380952

     Largest allocated arrays     est. size (Mb)     dimensions
     Largest temporary arrays     est. size (Mb)     dimensions

     Initial potential from superposition of free atoms

     Starting from uniform charge
     Starting wfc are    0 randomized atomic wfcs

     Self-consistent Calculation

     iteration #  1     ecut=    40.00 Ry     beta=0.70
     CG style diagonalization
     c_bands:  4 eigenvalues not converged
     ethr =  1.00E-02,  avg # of iterations = 16.3

     total energy              =    -726.89509979 Ry
     Harris-Foulkes estimate   =   -1816.13422246 Ry
     estimated scf accuracy    <    1304.53649010 Ry

[...]

     iteration #  4     ecut=    40.00 Ry     beta=0.70
     CG style diagonalization
     ethr =  1.00E-02,  avg # of iterations =  5.7

[...]

     End of self-consistent calculation

          k = 0.0000 0.0000 0.0000 (  5047 PWs)   bands (ev):

   -78.6407 -78.6350 -40.5840 -40.5777 -40.5588 -40.5588 -40.5497 -40.5497
   -25.8359 -25.6143 -25.6142 -25.5795 -25.4889 -25.4888  -4.8767  -4.7940
    -4.5167  -4.4059  -4.4058  -4.2716  -4.2715  -4.2623  -4.2623  -3.9145
    -3.5825  -3.5824  -3.3595  -3.3450  -3.3438  -3.3437  -3.3319  -3.3318
     6.3372   6.3372   6.3545   6.3676   6.3786   6.3786   6.4004   6.4004
     6.4623   6.4623  12.7916  13.6074  16.8618  17.7859  18.3690  18.3691
    18.4533  18.5552  18.5553  19.3259  19.3529  19.3530  19.5673  19.5674
    20.3016  21.0708  21.0708  21.2494  21.2494  21.3905  22.4589  22.8779
    22.8779  23.3004  23.3004  24.0198  24.0198  24.0315  24.0315  24.0785
    24.5867  25.6720  25.6722  26.1682  26.8789

[...]

     the Fermi energy is    22.2364 ev

!    total energy              =   -1321.23485735 Ry
     Harris-Foulkes estimate   =   -1321.23486423 Ry
     estimated scf accuracy    <       0.00000800 Ry

     The total energy is the sum of the following terms:

     one-electron contribution =    -245.97278876 Ry
     hartree contribution      =     200.49630867 Ry
     xc contribution           =    -133.93513949 Ry
     ewald contribution        =   -1141.33387179 Ry
     smearing contrib. (-TS)   =      -0.48936598 Ry

     convergence has been achieved in  10 iterations

     Forces acting on atoms (Ry/au):

     atom    1 type  1   force =     0.04496370    0.02595980    0.00000000
     atom    2 type  1   force =     0.04496370   -0.02595980    0.00000000
     atom    3 type  1   force =    -0.04496370   -0.02595980    0.00000000
     atom    4 type  1   force =    -0.04496370    0.02595980    0.00000000
[...]
        k(   10) = (   0.0000000   0.3963691   0.1809948), wk =   0.0380952
        k(   11) = (   0.0000000   0.3963691   0.3619895), wk =   0.0380952
        k(   12) = (   0.0000000   0.3963691   0.5429843), wk =   0.0380952
        k(   13) = (   0.0000000  -0.5945537   0.0000000), wk =   0.0095238
        k(   14) = (   0.0000000  -0.5945537   0.1809948), wk =   0.0190476
        k(   15) = (   0.0000000  -0.5945537   0.3619895), wk =   0.0190476
        k(   16) = (   0.0000000  -0.5945537   0.5429843), wk =   0.0190476
        k(   17) = (   0.2059594   0.1189107   0.0000000), wk =   0.0190476
        k(   18) = (   0.2059594   0.1189107   0.1809948), wk =   0.0380952
        k(   19) = (   0.2059594   0.1189107   0.3619895), wk =   0.0380952
        k(   20) = (   0.2059594   0.1189107   0.5429843), wk =   0.0380952
        k(   21) = (   0.2059594   0.3170953   0.0000000), wk =   0.0190476
        k(   22) = (   0.2059594   0.3170953   0.1809948), wk =   0.0380952
        k(   23) = (   0.2059594   0.3170953   0.3619895), wk =   0.0380952
        k(   24) = (   0.2059594   0.3170953   0.5429843), wk =   0.0380952
        k(   25) = (   0.2059594   0.5152798   0.0000000), wk =   0.0190476
        k(   26) = (   0.2059594   0.5152798   0.1809948), wk =   0.0380952
        k(   27) = (   0.2059594   0.5152798   0.3619895), wk =   0.0380952
        k(   28) = (   0.2059594   0.5152798   0.5429843), wk =   0.0380952
        k(   29) = (   0.2059594  -0.4756429   0.0000000), wk =   0.0190476
        k(   30) = (   0.2059594  -0.4756429   0.1809948), wk =   0.0380952
        k(   31) = (   0.2059594  -0.4756429   0.3619895), wk =   0.0380952
        k(   32) = (   0.2059594  -0.4756429   0.5429843), wk =   0.0380952
        k(   33) = (   0.2059594  -0.2774584   0.0000000), wk =   0.0190476
        k(   34) = (   0.2059594  -0.2774584   0.1809948), wk =   0.0380952
        k(   35) = (   0.2059594  -0.2774584   0.3619895), wk =   0.0380952
        k(   36) = (   0.2059594  -0.2774584   0.5429843), wk =   0.0380952
        k(   37) = (   0.2059594  -0.0792738   0.0000000), wk =   0.0190476
        k(   38) = (   0.2059594  -0.0792738   0.1809948), wk =   0.0380952
        k(   39) = (   0.2059594  -0.0792738   0.3619895), wk =   0.0380952
        k(   40) = (   0.2059594  -0.0792738   0.5429843), wk =   0.0380952
        k(   41) = (   0.4119189   0.2378215   0.0000000), wk =   0.0190476
        k(   42) = (   0.4119189   0.2378215   0.1809948), wk =   0.0380952
        k(   43) = (   0.4119189   0.2378215   0.3619895), wk =   0.0380952
        k(   44) = (   0.4119189   0.2378215   0.5429843), wk =   0.0380952
        k(   45) = (   0.4119189   0.4360060   0.0000000), wk =   0.0190476
        k(   46) = (   0.4119189   0.4360060   0.1809948), wk =   0.0380952
        k(   47) = (   0.4119189   0.4360060   0.3619895), wk =   0.0380952
        k(   48) = (   0.4119189   0.4360060   0.5429843), wk =   0.0380952
        k(   49) = (   0.4119189   0.6341906   0.0000000), wk =   0.0190476
        k(   50) = (   0.4119189   0.6341906   0.1809948), wk =   0.0380952
        k(   51) = (   0.4119189   0.6341906   0.3619895), wk =   0.0380952
        k(   52) = (   0.4119189   0.6341906   0.5429843), wk =   0.0380952
        k(   53) = (   0.4119189  -0.3567322   0.0000000), wk =   0.0190476
        k(   54) = (   0.4119189  -0.3567322   0.1809948), wk =   0.0380952
        k(   55) = (   0.4119189  -0.3567322   0.3619895), wk =   0.0380952
        k(   56) = (   0.4119189  -0.3567322   0.5429843), wk =   0.0380952
        k(   57) = (   0.4119189  -0.1585476   0.0000000), wk =   0.0190476
        k(   58) = (   0.4119189  -0.1585476   0.1809948), wk =   0.0380952
        k(   59) = (   0.4119189  -0.1585476   0.3619895), wk =   0.0380952
        k(   60) = (   0.4119189  -0.1585476   0.5429843), wk =   0.0380952
        k(   61) = (   0.4119189   0.0396369   0.0000000), wk =   0.0190476
        k(   62) = (   0.4119189   0.0396369   0.1809948), wk =   0.0380952
        k(   63) = (   0.4119189   0.0396369   0.3619895), wk =   0.0380952
        k(   64) = (   0.4119189   0.0396369   0.5429843), wk =   0.0380952

[...]

     The maximum number of steps has been reached.

     End of BFGS Geometry Optimization
Begin final coordinates
     new unit-cell volume =   1118.48413 a.u.^3 (   165.74225 Ang^3 )

CELL_PARAMETERS (alat= 12.01680127)
   0.971065019   0.000000000   0.000000000
  -0.485532509   0.840966975   0.000000000
   0.000000000   0.000000000   0.789288799

ATOMIC_POSITIONS (crystal)
Mg       0.672211313   0.836105656   0.250000000
Mg       0.836105656   0.163894344   0.750000000
Mg       0.327788687   0.163894344   0.750000000
Mg       0.163894344   0.836105656   0.250000000
Mg       0.163894344   0.327788687   0.250000000
Mg       0.836105656   0.672211313   0.750000000
Cd       0.666667000   0.333333000   0.250000000
Cd       0.333333000   0.666667000   0.750000000
End final coordinates

     A final scf calculation at the relaxed structure.
     The G-vectors are recalculated for the final unit cell
     Results may differ from those at the preceding step.

     bravais-lattice index     =            0
     lattice parameter (alat)  =      12.0168  a.u.
     unit-cell volume          =    1118.4841 (a.u.)^3
     number of atoms/cell      =            8
     number of atomic types    =            2
     number of electrons       =       128.00
     number of Kohn-Sham states=           77
     kinetic-energy cutoff     =      40.0000  Ry
     charge density cutoff     =     160.0000  Ry
     convergence threshold     =      2.9E-05
     mixing beta               =       0.7000
     number of iterations used =            8  plain     mixing
     Exchange-correlation      = SLA-PZ-NOGX-NOGC ( 1 1 0 0 0)
     EXX-fraction              =        0.00

     celldm(1)=  12.016801  celldm(2)=   0.000000  celldm(3)=   0.000000
     celldm(4)=   0.000000  celldm(5)=   0.000000  celldm(6)=   0.000000

     crystal axes: (cart. coord. in units of alat)
               a(1) = (   0.971065   0.000000   0.000000 )
               a(2) = (  -0.485533   0.840967   0.000000 )
               a(3) = (   0.000000   0.000000   0.789289 )

     reciprocal axes: (cart. coord. in units 2 pi/alat)
               b(1) = (  1.029797  0.594554  0.000000 )
               b(2) = (  0.000000  1.189107  0.000000 )
               b(3) = (  0.000000  0.000000  1.266963 )

     PseudoPot. # 1 for Nd read from file:
     /home/cwx6513/pp.La/Nd.UPF
     MD5 check sum: c66c5b6abe7b5840ced9b1e244e3bed6
     Pseudo is Norm-conserving, Zval = 14.0
     Generated in analytical, separable form
     Using radial grid of 1257 points,  6 beta functions with:
                l(1) =   0
                l(2) =   0
                l(3) =   1
                l(4) =   1
                l(5) =   2
                l(6) =   3

     PseudoPot. # 2 for Er read from file:
     /home/cwx6513/pp.La/Er.UPF
     MD5 check sum: e152ae21b84514339d8526f066caf99b
     Pseudo is Norm-conserving, Zval = 22.0
     Generated in analytical, separable form
     Using radial grid of 1267 points,  6 beta functions with:
                l(1) =   0
                l(2) =   0
                l(3) =   1
                l(4) =   1
                l(5) =   2
                l(6) =   3

     atomic species   valence    mass     pseudopotential
        Mg            14.00    24.30500     Nd( 1.00)
        Cd            22.00   112.41100     Er( 1.00)

     24 Sym. Ops., with inversion, found (12 have fractional translation)

   Cartesian axes

     site n.     atom                  positions (alat units)
         1           Mg  tau(   1) = (   0.2468044   0.7031372   0.1973222  )
         2           Mg  tau(   2) = (   0.7323369   0.1378297   0.5919666  )
         3           Mg  tau(   3) = (   0.2387281   0.1378297   0.5919666  )
         4           Mg  tau(   4) = (  -0.2468044   0.7031372   0.1973222  )
         5           Mg  tau(   5) = (   0.0000000   0.2756595   0.1973222  )
         6           Mg  tau(   6) = (   0.4855325   0.5653075   0.5919666  )
         7           Cd  tau(   7) = (   0.4855330   0.2803220   0.1973222  )
         8           Cd  tau(   8) = (  -0.0000005   0.5606449   0.5919666  )

     number of k points=    64  gaussian smearing, width (Ry)=  0.1000
                       cart. coord. in units 2pi/alat
        k(    1) = (   0.0000000   0.0000000   0.0000000), wk =   0.0095238
        k(    2) = (   0.0000000   0.0000000   0.1809948), wk =   0.0190476
        k(    3) = (   0.0000000   0.0000000   0.3619895), wk =   0.0190476
        k(    4) = (   0.0000000   0.0000000   0.5429843), wk =   0.0190476
        k(    5) = (   0.0000000   0.1981846   0.0000000), wk =   0.0190476
        k(    6) = (   0.0000000   0.1981846   0.1809948), wk =   0.0380952
        k(    7) = (   0.0000000   0.1981846   0.3619895), wk =   0.0380952
        k(    8) = (   0.0000000   0.1981846   0.5429843), wk =   0.0380952
        k(    9) = (   0.0000000   0.3963691   0.0000000), wk =   0.0190476
        k(   10) = (   0.0000000   0.3963691   0.1809948), wk =   0.0380952
        k(   11) = (   0.0000000   0.3963691   0.3619895), wk =   0.0380952
        k(   12) = (   0.0000000   0.3963691   0.5429843), wk =   0.0380952
        k(   13) = (   0.0000000  -0.5945537   0.0000000), wk =   0.0095238
        k(   14) = (   0.0000000  -0.5945537   0.1809948), wk =   0.0190476
        k(   15) = (   0.0000000  -0.5945537   0.3619895), wk =   0.0190476
        k(   16) = (   0.0000000  -0.5945537   0.5429843), wk =   0.0190476
        k(   17) = (   0.2059594   0.1189107   0.0000000), wk =   0.0190476
        k(   18) = (   0.2059594   0.1189107   0.1809948), wk =   0.0380952
        k(   19) = (   0.2059594   0.1189107   0.3619895), wk =   0.0380952
        k(   20) = (   0.2059594   0.1189107   0.5429843), wk =   0.0380952
        k(   21) = (   0.2059594   0.3170953   0.0000000), wk =   0.0190476
        k(   22) = (   0.2059594   0.3170953   0.1809948), wk =   0.0380952
        k(   23) = (   0.2059594   0.3170953   0.3619895), wk =   0.0380952
        k(   24) = (   0.2059594   0.3170953   0.5429843), wk =   0.0380952
        k(   25) = (   0.2059594   0.5152798   0.0000000), wk =   0.0190476
        k(   26) = (   0.2059594   0.5152798   0.1809948), wk =   0.0380952
        k(   27) = (   0.2059594   0.5152798   0.3619895), wk =   0.0380952
        k(   28) = (   0.2059594   0.5152798   0.5429843), wk =   0.0380952
        k(   29) = (   0.2059594  -0.4756429   0.0000000), wk =   0.0190476
        k(   30) = (   0.2059594  -0.4756429   0.1809948), wk =   0.0380952
        k(   31) = (   0.2059594  -0.4756429   0.3619895), wk =   0.0380952
        k(   32) = (   0.2059594  -0.4756429   0.5429843), wk =   0.0380952
        k(   33) = (   0.2059594  -0.2774584   0.0000000), wk =   0.0190476
        k(   34) = (   0.2059594  -0.2774584   0.1809948), wk =   0.0380952
        k(   35) = (   0.2059594  -0.2774584   0.3619895), wk =   0.0380952
        k(   36) = (   0.2059594  -0.2774584   0.5429843), wk =   0.0380952
        k(   37) = (   0.2059594  -0.0792738   0.0000000), wk =   0.0190476
        k(   38) = (   0.2059594  -0.0792738   0.1809948), wk =   0.0380952
        k(   39) = (   0.2059594  -0.0792738   0.3619895), wk =   0.0380952
        k(   40) = (   0.2059594  -0.0792738   0.5429843), wk =   0.0380952
        k(   41) = (   0.4119189   0.2378215   0.0000000), wk =   0.0190476
        k(   42) = (   0.4119189   0.2378215   0.1809948), wk =   0.0380952
        k(   43) = (   0.4119189   0.2378215   0.3619895), wk =   0.0380952
        k(   44) = (   0.4119189   0.2378215   0.5429843), wk =   0.0380952
        k(   45) = (   0.4119189   0.4360060   0.0000000), wk =   0.0190476
        k(   46) = (   0.4119189   0.4360060   0.1809948), wk =   0.0380952
        k(   47) = (   0.4119189   0.4360060   0.3619895), wk =   0.0380952
        k(   48) = (   0.4119189   0.4360060   0.5429843), wk =   0.0380952
        k(   49) = (   0.4119189   0.6341906   0.0000000), wk =   0.0190476
        k(   50) = (   0.4119189   0.6341906   0.1809948), wk =   0.0380952
        k(   51) = (   0.4119189   0.6341906   0.3619895), wk =   0.0380952
        k(   52) = (   0.4119189   0.6341906   0.5429843), wk =   0.0380952
        k(   53) = (   0.4119189  -0.3567322   0.0000000), wk =   0.0190476
        k(   54) = (   0.4119189  -0.3567322   0.1809948), wk =   0.0380952
        k(   55) = (   0.4119189  -0.3567322   0.3619895), wk =   0.0380952
        k(   56) = (   0.4119189  -0.3567322   0.5429843), wk =   0.0380952
        k(   57) = (   0.4119189  -0.1585476   0.0000000), wk =   0.0190476
        k(   58) = (   0.4119189  -0.1585476   0.1809948), wk =   0.0380952
        k(   59) = (   0.4119189  -0.1585476   0.3619895), wk =   0.0380952
        k(   60) = (   0.4119189  -0.1585476   0.5429843), wk =   0.0380952
        k(   61) = (   0.4119189   0.0396369   0.0000000), wk =   0.0190476
        k(   62) = (   0.4119189   0.0396369   0.1809948), wk =   0.0380952
        k(   63) = (   0.4119189   0.0396369   0.3619895), wk =   0.0380952
        k(   64) = (   0.4119189   0.0396369   0.5429843), wk =   0.0380952

     Largest allocated arrays     est. size (Mb)     dimensions
     Largest temporary arrays     est. size (Mb)     dimensions

     Initial potential from superposition of free atoms

     Starting from uniform charge
     Starting wfc are    0 randomized atomic wfcs

     Writing output data file Prototype-La-hP8-Mg3Cd.save

     Self-consistent Calculation

[...]

     iteration #  5     ecut=    40.00 Ry     beta=0.70
     CG style diagonalization
     ethr =  7.13E-03,  avg # of iterations =  3.6

[...]

     total energy              =   -1321.14677809 Ry
     Harris-Foulkes estimate   =   -1321.14685703 Ry
     estimated scf accuracy    <       0.00015795 Ry

     iteration # 10     ecut=    40.00 Ry     beta=0.70
     CG style diagonalization
     c_bands:  1 eigenvalues not converged
     ethr =  1.23E-07,  avg # of iterations =  4.0

     End of self-consistent calculation

[...]

          k = 0.4119 0.0396 0.5430 (  4761 PWs)   bands (ev):

   -77.1315 -77.1264 -39.0695 -39.0662 -39.0657 -39.0571 -39.0567 -39.0549
   -24.1280 -24.0624 -23.9870 -23.9589 -23.9278 -23.9052  -3.2908  -3.2520
    -3.2037  -3.1738  -3.0322  -2.9894  -2.5155  -2.3831  -2.2620  -2.2486
    -2.1095  -2.0066  -1.9476  -1.9229  -1.8718  -1.7782  -1.7096  -1.6942
     7.8208   7.8285   7.8352   7.8469   7.8622   7.8680   7.8845   7.8876
     7.9183   7.9299  15.2763  15.2870  18.7626  18.9289  19.4589  19.5595
    19.8502  20.0070  20.2472  20.3571  20.6611  20.8563  21.1152  21.2350
    21.4914  21.5525  22.1167  22.2097  22.7223  22.9375  22.9593  23.9577
    24.1697  24.3852  24.8843  24.9916  25.1255  25.1689  25.5438  25.6651
    26.4398  26.4676  26.6779  27.1407  27.5409

     the Fermi energy is    23.8623 ev

!    total energy              =   -1321.14681477 Ry
     Harris-Foulkes estimate   =   -1321.14682212 Ry
     estimated scf accuracy    <       0.00000630 Ry

     The total energy is the sum of the following terms:

     one-electron contribution =    -208.92532207 Ry
     hartree contribution      =     189.39159627 Ry
     xc contribution           =    -134.60307035 Ry
     ewald contribution        =   -1166.57100130 Ry
     smearing contrib. (-TS)   =      -0.43901731 Ry

     convergence has been achieved in  10 iterations

     Forces acting on atoms (Ry/au):

     atom    1 type  1   force =     0.01422472    0.00821265    0.00000000
     atom    2 type  1   force =     0.01422472   -0.00821265    0.00000000
     atom    3 type  1   force =    -0.01422472   -0.00821265    0.00000000
     atom    4 type  1   force =    -0.01422472    0.00821265    0.00000000
     atom    5 type  1   force =     0.00000000   -0.01642529    0.00000000
     atom    6 type  1   force =     0.00000000    0.01642529    0.00000000
     atom    7 type  2   force =     0.00000000    0.00000000    0.00000000
     atom    8 type  2   force =     0.00000000    0.00000000    0.00000000

     Total force =     0.040234     Total SCF correction =     0.000000

     entering subroutine stress ...

          total   stress  (Ry/bohr**3)                   (kbar)     P=  -20.42
  -0.00022370   0.00000000   0.00000000        -32.91      0.00      0.00
   0.00000000  -0.00022370   0.00000000          0.00    -32.91      0.00
   0.00000000   0.00000000   0.00003099          0.00      0.00      4.56

     Writing output data file Prototype-La-hP8-Mg3Cd.save

     General routines

     Parallel routines

   This run was terminated on:  18:16:13  22Mar2018

   JOB DONE.