     Program PWSCF v.5.0.2 starts on 22Mar2018 at 12: 9:35

     Current dimensions of program PWSCF are:
     Max number of different atomic species (ntypx) = 10
     Max number of k-points (npk) =  40000
     Max angular momentum in pseudopotentials (lmaxx) =  3
     Waiting for input...
     Reading input from standard input

     Subspace diagonalization in iterative solution of the eigenvalue problem:
     a serial algorithm will be used

     bravais-lattice index     =            0
     lattice parameter (alat)  =       7.0151  a.u.
     unit-cell volume          =     862.2778 (a.u.)^3
     number of atoms/cell      =           12
     number of atomic types    =            2
     number of electrons       =       264.00
     number of Kohn-Sham states=          158
     kinetic-energy cutoff     =      40.0000  Ry
     charge density cutoff     =     160.0000  Ry
     convergence threshold     =      1.0E-04
     mixing beta               =       0.7000
     number of iterations used =            8  plain     mixing
     Exchange-correlation      = SLA-PZ-NOGX-NOGC ( 1 1 0 0 0)
     EXX-fraction              =        0.00
     nstep                     =           50

     celldm(1)=   7.015105  celldm(2)=   0.000000  celldm(3)=   0.000000
     celldm(4)=   0.000000  celldm(5)=   0.000000  celldm(6)=   0.000000

     crystal axes: (cart. coord. in units of alat)
               a(1) = (   1.000000   0.000000   0.000000 )
               a(2) = (   0.000000   1.315963   0.000000 )
               a(3) = (   0.000000   0.000000   1.898020 )

     reciprocal axes: (cart. coord. in units 2 pi/alat)
               b(1) = (  1.000000  0.000000  0.000000 )
               b(2) = (  0.000000  0.759900  0.000000 )
               b(3) = (  0.000000  0.000000  0.526865 )

     PseudoPot. # 1 for Yb read from file:
     /home/jld5415/pp.La/Yb.UPF
     MD5 check sum: 3e859b81cc28c53ec6aa3a2e888efcdf
     Pseudo is Norm-conserving, Zval = 24.0
     Generated in analytical, separable form
     Using radial grid of 1269 points,  6 beta functions with:
                l(1) =   0
                l(2) =   0
                l(3) =   1
                l(4) =   1
                l(5) =   2
                l(6) =   3

     PseudoPot. # 2 for Gd read from file:
     /home/jld5415/pp.La/Gd.UPF
     MD5 check sum: 09a8be538722f05520810cb6aac0efd2
     Pseudo is Norm-conserving, Zval = 18.0
     Generated in analytical, separable form
     Using radial grid of 1263 points,  6 beta functions with:
                l(1) =   0
                l(2) =   0
                l(3) =   1
                l(4) =   1
                l(5) =   2
                l(6) =   3

     atomic species   valence    mass     pseudopotential
        Co            24.00    58.93320     Yb( 1.00)
        Si            18.00    28.08550     Gd( 1.00)

      8 Sym. Ops., with inversion, found ( 6 have fractional translation)

   Cartesian axes

     site n.     atom                  positions (alat units)
         1           Co  tau(   1) = (   0.7500000   1.0875135   0.8270358  )
         2           Co  tau(   2) = (   0.2500000   0.2284499   1.0709846  )
         3           Co  tau(   3) = (   0.7500000   0.4295318   0.1219744  )
         4           Co  tau(   4) = (   0.2500000   0.8864316   1.7760460  )
         5           Co  tau(   5) = (   0.2500000   0.7067855   0.5358966  )
         6           Co  tau(   6) = (   0.7500000   0.6091779   1.3621238  )
         7           Co  tau(   7) = (   0.2500000   0.0488038   0.4131136  )
         8           Co  tau(   8) = (   0.7500000   1.2671596   1.4849068  )
         9           Si  tau(   9) = (   0.2500000   0.2669484   1.6960710  )
        10           Si  tau(  10) = (   0.7500000   1.0490149   0.2019494  )
        11           Si  tau(  11) = (   0.2500000   0.9249301   1.1509596  )
        12           Si  tau(  12) = (   0.7500000   0.3910333   0.7470608  )

     number of k points=    12  gaussian smearing, width (Ry)=  0.1000
                       cart. coord. in units 2pi/alat
        k(    1) = (   0.0000000   0.0000000   0.0000000), wk =   0.0833333
        k(    2) = (   0.0000000   0.0000000   0.1317162), wk =   0.1666667
        k(    3) = (   0.0000000   0.0000000  -0.2634324), wk =   0.0833333
        k(    4) = (   0.0000000   0.2532999   0.0000000), wk =   0.1666667
        k(    5) = (   0.0000000   0.2532999   0.1317162), wk =   0.3333333
        k(    6) = (   0.0000000   0.2532999  -0.2634324), wk =   0.1666667
        k(    7) = (  -0.5000000   0.0000000   0.0000000), wk =   0.0833333
        k(    8) = (  -0.5000000   0.0000000   0.1317162), wk =   0.1666667
        k(    9) = (  -0.5000000   0.0000000  -0.2634324), wk =   0.0833333
        k(   10) = (  -0.5000000   0.2532999   0.0000000), wk =   0.1666667
        k(   11) = (  -0.5000000   0.2532999   0.1317162), wk =   0.3333333
        k(   12) = (  -0.5000000   0.2532999  -0.2634324), wk =   0.1666667

     Largest allocated arrays     est. size (Mb)     dimensions
     Largest temporary arrays     est. size (Mb)     dimensions

     Initial potential from superposition of free atoms

     Starting from uniform charge
     Starting wfc are    0 randomized atomic wfcs

     Self-consistent Calculation

     iteration #  1     ecut=    40.00 Ry     beta=0.70
     CG style diagonalization
     c_bands:  4 eigenvalues not converged
     c_bands:  5 eigenvalues not converged
     c_bands:  4 eigenvalues not converged
     ethr =  1.00E-02,  avg # of iterations = 16.9

     total energy              =   -3350.48277285 Ry
     Harris-Foulkes estimate   =   -4771.30374703 Ry
     estimated scf accuracy    <    1758.43810422 Ry

[...]

     iteration #  4     ecut=    40.00 Ry     beta=0.70
     CG style diagonalization
     ethr =  1.00E-02,  avg # of iterations =  5.0

[...]

     End of self-consistent calculation

          k = 0.0000 0.0000 0.0000 (  3675 PWs)   bands (ev):

   -69.1570 -69.1565 -69.1362 -69.0991 -69.0481 -68.9995 -68.9485 -68.9475
   -28.4487 -28.3875 -28.3636 -28.3381 -28.2822 -28.2806 -28.2633 -28.2511
   -28.2374 -28.1838 -28.1518 -28.1190 -28.0801 -28.0794 -28.0722 -28.0683
   -28.0049 -28.0035 -27.9852 -27.9824 -27.9696 -27.8689 -27.7674 -27.7590
   -17.1862 -17.1181 -17.1169 -17.1114  10.2955  10.4990  10.5335  10.5612
    10.5870  10.5887  10.6991  10.7227  11.0241  11.2306  11.2541  11.4936
    25.9897  26.0874  26.1389  26.1426  26.2430  26.4858  26.5412  26.6283
    27.0705  27.1646  27.3105  27.3548  27.5523  27.8666  27.9375  28.3517
    28.4509  28.4686  28.5324  28.5338  28.5368  28.6607  28.8471  28.9041
    28.9487  29.1383  29.2082  29.2304  29.4957  29.6793  29.7470  29.7741
    29.8589  29.9645  30.5267  30.6418  30.6887  30.9219  31.0022  31.0074
    31.7888  36.2357  36.4620  36.6036  40.0457  40.4367  40.9714  41.4729
    41.5755  42.7817  42.9575  42.9667  43.8956  43.9897  44.3259  44.3519
    44.7013  45.2493  45.3228  45.8743  46.5125  46.7277  47.0335  47.1319
    47.6170  48.1680  48.6652  49.7736  50.3247  51.1620  51.4085  53.2696
    53.4454  54.2516  55.0662  55.2229  55.5633  55.5862  55.8434  55.9801
    56.6871  56.7556  57.2889  57.3222  57.3713  57.7785  57.7906  57.9294
    58.0258  58.2283  58.2554  58.6286  58.7648  59.3444  59.3446  59.5018
    59.5714  60.1627  60.5981  60.7511  62.0231  62.1048  62.5429  62.6626
    62.7754  62.9928  63.3510  63.6198  63.6850  63.9282

[...]

          k =-0.5000 0.0000 0.0000 (  3722 PWs)   bands (ev):

[...]

     the Fermi energy is    57.5257 ev

!    total energy              =   -4062.82768904 Ry
     Harris-Foulkes estimate   =   -4062.82772856 Ry
     estimated scf accuracy    <       0.00004683 Ry

     The total energy is the sum of the following terms:

     one-electron contribution =     -50.46522353 Ry
     hartree contribution      =     408.29135773 Ry
     xc contribution           =    -353.80839511 Ry
     ewald contribution        =   -4066.39050041 Ry
     smearing contrib. (-TS)   =      -0.45492772 Ry

     convergence has been achieved in  10 iterations

     Forces acting on atoms (Ry/au):

     atom    1 type  1   force =     0.00000000   -0.04101353   -0.08413552
     atom    2 type  1   force =     0.00000000    0.04101353    0.08413552
     atom    3 type  1   force =     0.00000000   -0.04101353    0.08413552
     atom    4 type  1   force =     0.00000000    0.04101353   -0.08413552
     atom    5 type  1   force =     0.00000000    0.07378288   -0.07514587
     atom    6 type  1   force =     0.00000000   -0.07378288    0.07514587
     atom    7 type  1   force =     0.00000000    0.07378288    0.07514587
     atom    8 type  1   force =     0.00000000   -0.07378288   -0.07514587
     atom    9 type  2   force =     0.00000000   -0.15896708    0.06129884
     atom   10 type  2   force =     0.00000000    0.15896708   -0.06129884
     atom   11 type  2   force =     0.00000000   -0.15896708   -0.06129884
     atom   12 type  2   force =     0.00000000    0.15896708    0.06129884

     Total force =     0.442175     Total SCF correction =     0.000000

     entering subroutine stress ...

          total   stress  (Ry/bohr**3)                   (kbar)     P= 7596.37
   0.05326992   0.00000000   0.00000000       7836.27      0.00      0.00
   0.00000000   0.05018992   0.00000000          0.00   7383.19      0.00
   0.00000000   0.00000000   0.05145739          0.00      0.00   7569.64

     BFGS Geometry Optimization

     number of scf cycles    =   1
     number of bfgs steps    =   0

     enthalpy new            =   -4062.8276890386 Ry

     new trust radius        =       0.5000000000 bohr
     new conv_thr            =       0.0001000000 Ry

     new unit-cell volume =   1093.86824 a.u.^3 (   162.09455 Ang^3 )

CELL_PARAMETERS (alat=  7.01510508)
   1.085136619   0.000000000   0.000000000
   0.000000000   1.421522254   0.000000000
   0.000000000   0.000000000   2.054113266

ATOMIC_POSITIONS (crystal)
Co       0.750000000   0.826116984   0.435332040
Co       0.250000000   0.173883016   0.564667960
Co       0.750000000   0.326116984   0.064667960
Co       0.250000000   0.673883016   0.935332040
Co       0.250000000   0.537596942   0.281984202
Co       0.750000000   0.462403058   0.718015798
Co       0.250000000   0.037596942   0.218015798
Co       0.750000000   0.962403058   0.781984202
Si       0.250000000   0.201753162   0.893894314
Si       0.750000000   0.798246838   0.106105686
Si       0.250000000   0.701753162   0.606105686
Si       0.750000000   0.298246838   0.393894314

     Writing output data file Prototype-La-oP12-Co2Si.save
     NEW-OLD atomic charge density approx. for the potential
     NEW k-points:
        k(    1) = (   0.0000000   0.0000000   0.0000000), wk =   0.0833333
        k(    2) = (   0.0000000   0.0000000   0.1217070), wk =   0.1666667
        k(    3) = (   0.0000000   0.0000000  -0.2434140), wk =   0.0833333
        k(    4) = (   0.0000000   0.2344904   0.0000000), wk =   0.1666667
        k(    5) = (   0.0000000   0.2344904   0.1217070), wk =   0.3333333
        k(    6) = (   0.0000000   0.2344904  -0.2434140), wk =   0.1666667
        k(    7) = (  -0.4607715   0.0000000   0.0000000), wk =   0.0833333
        k(    8) = (  -0.4607715   0.0000000   0.1217070), wk =   0.1666667
        k(    9) = (  -0.4607715   0.0000000  -0.2434140), wk =   0.0833333
        k(   10) = (  -0.4607715   0.2344904   0.0000000), wk =   0.1666667
        k(   11) = (  -0.4607715   0.2344904   0.1217070), wk =   0.3333333
        k(   12) = (  -0.4607715   0.2344904  -0.2434140), wk =   0.1666667

[...]

     enthalpy old            =   -4062.8276890386 Ry
     enthalpy new            =   -4070.3461220902 Ry

     CASE: enthalpy_new < enthalpy_old

     small trust_radius: resetting bfgs history

     new trust radius        =       2.8649589873 bohr
     new conv_thr            =       0.0000936598 Ry

[...]

          total   stress  (Ry/bohr**3)                   (kbar)     P=-6028.59
  -0.04228406   0.00000000   0.00000000      -6220.20      0.00      0.00
   0.00000000  -0.03975806   0.00000000          0.00  -5848.61      0.00
   0.00000000   0.00000000  -0.04090253          0.00      0.00  -6016.97

     number of scf cycles    =   3
     number of bfgs steps    =   2

     enthalpy old            =   -4070.3461220901 Ry
     enthalpy new            =   -4022.2102630292 Ry

     CASE: enthalpy_new > enthalpy_old

     new trust radius        =       0.5575986793 bohr

     trust_radius < trust_radius_min

     resetting bfgs history

     Message from routine bfgs:
     history already reset at previous step: stopping
     new conv_thr            =       0.0000936598 Ry

     new unit-cell volume =   1308.24280 a.u.^3 (   193.86158 Ang^3 )

[...]

ATOMIC_POSITIONS (crystal)
Co       0.750000000   0.825773847   0.434965721
Co       0.250000000   0.174226153   0.565034279
Co       0.750000000   0.325773847   0.065034279
Co       0.250000000   0.674226153   0.934965721
Co       0.250000000   0.537721257   0.281889166
Co       0.750000000   0.462278743   0.718110834
Co       0.250000000   0.037721257   0.218110834
Co       0.750000000   0.962278743   0.781889166
Si       0.250000000   0.200779343   0.894269278
Si       0.750000000   0.799220657   0.105730722
Si       0.250000000   0.700779343   0.605730722
Si       0.750000000   0.299220657   0.394269278

     Writing output data file Prototype-La-oP12-Co2Si.save
     NEW-OLD atomic charge density approx. for the potential
     NEW k-points:
        k(    1) = (   0.0000000   0.0000000   0.0000000), wk =   0.0833333
        k(    2) = (   0.0000000   0.0000000   0.1146370), wk =   0.1666667
        k(    3) = (   0.0000000   0.0000000  -0.2292741), wk =   0.0833333
        k(    4) = (   0.0000000   0.2214415   0.0000000), wk =   0.1666667
        k(    5) = (   0.0000000   0.2214415   0.1146370), wk =   0.3333333
        k(    6) = (   0.0000000   0.2214415  -0.2292741), wk =   0.1666667
        k(    7) = (  -0.4331306   0.0000000   0.0000000), wk =   0.0833333
        k(    8) = (  -0.4331306   0.0000000   0.1146370), wk =   0.1666667
        k(    9) = (  -0.4331306   0.0000000  -0.2292741), wk =   0.0833333
        k(   10) = (  -0.4331306   0.2214415   0.0000000), wk =   0.1666667
        k(   11) = (  -0.4331306   0.2214415   0.1146370), wk =   0.3333333
        k(   12) = (  -0.4331306   0.2214415  -0.2292741), wk =   0.1666667

[...]

     The maximum number of steps has been reached.

     End of BFGS Geometry Optimization
Begin final coordinates
     new unit-cell volume =   1308.24280 a.u.^3 (   193.86158 Ang^3 )

CELL_PARAMETERS (alat=  7.01510508)
   1.154386215   0.000000000   0.000000000
   0.000000000   1.505288188   0.000000000
   0.000000000   0.000000000   2.180795911

ATOMIC_POSITIONS (crystal)
Co       0.750000000   0.825773847   0.434965721
Co       0.250000000   0.174226153   0.565034279
Co       0.750000000   0.325773847   0.065034279
Co       0.250000000   0.674226153   0.934965721
Co       0.250000000   0.537721257   0.281889166
Co       0.750000000   0.462278743   0.718110834
Co       0.250000000   0.037721257   0.218110834
Co       0.750000000   0.962278743   0.781889166
Si       0.250000000   0.200779343   0.894269278
Si       0.750000000   0.799220657   0.105730722
Si       0.250000000   0.700779343   0.605730722
Si       0.750000000   0.299220657   0.394269278
End final coordinates

     A final scf calculation at the relaxed structure.
     The G-vectors are recalculated for the final unit cell
     Results may differ from those at the preceding step.

     bravais-lattice index     =            0
     lattice parameter (alat)  =       7.0151  a.u.
     unit-cell volume          =    1308.2428 (a.u.)^3
     number of atoms/cell      =           12
     number of atomic types    =            2
     number of electrons       =       264.00
     number of Kohn-Sham states=          158
     kinetic-energy cutoff     =      40.0000  Ry
     charge density cutoff     =     160.0000  Ry
     convergence threshold     =      9.4E-05
     mixing beta               =       0.7000
     number of iterations used =            8  plain     mixing
     Exchange-correlation      = SLA-PZ-NOGX-NOGC ( 1 1 0 0 0)
     EXX-fraction              =        0.00

     celldm(1)=   7.015105  celldm(2)=   0.000000  celldm(3)=   0.000000
     celldm(4)=   0.000000  celldm(5)=   0.000000  celldm(6)=   0.000000

     crystal axes: (cart. coord. in units of alat)
               a(1) = (   1.154386   0.000000   0.000000 )
               a(2) = (   0.000000   1.505288   0.000000 )
               a(3) = (   0.000000   0.000000   2.180796 )

     reciprocal axes: (cart. coord. in units 2 pi/alat)
               b(1) = (  0.866261  0.000000  0.000000 )
               b(2) = (  0.000000  0.664325  0.000000 )
               b(3) = (  0.000000  0.000000  0.458548 )

     PseudoPot. # 1 for Yb read from file:
     /home/jld5415/pp.La/Yb.UPF
     MD5 check sum: 3e859b81cc28c53ec6aa3a2e888efcdf
     Pseudo is Norm-conserving, Zval = 24.0
     Generated in analytical, separable form
     Using radial grid of 1269 points,  6 beta functions with:
                l(1) =   0
                l(2) =   0
                l(3) =   1
                l(4) =   1
                l(5) =   2
                l(6) =   3

     PseudoPot. # 2 for Gd read from file:
     /home/jld5415/pp.La/Gd.UPF
     MD5 check sum: 09a8be538722f05520810cb6aac0efd2
     Pseudo is Norm-conserving, Zval = 18.0
     Generated in analytical, separable form
     Using radial grid of 1263 points,  6 beta functions with:
                l(1) =   0
                l(2) =   0
                l(3) =   1
                l(4) =   1
                l(5) =   2
                l(6) =   3

     atomic species   valence    mass     pseudopotential
        Co            24.00    58.93320     Yb( 1.00)
        Si            18.00    28.08550     Gd( 1.00)

      8 Sym. Ops., with inversion, found ( 6 have fractional translation)

   Cartesian axes

     site n.     atom                  positions (alat units)
         1           Co  tau(   1) = (   0.8657897   1.2430276   0.9485715  )
         2           Co  tau(   2) = (   0.2885966   0.2622606   1.2322244  )
         3           Co  tau(   3) = (   0.8657897   0.4903835   0.1418265  )
         4           Co  tau(   4) = (   0.2885966   1.0149047   2.0389694  )
         5           Co  tau(   5) = (   0.2885966   0.8094255   0.6147427  )
         6           Co  tau(   6) = (   0.8657897   0.6958627   1.5660532  )
         7           Co  tau(   7) = (   0.2885966   0.0567814   0.4756552  )
         8           Co  tau(   8) = (   0.8657897   1.4485068   1.7051407  )
         9           Si  tau(   9) = (   0.2885966   0.3022308   1.9502188  )
        10           Si  tau(  10) = (   0.8657897   1.2030574   0.2305771  )
        11           Si  tau(  11) = (   0.2885966   1.0548749   1.3209751  )
        12           Si  tau(  12) = (   0.8657897   0.4504133   0.8598208  )

     number of k points=    12  gaussian smearing, width (Ry)=  0.1000
                       cart. coord. in units 2pi/alat
        k(    1) = (   0.0000000   0.0000000   0.0000000), wk =   0.0833333
        k(    2) = (   0.0000000   0.0000000   0.1146370), wk =   0.1666667
        k(    3) = (   0.0000000   0.0000000  -0.2292741), wk =   0.0833333
        k(    4) = (   0.0000000   0.2214415   0.0000000), wk =   0.1666667
        k(    5) = (   0.0000000   0.2214415   0.1146370), wk =   0.3333333
        k(    6) = (   0.0000000   0.2214415  -0.2292741), wk =   0.1666667
        k(    7) = (  -0.4331306   0.0000000   0.0000000), wk =   0.0833333
        k(    8) = (  -0.4331306   0.0000000   0.1146370), wk =   0.1666667
        k(    9) = (  -0.4331306   0.0000000  -0.2292741), wk =   0.0833333
        k(   10) = (  -0.4331306   0.2214415   0.0000000), wk =   0.1666667
        k(   11) = (  -0.4331306   0.2214415   0.1146370), wk =   0.3333333
        k(   12) = (  -0.4331306   0.2214415  -0.2292741), wk =   0.1666667

     Largest allocated arrays     est. size (Mb)     dimensions
     Largest temporary arrays     est. size (Mb)     dimensions

     Initial potential from superposition of free atoms

     Starting from uniform charge
     Starting wfc are    0 randomized atomic wfcs

     Writing output data file Prototype-La-oP12-Co2Si.save

     Self-consistent Calculation

[...]

     iteration #  9     ecut=    40.00 Ry     beta=0.70
     CG style diagonalization
     c_bands:  1 eigenvalues not converged
     c_bands:  2 eigenvalues not converged
     ethr =  4.36E-06,  avg # of iterations =  4.1

[...]

     total energy              =   -4078.24162199 Ry
     Harris-Foulkes estimate   =   -4078.24178422 Ry
     estimated scf accuracy    <       0.00029980 Ry

     iteration # 11     ecut=    40.00 Ry     beta=0.70
     CG style diagonalization
     ethr =  1.14E-07,  avg # of iterations =  3.5

     End of self-consistent calculation

[...]

          k = 0.0000 0.2214-0.2293 (  5566 PWs)   bands (ev):

[...]

          k =-0.4331 0.2214-0.2293 (  5580 PWs)   bands (ev):

   -88.0601 -88.0601 -88.0580 -88.0580 -87.9196 -87.9196 -87.9072 -87.9072
   -46.9386 -46.9386 -46.9375 -46.9375 -46.9060 -46.9060 -46.9056 -46.9056
   -46.8722 -46.8722 -46.8707 -46.8707 -46.8037 -46.8037 -46.7849 -46.7849
   -46.7820 -46.7820 -46.7808 -46.7808 -46.7214 -46.7214 -46.7132 -46.7132
   -33.6393 -33.6393 -33.6389 -33.6389  -5.0968  -5.0968  -5.0857  -5.0857
    -4.9982  -4.9982  -4.9951  -4.9951  -4.8026  -4.8026  -4.7952  -4.7952
    10.1752  10.1752  10.3507  10.3507  10.3756  10.3756  10.4501  10.4501
    10.4629  10.4629  10.5868  10.5868  10.5993  10.5993  10.7300  10.7300
    10.7770  10.7770  10.8297  10.8297  10.8467  10.8467  10.9957  10.9957
    11.0018  11.0018  11.0740  11.0740  11.0895  11.0895  11.1605  11.1605
    11.2122  11.2122  11.3855  11.3855  11.4269  11.4269  11.6090  11.6090
    20.6731  20.6731  21.4204  21.4204  22.4123  22.4123  22.8882  22.8882
    26.3391  26.3391  26.6533  26.6533  27.1240  27.1240  27.2631  27.2631
    28.1639  28.1639  28.6117  28.6117  28.9841  28.9841  29.3789  29.3789
    29.5587  29.5587  30.2927  30.2927  31.4432  31.4432  32.2677  32.2677
    33.0264  33.0264  33.9032  33.9032  34.4344  34.4344  35.4663  35.4663
    37.1457  37.1457  37.3003  37.3003  38.5660  38.5660  38.7333  38.7333
    39.8742  39.8743  39.9219  39.9220  40.5571  40.5571  40.7092  40.7092
    41.4753  41.4754  41.6222  41.6222  41.8814  41.8815  42.2599  42.2599
    42.8536  42.8537  43.0998  43.0999  43.6217  43.6218

     the Fermi energy is    37.2646 ev

!    total energy              =   -4078.24169183 Ry
     Harris-Foulkes estimate   =   -4078.24169567 Ry
     estimated scf accuracy    <       0.00000538 Ry

     The total energy is the sum of the following terms:

     one-electron contribution =    -798.96879765 Ry
     hartree contribution      =     601.56629511 Ry
     xc contribution           =    -340.99846684 Ry
     ewald contribution        =   -3539.44417732 Ry
     smearing contrib. (-TS)   =      -0.39654513 Ry

     convergence has been achieved in  11 iterations

     Forces acting on atoms (Ry/au):

     atom    1 type  1   force =     0.00000000   -0.02538695   -0.04523172
     atom    2 type  1   force =     0.00000000    0.02538695    0.04523172
     atom    3 type  1   force =     0.00000000   -0.02538695    0.04523172
     atom    4 type  1   force =     0.00000000    0.02538695   -0.04523172
     atom    5 type  1   force =     0.00000000   -0.00494805    0.00905064
     atom    6 type  1   force =     0.00000000    0.00494805   -0.00905064
     atom    7 type  1   force =     0.00000000   -0.00494805   -0.00905064
     atom    8 type  1   force =     0.00000000    0.00494805    0.00905064
     atom    9 type  2   force =     0.00000000   -0.06035790    0.02743867
     atom   10 type  2   force =     0.00000000    0.06035790   -0.02743867
     atom   11 type  2   force =     0.00000000   -0.06035790   -0.02743867
     atom   12 type  2   force =     0.00000000    0.06035790    0.02743867

     Total force =     0.169620     Total SCF correction =     0.000000

     entering subroutine stress ...

          total   stress  (Ry/bohr**3)                   (kbar)     P= 1306.84
   0.00907320   0.00000000   0.00000000       1334.71      0.00      0.00
   0.00000000   0.00874769   0.00000000          0.00   1286.83      0.00
   0.00000000   0.00000000   0.00883023          0.00      0.00   1298.97

     Writing output data file Prototype-La-oP12-Co2Si.save

     General routines

     Parallel routines

   This run was terminated on:  12:37:10  22Mar2018

   JOB DONE.