     Program PWSCF v.5.0.2 starts on 22Mar2018 at 12: 7:54

     Current dimensions of program PWSCF are:
     Max number of different atomic species (ntypx) = 10
     Max number of k-points (npk) =  40000
     Max angular momentum in pseudopotentials (lmaxx) =  3
     Waiting for input...
     Reading input from standard input

     Subspace diagonalization in iterative solution of the eigenvalue problem:
     a serial algorithm will be used

     bravais-lattice index     =            0
     lattice parameter (alat)  =       9.9235  a.u.
     unit-cell volume          =    1361.0366 (a.u.)^3
     number of atoms/cell      =           12
     number of atomic types    =            2
     number of electrons       =       240.00
     number of Kohn-Sham states=          144
     kinetic-energy cutoff     =      40.0000  Ry
     charge density cutoff     =     160.0000  Ry
     convergence threshold     =      1.0E-04
     mixing beta               =       0.7000
     number of iterations used =            8  plain     mixing
     Exchange-correlation      = SLA-PZ-NOGX-NOGC ( 1 1 0 0 0)
     EXX-fraction              =        0.00
     nstep                     =           50

     celldm(1)=   9.923489  celldm(2)=   0.000000  celldm(3)=   0.000000
     celldm(4)=   0.000000  celldm(5)=   0.000000  celldm(6)=   0.000000

     crystal axes: (cart. coord. in units of alat)
               a(1) = (   1.000000   0.000000   0.000000 )
               a(2) = (  -0.500000   0.866025   0.000000 )
               a(3) = (   0.000000   0.000000   1.608222 )

     reciprocal axes: (cart. coord. in units 2 pi/alat)
               b(1) = (  1.000000  0.577350  0.000000 )
               b(2) = (  0.000000  1.154701  0.000000 )
               b(3) = (  0.000000  0.000000  0.621805 )

     PseudoPot. # 1 for Yb read from file:
     /home/jld5415/pp.La/Yb.UPF
     MD5 check sum: 3e859b81cc28c53ec6aa3a2e888efcdf
     Pseudo is Norm-conserving, Zval = 24.0
     Generated in analytical, separable form
     Using radial grid of 1269 points,  6 beta functions with:
                l(1) =   0
                l(2) =   0
                l(3) =   1
                l(4) =   1
                l(5) =   2
                l(6) =   3

     PseudoPot. # 2 for Gd read from file:
     /home/jld5415/pp.La/Gd.UPF
     MD5 check sum: 09a8be538722f05520810cb6aac0efd2
     Pseudo is Norm-conserving, Zval = 18.0
     Generated in analytical, separable form
     Using radial grid of 1263 points,  6 beta functions with:
                l(1) =   0
                l(2) =   0
                l(3) =   1
                l(4) =   1
                l(5) =   2
                l(6) =   3

     atomic species   valence    mass     pseudopotential
        Mg            24.00    24.30500     Yb( 1.00)
        Zn            18.00    65.39000     Gd( 1.00)

     24 Sym. Ops., with inversion, found (12 have fractional translation)

   Cartesian axes

     site n.     atom                  positions (alat units)
         1           Mg  tau(   1) = (  -0.0000005   0.5773506   0.1003820  )
         2           Mg  tau(   2) = (   0.5000005   0.2886748   0.9044931  )
         3           Mg  tau(   3) = (   0.5000005   0.2886748   1.5078402  )
         4           Mg  tau(   4) = (  -0.0000005   0.5773506   0.7037291  )
         5           Zn  tau(   5) = (   0.0000000   0.0000000   0.0000000  )
         6           Zn  tau(   6) = (   0.0000000   0.0000000   0.8041111  )
         7           Zn  tau(   7) = (   0.0000000   0.2950739   1.2061667  )
         8           Zn  tau(   8) = (   0.7444585   0.1475370   0.4020556  )
         9           Zn  tau(   9) = (   0.2555415   0.1475370   0.4020556  )
        10           Zn  tau(  10) = (   0.2444585   0.7184884   1.2061667  )
        11           Zn  tau(  11) = (  -0.2444585   0.7184884   1.2061667  )
        12           Zn  tau(  12) = (   0.5000000   0.5709515   0.4020556  )

     number of k points=    12  gaussian smearing, width (Ry)=  0.1000
                       cart. coord. in units 2pi/alat
        k(    1) = (   0.0000000   0.0000000   0.0000000), wk =   0.0833333
        k(    2) = (   0.0000000   0.0000000   0.1554512), wk =   0.1666667
        k(    3) = (   0.0000000   0.0000000  -0.3109023), wk =   0.0833333
        k(    4) = (   0.0000000   0.3849002   0.0000000), wk =   0.1666667
        k(    5) = (   0.0000000   0.3849002   0.1554512), wk =   0.3333333
        k(    6) = (   0.0000000   0.3849002  -0.3109023), wk =   0.1666667
        k(    7) = (  -0.5000000  -0.2886751   0.0000000), wk =   0.0833333
        k(    8) = (  -0.5000000  -0.2886751   0.1554512), wk =   0.1666667
        k(    9) = (  -0.5000000  -0.2886751  -0.3109023), wk =   0.0833333
        k(   10) = (  -0.5000000   0.0962250   0.0000000), wk =   0.1666667
        k(   11) = (  -0.5000000   0.0962250   0.1554512), wk =   0.3333333
        k(   12) = (  -0.5000000   0.0962250  -0.3109023), wk =   0.1666667

     Largest allocated arrays     est. size (Mb)     dimensions
     Largest temporary arrays     est. size (Mb)     dimensions

     Initial potential from superposition of free atoms

     Starting from uniform charge
     Starting wfc are    0 randomized atomic wfcs

     Self-consistent Calculation

     iteration #  1     ecut=    40.00 Ry     beta=0.70
     CG style diagonalization
     c_bands:  4 eigenvalues not converged
     c_bands:  4 eigenvalues not converged
     c_bands:  5 eigenvalues not converged
     c_bands:  2 eigenvalues not converged
     c_bands:  4 eigenvalues not converged
     c_bands:  5 eigenvalues not converged
     c_bands:  5 eigenvalues not converged
     ethr =  1.00E-02,  avg # of iterations = 15.0

     total energy              =   -2073.84565910 Ry
     Harris-Foulkes estimate   =   -4059.80427894 Ry
     estimated scf accuracy    <    2389.43271162 Ry

     iteration #  2     ecut=    40.00 Ry     beta=0.70
     CG style diagonalization
     ethr =  1.00E-02,  avg # of iterations = 17.2

[...]

     End of self-consistent calculation

          k = 0.0000 0.0000 0.0000 (  5769 PWs)   bands (ev):

   -92.3406 -92.3182 -92.3111 -92.2463 -51.1303 -51.1303 -51.1242 -51.1201
   -51.1201 -51.1148 -51.1100 -51.1100 -51.1052 -51.1052 -51.1043 -51.0908
   -37.4098 -37.3418 -36.9995 -36.9995 -36.9976 -36.9976 -36.9173 -36.8368
   -10.2556  -9.9200  -9.3405  -8.9347  -8.9347  -8.8604  -8.8603  -8.6726
    -8.6725  -8.4596  -8.1384  -8.1384  -8.0042  -8.0042  -7.9784  -7.5639
    -7.5568  -7.4433  -7.4432  -7.4218  -7.4218  -7.4045  -7.3349  -7.3349
     6.7066   6.7066   6.7327   6.7506   6.7683   6.7683   6.7942   6.7943
     6.8675   6.8675   6.9846   6.9846   7.0341   7.0516   7.0516   7.0613
     7.0613   7.0839   7.1042   7.1042  16.4625  17.9371  19.0887  20.7732
    21.6948  21.7059  21.8881  21.8881  22.1235  22.5472  22.9206  22.9206
    23.3413  23.3414  23.3426  23.3427  24.5362  24.5362  24.5609  24.5914
    25.0926  25.0926  25.1664  25.1664  26.4517  26.4518  27.1564  27.5600
    27.9831  28.5044  28.8645  28.8645  28.8706  28.9494  28.9494  28.9914
    28.9915  29.0806  29.0806  29.7178  29.8660  29.8661  30.0687  30.0688
    30.5431  30.5431  30.7668  31.6127  31.6129  31.6816  31.9435  32.2102
    32.2102  32.6165  32.6166  33.5235  33.5326  33.5697  34.6731  35.8215
    36.6474  36.6475  36.7726  36.7726  36.9256  37.7475  38.2010  38.2014
    38.3195  38.3196  39.6104  40.4090  40.4051  40.4119  40.4389  40.4633

[...]

          k =-0.5000-0.2887 0.0000 (  5800 PWs)   bands (ev):

[...]

     the Fermi energy is    32.4260 ev

!    total energy              =   -3247.44512277 Ry
     Harris-Foulkes estimate   =   -3247.44514201 Ry
     estimated scf accuracy    <       0.00001764 Ry

     The total energy is the sum of the following terms:

     one-electron contribution =    -513.95313301 Ry
     hartree contribution      =     450.27203247 Ry
     xc contribution           =    -292.10004236 Ry
     ewald contribution        =   -2891.27303579 Ry
     smearing contrib. (-TS)   =      -0.39094408 Ry

     convergence has been achieved in  11 iterations

     Forces acting on atoms (Ry/au):

     atom    1 type  1   force =     0.00000000    0.00000000    0.00901201
     atom    2 type  1   force =     0.00000000    0.00000000    0.00901201
     atom    3 type  1   force =     0.00000000    0.00000000   -0.00901201
     atom    4 type  1   force =     0.00000000    0.00000000   -0.00901201
     atom    5 type  2   force =     0.00000000    0.00000000    0.00000000
     atom    6 type  2   force =     0.00000000    0.00000000    0.00000000
     atom    7 type  2   force =     0.00000000    0.02030461    0.00000000
     atom    8 type  2   force =    -0.01758430    0.01015230    0.00000000
     atom    9 type  2   force =     0.01758430    0.01015230    0.00000000
     atom   10 type  2   force =    -0.01758430   -0.01015230    0.00000000
     atom   11 type  2   force =     0.01758430   -0.01015230    0.00000000
     atom   12 type  2   force =     0.00000000   -0.02030461    0.00000000

     Total force =     0.052901     Total SCF correction =     0.000000

     entering subroutine stress ...

          total   stress  (Ry/bohr**3)                   (kbar)     P=  777.65
   0.00532580   0.00000000   0.00000000        783.45      0.00      0.00
   0.00000000   0.00532580   0.00000000          0.00    783.45      0.00
   0.00000000   0.00000000   0.00520751          0.00      0.00    766.05

     BFGS Geometry Optimization

     number of scf cycles    =   1
     number of bfgs steps    =   0

     enthalpy new            =   -3247.4451227719 Ry

     new trust radius        =       0.5000000000 bohr
     new conv_thr            =       0.0001000000 Ry

     new unit-cell volume =   1654.56628 a.u.^3 (   245.18142 Ang^3 )

CELL_PARAMETERS (alat=  9.92348860)
   1.067764947   0.000000000   0.000000000
  -0.533882474   0.924711570   0.000000000
   0.000000000   0.000000000   1.714782696

ATOMIC_POSITIONS (crystal)
Mg       0.333333000   0.666667000   0.062705403
Mg       0.666667000   0.333333000   0.562705403
Mg       0.666667000   0.333333000   0.937294597
Mg       0.333333000   0.666667000   0.437294597
Zn       0.000000000   0.000000000   0.000000000
Zn       0.000000000   0.000000000   0.500000000
Zn       0.170962243   0.341924485   0.750000000
Zn       0.829037757   0.170962243   0.250000000
Zn       0.341924485   0.170962243   0.250000000
Zn       0.658075515   0.829037757   0.750000000
Zn       0.170962243   0.829037757   0.750000000
Zn       0.829037757   0.658075515   0.250000000

     Writing output data file Prototype-La-hP12-MgZn2.save
     NEW-OLD atomic charge density approx. for the potential
     NEW k-points:
        k(    1) = (   0.0000000   0.0000000   0.0000000), wk =   0.0833333
        k(    2) = (   0.0000000   0.0000000   0.1457911), wk =   0.1666667
        k(    3) = (   0.0000000   0.0000000  -0.2915821), wk =   0.0833333
        k(    4) = (   0.0000000   0.3604728   0.0000000), wk =   0.1666667
        k(    5) = (   0.0000000   0.3604728   0.1457911), wk =   0.3333333
        k(    6) = (   0.0000000   0.3604728  -0.2915821), wk =   0.1666667
        k(    7) = (  -0.4682679  -0.2703546   0.0000000), wk =   0.0833333
        k(    8) = (  -0.4682679  -0.2703546   0.1457911), wk =   0.1666667
        k(    9) = (  -0.4682679  -0.2703546  -0.2915821), wk =   0.0833333
        k(   10) = (  -0.4682679   0.0901182   0.0000000), wk =   0.1666667
        k(   11) = (  -0.4682679   0.0901182   0.1457911), wk =   0.3333333
        k(   12) = (  -0.4682679   0.0901182  -0.2915821), wk =   0.1666667

[...]

     enthalpy old            =   -3247.4451227719 Ry
     enthalpy new            =   -3247.6435001879 Ry

     CASE: enthalpy_new < enthalpy_old

     small trust_radius: resetting bfgs history

     new trust radius        =       0.5965564476 bohr
     new conv_thr            =       0.0000216363 Ry

[...]

     number of scf cycles    =   3
     number of bfgs steps    =   2

     enthalpy old            =   -3247.6435001879 Ry
     enthalpy new            =   -3247.2192368394 Ry

     CASE: enthalpy_new > enthalpy_old

     new trust radius        =       0.2034582856 bohr

     trust_radius < trust_radius_min

     resetting bfgs history

     Message from routine bfgs:
     history already reset at previous step: stopping
     new conv_thr            =       0.0000216363 Ry

     new unit-cell volume =   1363.71970 a.u.^3 (   202.08241 Ang^3 )

[...]

ATOMIC_POSITIONS (crystal)
Mg       0.333333000   0.666667000   0.062095481
Mg       0.666667000   0.333333000   0.562095481
Mg       0.666667000   0.333333000   0.937904519
Mg       0.333333000   0.666667000   0.437904519
Zn       0.000000000   0.000000000   0.000000000
Zn       0.000000000   0.000000000   0.500000000
Zn       0.169857631   0.339715262   0.750000000
Zn       0.830142369   0.169857631   0.250000000
Zn       0.339715262   0.169857631   0.250000000
Zn       0.660284738   0.830142369   0.750000000
Zn       0.169857631   0.830142369   0.750000000
Zn       0.830142369   0.660284738   0.250000000

     Writing output data file Prototype-La-hP12-MgZn2.save
     NEW-OLD atomic charge density approx. for the potential
     NEW k-points:
        k(    1) = (   0.0000000   0.0000000   0.0000000), wk =   0.0833333
        k(    2) = (   0.0000000   0.0000000   0.1557047), wk =   0.1666667
        k(    3) = (   0.0000000   0.0000000  -0.3114094), wk =   0.0833333
        k(    4) = (   0.0000000   0.3842081   0.0000000), wk =   0.1666667
        k(    5) = (   0.0000000   0.3842081   0.1557047), wk =   0.3333333
        k(    6) = (   0.0000000   0.3842081  -0.3114094), wk =   0.1666667
        k(    7) = (  -0.4991010  -0.2881561   0.0000000), wk =   0.0833333
        k(    8) = (  -0.4991010  -0.2881561   0.1557047), wk =   0.1666667
        k(    9) = (  -0.4991010  -0.2881561  -0.3114094), wk =   0.0833333
        k(   10) = (  -0.4991010   0.0960520   0.0000000), wk =   0.1666667
        k(   11) = (  -0.4991010   0.0960520   0.1557047), wk =   0.3333333
        k(   12) = (  -0.4991010   0.0960520  -0.3114094), wk =   0.1666667

[...]

     The maximum number of steps has been reached.

     End of BFGS Geometry Optimization
Begin final coordinates
     new unit-cell volume =   1363.71970 a.u.^3 (   202.08241 Ang^3 )

CELL_PARAMETERS (alat=  9.92348860)
   1.001801189   0.000000000   0.000000000
  -0.500900595   0.867585280   0.000000000
   0.000000000   0.000000000   1.605603371

ATOMIC_POSITIONS (crystal)
Mg       0.333333000   0.666667000   0.062095481
Mg       0.666667000   0.333333000   0.562095481
Mg       0.666667000   0.333333000   0.937904519
Mg       0.333333000   0.666667000   0.437904519
Zn       0.000000000   0.000000000   0.000000000
Zn       0.000000000   0.000000000   0.500000000
Zn       0.169857631   0.339715262   0.750000000
Zn       0.830142369   0.169857631   0.250000000
Zn       0.339715262   0.169857631   0.250000000
Zn       0.660284738   0.830142369   0.750000000
Zn       0.169857631   0.830142369   0.750000000
Zn       0.830142369   0.660284738   0.250000000
End final coordinates

     A final scf calculation at the relaxed structure.
     The G-vectors are recalculated for the final unit cell
     Results may differ from those at the preceding step.

     bravais-lattice index     =            0
     lattice parameter (alat)  =       9.9235  a.u.
     unit-cell volume          =    1363.7197 (a.u.)^3
     number of atoms/cell      =           12
     number of atomic types    =            2
     number of electrons       =       240.00
     number of Kohn-Sham states=          144
     kinetic-energy cutoff     =      40.0000  Ry
     charge density cutoff     =     160.0000  Ry
     convergence threshold     =      2.2E-05
     mixing beta               =       0.7000
     number of iterations used =            8  plain     mixing
     Exchange-correlation      = SLA-PZ-NOGX-NOGC ( 1 1 0 0 0)
     EXX-fraction              =        0.00

     celldm(1)=   9.923489  celldm(2)=   0.000000  celldm(3)=   0.000000
     celldm(4)=   0.000000  celldm(5)=   0.000000  celldm(6)=   0.000000

     crystal axes: (cart. coord. in units of alat)
               a(1) = (   1.001801   0.000000   0.000000 )
               a(2) = (  -0.500901   0.867585   0.000000 )
               a(3) = (   0.000000   0.000000   1.605603 )

     reciprocal axes: (cart. coord. in units 2 pi/alat)
               b(1) = (  0.998202  0.576312  0.000000 )
               b(2) = (  0.000000  1.152624  0.000000 )
               b(3) = (  0.000000  0.000000  0.622819 )

     PseudoPot. # 1 for Yb read from file:
     /home/jld5415/pp.La/Yb.UPF
     MD5 check sum: 3e859b81cc28c53ec6aa3a2e888efcdf
     Pseudo is Norm-conserving, Zval = 24.0
     Generated in analytical, separable form
     Using radial grid of 1269 points,  6 beta functions with:
                l(1) =   0
                l(2) =   0
                l(3) =   1
                l(4) =   1
                l(5) =   2
                l(6) =   3

     PseudoPot. # 2 for Gd read from file:
     /home/jld5415/pp.La/Gd.UPF
     MD5 check sum: 09a8be538722f05520810cb6aac0efd2
     Pseudo is Norm-conserving, Zval = 18.0
     Generated in analytical, separable form
     Using radial grid of 1263 points,  6 beta functions with:
                l(1) =   0
                l(2) =   0
                l(3) =   1
                l(4) =   1
                l(5) =   2
                l(6) =   3

     atomic species   valence    mass     pseudopotential
        Mg            24.00    24.30500     Yb( 1.00)
        Zn            18.00    65.39000     Gd( 1.00)

     24 Sym. Ops., with inversion, found (12 have fractional translation)

   Cartesian axes

     site n.     atom                  positions (alat units)
         1           Mg  tau(   1) = (  -0.0000005   0.5783905   0.0997007  )
         2           Mg  tau(   2) = (   0.5009011   0.2891948   0.9025024  )
         3           Mg  tau(   3) = (   0.5009011   0.2891948   1.5059027  )
         4           Mg  tau(   4) = (  -0.0000005   0.5783905   0.7031010  )
         5           Zn  tau(   5) = (   0.0000000   0.0000000   0.0000000  )
         6           Zn  tau(   6) = (   0.0000000   0.0000000   0.8028017  )
         7           Zn  tau(   7) = (   0.0000000   0.2947320   1.2042025  )
         8           Zn  tau(   8) = (   0.7465558   0.1473660   0.4014008  )
         9           Zn  tau(   9) = (   0.2552454   0.1473660   0.4014008  )
        10           Zn  tau(  10) = (   0.2456552   0.7202193   1.2042025  )
        11           Zn  tau(  11) = (  -0.2456552   0.7202193   1.2042025  )
        12           Zn  tau(  12) = (   0.5009006   0.5728533   0.4014008  )

     number of k points=    12  gaussian smearing, width (Ry)=  0.1000
                       cart. coord. in units 2pi/alat
        k(    1) = (   0.0000000   0.0000000   0.0000000), wk =   0.0833333
        k(    2) = (   0.0000000   0.0000000   0.1557047), wk =   0.1666667
        k(    3) = (   0.0000000   0.0000000  -0.3114094), wk =   0.0833333
        k(    4) = (   0.0000000   0.3842081   0.0000000), wk =   0.1666667
        k(    5) = (   0.0000000   0.3842081   0.1557047), wk =   0.3333333
        k(    6) = (   0.0000000   0.3842081  -0.3114094), wk =   0.1666667
        k(    7) = (  -0.4991010  -0.2881561   0.0000000), wk =   0.0833333
        k(    8) = (  -0.4991010  -0.2881561   0.1557047), wk =   0.1666667
        k(    9) = (  -0.4991010  -0.2881561  -0.3114094), wk =   0.0833333
        k(   10) = (  -0.4991010   0.0960520   0.0000000), wk =   0.1666667
        k(   11) = (  -0.4991010   0.0960520   0.1557047), wk =   0.3333333
        k(   12) = (  -0.4991010   0.0960520  -0.3114094), wk =   0.1666667

     Largest allocated arrays     est. size (Mb)     dimensions
     Largest temporary arrays     est. size (Mb)     dimensions

     Initial potential from superposition of free atoms

     Starting from uniform charge
     Starting wfc are    0 randomized atomic wfcs

     Writing output data file Prototype-La-hP12-MgZn2.save

     Self-consistent Calculation

[...]

     iteration #  8     ecut=    40.00 Ry     beta=0.70
     CG style diagonalization
     c_bands:  1 eigenvalues not converged
     ethr =  6.12E-05,  avg # of iterations =  4.2

[...]

     total energy              =   -3247.47337920 Ry
     Harris-Foulkes estimate   =   -3247.47345037 Ry
     estimated scf accuracy    <       0.00014030 Ry

     iteration # 12     ecut=    40.00 Ry     beta=0.70
     CG style diagonalization
     ethr =  5.85E-08,  avg # of iterations =  3.7

     End of self-consistent calculation

[...]

          k = 0.0000 0.3842-0.3114 (  5820 PWs)   bands (ev):

[...]

          k =-0.4991 0.0961-0.3114 (  5834 PWs)   bands (ev):

   -92.4150 -92.4150 -92.3872 -92.3871 -51.1979 -51.1979 -51.1930 -51.1930
   -51.1865 -51.1865 -51.1822 -51.1822 -51.1761 -51.1761 -51.1667 -51.1667
   -37.3302 -37.3302 -37.2102 -37.2102 -37.0702 -37.0702 -36.9187 -36.9187
    -9.6444  -9.6444  -9.1221  -9.1221  -8.7424  -8.7424  -8.6935  -8.6935
    -8.5738  -8.5738  -8.4635  -8.4635  -8.2762  -8.2762  -8.0154  -8.0153
    -7.8073  -7.8073  -7.6881  -7.6881  -7.5471  -7.5471  -7.4811  -7.4811
     6.6288   6.6288   6.6355   6.6355   6.7271   6.7271   6.7915   6.7915
     6.8100   6.8100   6.8876   6.8876   6.9105   6.9105   6.9502   6.9502
     7.0546   7.0546   7.0596   7.0596  18.1467  18.1467  19.1894  19.1894
    22.4623  22.4623  22.8368  22.8368  23.0575  23.0575  23.4020  23.4020
    23.6522  23.6522  24.0534  24.0534  24.3632  24.3632  24.6545  24.6545
    24.8554  24.8554  25.6840  25.6840  26.2089  26.2089  26.4361  26.4361
    26.7544  26.7544  27.0907  27.0907  27.5866  27.5866  27.8568  27.8568
    28.2013  28.2013  28.7875  28.7875  29.0041  29.0041  29.4251  29.4251
    30.3554  30.3554  30.6932  30.6933  31.6467  31.6467  31.9828  31.9828
    32.2111  32.2111  33.3201  33.3202  34.6385  34.6385  35.6901  35.6901
    36.2845  36.2845  36.9326  36.9326  37.7550  37.7551  38.4879  38.4879
    39.2435  39.2435  39.6590  39.6591  40.0741  40.0742  40.2040  40.2042

     the Fermi energy is    32.3511 ev

!    total energy              =   -3247.47340230 Ry
     Harris-Foulkes estimate   =   -3247.47341342 Ry
     estimated scf accuracy    <       0.00001254 Ry

     The total energy is the sum of the following terms:

     one-electron contribution =    -517.04647935 Ry
     hartree contribution      =     451.19323029 Ry
     xc contribution           =    -292.05522290 Ry
     ewald contribution        =   -2889.17324778 Ry
     smearing contrib. (-TS)   =      -0.39168256 Ry

     convergence has been achieved in  12 iterations

     Forces acting on atoms (Ry/au):

     atom    1 type  1   force =     0.00000000    0.00000000   -0.00989926
     atom    2 type  1   force =     0.00000000    0.00000000   -0.00989926
     atom    3 type  1   force =     0.00000000    0.00000000    0.00989926
     atom    4 type  1   force =     0.00000000    0.00000000    0.00989926
     atom    5 type  2   force =     0.00000000    0.00000000    0.00000000
     atom    6 type  2   force =     0.00000000    0.00000000    0.00000000
     atom    7 type  2   force =     0.00000000    0.05188826    0.00000000
     atom    8 type  2   force =    -0.04493655    0.02594413    0.00000000
     atom    9 type  2   force =     0.04493655    0.02594413    0.00000000
     atom   10 type  2   force =    -0.04493655   -0.02594413    0.00000000
     atom   11 type  2   force =     0.04493655   -0.02594413    0.00000000
     atom   12 type  2   force =     0.00000000   -0.05188826    0.00000000

     Total force =     0.128633     Total SCF correction =     0.000000

     entering subroutine stress ...

          total   stress  (Ry/bohr**3)                   (kbar)     P=  762.18
   0.00516778   0.00000000   0.00000000        760.21      0.00      0.00
   0.00000000   0.00516778   0.00000000          0.00    760.21      0.00
   0.00000000   0.00000000   0.00520812          0.00      0.00    766.14

     Writing output data file Prototype-La-hP12-MgZn2.save

     General routines

     Parallel routines

   This run was terminated on:  12:59:33  22Mar2018

   JOB DONE.