     Program PWSCF v.5.0.2 starts on 22Mar2018 at  0:32:20

     Current dimensions of program PWSCF are:
     Max number of different atomic species (ntypx) = 10
     Max number of k-points (npk) =  40000
     Max angular momentum in pseudopotentials (lmaxx) =  3
     Waiting for input...
     Reading input from standard input

     Subspace diagonalization in iterative solution of the eigenvalue problem:
     a serial algorithm will be used

     bravais-lattice index     =            0
     lattice parameter (alat)  =      12.8532  a.u.
     unit-cell volume          =    1390.2597 (a.u.)^3
     number of atoms/cell      =            6
     number of atomic types    =            2
     number of electrons       =       112.00
     number of Kohn-Sham states=           67
     kinetic-energy cutoff     =      40.0000  Ry
     charge density cutoff     =     160.0000  Ry
     convergence threshold     =      1.0E-04
     mixing beta               =       0.7000
     number of iterations used =            8  plain     mixing
     Exchange-correlation      = SLA-PZ-NOGX-NOGC ( 1 1 0 0 0)
     EXX-fraction              =        0.00
     nstep                     =           50

     celldm(1)=  12.853229  celldm(2)=   0.000000  celldm(3)=   0.000000
     celldm(4)=   0.000000  celldm(5)=   0.000000  celldm(6)=   0.000000

     crystal axes: (cart. coord. in units of alat)
               a(1) = (   1.000000   0.000000   0.000000 )
               a(2) = (  -0.036574   0.999331   0.000000 )
               a(3) = (  -0.266883  -0.706777   0.655164 )

     reciprocal axes: (cart. coord. in units 2 pi/alat)
               b(1) = (  1.000000  0.036598  0.446834 )
               b(2) = (  0.000000  1.000669  1.079502 )
               b(3) = (  0.000000  0.000000  1.526336 )

     PseudoPot. # 1 for Ce read from file:
     /home/jld5415/pp.La/Ce.UPF
     MD5 check sum: 44451aa79a44a00cf2bc029dc19922f6
     Pseudo is Norm-conserving, Zval = 12.0
     Generated in analytical, separable form
     Using radial grid of 1255 points,  6 beta functions with:
                l(1) =   0
                l(2) =   0
                l(3) =   1
                l(4) =   1
                l(5) =   2
                l(6) =   3

     PseudoPot. # 2 for Er read from file:
     /home/jld5415/pp.La/Er.UPF
     MD5 check sum: e152ae21b84514339d8526f066caf99b
     Pseudo is Norm-conserving, Zval = 22.0
     Generated in analytical, separable form
     Using radial grid of 1267 points,  6 beta functions with:
                l(1) =   0
                l(2) =   0
                l(3) =   1
                l(4) =   1
                l(5) =   2
                l(6) =   3

     atomic species   valence    mass     pseudopotential
        K             12.00    39.09830     Ce( 1.00)
        Hg            22.00   200.59000     Er( 1.00)

      2 Sym. Ops., with inversion, found

   Cartesian axes

     site n.     atom                  positions (alat units)
         1           K   tau(   1) = (  -0.0340766   0.4201429   0.4913727  )
         2           K   tau(   2) = (   0.7306201  -0.1275892   0.1637909  )
         3           Hg  tau(   3) = (   0.2308977  -0.0548727   0.3630373  )
         4           Hg  tau(   4) = (   0.4656458   0.3474265   0.2921263  )
         5           Hg  tau(   5) = (   0.5181090  -0.3317640   0.6197082  )
         6           Hg  tau(   6) = (   0.1784345   0.6243178   0.0354555  )

     number of k points=   253  gaussian smearing, width (Ry)=  0.1000

     Number of k-points >= 100: set verbosity='high' to print them.

     Largest allocated arrays     est. size (Mb)     dimensions
     Largest temporary arrays     est. size (Mb)     dimensions

     Initial potential from superposition of free atoms

     Starting from uniform charge
     Starting wfc are    0 randomized atomic wfcs

     Self-consistent Calculation

     iteration #  1     ecut=    40.00 Ry     beta=0.70
     CG style diagonalization
     ethr =  1.00E-02,  avg # of iterations = 17.8

     total energy              =    -994.51103463 Ry
     Harris-Foulkes estimate   =   -2233.68229231 Ry
     estimated scf accuracy    <    1502.85657839 Ry

     iteration #  2     ecut=    40.00 Ry     beta=0.70
     CG style diagonalization
     c_bands:  5 eigenvalues not converged
     c_bands:  3 eigenvalues not converged
     c_bands:  2 eigenvalues not converged
     c_bands:  2 eigenvalues not converged
     c_bands:  2 eigenvalues not converged
     c_bands:  2 eigenvalues not converged
     c_bands:  2 eigenvalues not converged
     c_bands:  2 eigenvalues not converged
     c_bands:  2 eigenvalues not converged
     c_bands:  3 eigenvalues not converged
     c_bands:  3 eigenvalues not converged
     c_bands:  2 eigenvalues not converged
     c_bands:  1 eigenvalues not converged
     c_bands:  2 eigenvalues not converged
     c_bands:  1 eigenvalues not converged
     c_bands:  1 eigenvalues not converged
     c_bands:  2 eigenvalues not converged
     c_bands:  2 eigenvalues not converged
     c_bands:  3 eigenvalues not converged
     c_bands:  3 eigenvalues not converged
     c_bands:  1 eigenvalues not converged
     c_bands:  2 eigenvalues not converged
     c_bands:  2 eigenvalues not converged
     c_bands:  2 eigenvalues not converged
     c_bands:  1 eigenvalues not converged
     c_bands:  1 eigenvalues not converged
     c_bands:  2 eigenvalues not converged
     c_bands:  1 eigenvalues not converged
     c_bands:  1 eigenvalues not converged
     c_bands:  3 eigenvalues not converged
     c_bands:  3 eigenvalues not converged
     c_bands:  5 eigenvalues not converged
     c_bands:  3 eigenvalues not converged
     c_bands:  2 eigenvalues not converged
     c_bands:  3 eigenvalues not converged
     c_bands:  5 eigenvalues not converged
     c_bands:  4 eigenvalues not converged
     c_bands:  3 eigenvalues not converged
     c_bands:  1 eigenvalues not converged
     c_bands:  1 eigenvalues not converged
     c_bands:  1 eigenvalues not converged
     c_bands:  5 eigenvalues not converged
     c_bands:  4 eigenvalues not converged
     c_bands:  1 eigenvalues not converged
     c_bands:  1 eigenvalues not converged
     c_bands:  1 eigenvalues not converged
     c_bands:  2 eigenvalues not converged
     c_bands:  3 eigenvalues not converged
     c_bands:  5 eigenvalues not converged
     c_bands:  4 eigenvalues not converged
     c_bands:  4 eigenvalues not converged
     c_bands:  2 eigenvalues not converged
     c_bands:  2 eigenvalues not converged
     c_bands:  1 eigenvalues not converged
     c_bands:  4 eigenvalues not converged
     c_bands:  1 eigenvalues not converged
     c_bands:  2 eigenvalues not converged
     c_bands:  1 eigenvalues not converged
     c_bands:  2 eigenvalues not converged
     c_bands:  1 eigenvalues not converged
[...]
     c_bands:  5 eigenvalues not converged
     c_bands:  2 eigenvalues not converged
     c_bands:  3 eigenvalues not converged
     c_bands:  1 eigenvalues not converged
     c_bands:  2 eigenvalues not converged
     c_bands:  1 eigenvalues not converged
     c_bands:  1 eigenvalues not converged
     c_bands:  3 eigenvalues not converged
     c_bands:  4 eigenvalues not converged
     c_bands:  2 eigenvalues not converged
     c_bands:  2 eigenvalues not converged
     c_bands:  4 eigenvalues not converged
     c_bands:  2 eigenvalues not converged
     c_bands:  1 eigenvalues not converged
     c_bands:  3 eigenvalues not converged
     ethr =  1.00E-02,  avg # of iterations = 13.8

[...]

     End of self-consistent calculation

     Number of k-points >= 100: set verbosity='high' to print the bands.

     the Fermi energy is    14.5288 ev

!    total energy              =   -1471.93437412 Ry
     Harris-Foulkes estimate   =   -1471.93438520 Ry
     estimated scf accuracy    <       0.00001191 Ry

     The total energy is the sum of the following terms:

     one-electron contribution =    -753.83368104 Ry
     hartree contribution      =     395.55308317 Ry
     xc contribution           =    -129.70402474 Ry
     ewald contribution        =    -983.56569561 Ry
     smearing contrib. (-TS)   =      -0.38405590 Ry

     convergence has been achieved in  13 iterations

     Forces acting on atoms (Ry/au):

     atom    1 type  1   force =    -0.00520508   -0.00445563   -0.00041044
     atom    2 type  1   force =     0.00520508    0.00445563    0.00041044
     atom    3 type  2   force =    -0.00822671    0.01290847   -0.00962281
     atom    4 type  2   force =     0.00822671   -0.01290847    0.00962281
     atom    5 type  2   force =     0.01655807   -0.00542716    0.01002381
     atom    6 type  2   force =    -0.01655807    0.00542716   -0.01002381

     Total force =     0.039449     Total SCF correction =     0.000000

     entering subroutine stress ...

          total   stress  (Ry/bohr**3)                   (kbar)     P= -381.51
  -0.00262687   0.00009329  -0.00014452       -386.43     13.72    -21.26
   0.00009329  -0.00261951   0.00013866         13.72   -385.34     20.40
  -0.00014452   0.00013866  -0.00253392        -21.26     20.40   -372.75

     BFGS Geometry Optimization

     number of scf cycles    =   1
     number of bfgs steps    =   0

     enthalpy new            =   -1471.9343741158 Ry

     new trust radius        =       0.4907788922 bohr
     new conv_thr            =       0.0001000000 Ry

     new unit-cell volume =   1136.95553 a.u.^3 (   168.47943 Ang^3 )

CELL_PARAMETERS (alat= 12.85322937)
   0.934328219   0.002332201  -0.003613024
  -0.031841019   0.933801736   0.003596271
  -0.253371748  -0.658843324   0.612174609

ATOMIC_POSITIONS (crystal)
K        0.200430082   0.950480642   0.749951260
K        0.799569918   0.049519358   0.250048740
Hg       0.390169175   0.337186781   0.552974280
Hg       0.609830825   0.662813219   0.447025720
Hg       0.784495261   0.337409345   0.947073340
Hg       0.215504739   0.662590655   0.052926660

     Writing output data file Prototype-La-oI12-KHg2.save
     NEW-OLD atomic charge density approx. for the potential
     NEW k-points: (use verbosity='high' to print them)

[...]

     enthalpy old            =   -1471.9343741158 Ry
     enthalpy new            =   -1472.3930081526 Ry

     CASE: enthalpy_new < enthalpy_old

     small trust_radius: resetting bfgs history

[...]

     number of scf cycles    =   3
     number of bfgs steps    =   2

     enthalpy old            =   -1472.3930081526 Ry
     enthalpy new            =   -1472.4443366225 Ry

     CASE: enthalpy_new < enthalpy_old

     Message from routine bfgs:
     history already reset at previous step: stopping
     small trust_radius: resetting bfgs history

     new trust radius        =       0.0620144639 bohr
     new conv_thr            =       0.0000252358 Ry

     new unit-cell volume =   1073.05440 a.u.^3 (   159.01026 Ang^3 )

[...]

ATOMIC_POSITIONS (crystal)
K        0.198335455   0.948822378   0.749513253
K        0.801664545   0.051177622   0.250486747
Hg       0.383544052   0.338091320   0.545464244
Hg       0.616455948   0.661908680   0.454535756
Hg       0.794331815   0.339372419   0.954957412
Hg       0.205668185   0.660627581   0.045042588

     Writing output data file Prototype-La-oI12-KHg2.save
     NEW-OLD atomic charge density approx. for the potential
     NEW k-points: (use verbosity='high' to print them)

[...]

     The maximum number of steps has been reached.

     End of BFGS Geometry Optimization
Begin final coordinates
     new unit-cell volume =   1073.05440 a.u.^3 (   159.01026 Ang^3 )

CELL_PARAMETERS (alat= 12.85322937)
   0.915583715   0.012828649  -0.014409035
  -0.020655601   0.914594342   0.014763072
  -0.262871473  -0.641272779   0.597357860

ATOMIC_POSITIONS (crystal)
K        0.198335455   0.948822378   0.749513253
K        0.801664545   0.051177622   0.250486747
Hg       0.383544052   0.338091320   0.545464244
Hg       0.616455948   0.661908680   0.454535756
Hg       0.794331815   0.339372419   0.954957412
Hg       0.205668185   0.660627581   0.045042588
End final coordinates

     A final scf calculation at the relaxed structure.
     The G-vectors are recalculated for the final unit cell
     Results may differ from those at the preceding step.

     bravais-lattice index     =            0
     lattice parameter (alat)  =      12.8532  a.u.
     unit-cell volume          =    1073.0544 (a.u.)^3
     number of atoms/cell      =            6
     number of atomic types    =            2
     number of electrons       =       112.00
     number of Kohn-Sham states=           67
     kinetic-energy cutoff     =      40.0000  Ry
     charge density cutoff     =     160.0000  Ry
     convergence threshold     =      2.5E-05
     mixing beta               =       0.7000
     number of iterations used =            8  plain     mixing
     Exchange-correlation      = SLA-PZ-NOGX-NOGC ( 1 1 0 0 0)
     EXX-fraction              =        0.00

     celldm(1)=  12.853229  celldm(2)=   0.000000  celldm(3)=   0.000000
     celldm(4)=   0.000000  celldm(5)=   0.000000  celldm(6)=   0.000000

     crystal axes: (cart. coord. in units of alat)
               a(1) = (   0.915584   0.012829  -0.014409 )
               a(2) = (  -0.020656   0.914594   0.014763 )
               a(3) = (  -0.262871  -0.641273   0.597358 )

     reciprocal axes: (cart. coord. in units 2 pi/alat)
               b(1) = (  1.099865  0.016737  0.501971 )
               b(2) = (  0.003120  1.074805  1.155192 )
               b(3) = (  0.026453 -0.026159  1.657597 )

     PseudoPot. # 1 for Ce read from file:
     /home/jld5415/pp.La/Ce.UPF
     MD5 check sum: 44451aa79a44a00cf2bc029dc19922f6
     Pseudo is Norm-conserving, Zval = 12.0
     Generated in analytical, separable form
     Using radial grid of 1255 points,  6 beta functions with:
                l(1) =   0
                l(2) =   0
                l(3) =   1
                l(4) =   1
                l(5) =   2
                l(6) =   3

     PseudoPot. # 2 for Er read from file:
     /home/jld5415/pp.La/Er.UPF
     MD5 check sum: e152ae21b84514339d8526f066caf99b
     Pseudo is Norm-conserving, Zval = 22.0
     Generated in analytical, separable form
     Using radial grid of 1267 points,  6 beta functions with:
                l(1) =   0
                l(2) =   0
                l(3) =   1
                l(4) =   1
                l(5) =   2
                l(6) =   3

     atomic species   valence    mass     pseudopotential
        K             12.00    39.09830     Ce( 1.00)
        Hg            22.00   200.59000     Er( 1.00)

      2 Sym. Ops., with inversion, found

   Cartesian axes

     site n.     atom                  positions (alat units)
         1           K   tau(   1) = (  -0.0350314   0.3896895   0.4588773  )
         2           K   tau(   2) = (   0.6670881  -0.1035393   0.1388346  )
         3           Hg  tau(   3) = (   0.2007962  -0.0356546   0.3253021  )
         4           Hg  tau(   4) = (   0.4312604   0.3218048   0.2724098  )
         5           Hg  tau(   5) = (   0.4692363  -0.2918099   0.5640159  )
         6           Hg  tau(   6) = (   0.1628204   0.5779601   0.0336960  )

     number of k points=   253  gaussian smearing, width (Ry)=  0.1000

     Number of k-points >= 100: set verbosity='high' to print them.

     Largest allocated arrays     est. size (Mb)     dimensions
     Largest temporary arrays     est. size (Mb)     dimensions

     Initial potential from superposition of free atoms

     Starting from uniform charge
     Starting wfc are    0 randomized atomic wfcs

     Writing output data file Prototype-La-oI12-KHg2.save

     Self-consistent Calculation

[...]

     iteration #  7     ecut=    40.00 Ry     beta=0.70
     CG style diagonalization
     ethr =  1.98E-03,  avg # of iterations =  4.2

[...]

     total energy              =   -1471.73027110 Ry
     Harris-Foulkes estimate   =   -1471.73050678 Ry
     estimated scf accuracy    <       0.00046745 Ry

     iteration # 12     ecut=    40.00 Ry     beta=0.70
     CG style diagonalization
     c_bands:  1 eigenvalues not converged
     ethr =  4.17E-07,  avg # of iterations =  3.6

     End of self-consistent calculation

     Number of k-points >= 100: set verbosity='high' to print the bands.

     the Fermi energy is    19.9407 ev

!    total energy              =   -1471.73038085 Ry
     Harris-Foulkes estimate   =   -1471.73040254 Ry
     estimated scf accuracy    <       0.00002469 Ry

     The total energy is the sum of the following terms:

     one-electron contribution =    -598.36093148 Ry
     hartree contribution      =     338.80216428 Ry
     xc contribution           =    -131.01410006 Ry
     ewald contribution        =   -1080.86492388 Ry
     smearing contrib. (-TS)   =      -0.29258971 Ry

     convergence has been achieved in  12 iterations

     Forces acting on atoms (Ry/au):

     atom    1 type  1   force =     0.00456409    0.00034909    0.00193046
     atom    2 type  1   force =    -0.00456409   -0.00034909   -0.00193046
     atom    3 type  2   force =    -0.01245103    0.03851493   -0.02262916
     atom    4 type  2   force =     0.01245103   -0.03851493    0.02262916
     atom    5 type  2   force =     0.02090684   -0.00472112    0.01202222
     atom    6 type  2   force =    -0.02090684    0.00472112   -0.01202222

     Total force =     0.074553     Total SCF correction =     0.000000

     entering subroutine stress ...

          total   stress  (Ry/bohr**3)                   (kbar)     P= -258.77
  -0.00177557   0.00030667  -0.00028015       -261.20     45.11    -41.21
   0.00030667  -0.00178072   0.00028277         45.11   -261.95     41.60
  -0.00028015   0.00028277  -0.00172101        -41.21     41.60   -253.17

     Writing output data file Prototype-La-oI12-KHg2.save

     General routines

     Parallel routines

   This run was terminated on:   4:23:49  22Mar2018

   JOB DONE.