     Program PWSCF v.5.0.2 starts on 22Mar2018 at  0:32:20

     Current dimensions of program PWSCF are:
     Max number of different atomic species (ntypx) = 10
     Max number of k-points (npk) =  40000
     Max angular momentum in pseudopotentials (lmaxx) =  3
     Waiting for input...
     Reading input from standard input

     Subspace diagonalization in iterative solution of the eigenvalue problem:
     a serial algorithm will be used

     bravais-lattice index     =            0
     lattice parameter (alat)  =       9.9235  a.u.
     unit-cell volume          =    1361.0366 (a.u.)^3
     number of atoms/cell      =           12
     number of atomic types    =            2
     number of electrons       =       224.00
     number of Kohn-Sham states=          134
     kinetic-energy cutoff     =      40.0000  Ry
     charge density cutoff     =     160.0000  Ry
     convergence threshold     =      1.0E-04
     mixing beta               =       0.7000
     number of iterations used =            8  plain     mixing
     Exchange-correlation      = SLA-PZ-NOGX-NOGC ( 1 1 0 0 0)
     EXX-fraction              =        0.00
     nstep                     =           50

     celldm(1)=   9.923489  celldm(2)=   0.000000  celldm(3)=   0.000000
     celldm(4)=   0.000000  celldm(5)=   0.000000  celldm(6)=   0.000000

     crystal axes: (cart. coord. in units of alat)
               a(1) = (   1.000000   0.000000   0.000000 )
               a(2) = (  -0.500000   0.866025   0.000000 )
               a(3) = (   0.000000   0.000000   1.608222 )

     reciprocal axes: (cart. coord. in units 2 pi/alat)
               b(1) = (  1.000000  0.577350  0.000000 )
               b(2) = (  0.000000  1.154701  0.000000 )
               b(3) = (  0.000000  0.000000  0.621805 )

     PseudoPot. # 1 for Ce read from file:
     /home/jld5415/pp.La/Ce.UPF
     MD5 check sum: 44451aa79a44a00cf2bc029dc19922f6
     Pseudo is Norm-conserving, Zval = 12.0
     Generated in analytical, separable form
     Using radial grid of 1255 points,  6 beta functions with:
                l(1) =   0
                l(2) =   0
                l(3) =   1
                l(4) =   1
                l(5) =   2
                l(6) =   3

     PseudoPot. # 2 for Er read from file:
     /home/jld5415/pp.La/Er.UPF
     MD5 check sum: e152ae21b84514339d8526f066caf99b
     Pseudo is Norm-conserving, Zval = 22.0
     Generated in analytical, separable form
     Using radial grid of 1267 points,  6 beta functions with:
                l(1) =   0
                l(2) =   0
                l(3) =   1
                l(4) =   1
                l(5) =   2
                l(6) =   3

     atomic species   valence    mass     pseudopotential
        Mg            12.00    24.30500     Ce( 1.00)
        Zn            22.00    65.39000     Er( 1.00)

     24 Sym. Ops., with inversion, found (12 have fractional translation)

   Cartesian axes

     site n.     atom                  positions (alat units)
         1           Mg  tau(   1) = (  -0.0000005   0.5773506   0.1003820  )
         2           Mg  tau(   2) = (   0.5000005   0.2886748   0.9044931  )
         3           Mg  tau(   3) = (   0.5000005   0.2886748   1.5078402  )
         4           Mg  tau(   4) = (  -0.0000005   0.5773506   0.7037291  )
         5           Zn  tau(   5) = (   0.0000000   0.0000000   0.0000000  )
         6           Zn  tau(   6) = (   0.0000000   0.0000000   0.8041111  )
         7           Zn  tau(   7) = (   0.0000000   0.2950739   1.2061667  )
         8           Zn  tau(   8) = (   0.7444585   0.1475370   0.4020556  )
         9           Zn  tau(   9) = (   0.2555415   0.1475370   0.4020556  )
        10           Zn  tau(  10) = (   0.2444585   0.7184884   1.2061667  )
        11           Zn  tau(  11) = (  -0.2444585   0.7184884   1.2061667  )
        12           Zn  tau(  12) = (   0.5000000   0.5709515   0.4020556  )

     number of k points=    12  gaussian smearing, width (Ry)=  0.1000
                       cart. coord. in units 2pi/alat
        k(    1) = (   0.0000000   0.0000000   0.0000000), wk =   0.0833333
        k(    2) = (   0.0000000   0.0000000   0.1554512), wk =   0.1666667
        k(    3) = (   0.0000000   0.0000000  -0.3109023), wk =   0.0833333
        k(    4) = (   0.0000000   0.3849002   0.0000000), wk =   0.1666667
        k(    5) = (   0.0000000   0.3849002   0.1554512), wk =   0.3333333
        k(    6) = (   0.0000000   0.3849002  -0.3109023), wk =   0.1666667
        k(    7) = (  -0.5000000  -0.2886751   0.0000000), wk =   0.0833333
        k(    8) = (  -0.5000000  -0.2886751   0.1554512), wk =   0.1666667
        k(    9) = (  -0.5000000  -0.2886751  -0.3109023), wk =   0.0833333
        k(   10) = (  -0.5000000   0.0962250   0.0000000), wk =   0.1666667
        k(   11) = (  -0.5000000   0.0962250   0.1554512), wk =   0.3333333
        k(   12) = (  -0.5000000   0.0962250  -0.3109023), wk =   0.1666667

     Largest allocated arrays     est. size (Mb)     dimensions
     Largest temporary arrays     est. size (Mb)     dimensions

     Initial potential from superposition of free atoms

     Starting from uniform charge
     Starting wfc are    0 randomized atomic wfcs

     Self-consistent Calculation

     iteration #  1     ecut=    40.00 Ry     beta=0.70
     CG style diagonalization
     c_bands:  1 eigenvalues not converged
     c_bands:  2 eigenvalues not converged
     c_bands:  2 eigenvalues not converged
     c_bands:  2 eigenvalues not converged
     c_bands:  2 eigenvalues not converged
     c_bands:  3 eigenvalues not converged
     c_bands:  3 eigenvalues not converged
     c_bands:  4 eigenvalues not converged
     c_bands:  5 eigenvalues not converged
     c_bands:  3 eigenvalues not converged
     c_bands:  2 eigenvalues not converged
     c_bands:  2 eigenvalues not converged
     ethr =  1.00E-02,  avg # of iterations = 21.4

     total energy              =   -2067.83283133 Ry
     Harris-Foulkes estimate   =   -4117.92323373 Ry
     estimated scf accuracy    <    2468.24670093 Ry

     iteration #  2     ecut=    40.00 Ry     beta=0.70
     CG style diagonalization
     ethr =  1.00E-02,  avg # of iterations = 18.7

[...]

     End of self-consistent calculation

          k = 0.0000 0.0000 0.0000 (  5769 PWs)   bands (ev):

   -70.0781 -70.0560 -70.0540 -69.9919 -69.9919 -69.9793 -69.9793 -69.9715
   -33.0124 -32.8460 -32.6090 -32.3168 -32.3168 -32.3004 -32.2861 -32.2861
   -32.1726 -32.1726 -32.0451 -31.9646 -31.9646 -31.9611 -31.9610 -31.8576
   -31.8576 -31.8347 -31.8137 -31.8137 -31.7546 -31.7545 -31.7338 -31.7181
    -4.8483  -4.6912  -4.4570  -4.3005  10.0652  10.6663  10.8901  11.2787
    11.2787  11.5749  11.7233  11.7233  11.7725  11.9770  12.0096  12.0097
    12.0854  12.0855  12.7972  12.7972  12.8027  12.8027  12.8812  12.8812
    13.1899  13.1899  13.6930  13.7644  13.8878  13.9263  14.4986  14.4986
    15.1257  15.1257  15.2059  15.2670  15.2670  15.3142  15.3142  15.3748
    15.5076  15.5411  15.5551  15.5551  15.6072  15.6072  15.6907  15.6907
    15.7283  15.7283  16.5097  16.5097  16.8707  16.8707  17.3632  17.3642
    17.4194  19.9243  21.7872  23.8687  24.6686  25.9178  25.9178  26.7781
    26.9195  26.9196  26.9614  26.9614  27.7764  27.7764  28.9207  28.9207
    30.5217  30.5217  30.5262  32.2791  33.1978  34.0726  34.0726  34.1298
    34.1299  34.4943  34.4943  34.6512  34.7611  35.6326  35.6326  35.7656
    35.7656  35.9359  36.6014  36.6653  36.8885  37.1052  37.1891  37.1892
    37.7575  37.7579  38.3880  38.5465  38.5474  38.6838

[...]

          k =-0.5000-0.2887 0.0000 (  5800 PWs)   bands (ev):

[...]

     the Fermi energy is    33.5902 ev

!    total energy              =   -2938.63041976 Ry
     Harris-Foulkes estimate   =   -2938.63043265 Ry
     estimated scf accuracy    <       0.00001436 Ry

     The total energy is the sum of the following terms:

     one-electron contribution =    -725.30038027 Ry
     hartree contribution      =     542.79377799 Ry
     xc contribution           =    -269.47163153 Ry
     ewald contribution        =   -2486.20256444 Ry
     smearing contrib. (-TS)   =      -0.44962151 Ry

     convergence has been achieved in  12 iterations

     Forces acting on atoms (Ry/au):

     atom    1 type  1   force =     0.00000000    0.00000000    0.03586696
     atom    2 type  1   force =     0.00000000    0.00000000    0.03586696
     atom    3 type  1   force =     0.00000000    0.00000000   -0.03586696
     atom    4 type  1   force =     0.00000000    0.00000000   -0.03586696
     atom    5 type  2   force =     0.00000000    0.00000000    0.00000000
     atom    6 type  2   force =     0.00000000    0.00000000    0.00000000
     atom    7 type  2   force =     0.00000000    0.14456291    0.00000000
     atom    8 type  2   force =    -0.12519515    0.07228145    0.00000000
     atom    9 type  2   force =     0.12519515    0.07228145    0.00000000
     atom   10 type  2   force =    -0.12519515   -0.07228145    0.00000000
     atom   11 type  2   force =     0.12519515   -0.07228145    0.00000000
     atom   12 type  2   force =     0.00000000   -0.14456291    0.00000000

     Total force =     0.361298     Total SCF correction =     0.000000

     entering subroutine stress ...

          total   stress  (Ry/bohr**3)                   (kbar)     P= 1248.41
   0.00835335   0.00000000   0.00000000       1228.82      0.00      0.00
   0.00000000   0.00835335   0.00000000          0.00   1228.82      0.00
   0.00000000   0.00000000   0.00875286          0.00      0.00   1287.59

     BFGS Geometry Optimization

     number of scf cycles    =   1
     number of bfgs steps    =   0

     enthalpy new            =   -2938.6304197557 Ry

     new trust radius        =       0.5000000000 bohr
     new conv_thr            =       0.0001000000 Ry

     new unit-cell volume =   1647.31657 a.u.^3 (   244.10713 Ang^3 )

CELL_PARAMETERS (alat=  9.92348860)
   1.064671908   0.000000000   0.000000000
  -0.532335954   0.922032919   0.000000000
   0.000000000   0.000000000   1.717203317

ATOMIC_POSITIONS (crystal)
Mg       0.333333000   0.666667000   0.063113984
Mg       0.666667000   0.333333000   0.563113984
Mg       0.666667000   0.333333000   0.936886016
Mg       0.333333000   0.666667000   0.436886016
Zn       0.000000000   0.000000000   0.000000000
Zn       0.000000000   0.000000000   0.500000000
Zn       0.172965636   0.345931271   0.750000000
Zn       0.827034364   0.172965636   0.250000000
Zn       0.345931271   0.172965636   0.250000000
Zn       0.654068729   0.827034364   0.750000000
Zn       0.172965636   0.827034364   0.750000000
Zn       0.827034364   0.654068729   0.250000000

     Writing output data file Prototype-La-hP12-MgZn2.save
     NEW-OLD atomic charge density approx. for the potential
     NEW k-points:
        k(    1) = (   0.0000000   0.0000000   0.0000000), wk =   0.0833333
        k(    2) = (   0.0000000   0.0000000   0.1455856), wk =   0.1666667
        k(    3) = (   0.0000000   0.0000000  -0.2911711), wk =   0.0833333
        k(    4) = (   0.0000000   0.3615200   0.0000000), wk =   0.1666667
        k(    5) = (   0.0000000   0.3615200   0.1455856), wk =   0.3333333
        k(    6) = (   0.0000000   0.3615200  -0.2911711), wk =   0.1666667
        k(    7) = (  -0.4696282  -0.2711400   0.0000000), wk =   0.0833333
        k(    8) = (  -0.4696282  -0.2711400   0.1455856), wk =   0.1666667
        k(    9) = (  -0.4696282  -0.2711400  -0.2911711), wk =   0.0833333
        k(   10) = (  -0.4696282   0.0903800   0.0000000), wk =   0.1666667
        k(   11) = (  -0.4696282   0.0903800   0.1455856), wk =   0.3333333
        k(   12) = (  -0.4696282   0.0903800  -0.2911711), wk =   0.1666667

[...]

     enthalpy old            =   -2938.6304197557 Ry
     enthalpy new            =   -2939.6926882792 Ry

     CASE: enthalpy_new < enthalpy_old

     small trust_radius: resetting bfgs history

     new trust radius        =       0.0707731793 bohr
     new conv_thr            =       0.0000461720 Ry

[...]

     number of scf cycles    =   3
     number of bfgs steps    =   2

     enthalpy old            =   -2939.6926882792 Ry
     enthalpy new            =   -2939.6767345236 Ry

     CASE: enthalpy_new > enthalpy_old

     new trust radius        =       0.0209398740 bohr

     trust_radius < trust_radius_min

     resetting bfgs history

     Message from routine bfgs:
     history already reset at previous step: stopping
     new conv_thr            =       0.0000461720 Ry

     new unit-cell volume =   1616.75237 a.u.^3 (   239.57798 Ang^3 )

[...]

ATOMIC_POSITIONS (crystal)
Mg       0.333333000   0.666667000   0.064501562
Mg       0.666667000   0.333333000   0.564501562
Mg       0.666667000   0.333333000   0.935498438
Mg       0.333333000   0.666667000   0.435498438
Zn       0.000000000   0.000000000   0.000000000
Zn       0.000000000   0.000000000   0.500000000
Zn       0.170417479   0.340834959   0.750000000
Zn       0.829582521   0.170417479   0.250000000
Zn       0.340834959   0.170417479   0.250000000
Zn       0.659165041   0.829582521   0.750000000
Zn       0.170417479   0.829582521   0.750000000
Zn       0.829582521   0.659165041   0.250000000

     Writing output data file Prototype-La-hP12-MgZn2.save
     NEW-OLD atomic charge density approx. for the potential
     NEW k-points:
        k(    1) = (   0.0000000   0.0000000   0.0000000), wk =   0.0833333
        k(    2) = (   0.0000000   0.0000000   0.1468675), wk =   0.1666667
        k(    3) = (   0.0000000   0.0000000  -0.2937350), wk =   0.0833333
        k(    4) = (   0.0000000   0.3633251   0.0000000), wk =   0.1666667
        k(    5) = (   0.0000000   0.3633251   0.1468675), wk =   0.3333333
        k(    6) = (   0.0000000   0.3633251  -0.2937350), wk =   0.1666667
        k(    7) = (  -0.4719732  -0.2724938   0.0000000), wk =   0.0833333
        k(    8) = (  -0.4719732  -0.2724938   0.1468675), wk =   0.1666667
        k(    9) = (  -0.4719732  -0.2724938  -0.2937350), wk =   0.0833333
        k(   10) = (  -0.4719732   0.0908313   0.0000000), wk =   0.1666667
        k(   11) = (  -0.4719732   0.0908313   0.1468675), wk =   0.3333333
        k(   12) = (  -0.4719732   0.0908313  -0.2937350), wk =   0.1666667

[...]

     The maximum number of steps has been reached.

     End of BFGS Geometry Optimization
Begin final coordinates
     new unit-cell volume =   1616.75237 a.u.^3 (   239.57798 Ang^3 )

CELL_PARAMETERS (alat=  9.92348860)
   1.059382239   0.000000000   0.000000000
  -0.529691120   0.917451931   0.000000000
   0.000000000   0.000000000   1.702214850

ATOMIC_POSITIONS (crystal)
Mg       0.333333000   0.666667000   0.064501562
Mg       0.666667000   0.333333000   0.564501562
Mg       0.666667000   0.333333000   0.935498438
Mg       0.333333000   0.666667000   0.435498438
Zn       0.000000000   0.000000000   0.000000000
Zn       0.000000000   0.000000000   0.500000000
Zn       0.170417479   0.340834959   0.750000000
Zn       0.829582521   0.170417479   0.250000000
Zn       0.340834959   0.170417479   0.250000000
Zn       0.659165041   0.829582521   0.750000000
Zn       0.170417479   0.829582521   0.750000000
Zn       0.829582521   0.659165041   0.250000000
End final coordinates

     A final scf calculation at the relaxed structure.
     The G-vectors are recalculated for the final unit cell
     Results may differ from those at the preceding step.

     bravais-lattice index     =            0
     lattice parameter (alat)  =       9.9235  a.u.
     unit-cell volume          =    1616.7524 (a.u.)^3
     number of atoms/cell      =           12
     number of atomic types    =            2
     number of electrons       =       224.00
     number of Kohn-Sham states=          134
     kinetic-energy cutoff     =      40.0000  Ry
     charge density cutoff     =     160.0000  Ry
     convergence threshold     =      4.6E-05
     mixing beta               =       0.7000
     number of iterations used =            8  plain     mixing
     Exchange-correlation      = SLA-PZ-NOGX-NOGC ( 1 1 0 0 0)
     EXX-fraction              =        0.00

     celldm(1)=   9.923489  celldm(2)=   0.000000  celldm(3)=   0.000000
     celldm(4)=   0.000000  celldm(5)=   0.000000  celldm(6)=   0.000000

     crystal axes: (cart. coord. in units of alat)
               a(1) = (   1.059382   0.000000   0.000000 )
               a(2) = (  -0.529691   0.917452   0.000000 )
               a(3) = (   0.000000   0.000000   1.702215 )

     reciprocal axes: (cart. coord. in units 2 pi/alat)
               b(1) = (  0.943946  0.544988  0.000000 )
               b(2) = (  0.000000  1.089975  0.000000 )
               b(3) = (  0.000000  0.000000  0.587470 )

     PseudoPot. # 1 for Ce read from file:
     /home/jld5415/pp.La/Ce.UPF
     MD5 check sum: 44451aa79a44a00cf2bc029dc19922f6
     Pseudo is Norm-conserving, Zval = 12.0
     Generated in analytical, separable form
     Using radial grid of 1255 points,  6 beta functions with:
                l(1) =   0
                l(2) =   0
                l(3) =   1
                l(4) =   1
                l(5) =   2
                l(6) =   3

     PseudoPot. # 2 for Er read from file:
     /home/jld5415/pp.La/Er.UPF
     MD5 check sum: e152ae21b84514339d8526f066caf99b
     Pseudo is Norm-conserving, Zval = 22.0
     Generated in analytical, separable form
     Using radial grid of 1267 points,  6 beta functions with:
                l(1) =   0
                l(2) =   0
                l(3) =   1
                l(4) =   1
                l(5) =   2
                l(6) =   3

     atomic species   valence    mass     pseudopotential
        Mg            12.00    24.30500     Ce( 1.00)
        Zn            22.00    65.39000     Er( 1.00)

     24 Sym. Ops., with inversion, found (12 have fractional translation)

   Cartesian axes

     site n.     atom                  positions (alat units)
         1           Mg  tau(   1) = (  -0.0000005   0.6116349   0.1097955  )
         2           Mg  tau(   2) = (   0.5296916   0.3058170   0.9609029  )
         3           Mg  tau(   3) = (   0.5296916   0.3058170   1.5924193  )
         4           Mg  tau(   4) = (  -0.0000005   0.6116349   0.7413119  )
         5           Zn  tau(   5) = (   0.0000000   0.0000000   0.0000000  )
         6           Zn  tau(   6) = (   0.0000000   0.0000000   0.8511074  )
         7           Zn  tau(   7) = (   0.0000000   0.3126997   1.2766611  )
         8           Zn  tau(   8) = (   0.7885764   0.1563498   0.4255537  )
         9           Zn  tau(   9) = (   0.2708059   0.1563498   0.4255537  )
        10           Zn  tau(  10) = (   0.2588852   0.7611021   1.2766611  )
        11           Zn  tau(  11) = (  -0.2588852   0.7611021   1.2766611  )
        12           Zn  tau(  12) = (   0.5296911   0.6047522   0.4255537  )

     number of k points=    12  gaussian smearing, width (Ry)=  0.1000
                       cart. coord. in units 2pi/alat
        k(    1) = (   0.0000000   0.0000000   0.0000000), wk =   0.0833333
        k(    2) = (   0.0000000   0.0000000   0.1468675), wk =   0.1666667
        k(    3) = (   0.0000000   0.0000000  -0.2937350), wk =   0.0833333
        k(    4) = (   0.0000000   0.3633251   0.0000000), wk =   0.1666667
        k(    5) = (   0.0000000   0.3633251   0.1468675), wk =   0.3333333
        k(    6) = (   0.0000000   0.3633251  -0.2937350), wk =   0.1666667
        k(    7) = (  -0.4719732  -0.2724938   0.0000000), wk =   0.0833333
        k(    8) = (  -0.4719732  -0.2724938   0.1468675), wk =   0.1666667
        k(    9) = (  -0.4719732  -0.2724938  -0.2937350), wk =   0.0833333
        k(   10) = (  -0.4719732   0.0908313   0.0000000), wk =   0.1666667
        k(   11) = (  -0.4719732   0.0908313   0.1468675), wk =   0.3333333
        k(   12) = (  -0.4719732   0.0908313  -0.2937350), wk =   0.1666667

     Largest allocated arrays     est. size (Mb)     dimensions
     Largest temporary arrays     est. size (Mb)     dimensions

     Initial potential from superposition of free atoms

     Starting from uniform charge
     Starting wfc are    0 randomized atomic wfcs

     Writing output data file Prototype-La-hP12-MgZn2.save

     Self-consistent Calculation

[...]

     iteration # 10     ecut=    40.00 Ry     beta=0.70
     CG style diagonalization
     ethr =  1.66E-05,  avg # of iterations =  3.6

[...]

     total energy              =   -2941.28265952 Ry
     Harris-Foulkes estimate   =   -2941.28282017 Ry
     estimated scf accuracy    <       0.00026481 Ry

     iteration # 12     ecut=    40.00 Ry     beta=0.70
     CG style diagonalization
     c_bands:  1 eigenvalues not converged
     ethr =  1.18E-07,  avg # of iterations =  4.5

     End of self-consistent calculation

[...]

          k = 0.0000 0.3633-0.2937 (  6906 PWs)   bands (ev):

[...]

          k =-0.4720 0.0908-0.2937 (  6898 PWs)   bands (ev):

   -74.9211 -74.9211 -74.8956 -74.8955 -74.8811 -74.8811 -74.8772 -74.8772
   -37.2610 -37.2610 -37.1701 -37.1701 -37.0251 -37.0251 -36.9808 -36.9808
   -36.8925 -36.8925 -36.8713 -36.8713 -36.8267 -36.8267 -36.7869 -36.7869
   -36.7774 -36.7773 -36.7393 -36.7393 -36.7356 -36.7356 -36.7262 -36.7262
   -10.3563 -10.3562 -10.2518 -10.2517   6.8277   6.8278   6.8727   6.8728
     7.1175   7.1176   7.4941   7.4941   7.5952   7.5953   7.7655   7.7655
     7.8431   7.8431   8.2746   8.2746   8.4419   8.4419   8.6506   8.6506
     8.7172   8.7172   9.2748   9.2748   9.3247   9.3247   9.5487   9.5487
     9.7964   9.7964   9.8816   9.8816   9.9771   9.9771  10.1129  10.1129
    10.2240  10.2240  10.4399  10.4399  10.4970  10.4971  10.6589  10.6589
    10.6914  10.6915  10.7576  10.7576  11.0098  11.0098  11.3529  11.3529
    14.7939  14.7939  16.7219  16.7219  19.5132  19.5132  19.8089  19.8089
    22.6234  22.6234  23.5198  23.5198  24.0285  24.0285  25.0363  25.0363
    25.3531  25.3532  26.2577  26.2577  27.1381  27.1381  27.5761  27.5761
    28.0516  28.0516  28.3980  28.3980  28.6523  28.6523  28.9888  28.9888
    29.7703  29.7703  30.6617  30.6617  30.9823  30.9824  31.6463  31.6463
    31.9578  31.9579  32.5319  32.5320  32.5544  32.5545

     the Fermi energy is    27.7928 ev

!    total energy              =   -2941.28280359 Ry
     Harris-Foulkes estimate   =   -2941.28282067 Ry
     estimated scf accuracy    <       0.00001950 Ry

     The total energy is the sum of the following terms:

     one-electron contribution =    -929.05500406 Ry
     hartree contribution      =     602.03916524 Ry
     xc contribution           =    -266.11830898 Ry
     ewald contribution        =   -2347.64845889 Ry
     smearing contrib. (-TS)   =      -0.50019690 Ry

     convergence has been achieved in  12 iterations

     Forces acting on atoms (Ry/au):

     atom    1 type  1   force =     0.00000000    0.00000000    0.00982386
     atom    2 type  1   force =     0.00000000    0.00000000    0.00982386
     atom    3 type  1   force =     0.00000000    0.00000000   -0.00982386
     atom    4 type  1   force =     0.00000000    0.00000000   -0.00982386
     atom    5 type  2   force =     0.00000000    0.00000000    0.00000000
     atom    6 type  2   force =     0.00000000    0.00000000    0.00000000
     atom    7 type  2   force =     0.00000000    0.11427296    0.00000000
     atom    8 type  2   force =    -0.09896329    0.05713648    0.00000000
     atom    9 type  2   force =     0.09896329    0.05713648    0.00000000
     atom   10 type  2   force =    -0.09896329   -0.05713648    0.00000000
     atom   11 type  2   force =     0.09896329   -0.05713648    0.00000000
     atom   12 type  2   force =     0.00000000   -0.11427296    0.00000000

     Total force =     0.280599     Total SCF correction =     0.000000

     entering subroutine stress ...

          total   stress  (Ry/bohr**3)                   (kbar)     P=  358.37
   0.00236055   0.00000000   0.00000000        347.25      0.00      0.00
   0.00000000   0.00236055   0.00000000          0.00    347.25      0.00
   0.00000000   0.00000000   0.00258743          0.00      0.00    380.62

     Writing output data file Prototype-La-hP12-MgZn2.save

     General routines

     Parallel routines

   This run was terminated on:   1: 9:47  22Mar2018

   JOB DONE.