     Program PWSCF v.5.0.2 starts on 22Mar2018 at 16:18:47

     Current dimensions of program PWSCF are:
     Max number of different atomic species (ntypx) = 10
     Max number of k-points (npk) =  40000
     Max angular momentum in pseudopotentials (lmaxx) =  3
     Waiting for input...
     Reading input from standard input

     Subspace diagonalization in iterative solution of the eigenvalue problem:
     a serial algorithm will be used

     bravais-lattice index     =            0
     lattice parameter (alat)  =       8.5346  a.u.
     unit-cell volume          =     621.6493 (a.u.)^3
     number of atoms/cell      =            8
     number of atomic types    =            2
     number of electrons       =       126.00
     number of Kohn-Sham states=           76
     kinetic-energy cutoff     =      40.0000  Ry
     charge density cutoff     =     160.0000  Ry
     convergence threshold     =      1.0E-04
     mixing beta               =       0.7000
     number of iterations used =            8  plain     mixing
     Exchange-correlation      = SLA-PZ-NOGX-NOGC ( 1 1 0 0 0)
     EXX-fraction              =        0.00
     nstep                     =           50

     celldm(1)=   8.534573  celldm(2)=   0.000000  celldm(3)=   0.000000
     celldm(4)=   0.000000  celldm(5)=   0.000000  celldm(6)=   0.000000

     crystal axes: (cart. coord. in units of alat)
               a(1) = (   1.000000   0.000000   0.000000 )
               a(2) = (   0.000000   1.000000   0.000000 )
               a(3) = (   0.000000   0.000000   1.000000 )

     reciprocal axes: (cart. coord. in units 2 pi/alat)
               b(1) = (  1.000000  0.000000  0.000000 )
               b(2) = (  0.000000  1.000000  0.000000 )
               b(3) = (  0.000000  0.000000  1.000000 )

     PseudoPot. # 1 for Pr read from file:
     /home/cwx6513/pp.La/Pr.UPF
     MD5 check sum: 70e2b4b153859e92c8c91247dfc63203
     Pseudo is Norm-conserving, Zval = 13.0
     Generated in analytical, separable form
     Using radial grid of 1255 points,  6 beta functions with:
                l(1) =   0
                l(2) =   0
                l(3) =   1
                l(4) =   1
                l(5) =   2
                l(6) =   3

     PseudoPot. # 2 for Yb read from file:
     /home/cwx6513/pp.La/Yb.UPF
     MD5 check sum: 3e859b81cc28c53ec6aa3a2e888efcdf
     Pseudo is Norm-conserving, Zval = 24.0
     Generated in analytical, separable form
     Using radial grid of 1269 points,  6 beta functions with:
                l(1) =   0
                l(2) =   0
                l(3) =   1
                l(4) =   1
                l(5) =   2
                l(6) =   3

     atomic species   valence    mass     pseudopotential
        Cr            13.00    51.99610     Pr( 1.00)
        Si            24.00    28.08550     Yb( 1.00)

     48 Sym. Ops., with inversion, found (24 have fractional translation)

   Cartesian axes

     site n.     atom                  positions (alat units)
         1           Cr  tau(   1) = (   0.0000000   0.5000000   0.2500000  )
         2           Cr  tau(   2) = (   0.0000000   0.5000000   0.7500000  )
         3           Cr  tau(   3) = (   0.5000000   0.7500000   0.0000000  )
         4           Cr  tau(   4) = (   0.5000000   0.2500000   0.0000000  )
         5           Cr  tau(   5) = (   0.7500000   0.0000000   0.5000000  )
         6           Cr  tau(   6) = (   0.2500000   0.0000000   0.5000000  )
         7           Si  tau(   7) = (   0.5000000   0.5000000   0.5000000  )
         8           Si  tau(   8) = (   0.0000000   0.0000000   0.0000000  )

     number of k points=    48  gaussian smearing, width (Ry)=  0.1000
                       cart. coord. in units 2pi/alat
        k(    1) = (   0.0000000   0.0000000   0.0000000), wk =   0.0095238
        k(    2) = (   0.0000000   0.0000000   0.1428571), wk =   0.0190476
        k(    3) = (   0.0000000   0.0000000   0.2857143), wk =   0.0190476
        k(    4) = (   0.0000000   0.0000000   0.4285714), wk =   0.0190476
        k(    5) = (   0.0000000   0.1666667   0.0000000), wk =   0.0190476
        k(    6) = (   0.0000000   0.1666667   0.1428571), wk =   0.0380952
        k(    7) = (   0.0000000   0.1666667   0.2857143), wk =   0.0380952
        k(    8) = (   0.0000000   0.1666667   0.4285714), wk =   0.0380952
        k(    9) = (   0.0000000   0.3333333   0.0000000), wk =   0.0190476
        k(   10) = (   0.0000000   0.3333333   0.1428571), wk =   0.0380952
        k(   11) = (   0.0000000   0.3333333   0.2857143), wk =   0.0380952
        k(   12) = (   0.0000000   0.3333333   0.4285714), wk =   0.0380952
        k(   13) = (   0.0000000  -0.5000000   0.0000000), wk =   0.0095238
        k(   14) = (   0.0000000  -0.5000000   0.1428571), wk =   0.0190476
        k(   15) = (   0.0000000  -0.5000000   0.2857143), wk =   0.0190476
        k(   16) = (   0.0000000  -0.5000000   0.4285714), wk =   0.0190476
        k(   17) = (   0.2000000   0.0000000   0.0000000), wk =   0.0190476
        k(   18) = (   0.2000000   0.0000000   0.1428571), wk =   0.0380952
        k(   19) = (   0.2000000   0.0000000   0.2857143), wk =   0.0380952
        k(   20) = (   0.2000000   0.0000000   0.4285714), wk =   0.0380952
        k(   21) = (   0.2000000   0.1666667   0.0000000), wk =   0.0380952
        k(   22) = (   0.2000000   0.1666667   0.1428571), wk =   0.0761905
        k(   23) = (   0.2000000   0.1666667   0.2857143), wk =   0.0761905
        k(   24) = (   0.2000000   0.1666667   0.4285714), wk =   0.0761905
        k(   25) = (   0.2000000   0.3333333   0.0000000), wk =   0.0380952
        k(   26) = (   0.2000000   0.3333333   0.1428571), wk =   0.0761905
        k(   27) = (   0.2000000   0.3333333   0.2857143), wk =   0.0761905
        k(   28) = (   0.2000000   0.3333333   0.4285714), wk =   0.0761905
        k(   29) = (   0.2000000  -0.5000000   0.0000000), wk =   0.0190476
        k(   30) = (   0.2000000  -0.5000000   0.1428571), wk =   0.0380952
        k(   31) = (   0.2000000  -0.5000000   0.2857143), wk =   0.0380952
        k(   32) = (   0.2000000  -0.5000000   0.4285714), wk =   0.0380952
        k(   33) = (   0.4000000   0.0000000   0.0000000), wk =   0.0190476
        k(   34) = (   0.4000000   0.0000000   0.1428571), wk =   0.0380952
        k(   35) = (   0.4000000   0.0000000   0.2857143), wk =   0.0380952
        k(   36) = (   0.4000000   0.0000000   0.4285714), wk =   0.0380952
        k(   37) = (   0.4000000   0.1666667   0.0000000), wk =   0.0380952
        k(   38) = (   0.4000000   0.1666667   0.1428571), wk =   0.0761905
        k(   39) = (   0.4000000   0.1666667   0.2857143), wk =   0.0761905
        k(   40) = (   0.4000000   0.1666667   0.4285714), wk =   0.0761905
        k(   41) = (   0.4000000   0.3333333   0.0000000), wk =   0.0380952
        k(   42) = (   0.4000000   0.3333333   0.1428571), wk =   0.0761905
        k(   43) = (   0.4000000   0.3333333   0.2857143), wk =   0.0761905
        k(   44) = (   0.4000000   0.3333333   0.4285714), wk =   0.0761905
        k(   45) = (   0.4000000  -0.5000000   0.0000000), wk =   0.0190476
        k(   46) = (   0.4000000  -0.5000000   0.1428571), wk =   0.0380952
        k(   47) = (   0.4000000  -0.5000000   0.2857143), wk =   0.0380952
        k(   48) = (   0.4000000  -0.5000000   0.4285714), wk =   0.0380952

     Largest allocated arrays     est. size (Mb)     dimensions
     Largest temporary arrays     est. size (Mb)     dimensions

     Initial potential from superposition of free atoms

     starting charge   77.94326, renormalised to  126.00000
     Starting wfc are  120 randomized atomic wfcs

     Self-consistent Calculation

     iteration #  1     ecut=    40.00 Ry     beta=0.70
     CG style diagonalization
     ethr =  1.00E-02,  avg # of iterations = 19.7

     total energy              =     245.18542587 Ry
     Harris-Foulkes estimate   =   -2506.06615849 Ry
     estimated scf accuracy    <    3234.24781366 Ry

[...]

     iteration #  3     ecut=    40.00 Ry     beta=0.70
     CG style diagonalization
     c_bands:  1 eigenvalues not converged
     c_bands:  1 eigenvalues not converged
     c_bands:  1 eigenvalues not converged
     ethr =  1.00E-02,  avg # of iterations = 10.7

[...]

     negative rho (up, down):  0.101E-03 0.000E+00

[...]

     End of self-consistent calculation

          k = 0.0000 0.0000 0.0000 (  2601 PWs)   bands (ev):

   -80.4610 -80.3701 -39.4619 -39.4619 -39.4619 -39.4496 -39.4496 -39.4496
    -2.6903  -0.8398  -0.8398   2.2021   2.2021   2.2021  12.6290  12.6290
    14.1883  15.8567  15.8567  15.8567  16.1035  16.1035  16.1035  16.8931
    16.8931  16.8931  17.8396  17.8396  18.6840  18.6840  20.5035  20.5035
    20.5035  22.3758  22.3758  22.3758  23.0765  23.0765  23.0765  26.7851
    26.7851  26.7851  29.8384  29.9621  33.8378  33.8378  33.8378  36.3203
    36.3203  36.3203  36.3294  39.9354  40.0976  40.0976  42.4839  42.4839
    42.4839  42.4974  42.4974  44.5010  44.5010  44.5010  45.2833  45.2833
    45.2833  47.9602  48.6570  48.6571  48.6571  50.9322  50.9323  51.0634
    51.0654  51.0654  51.1487  51.1489

[...]

     the Fermi energy is    45.0374 ev

!    total energy              =   -1369.55410915 Ry
     Harris-Foulkes estimate   =   -1369.55413545 Ry
     estimated scf accuracy    <       0.00002852 Ry

     The total energy is the sum of the following terms:

     one-electron contribution =      24.24370730 Ry
     hartree contribution      =     152.63536591 Ry
     xc contribution           =    -143.75971372 Ry
     ewald contribution        =   -1402.42638995 Ry
     smearing contrib. (-TS)   =      -0.24707869 Ry

     convergence has been achieved in  13 iterations

     Forces acting on atoms (Ry/au):

     atom    1 type  1   force =     0.00000000    0.00000000    0.00000000
     atom    2 type  1   force =     0.00000000    0.00000000    0.00000000
     atom    3 type  1   force =     0.00000000    0.00000000    0.00000000
     atom    4 type  1   force =     0.00000000    0.00000000    0.00000000
     atom    5 type  1   force =     0.00000000    0.00000000    0.00000000
     atom    6 type  1   force =     0.00000000    0.00000000    0.00000000
     atom    7 type  2   force =     0.00000000    0.00000000    0.00000000
     atom    8 type  2   force =     0.00000000    0.00000000    0.00000000

     Total force =     0.000000     Total SCF correction =     0.000000

     entering subroutine stress ...

          total   stress  (Ry/bohr**3)                   (kbar)     P= 5230.35
   0.03555520   0.00000000   0.00000000       5230.35      0.00      0.00
   0.00000000   0.03555520   0.00000000          0.00   5230.35      0.00
   0.00000000   0.00000000   0.03555520          0.00      0.00   5230.35

     BFGS Geometry Optimization

     number of scf cycles    =   1
     number of bfgs steps    =   0

     enthalpy new            =   -1369.5541091502 Ry

     new trust radius        =       0.5000000000 bohr
     new conv_thr            =       0.0001000000 Ry

     new unit-cell volume =    828.02266 a.u.^3 (   122.70030 Ang^3 )

[...]
  -0.01327134   0.00000000   0.00000000      -1952.28      0.00      0.00
   0.00000000  -0.01327134   0.00000000          0.00  -1952.28      0.00
   0.00000000   0.00000000  -0.01327134          0.00      0.00  -1952.28

     number of scf cycles    =   3
     number of bfgs steps    =   2

     enthalpy old            =   -1373.6236750398 Ry
     enthalpy new            =   -1370.1715307041 Ry

     CASE: enthalpy_new > enthalpy_old

     new trust radius        =       0.3416145465 bohr

     trust_radius < trust_radius_min

     resetting bfgs history

     Message from routine bfgs:
     history already reset at previous step: stopping
     new conv_thr            =       0.0000010000 Ry

     new unit-cell volume =   1040.95365 a.u.^3 (   154.25341 Ang^3 )

[...]

ATOMIC_POSITIONS (crystal)
Cr       0.000000000   0.500000000   0.250000000
Cr       0.000000000   0.500000000   0.750000000
Cr       0.500000000   0.750000000   0.000000000
Cr       0.500000000   0.250000000   0.000000000
Cr       0.750000000   0.000000000   0.500000000
Cr       0.250000000   0.000000000   0.500000000
Si       0.500000000   0.500000000   0.500000000
Si       0.000000000   0.000000000   0.000000000

     Writing output data file Prototype-La-cP8-Cr3Si.save
     Check: negative starting charge=   -0.043855
     NEW-OLD atomic charge density approx. for the potential
     NEW k-points:
        k(    1) = (   0.0000000   0.0000000   0.0000000), wk =   0.0095238
        k(    2) = (   0.0000000   0.0000000   0.1203021), wk =   0.0190476
        k(    3) = (   0.0000000   0.0000000   0.2406043), wk =   0.0190476
        k(    4) = (   0.0000000   0.0000000   0.3609064), wk =   0.0190476
        k(    5) = (   0.0000000   0.1403525   0.0000000), wk =   0.0190476
        k(    6) = (   0.0000000   0.1403525   0.1203021), wk =   0.0380952
        k(    7) = (   0.0000000   0.1403525   0.2406043), wk =   0.0380952
        k(    8) = (   0.0000000   0.1403525   0.3609064), wk =   0.0380952
        k(    9) = (   0.0000000   0.2807050   0.0000000), wk =   0.0190476
        k(   10) = (   0.0000000   0.2807050   0.1203021), wk =   0.0380952
        k(   11) = (   0.0000000   0.2807050   0.2406043), wk =   0.0380952
        k(   12) = (   0.0000000   0.2807050   0.3609064), wk =   0.0380952
        k(   13) = (   0.0000000  -0.4210574   0.0000000), wk =   0.0095238
        k(   14) = (   0.0000000  -0.4210574   0.1203021), wk =   0.0190476
        k(   15) = (   0.0000000  -0.4210574   0.2406043), wk =   0.0190476
        k(   16) = (   0.0000000  -0.4210574   0.3609064), wk =   0.0190476
        k(   17) = (   0.1684230   0.0000000   0.0000000), wk =   0.0190476
        k(   18) = (   0.1684230   0.0000000   0.1203021), wk =   0.0380952
        k(   19) = (   0.1684230   0.0000000   0.2406043), wk =   0.0380952
        k(   20) = (   0.1684230   0.0000000   0.3609064), wk =   0.0380952
        k(   21) = (   0.1684230   0.1403525   0.0000000), wk =   0.0380952
        k(   22) = (   0.1684230   0.1403525   0.1203021), wk =   0.0761905
        k(   23) = (   0.1684230   0.1403525   0.2406043), wk =   0.0761905
        k(   24) = (   0.1684230   0.1403525   0.3609064), wk =   0.0761905
        k(   25) = (   0.1684230   0.2807050   0.0000000), wk =   0.0380952
        k(   26) = (   0.1684230   0.2807050   0.1203021), wk =   0.0761905
        k(   27) = (   0.1684230   0.2807050   0.2406043), wk =   0.0761905
        k(   28) = (   0.1684230   0.2807050   0.3609064), wk =   0.0761905
        k(   29) = (   0.1684230  -0.4210574   0.0000000), wk =   0.0190476
        k(   30) = (   0.1684230  -0.4210574   0.1203021), wk =   0.0380952
        k(   31) = (   0.1684230  -0.4210574   0.2406043), wk =   0.0380952
        k(   32) = (   0.1684230  -0.4210574   0.3609064), wk =   0.0380952
        k(   33) = (   0.3368460   0.0000000   0.0000000), wk =   0.0190476
        k(   34) = (   0.3368460   0.0000000   0.1203021), wk =   0.0380952
        k(   35) = (   0.3368460   0.0000000   0.2406043), wk =   0.0380952
        k(   36) = (   0.3368460   0.0000000   0.3609064), wk =   0.0380952
        k(   37) = (   0.3368460   0.1403525   0.0000000), wk =   0.0380952
        k(   38) = (   0.3368460   0.1403525   0.1203021), wk =   0.0761905
        k(   39) = (   0.3368460   0.1403525   0.2406043), wk =   0.0761905
        k(   40) = (   0.3368460   0.1403525   0.3609064), wk =   0.0761905
        k(   41) = (   0.3368460   0.2807050   0.0000000), wk =   0.0380952
        k(   42) = (   0.3368460   0.2807050   0.1203021), wk =   0.0761905
        k(   43) = (   0.3368460   0.2807050   0.2406043), wk =   0.0761905
        k(   44) = (   0.3368460   0.2807050   0.3609064), wk =   0.0761905
        k(   45) = (   0.3368460  -0.4210574   0.0000000), wk =   0.0190476
        k(   46) = (   0.3368460  -0.4210574   0.1203021), wk =   0.0380952
        k(   47) = (   0.3368460  -0.4210574   0.2406043), wk =   0.0380952
        k(   48) = (   0.3368460  -0.4210574   0.3609064), wk =   0.0380952
     Check: negative starting charge=   -0.020938

     negative rho (up, down):  0.322E+01 0.000E+00
     extrapolated charge   96.47484, renormalised to  126.00000

[...]

     The maximum number of steps has been reached.

     End of BFGS Geometry Optimization
Begin final coordinates
     new unit-cell volume =   1040.95365 a.u.^3 (   154.25341 Ang^3 )

CELL_PARAMETERS (alat=  8.53457320)
   1.187486433   0.000000000   0.000000000
   0.000000000   1.187486433   0.000000000
   0.000000000   0.000000000   1.187486433

ATOMIC_POSITIONS (crystal)
Cr       0.000000000   0.500000000   0.250000000
Cr       0.000000000   0.500000000   0.750000000
Cr       0.500000000   0.750000000   0.000000000
Cr       0.500000000   0.250000000   0.000000000
Cr       0.750000000   0.000000000   0.500000000
Cr       0.250000000   0.000000000   0.500000000
Si       0.500000000   0.500000000   0.500000000
Si       0.000000000   0.000000000   0.000000000
End final coordinates

     A final scf calculation at the relaxed structure.
     The G-vectors are recalculated for the final unit cell
     Results may differ from those at the preceding step.

     bravais-lattice index     =            0
     lattice parameter (alat)  =       8.5346  a.u.
     unit-cell volume          =    1040.9536 (a.u.)^3
     number of atoms/cell      =            8
     number of atomic types    =            2
     number of electrons       =       126.00
     number of Kohn-Sham states=           76
     kinetic-energy cutoff     =      40.0000  Ry
     charge density cutoff     =     160.0000  Ry
     convergence threshold     =      1.0E-06
     mixing beta               =       0.7000
     number of iterations used =            8  plain     mixing
     Exchange-correlation      = SLA-PZ-NOGX-NOGC ( 1 1 0 0 0)
     EXX-fraction              =        0.00

     celldm(1)=   8.534573  celldm(2)=   0.000000  celldm(3)=   0.000000
     celldm(4)=   0.000000  celldm(5)=   0.000000  celldm(6)=   0.000000

     crystal axes: (cart. coord. in units of alat)
               a(1) = (   1.187486   0.000000   0.000000 )
               a(2) = (   0.000000   1.187486   0.000000 )
               a(3) = (   0.000000   0.000000   1.187486 )

     reciprocal axes: (cart. coord. in units 2 pi/alat)
               b(1) = (  0.842115  0.000000  0.000000 )
               b(2) = (  0.000000  0.842115  0.000000 )
               b(3) = (  0.000000  0.000000  0.842115 )

     PseudoPot. # 1 for Pr read from file:
     /home/cwx6513/pp.La/Pr.UPF
     MD5 check sum: 70e2b4b153859e92c8c91247dfc63203
     Pseudo is Norm-conserving, Zval = 13.0
     Generated in analytical, separable form
     Using radial grid of 1255 points,  6 beta functions with:
                l(1) =   0
                l(2) =   0
                l(3) =   1
                l(4) =   1
                l(5) =   2
                l(6) =   3

     PseudoPot. # 2 for Yb read from file:
     /home/cwx6513/pp.La/Yb.UPF
     MD5 check sum: 3e859b81cc28c53ec6aa3a2e888efcdf
     Pseudo is Norm-conserving, Zval = 24.0
     Generated in analytical, separable form
     Using radial grid of 1269 points,  6 beta functions with:
                l(1) =   0
                l(2) =   0
                l(3) =   1
                l(4) =   1
                l(5) =   2
                l(6) =   3

     atomic species   valence    mass     pseudopotential
        Cr            13.00    51.99610     Pr( 1.00)
        Si            24.00    28.08550     Yb( 1.00)

     48 Sym. Ops., with inversion, found (24 have fractional translation)

   Cartesian axes

     site n.     atom                  positions (alat units)
         1           Cr  tau(   1) = (   0.0000000   0.5937432   0.2968716  )
         2           Cr  tau(   2) = (   0.0000000   0.5937432   0.8906148  )
         3           Cr  tau(   3) = (   0.5937432   0.8906148   0.0000000  )
         4           Cr  tau(   4) = (   0.5937432   0.2968716   0.0000000  )
         5           Cr  tau(   5) = (   0.8906148   0.0000000   0.5937432  )
         6           Cr  tau(   6) = (   0.2968716   0.0000000   0.5937432  )
         7           Si  tau(   7) = (   0.5937432   0.5937432   0.5937432  )
         8           Si  tau(   8) = (   0.0000000   0.0000000   0.0000000  )

     number of k points=    48  gaussian smearing, width (Ry)=  0.1000
                       cart. coord. in units 2pi/alat
        k(    1) = (   0.0000000   0.0000000   0.0000000), wk =   0.0095238
        k(    2) = (   0.0000000   0.0000000   0.1203021), wk =   0.0190476
        k(    3) = (   0.0000000   0.0000000   0.2406043), wk =   0.0190476
        k(    4) = (   0.0000000   0.0000000   0.3609064), wk =   0.0190476
        k(    5) = (   0.0000000   0.1403525   0.0000000), wk =   0.0190476
        k(    6) = (   0.0000000   0.1403525   0.1203021), wk =   0.0380952
        k(    7) = (   0.0000000   0.1403525   0.2406043), wk =   0.0380952
        k(    8) = (   0.0000000   0.1403525   0.3609064), wk =   0.0380952
        k(    9) = (   0.0000000   0.2807050   0.0000000), wk =   0.0190476
        k(   10) = (   0.0000000   0.2807050   0.1203021), wk =   0.0380952
        k(   11) = (   0.0000000   0.2807050   0.2406043), wk =   0.0380952
        k(   12) = (   0.0000000   0.2807050   0.3609064), wk =   0.0380952
        k(   13) = (   0.0000000  -0.4210574   0.0000000), wk =   0.0095238
        k(   14) = (   0.0000000  -0.4210574   0.1203021), wk =   0.0190476
        k(   15) = (   0.0000000  -0.4210574   0.2406043), wk =   0.0190476
        k(   16) = (   0.0000000  -0.4210574   0.3609064), wk =   0.0190476
        k(   17) = (   0.1684230   0.0000000   0.0000000), wk =   0.0190476
        k(   18) = (   0.1684230   0.0000000   0.1203021), wk =   0.0380952
        k(   19) = (   0.1684230   0.0000000   0.2406043), wk =   0.0380952
        k(   20) = (   0.1684230   0.0000000   0.3609064), wk =   0.0380952
        k(   21) = (   0.1684230   0.1403525   0.0000000), wk =   0.0380952
        k(   22) = (   0.1684230   0.1403525   0.1203021), wk =   0.0761905
        k(   23) = (   0.1684230   0.1403525   0.2406043), wk =   0.0761905
        k(   24) = (   0.1684230   0.1403525   0.3609064), wk =   0.0761905
        k(   25) = (   0.1684230   0.2807050   0.0000000), wk =   0.0380952
        k(   26) = (   0.1684230   0.2807050   0.1203021), wk =   0.0761905
        k(   27) = (   0.1684230   0.2807050   0.2406043), wk =   0.0761905
        k(   28) = (   0.1684230   0.2807050   0.3609064), wk =   0.0761905
        k(   29) = (   0.1684230  -0.4210574   0.0000000), wk =   0.0190476
        k(   30) = (   0.1684230  -0.4210574   0.1203021), wk =   0.0380952
        k(   31) = (   0.1684230  -0.4210574   0.2406043), wk =   0.0380952
        k(   32) = (   0.1684230  -0.4210574   0.3609064), wk =   0.0380952
        k(   33) = (   0.3368460   0.0000000   0.0000000), wk =   0.0190476
        k(   34) = (   0.3368460   0.0000000   0.1203021), wk =   0.0380952
        k(   35) = (   0.3368460   0.0000000   0.2406043), wk =   0.0380952
        k(   36) = (   0.3368460   0.0000000   0.3609064), wk =   0.0380952
        k(   37) = (   0.3368460   0.1403525   0.0000000), wk =   0.0380952
        k(   38) = (   0.3368460   0.1403525   0.1203021), wk =   0.0761905
        k(   39) = (   0.3368460   0.1403525   0.2406043), wk =   0.0761905
        k(   40) = (   0.3368460   0.1403525   0.3609064), wk =   0.0761905
        k(   41) = (   0.3368460   0.2807050   0.0000000), wk =   0.0380952
        k(   42) = (   0.3368460   0.2807050   0.1203021), wk =   0.0761905
        k(   43) = (   0.3368460   0.2807050   0.2406043), wk =   0.0761905
        k(   44) = (   0.3368460   0.2807050   0.3609064), wk =   0.0761905
        k(   45) = (   0.3368460  -0.4210574   0.0000000), wk =   0.0190476
        k(   46) = (   0.3368460  -0.4210574   0.1203021), wk =   0.0380952
        k(   47) = (   0.3368460  -0.4210574   0.2406043), wk =   0.0380952
        k(   48) = (   0.3368460  -0.4210574   0.3609064), wk =   0.0380952

     Largest allocated arrays     est. size (Mb)     dimensions
     Largest temporary arrays     est. size (Mb)     dimensions

     Initial potential from superposition of free atoms
     Check: negative starting charge=   -0.001096

     starting charge   77.94326, renormalised to  126.00000

     negative rho (up, down):  0.177E-02 0.000E+00
     Starting wfc are  120 randomized atomic wfcs

     Writing output data file Prototype-La-cP8-Cr3Si.save

     Self-consistent Calculation

[...]

     negative rho (up, down):  0.127E-03 0.000E+00

[...]

     iteration # 16     ecut=    40.00 Ry     beta=0.70
     CG style diagonalization
     c_bands:  1 eigenvalues not converged
     ethr =  1.76E-08,  avg # of iterations =  3.1

[...]

     total energy              =   -1376.63448542 Ry
     Harris-Foulkes estimate   =   -1376.63448699 Ry
     estimated scf accuracy    <       0.00000368 Ry

     iteration # 18     ecut=    40.00 Ry     beta=0.70
     CG style diagonalization
     ethr =  2.92E-09,  avg # of iterations =  3.6

     End of self-consistent calculation

[...]

          k = 0.3368-0.4211 0.3609 (  4458 PWs)   bands (ev):

   -98.2094 -98.2090 -56.9929 -56.9928 -56.9896 -56.9895 -56.9874 -56.9872
   -16.8688 -16.8369 -16.7301 -16.7286 -16.6267 -16.5913   0.7873   0.7879
     0.7923   0.7930   0.9425   0.9632   0.9956   0.9967   1.0074   1.0078
     1.9649   2.0666   2.1020   2.1802   2.5666   2.5696   2.8783   2.9392
     3.4023   3.4207   3.5324   3.5517   3.6752   3.7887   3.8650   3.8659
     3.8803   3.8813  14.7680  14.7682  20.2344  20.2884  20.5115  20.5332
    20.5928  20.6115  23.3636  23.3667  23.5463  23.6606  23.6902  23.7237
    24.8627  24.8780  25.1242  25.1490  25.5819  25.5925  25.6706  25.8577
    26.3174  26.3312  27.9947  28.0261  28.3861  28.4428  28.6209  28.6843
    29.0083  29.0229  29.3667  29.5123

     the Fermi energy is    26.3269 ev

!    total energy              =   -1376.63448584 Ry
     Harris-Foulkes estimate   =   -1376.63448607 Ry
     estimated scf accuracy    <       0.00000027 Ry

     The total energy is the sum of the following terms:

     one-electron contribution =    -281.77463926 Ry
     hartree contribution      =     221.55137007 Ry
     xc contribution           =    -135.09153819 Ry
     ewald contribution        =   -1181.00413687 Ry
     smearing contrib. (-TS)   =      -0.31554160 Ry

     convergence has been achieved in  18 iterations

     Forces acting on atoms (Ry/au):

     atom    1 type  1   force =     0.00000000    0.00000000    0.00000000
     atom    2 type  1   force =     0.00000000    0.00000000    0.00000000
     atom    3 type  1   force =     0.00000000    0.00000000    0.00000000
     atom    4 type  1   force =     0.00000000    0.00000000    0.00000000
     atom    5 type  1   force =     0.00000000    0.00000000    0.00000000
     atom    6 type  1   force =     0.00000000    0.00000000    0.00000000
     atom    7 type  2   force =     0.00000000    0.00000000    0.00000000
     atom    8 type  2   force =     0.00000000    0.00000000    0.00000000

     Total force =     0.000000     Total SCF correction =     0.000000

     entering subroutine stress ...

          total   stress  (Ry/bohr**3)                   (kbar)     P=  350.12
   0.00238008   0.00000000   0.00000000        350.12      0.00      0.00
   0.00000000   0.00238008   0.00000000          0.00    350.12      0.00
   0.00000000   0.00000000   0.00238008          0.00      0.00    350.12

     Writing output data file Prototype-La-cP8-Cr3Si.save

     General routines

     Parallel routines

   This run was terminated on:  16:56:35  22Mar2018

   JOB DONE.