     Program PWSCF v.5.0.2 starts on 22Mar2018 at 16:21:56

     Current dimensions of program PWSCF are:
     Max number of different atomic species (ntypx) = 10
     Max number of k-points (npk) =  40000
     Max angular momentum in pseudopotentials (lmaxx) =  3
     Waiting for input...
     Reading input from standard input

     Subspace diagonalization in iterative solution of the eigenvalue problem:
     a serial algorithm will be used

     bravais-lattice index     =            0
     lattice parameter (alat)  =       5.4125  a.u.
     unit-cell volume          =     202.7222 (a.u.)^3
     number of atoms/cell      =            2
     number of atomic types    =            2
     number of electrons       =        37.00
     number of Kohn-Sham states=           23
     kinetic-energy cutoff     =      40.0000  Ry
     charge density cutoff     =     160.0000  Ry
     convergence threshold     =      1.0E-04
     mixing beta               =       0.7000
     number of iterations used =            8  plain     mixing
     Exchange-correlation      = SLA-PZ-NOGX-NOGC ( 1 1 0 0 0)
     EXX-fraction              =        0.00
     nstep                     =           50

     celldm(1)=   5.412493  celldm(2)=   0.000000  celldm(3)=   0.000000
     celldm(4)=   0.000000  celldm(5)=   0.000000  celldm(6)=   0.000000

     crystal axes: (cart. coord. in units of alat)
               a(1) = (   1.000000   0.000000   0.000000 )
               a(2) = (   0.000000   1.000000   0.000000 )
               a(3) = (   0.000000   0.000000   1.278525 )

     reciprocal axes: (cart. coord. in units 2 pi/alat)
               b(1) = (  1.000000  0.000000  0.000000 )
               b(2) = (  0.000000  1.000000  0.000000 )
               b(3) = (  0.000000  0.000000  0.782151 )

     PseudoPot. # 1 for Pr read from file:
     /home/cwx6513/pp.La/Pr.UPF
     MD5 check sum: 70e2b4b153859e92c8c91247dfc63203
     Pseudo is Norm-conserving, Zval = 13.0
     Generated in analytical, separable form
     Using radial grid of 1255 points,  6 beta functions with:
                l(1) =   0
                l(2) =   0
                l(3) =   1
                l(4) =   1
                l(5) =   2
                l(6) =   3

     PseudoPot. # 2 for Yb read from file:
     /home/cwx6513/pp.La/Yb.UPF
     MD5 check sum: 3e859b81cc28c53ec6aa3a2e888efcdf
     Pseudo is Norm-conserving, Zval = 24.0
     Generated in analytical, separable form
     Using radial grid of 1269 points,  6 beta functions with:
                l(1) =   0
                l(2) =   0
                l(3) =   1
                l(4) =   1
                l(5) =   2
                l(6) =   3

     atomic species   valence    mass     pseudopotential
        Cu            13.00    63.54600     Pr( 1.00)
        Au            24.00   196.96600     Yb( 1.00)

     16 Sym. Ops., with inversion, found

   Cartesian axes

     site n.     atom                  positions (alat units)
         1           Cu  tau(   1) = (   0.5000000   0.5000000   0.6392626  )
         2           Au  tau(   2) = (   0.0000000   0.0000000   0.0000000  )

     number of k points=   100  gaussian smearing, width (Ry)=  0.1000

     Number of k-points >= 100: set verbosity='high' to print them.

     Largest allocated arrays     est. size (Mb)     dimensions
     Largest temporary arrays     est. size (Mb)     dimensions

     Initial potential from superposition of free atoms
     Check: negative starting charge=   -0.000305

     starting charge   12.99054, renormalised to   37.00000

     negative rho (up, down):  0.869E-03 0.000E+00
     Starting wfc are   20 randomized atomic wfcs

     Self-consistent Calculation

     iteration #  1     ecut=    40.00 Ry     beta=0.70
     CG style diagonalization
     ethr =  1.00E-02,  avg # of iterations = 23.6

     negative rho (up, down):  0.256E-03 0.000E+00

     total energy              =    -274.18393797 Ry
     Harris-Foulkes estimate   =   -1054.71627062 Ry
     estimated scf accuracy    <     925.43068473 Ry

     iteration #  2     ecut=    40.00 Ry     beta=0.70
     CG style diagonalization
     c_bands:  1 eigenvalues not converged
     c_bands:  1 eigenvalues not converged
     c_bands:  1 eigenvalues not converged
     ethr =  1.00E-02,  avg # of iterations = 12.1

[...]

     End of self-consistent calculation

     Number of k-points >= 100: set verbosity='high' to print the bands.

     the Fermi energy is    37.1556 ev

!    total energy              =    -501.82728767 Ry
     Harris-Foulkes estimate   =    -501.82731253 Ry
     estimated scf accuracy    <       0.00002813 Ry

     The total energy is the sum of the following terms:

     one-electron contribution =     -89.36551762 Ry
     hartree contribution      =      76.15000653 Ry
     xc contribution           =     -44.82120848 Ry
     ewald contribution        =    -443.71888731 Ry
     smearing contrib. (-TS)   =      -0.07168078 Ry

     convergence has been achieved in  10 iterations

     Forces acting on atoms (Ry/au):

     atom    1 type  1   force =     0.00000000    0.00000000    0.00000000
     atom    2 type  2   force =     0.00000000    0.00000000    0.00000000

     Total force =     0.000000     Total SCF correction =     0.000000

     entering subroutine stress ...

          total   stress  (Ry/bohr**3)                   (kbar)     P= 1772.16
   0.01299143   0.00000000   0.00000000       1911.11      0.00      0.00
   0.00000000   0.01299143   0.00000000          0.00   1911.11      0.00
   0.00000000   0.00000000   0.01015773          0.00      0.00   1494.25

     BFGS Geometry Optimization

     number of scf cycles    =   1
     number of bfgs steps    =   0

     enthalpy new            =    -501.8272876731 Ry

     new trust radius        =       0.5000000000 bohr
     new conv_thr            =       0.0001000000 Ry

     new unit-cell volume =    318.62505 a.u.^3 (    47.21536 Ang^3 )

CELL_PARAMETERS (alat=  5.41249258)
   1.175585808   0.000000000   0.000000000
   0.000000000   1.175585808   0.000000000
   0.000000000   0.000000000   1.454049880

ATOMIC_POSITIONS (crystal)
Cu       0.500000000   0.500000000   0.500000000
Au       0.000000000   0.000000000   0.000000000

     Writing output data file Prototype-La-tP2-AuCu.save
     Check: negative starting charge=   -0.000305
     NEW-OLD atomic charge density approx. for the potential
     NEW k-points: (use verbosity='high' to print them)
     Check: negative starting charge=   -0.003892

     negative rho (up, down):  0.367E-02 0.000E+00
     extrapolated charge   41.72543, renormalised to   37.00000

[...]

          total   stress  (Ry/bohr**3)                   (kbar)     P=-1095.34
  -0.00732686   0.00000000   0.00000000      -1077.82      0.00      0.00
   0.00000000  -0.00732686   0.00000000          0.00  -1077.82      0.00
   0.00000000   0.00000000  -0.00768414          0.00      0.00  -1130.38

[...]

     enthalpy old            =    -501.8272876731 Ry
     enthalpy new            =    -501.8123431405 Ry

     CASE: enthalpy_new > enthalpy_old

     new trust radius        =       0.2633499804 bohr

     trust_radius < trust_radius_min

     resetting bfgs history

     new conv_thr            =       0.0001000000 Ry

[...]

     Writing output data file Prototype-La-tP2-AuCu.save
     Check: negative starting charge=   -0.003892
     NEW-OLD atomic charge density approx. for the potential
     NEW k-points: (use verbosity='high' to print them)
     Check: negative starting charge=   -0.003572
     extrapolated charge   36.55634, renormalised to   37.00000

[...]

          total   stress  (Ry/bohr**3)                   (kbar)     P=-1012.24
  -0.00675366   0.00000000   0.00000000       -993.50      0.00      0.00
   0.00000000  -0.00675366   0.00000000          0.00   -993.50      0.00
   0.00000000   0.00000000  -0.00713593          0.00      0.00  -1049.73

     number of scf cycles    =   3
     number of bfgs steps    =   1

     enthalpy old            =    -501.8272876731 Ry
     enthalpy new            =    -501.8887564397 Ry

     CASE: enthalpy_new < enthalpy_old

     Message from routine bfgs:
     history already reset at previous step: stopping
     small trust_radius: resetting bfgs history

     new trust radius        =       0.6262798528 bohr
     new conv_thr            =       0.0000010000 Ry

     new unit-cell volume =    174.87358 a.u.^3 (    25.91359 Ang^3 )

[...]

ATOMIC_POSITIONS (crystal)
Cu       0.500000000   0.500000000   0.500000000
Au       0.000000000   0.000000000   0.000000000

     Writing output data file Prototype-La-tP2-AuCu.save
     Check: negative starting charge=   -0.003572
     NEW-OLD atomic charge density approx. for the potential
     NEW k-points: (use verbosity='high' to print them)

     negative rho (up, down):  0.197E+01 0.000E+00
     extrapolated charge   27.10304, renormalised to   37.00000

[...]

     The maximum number of steps has been reached.

     End of BFGS Geometry Optimization
Begin final coordinates
     new unit-cell volume =    174.87358 a.u.^3 (    25.91359 Ang^3 )

CELL_PARAMETERS (alat=  5.41249258)
   0.968006389   0.000000000   0.000000000
   0.000000000   0.968006389   0.000000000
   0.000000000   0.000000000   1.176998238

ATOMIC_POSITIONS (crystal)
Cu       0.500000000   0.500000000   0.500000000
Au       0.000000000   0.000000000   0.000000000
End final coordinates

     A final scf calculation at the relaxed structure.
     The G-vectors are recalculated for the final unit cell
     Results may differ from those at the preceding step.

     bravais-lattice index     =            0
     lattice parameter (alat)  =       5.4125  a.u.
     unit-cell volume          =     174.8736 (a.u.)^3
     number of atoms/cell      =            2
     number of atomic types    =            2
     number of electrons       =        37.00
     number of Kohn-Sham states=           23
     kinetic-energy cutoff     =      40.0000  Ry
     charge density cutoff     =     160.0000  Ry
     convergence threshold     =      1.0E-06
     mixing beta               =       0.7000
     number of iterations used =            8  plain     mixing
     Exchange-correlation      = SLA-PZ-NOGX-NOGC ( 1 1 0 0 0)
     EXX-fraction              =        0.00

     celldm(1)=   5.412493  celldm(2)=   0.000000  celldm(3)=   0.000000
     celldm(4)=   0.000000  celldm(5)=   0.000000  celldm(6)=   0.000000

     crystal axes: (cart. coord. in units of alat)
               a(1) = (   0.968006   0.000000   0.000000 )
               a(2) = (   0.000000   0.968006   0.000000 )
               a(3) = (   0.000000   0.000000   1.176998 )

     reciprocal axes: (cart. coord. in units 2 pi/alat)
               b(1) = (  1.033051  0.000000  0.000000 )
               b(2) = (  0.000000  1.033051  0.000000 )
               b(3) = (  0.000000  0.000000  0.849619 )

     PseudoPot. # 1 for Pr read from file:
     /home/cwx6513/pp.La/Pr.UPF
     MD5 check sum: 70e2b4b153859e92c8c91247dfc63203
     Pseudo is Norm-conserving, Zval = 13.0
     Generated in analytical, separable form
     Using radial grid of 1255 points,  6 beta functions with:
                l(1) =   0
                l(2) =   0
                l(3) =   1
                l(4) =   1
                l(5) =   2
                l(6) =   3

     PseudoPot. # 2 for Yb read from file:
     /home/cwx6513/pp.La/Yb.UPF
     MD5 check sum: 3e859b81cc28c53ec6aa3a2e888efcdf
     Pseudo is Norm-conserving, Zval = 24.0
     Generated in analytical, separable form
     Using radial grid of 1269 points,  6 beta functions with:
                l(1) =   0
                l(2) =   0
                l(3) =   1
                l(4) =   1
                l(5) =   2
                l(6) =   3

     atomic species   valence    mass     pseudopotential
        Cu            13.00    63.54600     Pr( 1.00)
        Au            24.00   196.96600     Yb( 1.00)

     16 Sym. Ops., with inversion, found

   Cartesian axes

     site n.     atom                  positions (alat units)
         1           Cu  tau(   1) = (   0.4840032   0.4840032   0.5884991  )
         2           Au  tau(   2) = (   0.0000000   0.0000000   0.0000000  )

     number of k points=   100  gaussian smearing, width (Ry)=  0.1000

     Number of k-points >= 100: set verbosity='high' to print them.

     Largest allocated arrays     est. size (Mb)     dimensions
     Largest temporary arrays     est. size (Mb)     dimensions

     Initial potential from superposition of free atoms
     Check: negative starting charge=   -0.000223

     starting charge   12.99054, renormalised to   37.00000

     negative rho (up, down):  0.636E-03 0.000E+00
     Starting wfc are   20 randomized atomic wfcs

     Writing output data file Prototype-La-tP2-AuCu.save

     Self-consistent Calculation

[...]

     negative rho (up, down):  0.542E-04 0.000E+00

[...]

     iteration #  9     ecut=    40.00 Ry     beta=0.70
     CG style diagonalization
     c_bands:  1 eigenvalues not converged
     ethr =  6.91E-07,  avg # of iterations =  3.9

     total energy              =    -501.19994730 Ry
     Harris-Foulkes estimate   =    -501.19995046 Ry
     estimated scf accuracy    <       0.00000732 Ry

     iteration # 10     ecut=    40.00 Ry     beta=0.70
     CG style diagonalization
     ethr =  1.98E-08,  avg # of iterations =  4.7

     End of self-consistent calculation

     Number of k-points >= 100: set verbosity='high' to print the bands.

     the Fermi energy is    43.2328 ev

!    total energy              =    -501.19995324 Ry
     Harris-Foulkes estimate   =    -501.19995394 Ry
     estimated scf accuracy    <       0.00000079 Ry

     The total energy is the sum of the following terms:

     one-electron contribution =     -56.75575167 Ry
     hartree contribution      =      67.71872792 Ry
     xc contribution           =     -45.50173064 Ry
     ewald contribution        =    -466.59980223 Ry
     smearing contrib. (-TS)   =      -0.06139663 Ry

     convergence has been achieved in  10 iterations

     Forces acting on atoms (Ry/au):

     atom    1 type  1   force =     0.00000000    0.00000000    0.00000000
     atom    2 type  2   force =     0.00000000    0.00000000    0.00000000

     Total force =     0.000000     Total SCF correction =     0.000000

     entering subroutine stress ...

          total   stress  (Ry/bohr**3)                   (kbar)     P= 3428.63
   0.02435316   0.00000000   0.00000000       3582.47      0.00      0.00
   0.00000000   0.02435316   0.00000000          0.00   3582.47      0.00
   0.00000000   0.00000000   0.02121566          0.00      0.00   3120.93

     Writing output data file Prototype-La-tP2-AuCu.save

     General routines

     Parallel routines

   This run was terminated on:  16:24:42  22Mar2018

   JOB DONE.