     Program PWSCF v.5.0.2 starts on 22Mar2018 at 18:43:54

     Current dimensions of program PWSCF are:
     Max number of different atomic species (ntypx) = 10
     Max number of k-points (npk) =  40000
     Max angular momentum in pseudopotentials (lmaxx) =  3
     Waiting for input...
     Reading input from standard input

     Subspace diagonalization in iterative solution of the eigenvalue problem:
     a serial algorithm will be used

     bravais-lattice index     =            0
     lattice parameter (alat)  =       8.5346  a.u.
     unit-cell volume          =     621.6493 (a.u.)^3
     number of atoms/cell      =            8
     number of atomic types    =            2
     number of electrons       =       138.00
     number of Kohn-Sham states=           83
     kinetic-energy cutoff     =      40.0000  Ry
     charge density cutoff     =     160.0000  Ry
     convergence threshold     =      1.0E-04
     mixing beta               =       0.7000
     number of iterations used =            8  plain     mixing
     Exchange-correlation      = SLA-PZ-NOGX-NOGC ( 1 1 0 0 0)
     EXX-fraction              =        0.00
     nstep                     =           50

     celldm(1)=   8.534573  celldm(2)=   0.000000  celldm(3)=   0.000000
     celldm(4)=   0.000000  celldm(5)=   0.000000  celldm(6)=   0.000000

     crystal axes: (cart. coord. in units of alat)
               a(1) = (   1.000000   0.000000   0.000000 )
               a(2) = (   0.000000   1.000000   0.000000 )
               a(3) = (   0.000000   0.000000   1.000000 )

     reciprocal axes: (cart. coord. in units 2 pi/alat)
               b(1) = (  1.000000  0.000000  0.000000 )
               b(2) = (  0.000000  1.000000  0.000000 )
               b(3) = (  0.000000  0.000000  1.000000 )

     PseudoPot. # 1 for Sm read from file:
     /home/cwx6513/pp.La/Sm.UPF
     MD5 check sum: 5079e8b144a06bfcdbc14fb02b96ab09
     Pseudo is Norm-conserving, Zval = 16.0
     Generated in analytical, separable form
     Using radial grid of 1259 points,  6 beta functions with:
                l(1) =   0
                l(2) =   0
                l(3) =   1
                l(4) =   1
                l(5) =   2
                l(6) =   3

     PseudoPot. # 2 for Ho read from file:
     /home/cwx6513/pp.La/Ho.UPF
     MD5 check sum: f307ee11bce99f5b724fa279e3790763
     Pseudo is Norm-conserving, Zval = 21.0
     Generated in analytical, separable form
     Using radial grid of 1265 points,  6 beta functions with:
                l(1) =   0
                l(2) =   0
                l(3) =   1
                l(4) =   1
                l(5) =   2
                l(6) =   3

     atomic species   valence    mass     pseudopotential
        Cr            16.00    51.99610     Sm( 1.00)
        Si            21.00    28.08550     Ho( 1.00)

     48 Sym. Ops., with inversion, found (24 have fractional translation)

   Cartesian axes

     site n.     atom                  positions (alat units)
         1           Cr  tau(   1) = (   0.0000000   0.5000000   0.2500000  )
         2           Cr  tau(   2) = (   0.0000000   0.5000000   0.7500000  )
         3           Cr  tau(   3) = (   0.5000000   0.7500000   0.0000000  )
         4           Cr  tau(   4) = (   0.5000000   0.2500000   0.0000000  )
         5           Cr  tau(   5) = (   0.7500000   0.0000000   0.5000000  )
         6           Cr  tau(   6) = (   0.2500000   0.0000000   0.5000000  )
         7           Si  tau(   7) = (   0.5000000   0.5000000   0.5000000  )
         8           Si  tau(   8) = (   0.0000000   0.0000000   0.0000000  )

     number of k points=    48  gaussian smearing, width (Ry)=  0.1000
                       cart. coord. in units 2pi/alat
        k(    1) = (   0.0000000   0.0000000   0.0000000), wk =   0.0095238
        k(    2) = (   0.0000000   0.0000000   0.1428571), wk =   0.0190476
        k(    3) = (   0.0000000   0.0000000   0.2857143), wk =   0.0190476
        k(    4) = (   0.0000000   0.0000000   0.4285714), wk =   0.0190476
        k(    5) = (   0.0000000   0.1666667   0.0000000), wk =   0.0190476
        k(    6) = (   0.0000000   0.1666667   0.1428571), wk =   0.0380952
        k(    7) = (   0.0000000   0.1666667   0.2857143), wk =   0.0380952
        k(    8) = (   0.0000000   0.1666667   0.4285714), wk =   0.0380952
        k(    9) = (   0.0000000   0.3333333   0.0000000), wk =   0.0190476
        k(   10) = (   0.0000000   0.3333333   0.1428571), wk =   0.0380952
        k(   11) = (   0.0000000   0.3333333   0.2857143), wk =   0.0380952
        k(   12) = (   0.0000000   0.3333333   0.4285714), wk =   0.0380952
        k(   13) = (   0.0000000  -0.5000000   0.0000000), wk =   0.0095238
        k(   14) = (   0.0000000  -0.5000000   0.1428571), wk =   0.0190476
        k(   15) = (   0.0000000  -0.5000000   0.2857143), wk =   0.0190476
        k(   16) = (   0.0000000  -0.5000000   0.4285714), wk =   0.0190476
        k(   17) = (   0.2000000   0.0000000   0.0000000), wk =   0.0190476
        k(   18) = (   0.2000000   0.0000000   0.1428571), wk =   0.0380952
        k(   19) = (   0.2000000   0.0000000   0.2857143), wk =   0.0380952
        k(   20) = (   0.2000000   0.0000000   0.4285714), wk =   0.0380952
        k(   21) = (   0.2000000   0.1666667   0.0000000), wk =   0.0380952
        k(   22) = (   0.2000000   0.1666667   0.1428571), wk =   0.0761905
        k(   23) = (   0.2000000   0.1666667   0.2857143), wk =   0.0761905
        k(   24) = (   0.2000000   0.1666667   0.4285714), wk =   0.0761905
        k(   25) = (   0.2000000   0.3333333   0.0000000), wk =   0.0380952
        k(   26) = (   0.2000000   0.3333333   0.1428571), wk =   0.0761905
        k(   27) = (   0.2000000   0.3333333   0.2857143), wk =   0.0761905
        k(   28) = (   0.2000000   0.3333333   0.4285714), wk =   0.0761905
        k(   29) = (   0.2000000  -0.5000000   0.0000000), wk =   0.0190476
        k(   30) = (   0.2000000  -0.5000000   0.1428571), wk =   0.0380952
        k(   31) = (   0.2000000  -0.5000000   0.2857143), wk =   0.0380952
        k(   32) = (   0.2000000  -0.5000000   0.4285714), wk =   0.0380952
        k(   33) = (   0.4000000   0.0000000   0.0000000), wk =   0.0190476
        k(   34) = (   0.4000000   0.0000000   0.1428571), wk =   0.0380952
        k(   35) = (   0.4000000   0.0000000   0.2857143), wk =   0.0380952
        k(   36) = (   0.4000000   0.0000000   0.4285714), wk =   0.0380952
        k(   37) = (   0.4000000   0.1666667   0.0000000), wk =   0.0380952
        k(   38) = (   0.4000000   0.1666667   0.1428571), wk =   0.0761905
        k(   39) = (   0.4000000   0.1666667   0.2857143), wk =   0.0761905
        k(   40) = (   0.4000000   0.1666667   0.4285714), wk =   0.0761905
        k(   41) = (   0.4000000   0.3333333   0.0000000), wk =   0.0380952
        k(   42) = (   0.4000000   0.3333333   0.1428571), wk =   0.0761905
        k(   43) = (   0.4000000   0.3333333   0.2857143), wk =   0.0761905
        k(   44) = (   0.4000000   0.3333333   0.4285714), wk =   0.0761905
        k(   45) = (   0.4000000  -0.5000000   0.0000000), wk =   0.0190476
        k(   46) = (   0.4000000  -0.5000000   0.1428571), wk =   0.0380952
        k(   47) = (   0.4000000  -0.5000000   0.2857143), wk =   0.0380952
        k(   48) = (   0.4000000  -0.5000000   0.4285714), wk =   0.0380952

     Largest allocated arrays     est. size (Mb)     dimensions
     Largest temporary arrays     est. size (Mb)     dimensions

     Initial potential from superposition of free atoms

     Starting from uniform charge
     Starting wfc are    0 randomized atomic wfcs

     Self-consistent Calculation

     iteration #  1     ecut=    40.00 Ry     beta=0.70
     CG style diagonalization
     c_bands:  1 eigenvalues not converged
     c_bands:  1 eigenvalues not converged
     ethr =  1.00E-02,  avg # of iterations = 11.0

     total energy              =   -1067.73111660 Ry
     Harris-Foulkes estimate   =   -1710.55569720 Ry
     estimated scf accuracy    <     778.99869086 Ry

[...]

     iteration #  4     ecut=    40.00 Ry     beta=0.70
     CG style diagonalization
     ethr =  1.00E-02,  avg # of iterations =  3.6

[...]

     End of self-consistent calculation

          k = 0.0000 0.0000 0.0000 (  2601 PWs)   bands (ev):

   -48.4005 -48.3665 -15.0388 -14.3046 -14.3046 -13.2387 -13.2387 -13.2387
   -12.8842 -12.8842 -12.8842 -12.3728 -12.3728 -12.3728   5.8780   5.8780
     6.7010   8.9870   8.9870   8.9870  10.8384  10.8384  10.8384  11.4102
    11.4102  11.4102  11.7901  11.7901  11.7901  14.6364  14.6364  14.6364
    29.0749  29.0749  30.1440  30.1440  30.2649  30.2649  30.2649  30.3894
    30.3894  30.3894  32.1440  33.1577  33.1577  33.1577  33.3110  35.3020
    36.0480  36.0480  36.0480  36.0993  36.3185  36.3185  40.1541  40.1541
    40.1541  40.5102  40.5102  42.1965  42.1965  42.1965  42.9130  42.9130
    42.9130  46.3903  46.3903  47.1903  47.1903  47.1903  48.1964  48.1964
    48.1964  48.3813  50.5416  50.5416  50.5417  51.2015  51.2015  51.2016
    53.8795  53.9219  53.9219

[...]

     the Fermi energy is    45.9069 ev

!    total energy              =   -1490.63145238 Ry
     Harris-Foulkes estimate   =   -1490.63145526 Ry
     estimated scf accuracy    <       0.00000324 Ry

     The total energy is the sum of the following terms:

     one-electron contribution =     179.03357534 Ry
     hartree contribution      =     110.41849075 Ry
     xc contribution           =    -159.38124806 Ry
     ewald contribution        =   -1620.41563677 Ry
     smearing contrib. (-TS)   =      -0.28663365 Ry

     convergence has been achieved in   9 iterations

     Forces acting on atoms (Ry/au):

     atom    1 type  1   force =     0.00000000    0.00000000    0.00000000
     atom    2 type  1   force =     0.00000000    0.00000000    0.00000000
     atom    3 type  1   force =     0.00000000    0.00000000    0.00000000
     atom    4 type  1   force =     0.00000000    0.00000000    0.00000000
     atom    5 type  1   force =     0.00000000    0.00000000    0.00000000
     atom    6 type  1   force =     0.00000000    0.00000000    0.00000000
     atom    7 type  2   force =     0.00000000    0.00000000    0.00000000
     atom    8 type  2   force =     0.00000000    0.00000000    0.00000000

     Total force =     0.000000     Total SCF correction =     0.000000

     entering subroutine stress ...

          total   stress  (Ry/bohr**3)                   (kbar)     P= 5031.33
   0.03420227   0.00000000   0.00000000       5031.33      0.00      0.00
   0.00000000   0.03420227   0.00000000          0.00   5031.33      0.00
   0.00000000   0.00000000   0.03420227          0.00      0.00   5031.33

     BFGS Geometry Optimization

     number of scf cycles    =   1
     number of bfgs steps    =   0

     enthalpy new            =   -1490.6314523818 Ry

     new trust radius        =       0.5000000000 bohr
     new conv_thr            =       0.0001000000 Ry

     new unit-cell volume =    828.02266 a.u.^3 (   122.70030 Ang^3 )

CELL_PARAMETERS (alat=  8.53457320)
   1.100269143   0.000000000   0.000000000
[...]
     enthalpy new            =   -1494.1893473974 Ry

     CASE: enthalpy_new < enthalpy_old

     small trust_radius: resetting bfgs history

     new trust radius        =       0.7945039448 bohr
     new conv_thr            =       0.0000010000 Ry

[...]

          total   stress  (Ry/bohr**3)                   (kbar)     P=-1175.69
  -0.00799216   0.00000000   0.00000000      -1175.69      0.00      0.00
   0.00000000  -0.00799216   0.00000000          0.00  -1175.69      0.00
   0.00000000   0.00000000  -0.00799216          0.00      0.00  -1175.69

     number of scf cycles    =   3
     number of bfgs steps    =   2

     enthalpy old            =   -1494.1893473974 Ry
     enthalpy new            =   -1492.9275491924 Ry

     CASE: enthalpy_new > enthalpy_old

     new trust radius        =       0.2543263567 bohr

     trust_radius < trust_radius_min

     resetting bfgs history

     Message from routine bfgs:
     history already reset at previous step: stopping
     new conv_thr            =       0.0000010000 Ry

     new unit-cell volume =   1047.24790 a.u.^3 (   155.18613 Ang^3 )

[...]

ATOMIC_POSITIONS (crystal)
Cr       0.000000000   0.500000000   0.250000000
Cr       0.000000000   0.500000000   0.750000000
Cr       0.500000000   0.750000000   0.000000000
Cr       0.500000000   0.250000000   0.000000000
Cr       0.750000000   0.000000000   0.500000000
Cr       0.250000000   0.000000000   0.500000000
Si       0.500000000   0.500000000   0.500000000
Si       0.000000000   0.000000000   0.000000000

     Writing output data file Prototype-La-cP8-Cr3Si.save
     NEW-OLD atomic charge density approx. for the potential
     NEW k-points:
        k(    1) = (   0.0000000   0.0000000   0.0000000), wk =   0.0095238
        k(    2) = (   0.0000000   0.0000000   0.1200606), wk =   0.0190476
        k(    3) = (   0.0000000   0.0000000   0.2401213), wk =   0.0190476
        k(    4) = (   0.0000000   0.0000000   0.3601819), wk =   0.0190476
        k(    5) = (   0.0000000   0.1400707   0.0000000), wk =   0.0190476
        k(    6) = (   0.0000000   0.1400707   0.1200606), wk =   0.0380952
        k(    7) = (   0.0000000   0.1400707   0.2401213), wk =   0.0380952
        k(    8) = (   0.0000000   0.1400707   0.3601819), wk =   0.0380952
        k(    9) = (   0.0000000   0.2801415   0.0000000), wk =   0.0190476
        k(   10) = (   0.0000000   0.2801415   0.1200606), wk =   0.0380952
        k(   11) = (   0.0000000   0.2801415   0.2401213), wk =   0.0380952
        k(   12) = (   0.0000000   0.2801415   0.3601819), wk =   0.0380952
        k(   13) = (   0.0000000  -0.4202122   0.0000000), wk =   0.0095238
        k(   14) = (   0.0000000  -0.4202122   0.1200606), wk =   0.0190476
        k(   15) = (   0.0000000  -0.4202122   0.2401213), wk =   0.0190476
        k(   16) = (   0.0000000  -0.4202122   0.3601819), wk =   0.0190476
        k(   17) = (   0.1680849   0.0000000   0.0000000), wk =   0.0190476
        k(   18) = (   0.1680849   0.0000000   0.1200606), wk =   0.0380952
        k(   19) = (   0.1680849   0.0000000   0.2401213), wk =   0.0380952
        k(   20) = (   0.1680849   0.0000000   0.3601819), wk =   0.0380952
        k(   21) = (   0.1680849   0.1400707   0.0000000), wk =   0.0380952
        k(   22) = (   0.1680849   0.1400707   0.1200606), wk =   0.0761905
        k(   23) = (   0.1680849   0.1400707   0.2401213), wk =   0.0761905
        k(   24) = (   0.1680849   0.1400707   0.3601819), wk =   0.0761905
        k(   25) = (   0.1680849   0.2801415   0.0000000), wk =   0.0380952
        k(   26) = (   0.1680849   0.2801415   0.1200606), wk =   0.0761905
        k(   27) = (   0.1680849   0.2801415   0.2401213), wk =   0.0761905
        k(   28) = (   0.1680849   0.2801415   0.3601819), wk =   0.0761905
        k(   29) = (   0.1680849  -0.4202122   0.0000000), wk =   0.0190476
        k(   30) = (   0.1680849  -0.4202122   0.1200606), wk =   0.0380952
        k(   31) = (   0.1680849  -0.4202122   0.2401213), wk =   0.0380952
        k(   32) = (   0.1680849  -0.4202122   0.3601819), wk =   0.0380952
        k(   33) = (   0.3361698   0.0000000   0.0000000), wk =   0.0190476
        k(   34) = (   0.3361698   0.0000000   0.1200606), wk =   0.0380952
        k(   35) = (   0.3361698   0.0000000   0.2401213), wk =   0.0380952
        k(   36) = (   0.3361698   0.0000000   0.3601819), wk =   0.0380952
        k(   37) = (   0.3361698   0.1400707   0.0000000), wk =   0.0380952
        k(   38) = (   0.3361698   0.1400707   0.1200606), wk =   0.0761905
        k(   39) = (   0.3361698   0.1400707   0.2401213), wk =   0.0761905
        k(   40) = (   0.3361698   0.1400707   0.3601819), wk =   0.0761905
        k(   41) = (   0.3361698   0.2801415   0.0000000), wk =   0.0380952
        k(   42) = (   0.3361698   0.2801415   0.1200606), wk =   0.0761905
        k(   43) = (   0.3361698   0.2801415   0.2401213), wk =   0.0761905
        k(   44) = (   0.3361698   0.2801415   0.3601819), wk =   0.0761905
        k(   45) = (   0.3361698  -0.4202122   0.0000000), wk =   0.0190476
        k(   46) = (   0.3361698  -0.4202122   0.1200606), wk =   0.0380952
        k(   47) = (   0.3361698  -0.4202122   0.2401213), wk =   0.0380952
        k(   48) = (   0.3361698  -0.4202122   0.3601819), wk =   0.0380952

[...]

     The maximum number of steps has been reached.

     End of BFGS Geometry Optimization
Begin final coordinates
     new unit-cell volume =   1047.24790 a.u.^3 (   155.18613 Ang^3 )

CELL_PARAMETERS (alat=  8.53457320)
   1.189875051   0.000000000   0.000000000
   0.000000000   1.189875051   0.000000000
   0.000000000   0.000000000   1.189875051

ATOMIC_POSITIONS (crystal)
Cr       0.000000000   0.500000000   0.250000000
Cr       0.000000000   0.500000000   0.750000000
Cr       0.500000000   0.750000000   0.000000000
Cr       0.500000000   0.250000000   0.000000000
Cr       0.750000000   0.000000000   0.500000000
Cr       0.250000000   0.000000000   0.500000000
Si       0.500000000   0.500000000   0.500000000
Si       0.000000000   0.000000000   0.000000000
End final coordinates

     A final scf calculation at the relaxed structure.
     The G-vectors are recalculated for the final unit cell
     Results may differ from those at the preceding step.

     bravais-lattice index     =            0
     lattice parameter (alat)  =       8.5346  a.u.
     unit-cell volume          =    1047.2479 (a.u.)^3
     number of atoms/cell      =            8
     number of atomic types    =            2
     number of electrons       =       138.00
     number of Kohn-Sham states=           83
     kinetic-energy cutoff     =      40.0000  Ry
     charge density cutoff     =     160.0000  Ry
     convergence threshold     =      1.0E-06
     mixing beta               =       0.7000
     number of iterations used =            8  plain     mixing
     Exchange-correlation      = SLA-PZ-NOGX-NOGC ( 1 1 0 0 0)
     EXX-fraction              =        0.00

     celldm(1)=   8.534573  celldm(2)=   0.000000  celldm(3)=   0.000000
     celldm(4)=   0.000000  celldm(5)=   0.000000  celldm(6)=   0.000000

     crystal axes: (cart. coord. in units of alat)
               a(1) = (   1.189875   0.000000   0.000000 )
               a(2) = (   0.000000   1.189875   0.000000 )
               a(3) = (   0.000000   0.000000   1.189875 )

     reciprocal axes: (cart. coord. in units 2 pi/alat)
               b(1) = (  0.840424  0.000000  0.000000 )
               b(2) = (  0.000000  0.840424  0.000000 )
               b(3) = (  0.000000  0.000000  0.840424 )

     PseudoPot. # 1 for Sm read from file:
     /home/cwx6513/pp.La/Sm.UPF
     MD5 check sum: 5079e8b144a06bfcdbc14fb02b96ab09
     Pseudo is Norm-conserving, Zval = 16.0
     Generated in analytical, separable form
     Using radial grid of 1259 points,  6 beta functions with:
                l(1) =   0
                l(2) =   0
                l(3) =   1
                l(4) =   1
                l(5) =   2
                l(6) =   3

     PseudoPot. # 2 for Ho read from file:
     /home/cwx6513/pp.La/Ho.UPF
     MD5 check sum: f307ee11bce99f5b724fa279e3790763
     Pseudo is Norm-conserving, Zval = 21.0
     Generated in analytical, separable form
     Using radial grid of 1265 points,  6 beta functions with:
                l(1) =   0
                l(2) =   0
                l(3) =   1
                l(4) =   1
                l(5) =   2
                l(6) =   3

     atomic species   valence    mass     pseudopotential
        Cr            16.00    51.99610     Sm( 1.00)
        Si            21.00    28.08550     Ho( 1.00)

     48 Sym. Ops., with inversion, found (24 have fractional translation)

   Cartesian axes

     site n.     atom                  positions (alat units)
         1           Cr  tau(   1) = (   0.0000000   0.5949375   0.2974688  )
         2           Cr  tau(   2) = (   0.0000000   0.5949375   0.8924063  )
         3           Cr  tau(   3) = (   0.5949375   0.8924063   0.0000000  )
         4           Cr  tau(   4) = (   0.5949375   0.2974688   0.0000000  )
         5           Cr  tau(   5) = (   0.8924063   0.0000000   0.5949375  )
         6           Cr  tau(   6) = (   0.2974688   0.0000000   0.5949375  )
         7           Si  tau(   7) = (   0.5949375   0.5949375   0.5949375  )
         8           Si  tau(   8) = (   0.0000000   0.0000000   0.0000000  )

     number of k points=    48  gaussian smearing, width (Ry)=  0.1000
                       cart. coord. in units 2pi/alat
        k(    1) = (   0.0000000   0.0000000   0.0000000), wk =   0.0095238
        k(    2) = (   0.0000000   0.0000000   0.1200606), wk =   0.0190476
        k(    3) = (   0.0000000   0.0000000   0.2401213), wk =   0.0190476
        k(    4) = (   0.0000000   0.0000000   0.3601819), wk =   0.0190476
        k(    5) = (   0.0000000   0.1400707   0.0000000), wk =   0.0190476
        k(    6) = (   0.0000000   0.1400707   0.1200606), wk =   0.0380952
        k(    7) = (   0.0000000   0.1400707   0.2401213), wk =   0.0380952
        k(    8) = (   0.0000000   0.1400707   0.3601819), wk =   0.0380952
        k(    9) = (   0.0000000   0.2801415   0.0000000), wk =   0.0190476
        k(   10) = (   0.0000000   0.2801415   0.1200606), wk =   0.0380952
        k(   11) = (   0.0000000   0.2801415   0.2401213), wk =   0.0380952
        k(   12) = (   0.0000000   0.2801415   0.3601819), wk =   0.0380952
        k(   13) = (   0.0000000  -0.4202122   0.0000000), wk =   0.0095238
        k(   14) = (   0.0000000  -0.4202122   0.1200606), wk =   0.0190476
        k(   15) = (   0.0000000  -0.4202122   0.2401213), wk =   0.0190476
        k(   16) = (   0.0000000  -0.4202122   0.3601819), wk =   0.0190476
        k(   17) = (   0.1680849   0.0000000   0.0000000), wk =   0.0190476
        k(   18) = (   0.1680849   0.0000000   0.1200606), wk =   0.0380952
        k(   19) = (   0.1680849   0.0000000   0.2401213), wk =   0.0380952
        k(   20) = (   0.1680849   0.0000000   0.3601819), wk =   0.0380952
        k(   21) = (   0.1680849   0.1400707   0.0000000), wk =   0.0380952
        k(   22) = (   0.1680849   0.1400707   0.1200606), wk =   0.0761905
        k(   23) = (   0.1680849   0.1400707   0.2401213), wk =   0.0761905
        k(   24) = (   0.1680849   0.1400707   0.3601819), wk =   0.0761905
        k(   25) = (   0.1680849   0.2801415   0.0000000), wk =   0.0380952
        k(   26) = (   0.1680849   0.2801415   0.1200606), wk =   0.0761905
        k(   27) = (   0.1680849   0.2801415   0.2401213), wk =   0.0761905
        k(   28) = (   0.1680849   0.2801415   0.3601819), wk =   0.0761905
        k(   29) = (   0.1680849  -0.4202122   0.0000000), wk =   0.0190476
        k(   30) = (   0.1680849  -0.4202122   0.1200606), wk =   0.0380952
        k(   31) = (   0.1680849  -0.4202122   0.2401213), wk =   0.0380952
        k(   32) = (   0.1680849  -0.4202122   0.3601819), wk =   0.0380952
        k(   33) = (   0.3361698   0.0000000   0.0000000), wk =   0.0190476
        k(   34) = (   0.3361698   0.0000000   0.1200606), wk =   0.0380952
        k(   35) = (   0.3361698   0.0000000   0.2401213), wk =   0.0380952
        k(   36) = (   0.3361698   0.0000000   0.3601819), wk =   0.0380952
        k(   37) = (   0.3361698   0.1400707   0.0000000), wk =   0.0380952
        k(   38) = (   0.3361698   0.1400707   0.1200606), wk =   0.0761905
        k(   39) = (   0.3361698   0.1400707   0.2401213), wk =   0.0761905
        k(   40) = (   0.3361698   0.1400707   0.3601819), wk =   0.0761905
        k(   41) = (   0.3361698   0.2801415   0.0000000), wk =   0.0380952
        k(   42) = (   0.3361698   0.2801415   0.1200606), wk =   0.0761905
        k(   43) = (   0.3361698   0.2801415   0.2401213), wk =   0.0761905
        k(   44) = (   0.3361698   0.2801415   0.3601819), wk =   0.0761905
        k(   45) = (   0.3361698  -0.4202122   0.0000000), wk =   0.0190476
        k(   46) = (   0.3361698  -0.4202122   0.1200606), wk =   0.0380952
        k(   47) = (   0.3361698  -0.4202122   0.2401213), wk =   0.0380952
        k(   48) = (   0.3361698  -0.4202122   0.3601819), wk =   0.0380952

     Largest allocated arrays     est. size (Mb)     dimensions
     Largest temporary arrays     est. size (Mb)     dimensions

     Initial potential from superposition of free atoms

     Starting from uniform charge
     Starting wfc are    0 randomized atomic wfcs

     Writing output data file Prototype-La-cP8-Cr3Si.save

     Self-consistent Calculation

[...]

     iteration #  8     ecut=    40.00 Ry     beta=0.70
     CG style diagonalization
     c_bands:  1 eigenvalues not converged
     ethr =  4.04E-06,  avg # of iterations =  3.9

[...]

     total energy              =   -1496.64322689 Ry
     Harris-Foulkes estimate   =   -1496.64336435 Ry
     estimated scf accuracy    <       0.00024510 Ry

     iteration # 10     ecut=    40.00 Ry     beta=0.70
     CG style diagonalization
     ethr =  1.78E-07,  avg # of iterations =  3.8

     End of self-consistent calculation

[...]

          k = 0.3362-0.4202 0.3602 (  4492 PWs)   bands (ev):

   -66.2594 -66.2593 -32.3299 -32.3167 -32.2779 -32.2778 -32.2402 -32.2265
   -30.4059 -30.4058 -30.4027 -30.4024 -30.3970 -30.3970  -8.1055  -8.0117
    -7.7741  -7.7707  -7.6796  -7.6780  -7.5606  -7.5072  -7.3964  -7.3754
    -7.3395  -7.3230  -7.2756  -7.2645  -7.2483  -7.2477  -7.2333  -7.2319
    13.2721  13.2746  13.2915  13.2984  13.3016  13.3098  13.3292  13.3294
    13.3472  13.3498  17.9851  17.9852  20.1498  20.2595  20.5215  20.5838
    20.7222  20.7269  21.1396  21.1509  21.3485  21.3728  21.4406  21.5012
    22.0269  22.2210  22.6558  22.7506  22.8481  22.9682  23.0694  23.0754
    23.6164  23.6875  24.5202  24.6348  24.7523  24.8251  24.8630  24.9618
    25.4685  25.5025  26.1403  26.3112  26.5190  26.7997  27.4184  27.4962
    32.1305  32.1346  34.1506

     the Fermi energy is    25.3054 ev

!    total energy              =   -1496.64328883 Ry
     Harris-Foulkes estimate   =   -1496.64328958 Ry
     estimated scf accuracy    <       0.00000095 Ry

     The total energy is the sum of the following terms:

     one-electron contribution =    -176.10684782 Ry
     hartree contribution      =     192.42902012 Ry
     xc contribution           =    -150.62312204 Ry
     ewald contribution        =   -1361.83680408 Ry
     smearing contrib. (-TS)   =      -0.50553501 Ry

     convergence has been achieved in  10 iterations

     Forces acting on atoms (Ry/au):

     atom    1 type  1   force =     0.00000000    0.00000000    0.00000000
     atom    2 type  1   force =     0.00000000    0.00000000    0.00000000
     atom    3 type  1   force =     0.00000000    0.00000000    0.00000000
     atom    4 type  1   force =     0.00000000    0.00000000    0.00000000
     atom    5 type  1   force =     0.00000000    0.00000000    0.00000000
     atom    6 type  1   force =     0.00000000    0.00000000    0.00000000
     atom    7 type  2   force =     0.00000000    0.00000000    0.00000000
     atom    8 type  2   force =     0.00000000    0.00000000    0.00000000

     Total force =     0.000000     Total SCF correction =     0.000000

     entering subroutine stress ...

          total   stress  (Ry/bohr**3)                   (kbar)     P=   33.89
   0.00023039   0.00000000   0.00000000         33.89      0.00      0.00
   0.00000000   0.00023039   0.00000000          0.00     33.89      0.00
   0.00000000   0.00000000   0.00023039          0.00      0.00     33.89

     Writing output data file Prototype-La-cP8-Cr3Si.save

     General routines

     Parallel routines

   This run was terminated on:  19: 4:24  22Mar2018

   JOB DONE.