     Program PWSCF v.5.0.2 starts on 22Mar2018 at 18:43:54

     Current dimensions of program PWSCF are:
     Max number of different atomic species (ntypx) = 10
     Max number of k-points (npk) =  40000
     Max angular momentum in pseudopotentials (lmaxx) =  3
     Waiting for input...
     Reading input from standard input

     Subspace diagonalization in iterative solution of the eigenvalue problem:
     a serial algorithm will be used

     bravais-lattice index     =            0
     lattice parameter (alat)  =      12.0168  a.u.
     unit-cell volume          =    1187.3413 (a.u.)^3
     number of atoms/cell      =            8
     number of atomic types    =            2
     number of electrons       =       138.00
     number of Kohn-Sham states=           83
     kinetic-energy cutoff     =      40.0000  Ry
     charge density cutoff     =     160.0000  Ry
     convergence threshold     =      1.0E-04
     mixing beta               =       0.7000
     number of iterations used =            8  plain     mixing
     Exchange-correlation      = SLA-PZ-NOGX-NOGC ( 1 1 0 0 0)
     EXX-fraction              =        0.00
     nstep                     =           50

     celldm(1)=  12.016801  celldm(2)=   0.000000  celldm(3)=   0.000000
     celldm(4)=   0.000000  celldm(5)=   0.000000  celldm(6)=   0.000000

     crystal axes: (cart. coord. in units of alat)
               a(1) = (   1.000000   0.000000   0.000000 )
               a(2) = (  -0.500000   0.866025   0.000000 )
               a(3) = (   0.000000   0.000000   0.790093 )

     reciprocal axes: (cart. coord. in units 2 pi/alat)
               b(1) = (  1.000000  0.577350  0.000000 )
               b(2) = (  0.000000  1.154701  0.000000 )
               b(3) = (  0.000000  0.000000  1.265674 )

     PseudoPot. # 1 for Sm read from file:
     /home/cwx6513/pp.La/Sm.UPF
     MD5 check sum: 5079e8b144a06bfcdbc14fb02b96ab09
     Pseudo is Norm-conserving, Zval = 16.0
     Generated in analytical, separable form
     Using radial grid of 1259 points,  6 beta functions with:
                l(1) =   0
                l(2) =   0
                l(3) =   1
                l(4) =   1
                l(5) =   2
                l(6) =   3

     PseudoPot. # 2 for Ho read from file:
     /home/cwx6513/pp.La/Ho.UPF
     MD5 check sum: f307ee11bce99f5b724fa279e3790763
     Pseudo is Norm-conserving, Zval = 21.0
     Generated in analytical, separable form
     Using radial grid of 1265 points,  6 beta functions with:
                l(1) =   0
                l(2) =   0
                l(3) =   1
                l(4) =   1
                l(5) =   2
                l(6) =   3

     atomic species   valence    mass     pseudopotential
        Mg            16.00    24.30500     Sm( 1.00)
        Cd            21.00   112.41100     Ho( 1.00)

     24 Sym. Ops., with inversion, found (12 have fractional translation)

   Cartesian axes

     site n.     atom                  positions (alat units)
         1           Mg  tau(   1) = (   0.2478935   0.7204716   0.1975233  )
         2           Mg  tau(   2) = (   0.7478935   0.1455538   0.5925699  )
         3           Mg  tau(   3) = (   0.2521065   0.1455538   0.5925699  )
         4           Mg  tau(   4) = (  -0.2478935   0.7204716   0.1975233  )
         5           Mg  tau(   5) = (   0.0000000   0.2911075   0.1975233  )
         6           Mg  tau(   6) = (   0.5000000   0.5749179   0.5925699  )
         7           Cd  tau(   7) = (   0.5000005   0.2886748   0.1975233  )
         8           Cd  tau(   8) = (  -0.0000005   0.5773506   0.5925699  )

     number of k points=    64  gaussian smearing, width (Ry)=  0.1000
                       cart. coord. in units 2pi/alat
        k(    1) = (   0.0000000   0.0000000   0.0000000), wk =   0.0095238
        k(    2) = (   0.0000000   0.0000000   0.1808105), wk =   0.0190476
        k(    3) = (   0.0000000   0.0000000   0.3616210), wk =   0.0190476
        k(    4) = (   0.0000000   0.0000000   0.5424315), wk =   0.0190476
        k(    5) = (   0.0000000   0.1924501   0.0000000), wk =   0.0190476
        k(    6) = (   0.0000000   0.1924501   0.1808105), wk =   0.0380952
        k(    7) = (   0.0000000   0.1924501   0.3616210), wk =   0.0380952
        k(    8) = (   0.0000000   0.1924501   0.5424315), wk =   0.0380952
        k(    9) = (   0.0000000   0.3849002   0.0000000), wk =   0.0190476
        k(   10) = (   0.0000000   0.3849002   0.1808105), wk =   0.0380952
        k(   11) = (   0.0000000   0.3849002   0.3616210), wk =   0.0380952
        k(   12) = (   0.0000000   0.3849002   0.5424315), wk =   0.0380952
        k(   13) = (   0.0000000  -0.5773503   0.0000000), wk =   0.0095238
        k(   14) = (   0.0000000  -0.5773503   0.1808105), wk =   0.0190476
        k(   15) = (   0.0000000  -0.5773503   0.3616210), wk =   0.0190476
        k(   16) = (   0.0000000  -0.5773503   0.5424315), wk =   0.0190476
        k(   17) = (   0.2000000   0.1154701   0.0000000), wk =   0.0190476
        k(   18) = (   0.2000000   0.1154701   0.1808105), wk =   0.0380952
        k(   19) = (   0.2000000   0.1154701   0.3616210), wk =   0.0380952
        k(   20) = (   0.2000000   0.1154701   0.5424315), wk =   0.0380952
        k(   21) = (   0.2000000   0.3079201   0.0000000), wk =   0.0190476
        k(   22) = (   0.2000000   0.3079201   0.1808105), wk =   0.0380952
        k(   23) = (   0.2000000   0.3079201   0.3616210), wk =   0.0380952
        k(   24) = (   0.2000000   0.3079201   0.5424315), wk =   0.0380952
        k(   25) = (   0.2000000   0.5003702   0.0000000), wk =   0.0190476
        k(   26) = (   0.2000000   0.5003702   0.1808105), wk =   0.0380952
        k(   27) = (   0.2000000   0.5003702   0.3616210), wk =   0.0380952
        k(   28) = (   0.2000000   0.5003702   0.5424315), wk =   0.0380952
        k(   29) = (   0.2000000  -0.4618802   0.0000000), wk =   0.0190476
        k(   30) = (   0.2000000  -0.4618802   0.1808105), wk =   0.0380952
        k(   31) = (   0.2000000  -0.4618802   0.3616210), wk =   0.0380952
        k(   32) = (   0.2000000  -0.4618802   0.5424315), wk =   0.0380952
        k(   33) = (   0.2000000  -0.2694301   0.0000000), wk =   0.0190476
        k(   34) = (   0.2000000  -0.2694301   0.1808105), wk =   0.0380952
        k(   35) = (   0.2000000  -0.2694301   0.3616210), wk =   0.0380952
        k(   36) = (   0.2000000  -0.2694301   0.5424315), wk =   0.0380952
        k(   37) = (   0.2000000  -0.0769800   0.0000000), wk =   0.0190476
        k(   38) = (   0.2000000  -0.0769800   0.1808105), wk =   0.0380952
        k(   39) = (   0.2000000  -0.0769800   0.3616210), wk =   0.0380952
        k(   40) = (   0.2000000  -0.0769800   0.5424315), wk =   0.0380952
        k(   41) = (   0.4000000   0.2309401   0.0000000), wk =   0.0190476
        k(   42) = (   0.4000000   0.2309401   0.1808105), wk =   0.0380952
        k(   43) = (   0.4000000   0.2309401   0.3616210), wk =   0.0380952
        k(   44) = (   0.4000000   0.2309401   0.5424315), wk =   0.0380952
        k(   45) = (   0.4000000   0.4233902   0.0000000), wk =   0.0190476
        k(   46) = (   0.4000000   0.4233902   0.1808105), wk =   0.0380952
        k(   47) = (   0.4000000   0.4233902   0.3616210), wk =   0.0380952
        k(   48) = (   0.4000000   0.4233902   0.5424315), wk =   0.0380952
        k(   49) = (   0.4000000   0.6158403   0.0000000), wk =   0.0190476
        k(   50) = (   0.4000000   0.6158403   0.1808105), wk =   0.0380952
        k(   51) = (   0.4000000   0.6158403   0.3616210), wk =   0.0380952
        k(   52) = (   0.4000000   0.6158403   0.5424315), wk =   0.0380952
        k(   53) = (   0.4000000  -0.3464102   0.0000000), wk =   0.0190476
        k(   54) = (   0.4000000  -0.3464102   0.1808105), wk =   0.0380952
        k(   55) = (   0.4000000  -0.3464102   0.3616210), wk =   0.0380952
        k(   56) = (   0.4000000  -0.3464102   0.5424315), wk =   0.0380952
        k(   57) = (   0.4000000  -0.1539601   0.0000000), wk =   0.0190476
        k(   58) = (   0.4000000  -0.1539601   0.1808105), wk =   0.0380952
        k(   59) = (   0.4000000  -0.1539601   0.3616210), wk =   0.0380952
        k(   60) = (   0.4000000  -0.1539601   0.5424315), wk =   0.0380952
        k(   61) = (   0.4000000   0.0384900   0.0000000), wk =   0.0190476
        k(   62) = (   0.4000000   0.0384900   0.1808105), wk =   0.0380952
        k(   63) = (   0.4000000   0.0384900   0.3616210), wk =   0.0380952
        k(   64) = (   0.4000000   0.0384900   0.5424315), wk =   0.0380952

     Largest allocated arrays     est. size (Mb)     dimensions
     Largest temporary arrays     est. size (Mb)     dimensions

     Initial potential from superposition of free atoms

     Starting from uniform charge
     Starting wfc are    0 randomized atomic wfcs

     Self-consistent Calculation

     iteration #  1     ecut=    40.00 Ry     beta=0.70
     CG style diagonalization
     c_bands:  1 eigenvalues not converged
     c_bands:  1 eigenvalues not converged
     c_bands:  1 eigenvalues not converged
     c_bands:  2 eigenvalues not converged
     c_bands:  3 eigenvalues not converged
     c_bands:  1 eigenvalues not converged
     c_bands:  1 eigenvalues not converged
     c_bands:  2 eigenvalues not converged
     c_bands:  2 eigenvalues not converged
     c_bands:  3 eigenvalues not converged
     c_bands:  1 eigenvalues not converged
     c_bands:  2 eigenvalues not converged
     c_bands:  2 eigenvalues not converged
     c_bands:  1 eigenvalues not converged
     c_bands:  1 eigenvalues not converged
     c_bands:  2 eigenvalues not converged
     c_bands:  4 eigenvalues not converged
     c_bands:  1 eigenvalues not converged
     c_bands:  2 eigenvalues not converged
     c_bands:  1 eigenvalues not converged
     c_bands:  2 eigenvalues not converged
     c_bands:  4 eigenvalues not converged
     c_bands:  1 eigenvalues not converged
     c_bands:  2 eigenvalues not converged
     c_bands:  1 eigenvalues not converged
     c_bands:  3 eigenvalues not converged
     c_bands:  1 eigenvalues not converged
     c_bands:  1 eigenvalues not converged
     c_bands:  1 eigenvalues not converged
     c_bands:  3 eigenvalues not converged
     c_bands:  4 eigenvalues not converged
     c_bands:  2 eigenvalues not converged
     c_bands:  1 eigenvalues not converged
     c_bands:  1 eigenvalues not converged
     c_bands:  2 eigenvalues not converged
     c_bands:  1 eigenvalues not converged
     c_bands:  1 eigenvalues not converged
     c_bands:  1 eigenvalues not converged
     c_bands:  3 eigenvalues not converged
     c_bands:  2 eigenvalues not converged
     c_bands:  1 eigenvalues not converged
     ethr =  1.00E-02,  avg # of iterations = 12.4

     total energy              =    -889.92718018 Ry
     Harris-Foulkes estimate   =   -1915.39384727 Ry
     estimated scf accuracy    <    1236.82969730 Ry

     iteration #  2     ecut=    40.00 Ry     beta=0.70
     CG style diagonalization
     ethr =  1.00E-02,  avg # of iterations = 17.1

[...]

     End of self-consistent calculation

[...]
        k(   13) = (   0.0000000  -0.6058100   0.0000000), wk =   0.0095238
        k(   14) = (   0.0000000  -0.6058100   0.1861112), wk =   0.0190476
        k(   15) = (   0.0000000  -0.6058100   0.3722223), wk =   0.0190476
        k(   16) = (   0.0000000  -0.6058100   0.5583335), wk =   0.0190476
        k(   17) = (   0.2098587   0.1211620   0.0000000), wk =   0.0190476
        k(   18) = (   0.2098587   0.1211620   0.1861112), wk =   0.0380952
        k(   19) = (   0.2098587   0.1211620   0.3722223), wk =   0.0380952
        k(   20) = (   0.2098587   0.1211620   0.5583335), wk =   0.0380952
        k(   21) = (   0.2098587   0.3230987   0.0000000), wk =   0.0190476
        k(   22) = (   0.2098587   0.3230987   0.1861112), wk =   0.0380952
        k(   23) = (   0.2098587   0.3230987   0.3722223), wk =   0.0380952
        k(   24) = (   0.2098587   0.3230987   0.5583335), wk =   0.0380952
        k(   25) = (   0.2098587   0.5250353   0.0000000), wk =   0.0190476
        k(   26) = (   0.2098587   0.5250353   0.1861112), wk =   0.0380952
        k(   27) = (   0.2098587   0.5250353   0.3722223), wk =   0.0380952
        k(   28) = (   0.2098587   0.5250353   0.5583335), wk =   0.0380952
        k(   29) = (   0.2098587  -0.4846480   0.0000000), wk =   0.0190476
        k(   30) = (   0.2098587  -0.4846480   0.1861112), wk =   0.0380952
        k(   31) = (   0.2098587  -0.4846480   0.3722223), wk =   0.0380952
        k(   32) = (   0.2098587  -0.4846480   0.5583335), wk =   0.0380952
        k(   33) = (   0.2098587  -0.2827113   0.0000000), wk =   0.0190476
        k(   34) = (   0.2098587  -0.2827113   0.1861112), wk =   0.0380952
        k(   35) = (   0.2098587  -0.2827113   0.3722223), wk =   0.0380952
        k(   36) = (   0.2098587  -0.2827113   0.5583335), wk =   0.0380952
        k(   37) = (   0.2098587  -0.0807747   0.0000000), wk =   0.0190476
        k(   38) = (   0.2098587  -0.0807747   0.1861112), wk =   0.0380952
        k(   39) = (   0.2098587  -0.0807747   0.3722223), wk =   0.0380952
        k(   40) = (   0.2098587  -0.0807747   0.5583335), wk =   0.0380952
        k(   41) = (   0.4197175   0.2423240   0.0000000), wk =   0.0190476
        k(   42) = (   0.4197175   0.2423240   0.1861112), wk =   0.0380952
        k(   43) = (   0.4197175   0.2423240   0.3722223), wk =   0.0380952
        k(   44) = (   0.4197175   0.2423240   0.5583335), wk =   0.0380952
        k(   45) = (   0.4197175   0.4442607   0.0000000), wk =   0.0190476
        k(   46) = (   0.4197175   0.4442607   0.1861112), wk =   0.0380952
        k(   47) = (   0.4197175   0.4442607   0.3722223), wk =   0.0380952
        k(   48) = (   0.4197175   0.4442607   0.5583335), wk =   0.0380952
        k(   49) = (   0.4197175   0.6461973   0.0000000), wk =   0.0190476
        k(   50) = (   0.4197175   0.6461973   0.1861112), wk =   0.0380952
        k(   51) = (   0.4197175   0.6461973   0.3722223), wk =   0.0380952
        k(   52) = (   0.4197175   0.6461973   0.5583335), wk =   0.0380952
        k(   53) = (   0.4197175  -0.3634860   0.0000000), wk =   0.0190476
        k(   54) = (   0.4197175  -0.3634860   0.1861112), wk =   0.0380952
        k(   55) = (   0.4197175  -0.3634860   0.3722223), wk =   0.0380952
        k(   56) = (   0.4197175  -0.3634860   0.5583335), wk =   0.0380952
        k(   57) = (   0.4197175  -0.1615493   0.0000000), wk =   0.0190476
        k(   58) = (   0.4197175  -0.1615493   0.1861112), wk =   0.0380952
        k(   59) = (   0.4197175  -0.1615493   0.3722223), wk =   0.0380952
        k(   60) = (   0.4197175  -0.1615493   0.5583335), wk =   0.0380952
        k(   61) = (   0.4197175   0.0403873   0.0000000), wk =   0.0190476
        k(   62) = (   0.4197175   0.0403873   0.1861112), wk =   0.0380952
        k(   63) = (   0.4197175   0.0403873   0.3722223), wk =   0.0380952
        k(   64) = (   0.4197175   0.0403873   0.5583335), wk =   0.0380952

[...]

     The maximum number of steps has been reached.

     End of BFGS Geometry Optimization
Begin final coordinates
     new unit-cell volume =   1047.68959 a.u.^3 (   155.25158 Ang^3 )

CELL_PARAMETERS (alat= 12.01680127)
   0.953021996   0.000000000   0.000000000
  -0.476510998   0.825341259   0.000000000
   0.000000000   0.000000000   0.767590361

ATOMIC_POSITIONS (crystal)
Mg       0.670129665   0.835064833   0.250000000
Mg       0.835064833   0.164935167   0.750000000
Mg       0.329870335   0.164935167   0.750000000
Mg       0.164935167   0.835064833   0.250000000
Mg       0.164935167   0.329870335   0.250000000
Mg       0.835064833   0.670129665   0.750000000
Cd       0.666667000   0.333333000   0.250000000
Cd       0.333333000   0.666667000   0.750000000
End final coordinates

     A final scf calculation at the relaxed structure.
     The G-vectors are recalculated for the final unit cell
     Results may differ from those at the preceding step.

     bravais-lattice index     =            0
     lattice parameter (alat)  =      12.0168  a.u.
     unit-cell volume          =    1047.6896 (a.u.)^3
     number of atoms/cell      =            8
     number of atomic types    =            2
     number of electrons       =       138.00
     number of Kohn-Sham states=           83
     kinetic-energy cutoff     =      40.0000  Ry
     charge density cutoff     =     160.0000  Ry
     convergence threshold     =      1.8E-05
     mixing beta               =       0.7000
     number of iterations used =            8  plain     mixing
     Exchange-correlation      = SLA-PZ-NOGX-NOGC ( 1 1 0 0 0)
     EXX-fraction              =        0.00

     celldm(1)=  12.016801  celldm(2)=   0.000000  celldm(3)=   0.000000
     celldm(4)=   0.000000  celldm(5)=   0.000000  celldm(6)=   0.000000

     crystal axes: (cart. coord. in units of alat)
               a(1) = (   0.953022   0.000000   0.000000 )
               a(2) = (  -0.476511   0.825341   0.000000 )
               a(3) = (   0.000000   0.000000   0.767590 )

     reciprocal axes: (cart. coord. in units 2 pi/alat)
               b(1) = (  1.049294  0.605810  0.000000 )
               b(2) = (  0.000000  1.211620  0.000000 )
               b(3) = (  0.000000  0.000000  1.302778 )

     PseudoPot. # 1 for Sm read from file:
     /home/cwx6513/pp.La/Sm.UPF
     MD5 check sum: 5079e8b144a06bfcdbc14fb02b96ab09
     Pseudo is Norm-conserving, Zval = 16.0
     Generated in analytical, separable form
     Using radial grid of 1259 points,  6 beta functions with:
                l(1) =   0
                l(2) =   0
                l(3) =   1
                l(4) =   1
                l(5) =   2
                l(6) =   3

     PseudoPot. # 2 for Ho read from file:
     /home/cwx6513/pp.La/Ho.UPF
     MD5 check sum: f307ee11bce99f5b724fa279e3790763
     Pseudo is Norm-conserving, Zval = 21.0
     Generated in analytical, separable form
     Using radial grid of 1265 points,  6 beta functions with:
                l(1) =   0
                l(2) =   0
                l(3) =   1
                l(4) =   1
                l(5) =   2
                l(6) =   3

     atomic species   valence    mass     pseudopotential
        Mg            16.00    24.30500     Sm( 1.00)
        Cd            21.00   112.41100     Ho( 1.00)

     24 Sym. Ops., with inversion, found (12 have fractional translation)

   Cartesian axes

     site n.     atom                  positions (alat units)
         1           Mg  tau(   1) = (   0.2407307   0.6892135   0.1918976  )
         2           Mg  tau(   2) = (   0.7172417   0.1361278   0.5756928  )
         3           Mg  tau(   3) = (   0.2357803   0.1361278   0.5756928  )
         4           Mg  tau(   4) = (  -0.2407307   0.6892135   0.1918976  )
         5           Mg  tau(   5) = (   0.0000000   0.2722556   0.1918976  )
         6           Mg  tau(   6) = (   0.4765110   0.5530857   0.5756928  )
         7           Cd  tau(   7) = (   0.4765115   0.2751135   0.1918976  )
         8           Cd  tau(   8) = (  -0.0000005   0.5502278   0.5756928  )

     number of k points=    64  gaussian smearing, width (Ry)=  0.1000
                       cart. coord. in units 2pi/alat
        k(    1) = (   0.0000000   0.0000000   0.0000000), wk =   0.0095238
        k(    2) = (   0.0000000   0.0000000   0.1861112), wk =   0.0190476
        k(    3) = (   0.0000000   0.0000000   0.3722223), wk =   0.0190476
        k(    4) = (   0.0000000   0.0000000   0.5583335), wk =   0.0190476
        k(    5) = (   0.0000000   0.2019367   0.0000000), wk =   0.0190476
        k(    6) = (   0.0000000   0.2019367   0.1861112), wk =   0.0380952
        k(    7) = (   0.0000000   0.2019367   0.3722223), wk =   0.0380952
        k(    8) = (   0.0000000   0.2019367   0.5583335), wk =   0.0380952
        k(    9) = (   0.0000000   0.4038733   0.0000000), wk =   0.0190476
        k(   10) = (   0.0000000   0.4038733   0.1861112), wk =   0.0380952
        k(   11) = (   0.0000000   0.4038733   0.3722223), wk =   0.0380952
        k(   12) = (   0.0000000   0.4038733   0.5583335), wk =   0.0380952
        k(   13) = (   0.0000000  -0.6058100   0.0000000), wk =   0.0095238
        k(   14) = (   0.0000000  -0.6058100   0.1861112), wk =   0.0190476
        k(   15) = (   0.0000000  -0.6058100   0.3722223), wk =   0.0190476
        k(   16) = (   0.0000000  -0.6058100   0.5583335), wk =   0.0190476
        k(   17) = (   0.2098587   0.1211620   0.0000000), wk =   0.0190476
        k(   18) = (   0.2098587   0.1211620   0.1861112), wk =   0.0380952
        k(   19) = (   0.2098587   0.1211620   0.3722223), wk =   0.0380952
        k(   20) = (   0.2098587   0.1211620   0.5583335), wk =   0.0380952
        k(   21) = (   0.2098587   0.3230987   0.0000000), wk =   0.0190476
        k(   22) = (   0.2098587   0.3230987   0.1861112), wk =   0.0380952
        k(   23) = (   0.2098587   0.3230987   0.3722223), wk =   0.0380952
        k(   24) = (   0.2098587   0.3230987   0.5583335), wk =   0.0380952
        k(   25) = (   0.2098587   0.5250353   0.0000000), wk =   0.0190476
        k(   26) = (   0.2098587   0.5250353   0.1861112), wk =   0.0380952
        k(   27) = (   0.2098587   0.5250353   0.3722223), wk =   0.0380952
        k(   28) = (   0.2098587   0.5250353   0.5583335), wk =   0.0380952
        k(   29) = (   0.2098587  -0.4846480   0.0000000), wk =   0.0190476
        k(   30) = (   0.2098587  -0.4846480   0.1861112), wk =   0.0380952
        k(   31) = (   0.2098587  -0.4846480   0.3722223), wk =   0.0380952
        k(   32) = (   0.2098587  -0.4846480   0.5583335), wk =   0.0380952
        k(   33) = (   0.2098587  -0.2827113   0.0000000), wk =   0.0190476
        k(   34) = (   0.2098587  -0.2827113   0.1861112), wk =   0.0380952
        k(   35) = (   0.2098587  -0.2827113   0.3722223), wk =   0.0380952
        k(   36) = (   0.2098587  -0.2827113   0.5583335), wk =   0.0380952
        k(   37) = (   0.2098587  -0.0807747   0.0000000), wk =   0.0190476
        k(   38) = (   0.2098587  -0.0807747   0.1861112), wk =   0.0380952
        k(   39) = (   0.2098587  -0.0807747   0.3722223), wk =   0.0380952
        k(   40) = (   0.2098587  -0.0807747   0.5583335), wk =   0.0380952
        k(   41) = (   0.4197175   0.2423240   0.0000000), wk =   0.0190476
        k(   42) = (   0.4197175   0.2423240   0.1861112), wk =   0.0380952
        k(   43) = (   0.4197175   0.2423240   0.3722223), wk =   0.0380952
        k(   44) = (   0.4197175   0.2423240   0.5583335), wk =   0.0380952
        k(   45) = (   0.4197175   0.4442607   0.0000000), wk =   0.0190476
        k(   46) = (   0.4197175   0.4442607   0.1861112), wk =   0.0380952
        k(   47) = (   0.4197175   0.4442607   0.3722223), wk =   0.0380952
        k(   48) = (   0.4197175   0.4442607   0.5583335), wk =   0.0380952
        k(   49) = (   0.4197175   0.6461973   0.0000000), wk =   0.0190476
        k(   50) = (   0.4197175   0.6461973   0.1861112), wk =   0.0380952
        k(   51) = (   0.4197175   0.6461973   0.3722223), wk =   0.0380952
        k(   52) = (   0.4197175   0.6461973   0.5583335), wk =   0.0380952
        k(   53) = (   0.4197175  -0.3634860   0.0000000), wk =   0.0190476
        k(   54) = (   0.4197175  -0.3634860   0.1861112), wk =   0.0380952
        k(   55) = (   0.4197175  -0.3634860   0.3722223), wk =   0.0380952
        k(   56) = (   0.4197175  -0.3634860   0.5583335), wk =   0.0380952
        k(   57) = (   0.4197175  -0.1615493   0.0000000), wk =   0.0190476
        k(   58) = (   0.4197175  -0.1615493   0.1861112), wk =   0.0380952
        k(   59) = (   0.4197175  -0.1615493   0.3722223), wk =   0.0380952
        k(   60) = (   0.4197175  -0.1615493   0.5583335), wk =   0.0380952
        k(   61) = (   0.4197175   0.0403873   0.0000000), wk =   0.0190476
        k(   62) = (   0.4197175   0.0403873   0.1861112), wk =   0.0380952
        k(   63) = (   0.4197175   0.0403873   0.3722223), wk =   0.0380952
        k(   64) = (   0.4197175   0.0403873   0.5583335), wk =   0.0380952

     Largest allocated arrays     est. size (Mb)     dimensions
     Largest temporary arrays     est. size (Mb)     dimensions

     Initial potential from superposition of free atoms

     Starting from uniform charge
     Starting wfc are    0 randomized atomic wfcs

     Writing output data file Prototype-La-hP8-Mg3Cd.save

     Self-consistent Calculation

[...]

     iteration #  9     ecut=    40.00 Ry     beta=0.70
     CG style diagonalization
     c_bands:  1 eigenvalues not converged
     c_bands:  1 eigenvalues not converged
     c_bands:  1 eigenvalues not converged
     c_bands:  1 eigenvalues not converged
     ethr =  2.17E-06,  avg # of iterations =  3.4

     total energy              =   -1496.82152665 Ry
     Harris-Foulkes estimate   =   -1496.82157826 Ry
     estimated scf accuracy    <       0.00009419 Ry

     iteration # 10     ecut=    40.00 Ry     beta=0.70
     CG style diagonalization
     ethr =  6.83E-08,  avg # of iterations =  4.6

     End of self-consistent calculation

[...]

          k = 0.4197 0.0404 0.5583 (  4473 PWs)   bands (ev):

   -66.2765 -66.2736 -32.3602 -32.3222 -32.2807 -32.2623 -32.2440 -32.2305
   -30.4201 -30.4196 -30.4164 -30.4140 -30.4046 -30.4026  -8.0503  -8.0284
    -7.9904  -7.9687  -7.8809  -7.8519  -7.5542  -7.4572  -7.3892  -7.3652
    -7.2890  -7.2287  -7.1755  -7.1576  -7.1334  -7.0774  -7.0344  -7.0258
    13.2501  13.2835  13.2944  13.3159  13.3559  13.3677  13.4289  13.4441
    13.5048  13.5324  17.4247  17.4293  19.4648  19.7175  19.9758  20.0370
    20.4621  20.6597  20.6883  20.7805  20.9922  21.0284  21.4386  21.4806
    21.9386  22.0120  22.2443  22.3153  22.9567  23.0072  23.0746  23.8807
    24.0419  24.2422  24.6772  24.7788  24.9021  25.0745  25.3322  25.5617
    26.0659  26.2465  26.5838  26.9796  27.0739  27.4848  29.3602  29.5398
    31.3326  31.5944  33.3390

     the Fermi energy is    25.1369 ev

!    total energy              =   -1496.82157421 Ry
     Harris-Foulkes estimate   =   -1496.82157822 Ry
     estimated scf accuracy    <       0.00000517 Ry

     The total energy is the sum of the following terms:

     one-electron contribution =    -170.99473501 Ry
     hartree contribution      =     189.76276516 Ry
     xc contribution           =    -150.45458257 Ry
     ewald contribution        =   -1364.62693645 Ry
     smearing contrib. (-TS)   =      -0.50808534 Ry

     convergence has been achieved in  10 iterations

     Forces acting on atoms (Ry/au):

     atom    1 type  1   force =     0.00818031    0.00472291    0.00000000
     atom    2 type  1   force =     0.00818031   -0.00472291    0.00000000
     atom    3 type  1   force =    -0.00818031   -0.00472291    0.00000000
     atom    4 type  1   force =    -0.00818031    0.00472291    0.00000000
     atom    5 type  1   force =     0.00000000   -0.00944581    0.00000000
     atom    6 type  1   force =     0.00000000    0.00944581    0.00000000
     atom    7 type  2   force =     0.00000000    0.00000000    0.00000000
     atom    8 type  2   force =     0.00000000    0.00000000    0.00000000

     Total force =     0.023137     Total SCF correction =     0.000000

     entering subroutine stress ...

          total   stress  (Ry/bohr**3)                   (kbar)     P=  -18.91
  -0.00019780   0.00000000   0.00000000        -29.10      0.00      0.00
   0.00000000  -0.00019780   0.00000000          0.00    -29.10      0.00
   0.00000000   0.00000000   0.00000999          0.00      0.00      1.47

     Writing output data file Prototype-La-hP8-Mg3Cd.save

     General routines

     Parallel routines

   This run was terminated on:  19:34:34  22Mar2018

   JOB DONE.