     Program PWSCF v.5.0.2 starts on 23Mar2018 at  2:16:44

     Current dimensions of program PWSCF are:
     Max number of different atomic species (ntypx) = 10
     Max number of k-points (npk) =  40000
     Max angular momentum in pseudopotentials (lmaxx) =  3
     Waiting for input...
     Reading input from standard input

     Subspace diagonalization in iterative solution of the eigenvalue problem:
     a serial algorithm will be used

     bravais-lattice index     =            0
     lattice parameter (alat)  =       7.0151  a.u.
     unit-cell volume          =     862.2778 (a.u.)^3
     number of atoms/cell      =           12
     number of atomic types    =            2
     number of electrons       =       208.00
     number of Kohn-Sham states=          125
     kinetic-energy cutoff     =      40.0000  Ry
     charge density cutoff     =     160.0000  Ry
     convergence threshold     =      1.0E-04
     mixing beta               =       0.7000
     number of iterations used =            8  plain     mixing
     Exchange-correlation      = SLA-PZ-NOGX-NOGC ( 1 1 0 0 0)
     EXX-fraction              =        0.00
     nstep                     =           50

     celldm(1)=   7.015105  celldm(2)=   0.000000  celldm(3)=   0.000000
     celldm(4)=   0.000000  celldm(5)=   0.000000  celldm(6)=   0.000000

     crystal axes: (cart. coord. in units of alat)
               a(1) = (   1.000000   0.000000   0.000000 )
               a(2) = (   0.000000   1.315963   0.000000 )
               a(3) = (   0.000000   0.000000   1.898020 )

     reciprocal axes: (cart. coord. in units 2 pi/alat)
               b(1) = (  1.000000  0.000000  0.000000 )
               b(2) = (  0.000000  0.759900  0.000000 )
               b(3) = (  0.000000  0.000000  0.526865 )

     PseudoPot. # 1 for Dy read from file:
     /home/cwx6513/pp.La/Dy.UPF
     MD5 check sum: 9597327bec62616a94a14d07f3fd9936
     Pseudo is Norm-conserving, Zval = 20.0
     Generated in analytical, separable form
     Using radial grid of 1265 points,  6 beta functions with:
                l(1) =   0
                l(2) =   0
                l(3) =   1
                l(4) =   1
                l(5) =   2
                l(6) =   3

     PseudoPot. # 2 for Ce read from file:
     /home/cwx6513/pp.La/Ce.UPF
     MD5 check sum: 44451aa79a44a00cf2bc029dc19922f6
     Pseudo is Norm-conserving, Zval = 12.0
     Generated in analytical, separable form
     Using radial grid of 1255 points,  6 beta functions with:
                l(1) =   0
                l(2) =   0
                l(3) =   1
                l(4) =   1
                l(5) =   2
                l(6) =   3

     atomic species   valence    mass     pseudopotential
        Co            20.00    58.93320     Dy( 1.00)
        Si            12.00    28.08550     Ce( 1.00)

      8 Sym. Ops., with inversion, found ( 6 have fractional translation)

   Cartesian axes

     site n.     atom                  positions (alat units)
         1           Co  tau(   1) = (   0.7500000   1.0875135   0.8270358  )
         2           Co  tau(   2) = (   0.2500000   0.2284499   1.0709846  )
         3           Co  tau(   3) = (   0.7500000   0.4295318   0.1219744  )
         4           Co  tau(   4) = (   0.2500000   0.8864316   1.7760460  )
         5           Co  tau(   5) = (   0.2500000   0.7067855   0.5358966  )
         6           Co  tau(   6) = (   0.7500000   0.6091779   1.3621238  )
         7           Co  tau(   7) = (   0.2500000   0.0488038   0.4131136  )
         8           Co  tau(   8) = (   0.7500000   1.2671596   1.4849068  )
         9           Si  tau(   9) = (   0.2500000   0.2669484   1.6960710  )
        10           Si  tau(  10) = (   0.7500000   1.0490149   0.2019494  )
        11           Si  tau(  11) = (   0.2500000   0.9249301   1.1509596  )
        12           Si  tau(  12) = (   0.7500000   0.3910333   0.7470608  )

     number of k points=    12  gaussian smearing, width (Ry)=  0.1000
                       cart. coord. in units 2pi/alat
        k(    1) = (   0.0000000   0.0000000   0.0000000), wk =   0.0833333
        k(    2) = (   0.0000000   0.0000000   0.1317162), wk =   0.1666667
        k(    3) = (   0.0000000   0.0000000  -0.2634324), wk =   0.0833333
        k(    4) = (   0.0000000   0.2532999   0.0000000), wk =   0.1666667
        k(    5) = (   0.0000000   0.2532999   0.1317162), wk =   0.3333333
        k(    6) = (   0.0000000   0.2532999  -0.2634324), wk =   0.1666667
        k(    7) = (  -0.5000000   0.0000000   0.0000000), wk =   0.0833333
        k(    8) = (  -0.5000000   0.0000000   0.1317162), wk =   0.1666667
        k(    9) = (  -0.5000000   0.0000000  -0.2634324), wk =   0.0833333
        k(   10) = (  -0.5000000   0.2532999   0.0000000), wk =   0.1666667
        k(   11) = (  -0.5000000   0.2532999   0.1317162), wk =   0.3333333
        k(   12) = (  -0.5000000   0.2532999  -0.2634324), wk =   0.1666667

     Largest allocated arrays     est. size (Mb)     dimensions
     Largest temporary arrays     est. size (Mb)     dimensions

     Initial potential from superposition of free atoms

     Starting from uniform charge
     Starting wfc are    0 randomized atomic wfcs

     Self-consistent Calculation

     iteration #  1     ecut=    40.00 Ry     beta=0.70
     CG style diagonalization
     ethr =  1.00E-02,  avg # of iterations = 16.6

     total energy              =   -1887.03811115 Ry
     Harris-Foulkes estimate   =   -2740.50108756 Ry
     estimated scf accuracy    <    1065.08441777 Ry

     iteration #  2     ecut=    40.00 Ry     beta=0.70
     CG style diagonalization
     c_bands:  3 eigenvalues not converged
     c_bands:  3 eigenvalues not converged
     c_bands:  4 eigenvalues not converged
     c_bands:  2 eigenvalues not converged
     c_bands:  1 eigenvalues not converged
     c_bands:  1 eigenvalues not converged
     c_bands:  1 eigenvalues not converged
     c_bands:  1 eigenvalues not converged
     ethr =  1.00E-02,  avg # of iterations = 13.7

[...]

     End of self-consistent calculation

          k = 0.0000 0.0000 0.0000 (  3675 PWs)   bands (ev):

   -37.1175 -36.9448 -36.9124 -36.8394 -36.8005 -36.7110 -36.6783 -36.6643
    -5.5922  -5.2644  -5.1756  -5.0164  -4.8789  -4.8292  -4.7417  -4.5925
    -4.4607  -4.4425  -4.3994  -4.1946  -4.1181  -4.0855  -4.0508  -4.0494
    -3.9098  -3.8516  -3.7564  -3.7367  -3.6658  -3.5160  -3.3340  -3.2464
     9.1248   9.7825   9.9044   9.9279  23.6776  24.1730  24.4520  24.5476
    24.9429  25.1628  25.2972  25.8054  25.8307  25.8568  26.7642  27.6308
    30.8291  31.1580  31.4005  31.4805  31.5824  31.7810  32.0672  32.6658
    33.4998  33.8841  34.1086  34.3299  34.3602  34.5039  34.9370  35.8100
    35.8904  35.9000  36.1023  36.1031  36.3878  36.5026  36.9033  36.9292
    37.0512  37.2219  37.7101  38.7506  38.8876  39.3438  39.4263  39.8711
    39.9449  40.0468  40.4255  40.5797  40.7014  40.7017  41.4021  41.7632
    41.8749  41.8856  44.6090  45.1955  45.9870  46.6141  46.7849  47.4757
    47.6827  48.0700  48.1547  48.2560  49.4066  49.6319  50.7062  50.7699
    50.8558  51.5409  51.9115  52.0925  52.3467  52.8755  52.9247  53.5799
    53.7801  53.9638  54.2326  54.6603  54.8267  54.9703  55.2727  56.4448
    56.5412  57.3678  57.4330  57.4380  57.5366

[...]

          k =-0.5000 0.0000 0.0000 (  3722 PWs)   bands (ev):

[...]

     the Fermi energy is    50.2534 ev

!    total energy              =   -2377.43729491 Ry
     Harris-Foulkes estimate   =   -2377.43732030 Ry
     estimated scf accuracy    <       0.00002675 Ry

     The total energy is the sum of the following terms:

     one-electron contribution =     237.45427673 Ry
     hartree contribution      =     202.15147619 Ry
     xc contribution           =    -248.62694624 Ry
     ewald contribution        =   -2568.02830783 Ry
     smearing contrib. (-TS)   =      -0.38779377 Ry

     convergence has been achieved in  11 iterations

     Forces acting on atoms (Ry/au):

     atom    1 type  1   force =     0.00000000   -0.06669876   -0.06061668
     atom    2 type  1   force =     0.00000000    0.06669876    0.06061668
     atom    3 type  1   force =     0.00000000   -0.06669876    0.06061668
     atom    4 type  1   force =     0.00000000    0.06669876   -0.06061668
     atom    5 type  1   force =     0.00000000    0.15913933   -0.25529260
     atom    6 type  1   force =     0.00000000   -0.15913933    0.25529260
     atom    7 type  1   force =     0.00000000    0.15913933    0.25529260
     atom    8 type  1   force =     0.00000000   -0.15913933   -0.25529260
     atom    9 type  2   force =     0.00000000   -0.18006016    0.00120937
     atom   10 type  2   force =     0.00000000    0.18006016   -0.00120937
     atom   11 type  2   force =     0.00000000   -0.18006016   -0.00120937
     atom   12 type  2   force =     0.00000000    0.18006016    0.00120937

     Total force =     0.724005     Total SCF correction =     0.000000

     entering subroutine stress ...

          total   stress  (Ry/bohr**3)                   (kbar)     P= 7210.66
   0.05205374   0.00000000   0.00000000       7657.37      0.00      0.00
   0.00000000   0.04628650   0.00000000          0.00   6808.98      0.00
   0.00000000   0.00000000   0.04871102          0.00      0.00   7165.64

     BFGS Geometry Optimization

     number of scf cycles    =   1
     number of bfgs steps    =   0

     enthalpy new            =   -2377.4372949145 Ry

     new trust radius        =       0.5000000000 bohr
     new conv_thr            =       0.0001000000 Ry

     new unit-cell volume =   1086.71394 a.u.^3 (   161.03439 Ang^3 )

CELL_PARAMETERS (alat=  7.01510508)
   1.085136619   0.000000000   0.000000000
   0.000000000   1.415587080   0.000000000
   0.000000000   0.000000000   2.049234622

ATOMIC_POSITIONS (crystal)
Co       0.750000000   0.825928323   0.435438161
Co       0.250000000   0.174071677   0.564561839
Co       0.750000000   0.325928323   0.064561839
Co       0.250000000   0.674071677   0.935438161
Co       0.250000000   0.538213779   0.281090624
Co       0.750000000   0.461786221   0.718909376
Co       0.250000000   0.038213779   0.218909376
Co       0.750000000   0.961786221   0.781090624
Si       0.250000000   0.201577960   0.893605942
Si       0.750000000   0.798422040   0.106394058
Si       0.250000000   0.701577960   0.606394058
Si       0.750000000   0.298422040   0.393605942

     Writing output data file Prototype-La-oP12-Co2Si.save
     NEW-OLD atomic charge density approx. for the potential
     NEW k-points:
        k(    1) = (   0.0000000   0.0000000   0.0000000), wk =   0.0833333
        k(    2) = (   0.0000000   0.0000000   0.1219968), wk =   0.1666667
        k(    3) = (   0.0000000   0.0000000  -0.2439935), wk =   0.0833333
        k(    4) = (   0.0000000   0.2354736   0.0000000), wk =   0.1666667
        k(    5) = (   0.0000000   0.2354736   0.1219968), wk =   0.3333333
        k(    6) = (   0.0000000   0.2354736  -0.2439935), wk =   0.1666667
        k(    7) = (  -0.4607715   0.0000000   0.0000000), wk =   0.0833333
        k(    8) = (  -0.4607715   0.0000000   0.1219968), wk =   0.1666667
        k(    9) = (  -0.4607715   0.0000000  -0.2439935), wk =   0.0833333
        k(   10) = (  -0.4607715   0.2354736   0.0000000), wk =   0.1666667
        k(   11) = (  -0.4607715   0.2354736   0.1219968), wk =   0.3333333
        k(   12) = (  -0.4607715   0.2354736  -0.2439935), wk =   0.1666667

[...]

     enthalpy old            =   -2377.4372949145 Ry
     enthalpy new            =   -2384.5356941797 Ry

     CASE: enthalpy_new < enthalpy_old

     small trust_radius: resetting bfgs history

     new trust radius        =       3.1972220403 bohr
     new conv_thr            =       0.0001000000 Ry

[...]

          total   stress  (Ry/bohr**3)                   (kbar)     P=-2064.49
  -0.01517161   0.00000000   0.00000000      -2231.82      0.00      0.00
   0.00000000  -0.01318850   0.00000000          0.00  -1940.09      0.00
   0.00000000   0.00000000  -0.01374227          0.00      0.00  -2021.56

     number of scf cycles    =   3
     number of bfgs steps    =   2

     enthalpy old            =   -2384.5356941797 Ry
     enthalpy new            =   -2368.1761716752 Ry

     CASE: enthalpy_new > enthalpy_old

     new trust radius        =       1.1685879027 bohr

     trust_radius < trust_radius_min

     resetting bfgs history

     Message from routine bfgs:
     history already reset at previous step: stopping
     new conv_thr            =       0.0001000000 Ry

     new unit-cell volume =   1284.66670 a.u.^3 (   190.36796 Ang^3 )

[...]

ATOMIC_POSITIONS (crystal)
Co       0.750000000   0.825400149   0.435336427
Co       0.250000000   0.174599851   0.564663573
Co       0.750000000   0.325400149   0.064663573
Co       0.250000000   0.674599851   0.935336427
Co       0.250000000   0.539032954   0.280121040
Co       0.750000000   0.460967046   0.719878960
Co       0.250000000   0.039032954   0.219878960
Co       0.750000000   0.960967046   0.780121040
Si       0.250000000   0.200664430   0.893751612
Si       0.750000000   0.799335570   0.106248388
Si       0.250000000   0.700664430   0.606248388
Si       0.750000000   0.299335570   0.393751612

     Writing output data file Prototype-La-oP12-Co2Si.save
     NEW-OLD atomic charge density approx. for the potential
     NEW k-points:
        k(    1) = (   0.0000000   0.0000000   0.0000000), wk =   0.0833333
        k(    2) = (   0.0000000   0.0000000   0.1155557), wk =   0.1666667
        k(    3) = (   0.0000000   0.0000000  -0.2311115), wk =   0.0833333
        k(    4) = (   0.0000000   0.2238424   0.0000000), wk =   0.1666667
        k(    5) = (   0.0000000   0.2238424   0.1155557), wk =   0.3333333
        k(    6) = (   0.0000000   0.2238424  -0.2311115), wk =   0.1666667
        k(    7) = (  -0.4328795   0.0000000   0.0000000), wk =   0.0833333
        k(    8) = (  -0.4328795   0.0000000   0.1155557), wk =   0.1666667
        k(    9) = (  -0.4328795   0.0000000  -0.2311115), wk =   0.0833333
        k(   10) = (  -0.4328795   0.2238424   0.0000000), wk =   0.1666667
        k(   11) = (  -0.4328795   0.2238424   0.1155557), wk =   0.3333333
        k(   12) = (  -0.4328795   0.2238424  -0.2311115), wk =   0.1666667

[...]

     The maximum number of steps has been reached.

     End of BFGS Geometry Optimization
Begin final coordinates
     new unit-cell volume =   1284.66670 a.u.^3 (   190.36796 Ang^3 )

CELL_PARAMETERS (alat=  7.01510508)
   1.155055925   0.000000000   0.000000000
   0.000000000   1.489143133   0.000000000
   0.000000000   0.000000000   2.163458009

ATOMIC_POSITIONS (crystal)
Co       0.750000000   0.825400149   0.435336427
Co       0.250000000   0.174599851   0.564663573
Co       0.750000000   0.325400149   0.064663573
Co       0.250000000   0.674599851   0.935336427
Co       0.250000000   0.539032954   0.280121040
Co       0.750000000   0.460967046   0.719878960
Co       0.250000000   0.039032954   0.219878960
Co       0.750000000   0.960967046   0.780121040
Si       0.250000000   0.200664430   0.893751612
Si       0.750000000   0.799335570   0.106248388
Si       0.250000000   0.700664430   0.606248388
Si       0.750000000   0.299335570   0.393751612
End final coordinates

     A final scf calculation at the relaxed structure.
     The G-vectors are recalculated for the final unit cell
     Results may differ from those at the preceding step.

     bravais-lattice index     =            0
     lattice parameter (alat)  =       7.0151  a.u.
     unit-cell volume          =    1284.6667 (a.u.)^3
     number of atoms/cell      =           12
     number of atomic types    =            2
     number of electrons       =       208.00
     number of Kohn-Sham states=          125
     kinetic-energy cutoff     =      40.0000  Ry
     charge density cutoff     =     160.0000  Ry
     convergence threshold     =      1.0E-04
     mixing beta               =       0.7000
     number of iterations used =            8  plain     mixing
     Exchange-correlation      = SLA-PZ-NOGX-NOGC ( 1 1 0 0 0)
     EXX-fraction              =        0.00

     celldm(1)=   7.015105  celldm(2)=   0.000000  celldm(3)=   0.000000
     celldm(4)=   0.000000  celldm(5)=   0.000000  celldm(6)=   0.000000

     crystal axes: (cart. coord. in units of alat)
               a(1) = (   1.155056   0.000000   0.000000 )
               a(2) = (   0.000000   1.489143   0.000000 )
               a(3) = (   0.000000   0.000000   2.163458 )

     reciprocal axes: (cart. coord. in units 2 pi/alat)
               b(1) = (  0.865759  0.000000  0.000000 )
               b(2) = (  0.000000  0.671527  0.000000 )
               b(3) = (  0.000000  0.000000  0.462223 )

     PseudoPot. # 1 for Dy read from file:
     /home/cwx6513/pp.La/Dy.UPF
     MD5 check sum: 9597327bec62616a94a14d07f3fd9936
     Pseudo is Norm-conserving, Zval = 20.0
     Generated in analytical, separable form
     Using radial grid of 1265 points,  6 beta functions with:
                l(1) =   0
                l(2) =   0
                l(3) =   1
                l(4) =   1
                l(5) =   2
                l(6) =   3

     PseudoPot. # 2 for Ce read from file:
     /home/cwx6513/pp.La/Ce.UPF
     MD5 check sum: 44451aa79a44a00cf2bc029dc19922f6
     Pseudo is Norm-conserving, Zval = 12.0
     Generated in analytical, separable form
     Using radial grid of 1255 points,  6 beta functions with:
                l(1) =   0
                l(2) =   0
                l(3) =   1
                l(4) =   1
                l(5) =   2
                l(6) =   3

     atomic species   valence    mass     pseudopotential
        Co            20.00    58.93320     Dy( 1.00)
        Si            12.00    28.08550     Ce( 1.00)

      8 Sym. Ops., with inversion, found ( 6 have fractional translation)

   Cartesian axes

     site n.     atom                  positions (alat units)
         1           Co  tau(   1) = (   0.8662919   1.2291390   0.9418321  )
         2           Co  tau(   2) = (   0.2887640   0.2600042   1.2216259  )
         3           Co  tau(   3) = (   0.8662919   0.4845674   0.1398969  )
         4           Co  tau(   4) = (   0.2887640   1.0045757   2.0235611  )
         5           Co  tau(   5) = (   0.2887640   0.8026972   0.6060301  )
         6           Co  tau(   6) = (   0.8662919   0.6864459   1.5574279  )
         7           Co  tau(   7) = (   0.2887640   0.0581257   0.4756989  )
         8           Co  tau(   8) = (   0.8662919   1.4310175   1.6877591  )
         9           Si  tau(   9) = (   0.2887640   0.2988181   1.9335941  )
        10           Si  tau(  10) = (   0.8662919   1.1903251   0.2298639  )
        11           Si  tau(  11) = (   0.2887640   1.0433896   1.3115929  )
        12           Si  tau(  12) = (   0.8662919   0.4457535   0.8518651  )

     number of k points=    12  gaussian smearing, width (Ry)=  0.1000
                       cart. coord. in units 2pi/alat
        k(    1) = (   0.0000000   0.0000000   0.0000000), wk =   0.0833333
        k(    2) = (   0.0000000   0.0000000   0.1155557), wk =   0.1666667
        k(    3) = (   0.0000000   0.0000000  -0.2311115), wk =   0.0833333
        k(    4) = (   0.0000000   0.2238424   0.0000000), wk =   0.1666667
        k(    5) = (   0.0000000   0.2238424   0.1155557), wk =   0.3333333
        k(    6) = (   0.0000000   0.2238424  -0.2311115), wk =   0.1666667
        k(    7) = (  -0.4328795   0.0000000   0.0000000), wk =   0.0833333
        k(    8) = (  -0.4328795   0.0000000   0.1155557), wk =   0.1666667
        k(    9) = (  -0.4328795   0.0000000  -0.2311115), wk =   0.0833333
        k(   10) = (  -0.4328795   0.2238424   0.0000000), wk =   0.1666667
        k(   11) = (  -0.4328795   0.2238424   0.1155557), wk =   0.3333333
        k(   12) = (  -0.4328795   0.2238424  -0.2311115), wk =   0.1666667

     Largest allocated arrays     est. size (Mb)     dimensions
     Largest temporary arrays     est. size (Mb)     dimensions

     Initial potential from superposition of free atoms

     Starting from uniform charge
     Starting wfc are    0 randomized atomic wfcs

     Writing output data file Prototype-La-oP12-Co2Si.save

     Self-consistent Calculation

[...]

     iteration #  6     ecut=    40.00 Ry     beta=0.70
     CG style diagonalization
     ethr =  1.94E-03,  avg # of iterations =  4.0

[...]

     total energy              =   -2389.89201829 Ry
     Harris-Foulkes estimate   =   -2389.89244885 Ry
     estimated scf accuracy    <       0.00083876 Ry

     iteration # 10     ecut=    40.00 Ry     beta=0.70
     CG style diagonalization
     c_bands:  1 eigenvalues not converged
     ethr =  4.03E-07,  avg # of iterations =  3.6

     End of self-consistent calculation

[...]

          k = 0.0000 0.2238-0.2311 (  5482 PWs)   bands (ev):

[...]

          k =-0.4329 0.2238-0.2311 (  5516 PWs)   bands (ev):

   -51.6820 -51.6820 -51.6811 -51.6811 -51.5735 -51.5735 -51.5544 -51.5544
   -18.9192 -18.9192 -18.8516 -18.8516 -18.8379 -18.8379 -18.8098 -18.8098
   -18.7446 -18.7446 -18.6822 -18.6822 -18.6175 -18.6175 -18.5448 -18.5448
   -18.5411 -18.5411 -18.5163 -18.5163 -18.4740 -18.4740 -18.4331 -18.4331
    -5.5091  -5.5091  -5.5002  -5.5002  11.0202  11.0202  11.2186  11.2186
    11.4786  11.4786  11.5005  11.5005  11.8716  11.8716  11.9222  11.9222
    20.0029  20.0029  20.3742  20.3742  20.6131  20.6131  20.8140  20.8140
    21.0036  21.0036  21.1800  21.1800  21.2481  21.2481  21.6980  21.6980
    21.7272  21.7272  21.9987  21.9987  22.1050  22.1050  22.4202  22.4202
    22.4780  22.4780  22.7371  22.7371  22.7662  22.7662  23.1462  23.1462
    23.2838  23.2838  23.9875  23.9875  24.0887  24.0887  24.3538  24.3538
    26.2858  26.2858  26.6624  26.6624  28.6675  28.6675  29.5725  29.5725
    30.8920  30.8920  30.9709  30.9709  31.4897  31.4897  32.3151  32.3151
    32.9552  32.9552  33.3831  33.3831  33.7918  33.7918  34.0578  34.0578
    35.1781  35.1781  36.4248  36.4249  37.2635  37.2635  37.8061  37.8062
    38.4757  38.4757  40.1496  40.1499  40.3712

     the Fermi energy is    32.6806 ev

!    total energy              =   -2389.89210610 Ry
     Harris-Foulkes estimate   =   -2389.89217950 Ry
     estimated scf accuracy    <       0.00008652 Ry

     The total energy is the sum of the following terms:

     one-electron contribution =    -208.35084825 Ry
     hartree contribution      =     305.25965778 Ry
     xc contribution           =    -237.84836933 Ry
     ewald contribution        =   -2248.50977305 Ry
     smearing contrib. (-TS)   =      -0.44277324 Ry

     convergence has been achieved in  10 iterations

     Forces acting on atoms (Ry/au):

     atom    1 type  1   force =     0.00000000   -0.05895084    0.00066130
     atom    2 type  1   force =     0.00000000    0.05895084   -0.00066130
     atom    3 type  1   force =     0.00000000   -0.05895084   -0.00066130
     atom    4 type  1   force =     0.00000000    0.05895084    0.00066130
     atom    5 type  1   force =     0.00000000    0.05779905   -0.09076926
     atom    6 type  1   force =     0.00000000   -0.05779905    0.09076926
     atom    7 type  1   force =     0.00000000    0.05779905    0.09076926
     atom    8 type  1   force =     0.00000000   -0.05779905   -0.09076926
     atom    9 type  2   force =     0.00000000   -0.05902166    0.02948744
     atom   10 type  2   force =     0.00000000    0.05902166   -0.02948744
     atom   11 type  2   force =     0.00000000   -0.05902166   -0.02948744
     atom   12 type  2   force =     0.00000000    0.05902166    0.02948744

     Total force =     0.278629     Total SCF correction =     0.000000

     entering subroutine stress ...

          total   stress  (Ry/bohr**3)                   (kbar)     P= 1433.92
   0.01056689   0.00000000   0.00000000       1554.44      0.00      0.00
   0.00000000   0.00925790   0.00000000          0.00   1361.88      0.00
   0.00000000   0.00000000   0.00941789          0.00      0.00   1385.42

     Writing output data file Prototype-La-oP12-Co2Si.save

     General routines

     Parallel routines

   This run was terminated on:   2:39: 7  23Mar2018

   JOB DONE.