     Program PWSCF v.5.0.2 starts on 22Mar2018 at  0:35:13

     Current dimensions of program PWSCF are:
     Max number of different atomic species (ntypx) = 10
     Max number of k-points (npk) =  40000
     Max angular momentum in pseudopotentials (lmaxx) =  3
     Waiting for input...
     Reading input from standard input

     Subspace diagonalization in iterative solution of the eigenvalue problem:
     a serial algorithm will be used

     bravais-lattice index     =            0
     lattice parameter (alat)  =       8.8008  a.u.
     unit-cell volume          =    1116.9454 (a.u.)^3
     number of atoms/cell      =           16
     number of atomic types    =            2
     number of electrons       =       232.00
     number of Kohn-Sham states=          139
     kinetic-energy cutoff     =      40.0000  Ry
     charge density cutoff     =     160.0000  Ry
     convergence threshold     =      1.0E-04
     mixing beta               =       0.7000
     number of iterations used =            8  plain     mixing
     Exchange-correlation      = SLA-PZ-NOGX-NOGC ( 1 1 0 0 0)
     EXX-fraction              =        0.00
     nstep                     =           50

     celldm(1)=   8.800765  celldm(2)=   0.000000  celldm(3)=   0.000000
     celldm(4)=   0.000000  celldm(5)=   0.000000  celldm(6)=   0.000000

     crystal axes: (cart. coord. in units of alat)
               a(1) = (   1.000000   0.000000   0.000000 )
               a(2) = (   0.000000   1.083771   0.000000 )
               a(3) = (   0.000000   0.000000   1.511935 )

     reciprocal axes: (cart. coord. in units 2 pi/alat)
               b(1) = (  1.000000  0.000000  0.000000 )
               b(2) = (  0.000000  0.922704  0.000000 )
               b(3) = (  0.000000  0.000000  0.661404 )

     PseudoPot. # 1 for Ce read from file:
     /home/jld5415/pp.La/Ce.UPF
     MD5 check sum: 44451aa79a44a00cf2bc029dc19922f6
     Pseudo is Norm-conserving, Zval = 12.0
     Generated in analytical, separable form
     Using radial grid of 1255 points,  6 beta functions with:
                l(1) =   0
                l(2) =   0
                l(3) =   1
                l(4) =   1
                l(5) =   2
                l(6) =   3

     PseudoPot. # 2 for Er read from file:
     /home/jld5415/pp.La/Er.UPF
     MD5 check sum: e152ae21b84514339d8526f066caf99b
     Pseudo is Norm-conserving, Zval = 22.0
     Generated in analytical, separable form
     Using radial grid of 1267 points,  6 beta functions with:
                l(1) =   0
                l(2) =   0
                l(3) =   1
                l(4) =   1
                l(5) =   2
                l(6) =   3

     atomic species   valence    mass     pseudopotential
        Fe            12.00    55.84500     Ce( 1.00)
        C             22.00    12.01070     Er( 1.00)

      8 Sym. Ops., with inversion, found ( 6 have fractional translation)

   Cartesian axes

     site n.     atom                  positions (alat units)
         1           Fe  tau(   1) = (   0.3472940   0.1827628   1.3947267  )
         2           Fe  tau(   2) = (   0.1527060   0.7246484   0.8731757  )
         3           Fe  tau(   3) = (   0.8472940   0.3591227   0.6387592  )
         4           Fe  tau(   4) = (   0.3396640   0.4879235   0.3779837  )
         5           Fe  tau(   5) = (   0.1527060   0.7246484   1.3947267  )
         6           Fe  tau(   6) = (   0.3472940   0.1827628   0.8731757  )
         7           Fe  tau(   7) = (   0.1603360   1.0298091   0.3779837  )
         8           Fe  tau(   8) = (   0.6527060   0.9010083   0.6387592  )
         9           Fe  tau(   9) = (   0.8472940   0.3591227   0.1172082  )
        10           Fe  tau(  10) = (   0.6603360   0.5958476   1.1339512  )
        11           Fe  tau(  11) = (   0.6527060   0.9010083   0.1172082  )
        12           Fe  tau(  12) = (   0.8396640   0.0539620   1.1339512  )
        13           C   tau(  13) = (   0.0000000   0.0000000   0.0000000  )
        14           C   tau(  14) = (   0.5000000   0.5418856   0.0000000  )
        15           C   tau(  15) = (   0.5000000   0.5418856   0.7559674  )
        16           C   tau(  16) = (   0.0000000   0.0000000   0.7559674  )

     number of k points=    12  gaussian smearing, width (Ry)=  0.1000
                       cart. coord. in units 2pi/alat
        k(    1) = (   0.0000000   0.0000000   0.0000000), wk =   0.0833333
        k(    2) = (   0.0000000   0.0000000   0.1653510), wk =   0.1666667
        k(    3) = (   0.0000000   0.0000000  -0.3307021), wk =   0.0833333
        k(    4) = (   0.0000000   0.3075680   0.0000000), wk =   0.1666667
        k(    5) = (   0.0000000   0.3075680   0.1653510), wk =   0.3333333
        k(    6) = (   0.0000000   0.3075680  -0.3307021), wk =   0.1666667
        k(    7) = (  -0.5000000   0.0000000   0.0000000), wk =   0.0833333
        k(    8) = (  -0.5000000   0.0000000   0.1653510), wk =   0.1666667
        k(    9) = (  -0.5000000   0.0000000  -0.3307021), wk =   0.0833333
        k(   10) = (  -0.5000000   0.3075680   0.0000000), wk =   0.1666667
        k(   11) = (  -0.5000000   0.3075680   0.1653510), wk =   0.3333333
        k(   12) = (  -0.5000000   0.3075680  -0.3307021), wk =   0.1666667

     Largest allocated arrays     est. size (Mb)     dimensions
     Largest temporary arrays     est. size (Mb)     dimensions

     Initial potential from superposition of free atoms

     Starting from uniform charge
     Starting wfc are    0 randomized atomic wfcs

     Self-consistent Calculation

     iteration #  1     ecut=    40.00 Ry     beta=0.70
     CG style diagonalization
     ethr =  1.00E-02,  avg # of iterations = 19.4

     total energy              =    -765.21663322 Ry
     Harris-Foulkes estimate   =   -3210.24851028 Ry
     estimated scf accuracy    <    2872.99251866 Ry

     iteration #  2     ecut=    40.00 Ry     beta=0.70
     CG style diagonalization
     c_bands:  5 eigenvalues not converged
     c_bands:  4 eigenvalues not converged
     c_bands:  3 eigenvalues not converged
     c_bands:  1 eigenvalues not converged
     c_bands:  5 eigenvalues not converged
     c_bands:  2 eigenvalues not converged
     c_bands:  5 eigenvalues not converged
     c_bands:  3 eigenvalues not converged
     c_bands:  1 eigenvalues not converged
     ethr =  1.00E-02,  avg # of iterations = 16.1

[...]

     End of self-consistent calculation

          k = 0.0000 0.0000 0.0000 (  4785 PWs)   bands (ev):

   -59.9454 -59.9441 -59.9064 -59.8774 -23.4780 -23.4681 -23.4504 -23.4460
   -23.2775 -23.2757 -23.2736 -23.2732 -23.1755 -23.1740 -23.0461 -23.0361
     2.8266   3.7027   3.8702   4.3895   4.5463   5.1209   6.3674   6.9636
     7.3413   8.0821   8.2115   8.2980  13.5732  13.7725  13.9840  14.5777
    15.4924  15.6182  16.0739  16.6488  16.7393  18.4771  19.4437  19.5456
    19.5894  19.6276  20.8530  21.1098  21.2036  21.2825  21.2885  21.2975
    21.5526  21.5831  22.1449  22.4625  22.8513  22.9342  23.0668  23.4662
    23.5969  24.0749  24.2436  24.5952  24.6551  24.8824  25.3750  25.9468
    26.1325  26.3193  27.2689  27.4239  27.5299  27.7855  27.8280  27.9269
    28.1066  29.3735  30.1019  30.8382  32.0896  33.0691  33.3966  34.0719
    35.0903  36.1806  37.2837  37.3799  38.8746  39.1245  39.1797  40.1017
    40.1280  40.4471  40.9638  41.1108  41.8045  42.0373  42.0410  42.1040
    42.3224  43.1813  43.4178  43.4494  43.6865  44.0785  44.3033  44.5025
    44.5455  44.9801  45.1543  45.2396  45.4802  45.6405  45.6548  45.7254
    46.4551  46.5594  46.6966  46.9346  47.2371  47.2757  48.1670  48.3813
    48.5277  48.6464  48.6744  49.1045  49.8317  49.8319  50.0558  50.3759
    51.0729  51.2875  51.3170  51.6017  51.9353  52.0290  52.4913  52.6196
    52.8879  52.8979  52.9727

[...]

          k =-0.5000 0.0000 0.0000 (  4798 PWs)   bands (ev):

[...]

     the Fermi energy is    47.4856 ev

!    total energy              =   -2202.48504040 Ry
     Harris-Foulkes estimate   =   -2202.48506719 Ry
     estimated scf accuracy    <       0.00003110 Ry

     The total energy is the sum of the following terms:

     one-electron contribution =     -31.58777725 Ry
     hartree contribution      =     357.59091130 Ry
     xc contribution           =    -264.56224540 Ry
     ewald contribution        =   -2263.38295825 Ry
     smearing contrib. (-TS)   =      -0.54297080 Ry

     convergence has been achieved in  11 iterations

     Forces acting on atoms (Ry/au):

     atom    1 type  1   force =     1.00923859   -1.08255801   -1.36358275
     atom    2 type  1   force =    -1.00923859   -1.08255801    1.36358275
     atom    3 type  1   force =     1.00923859    1.08255801   -1.36358275
     atom    4 type  1   force =    -1.69700397   -0.62530056    0.00000000
     atom    5 type  1   force =    -1.00923859   -1.08255801   -1.36358275
     atom    6 type  1   force =     1.00923859   -1.08255801    1.36358275
     atom    7 type  1   force =     1.69700397   -0.62530056    0.00000000
     atom    8 type  1   force =    -1.00923859    1.08255801   -1.36358275
     atom    9 type  1   force =     1.00923859    1.08255801    1.36358275
     atom   10 type  1   force =     1.69700397    0.62530056    0.00000000
     atom   11 type  1   force =    -1.00923859    1.08255801    1.36358275
     atom   12 type  1   force =    -1.69700397    0.62530056    0.00000000
     atom   13 type  2   force =     0.00000000    0.00000000    0.00000000
     atom   14 type  2   force =     0.00000000    0.00000000    0.00000000
     atom   15 type  2   force =     0.00000000    0.00000000    0.00000000
     atom   16 type  2   force =     0.00000000    0.00000000    0.00000000

     Total force =     6.744043     Total SCF correction =     0.000000

     entering subroutine stress ...

          total   stress  (Ry/bohr**3)                   (kbar)     P=11160.89
   0.07824109   0.00000000   0.00000000      11509.66      0.00      0.00
   0.00000000   0.07569041   0.00000000          0.00  11134.44      0.00
   0.00000000   0.00000000   0.07367917          0.00      0.00  10838.58

     BFGS Geometry Optimization

     number of scf cycles    =   1
     number of bfgs steps    =   0

     enthalpy new            =   -2202.4850404010 Ry

     new trust radius        =       0.5000000000 bohr
     new conv_thr            =       0.0001000000 Ry

     new unit-cell volume =   1378.05698 a.u.^3 (   204.20697 Ang^3 )

CELL_PARAMETERS (alat=  8.80076499)
   1.074803866   0.000000000   0.000000000
   0.000000000   1.162198501   0.000000000
   0.000000000   0.000000000   1.618439138

ATOMIC_POSITIONS (crystal)
Fe       0.351679535   0.164295474   0.918558983
Fe       0.148320465   0.664295474   0.581441017
Fe       0.851679535   0.335704526   0.418558983
Fe       0.332289856   0.447701852   0.250000000
Fe       0.148320465   0.664295474   0.918558983
Fe       0.351679535   0.164295474   0.581441017
Fe       0.167710144   0.947701852   0.250000000
Fe       0.648320465   0.835704526   0.418558983
Fe       0.851679535   0.335704526   0.081441017
Fe       0.667710144   0.552298148   0.750000000
Fe       0.648320465   0.835704526   0.081441017
Fe       0.832289856   0.052298148   0.750000000
C        0.000000000   0.000000000   0.000000000
C        0.500000000   0.500000000   0.000000000
C        0.500000000   0.500000000   0.500000000
C        0.000000000   0.000000000   0.500000000

     Writing output data file Prototype-La-oP16-Fe3C.save
     NEW-OLD atomic charge density approx. for the potential
     NEW k-points:
        k(    1) = (   0.0000000   0.0000000   0.0000000), wk =   0.0833333
        k(    2) = (   0.0000000   0.0000000   0.1544698), wk =   0.1666667
        k(    3) = (   0.0000000   0.0000000  -0.3089396), wk =   0.0833333
        k(    4) = (   0.0000000   0.2868127   0.0000000), wk =   0.1666667
        k(    5) = (   0.0000000   0.2868127   0.1544698), wk =   0.3333333
        k(    6) = (   0.0000000   0.2868127  -0.3089396), wk =   0.1666667
        k(    7) = (  -0.4652012   0.0000000   0.0000000), wk =   0.0833333
        k(    8) = (  -0.4652012   0.0000000   0.1544698), wk =   0.1666667
        k(    9) = (  -0.4652012   0.0000000  -0.3089396), wk =   0.0833333
        k(   10) = (  -0.4652012   0.2868127   0.0000000), wk =   0.1666667
        k(   11) = (  -0.4652012   0.2868127   0.1544698), wk =   0.3333333
        k(   12) = (  -0.4652012   0.2868127  -0.3089396), wk =   0.1666667

[...]

          total   stress  (Ry/bohr**3)                   (kbar)     P= 5570.57
   0.03922145   0.00000000   0.00000000       5769.67      0.00      0.00
   0.00000000   0.03726418   0.00000000          0.00   5481.75      0.00
   0.00000000   0.00000000   0.03711832          0.00      0.00   5460.29

[...]

     enthalpy old            =   -2202.4850404010 Ry
     enthalpy new            =   -2218.1831794462 Ry

     CASE: enthalpy_new < enthalpy_old

     small trust_radius: resetting bfgs history

     new trust radius        =       7.2799300052 bohr
     new conv_thr            =       0.0001000000 Ry

[...]

          total   stress  (Ry/bohr**3)                   (kbar)     P=-1762.10
  -0.01233196   0.00000000   0.00000000      -1814.09      0.00      0.00
   0.00000000  -0.01174026   0.00000000          0.00  -1727.05      0.00
   0.00000000   0.00000000  -0.01186342          0.00      0.00  -1745.17

     number of scf cycles    =   3
     number of bfgs steps    =   2

     enthalpy old            =   -2218.1831794462 Ry
     enthalpy new            =   -2137.7371640975 Ry

     CASE: enthalpy_new > enthalpy_old

     new trust radius        =       3.3668058791 bohr

     trust_radius < trust_radius_min

     resetting bfgs history

     Message from routine bfgs:
     history already reset at previous step: stopping
     new conv_thr            =       0.0001000000 Ry

     new unit-cell volume =   1576.40624 a.u.^3 (   233.59930 Ang^3 )

[...]

ATOMIC_POSITIONS (crystal)
Fe       0.353311348   0.162602410   0.917031353
Fe       0.146688652   0.662602410   0.582968647
Fe       0.853311348   0.337397590   0.417031353
Fe       0.329510702   0.446702009   0.250000000
Fe       0.146688652   0.662602410   0.917031353
Fe       0.353311348   0.162602410   0.582968647
Fe       0.170489298   0.946702009   0.250000000
Fe       0.646688652   0.837397590   0.417031353
Fe       0.853311348   0.337397590   0.082968647
Fe       0.670489298   0.553297991   0.750000000
Fe       0.646688652   0.837397590   0.082968647
Fe       0.829510702   0.053297991   0.750000000
C        0.000000000   0.000000000   0.000000000
C        0.500000000   0.500000000   0.000000000
C        0.500000000   0.500000000   0.500000000
C        0.000000000   0.000000000   0.500000000

     Writing output data file Prototype-La-oP16-Fe3C.save
     NEW-OLD atomic charge density approx. for the potential
     NEW k-points:
        k(    1) = (   0.0000000   0.0000000   0.0000000), wk =   0.0833333
        k(    2) = (   0.0000000   0.0000000   0.1479534), wk =   0.1666667
        k(    3) = (   0.0000000   0.0000000  -0.2959068), wk =   0.0833333
        k(    4) = (   0.0000000   0.2746238   0.0000000), wk =   0.1666667
        k(    5) = (   0.0000000   0.2746238   0.1479534), wk =   0.3333333
        k(    6) = (   0.0000000   0.2746238  -0.2959068), wk =   0.1666667
        k(    7) = (  -0.4434236   0.0000000   0.0000000), wk =   0.0833333
        k(    8) = (  -0.4434236   0.0000000   0.1479534), wk =   0.1666667
        k(    9) = (  -0.4434236   0.0000000  -0.2959068), wk =   0.0833333
        k(   10) = (  -0.4434236   0.2746238   0.0000000), wk =   0.1666667
        k(   11) = (  -0.4434236   0.2746238   0.1479534), wk =   0.3333333
        k(   12) = (  -0.4434236   0.2746238  -0.2959068), wk =   0.1666667

[...]

     The maximum number of steps has been reached.

     End of BFGS Geometry Optimization
Begin final coordinates
     new unit-cell volume =   1576.40624 a.u.^3 (   233.59930 Ang^3 )

CELL_PARAMETERS (alat=  8.80076499)
   1.127589911   0.000000000   0.000000000
   0.000000000   1.213781803   0.000000000
   0.000000000   0.000000000   1.689721265

ATOMIC_POSITIONS (crystal)
Fe       0.353311348   0.162602410   0.917031353
Fe       0.146688652   0.662602410   0.582968647
Fe       0.853311348   0.337397590   0.417031353
Fe       0.329510702   0.446702009   0.250000000
Fe       0.146688652   0.662602410   0.917031353
Fe       0.353311348   0.162602410   0.582968647
Fe       0.170489298   0.946702009   0.250000000
Fe       0.646688652   0.837397590   0.417031353
Fe       0.853311348   0.337397590   0.082968647
Fe       0.670489298   0.553297991   0.750000000
Fe       0.646688652   0.837397590   0.082968647
Fe       0.829510702   0.053297991   0.750000000
C        0.000000000   0.000000000   0.000000000
C        0.500000000   0.500000000   0.000000000
C        0.500000000   0.500000000   0.500000000
C        0.000000000   0.000000000   0.500000000
End final coordinates

     A final scf calculation at the relaxed structure.
     The G-vectors are recalculated for the final unit cell
     Results may differ from those at the preceding step.

     bravais-lattice index     =            0
     lattice parameter (alat)  =       8.8008  a.u.
     unit-cell volume          =    1576.4062 (a.u.)^3
     number of atoms/cell      =           16
     number of atomic types    =            2
     number of electrons       =       232.00
     number of Kohn-Sham states=          139
     kinetic-energy cutoff     =      40.0000  Ry
     charge density cutoff     =     160.0000  Ry
     convergence threshold     =      1.0E-04
     mixing beta               =       0.7000
     number of iterations used =            8  plain     mixing
     Exchange-correlation      = SLA-PZ-NOGX-NOGC ( 1 1 0 0 0)
     EXX-fraction              =        0.00

     celldm(1)=   8.800765  celldm(2)=   0.000000  celldm(3)=   0.000000
     celldm(4)=   0.000000  celldm(5)=   0.000000  celldm(6)=   0.000000

     crystal axes: (cart. coord. in units of alat)
               a(1) = (   1.127590   0.000000   0.000000 )
               a(2) = (   0.000000   1.213782   0.000000 )
               a(3) = (   0.000000   0.000000   1.689721 )

     reciprocal axes: (cart. coord. in units 2 pi/alat)
               b(1) = (  0.886847  0.000000  0.000000 )
               b(2) = (  0.000000  0.823871  0.000000 )
               b(3) = (  0.000000  0.000000  0.591814 )

     PseudoPot. # 1 for Ce read from file:
     /home/jld5415/pp.La/Ce.UPF
     MD5 check sum: 44451aa79a44a00cf2bc029dc19922f6
     Pseudo is Norm-conserving, Zval = 12.0
     Generated in analytical, separable form
     Using radial grid of 1255 points,  6 beta functions with:
                l(1) =   0
                l(2) =   0
                l(3) =   1
                l(4) =   1
                l(5) =   2
                l(6) =   3

     PseudoPot. # 2 for Er read from file:
     /home/jld5415/pp.La/Er.UPF
     MD5 check sum: e152ae21b84514339d8526f066caf99b
     Pseudo is Norm-conserving, Zval = 22.0
     Generated in analytical, separable form
     Using radial grid of 1267 points,  6 beta functions with:
                l(1) =   0
                l(2) =   0
                l(3) =   1
                l(4) =   1
                l(5) =   2
                l(6) =   3

     atomic species   valence    mass     pseudopotential
        Fe            12.00    55.84500     Ce( 1.00)
        C             22.00    12.01070     Er( 1.00)

      8 Sym. Ops., with inversion, found ( 6 have fractional translation)

   Cartesian axes

     site n.     atom                  positions (alat units)
         1           Fe  tau(   1) = (   0.3983903   0.1973638   1.5495274  )
         2           Fe  tau(   2) = (   0.1654046   0.8042547   0.9850545  )
         3           Fe  tau(   3) = (   0.9621853   0.4095271   0.7046667  )
         4           Fe  tau(   4) = (   0.3715529   0.5421988   0.4224303  )
         5           Fe  tau(   5) = (   0.1654046   0.8042547   1.5495274  )
         6           Fe  tau(   6) = (   0.3983903   0.1973638   0.9850545  )
         7           Fe  tau(   7) = (   0.1922420   1.1490897   0.4224303  )
         8           Fe  tau(   8) = (   0.7291996   1.0164180   0.7046667  )
         9           Fe  tau(   9) = (   0.9621853   0.4095271   0.1401939  )
        10           Fe  tau(  10) = (   0.7560370   0.6715830   1.2672909  )
        11           Fe  tau(  11) = (   0.7291996   1.0164180   0.1401939  )
        12           Fe  tau(  12) = (   0.9353479   0.0646921   1.2672909  )
        13           C   tau(  13) = (   0.0000000   0.0000000   0.0000000  )
        14           C   tau(  14) = (   0.5637950   0.6068909   0.0000000  )
        15           C   tau(  15) = (   0.5637950   0.6068909   0.8448606  )
        16           C   tau(  16) = (   0.0000000   0.0000000   0.8448606  )

     number of k points=    12  gaussian smearing, width (Ry)=  0.1000
                       cart. coord. in units 2pi/alat
        k(    1) = (   0.0000000   0.0000000   0.0000000), wk =   0.0833333
        k(    2) = (   0.0000000   0.0000000   0.1479534), wk =   0.1666667
        k(    3) = (   0.0000000   0.0000000  -0.2959068), wk =   0.0833333
        k(    4) = (   0.0000000   0.2746238   0.0000000), wk =   0.1666667
        k(    5) = (   0.0000000   0.2746238   0.1479534), wk =   0.3333333
        k(    6) = (   0.0000000   0.2746238  -0.2959068), wk =   0.1666667
        k(    7) = (  -0.4434236   0.0000000   0.0000000), wk =   0.0833333
        k(    8) = (  -0.4434236   0.0000000   0.1479534), wk =   0.1666667
        k(    9) = (  -0.4434236   0.0000000  -0.2959068), wk =   0.0833333
        k(   10) = (  -0.4434236   0.2746238   0.0000000), wk =   0.1666667
        k(   11) = (  -0.4434236   0.2746238   0.1479534), wk =   0.3333333
        k(   12) = (  -0.4434236   0.2746238  -0.2959068), wk =   0.1666667

     Largest allocated arrays     est. size (Mb)     dimensions
     Largest temporary arrays     est. size (Mb)     dimensions

     Initial potential from superposition of free atoms

     Starting from uniform charge
     Starting wfc are    0 randomized atomic wfcs

     Writing output data file Prototype-La-oP16-Fe3C.save

     Self-consistent Calculation

[...]

     iteration # 10     ecut=    40.00 Ry     beta=0.70
     CG style diagonalization
     c_bands:  1 eigenvalues not converged
     c_bands:  1 eigenvalues not converged
     ethr =  2.54E-06,  avg # of iterations =  3.5

     total energy              =   -2227.01456827 Ry
     Harris-Foulkes estimate   =   -2227.01595937 Ry
     estimated scf accuracy    <       0.00227022 Ry

     iteration # 11     ecut=    40.00 Ry     beta=0.70
     CG style diagonalization
     ethr =  9.79E-07,  avg # of iterations =  4.0

     End of self-consistent calculation

[...]

          k = 0.0000 0.2746-0.2959 (  6716 PWs)   bands (ev):

[...]

          k =-0.4434 0.2746-0.2959 (  6744 PWs)   bands (ev):

   -70.8639 -70.8639 -70.8633 -70.8633 -33.4304 -33.4304 -33.4300 -33.4300
   -33.3656 -33.3656 -33.3655 -33.3655 -33.3087 -33.3087 -33.3084 -33.3084
    -6.0143  -6.0143  -5.9710  -5.9710  -5.4980  -5.4980  -5.3521  -5.3521
    -5.2305  -5.2305  -5.1169  -5.1169   6.5069   6.5069   6.5272   6.5272
     8.1501   8.1501   8.2179   8.2179   8.6003   8.6003   8.9439   8.9439
    10.0667  10.0667  10.2011  10.2011  10.5207  10.5207  10.8521  10.8522
    11.3187  11.3187  11.3270  11.3270  11.9122  11.9122  11.9500  11.9500
    12.4807  12.4807  12.7176  12.7176  13.5459  13.5459  13.5535  13.5535
    14.0195  14.0195  14.1935  14.1935  14.4851  14.4851  15.2568  15.2568
    16.3038  16.3038  16.3958  16.3958  17.9699  17.9699  17.9910  17.9910
    19.4253  19.4253  19.4389  19.4389  26.9829  26.9829  27.4470  27.4470
    28.8170  28.8170  29.2308  29.2308  29.2356  29.2356  29.7397  29.7397
    29.9664  29.9664  30.1703  30.1703  30.5963  30.5963  30.6691  30.6691
    31.1064  31.1064  31.3460  31.3460  32.2042  32.2042  32.5078  32.5078
    33.0391  33.0391  33.5062  33.5062  33.5295  33.5295  34.6032  34.6031
    34.8787  34.8787  35.2223  35.2223  35.4623  35.4623  35.7678  35.7678
    36.1886  36.1887  36.6566  36.6567  37.3144  37.3146  37.3845  37.3847
    37.9274  37.9276  38.1841

     the Fermi energy is    33.5417 ev

!    total energy              =   -2227.01528726 Ry
     Harris-Foulkes estimate   =   -2227.01531876 Ry
     estimated scf accuracy    <       0.00003431 Ry

     The total energy is the sum of the following terms:

     one-electron contribution =    -340.66573153 Ry
     hartree contribution      =     402.56788209 Ry
     xc contribution           =    -249.70010416 Ry
     ewald contribution        =   -2038.51441653 Ry
     smearing contrib. (-TS)   =      -0.70291712 Ry

     convergence has been achieved in  11 iterations

     Forces acting on atoms (Ry/au):

     atom    1 type  1   force =     0.46494138   -0.51732853   -0.62430623
     atom    2 type  1   force =    -0.46494138   -0.51732853    0.62430623
     atom    3 type  1   force =     0.46494138    0.51732853   -0.62430623
     atom    4 type  1   force =    -0.81751448   -0.30072702    0.00000000
     atom    5 type  1   force =    -0.46494138   -0.51732853   -0.62430623
     atom    6 type  1   force =     0.46494138   -0.51732853    0.62430623
     atom    7 type  1   force =     0.81751448   -0.30072702    0.00000000
     atom    8 type  1   force =    -0.46494138    0.51732853   -0.62430623
     atom    9 type  1   force =     0.46494138    0.51732853    0.62430623
     atom   10 type  1   force =     0.81751448    0.30072702    0.00000000
     atom   11 type  1   force =    -0.46494138    0.51732853    0.62430623
     atom   12 type  1   force =    -0.81751448    0.30072702    0.00000000
     atom   13 type  2   force =     0.00000000    0.00000000    0.00000000
     atom   14 type  2   force =     0.00000000    0.00000000    0.00000000
     atom   15 type  2   force =     0.00000000    0.00000000    0.00000000
     atom   16 type  2   force =     0.00000000    0.00000000    0.00000000

     Total force =     3.165995     Total SCF correction =     0.000000

     entering subroutine stress ...

          total   stress  (Ry/bohr**3)                   (kbar)     P= 3689.61
   0.02599384   0.00000000   0.00000000       3823.83      0.00      0.00
   0.00000000   0.02453133   0.00000000          0.00   3608.68      0.00
   0.00000000   0.00000000   0.02471928          0.00      0.00   3636.33

     Writing output data file Prototype-La-oP16-Fe3C.save

     General routines

     Parallel routines

   This run was terminated on:   1:20: 6  22Mar2018

   JOB DONE.