     Program PWSCF v.5.0.2 starts on 22Mar2018 at  0:32:20

     Current dimensions of program PWSCF are:
     Max number of different atomic species (ntypx) = 10
     Max number of k-points (npk) =  40000
     Max angular momentum in pseudopotentials (lmaxx) =  3
     Waiting for input...
     Reading input from standard input

     Subspace diagonalization in iterative solution of the eigenvalue problem:
     a serial algorithm will be used

     bravais-lattice index     =            0
     lattice parameter (alat)  =       8.5346  a.u.
     unit-cell volume          =     621.6493 (a.u.)^3
     number of atoms/cell      =            8
     number of atomic types    =            2
     number of electrons       =       116.00
     number of Kohn-Sham states=           70
     kinetic-energy cutoff     =      40.0000  Ry
     charge density cutoff     =     160.0000  Ry
     convergence threshold     =      1.0E-04
     mixing beta               =       0.7000
     number of iterations used =            8  plain     mixing
     Exchange-correlation      = SLA-PZ-NOGX-NOGC ( 1 1 0 0 0)
     EXX-fraction              =        0.00
     nstep                     =           50

     celldm(1)=   8.534573  celldm(2)=   0.000000  celldm(3)=   0.000000
     celldm(4)=   0.000000  celldm(5)=   0.000000  celldm(6)=   0.000000

     crystal axes: (cart. coord. in units of alat)
               a(1) = (   1.000000   0.000000   0.000000 )
               a(2) = (   0.000000   1.000000   0.000000 )
               a(3) = (   0.000000   0.000000   1.000000 )

     reciprocal axes: (cart. coord. in units 2 pi/alat)
               b(1) = (  1.000000  0.000000  0.000000 )
               b(2) = (  0.000000  1.000000  0.000000 )
               b(3) = (  0.000000  0.000000  1.000000 )

     PseudoPot. # 1 for Ce read from file:
     /home/jld5415/pp.La/Ce.UPF
     MD5 check sum: 44451aa79a44a00cf2bc029dc19922f6
     Pseudo is Norm-conserving, Zval = 12.0
     Generated in analytical, separable form
     Using radial grid of 1255 points,  6 beta functions with:
                l(1) =   0
                l(2) =   0
                l(3) =   1
                l(4) =   1
                l(5) =   2
                l(6) =   3

     PseudoPot. # 2 for Er read from file:
     /home/jld5415/pp.La/Er.UPF
     MD5 check sum: e152ae21b84514339d8526f066caf99b
     Pseudo is Norm-conserving, Zval = 22.0
     Generated in analytical, separable form
     Using radial grid of 1267 points,  6 beta functions with:
                l(1) =   0
                l(2) =   0
                l(3) =   1
                l(4) =   1
                l(5) =   2
                l(6) =   3

     atomic species   valence    mass     pseudopotential
        Cr            12.00    51.99610     Ce( 1.00)
        Si            22.00    28.08550     Er( 1.00)

     48 Sym. Ops., with inversion, found (24 have fractional translation)

   Cartesian axes

     site n.     atom                  positions (alat units)
         1           Cr  tau(   1) = (   0.0000000   0.5000000   0.2500000  )
         2           Cr  tau(   2) = (   0.0000000   0.5000000   0.7500000  )
         3           Cr  tau(   3) = (   0.5000000   0.7500000   0.0000000  )
         4           Cr  tau(   4) = (   0.5000000   0.2500000   0.0000000  )
         5           Cr  tau(   5) = (   0.7500000   0.0000000   0.5000000  )
         6           Cr  tau(   6) = (   0.2500000   0.0000000   0.5000000  )
         7           Si  tau(   7) = (   0.5000000   0.5000000   0.5000000  )
         8           Si  tau(   8) = (   0.0000000   0.0000000   0.0000000  )

     number of k points=    48  gaussian smearing, width (Ry)=  0.1000
                       cart. coord. in units 2pi/alat
        k(    1) = (   0.0000000   0.0000000   0.0000000), wk =   0.0095238
        k(    2) = (   0.0000000   0.0000000   0.1428571), wk =   0.0190476
        k(    3) = (   0.0000000   0.0000000   0.2857143), wk =   0.0190476
        k(    4) = (   0.0000000   0.0000000   0.4285714), wk =   0.0190476
        k(    5) = (   0.0000000   0.1666667   0.0000000), wk =   0.0190476
        k(    6) = (   0.0000000   0.1666667   0.1428571), wk =   0.0380952
        k(    7) = (   0.0000000   0.1666667   0.2857143), wk =   0.0380952
        k(    8) = (   0.0000000   0.1666667   0.4285714), wk =   0.0380952
        k(    9) = (   0.0000000   0.3333333   0.0000000), wk =   0.0190476
        k(   10) = (   0.0000000   0.3333333   0.1428571), wk =   0.0380952
        k(   11) = (   0.0000000   0.3333333   0.2857143), wk =   0.0380952
        k(   12) = (   0.0000000   0.3333333   0.4285714), wk =   0.0380952
        k(   13) = (   0.0000000  -0.5000000   0.0000000), wk =   0.0095238
        k(   14) = (   0.0000000  -0.5000000   0.1428571), wk =   0.0190476
        k(   15) = (   0.0000000  -0.5000000   0.2857143), wk =   0.0190476
        k(   16) = (   0.0000000  -0.5000000   0.4285714), wk =   0.0190476
        k(   17) = (   0.2000000   0.0000000   0.0000000), wk =   0.0190476
        k(   18) = (   0.2000000   0.0000000   0.1428571), wk =   0.0380952
        k(   19) = (   0.2000000   0.0000000   0.2857143), wk =   0.0380952
        k(   20) = (   0.2000000   0.0000000   0.4285714), wk =   0.0380952
        k(   21) = (   0.2000000   0.1666667   0.0000000), wk =   0.0380952
        k(   22) = (   0.2000000   0.1666667   0.1428571), wk =   0.0761905
        k(   23) = (   0.2000000   0.1666667   0.2857143), wk =   0.0761905
        k(   24) = (   0.2000000   0.1666667   0.4285714), wk =   0.0761905
        k(   25) = (   0.2000000   0.3333333   0.0000000), wk =   0.0380952
        k(   26) = (   0.2000000   0.3333333   0.1428571), wk =   0.0761905
        k(   27) = (   0.2000000   0.3333333   0.2857143), wk =   0.0761905
        k(   28) = (   0.2000000   0.3333333   0.4285714), wk =   0.0761905
        k(   29) = (   0.2000000  -0.5000000   0.0000000), wk =   0.0190476
        k(   30) = (   0.2000000  -0.5000000   0.1428571), wk =   0.0380952
        k(   31) = (   0.2000000  -0.5000000   0.2857143), wk =   0.0380952
        k(   32) = (   0.2000000  -0.5000000   0.4285714), wk =   0.0380952
        k(   33) = (   0.4000000   0.0000000   0.0000000), wk =   0.0190476
        k(   34) = (   0.4000000   0.0000000   0.1428571), wk =   0.0380952
        k(   35) = (   0.4000000   0.0000000   0.2857143), wk =   0.0380952
        k(   36) = (   0.4000000   0.0000000   0.4285714), wk =   0.0380952
        k(   37) = (   0.4000000   0.1666667   0.0000000), wk =   0.0380952
        k(   38) = (   0.4000000   0.1666667   0.1428571), wk =   0.0761905
        k(   39) = (   0.4000000   0.1666667   0.2857143), wk =   0.0761905
        k(   40) = (   0.4000000   0.1666667   0.4285714), wk =   0.0761905
        k(   41) = (   0.4000000   0.3333333   0.0000000), wk =   0.0380952
        k(   42) = (   0.4000000   0.3333333   0.1428571), wk =   0.0761905
        k(   43) = (   0.4000000   0.3333333   0.2857143), wk =   0.0761905
        k(   44) = (   0.4000000   0.3333333   0.4285714), wk =   0.0761905
        k(   45) = (   0.4000000  -0.5000000   0.0000000), wk =   0.0190476
        k(   46) = (   0.4000000  -0.5000000   0.1428571), wk =   0.0380952
        k(   47) = (   0.4000000  -0.5000000   0.2857143), wk =   0.0380952
        k(   48) = (   0.4000000  -0.5000000   0.4285714), wk =   0.0380952

     Largest allocated arrays     est. size (Mb)     dimensions
     Largest temporary arrays     est. size (Mb)     dimensions

     Initial potential from superposition of free atoms

     Starting from uniform charge
     Starting wfc are    0 randomized atomic wfcs

     Self-consistent Calculation

     iteration #  1     ecut=    40.00 Ry     beta=0.70
     CG style diagonalization
     c_bands:  1 eigenvalues not converged
     c_bands:  1 eigenvalues not converged
     c_bands:  2 eigenvalues not converged
     c_bands:  1 eigenvalues not converged
     c_bands:  1 eigenvalues not converged
     ethr =  1.00E-02,  avg # of iterations = 12.8

     total energy              =    -531.96999499 Ry
     Harris-Foulkes estimate   =   -1441.78859636 Ry
     estimated scf accuracy    <    1077.90753301 Ry

[...]

     iteration #  4     ecut=    40.00 Ry     beta=0.70
     CG style diagonalization
     ethr =  1.00E-02,  avg # of iterations =  3.7

[...]

     End of self-consistent calculation

          k = 0.0000 0.0000 0.0000 (  2601 PWs)   bands (ev):

   -60.1836 -60.1326 -22.4539 -22.4539 -22.4539 -22.4189 -22.4189 -22.4189
    -0.0827   2.2491   2.2491   5.8823   5.8823   5.8823  13.8960  13.8960
    15.3548  17.1719  17.1719  17.1719  18.7991  18.7991  18.7991  21.0872
    21.0872  21.0872  22.2373  22.2373  22.2373  23.7984  23.7984  24.4649
    24.4649  26.8509  26.8509  26.8509  27.1346  27.1346  27.1346  29.4263
    29.4263  29.4263  32.0261  32.2090  34.0370  34.0370  34.0370  35.7845
    37.8785  37.8785  37.8785  40.8001  40.8001  41.2497  42.7916  42.7916
    42.9124  42.9124  42.9124  45.2034  45.2034  45.2034  45.9409  45.9409
    45.9409  48.2179  48.6663  48.6664  48.6664  50.9122

[...]

     the Fermi energy is    43.2833 ev

!    total energy              =   -1114.15537627 Ry
     Harris-Foulkes estimate   =   -1114.15542578 Ry
     estimated scf accuracy    <       0.00005438 Ry

     The total energy is the sum of the following terms:

     one-electron contribution =      86.52507698 Ry
     hartree contribution      =     114.03155096 Ry
     xc contribution           =    -127.10148375 Ry
     ewald contribution        =   -1187.33644014 Ry
     smearing contrib. (-TS)   =      -0.27408032 Ry

     convergence has been achieved in   9 iterations

     Forces acting on atoms (Ry/au):

     atom    1 type  1   force =     0.00000000    0.00000000    0.00000000
     atom    2 type  1   force =     0.00000000    0.00000000    0.00000000
     atom    3 type  1   force =     0.00000000    0.00000000    0.00000000
     atom    4 type  1   force =     0.00000000    0.00000000    0.00000000
     atom    5 type  1   force =     0.00000000    0.00000000    0.00000000
     atom    6 type  1   force =     0.00000000    0.00000000    0.00000000
     atom    7 type  2   force =     0.00000000    0.00000000    0.00000000
     atom    8 type  2   force =     0.00000000    0.00000000    0.00000000

     Total force =     0.000000     Total SCF correction =     0.000000

     entering subroutine stress ...

          total   stress  (Ry/bohr**3)                   (kbar)     P= 5119.19
   0.03479957   0.00000000   0.00000000       5119.19      0.00      0.00
   0.00000000   0.03479957   0.00000000          0.00   5119.19      0.00
   0.00000000   0.00000000   0.03479957          0.00      0.00   5119.19

     BFGS Geometry Optimization

     number of scf cycles    =   1
     number of bfgs steps    =   0

     enthalpy new            =   -1114.1553762710 Ry

     new trust radius        =       0.5000000000 bohr
     new conv_thr            =       0.0001000000 Ry

     new unit-cell volume =    828.02266 a.u.^3 (   122.70030 Ang^3 )

CELL_PARAMETERS (alat=  8.53457320)
   1.100269143   0.000000000   0.000000000
[...]
        k(   48) = (   0.3635474  -0.4544343   0.3895151), wk =   0.0380952

[...]

     enthalpy old            =   -1114.1553762710 Ry
     enthalpy new            =   -1118.3199155066 Ry

     CASE: enthalpy_new < enthalpy_old

     small trust_radius: resetting bfgs history

     new trust radius        =       1.3940262858 bohr
     new conv_thr            =       0.0000010000 Ry

[...]

          total   stress  (Ry/bohr**3)                   (kbar)     P=-1376.04
  -0.00935412   0.00000000   0.00000000      -1376.04      0.00      0.00
   0.00000000  -0.00935412   0.00000000          0.00  -1376.04      0.00
   0.00000000   0.00000000  -0.00935412          0.00      0.00  -1376.04

     number of scf cycles    =   3
     number of bfgs steps    =   2

     enthalpy old            =   -1118.3199155066 Ry
     enthalpy new            =   -1115.9187186150 Ry

     CASE: enthalpy_new > enthalpy_old

     new trust radius        =       0.5502311637 bohr

     trust_radius < trust_radius_min

     resetting bfgs history

     Message from routine bfgs:
     history already reset at previous step: stopping
     new conv_thr            =       0.0000010000 Ry

     new unit-cell volume =   1037.14297 a.u.^3 (   153.68873 Ang^3 )

[...]

ATOMIC_POSITIONS (crystal)
Cr       0.000000000   0.500000000   0.250000000
Cr       0.000000000   0.500000000   0.750000000
Cr       0.500000000   0.750000000   0.000000000
Cr       0.500000000   0.250000000   0.000000000
Cr       0.750000000   0.000000000   0.500000000
Cr       0.250000000   0.000000000   0.500000000
Si       0.500000000   0.500000000   0.500000000
Si       0.000000000   0.000000000   0.000000000

     Writing output data file Prototype-La-cP8-Cr3Si.save
     NEW-OLD atomic charge density approx. for the potential
     NEW k-points:
        k(    1) = (   0.0000000   0.0000000   0.0000000), wk =   0.0095238
        k(    2) = (   0.0000000   0.0000000   0.1204493), wk =   0.0190476
        k(    3) = (   0.0000000   0.0000000   0.2408986), wk =   0.0190476
        k(    4) = (   0.0000000   0.0000000   0.3613479), wk =   0.0190476
        k(    5) = (   0.0000000   0.1405242   0.0000000), wk =   0.0190476
        k(    6) = (   0.0000000   0.1405242   0.1204493), wk =   0.0380952
        k(    7) = (   0.0000000   0.1405242   0.2408986), wk =   0.0380952
        k(    8) = (   0.0000000   0.1405242   0.3613479), wk =   0.0380952
        k(    9) = (   0.0000000   0.2810483   0.0000000), wk =   0.0190476
        k(   10) = (   0.0000000   0.2810483   0.1204493), wk =   0.0380952
        k(   11) = (   0.0000000   0.2810483   0.2408986), wk =   0.0380952
        k(   12) = (   0.0000000   0.2810483   0.3613479), wk =   0.0380952
        k(   13) = (   0.0000000  -0.4215725   0.0000000), wk =   0.0095238
        k(   14) = (   0.0000000  -0.4215725   0.1204493), wk =   0.0190476
        k(   15) = (   0.0000000  -0.4215725   0.2408986), wk =   0.0190476
        k(   16) = (   0.0000000  -0.4215725   0.3613479), wk =   0.0190476
        k(   17) = (   0.1686290   0.0000000   0.0000000), wk =   0.0190476
        k(   18) = (   0.1686290   0.0000000   0.1204493), wk =   0.0380952
        k(   19) = (   0.1686290   0.0000000   0.2408986), wk =   0.0380952
        k(   20) = (   0.1686290   0.0000000   0.3613479), wk =   0.0380952
        k(   21) = (   0.1686290   0.1405242   0.0000000), wk =   0.0380952
        k(   22) = (   0.1686290   0.1405242   0.1204493), wk =   0.0761905
        k(   23) = (   0.1686290   0.1405242   0.2408986), wk =   0.0761905
        k(   24) = (   0.1686290   0.1405242   0.3613479), wk =   0.0761905
        k(   25) = (   0.1686290   0.2810483   0.0000000), wk =   0.0380952
        k(   26) = (   0.1686290   0.2810483   0.1204493), wk =   0.0761905
        k(   27) = (   0.1686290   0.2810483   0.2408986), wk =   0.0761905
        k(   28) = (   0.1686290   0.2810483   0.3613479), wk =   0.0761905
        k(   29) = (   0.1686290  -0.4215725   0.0000000), wk =   0.0190476
        k(   30) = (   0.1686290  -0.4215725   0.1204493), wk =   0.0380952
        k(   31) = (   0.1686290  -0.4215725   0.2408986), wk =   0.0380952
        k(   32) = (   0.1686290  -0.4215725   0.3613479), wk =   0.0380952
        k(   33) = (   0.3372580   0.0000000   0.0000000), wk =   0.0190476
        k(   34) = (   0.3372580   0.0000000   0.1204493), wk =   0.0380952
        k(   35) = (   0.3372580   0.0000000   0.2408986), wk =   0.0380952
        k(   36) = (   0.3372580   0.0000000   0.3613479), wk =   0.0380952
        k(   37) = (   0.3372580   0.1405242   0.0000000), wk =   0.0380952
        k(   38) = (   0.3372580   0.1405242   0.1204493), wk =   0.0761905
        k(   39) = (   0.3372580   0.1405242   0.2408986), wk =   0.0761905
        k(   40) = (   0.3372580   0.1405242   0.3613479), wk =   0.0761905
        k(   41) = (   0.3372580   0.2810483   0.0000000), wk =   0.0380952
        k(   42) = (   0.3372580   0.2810483   0.1204493), wk =   0.0761905
        k(   43) = (   0.3372580   0.2810483   0.2408986), wk =   0.0761905
        k(   44) = (   0.3372580   0.2810483   0.3613479), wk =   0.0761905
        k(   45) = (   0.3372580  -0.4215725   0.0000000), wk =   0.0190476
        k(   46) = (   0.3372580  -0.4215725   0.1204493), wk =   0.0380952
        k(   47) = (   0.3372580  -0.4215725   0.2408986), wk =   0.0380952
        k(   48) = (   0.3372580  -0.4215725   0.3613479), wk =   0.0380952

[...]

     The maximum number of steps has been reached.

     End of BFGS Geometry Optimization
Begin final coordinates
     new unit-cell volume =   1037.14297 a.u.^3 (   153.68873 Ang^3 )

CELL_PARAMETERS (alat=  8.53457320)
   1.186035629   0.000000000   0.000000000
   0.000000000   1.186035629   0.000000000
   0.000000000   0.000000000   1.186035629

ATOMIC_POSITIONS (crystal)
Cr       0.000000000   0.500000000   0.250000000
Cr       0.000000000   0.500000000   0.750000000
Cr       0.500000000   0.750000000   0.000000000
Cr       0.500000000   0.250000000   0.000000000
Cr       0.750000000   0.000000000   0.500000000
Cr       0.250000000   0.000000000   0.500000000
Si       0.500000000   0.500000000   0.500000000
Si       0.000000000   0.000000000   0.000000000
End final coordinates

     A final scf calculation at the relaxed structure.
     The G-vectors are recalculated for the final unit cell
     Results may differ from those at the preceding step.

     bravais-lattice index     =            0
     lattice parameter (alat)  =       8.5346  a.u.
     unit-cell volume          =    1037.1430 (a.u.)^3
     number of atoms/cell      =            8
     number of atomic types    =            2
     number of electrons       =       116.00
     number of Kohn-Sham states=           70
     kinetic-energy cutoff     =      40.0000  Ry
     charge density cutoff     =     160.0000  Ry
     convergence threshold     =      1.0E-06
     mixing beta               =       0.7000
     number of iterations used =            8  plain     mixing
     Exchange-correlation      = SLA-PZ-NOGX-NOGC ( 1 1 0 0 0)
     EXX-fraction              =        0.00

     celldm(1)=   8.534573  celldm(2)=   0.000000  celldm(3)=   0.000000
     celldm(4)=   0.000000  celldm(5)=   0.000000  celldm(6)=   0.000000

     crystal axes: (cart. coord. in units of alat)
               a(1) = (   1.186036   0.000000   0.000000 )
               a(2) = (   0.000000   1.186036   0.000000 )
               a(3) = (   0.000000   0.000000   1.186036 )

     reciprocal axes: (cart. coord. in units 2 pi/alat)
               b(1) = (  0.843145  0.000000  0.000000 )
               b(2) = (  0.000000  0.843145  0.000000 )
               b(3) = (  0.000000  0.000000  0.843145 )

     PseudoPot. # 1 for Ce read from file:
     /home/jld5415/pp.La/Ce.UPF
     MD5 check sum: 44451aa79a44a00cf2bc029dc19922f6
     Pseudo is Norm-conserving, Zval = 12.0
     Generated in analytical, separable form
     Using radial grid of 1255 points,  6 beta functions with:
                l(1) =   0
                l(2) =   0
                l(3) =   1
                l(4) =   1
                l(5) =   2
                l(6) =   3

     PseudoPot. # 2 for Er read from file:
     /home/jld5415/pp.La/Er.UPF
     MD5 check sum: e152ae21b84514339d8526f066caf99b
     Pseudo is Norm-conserving, Zval = 22.0
     Generated in analytical, separable form
     Using radial grid of 1267 points,  6 beta functions with:
                l(1) =   0
                l(2) =   0
                l(3) =   1
                l(4) =   1
                l(5) =   2
                l(6) =   3

     atomic species   valence    mass     pseudopotential
        Cr            12.00    51.99610     Ce( 1.00)
        Si            22.00    28.08550     Er( 1.00)

     48 Sym. Ops., with inversion, found (24 have fractional translation)

   Cartesian axes

     site n.     atom                  positions (alat units)
         1           Cr  tau(   1) = (   0.0000000   0.5930178   0.2965089  )
         2           Cr  tau(   2) = (   0.0000000   0.5930178   0.8895267  )
         3           Cr  tau(   3) = (   0.5930178   0.8895267   0.0000000  )
         4           Cr  tau(   4) = (   0.5930178   0.2965089   0.0000000  )
         5           Cr  tau(   5) = (   0.8895267   0.0000000   0.5930178  )
         6           Cr  tau(   6) = (   0.2965089   0.0000000   0.5930178  )
         7           Si  tau(   7) = (   0.5930178   0.5930178   0.5930178  )
         8           Si  tau(   8) = (   0.0000000   0.0000000   0.0000000  )

     number of k points=    48  gaussian smearing, width (Ry)=  0.1000
                       cart. coord. in units 2pi/alat
        k(    1) = (   0.0000000   0.0000000   0.0000000), wk =   0.0095238
        k(    2) = (   0.0000000   0.0000000   0.1204493), wk =   0.0190476
        k(    3) = (   0.0000000   0.0000000   0.2408986), wk =   0.0190476
        k(    4) = (   0.0000000   0.0000000   0.3613479), wk =   0.0190476
        k(    5) = (   0.0000000   0.1405242   0.0000000), wk =   0.0190476
        k(    6) = (   0.0000000   0.1405242   0.1204493), wk =   0.0380952
        k(    7) = (   0.0000000   0.1405242   0.2408986), wk =   0.0380952
        k(    8) = (   0.0000000   0.1405242   0.3613479), wk =   0.0380952
        k(    9) = (   0.0000000   0.2810483   0.0000000), wk =   0.0190476
        k(   10) = (   0.0000000   0.2810483   0.1204493), wk =   0.0380952
        k(   11) = (   0.0000000   0.2810483   0.2408986), wk =   0.0380952
        k(   12) = (   0.0000000   0.2810483   0.3613479), wk =   0.0380952
        k(   13) = (   0.0000000  -0.4215725   0.0000000), wk =   0.0095238
        k(   14) = (   0.0000000  -0.4215725   0.1204493), wk =   0.0190476
        k(   15) = (   0.0000000  -0.4215725   0.2408986), wk =   0.0190476
        k(   16) = (   0.0000000  -0.4215725   0.3613479), wk =   0.0190476
        k(   17) = (   0.1686290   0.0000000   0.0000000), wk =   0.0190476
        k(   18) = (   0.1686290   0.0000000   0.1204493), wk =   0.0380952
        k(   19) = (   0.1686290   0.0000000   0.2408986), wk =   0.0380952
        k(   20) = (   0.1686290   0.0000000   0.3613479), wk =   0.0380952
        k(   21) = (   0.1686290   0.1405242   0.0000000), wk =   0.0380952
        k(   22) = (   0.1686290   0.1405242   0.1204493), wk =   0.0761905
        k(   23) = (   0.1686290   0.1405242   0.2408986), wk =   0.0761905
        k(   24) = (   0.1686290   0.1405242   0.3613479), wk =   0.0761905
        k(   25) = (   0.1686290   0.2810483   0.0000000), wk =   0.0380952
        k(   26) = (   0.1686290   0.2810483   0.1204493), wk =   0.0761905
        k(   27) = (   0.1686290   0.2810483   0.2408986), wk =   0.0761905
        k(   28) = (   0.1686290   0.2810483   0.3613479), wk =   0.0761905
        k(   29) = (   0.1686290  -0.4215725   0.0000000), wk =   0.0190476
        k(   30) = (   0.1686290  -0.4215725   0.1204493), wk =   0.0380952
        k(   31) = (   0.1686290  -0.4215725   0.2408986), wk =   0.0380952
        k(   32) = (   0.1686290  -0.4215725   0.3613479), wk =   0.0380952
        k(   33) = (   0.3372580   0.0000000   0.0000000), wk =   0.0190476
        k(   34) = (   0.3372580   0.0000000   0.1204493), wk =   0.0380952
        k(   35) = (   0.3372580   0.0000000   0.2408986), wk =   0.0380952
        k(   36) = (   0.3372580   0.0000000   0.3613479), wk =   0.0380952
        k(   37) = (   0.3372580   0.1405242   0.0000000), wk =   0.0380952
        k(   38) = (   0.3372580   0.1405242   0.1204493), wk =   0.0761905
        k(   39) = (   0.3372580   0.1405242   0.2408986), wk =   0.0761905
        k(   40) = (   0.3372580   0.1405242   0.3613479), wk =   0.0761905
        k(   41) = (   0.3372580   0.2810483   0.0000000), wk =   0.0380952
        k(   42) = (   0.3372580   0.2810483   0.1204493), wk =   0.0761905
        k(   43) = (   0.3372580   0.2810483   0.2408986), wk =   0.0761905
        k(   44) = (   0.3372580   0.2810483   0.3613479), wk =   0.0761905
        k(   45) = (   0.3372580  -0.4215725   0.0000000), wk =   0.0190476
        k(   46) = (   0.3372580  -0.4215725   0.1204493), wk =   0.0380952
        k(   47) = (   0.3372580  -0.4215725   0.2408986), wk =   0.0380952
        k(   48) = (   0.3372580  -0.4215725   0.3613479), wk =   0.0380952

     Largest allocated arrays     est. size (Mb)     dimensions
     Largest temporary arrays     est. size (Mb)     dimensions

     Initial potential from superposition of free atoms

     Starting from uniform charge
     Starting wfc are    0 randomized atomic wfcs

     Writing output data file Prototype-La-cP8-Cr3Si.save

     Self-consistent Calculation

[...]

     iteration #  6     ecut=    40.00 Ry     beta=0.70
     CG style diagonalization
     ethr =  4.12E-03,  avg # of iterations =  4.1

[...]

     total energy              =   -1121.27988299 Ry
     Harris-Foulkes estimate   =   -1121.27988817 Ry
     estimated scf accuracy    <       0.00000886 Ry

     iteration # 11     ecut=    40.00 Ry     beta=0.70
     CG style diagonalization
     c_bands:  1 eigenvalues not converged
     ethr =  7.64E-09,  avg # of iterations =  4.5

     End of self-consistent calculation

[...]

          k = 0.3373-0.4216 0.3613 (  4440 PWs)   bands (ev):

   -75.9266 -75.9264 -37.8950 -37.8950 -37.8922 -37.8922 -37.8862 -37.8861
   -12.5443 -12.5033 -12.3516 -12.3488 -12.2051 -12.1572   4.0147   4.0748
     4.1171   4.2683   4.7276   4.7387   5.1012   5.1827   5.5483   5.5700
     5.6618   5.7169   5.8540   5.8675   6.0764   6.0934   6.1614   6.2146
     8.9122   8.9225   8.9819   8.9845   9.0690   9.1074   9.3229   9.3229
     9.3379   9.3380  18.0913  18.0916  21.4490  21.4580  21.8033  21.8926
    21.9974  22.0389  23.7949  23.8028  24.0418  24.0973  24.1043  24.2059
    25.4037  25.4256  25.7579  25.7864  26.4905  26.5898  26.7853  27.0549
    27.6367  27.7216  28.7249  28.7389  29.1390  29.1854

     the Fermi energy is    25.2302 ev

!    total energy              =   -1121.27988681 Ry
     Harris-Foulkes estimate   =   -1121.27988734 Ry
     estimated scf accuracy    <       0.00000075 Ry

     The total energy is the sum of the following terms:

     one-electron contribution =    -170.85940153 Ry
     hartree contribution      =     170.25055783 Ry
     xc contribution           =    -119.16153963 Ry
     ewald contribution        =   -1001.09677268 Ry
     smearing contrib. (-TS)   =      -0.41273080 Ry

     convergence has been achieved in  11 iterations

     Forces acting on atoms (Ry/au):

     atom    1 type  1   force =     0.00000000    0.00000000    0.00000000
     atom    2 type  1   force =     0.00000000    0.00000000    0.00000000
     atom    3 type  1   force =     0.00000000    0.00000000    0.00000000
     atom    4 type  1   force =     0.00000000    0.00000000    0.00000000
     atom    5 type  1   force =     0.00000000    0.00000000    0.00000000
     atom    6 type  1   force =     0.00000000    0.00000000    0.00000000
     atom    7 type  2   force =     0.00000000    0.00000000    0.00000000
     atom    8 type  2   force =     0.00000000    0.00000000    0.00000000

     Total force =     0.000000     Total SCF correction =     0.000000

     entering subroutine stress ...

          total   stress  (Ry/bohr**3)                   (kbar)     P=  583.56
   0.00396696   0.00000000   0.00000000        583.56      0.00      0.00
   0.00000000   0.00396696   0.00000000          0.00    583.56      0.00
   0.00000000   0.00000000   0.00396696          0.00      0.00    583.56

     Writing output data file Prototype-La-cP8-Cr3Si.save

     General routines

     Parallel routines

   This run was terminated on:   0:57:13  22Mar2018

   JOB DONE.