     Program PWSCF v.5.0.2 starts on 22Mar2018 at  0:35:13

     Current dimensions of program PWSCF are:
     Max number of different atomic species (ntypx) = 10
     Max number of k-points (npk) =  40000
     Max angular momentum in pseudopotentials (lmaxx) =  3
     Waiting for input...
     Reading input from standard input

     Subspace diagonalization in iterative solution of the eigenvalue problem:
     a serial algorithm will be used

     bravais-lattice index     =            0
     lattice parameter (alat)  =      13.3930  a.u.
     unit-cell volume          =    1134.0956 (a.u.)^3
     number of atoms/cell      =            4
     number of atomic types    =            2
     number of electrons       =        68.00
     number of Kohn-Sham states=           41
     kinetic-energy cutoff     =      40.0000  Ry
     charge density cutoff     =     160.0000  Ry
     convergence threshold     =      1.0E-04
     mixing beta               =       0.7000
     number of iterations used =            8  plain     mixing
     Exchange-correlation      = SLA-PZ-NOGX-NOGC ( 1 1 0 0 0)
     EXX-fraction              =        0.00
     nstep                     =           50

     celldm(1)=  13.392972  celldm(2)=   0.000000  celldm(3)=   0.000000
     celldm(4)=   0.000000  celldm(5)=   0.000000  celldm(6)=   0.000000

     crystal axes: (cart. coord. in units of alat)
               a(1) = (   1.000000   0.000000   0.000000 )
               a(2) = (  -0.776311   0.630350   0.000000 )
               a(3) = (   0.000000   0.000000   0.748922 )

     reciprocal axes: (cart. coord. in units 2 pi/alat)
               b(1) = (  1.000000  1.231554  0.000000 )
               b(2) = (  0.000000  1.586419  0.000000 )
               b(3) = (  0.000000  0.000000  1.335252 )

     PseudoPot. # 1 for Ce read from file:
     /home/jld5415/pp.La/Ce.UPF
     MD5 check sum: 44451aa79a44a00cf2bc029dc19922f6
     Pseudo is Norm-conserving, Zval = 12.0
     Generated in analytical, separable form
     Using radial grid of 1255 points,  6 beta functions with:
                l(1) =   0
                l(2) =   0
                l(3) =   1
                l(4) =   1
                l(5) =   2
                l(6) =   3

     PseudoPot. # 2 for Er read from file:
     /home/jld5415/pp.La/Er.UPF
     MD5 check sum: e152ae21b84514339d8526f066caf99b
     Pseudo is Norm-conserving, Zval = 22.0
     Generated in analytical, separable form
     Using radial grid of 1267 points,  6 beta functions with:
                l(1) =   0
                l(2) =   0
                l(3) =   1
                l(4) =   1
                l(5) =   2
                l(6) =   3

     atomic species   valence    mass     pseudopotential
        Tl            12.00   204.38300     Ce( 1.00)
        I             22.00   126.90400     Er( 1.00)

      2 Sym. Ops., with inversion, found
          (note:  2 additional sym.ops. were found but ignored
           their fractional translations are incommensurate with FFT grid)

   Cartesian axes

     site n.     atom                  positions (alat units)
         1           Tl  tau(   1) = (  -0.0906317   0.3870269   0.5616917  )
         2           Tl  tau(   2) = (   0.3143210   0.2433234   0.1872306  )
         3           I   tau(   3) = (  -0.5408004   0.5467760   0.5616917  )
         4           I   tau(   4) = (   0.7644896   0.0835744   0.1872306  )

     number of k points=   106  gaussian smearing, width (Ry)=  0.1000

     Number of k-points >= 100: set verbosity='high' to print them.

     Largest allocated arrays     est. size (Mb)     dimensions
     Largest temporary arrays     est. size (Mb)     dimensions

     Initial potential from superposition of free atoms

     Starting from uniform charge
     Starting wfc are    0 randomized atomic wfcs

     Self-consistent Calculation

     iteration #  1     ecut=    40.00 Ry     beta=0.70
     CG style diagonalization
     c_bands:  3 eigenvalues not converged
     c_bands:  5 eigenvalues not converged
     c_bands:  5 eigenvalues not converged
     c_bands:  5 eigenvalues not converged
     c_bands:  4 eigenvalues not converged
     c_bands:  4 eigenvalues not converged
     c_bands:  4 eigenvalues not converged
     c_bands:  5 eigenvalues not converged
     c_bands:  4 eigenvalues not converged
     c_bands:  5 eigenvalues not converged
     c_bands:  5 eigenvalues not converged
     c_bands:  3 eigenvalues not converged
     c_bands:  5 eigenvalues not converged
     c_bands:  5 eigenvalues not converged
     c_bands:  5 eigenvalues not converged
     c_bands:  5 eigenvalues not converged
     c_bands:  5 eigenvalues not converged
     c_bands:  5 eigenvalues not converged
     c_bands:  4 eigenvalues not converged
     c_bands:  4 eigenvalues not converged
     c_bands:  2 eigenvalues not converged
     c_bands:  4 eigenvalues not converged
     c_bands:  4 eigenvalues not converged
     c_bands:  5 eigenvalues not converged
     c_bands:  2 eigenvalues not converged
     c_bands:  5 eigenvalues not converged
     c_bands:  3 eigenvalues not converged
     c_bands:  5 eigenvalues not converged
     c_bands:  5 eigenvalues not converged
     c_bands:  5 eigenvalues not converged
     c_bands:  5 eigenvalues not converged
     c_bands:  3 eigenvalues not converged
     c_bands:  5 eigenvalues not converged
     c_bands:  5 eigenvalues not converged
     c_bands:  4 eigenvalues not converged
     c_bands:  4 eigenvalues not converged
     c_bands:  3 eigenvalues not converged
     c_bands:  5 eigenvalues not converged
     ethr =  1.00E-02,  avg # of iterations = 17.5

     total energy              =    -353.45469700 Ry
     Harris-Foulkes estimate   =   -1285.74119437 Ry
     estimated scf accuracy    <    1121.12015342 Ry

[...]

     iteration #  4     ecut=    40.00 Ry     beta=0.70
     CG style diagonalization
     ethr =  1.00E-02,  avg # of iterations =  5.0

[...]

     End of self-consistent calculation

     Number of k-points >= 100: set verbosity='high' to print the bands.

     the Fermi energy is    10.5498 ev

!    total energy              =    -813.22429554 Ry
     Harris-Foulkes estimate   =    -813.22431100 Ry
     estimated scf accuracy    <       0.00001933 Ry

     The total energy is the sum of the following terms:

     one-electron contribution =    -430.03524806 Ry
     hartree contribution      =     220.45368251 Ry
     xc contribution           =     -74.18099756 Ry
     ewald contribution        =    -529.12972358 Ry
     smearing contrib. (-TS)   =      -0.33200885 Ry

     convergence has been achieved in  11 iterations

     Forces acting on atoms (Ry/au):

     atom    1 type  1   force =     0.01468409   -0.00511458    0.00070982
     atom    2 type  1   force =    -0.01468409    0.00511458   -0.00070982
     atom    3 type  2   force =     0.00241260   -0.00049053    0.00154039
     atom    4 type  2   force =    -0.00241260    0.00049053   -0.00154039

     Total force =     0.022393     Total SCF correction =     0.000000

     entering subroutine stress ...

          total   stress  (Ry/bohr**3)                   (kbar)     P= -332.55
  -0.00223105  -0.00002332  -0.00000005       -328.20     -3.43     -0.01
  -0.00002332  -0.00228830  -0.00000005         -3.43   -336.62     -0.01
  -0.00000005  -0.00000005  -0.00226246         -0.01     -0.01   -332.82

     BFGS Geometry Optimization

     number of scf cycles    =   1
     number of bfgs steps    =   0

     enthalpy new            =    -813.2242955428 Ry

     new trust radius        =       0.3853277542 bohr
     new conv_thr            =       0.0001000000 Ry

     new unit-cell volume =    952.47616 a.u.^3 (   141.14240 Ang^3 )

CELL_PARAMETERS (alat= 13.39297219)
   0.944223741  -0.000582882  -0.000001327
  -0.733378460   0.594742124   0.000000320
  -0.000000994  -0.000000844   0.706562056

ATOMIC_POSITIONS (crystal)
Tl       0.386639090   0.613381170   0.750070768
Tl       0.613360910   0.386618830   0.249929232
I        0.132719033   0.867357896   0.750153574
I        0.867280967   0.132642104   0.249846426

     Writing output data file Prototype-La-oS8-TlI.save
     NEW-OLD atomic charge density approx. for the potential
     NEW k-points: (use verbosity='high' to print them)

[...]

     enthalpy old            =    -813.2242955428 Ry
     enthalpy new            =    -813.5720732404 Ry

     CASE: enthalpy_new < enthalpy_old

     small trust_radius: resetting bfgs history

[...]

     number of scf cycles    =   3
     number of bfgs steps    =   2

     enthalpy old            =    -813.5720732404 Ry
     enthalpy new            =    -813.7002872025 Ry

     CASE: enthalpy_new < enthalpy_old

     Message from routine bfgs:
     history already reset at previous step: stopping
     small trust_radius: resetting bfgs history

     new trust radius        =       0.1161186624 bohr
     new conv_thr            =       0.0000562623 Ry

     new unit-cell volume =    799.93004 a.u.^3 (   118.53740 Ang^3 )

[...]

ATOMIC_POSITIONS (crystal)
Tl       0.389676238   0.610305942   0.749764181
Tl       0.610323762   0.389694058   0.250235819
I        0.128599119   0.871414606   0.749081300
I        0.871400881   0.128585394   0.250918700

     Writing output data file Prototype-La-oS8-TlI.save
     NEW-OLD atomic charge density approx. for the potential
     NEW k-points: (use verbosity='high' to print them)

[...]

     The maximum number of steps has been reached.

     End of BFGS Geometry Optimization
Begin final coordinates
     new unit-cell volume =    799.93004 a.u.^3 (   118.53740 Ang^3 )

CELL_PARAMETERS (alat= 13.39297219)
   0.889397718  -0.000963126   0.000043807
  -0.691056110   0.559897465  -0.000043798
   0.000032818  -0.000011625   0.669572255

ATOMIC_POSITIONS (crystal)
Tl       0.389676238   0.610305942   0.749764181
Tl       0.610323762   0.389694058   0.250235819
I        0.128599119   0.871414606   0.749081300
I        0.871400881   0.128585394   0.250918700
End final coordinates

     A final scf calculation at the relaxed structure.
     The G-vectors are recalculated for the final unit cell
     Results may differ from those at the preceding step.

     bravais-lattice index     =            0
     lattice parameter (alat)  =      13.3930  a.u.
     unit-cell volume          =     799.9300 (a.u.)^3
     number of atoms/cell      =            4
     number of atomic types    =            2
     number of electrons       =        68.00
     number of Kohn-Sham states=           41
     kinetic-energy cutoff     =      40.0000  Ry
     charge density cutoff     =     160.0000  Ry
     convergence threshold     =      5.6E-05
     mixing beta               =       0.7000
     number of iterations used =            8  plain     mixing
     Exchange-correlation      = SLA-PZ-NOGX-NOGC ( 1 1 0 0 0)
     EXX-fraction              =        0.00

     celldm(1)=  13.392972  celldm(2)=   0.000000  celldm(3)=   0.000000
     celldm(4)=   0.000000  celldm(5)=   0.000000  celldm(6)=   0.000000

     crystal axes: (cart. coord. in units of alat)
               a(1) = (   0.889398  -0.000963   0.000044 )
               a(2) = (  -0.691056   0.559897  -0.000044 )
               a(3) = (   0.000033  -0.000012   0.669572 )

     reciprocal axes: (cart. coord. in units 2 pi/alat)
               b(1) = (  1.125861  1.389600 -0.000031 )
               b(2) = (  0.001937  1.788432  0.000031 )
               b(3) = ( -0.000074  0.000026  1.493491 )

     PseudoPot. # 1 for Ce read from file:
     /home/jld5415/pp.La/Ce.UPF
     MD5 check sum: 44451aa79a44a00cf2bc029dc19922f6
     Pseudo is Norm-conserving, Zval = 12.0
     Generated in analytical, separable form
     Using radial grid of 1255 points,  6 beta functions with:
                l(1) =   0
                l(2) =   0
                l(3) =   1
                l(4) =   1
                l(5) =   2
                l(6) =   3

     PseudoPot. # 2 for Er read from file:
     /home/jld5415/pp.La/Er.UPF
     MD5 check sum: e152ae21b84514339d8526f066caf99b
     Pseudo is Norm-conserving, Zval = 22.0
     Generated in analytical, separable form
     Using radial grid of 1267 points,  6 beta functions with:
                l(1) =   0
                l(2) =   0
                l(3) =   1
                l(4) =   1
                l(5) =   2
                l(6) =   3

     atomic species   valence    mass     pseudopotential
        Tl            12.00   204.38300     Ce( 1.00)
        I             22.00   126.90400     Er( 1.00)

      2 Sym. Ops., with inversion, found
          (note:  2 additional sym.ops. were found but ignored
           their fractional translations are incommensurate with FFT grid)

   Cartesian axes

     site n.     atom                  positions (alat units)
         1           Tl  tau(   1) = (  -0.0751539   0.3413247   0.5020116  )
         2           Tl  tau(   2) = (   0.2735283   0.2175980   0.1675606  )
         3           I   tau(   3) = (  -0.4877960   0.4877703   0.5015315  )
         4           I   tau(   4) = (   0.6861705   0.0711525   0.1680407  )

     number of k points=   106  gaussian smearing, width (Ry)=  0.1000

     Number of k-points >= 100: set verbosity='high' to print them.

     Largest allocated arrays     est. size (Mb)     dimensions
     Largest temporary arrays     est. size (Mb)     dimensions

     Initial potential from superposition of free atoms

     Starting from uniform charge
     Starting wfc are    0 randomized atomic wfcs

     Writing output data file Prototype-La-oS8-TlI.save

     Self-consistent Calculation

[...]

     iteration #  9     ecut=    40.00 Ry     beta=0.70
     CG style diagonalization
     ethr =  3.82E-06,  avg # of iterations =  3.4

     total energy              =    -813.28188062 Ry
     Harris-Foulkes estimate   =    -813.28228267 Ry
     estimated scf accuracy    <       0.00078279 Ry

     iteration # 10     ecut=    40.00 Ry     beta=0.70
     CG style diagonalization
     c_bands:  1 eigenvalues not converged
     c_bands:  1 eigenvalues not converged
     ethr =  1.15E-06,  avg # of iterations =  4.2

     End of self-consistent calculation

     Number of k-points >= 100: set verbosity='high' to print the bands.

     the Fermi energy is    16.3411 ev

!    total energy              =    -813.28210911 Ry
     Harris-Foulkes estimate   =    -813.28215399 Ry
     estimated scf accuracy    <       0.00005204 Ry

     The total energy is the sum of the following terms:

     one-electron contribution =    -327.00574845 Ry
     hartree contribution      =     183.72068909 Ry
     xc contribution           =     -75.20400605 Ry
     ewald contribution        =    -594.56988286 Ry
     smearing contrib. (-TS)   =      -0.22316085 Ry

     convergence has been achieved in  10 iterations

     Forces acting on atoms (Ry/au):

     atom    1 type  1   force =     0.01721636   -0.00618904    0.00449752
     atom    2 type  1   force =    -0.01721636    0.00618904   -0.00449752
     atom    3 type  2   force =     0.00853422   -0.00288642    0.00691889
     atom    4 type  2   force =    -0.00853422    0.00288642   -0.00691889

     Total force =     0.031112     Total SCF correction =     0.000000

     entering subroutine stress ...

          total   stress  (Ry/bohr**3)                   (kbar)     P= -272.57
  -0.00199384   0.00003336   0.00000211       -293.30      4.91      0.31
   0.00003336  -0.00191064  -0.00000093          4.91   -281.06     -0.14
   0.00000211  -0.00000093  -0.00165420          0.31     -0.14   -243.34

     Writing output data file Prototype-La-oS8-TlI.save

     General routines

     Parallel routines

   This run was terminated on:   1:17:42  22Mar2018

   JOB DONE.