     Program PWSCF v.5.0.2 starts on 22Mar2018 at 17:36:45

     Current dimensions of program PWSCF are:
     Max number of different atomic species (ntypx) = 10
     Max number of k-points (npk) =  40000
     Max angular momentum in pseudopotentials (lmaxx) =  3
     Waiting for input...
     Reading input from standard input

     Subspace diagonalization in iterative solution of the eigenvalue problem:
     a serial algorithm will be used

     bravais-lattice index     =            0
     lattice parameter (alat)  =      12.0168  a.u.
     unit-cell volume          =    1187.3413 (a.u.)^3
     number of atoms/cell      =            8
     number of atomic types    =            2
     number of electrons       =       144.00
     number of Kohn-Sham states=           86
     kinetic-energy cutoff     =      40.0000  Ry
     charge density cutoff     =     160.0000  Ry
     convergence threshold     =      1.0E-04
     mixing beta               =       0.7000
     number of iterations used =            8  plain     mixing
     Exchange-correlation      = SLA-PZ-NOGX-NOGC ( 1 1 0 0 0)
     EXX-fraction              =        0.00
     nstep                     =           50

     celldm(1)=  12.016801  celldm(2)=   0.000000  celldm(3)=   0.000000
     celldm(4)=   0.000000  celldm(5)=   0.000000  celldm(6)=   0.000000

     crystal axes: (cart. coord. in units of alat)
               a(1) = (   1.000000   0.000000   0.000000 )
               a(2) = (  -0.500000   0.866025   0.000000 )
               a(3) = (   0.000000   0.000000   0.790093 )

     reciprocal axes: (cart. coord. in units 2 pi/alat)
               b(1) = (  1.000000  0.577350  0.000000 )
               b(2) = (  0.000000  1.154701  0.000000 )
               b(3) = (  0.000000  0.000000  1.265674 )

     PseudoPot. # 1 for Tb read from file:
     /home/jld5415/pp.La/Tb.UPF
     MD5 check sum: 3d6088a3f0cf7fd2e110c43f7f8e95c2
     Pseudo is Norm-conserving, Zval = 19.0
     Generated in analytical, separable form
     Using radial grid of 1263 points,  6 beta functions with:
                l(1) =   0
                l(2) =   0
                l(3) =   1
                l(4) =   1
                l(5) =   2
                l(6) =   3

     PseudoPot. # 2 for Pm read from file:
     /home/jld5415/pp.La/Pm.UPF
     MD5 check sum: 0061344aafc48faba5d75831754de21b
     Pseudo is Norm-conserving, Zval = 15.0
     Generated in analytical, separable form
     Using radial grid of 1259 points,  6 beta functions with:
                l(1) =   0
                l(2) =   0
                l(3) =   1
                l(4) =   1
                l(5) =   2
                l(6) =   3

     atomic species   valence    mass     pseudopotential
        Mg            19.00    24.30500     Tb( 1.00)
        Cd            15.00   112.41100     Pm( 1.00)

     24 Sym. Ops., with inversion, found (12 have fractional translation)

   Cartesian axes

     site n.     atom                  positions (alat units)
         1           Mg  tau(   1) = (   0.2478935   0.7204716   0.1975233  )
         2           Mg  tau(   2) = (   0.7478935   0.1455538   0.5925699  )
         3           Mg  tau(   3) = (   0.2521065   0.1455538   0.5925699  )
         4           Mg  tau(   4) = (  -0.2478935   0.7204716   0.1975233  )
         5           Mg  tau(   5) = (   0.0000000   0.2911075   0.1975233  )
         6           Mg  tau(   6) = (   0.5000000   0.5749179   0.5925699  )
         7           Cd  tau(   7) = (   0.5000005   0.2886748   0.1975233  )
         8           Cd  tau(   8) = (  -0.0000005   0.5773506   0.5925699  )

     number of k points=    64  gaussian smearing, width (Ry)=  0.1000
                       cart. coord. in units 2pi/alat
        k(    1) = (   0.0000000   0.0000000   0.0000000), wk =   0.0095238
        k(    2) = (   0.0000000   0.0000000   0.1808105), wk =   0.0190476
        k(    3) = (   0.0000000   0.0000000   0.3616210), wk =   0.0190476
        k(    4) = (   0.0000000   0.0000000   0.5424315), wk =   0.0190476
        k(    5) = (   0.0000000   0.1924501   0.0000000), wk =   0.0190476
        k(    6) = (   0.0000000   0.1924501   0.1808105), wk =   0.0380952
        k(    7) = (   0.0000000   0.1924501   0.3616210), wk =   0.0380952
        k(    8) = (   0.0000000   0.1924501   0.5424315), wk =   0.0380952
        k(    9) = (   0.0000000   0.3849002   0.0000000), wk =   0.0190476
        k(   10) = (   0.0000000   0.3849002   0.1808105), wk =   0.0380952
        k(   11) = (   0.0000000   0.3849002   0.3616210), wk =   0.0380952
        k(   12) = (   0.0000000   0.3849002   0.5424315), wk =   0.0380952
        k(   13) = (   0.0000000  -0.5773503   0.0000000), wk =   0.0095238
        k(   14) = (   0.0000000  -0.5773503   0.1808105), wk =   0.0190476
        k(   15) = (   0.0000000  -0.5773503   0.3616210), wk =   0.0190476
        k(   16) = (   0.0000000  -0.5773503   0.5424315), wk =   0.0190476
        k(   17) = (   0.2000000   0.1154701   0.0000000), wk =   0.0190476
        k(   18) = (   0.2000000   0.1154701   0.1808105), wk =   0.0380952
        k(   19) = (   0.2000000   0.1154701   0.3616210), wk =   0.0380952
        k(   20) = (   0.2000000   0.1154701   0.5424315), wk =   0.0380952
        k(   21) = (   0.2000000   0.3079201   0.0000000), wk =   0.0190476
        k(   22) = (   0.2000000   0.3079201   0.1808105), wk =   0.0380952
        k(   23) = (   0.2000000   0.3079201   0.3616210), wk =   0.0380952
        k(   24) = (   0.2000000   0.3079201   0.5424315), wk =   0.0380952
        k(   25) = (   0.2000000   0.5003702   0.0000000), wk =   0.0190476
        k(   26) = (   0.2000000   0.5003702   0.1808105), wk =   0.0380952
        k(   27) = (   0.2000000   0.5003702   0.3616210), wk =   0.0380952
        k(   28) = (   0.2000000   0.5003702   0.5424315), wk =   0.0380952
        k(   29) = (   0.2000000  -0.4618802   0.0000000), wk =   0.0190476
        k(   30) = (   0.2000000  -0.4618802   0.1808105), wk =   0.0380952
        k(   31) = (   0.2000000  -0.4618802   0.3616210), wk =   0.0380952
        k(   32) = (   0.2000000  -0.4618802   0.5424315), wk =   0.0380952
        k(   33) = (   0.2000000  -0.2694301   0.0000000), wk =   0.0190476
        k(   34) = (   0.2000000  -0.2694301   0.1808105), wk =   0.0380952
        k(   35) = (   0.2000000  -0.2694301   0.3616210), wk =   0.0380952
        k(   36) = (   0.2000000  -0.2694301   0.5424315), wk =   0.0380952
        k(   37) = (   0.2000000  -0.0769800   0.0000000), wk =   0.0190476
        k(   38) = (   0.2000000  -0.0769800   0.1808105), wk =   0.0380952
        k(   39) = (   0.2000000  -0.0769800   0.3616210), wk =   0.0380952
        k(   40) = (   0.2000000  -0.0769800   0.5424315), wk =   0.0380952
        k(   41) = (   0.4000000   0.2309401   0.0000000), wk =   0.0190476
        k(   42) = (   0.4000000   0.2309401   0.1808105), wk =   0.0380952
        k(   43) = (   0.4000000   0.2309401   0.3616210), wk =   0.0380952
        k(   44) = (   0.4000000   0.2309401   0.5424315), wk =   0.0380952
        k(   45) = (   0.4000000   0.4233902   0.0000000), wk =   0.0190476
        k(   46) = (   0.4000000   0.4233902   0.1808105), wk =   0.0380952
        k(   47) = (   0.4000000   0.4233902   0.3616210), wk =   0.0380952
        k(   48) = (   0.4000000   0.4233902   0.5424315), wk =   0.0380952
        k(   49) = (   0.4000000   0.6158403   0.0000000), wk =   0.0190476
        k(   50) = (   0.4000000   0.6158403   0.1808105), wk =   0.0380952
        k(   51) = (   0.4000000   0.6158403   0.3616210), wk =   0.0380952
        k(   52) = (   0.4000000   0.6158403   0.5424315), wk =   0.0380952
        k(   53) = (   0.4000000  -0.3464102   0.0000000), wk =   0.0190476
        k(   54) = (   0.4000000  -0.3464102   0.1808105), wk =   0.0380952
        k(   55) = (   0.4000000  -0.3464102   0.3616210), wk =   0.0380952
        k(   56) = (   0.4000000  -0.3464102   0.5424315), wk =   0.0380952
        k(   57) = (   0.4000000  -0.1539601   0.0000000), wk =   0.0190476
        k(   58) = (   0.4000000  -0.1539601   0.1808105), wk =   0.0380952
        k(   59) = (   0.4000000  -0.1539601   0.3616210), wk =   0.0380952
        k(   60) = (   0.4000000  -0.1539601   0.5424315), wk =   0.0380952
        k(   61) = (   0.4000000   0.0384900   0.0000000), wk =   0.0190476
        k(   62) = (   0.4000000   0.0384900   0.1808105), wk =   0.0380952
        k(   63) = (   0.4000000   0.0384900   0.3616210), wk =   0.0380952
        k(   64) = (   0.4000000   0.0384900   0.5424315), wk =   0.0380952

     Largest allocated arrays     est. size (Mb)     dimensions
     Largest temporary arrays     est. size (Mb)     dimensions

     Initial potential from superposition of free atoms

     Starting from uniform charge
     Starting wfc are    0 randomized atomic wfcs

     Self-consistent Calculation

     iteration #  1     ecut=    40.00 Ry     beta=0.70
     CG style diagonalization
     c_bands:  2 eigenvalues not converged
     c_bands:  1 eigenvalues not converged
     c_bands:  1 eigenvalues not converged
     ethr =  1.00E-02,  avg # of iterations = 12.6

     total energy              =   -1404.24748356 Ry
     Harris-Foulkes estimate   =   -2019.42787684 Ry
     estimated scf accuracy    <     782.60244152 Ry

[...]

     iteration #  5     ecut=    40.00 Ry     beta=0.70
     CG style diagonalization
     ethr =  1.00E-02,  avg # of iterations =  3.7

[...]

     End of self-consistent calculation

          k = 0.0000 0.0000 0.0000 (  5047 PWs)   bands (ev):

   -53.5005 -53.4839 -53.4813 -53.4813 -53.4750 -53.4750 -31.3429 -31.3417
   -22.0249 -21.9635 -21.9055 -21.8954 -21.8954 -21.8597 -21.8597 -21.8495
   -21.8494 -21.7794 -21.7253 -21.7252 -21.6588 -21.6501 -21.6500 -21.6376
   -21.6376 -21.6333  -7.9765  -7.9632  -7.9095  -7.9095  -7.8986  -7.8986
    13.3871  13.8312  13.8902  13.8902  13.9134  14.1614  14.4694  14.5007
    14.5007  14.5150  14.5151  15.3297  15.6145  15.6145  16.0027  16.0673
    16.0674  16.3059  16.4376  16.4376  16.5706  16.5706  16.8051  16.8051
    17.0593  17.0593  17.3099  17.3100  18.1421  18.4206  18.4535  18.7126
    19.0215  20.4672  20.4672  20.6857  20.6857  20.6937  20.6937  21.2808
    21.4664  21.4665  22.9707  22.9707  23.5370  24.0289  24.0289  24.6974
    26.2846  27.1863  27.1863  28.3982  28.6509  28.6525

[...]

     the Fermi energy is    21.1770 ev

!    total energy              =   -1636.44913225 Ry
     Harris-Foulkes estimate   =   -1636.44920906 Ry
     estimated scf accuracy    <       0.00008105 Ry

     The total energy is the sum of the following terms:

     one-electron contribution =    -297.95664649 Ry
     hartree contribution      =     242.93091571 Ry
     xc contribution           =    -160.58861000 Ry
     ewald contribution        =   -1420.39175823 Ry
     smearing contrib. (-TS)   =      -0.44303323 Ry

     convergence has been achieved in  15 iterations

     Forces acting on atoms (Ry/au):

     atom    1 type  1   force =     0.03462224    0.01998916    0.00000000
     atom    2 type  1   force =     0.03462224   -0.01998916    0.00000000
[...]
        k(   13) = (   0.0000000  -0.5852995   0.0000000), wk =   0.0095238
        k(   14) = (   0.0000000  -0.5852995   0.1793388), wk =   0.0190476
        k(   15) = (   0.0000000  -0.5852995   0.3586776), wk =   0.0190476
        k(   16) = (   0.0000000  -0.5852995   0.5380164), wk =   0.0190476
        k(   17) = (   0.2027537   0.1170599   0.0000000), wk =   0.0190476
        k(   18) = (   0.2027537   0.1170599   0.1793388), wk =   0.0380952
        k(   19) = (   0.2027537   0.1170599   0.3586776), wk =   0.0380952
        k(   20) = (   0.2027537   0.1170599   0.5380164), wk =   0.0380952
        k(   21) = (   0.2027537   0.3121597   0.0000000), wk =   0.0190476
        k(   22) = (   0.2027537   0.3121597   0.1793388), wk =   0.0380952
        k(   23) = (   0.2027537   0.3121597   0.3586776), wk =   0.0380952
        k(   24) = (   0.2027537   0.3121597   0.5380164), wk =   0.0380952
        k(   25) = (   0.2027537   0.5072596   0.0000000), wk =   0.0190476
        k(   26) = (   0.2027537   0.5072596   0.1793388), wk =   0.0380952
        k(   27) = (   0.2027537   0.5072596   0.3586776), wk =   0.0380952
        k(   28) = (   0.2027537   0.5072596   0.5380164), wk =   0.0380952
        k(   29) = (   0.2027537  -0.4682396   0.0000000), wk =   0.0190476
        k(   30) = (   0.2027537  -0.4682396   0.1793388), wk =   0.0380952
        k(   31) = (   0.2027537  -0.4682396   0.3586776), wk =   0.0380952
        k(   32) = (   0.2027537  -0.4682396   0.5380164), wk =   0.0380952
        k(   33) = (   0.2027537  -0.2731398   0.0000000), wk =   0.0190476
        k(   34) = (   0.2027537  -0.2731398   0.1793388), wk =   0.0380952
        k(   35) = (   0.2027537  -0.2731398   0.3586776), wk =   0.0380952
        k(   36) = (   0.2027537  -0.2731398   0.5380164), wk =   0.0380952
        k(   37) = (   0.2027537  -0.0780399   0.0000000), wk =   0.0190476
        k(   38) = (   0.2027537  -0.0780399   0.1793388), wk =   0.0380952
        k(   39) = (   0.2027537  -0.0780399   0.3586776), wk =   0.0380952
        k(   40) = (   0.2027537  -0.0780399   0.5380164), wk =   0.0380952
        k(   41) = (   0.4055074   0.2341198   0.0000000), wk =   0.0190476
        k(   42) = (   0.4055074   0.2341198   0.1793388), wk =   0.0380952
        k(   43) = (   0.4055074   0.2341198   0.3586776), wk =   0.0380952
        k(   44) = (   0.4055074   0.2341198   0.5380164), wk =   0.0380952
        k(   45) = (   0.4055074   0.4292196   0.0000000), wk =   0.0190476
        k(   46) = (   0.4055074   0.4292196   0.1793388), wk =   0.0380952
        k(   47) = (   0.4055074   0.4292196   0.3586776), wk =   0.0380952
        k(   48) = (   0.4055074   0.4292196   0.5380164), wk =   0.0380952
        k(   49) = (   0.4055074   0.6243195   0.0000000), wk =   0.0190476
        k(   50) = (   0.4055074   0.6243195   0.1793388), wk =   0.0380952
        k(   51) = (   0.4055074   0.6243195   0.3586776), wk =   0.0380952
        k(   52) = (   0.4055074   0.6243195   0.5380164), wk =   0.0380952
        k(   53) = (   0.4055074  -0.3511797   0.0000000), wk =   0.0190476
        k(   54) = (   0.4055074  -0.3511797   0.1793388), wk =   0.0380952
        k(   55) = (   0.4055074  -0.3511797   0.3586776), wk =   0.0380952
        k(   56) = (   0.4055074  -0.3511797   0.5380164), wk =   0.0380952
        k(   57) = (   0.4055074  -0.1560799   0.0000000), wk =   0.0190476
        k(   58) = (   0.4055074  -0.1560799   0.1793388), wk =   0.0380952
        k(   59) = (   0.4055074  -0.1560799   0.3586776), wk =   0.0380952
        k(   60) = (   0.4055074  -0.1560799   0.5380164), wk =   0.0380952
        k(   61) = (   0.4055074   0.0390200   0.0000000), wk =   0.0190476
        k(   62) = (   0.4055074   0.0390200   0.1793388), wk =   0.0380952
        k(   63) = (   0.4055074   0.0390200   0.3586776), wk =   0.0380952
        k(   64) = (   0.4055074   0.0390200   0.5380164), wk =   0.0380952

[...]

     The maximum number of steps has been reached.

     End of BFGS Geometry Optimization
Begin final coordinates
     new unit-cell volume =   1164.78938 a.u.^3 (   172.60398 Ang^3 )

CELL_PARAMETERS (alat= 12.01680127)
   0.986418492   0.000000000   0.000000000
  -0.493209246   0.854263473   0.000000000
   0.000000000   0.000000000   0.796576927

ATOMIC_POSITIONS (crystal)
Mg       0.668148040   0.834074020   0.250000000
Mg       0.834074020   0.165925980   0.750000000
Mg       0.331851960   0.165925980   0.750000000
Mg       0.165925980   0.834074020   0.250000000
Mg       0.165925980   0.331851960   0.250000000
Mg       0.834074020   0.668148040   0.750000000
Cd       0.666667000   0.333333000   0.250000000
Cd       0.333333000   0.666667000   0.750000000
End final coordinates

     A final scf calculation at the relaxed structure.
     The G-vectors are recalculated for the final unit cell
     Results may differ from those at the preceding step.

     bravais-lattice index     =            0
     lattice parameter (alat)  =      12.0168  a.u.
     unit-cell volume          =    1164.7894 (a.u.)^3
     number of atoms/cell      =            8
     number of atomic types    =            2
     number of electrons       =       144.00
     number of Kohn-Sham states=           86
     kinetic-energy cutoff     =      40.0000  Ry
     charge density cutoff     =     160.0000  Ry
     convergence threshold     =      6.5E-06
     mixing beta               =       0.7000
     number of iterations used =            8  plain     mixing
     Exchange-correlation      = SLA-PZ-NOGX-NOGC ( 1 1 0 0 0)
     EXX-fraction              =        0.00

     celldm(1)=  12.016801  celldm(2)=   0.000000  celldm(3)=   0.000000
     celldm(4)=   0.000000  celldm(5)=   0.000000  celldm(6)=   0.000000

     crystal axes: (cart. coord. in units of alat)
               a(1) = (   0.986418   0.000000   0.000000 )
               a(2) = (  -0.493209   0.854263   0.000000 )
               a(3) = (   0.000000   0.000000   0.796577 )

     reciprocal axes: (cart. coord. in units 2 pi/alat)
               b(1) = (  1.013769  0.585300  0.000000 )
               b(2) = (  0.000000  1.170599  0.000000 )
               b(3) = (  0.000000  0.000000  1.255372 )

     PseudoPot. # 1 for Tb read from file:
     /home/jld5415/pp.La/Tb.UPF
     MD5 check sum: 3d6088a3f0cf7fd2e110c43f7f8e95c2
     Pseudo is Norm-conserving, Zval = 19.0
     Generated in analytical, separable form
     Using radial grid of 1263 points,  6 beta functions with:
                l(1) =   0
                l(2) =   0
                l(3) =   1
                l(4) =   1
                l(5) =   2
                l(6) =   3

     PseudoPot. # 2 for Pm read from file:
     /home/jld5415/pp.La/Pm.UPF
     MD5 check sum: 0061344aafc48faba5d75831754de21b
     Pseudo is Norm-conserving, Zval = 15.0
     Generated in analytical, separable form
     Using radial grid of 1259 points,  6 beta functions with:
                l(1) =   0
                l(2) =   0
                l(3) =   1
                l(4) =   1
                l(5) =   2
                l(6) =   3

     atomic species   valence    mass     pseudopotential
        Mg            19.00    24.30500     Tb( 1.00)
        Cd            15.00   112.41100     Pm( 1.00)

     24 Sym. Ops., with inversion, found (12 have fractional translation)

   Cartesian axes

     site n.     atom                  positions (alat units)
         1           Mg  tau(   1) = (   0.2477006   0.7125190   0.1991442  )
         2           Mg  tau(   2) = (   0.7409098   0.1417445   0.5974327  )
         3           Mg  tau(   3) = (   0.2455087   0.1417445   0.5974327  )
         4           Mg  tau(   4) = (  -0.2477006   0.7125190   0.1991442  )
         5           Mg  tau(   5) = (   0.0000000   0.2834890   0.1991442  )
         6           Mg  tau(   6) = (   0.4932092   0.5707745   0.5974327  )
         7           Cd  tau(   7) = (   0.4932097   0.2847542   0.1991442  )
         8           Cd  tau(   8) = (  -0.0000005   0.5695093   0.5974327  )

     number of k points=    64  gaussian smearing, width (Ry)=  0.1000
                       cart. coord. in units 2pi/alat
        k(    1) = (   0.0000000   0.0000000   0.0000000), wk =   0.0095238
        k(    2) = (   0.0000000   0.0000000   0.1793388), wk =   0.0190476
        k(    3) = (   0.0000000   0.0000000   0.3586776), wk =   0.0190476
        k(    4) = (   0.0000000   0.0000000   0.5380164), wk =   0.0190476
        k(    5) = (   0.0000000   0.1950998   0.0000000), wk =   0.0190476
        k(    6) = (   0.0000000   0.1950998   0.1793388), wk =   0.0380952
        k(    7) = (   0.0000000   0.1950998   0.3586776), wk =   0.0380952
        k(    8) = (   0.0000000   0.1950998   0.5380164), wk =   0.0380952
        k(    9) = (   0.0000000   0.3901997   0.0000000), wk =   0.0190476
        k(   10) = (   0.0000000   0.3901997   0.1793388), wk =   0.0380952
        k(   11) = (   0.0000000   0.3901997   0.3586776), wk =   0.0380952
        k(   12) = (   0.0000000   0.3901997   0.5380164), wk =   0.0380952
        k(   13) = (   0.0000000  -0.5852995   0.0000000), wk =   0.0095238
        k(   14) = (   0.0000000  -0.5852995   0.1793388), wk =   0.0190476
        k(   15) = (   0.0000000  -0.5852995   0.3586776), wk =   0.0190476
        k(   16) = (   0.0000000  -0.5852995   0.5380164), wk =   0.0190476
        k(   17) = (   0.2027537   0.1170599   0.0000000), wk =   0.0190476
        k(   18) = (   0.2027537   0.1170599   0.1793388), wk =   0.0380952
        k(   19) = (   0.2027537   0.1170599   0.3586776), wk =   0.0380952
        k(   20) = (   0.2027537   0.1170599   0.5380164), wk =   0.0380952
        k(   21) = (   0.2027537   0.3121597   0.0000000), wk =   0.0190476
        k(   22) = (   0.2027537   0.3121597   0.1793388), wk =   0.0380952
        k(   23) = (   0.2027537   0.3121597   0.3586776), wk =   0.0380952
        k(   24) = (   0.2027537   0.3121597   0.5380164), wk =   0.0380952
        k(   25) = (   0.2027537   0.5072596   0.0000000), wk =   0.0190476
        k(   26) = (   0.2027537   0.5072596   0.1793388), wk =   0.0380952
        k(   27) = (   0.2027537   0.5072596   0.3586776), wk =   0.0380952
        k(   28) = (   0.2027537   0.5072596   0.5380164), wk =   0.0380952
        k(   29) = (   0.2027537  -0.4682396   0.0000000), wk =   0.0190476
        k(   30) = (   0.2027537  -0.4682396   0.1793388), wk =   0.0380952
        k(   31) = (   0.2027537  -0.4682396   0.3586776), wk =   0.0380952
        k(   32) = (   0.2027537  -0.4682396   0.5380164), wk =   0.0380952
        k(   33) = (   0.2027537  -0.2731398   0.0000000), wk =   0.0190476
        k(   34) = (   0.2027537  -0.2731398   0.1793388), wk =   0.0380952
        k(   35) = (   0.2027537  -0.2731398   0.3586776), wk =   0.0380952
        k(   36) = (   0.2027537  -0.2731398   0.5380164), wk =   0.0380952
        k(   37) = (   0.2027537  -0.0780399   0.0000000), wk =   0.0190476
        k(   38) = (   0.2027537  -0.0780399   0.1793388), wk =   0.0380952
        k(   39) = (   0.2027537  -0.0780399   0.3586776), wk =   0.0380952
        k(   40) = (   0.2027537  -0.0780399   0.5380164), wk =   0.0380952
        k(   41) = (   0.4055074   0.2341198   0.0000000), wk =   0.0190476
        k(   42) = (   0.4055074   0.2341198   0.1793388), wk =   0.0380952
        k(   43) = (   0.4055074   0.2341198   0.3586776), wk =   0.0380952
        k(   44) = (   0.4055074   0.2341198   0.5380164), wk =   0.0380952
        k(   45) = (   0.4055074   0.4292196   0.0000000), wk =   0.0190476
        k(   46) = (   0.4055074   0.4292196   0.1793388), wk =   0.0380952
        k(   47) = (   0.4055074   0.4292196   0.3586776), wk =   0.0380952
        k(   48) = (   0.4055074   0.4292196   0.5380164), wk =   0.0380952
        k(   49) = (   0.4055074   0.6243195   0.0000000), wk =   0.0190476
        k(   50) = (   0.4055074   0.6243195   0.1793388), wk =   0.0380952
        k(   51) = (   0.4055074   0.6243195   0.3586776), wk =   0.0380952
        k(   52) = (   0.4055074   0.6243195   0.5380164), wk =   0.0380952
        k(   53) = (   0.4055074  -0.3511797   0.0000000), wk =   0.0190476
        k(   54) = (   0.4055074  -0.3511797   0.1793388), wk =   0.0380952
        k(   55) = (   0.4055074  -0.3511797   0.3586776), wk =   0.0380952
        k(   56) = (   0.4055074  -0.3511797   0.5380164), wk =   0.0380952
        k(   57) = (   0.4055074  -0.1560799   0.0000000), wk =   0.0190476
        k(   58) = (   0.4055074  -0.1560799   0.1793388), wk =   0.0380952
        k(   59) = (   0.4055074  -0.1560799   0.3586776), wk =   0.0380952
        k(   60) = (   0.4055074  -0.1560799   0.5380164), wk =   0.0380952
        k(   61) = (   0.4055074   0.0390200   0.0000000), wk =   0.0190476
        k(   62) = (   0.4055074   0.0390200   0.1793388), wk =   0.0380952
        k(   63) = (   0.4055074   0.0390200   0.3586776), wk =   0.0380952
        k(   64) = (   0.4055074   0.0390200   0.5380164), wk =   0.0380952

     Largest allocated arrays     est. size (Mb)     dimensions
     Largest temporary arrays     est. size (Mb)     dimensions

     Initial potential from superposition of free atoms

     Starting from uniform charge
     Starting wfc are    0 randomized atomic wfcs

     Writing output data file Prototype-La-hP8-Mg3Cd.save

     Self-consistent Calculation

[...]

     iteration # 12     ecut=    40.00 Ry     beta=0.70
     CG style diagonalization
     c_bands:  1 eigenvalues not converged
     c_bands:  1 eigenvalues not converged
     c_bands:  1 eigenvalues not converged
     ethr =  2.40E-07,  avg # of iterations =  4.5

[...]

     total energy              =   -1636.43034797 Ry
     Harris-Foulkes estimate   =   -1636.43036200 Ry
     estimated scf accuracy    <       0.00003692 Ry

     iteration # 15     ecut=    40.00 Ry     beta=0.70
     CG style diagonalization
     ethr =  2.56E-08,  avg # of iterations =  3.4

     End of self-consistent calculation

[...]

          k = 0.4055 0.0390 0.5380 (  4977 PWs)   bands (ev):

   -53.0343 -53.0265 -53.0227 -53.0207 -53.0188 -53.0178 -30.7957 -30.7955
   -21.5057 -21.5019 -21.4838 -21.4756 -21.4533 -21.4494 -21.3539 -21.3305
   -21.3101 -21.3076 -21.2835 -21.2699 -21.2542 -21.2475 -21.2411 -21.2217
   -21.1981 -21.1949  -7.4221  -7.4210  -7.3831  -7.3824  -7.3770  -7.3746
    14.5925  14.6104  14.7987  14.8215  14.8937  15.0638  15.1324  15.2250
    15.2667  15.3387  15.5082  15.6944  15.7301  15.8480  16.0098  16.1499
    16.3617  16.4176  16.6600  16.8357  16.9197  17.0716  17.1813  17.1941
    17.3028  17.3977  17.7096  17.7851  17.9875  18.3837  18.4016  18.6667
    19.1363  19.6395  20.1152  20.3514  20.8362  20.9129  21.1104  21.3055
    21.7867  21.9841  22.1536  22.4669  23.0027  23.3295  25.1913  25.4510
    27.4527  27.7720  29.0370  29.8159  29.9517  30.2450

     the Fermi energy is    21.7174 ev

!    total energy              =   -1636.43035018 Ry
     Harris-Foulkes estimate   =   -1636.43035381 Ry
     estimated scf accuracy    <       0.00000426 Ry

     The total energy is the sum of the following terms:

     one-electron contribution =    -285.44933507 Ry
     hartree contribution      =     239.21775984 Ry
     xc contribution           =    -160.73992114 Ry
     ewald contribution        =   -1429.01859444 Ry
     smearing contrib. (-TS)   =      -0.44025937 Ry

     convergence has been achieved in  15 iterations

     Forces acting on atoms (Ry/au):

     atom    1 type  1   force =    -0.00651533   -0.00376163    0.00000000
     atom    2 type  1   force =    -0.00651533    0.00376163    0.00000000
     atom    3 type  1   force =     0.00651533    0.00376163    0.00000000
     atom    4 type  1   force =     0.00651533   -0.00376163    0.00000000
     atom    5 type  1   force =     0.00000000    0.00752326    0.00000000
     atom    6 type  1   force =     0.00000000   -0.00752326    0.00000000
     atom    7 type  2   force =     0.00000000    0.00000000    0.00000000
     atom    8 type  2   force =     0.00000000    0.00000000    0.00000000

     Total force =     0.018428     Total SCF correction =     0.000000

     entering subroutine stress ...

          total   stress  (Ry/bohr**3)                   (kbar)     P= -406.71
  -0.00279709   0.00000000   0.00000000       -411.47      0.00      0.00
   0.00000000  -0.00279709   0.00000000          0.00   -411.47      0.00
   0.00000000   0.00000000  -0.00270004          0.00      0.00   -397.19

     Writing output data file Prototype-La-hP8-Mg3Cd.save

     General routines

     Parallel routines

   This run was terminated on:  18:31:55  22Mar2018

   JOB DONE.