     Program PWSCF v.5.0.2 starts on 22Mar2018 at 17:36:45

     Current dimensions of program PWSCF are:
     Max number of different atomic species (ntypx) = 10
     Max number of k-points (npk) =  40000
     Max angular momentum in pseudopotentials (lmaxx) =  3
     Waiting for input...
     Reading input from standard input

     Subspace diagonalization in iterative solution of the eigenvalue problem:
     a serial algorithm will be used

     bravais-lattice index     =            0
     lattice parameter (alat)  =       8.5346  a.u.
     unit-cell volume          =     621.6493 (a.u.)^3
     number of atoms/cell      =            8
     number of atomic types    =            2
     number of electrons       =       144.00
     number of Kohn-Sham states=           86
     kinetic-energy cutoff     =      40.0000  Ry
     charge density cutoff     =     160.0000  Ry
     convergence threshold     =      1.0E-04
     mixing beta               =       0.7000
     number of iterations used =            8  plain     mixing
     Exchange-correlation      = SLA-PZ-NOGX-NOGC ( 1 1 0 0 0)
     EXX-fraction              =        0.00
     nstep                     =           50

     celldm(1)=   8.534573  celldm(2)=   0.000000  celldm(3)=   0.000000
     celldm(4)=   0.000000  celldm(5)=   0.000000  celldm(6)=   0.000000

     crystal axes: (cart. coord. in units of alat)
               a(1) = (   1.000000   0.000000   0.000000 )
               a(2) = (   0.000000   1.000000   0.000000 )
               a(3) = (   0.000000   0.000000   1.000000 )

     reciprocal axes: (cart. coord. in units 2 pi/alat)
               b(1) = (  1.000000  0.000000  0.000000 )
               b(2) = (  0.000000  1.000000  0.000000 )
               b(3) = (  0.000000  0.000000  1.000000 )

     PseudoPot. # 1 for Tb read from file:
     /home/jld5415/pp.La/Tb.UPF
     MD5 check sum: 3d6088a3f0cf7fd2e110c43f7f8e95c2
     Pseudo is Norm-conserving, Zval = 19.0
     Generated in analytical, separable form
     Using radial grid of 1263 points,  6 beta functions with:
                l(1) =   0
                l(2) =   0
                l(3) =   1
                l(4) =   1
                l(5) =   2
                l(6) =   3

     PseudoPot. # 2 for Pm read from file:
     /home/jld5415/pp.La/Pm.UPF
     MD5 check sum: 0061344aafc48faba5d75831754de21b
     Pseudo is Norm-conserving, Zval = 15.0
     Generated in analytical, separable form
     Using radial grid of 1259 points,  6 beta functions with:
                l(1) =   0
                l(2) =   0
                l(3) =   1
                l(4) =   1
                l(5) =   2
                l(6) =   3

     atomic species   valence    mass     pseudopotential
        Cr            19.00    51.99610     Tb( 1.00)
        Si            15.00    28.08550     Pm( 1.00)

     48 Sym. Ops., with inversion, found (24 have fractional translation)

   Cartesian axes

     site n.     atom                  positions (alat units)
         1           Cr  tau(   1) = (   0.0000000   0.5000000   0.2500000  )
         2           Cr  tau(   2) = (   0.0000000   0.5000000   0.7500000  )
         3           Cr  tau(   3) = (   0.5000000   0.7500000   0.0000000  )
         4           Cr  tau(   4) = (   0.5000000   0.2500000   0.0000000  )
         5           Cr  tau(   5) = (   0.7500000   0.0000000   0.5000000  )
         6           Cr  tau(   6) = (   0.2500000   0.0000000   0.5000000  )
         7           Si  tau(   7) = (   0.5000000   0.5000000   0.5000000  )
         8           Si  tau(   8) = (   0.0000000   0.0000000   0.0000000  )

     number of k points=    48  gaussian smearing, width (Ry)=  0.1000
                       cart. coord. in units 2pi/alat
        k(    1) = (   0.0000000   0.0000000   0.0000000), wk =   0.0095238
        k(    2) = (   0.0000000   0.0000000   0.1428571), wk =   0.0190476
        k(    3) = (   0.0000000   0.0000000   0.2857143), wk =   0.0190476
        k(    4) = (   0.0000000   0.0000000   0.4285714), wk =   0.0190476
        k(    5) = (   0.0000000   0.1666667   0.0000000), wk =   0.0190476
        k(    6) = (   0.0000000   0.1666667   0.1428571), wk =   0.0380952
        k(    7) = (   0.0000000   0.1666667   0.2857143), wk =   0.0380952
        k(    8) = (   0.0000000   0.1666667   0.4285714), wk =   0.0380952
        k(    9) = (   0.0000000   0.3333333   0.0000000), wk =   0.0190476
        k(   10) = (   0.0000000   0.3333333   0.1428571), wk =   0.0380952
        k(   11) = (   0.0000000   0.3333333   0.2857143), wk =   0.0380952
        k(   12) = (   0.0000000   0.3333333   0.4285714), wk =   0.0380952
        k(   13) = (   0.0000000  -0.5000000   0.0000000), wk =   0.0095238
        k(   14) = (   0.0000000  -0.5000000   0.1428571), wk =   0.0190476
        k(   15) = (   0.0000000  -0.5000000   0.2857143), wk =   0.0190476
        k(   16) = (   0.0000000  -0.5000000   0.4285714), wk =   0.0190476
        k(   17) = (   0.2000000   0.0000000   0.0000000), wk =   0.0190476
        k(   18) = (   0.2000000   0.0000000   0.1428571), wk =   0.0380952
        k(   19) = (   0.2000000   0.0000000   0.2857143), wk =   0.0380952
        k(   20) = (   0.2000000   0.0000000   0.4285714), wk =   0.0380952
        k(   21) = (   0.2000000   0.1666667   0.0000000), wk =   0.0380952
        k(   22) = (   0.2000000   0.1666667   0.1428571), wk =   0.0761905
        k(   23) = (   0.2000000   0.1666667   0.2857143), wk =   0.0761905
        k(   24) = (   0.2000000   0.1666667   0.4285714), wk =   0.0761905
        k(   25) = (   0.2000000   0.3333333   0.0000000), wk =   0.0380952
        k(   26) = (   0.2000000   0.3333333   0.1428571), wk =   0.0761905
        k(   27) = (   0.2000000   0.3333333   0.2857143), wk =   0.0761905
        k(   28) = (   0.2000000   0.3333333   0.4285714), wk =   0.0761905
        k(   29) = (   0.2000000  -0.5000000   0.0000000), wk =   0.0190476
        k(   30) = (   0.2000000  -0.5000000   0.1428571), wk =   0.0380952
        k(   31) = (   0.2000000  -0.5000000   0.2857143), wk =   0.0380952
        k(   32) = (   0.2000000  -0.5000000   0.4285714), wk =   0.0380952
        k(   33) = (   0.4000000   0.0000000   0.0000000), wk =   0.0190476
        k(   34) = (   0.4000000   0.0000000   0.1428571), wk =   0.0380952
        k(   35) = (   0.4000000   0.0000000   0.2857143), wk =   0.0380952
        k(   36) = (   0.4000000   0.0000000   0.4285714), wk =   0.0380952
        k(   37) = (   0.4000000   0.1666667   0.0000000), wk =   0.0380952
        k(   38) = (   0.4000000   0.1666667   0.1428571), wk =   0.0761905
        k(   39) = (   0.4000000   0.1666667   0.2857143), wk =   0.0761905
        k(   40) = (   0.4000000   0.1666667   0.4285714), wk =   0.0761905
        k(   41) = (   0.4000000   0.3333333   0.0000000), wk =   0.0380952
        k(   42) = (   0.4000000   0.3333333   0.1428571), wk =   0.0761905
        k(   43) = (   0.4000000   0.3333333   0.2857143), wk =   0.0761905
        k(   44) = (   0.4000000   0.3333333   0.4285714), wk =   0.0761905
        k(   45) = (   0.4000000  -0.5000000   0.0000000), wk =   0.0190476
        k(   46) = (   0.4000000  -0.5000000   0.1428571), wk =   0.0380952
        k(   47) = (   0.4000000  -0.5000000   0.2857143), wk =   0.0380952
        k(   48) = (   0.4000000  -0.5000000   0.4285714), wk =   0.0380952

     Largest allocated arrays     est. size (Mb)     dimensions
     Largest temporary arrays     est. size (Mb)     dimensions

     Initial potential from superposition of free atoms

     Starting from uniform charge
     Starting wfc are    0 randomized atomic wfcs

     Self-consistent Calculation

     iteration #  1     ecut=    40.00 Ry     beta=0.70
     CG style diagonalization
     c_bands:  2 eigenvalues not converged
     c_bands:  3 eigenvalues not converged
     c_bands:  1 eigenvalues not converged
     c_bands:  5 eigenvalues not converged
     c_bands:  2 eigenvalues not converged
     c_bands:  2 eigenvalues not converged
     c_bands:  2 eigenvalues not converged
     c_bands:  5 eigenvalues not converged
     c_bands:  3 eigenvalues not converged
     c_bands:  1 eigenvalues not converged
     c_bands:  2 eigenvalues not converged
     c_bands:  3 eigenvalues not converged
     c_bands:  3 eigenvalues not converged
     c_bands:  5 eigenvalues not converged
     c_bands:  5 eigenvalues not converged
     c_bands:  3 eigenvalues not converged
     c_bands:  3 eigenvalues not converged
     c_bands:  3 eigenvalues not converged
     c_bands:  2 eigenvalues not converged
     c_bands:  2 eigenvalues not converged
     c_bands:  2 eigenvalues not converged
     c_bands:  2 eigenvalues not converged
     c_bands:  1 eigenvalues not converged
     c_bands:  1 eigenvalues not converged
     c_bands:  5 eigenvalues not converged
     c_bands:  4 eigenvalues not converged
     c_bands:  4 eigenvalues not converged
     c_bands:  4 eigenvalues not converged
     c_bands:  3 eigenvalues not converged
     c_bands:  3 eigenvalues not converged
     c_bands:  2 eigenvalues not converged
     c_bands:  3 eigenvalues not converged
     c_bands:  1 eigenvalues not converged
     ethr =  1.00E-02,  avg # of iterations = 12.6

     total energy              =   -1480.71306301 Ry
     Harris-Foulkes estimate   =   -1818.73875530 Ry
     estimated scf accuracy    <     434.49086712 Ry

[...]

     iteration #  4     ecut=    40.00 Ry     beta=0.70
     CG style diagonalization
     ethr =  1.00E-02,  avg # of iterations =  3.9

[...]

     End of self-consistent calculation

          k = 0.0000 0.0000 0.0000 (  2601 PWs)   bands (ev):

   -32.9910 -32.7679 -32.7679 -31.9904 -31.9904 -31.9904  -7.7954  -7.5382
    -4.2030  -4.2030  -3.5027  -2.0560  -2.0560  -2.0560  -0.8431  -0.8431
    -0.8430  -0.8067  -0.8067  -0.8067  -0.4520  -0.4520  -0.4520   0.9333
     0.9333   0.9333  14.8487  14.8487  14.8487  15.0406  15.0406  15.0406
    29.9870  29.9870  30.3080  30.6333  30.6333  30.6333  32.4239  33.0250
    33.6568  33.6568  33.6568  34.0736  34.0736  34.6968  34.6968  34.6968
    35.0024  37.9866  37.9866  37.9866  38.7444  38.7445  39.1220  39.1220
    39.1220  39.5028  39.5028  39.5028  39.6548  39.6548  39.6548  40.1338
    40.1338  42.8471  42.8471  42.8471  43.4703  43.4703  46.2596  46.2596
    46.2596  48.8623  48.8624  48.8623  51.4017  51.4017  51.4017  52.4973
    52.5041  52.5041  52.5041  54.4245  54.4245  55.1625

[...]

     the Fermi energy is    46.3075 ev

!    total energy              =   -1629.66299041 Ry
     Harris-Foulkes estimate   =   -1629.66303620 Ry
     estimated scf accuracy    <       0.00005109 Ry

     The total energy is the sum of the following terms:

     one-electron contribution =     177.10214192 Ry
     hartree contribution      =     122.31822722 Ry
     xc contribution           =    -170.17205131 Ry
     ewald contribution        =   -1758.66597865 Ry
     smearing contrib. (-TS)   =      -0.24532959 Ry

     convergence has been achieved in   8 iterations

     Forces acting on atoms (Ry/au):

     atom    1 type  1   force =     0.00000000    0.00000000    0.00000000
[...]
        k(   46) = (   0.3635474  -0.4544343   0.1298384), wk =   0.0380952
        k(   47) = (   0.3635474  -0.4544343   0.2596767), wk =   0.0380952
        k(   48) = (   0.3635474  -0.4544343   0.3895151), wk =   0.0380952

[...]

     enthalpy old            =   -1629.6629904081 Ry
     enthalpy new            =   -1632.7067321906 Ry

     CASE: enthalpy_new < enthalpy_old

     small trust_radius: resetting bfgs history

     new trust radius        =       0.3699565943 bohr
     new conv_thr            =       0.0000010000 Ry

[...]

     number of scf cycles    =   3
     number of bfgs steps    =   2

     enthalpy old            =   -1632.7067321906 Ry
     enthalpy new            =   -1632.3041302411 Ry

     CASE: enthalpy_new > enthalpy_old

     new trust radius        =       0.0963544749 bohr

     trust_radius < trust_radius_min

     resetting bfgs history

     Message from routine bfgs:
     history already reset at previous step: stopping
     new conv_thr            =       0.0000010000 Ry

     new unit-cell volume =    987.30719 a.u.^3 (   146.30383 Ang^3 )

[...]

ATOMIC_POSITIONS (crystal)
Cr       0.000000000   0.500000000   0.250000000
Cr       0.000000000   0.500000000   0.750000000
Cr       0.500000000   0.750000000   0.000000000
Cr       0.500000000   0.250000000   0.000000000
Cr       0.750000000   0.000000000   0.500000000
Cr       0.250000000   0.000000000   0.500000000
Si       0.500000000   0.500000000   0.500000000
Si       0.000000000   0.000000000   0.000000000

     Writing output data file Prototype-La-cP8-Cr3Si.save
     NEW-OLD atomic charge density approx. for the potential
     NEW k-points:
        k(    1) = (   0.0000000   0.0000000   0.0000000), wk =   0.0095238
        k(    2) = (   0.0000000   0.0000000   0.1224427), wk =   0.0190476
        k(    3) = (   0.0000000   0.0000000   0.2448855), wk =   0.0190476
        k(    4) = (   0.0000000   0.0000000   0.3673282), wk =   0.0190476
        k(    5) = (   0.0000000   0.1428499   0.0000000), wk =   0.0190476
        k(    6) = (   0.0000000   0.1428499   0.1224427), wk =   0.0380952
        k(    7) = (   0.0000000   0.1428499   0.2448855), wk =   0.0380952
        k(    8) = (   0.0000000   0.1428499   0.3673282), wk =   0.0380952
        k(    9) = (   0.0000000   0.2856997   0.0000000), wk =   0.0190476
        k(   10) = (   0.0000000   0.2856997   0.1224427), wk =   0.0380952
        k(   11) = (   0.0000000   0.2856997   0.2448855), wk =   0.0380952
        k(   12) = (   0.0000000   0.2856997   0.3673282), wk =   0.0380952
        k(   13) = (   0.0000000  -0.4285496   0.0000000), wk =   0.0095238
        k(   14) = (   0.0000000  -0.4285496   0.1224427), wk =   0.0190476
        k(   15) = (   0.0000000  -0.4285496   0.2448855), wk =   0.0190476
        k(   16) = (   0.0000000  -0.4285496   0.3673282), wk =   0.0190476
        k(   17) = (   0.1714198   0.0000000   0.0000000), wk =   0.0190476
        k(   18) = (   0.1714198   0.0000000   0.1224427), wk =   0.0380952
        k(   19) = (   0.1714198   0.0000000   0.2448855), wk =   0.0380952
        k(   20) = (   0.1714198   0.0000000   0.3673282), wk =   0.0380952
        k(   21) = (   0.1714198   0.1428499   0.0000000), wk =   0.0380952
        k(   22) = (   0.1714198   0.1428499   0.1224427), wk =   0.0761905
        k(   23) = (   0.1714198   0.1428499   0.2448855), wk =   0.0761905
        k(   24) = (   0.1714198   0.1428499   0.3673282), wk =   0.0761905
        k(   25) = (   0.1714198   0.2856997   0.0000000), wk =   0.0380952
        k(   26) = (   0.1714198   0.2856997   0.1224427), wk =   0.0761905
        k(   27) = (   0.1714198   0.2856997   0.2448855), wk =   0.0761905
        k(   28) = (   0.1714198   0.2856997   0.3673282), wk =   0.0761905
        k(   29) = (   0.1714198  -0.4285496   0.0000000), wk =   0.0190476
        k(   30) = (   0.1714198  -0.4285496   0.1224427), wk =   0.0380952
        k(   31) = (   0.1714198  -0.4285496   0.2448855), wk =   0.0380952
        k(   32) = (   0.1714198  -0.4285496   0.3673282), wk =   0.0380952
        k(   33) = (   0.3428396   0.0000000   0.0000000), wk =   0.0190476
        k(   34) = (   0.3428396   0.0000000   0.1224427), wk =   0.0380952
        k(   35) = (   0.3428396   0.0000000   0.2448855), wk =   0.0380952
        k(   36) = (   0.3428396   0.0000000   0.3673282), wk =   0.0380952
        k(   37) = (   0.3428396   0.1428499   0.0000000), wk =   0.0380952
        k(   38) = (   0.3428396   0.1428499   0.1224427), wk =   0.0761905
        k(   39) = (   0.3428396   0.1428499   0.2448855), wk =   0.0761905
        k(   40) = (   0.3428396   0.1428499   0.3673282), wk =   0.0761905
        k(   41) = (   0.3428396   0.2856997   0.0000000), wk =   0.0380952
        k(   42) = (   0.3428396   0.2856997   0.1224427), wk =   0.0761905
        k(   43) = (   0.3428396   0.2856997   0.2448855), wk =   0.0761905
        k(   44) = (   0.3428396   0.2856997   0.3673282), wk =   0.0761905
        k(   45) = (   0.3428396  -0.4285496   0.0000000), wk =   0.0190476
        k(   46) = (   0.3428396  -0.4285496   0.1224427), wk =   0.0380952
        k(   47) = (   0.3428396  -0.4285496   0.2448855), wk =   0.0380952
        k(   48) = (   0.3428396  -0.4285496   0.3673282), wk =   0.0380952

[...]

     The maximum number of steps has been reached.

     End of BFGS Geometry Optimization
Begin final coordinates
     new unit-cell volume =    987.30719 a.u.^3 (   146.30383 Ang^3 )

CELL_PARAMETERS (alat=  8.53457320)
   1.166726224   0.000000000   0.000000000
   0.000000000   1.166726224   0.000000000
   0.000000000   0.000000000   1.166726224

ATOMIC_POSITIONS (crystal)
Cr       0.000000000   0.500000000   0.250000000
Cr       0.000000000   0.500000000   0.750000000
Cr       0.500000000   0.750000000   0.000000000
Cr       0.500000000   0.250000000   0.000000000
Cr       0.750000000   0.000000000   0.500000000
Cr       0.250000000   0.000000000   0.500000000
Si       0.500000000   0.500000000   0.500000000
Si       0.000000000   0.000000000   0.000000000
End final coordinates

     A final scf calculation at the relaxed structure.
     The G-vectors are recalculated for the final unit cell
     Results may differ from those at the preceding step.

     bravais-lattice index     =            0
     lattice parameter (alat)  =       8.5346  a.u.
     unit-cell volume          =     987.3072 (a.u.)^3
     number of atoms/cell      =            8
     number of atomic types    =            2
     number of electrons       =       144.00
     number of Kohn-Sham states=           86
     kinetic-energy cutoff     =      40.0000  Ry
     charge density cutoff     =     160.0000  Ry
     convergence threshold     =      1.0E-06
     mixing beta               =       0.7000
     number of iterations used =            8  plain     mixing
     Exchange-correlation      = SLA-PZ-NOGX-NOGC ( 1 1 0 0 0)
     EXX-fraction              =        0.00

     celldm(1)=   8.534573  celldm(2)=   0.000000  celldm(3)=   0.000000
     celldm(4)=   0.000000  celldm(5)=   0.000000  celldm(6)=   0.000000

     crystal axes: (cart. coord. in units of alat)
               a(1) = (   1.166726   0.000000   0.000000 )
               a(2) = (   0.000000   1.166726   0.000000 )
               a(3) = (   0.000000   0.000000   1.166726 )

     reciprocal axes: (cart. coord. in units 2 pi/alat)
               b(1) = (  0.857099  0.000000  0.000000 )
               b(2) = (  0.000000  0.857099  0.000000 )
               b(3) = (  0.000000  0.000000  0.857099 )

     PseudoPot. # 1 for Tb read from file:
     /home/jld5415/pp.La/Tb.UPF
     MD5 check sum: 3d6088a3f0cf7fd2e110c43f7f8e95c2
     Pseudo is Norm-conserving, Zval = 19.0
     Generated in analytical, separable form
     Using radial grid of 1263 points,  6 beta functions with:
                l(1) =   0
                l(2) =   0
                l(3) =   1
                l(4) =   1
                l(5) =   2
                l(6) =   3

     PseudoPot. # 2 for Pm read from file:
     /home/jld5415/pp.La/Pm.UPF
     MD5 check sum: 0061344aafc48faba5d75831754de21b
     Pseudo is Norm-conserving, Zval = 15.0
     Generated in analytical, separable form
     Using radial grid of 1259 points,  6 beta functions with:
                l(1) =   0
                l(2) =   0
                l(3) =   1
                l(4) =   1
                l(5) =   2
                l(6) =   3

     atomic species   valence    mass     pseudopotential
        Cr            19.00    51.99610     Tb( 1.00)
        Si            15.00    28.08550     Pm( 1.00)

     48 Sym. Ops., with inversion, found (24 have fractional translation)

   Cartesian axes

     site n.     atom                  positions (alat units)
         1           Cr  tau(   1) = (   0.0000000   0.5833631   0.2916816  )
         2           Cr  tau(   2) = (   0.0000000   0.5833631   0.8750447  )
         3           Cr  tau(   3) = (   0.5833631   0.8750447   0.0000000  )
         4           Cr  tau(   4) = (   0.5833631   0.2916816   0.0000000  )
         5           Cr  tau(   5) = (   0.8750447   0.0000000   0.5833631  )
         6           Cr  tau(   6) = (   0.2916816   0.0000000   0.5833631  )
         7           Si  tau(   7) = (   0.5833631   0.5833631   0.5833631  )
         8           Si  tau(   8) = (   0.0000000   0.0000000   0.0000000  )

     number of k points=    48  gaussian smearing, width (Ry)=  0.1000
                       cart. coord. in units 2pi/alat
        k(    1) = (   0.0000000   0.0000000   0.0000000), wk =   0.0095238
        k(    2) = (   0.0000000   0.0000000   0.1224427), wk =   0.0190476
        k(    3) = (   0.0000000   0.0000000   0.2448855), wk =   0.0190476
        k(    4) = (   0.0000000   0.0000000   0.3673282), wk =   0.0190476
        k(    5) = (   0.0000000   0.1428499   0.0000000), wk =   0.0190476
        k(    6) = (   0.0000000   0.1428499   0.1224427), wk =   0.0380952
        k(    7) = (   0.0000000   0.1428499   0.2448855), wk =   0.0380952
        k(    8) = (   0.0000000   0.1428499   0.3673282), wk =   0.0380952
        k(    9) = (   0.0000000   0.2856997   0.0000000), wk =   0.0190476
        k(   10) = (   0.0000000   0.2856997   0.1224427), wk =   0.0380952
        k(   11) = (   0.0000000   0.2856997   0.2448855), wk =   0.0380952
        k(   12) = (   0.0000000   0.2856997   0.3673282), wk =   0.0380952
        k(   13) = (   0.0000000  -0.4285496   0.0000000), wk =   0.0095238
        k(   14) = (   0.0000000  -0.4285496   0.1224427), wk =   0.0190476
        k(   15) = (   0.0000000  -0.4285496   0.2448855), wk =   0.0190476
        k(   16) = (   0.0000000  -0.4285496   0.3673282), wk =   0.0190476
        k(   17) = (   0.1714198   0.0000000   0.0000000), wk =   0.0190476
        k(   18) = (   0.1714198   0.0000000   0.1224427), wk =   0.0380952
        k(   19) = (   0.1714198   0.0000000   0.2448855), wk =   0.0380952
        k(   20) = (   0.1714198   0.0000000   0.3673282), wk =   0.0380952
        k(   21) = (   0.1714198   0.1428499   0.0000000), wk =   0.0380952
        k(   22) = (   0.1714198   0.1428499   0.1224427), wk =   0.0761905
        k(   23) = (   0.1714198   0.1428499   0.2448855), wk =   0.0761905
        k(   24) = (   0.1714198   0.1428499   0.3673282), wk =   0.0761905
        k(   25) = (   0.1714198   0.2856997   0.0000000), wk =   0.0380952
        k(   26) = (   0.1714198   0.2856997   0.1224427), wk =   0.0761905
        k(   27) = (   0.1714198   0.2856997   0.2448855), wk =   0.0761905
        k(   28) = (   0.1714198   0.2856997   0.3673282), wk =   0.0761905
        k(   29) = (   0.1714198  -0.4285496   0.0000000), wk =   0.0190476
        k(   30) = (   0.1714198  -0.4285496   0.1224427), wk =   0.0380952
        k(   31) = (   0.1714198  -0.4285496   0.2448855), wk =   0.0380952
        k(   32) = (   0.1714198  -0.4285496   0.3673282), wk =   0.0380952
        k(   33) = (   0.3428396   0.0000000   0.0000000), wk =   0.0190476
        k(   34) = (   0.3428396   0.0000000   0.1224427), wk =   0.0380952
        k(   35) = (   0.3428396   0.0000000   0.2448855), wk =   0.0380952
        k(   36) = (   0.3428396   0.0000000   0.3673282), wk =   0.0380952
        k(   37) = (   0.3428396   0.1428499   0.0000000), wk =   0.0380952
        k(   38) = (   0.3428396   0.1428499   0.1224427), wk =   0.0761905
        k(   39) = (   0.3428396   0.1428499   0.2448855), wk =   0.0761905
        k(   40) = (   0.3428396   0.1428499   0.3673282), wk =   0.0761905
        k(   41) = (   0.3428396   0.2856997   0.0000000), wk =   0.0380952
        k(   42) = (   0.3428396   0.2856997   0.1224427), wk =   0.0761905
        k(   43) = (   0.3428396   0.2856997   0.2448855), wk =   0.0761905
        k(   44) = (   0.3428396   0.2856997   0.3673282), wk =   0.0761905
        k(   45) = (   0.3428396  -0.4285496   0.0000000), wk =   0.0190476
        k(   46) = (   0.3428396  -0.4285496   0.1224427), wk =   0.0380952
        k(   47) = (   0.3428396  -0.4285496   0.2448855), wk =   0.0380952
        k(   48) = (   0.3428396  -0.4285496   0.3673282), wk =   0.0380952

     Largest allocated arrays     est. size (Mb)     dimensions
     Largest temporary arrays     est. size (Mb)     dimensions

     Initial potential from superposition of free atoms

     Starting from uniform charge
     Starting wfc are    0 randomized atomic wfcs

     Writing output data file Prototype-La-cP8-Cr3Si.save

     Self-consistent Calculation

[...]

     iteration # 10     ecut=    40.00 Ry     beta=0.70
     CG style diagonalization
     c_bands:  1 eigenvalues not converged
     ethr =  9.84E-08,  avg # of iterations =  3.5

[...]

     total energy              =   -1635.82231830 Ry
     Harris-Foulkes estimate   =   -1635.82232170 Ry
     estimated scf accuracy    <       0.00000726 Ry

     iteration # 12     ecut=    40.00 Ry     beta=0.70
     CG style diagonalization
     ethr =  4.01E-09,  avg # of iterations =  3.5

     End of self-consistent calculation

[...]

          k = 0.3428-0.4285 0.3673 (  4226 PWs)   bands (ev):

   -48.7187 -48.7126 -48.6968 -48.6967 -48.6814 -48.6751 -25.6617 -25.6617
   -17.4801 -17.4213 -17.2803 -17.2798 -17.1366 -17.1228 -17.1220 -17.0918
   -17.0243 -17.0083 -16.9980 -16.9871 -16.9639 -16.9570 -16.9411 -16.9371
   -16.9239 -16.9228  -2.4259  -2.4251  -2.4205  -2.4204  -2.4167  -2.4166
    18.5802  18.5968  18.6639  18.7365  18.8278  18.8376  19.1758  19.2708
    19.3503  19.3776  19.3939  19.4023  19.4803  19.4893  19.5256  19.6176
    20.2318  20.2387  20.3879  20.4452  20.7162  20.7348  21.2580  21.4165
    21.5318  21.5849  21.7916  21.8160  21.9895  22.0533  24.0776  24.0780
    24.4750  24.5409  24.6831  24.8335  26.8125  26.8154  26.9875  27.0077
    27.1085  27.1230  27.1665  27.3732  28.0196  28.0584  28.7624  28.9892
    34.2361  34.5324  35.3301  35.4429  36.0325  36.2625

     the Fermi energy is    26.9540 ev

!    total energy              =   -1635.82231879 Ry
     Harris-Foulkes estimate   =   -1635.82231928 Ry
     estimated scf accuracy    <       0.00000053 Ry

     The total energy is the sum of the following terms:

     one-electron contribution =    -172.07780300 Ry
     hartree contribution      =     206.53537064 Ry
     xc contribution           =    -162.54732328 Ry
     ewald contribution        =   -1507.35103216 Ry
     smearing contrib. (-TS)   =      -0.38153099 Ry

     convergence has been achieved in  12 iterations

     Forces acting on atoms (Ry/au):

     atom    1 type  1   force =     0.00000000    0.00000000    0.00000000
     atom    2 type  1   force =     0.00000000    0.00000000    0.00000000
     atom    3 type  1   force =     0.00000000    0.00000000    0.00000000
     atom    4 type  1   force =     0.00000000    0.00000000    0.00000000
     atom    5 type  1   force =     0.00000000    0.00000000    0.00000000
     atom    6 type  1   force =     0.00000000    0.00000000    0.00000000
     atom    7 type  2   force =     0.00000000    0.00000000    0.00000000
     atom    8 type  2   force =     0.00000000    0.00000000    0.00000000

     Total force =     0.000000     Total SCF correction =     0.000000

     entering subroutine stress ...

          total   stress  (Ry/bohr**3)                   (kbar)     P=   49.67
   0.00033767   0.00000000   0.00000000         49.67      0.00      0.00
   0.00000000   0.00033767   0.00000000          0.00     49.67      0.00
   0.00000000   0.00000000   0.00033767          0.00      0.00     49.67

     Writing output data file Prototype-La-cP8-Cr3Si.save

     General routines

     Parallel routines

   This run was terminated on:  18: 4:46  22Mar2018

   JOB DONE.