     Program PWSCF v.5.0.2 starts on 22Mar2018 at 17:36:45

     Current dimensions of program PWSCF are:
     Max number of different atomic species (ntypx) = 10
     Max number of k-points (npk) =  40000
     Max angular momentum in pseudopotentials (lmaxx) =  3
     Waiting for input...
     Reading input from standard input

     Subspace diagonalization in iterative solution of the eigenvalue problem:
     a serial algorithm will be used

     bravais-lattice index     =            0
     lattice parameter (alat)  =       9.9235  a.u.
     unit-cell volume          =    1361.0366 (a.u.)^3
     number of atoms/cell      =           12
     number of atomic types    =            2
     number of electrons       =       196.00
     number of Kohn-Sham states=          118
     kinetic-energy cutoff     =      40.0000  Ry
     charge density cutoff     =     160.0000  Ry
     convergence threshold     =      1.0E-04
     mixing beta               =       0.7000
     number of iterations used =            8  plain     mixing
     Exchange-correlation      = SLA-PZ-NOGX-NOGC ( 1 1 0 0 0)
     EXX-fraction              =        0.00
     nstep                     =           50

     celldm(1)=   9.923489  celldm(2)=   0.000000  celldm(3)=   0.000000
     celldm(4)=   0.000000  celldm(5)=   0.000000  celldm(6)=   0.000000

     crystal axes: (cart. coord. in units of alat)
               a(1) = (   1.000000   0.000000   0.000000 )
               a(2) = (  -0.500000   0.866025   0.000000 )
               a(3) = (   0.000000   0.000000   1.608222 )

     reciprocal axes: (cart. coord. in units 2 pi/alat)
               b(1) = (  1.000000  0.577350  0.000000 )
               b(2) = (  0.000000  1.154701  0.000000 )
               b(3) = (  0.000000  0.000000  0.621805 )

     PseudoPot. # 1 for Tb read from file:
     /home/jld5415/pp.La/Tb.UPF
     MD5 check sum: 3d6088a3f0cf7fd2e110c43f7f8e95c2
     Pseudo is Norm-conserving, Zval = 19.0
     Generated in analytical, separable form
     Using radial grid of 1263 points,  6 beta functions with:
                l(1) =   0
                l(2) =   0
                l(3) =   1
                l(4) =   1
                l(5) =   2
                l(6) =   3

     PseudoPot. # 2 for Pm read from file:
     /home/jld5415/pp.La/Pm.UPF
     MD5 check sum: 0061344aafc48faba5d75831754de21b
     Pseudo is Norm-conserving, Zval = 15.0
     Generated in analytical, separable form
     Using radial grid of 1259 points,  6 beta functions with:
                l(1) =   0
                l(2) =   0
                l(3) =   1
                l(4) =   1
                l(5) =   2
                l(6) =   3

     atomic species   valence    mass     pseudopotential
        Mg            19.00    24.30500     Tb( 1.00)
        Zn            15.00    65.39000     Pm( 1.00)

     24 Sym. Ops., with inversion, found (12 have fractional translation)

   Cartesian axes

     site n.     atom                  positions (alat units)
         1           Mg  tau(   1) = (  -0.0000005   0.5773506   0.1003820  )
         2           Mg  tau(   2) = (   0.5000005   0.2886748   0.9044931  )
         3           Mg  tau(   3) = (   0.5000005   0.2886748   1.5078402  )
         4           Mg  tau(   4) = (  -0.0000005   0.5773506   0.7037291  )
         5           Zn  tau(   5) = (   0.0000000   0.0000000   0.0000000  )
         6           Zn  tau(   6) = (   0.0000000   0.0000000   0.8041111  )
         7           Zn  tau(   7) = (   0.0000000   0.2950739   1.2061667  )
         8           Zn  tau(   8) = (   0.7444585   0.1475370   0.4020556  )
         9           Zn  tau(   9) = (   0.2555415   0.1475370   0.4020556  )
        10           Zn  tau(  10) = (   0.2444585   0.7184884   1.2061667  )
        11           Zn  tau(  11) = (  -0.2444585   0.7184884   1.2061667  )
        12           Zn  tau(  12) = (   0.5000000   0.5709515   0.4020556  )

     number of k points=    12  gaussian smearing, width (Ry)=  0.1000
                       cart. coord. in units 2pi/alat
        k(    1) = (   0.0000000   0.0000000   0.0000000), wk =   0.0833333
        k(    2) = (   0.0000000   0.0000000   0.1554512), wk =   0.1666667
        k(    3) = (   0.0000000   0.0000000  -0.3109023), wk =   0.0833333
        k(    4) = (   0.0000000   0.3849002   0.0000000), wk =   0.1666667
        k(    5) = (   0.0000000   0.3849002   0.1554512), wk =   0.3333333
        k(    6) = (   0.0000000   0.3849002  -0.3109023), wk =   0.1666667
        k(    7) = (  -0.5000000  -0.2886751   0.0000000), wk =   0.0833333
        k(    8) = (  -0.5000000  -0.2886751   0.1554512), wk =   0.1666667
        k(    9) = (  -0.5000000  -0.2886751  -0.3109023), wk =   0.0833333
        k(   10) = (  -0.5000000   0.0962250   0.0000000), wk =   0.1666667
        k(   11) = (  -0.5000000   0.0962250   0.1554512), wk =   0.3333333
        k(   12) = (  -0.5000000   0.0962250  -0.3109023), wk =   0.1666667

     Largest allocated arrays     est. size (Mb)     dimensions
     Largest temporary arrays     est. size (Mb)     dimensions

     Initial potential from superposition of free atoms

     Starting from uniform charge
     Starting wfc are    0 randomized atomic wfcs

     Self-consistent Calculation

     iteration #  1     ecut=    40.00 Ry     beta=0.70
     CG style diagonalization
     ethr =  1.00E-02,  avg # of iterations = 16.9

     total energy              =   -1247.06655429 Ry
     Harris-Foulkes estimate   =   -2269.39066840 Ry
     estimated scf accuracy    <    1259.84033014 Ry

[...]

     iteration #  9     ecut=    40.00 Ry     beta=0.70
     CG style diagonalization
     c_bands:  1 eigenvalues not converged
     ethr =  1.24E-05,  avg # of iterations =  4.3

[...]

     End of self-consistent calculation

          k = 0.0000 0.0000 0.0000 (  5769 PWs)   bands (ev):

   -46.3391 -46.3350 -46.3332 -46.3229 -24.7833 -24.5178 -23.9295 -23.6206
   -23.6144 -23.6143 -23.6114 -23.6114 -14.7757 -14.7720 -14.7617 -14.7617
   -14.7285 -14.7285 -14.6606 -14.6362 -14.6201 -14.6201 -14.6194 -14.6194
    -4.4868  -3.8096  -3.0347  -2.0758  -2.0758  -1.8899  -1.8899  -1.7395
    -1.7394  -1.1761  -0.5212  -0.5211  -0.5171  -0.5170  -0.3891   0.7049
     0.7056   0.7452   0.7463   0.7463   1.0271   1.0271   1.1533   1.1533
    19.5451  20.3735  20.5392  21.0947  21.0947  21.2215  21.6825  21.6825
    21.7790  21.8574  21.8575  21.8624  21.9752  22.0087  22.2863  22.2863
    22.3152  22.3152  22.3460  22.3461  22.7869  22.7870  23.0682  23.0683
    23.4670  23.5857  23.5857  23.8778  23.8778  24.0456  24.0456  24.4822
    24.9910  24.9910  25.1923  26.0909  26.0909  26.1790  26.6004  26.6005
    27.2842  27.2842  28.1925  28.4988  29.0082  29.0082  29.3679  29.3952
    30.0625  30.4678  30.4678  30.5578  30.5579  30.7237  30.7237  31.2069
    31.2069  31.3478  33.2328  33.2329  33.3170  33.3170  33.4458  34.0394
    34.7411  34.7411  35.0350  35.3917  35.3918  36.6889

[...]

          k =-0.5000-0.2887 0.0000 (  5800 PWs)   bands (ev):

[...]

     the Fermi energy is    29.3221 ev

!    total energy              =   -1955.59956012 Ry
     Harris-Foulkes estimate   =   -1955.59956059 Ry
     estimated scf accuracy    <       0.00000066 Ry

     The total energy is the sum of the following terms:

     one-electron contribution =     -21.88244193 Ry
     hartree contribution      =     195.51927441 Ry
     xc contribution           =    -209.57036713 Ry
     ewald contribution        =   -1919.06529570 Ry
     smearing contrib. (-TS)   =      -0.60072977 Ry

     convergence has been achieved in  12 iterations

     Forces acting on atoms (Ry/au):

     atom    1 type  1   force =     0.00000000    0.00000000    0.02667495
     atom    2 type  1   force =     0.00000000    0.00000000    0.02667495
     atom    3 type  1   force =     0.00000000    0.00000000   -0.02667495
     atom    4 type  1   force =     0.00000000    0.00000000   -0.02667495
     atom    5 type  2   force =     0.00000000    0.00000000    0.00000000
     atom    6 type  2   force =     0.00000000    0.00000000    0.00000000
     atom    7 type  2   force =     0.00000000    0.05281659    0.00000000
     atom    8 type  2   force =    -0.04574051    0.02640829    0.00000000
     atom    9 type  2   force =     0.04574051    0.02640829    0.00000000
     atom   10 type  2   force =    -0.04574051   -0.02640829    0.00000000
     atom   11 type  2   force =     0.04574051   -0.02640829    0.00000000
     atom   12 type  2   force =     0.00000000   -0.05281659    0.00000000

     Total force =     0.139942     Total SCF correction =     0.000000

     entering subroutine stress ...

          total   stress  (Ry/bohr**3)                   (kbar)     P=  690.08
   0.00460239   0.00000000   0.00000000        677.03      0.00      0.00
   0.00000000   0.00460239   0.00000000          0.00    677.03      0.00
   0.00000000   0.00000000   0.00486853          0.00      0.00    716.18

     BFGS Geometry Optimization

     number of scf cycles    =   1
     number of bfgs steps    =   0

     enthalpy new            =   -1955.5995601188 Ry

     new trust radius        =       0.5000000000 bohr
     new conv_thr            =       0.0001000000 Ry

     new unit-cell volume =   1645.42529 a.u.^3 (   243.82687 Ang^3 )

CELL_PARAMETERS (alat=  9.92348860)
   1.064060560   0.000000000   0.000000000
  -0.532030280   0.921503476   0.000000000
   0.000000000   0.000000000   1.717203317

ATOMIC_POSITIONS (crystal)
Mg       0.333333000   0.666667000   0.063348595
Mg       0.666667000   0.333333000   0.563348595
Mg       0.666667000   0.333333000   0.936651405
Mg       0.333333000   0.666667000   0.436651405
Zn       0.000000000   0.000000000   0.000000000
Zn       0.000000000   0.000000000   0.500000000
Zn       0.172071854   0.344143708   0.750000000
Zn       0.827928146   0.172071854   0.250000000
Zn       0.344143708   0.172071854   0.250000000
Zn       0.655856292   0.827928146   0.750000000
Zn       0.172071854   0.827928146   0.750000000
Zn       0.827928146   0.655856292   0.250000000

     Writing output data file Prototype-La-hP12-MgZn2.save
     NEW-OLD atomic charge density approx. for the potential
     NEW k-points:
        k(    1) = (   0.0000000   0.0000000   0.0000000), wk =   0.0833333
        k(    2) = (   0.0000000   0.0000000   0.1455856), wk =   0.1666667
        k(    3) = (   0.0000000   0.0000000  -0.2911711), wk =   0.0833333
        k(    4) = (   0.0000000   0.3617277   0.0000000), wk =   0.1666667
        k(    5) = (   0.0000000   0.3617277   0.1455856), wk =   0.3333333
        k(    6) = (   0.0000000   0.3617277  -0.2911711), wk =   0.1666667
        k(    7) = (  -0.4698981  -0.2712958   0.0000000), wk =   0.0833333
        k(    8) = (  -0.4698981  -0.2712958   0.1455856), wk =   0.1666667
        k(    9) = (  -0.4698981  -0.2712958  -0.2911711), wk =   0.0833333
        k(   10) = (  -0.4698981   0.0904319   0.0000000), wk =   0.1666667
        k(   11) = (  -0.4698981   0.0904319   0.1455856), wk =   0.3333333
        k(   12) = (  -0.4698981   0.0904319  -0.2911711), wk =   0.1666667

[...]

     enthalpy old            =   -1955.5995601188 Ry
     enthalpy new            =   -1955.8867819236 Ry

     CASE: enthalpy_new < enthalpy_old

     small trust_radius: resetting bfgs history

     new trust radius        =       0.3826616942 bohr
     new conv_thr            =       0.0000119410 Ry

[...]

     number of scf cycles    =   3
     number of bfgs steps    =   2

     enthalpy old            =   -1955.8867819236 Ry
     enthalpy new            =   -1955.8459905226 Ry

     CASE: enthalpy_new > enthalpy_old

     new trust radius        =       0.1706686446 bohr

     trust_radius < trust_radius_min

     resetting bfgs history

     Message from routine bfgs:
     history already reset at previous step: stopping
     new conv_thr            =       0.0000119410 Ry

     new unit-cell volume =   1416.38724 a.u.^3 (   209.88693 Ang^3 )

[...]

ATOMIC_POSITIONS (crystal)
Mg       0.333333000   0.666667000   0.064120423
Mg       0.666667000   0.333333000   0.564120423
Mg       0.666667000   0.333333000   0.935879577
Mg       0.333333000   0.666667000   0.435879577
Zn       0.000000000   0.000000000   0.000000000
Zn       0.000000000   0.000000000   0.500000000
Zn       0.171862026   0.343724053   0.750000000
Zn       0.828137974   0.171862026   0.250000000
Zn       0.343724053   0.171862026   0.250000000
Zn       0.656275947   0.828137974   0.750000000
Zn       0.171862026   0.828137974   0.750000000
Zn       0.828137974   0.656275947   0.250000000

     Writing output data file Prototype-La-hP12-MgZn2.save
     NEW-OLD atomic charge density approx. for the potential
     NEW k-points:
        k(    1) = (   0.0000000   0.0000000   0.0000000), wk =   0.0833333
        k(    2) = (   0.0000000   0.0000000   0.1531503), wk =   0.1666667
        k(    3) = (   0.0000000   0.0000000  -0.3063006), wk =   0.0833333
        k(    4) = (   0.0000000   0.3801282   0.0000000), wk =   0.1666667
        k(    5) = (   0.0000000   0.3801282   0.1531503), wk =   0.3333333
        k(    6) = (   0.0000000   0.3801282  -0.3063006), wk =   0.1666667
        k(    7) = (  -0.4938010  -0.2850961   0.0000000), wk =   0.0833333
        k(    8) = (  -0.4938010  -0.2850961   0.1531503), wk =   0.1666667
        k(    9) = (  -0.4938010  -0.2850961  -0.3063006), wk =   0.0833333
        k(   10) = (  -0.4938010   0.0950320   0.0000000), wk =   0.1666667
        k(   11) = (  -0.4938010   0.0950320   0.1531503), wk =   0.3333333
        k(   12) = (  -0.4938010   0.0950320  -0.3063006), wk =   0.1666667

[...]

     The maximum number of steps has been reached.

     End of BFGS Geometry Optimization
Begin final coordinates
     new unit-cell volume =   1416.38724 a.u.^3 (   209.88693 Ang^3 )

CELL_PARAMETERS (alat=  9.92348860)
   1.012553714   0.000000000   0.000000000
  -0.506276857   0.876897239   0.000000000
   0.000000000   0.000000000   1.632383165

ATOMIC_POSITIONS (crystal)
Mg       0.333333000   0.666667000   0.064120423
Mg       0.666667000   0.333333000   0.564120423
Mg       0.666667000   0.333333000   0.935879577
Mg       0.333333000   0.666667000   0.435879577
Zn       0.000000000   0.000000000   0.000000000
Zn       0.000000000   0.000000000   0.500000000
Zn       0.171862026   0.343724053   0.750000000
Zn       0.828137974   0.171862026   0.250000000
Zn       0.343724053   0.171862026   0.250000000
Zn       0.656275947   0.828137974   0.750000000
Zn       0.171862026   0.828137974   0.750000000
Zn       0.828137974   0.656275947   0.250000000
End final coordinates

     A final scf calculation at the relaxed structure.
     The G-vectors are recalculated for the final unit cell
     Results may differ from those at the preceding step.

     bravais-lattice index     =            0
     lattice parameter (alat)  =       9.9235  a.u.
     unit-cell volume          =    1416.3872 (a.u.)^3
     number of atoms/cell      =           12
     number of atomic types    =            2
     number of electrons       =       196.00
     number of Kohn-Sham states=          118
     kinetic-energy cutoff     =      40.0000  Ry
     charge density cutoff     =     160.0000  Ry
     convergence threshold     =      1.2E-05
     mixing beta               =       0.7000
     number of iterations used =            8  plain     mixing
     Exchange-correlation      = SLA-PZ-NOGX-NOGC ( 1 1 0 0 0)
     EXX-fraction              =        0.00

     celldm(1)=   9.923489  celldm(2)=   0.000000  celldm(3)=   0.000000
     celldm(4)=   0.000000  celldm(5)=   0.000000  celldm(6)=   0.000000

     crystal axes: (cart. coord. in units of alat)
               a(1) = (   1.012554   0.000000   0.000000 )
               a(2) = (  -0.506277   0.876897   0.000000 )
               a(3) = (   0.000000   0.000000   1.632383 )

     reciprocal axes: (cart. coord. in units 2 pi/alat)
               b(1) = (  0.987602  0.570192  0.000000 )
               b(2) = (  0.000000  1.140384  0.000000 )
               b(3) = (  0.000000  0.000000  0.612601 )

     PseudoPot. # 1 for Tb read from file:
     /home/jld5415/pp.La/Tb.UPF
     MD5 check sum: 3d6088a3f0cf7fd2e110c43f7f8e95c2
     Pseudo is Norm-conserving, Zval = 19.0
     Generated in analytical, separable form
     Using radial grid of 1263 points,  6 beta functions with:
                l(1) =   0
                l(2) =   0
                l(3) =   1
                l(4) =   1
                l(5) =   2
                l(6) =   3

     PseudoPot. # 2 for Pm read from file:
     /home/jld5415/pp.La/Pm.UPF
     MD5 check sum: 0061344aafc48faba5d75831754de21b
     Pseudo is Norm-conserving, Zval = 15.0
     Generated in analytical, separable form
     Using radial grid of 1259 points,  6 beta functions with:
                l(1) =   0
                l(2) =   0
                l(3) =   1
                l(4) =   1
                l(5) =   2
                l(6) =   3

     atomic species   valence    mass     pseudopotential
        Mg            19.00    24.30500     Tb( 1.00)
        Zn            15.00    65.39000     Pm( 1.00)

     24 Sym. Ops., with inversion, found (12 have fractional translation)

   Cartesian axes

     site n.     atom                  positions (alat units)
         1           Mg  tau(   1) = (  -0.0000005   0.5845985   0.1046691  )
         2           Mg  tau(   2) = (   0.5062774   0.2922988   0.9208607  )
         3           Mg  tau(   3) = (   0.5062774   0.2922988   1.5277141  )
         4           Mg  tau(   4) = (  -0.0000005   0.5845985   0.7115225  )
         5           Zn  tau(   5) = (   0.0000000   0.0000000   0.0000000  )
         6           Zn  tau(   6) = (   0.0000000   0.0000000   0.8161916  )
         7           Zn  tau(   7) = (   0.0000000   0.3014107   1.2242874  )
         8           Zn  tau(   8) = (   0.7515244   0.1507053   0.4080958  )
         9           Zn  tau(   9) = (   0.2610293   0.1507053   0.4080958  )
        10           Zn  tau(  10) = (   0.2452476   0.7261919   1.2242874  )
        11           Zn  tau(  11) = (  -0.2452476   0.7261919   1.2242874  )
        12           Zn  tau(  12) = (   0.5062769   0.5754866   0.4080958  )

     number of k points=    12  gaussian smearing, width (Ry)=  0.1000
                       cart. coord. in units 2pi/alat
        k(    1) = (   0.0000000   0.0000000   0.0000000), wk =   0.0833333
        k(    2) = (   0.0000000   0.0000000   0.1531503), wk =   0.1666667
        k(    3) = (   0.0000000   0.0000000  -0.3063006), wk =   0.0833333
        k(    4) = (   0.0000000   0.3801282   0.0000000), wk =   0.1666667
        k(    5) = (   0.0000000   0.3801282   0.1531503), wk =   0.3333333
        k(    6) = (   0.0000000   0.3801282  -0.3063006), wk =   0.1666667
        k(    7) = (  -0.4938010  -0.2850961   0.0000000), wk =   0.0833333
        k(    8) = (  -0.4938010  -0.2850961   0.1531503), wk =   0.1666667
        k(    9) = (  -0.4938010  -0.2850961  -0.3063006), wk =   0.0833333
        k(   10) = (  -0.4938010   0.0950320   0.0000000), wk =   0.1666667
        k(   11) = (  -0.4938010   0.0950320   0.1531503), wk =   0.3333333
        k(   12) = (  -0.4938010   0.0950320  -0.3063006), wk =   0.1666667

     Largest allocated arrays     est. size (Mb)     dimensions
     Largest temporary arrays     est. size (Mb)     dimensions

     Initial potential from superposition of free atoms

     Starting from uniform charge
     Starting wfc are    0 randomized atomic wfcs

     Writing output data file Prototype-La-hP12-MgZn2.save

     Self-consistent Calculation

[...]

     iteration #  9     ecut=    40.00 Ry     beta=0.70
     CG style diagonalization
     c_bands:  1 eigenvalues not converged
     c_bands:  1 eigenvalues not converged
     ethr =  1.16E-05,  avg # of iterations =  4.5

[...]

     total energy              =   -1955.99377727 Ry
     Harris-Foulkes estimate   =   -1955.99385677 Ry
     estimated scf accuracy    <       0.00015941 Ry

     iteration # 12     ecut=    40.00 Ry     beta=0.70
     CG style diagonalization
     ethr =  8.13E-08,  avg # of iterations =  3.7

     End of self-consistent calculation

[...]

          k = 0.0000 0.3801-0.3063 (  6050 PWs)   bands (ev):

[...]

          k =-0.4938 0.0950-0.3063 (  6062 PWs)   bands (ev):

   -47.5056 -47.5056 -47.5009 -47.5009 -25.5910 -25.5910 -25.3246 -25.3246
   -24.9036 -24.9036 -24.8621 -24.8621 -15.9298 -15.9298 -15.9028 -15.9028
   -15.8765 -15.8765 -15.8278 -15.8278 -15.7894 -15.7894 -15.7843 -15.7843
    -4.2745  -4.2745  -3.4314  -3.4314  -2.7584  -2.7584  -2.6927  -2.6927
    -2.4963  -2.4963  -2.2937  -2.2937  -1.8181  -1.8181  -1.4184  -1.4184
    -1.1386  -1.1386  -0.9410  -0.9410  -0.5812  -0.5812  -0.4919  -0.4919
    19.8276  19.8276  20.1707  20.1707  20.3644  20.3644  20.5636  20.5636
    20.6521  20.6521  20.9535  20.9535  21.1745  21.1745  21.4002  21.4002
    21.6973  21.6973  21.9762  21.9762  22.2147  22.2147  22.5040  22.5040
    22.9346  22.9346  23.1427  23.1427  23.5447  23.5447  23.9264  23.9264
    24.1766  24.1766  24.4904  24.4904  25.1032  25.1032  25.4585  25.4585
    25.6460  25.6460  26.3720  26.3720  26.7052  26.7052  27.2191  27.2191
    27.5342  27.5342  27.8294  27.8294  27.9840  27.9840  28.8148  28.8148
    29.2331  29.2331  29.3697  29.3697  29.9362  29.9362  31.2224  31.2224
    32.3081  32.3082  33.5218  33.5218  34.2261  34.2262

     the Fermi energy is    27.9674 ev

!    total energy              =   -1955.99381914 Ry
     Harris-Foulkes estimate   =   -1955.99381990 Ry
     estimated scf accuracy    <       0.00000109 Ry

     The total energy is the sum of the following terms:

     one-electron contribution =     -56.47300172 Ry
     hartree contribution      =     203.86318053 Ry
     xc contribution           =    -208.72544033 Ry
     ewald contribution        =   -1894.03879174 Ry
     smearing contrib. (-TS)   =      -0.61976588 Ry

     convergence has been achieved in  12 iterations

     Forces acting on atoms (Ry/au):

     atom    1 type  1   force =     0.00000000    0.00000000    0.01706978
     atom    2 type  1   force =     0.00000000    0.00000000    0.01706978
     atom    3 type  1   force =     0.00000000    0.00000000   -0.01706978
     atom    4 type  1   force =     0.00000000    0.00000000   -0.01706978
     atom    5 type  2   force =     0.00000000    0.00000000    0.00000000
     atom    6 type  2   force =     0.00000000    0.00000000    0.00000000
     atom    7 type  2   force =     0.00000000    0.00055575    0.00000000
     atom    8 type  2   force =    -0.00048130    0.00027788    0.00000000
     atom    9 type  2   force =     0.00048130    0.00027788    0.00000000
     atom   10 type  2   force =    -0.00048130   -0.00027788    0.00000000
     atom   11 type  2   force =     0.00048130   -0.00027788    0.00000000
     atom   12 type  2   force =     0.00000000   -0.00055575    0.00000000

     Total force =     0.034167     Total SCF correction =     0.000000

     entering subroutine stress ...

          total   stress  (Ry/bohr**3)                   (kbar)     P=  484.77
   0.00329103   0.00000000   0.00000000        484.13      0.00      0.00
   0.00000000   0.00329103   0.00000000          0.00    484.13      0.00
   0.00000000   0.00000000   0.00330423          0.00      0.00    486.07

     Writing output data file Prototype-La-hP12-MgZn2.save

     General routines

     Parallel routines

   This run was terminated on:  18: 2: 1  22Mar2018

   JOB DONE.