     Program PWSCF v.5.0.2 starts on 22Mar2018 at 18:48:42

     Current dimensions of program PWSCF are:
     Max number of different atomic species (ntypx) = 10
     Max number of k-points (npk) =  40000
     Max angular momentum in pseudopotentials (lmaxx) =  3
     Waiting for input...
     Reading input from standard input

     Subspace diagonalization in iterative solution of the eigenvalue problem:
     a serial algorithm will be used

     bravais-lattice index     =            0
     lattice parameter (alat)  =      12.0168  a.u.
     unit-cell volume          =    1187.3413 (a.u.)^3
     number of atoms/cell      =            8
     number of atomic types    =            2
     number of electrons       =       144.00
     number of Kohn-Sham states=           86
     kinetic-energy cutoff     =      40.0000  Ry
     charge density cutoff     =     160.0000  Ry
     convergence threshold     =      1.0E-04
     mixing beta               =       0.7000
     number of iterations used =            8  plain     mixing
     Exchange-correlation      = SLA-PZ-NOGX-NOGC ( 1 1 0 0 0)
     EXX-fraction              =        0.00
     nstep                     =           50

     celldm(1)=  12.016801  celldm(2)=   0.000000  celldm(3)=   0.000000
     celldm(4)=   0.000000  celldm(5)=   0.000000  celldm(6)=   0.000000

     crystal axes: (cart. coord. in units of alat)
               a(1) = (   1.000000   0.000000   0.000000 )
               a(2) = (  -0.500000   0.866025   0.000000 )
               a(3) = (   0.000000   0.000000   0.790093 )

     reciprocal axes: (cart. coord. in units 2 pi/alat)
               b(1) = (  1.000000  0.577350  0.000000 )
               b(2) = (  0.000000  1.154701  0.000000 )
               b(3) = (  0.000000  0.000000  1.265674 )

     PseudoPot. # 1 for Sm read from file:
     /home/cwx6513/pp.La/Sm.UPF
     MD5 check sum: 5079e8b144a06bfcdbc14fb02b96ab09
     Pseudo is Norm-conserving, Zval = 16.0
     Generated in analytical, separable form
     Using radial grid of 1259 points,  6 beta functions with:
                l(1) =   0
                l(2) =   0
                l(3) =   1
                l(4) =   1
                l(5) =   2
                l(6) =   3

     PseudoPot. # 2 for Yb read from file:
     /home/cwx6513/pp.La/Yb.UPF
     MD5 check sum: 3e859b81cc28c53ec6aa3a2e888efcdf
     Pseudo is Norm-conserving, Zval = 24.0
     Generated in analytical, separable form
     Using radial grid of 1269 points,  6 beta functions with:
                l(1) =   0
                l(2) =   0
                l(3) =   1
                l(4) =   1
                l(5) =   2
                l(6) =   3

     atomic species   valence    mass     pseudopotential
        Mg            16.00    24.30500     Sm( 1.00)
        Cd            24.00   112.41100     Yb( 1.00)

     24 Sym. Ops., with inversion, found (12 have fractional translation)

   Cartesian axes

     site n.     atom                  positions (alat units)
         1           Mg  tau(   1) = (   0.2478935   0.7204716   0.1975233  )
         2           Mg  tau(   2) = (   0.7478935   0.1455538   0.5925699  )
         3           Mg  tau(   3) = (   0.2521065   0.1455538   0.5925699  )
         4           Mg  tau(   4) = (  -0.2478935   0.7204716   0.1975233  )
         5           Mg  tau(   5) = (   0.0000000   0.2911075   0.1975233  )
         6           Mg  tau(   6) = (   0.5000000   0.5749179   0.5925699  )
         7           Cd  tau(   7) = (   0.5000005   0.2886748   0.1975233  )
         8           Cd  tau(   8) = (  -0.0000005   0.5773506   0.5925699  )

     number of k points=    64  gaussian smearing, width (Ry)=  0.1000
                       cart. coord. in units 2pi/alat
        k(    1) = (   0.0000000   0.0000000   0.0000000), wk =   0.0095238
        k(    2) = (   0.0000000   0.0000000   0.1808105), wk =   0.0190476
        k(    3) = (   0.0000000   0.0000000   0.3616210), wk =   0.0190476
        k(    4) = (   0.0000000   0.0000000   0.5424315), wk =   0.0190476
        k(    5) = (   0.0000000   0.1924501   0.0000000), wk =   0.0190476
        k(    6) = (   0.0000000   0.1924501   0.1808105), wk =   0.0380952
        k(    7) = (   0.0000000   0.1924501   0.3616210), wk =   0.0380952
        k(    8) = (   0.0000000   0.1924501   0.5424315), wk =   0.0380952
        k(    9) = (   0.0000000   0.3849002   0.0000000), wk =   0.0190476
        k(   10) = (   0.0000000   0.3849002   0.1808105), wk =   0.0380952
        k(   11) = (   0.0000000   0.3849002   0.3616210), wk =   0.0380952
        k(   12) = (   0.0000000   0.3849002   0.5424315), wk =   0.0380952
        k(   13) = (   0.0000000  -0.5773503   0.0000000), wk =   0.0095238
        k(   14) = (   0.0000000  -0.5773503   0.1808105), wk =   0.0190476
        k(   15) = (   0.0000000  -0.5773503   0.3616210), wk =   0.0190476
        k(   16) = (   0.0000000  -0.5773503   0.5424315), wk =   0.0190476
        k(   17) = (   0.2000000   0.1154701   0.0000000), wk =   0.0190476
        k(   18) = (   0.2000000   0.1154701   0.1808105), wk =   0.0380952
        k(   19) = (   0.2000000   0.1154701   0.3616210), wk =   0.0380952
        k(   20) = (   0.2000000   0.1154701   0.5424315), wk =   0.0380952
        k(   21) = (   0.2000000   0.3079201   0.0000000), wk =   0.0190476
        k(   22) = (   0.2000000   0.3079201   0.1808105), wk =   0.0380952
        k(   23) = (   0.2000000   0.3079201   0.3616210), wk =   0.0380952
        k(   24) = (   0.2000000   0.3079201   0.5424315), wk =   0.0380952
        k(   25) = (   0.2000000   0.5003702   0.0000000), wk =   0.0190476
        k(   26) = (   0.2000000   0.5003702   0.1808105), wk =   0.0380952
        k(   27) = (   0.2000000   0.5003702   0.3616210), wk =   0.0380952
        k(   28) = (   0.2000000   0.5003702   0.5424315), wk =   0.0380952
        k(   29) = (   0.2000000  -0.4618802   0.0000000), wk =   0.0190476
        k(   30) = (   0.2000000  -0.4618802   0.1808105), wk =   0.0380952
        k(   31) = (   0.2000000  -0.4618802   0.3616210), wk =   0.0380952
        k(   32) = (   0.2000000  -0.4618802   0.5424315), wk =   0.0380952
        k(   33) = (   0.2000000  -0.2694301   0.0000000), wk =   0.0190476
        k(   34) = (   0.2000000  -0.2694301   0.1808105), wk =   0.0380952
        k(   35) = (   0.2000000  -0.2694301   0.3616210), wk =   0.0380952
        k(   36) = (   0.2000000  -0.2694301   0.5424315), wk =   0.0380952
        k(   37) = (   0.2000000  -0.0769800   0.0000000), wk =   0.0190476
        k(   38) = (   0.2000000  -0.0769800   0.1808105), wk =   0.0380952
        k(   39) = (   0.2000000  -0.0769800   0.3616210), wk =   0.0380952
        k(   40) = (   0.2000000  -0.0769800   0.5424315), wk =   0.0380952
        k(   41) = (   0.4000000   0.2309401   0.0000000), wk =   0.0190476
        k(   42) = (   0.4000000   0.2309401   0.1808105), wk =   0.0380952
        k(   43) = (   0.4000000   0.2309401   0.3616210), wk =   0.0380952
        k(   44) = (   0.4000000   0.2309401   0.5424315), wk =   0.0380952
        k(   45) = (   0.4000000   0.4233902   0.0000000), wk =   0.0190476
        k(   46) = (   0.4000000   0.4233902   0.1808105), wk =   0.0380952
        k(   47) = (   0.4000000   0.4233902   0.3616210), wk =   0.0380952
        k(   48) = (   0.4000000   0.4233902   0.5424315), wk =   0.0380952
        k(   49) = (   0.4000000   0.6158403   0.0000000), wk =   0.0190476
        k(   50) = (   0.4000000   0.6158403   0.1808105), wk =   0.0380952
        k(   51) = (   0.4000000   0.6158403   0.3616210), wk =   0.0380952
        k(   52) = (   0.4000000   0.6158403   0.5424315), wk =   0.0380952
        k(   53) = (   0.4000000  -0.3464102   0.0000000), wk =   0.0190476
        k(   54) = (   0.4000000  -0.3464102   0.1808105), wk =   0.0380952
        k(   55) = (   0.4000000  -0.3464102   0.3616210), wk =   0.0380952
        k(   56) = (   0.4000000  -0.3464102   0.5424315), wk =   0.0380952
        k(   57) = (   0.4000000  -0.1539601   0.0000000), wk =   0.0190476
        k(   58) = (   0.4000000  -0.1539601   0.1808105), wk =   0.0380952
        k(   59) = (   0.4000000  -0.1539601   0.3616210), wk =   0.0380952
        k(   60) = (   0.4000000  -0.1539601   0.5424315), wk =   0.0380952
        k(   61) = (   0.4000000   0.0384900   0.0000000), wk =   0.0190476
        k(   62) = (   0.4000000   0.0384900   0.1808105), wk =   0.0380952
        k(   63) = (   0.4000000   0.0384900   0.3616210), wk =   0.0380952
        k(   64) = (   0.4000000   0.0384900   0.5424315), wk =   0.0380952

     Largest allocated arrays     est. size (Mb)     dimensions
     Largest temporary arrays     est. size (Mb)     dimensions

     Initial potential from superposition of free atoms

     Starting from uniform charge
     Starting wfc are    0 randomized atomic wfcs

     Self-consistent Calculation

     iteration #  1     ecut=    40.00 Ry     beta=0.70
     CG style diagonalization
     ethr =  1.00E-02,  avg # of iterations = 17.6

     total energy              =    -853.33873192 Ry
     Harris-Foulkes estimate   =   -2368.30101659 Ry
     estimated scf accuracy    <    1794.52123818 Ry

[...]

     iteration #  3     ecut=    40.00 Ry     beta=0.70
     CG style diagonalization
     c_bands:  1 eigenvalues not converged
     c_bands:  2 eigenvalues not converged
     c_bands:  2 eigenvalues not converged
     c_bands:  1 eigenvalues not converged
     c_bands:  2 eigenvalues not converged
     c_bands:  1 eigenvalues not converged
     c_bands:  1 eigenvalues not converged
     c_bands:  1 eigenvalues not converged
     c_bands:  1 eigenvalues not converged
     c_bands:  1 eigenvalues not converged
     c_bands:  1 eigenvalues not converged
     c_bands:  1 eigenvalues not converged
     c_bands:  1 eigenvalues not converged
     c_bands:  1 eigenvalues not converged
     ethr =  1.00E-02,  avg # of iterations = 11.3

[...]

     End of self-consistent calculation

          k = 0.0000 0.0000 0.0000 (  5047 PWs)   bands (ev):

  -101.7673-101.7561 -60.5352 -60.5351 -60.5342 -60.5314 -60.5303 -60.5303
   -34.7722 -34.6756 -34.6755 -34.6590 -34.6200 -34.6199 -10.2951 -10.2894
   -10.1124 -10.0321 -10.0320 -10.0130 -10.0129  -9.9686  -9.9686  -9.7891
    -9.6389  -9.6388  -9.5100  -9.5007  -9.5006  -9.4880  -9.4828  -9.4828
    -2.3158  -2.3158  -2.3076  -2.3063  -2.3062  -2.3062  -2.3047  -2.3047
    -2.2871  -2.2871  10.1196  10.8182  16.0300  17.3312  17.3313  17.3981
    17.4504  17.4504  17.5464  17.7647  17.7647  17.7987  18.5321  18.5323
    19.4561  19.8158  19.8159  20.0580  20.0581  20.0750  20.5204  21.3357
    21.3358  21.7324  21.7325  21.8251  21.8539  22.2835  22.2836  22.3436
    22.3436  23.1972  23.1973  23.9663  24.4119  24.4547  24.6714  24.6715
    25.7367  25.7872  25.8505  28.0565  28.0565  29.5020

[...]

     the Fermi energy is    22.6345 ev

!    total energy              =   -1729.07327882 Ry
     Harris-Foulkes estimate   =   -1729.07329097 Ry
     estimated scf accuracy    <       0.00001329 Ry

     The total energy is the sum of the following terms:

[...]
        k(   11) = (   0.0000000   0.4028941   0.3763698), wk =   0.0380952
        k(   12) = (   0.0000000   0.4028941   0.5645546), wk =   0.0380952
        k(   13) = (   0.0000000  -0.6043412   0.0000000), wk =   0.0095238
        k(   14) = (   0.0000000  -0.6043412   0.1881849), wk =   0.0190476
        k(   15) = (   0.0000000  -0.6043412   0.3763698), wk =   0.0190476
        k(   16) = (   0.0000000  -0.6043412   0.5645546), wk =   0.0190476
        k(   17) = (   0.2093499   0.1208682   0.0000000), wk =   0.0190476
        k(   18) = (   0.2093499   0.1208682   0.1881849), wk =   0.0380952
        k(   19) = (   0.2093499   0.1208682   0.3763698), wk =   0.0380952
        k(   20) = (   0.2093499   0.1208682   0.5645546), wk =   0.0380952
        k(   21) = (   0.2093499   0.3223153   0.0000000), wk =   0.0190476
        k(   22) = (   0.2093499   0.3223153   0.1881849), wk =   0.0380952
        k(   23) = (   0.2093499   0.3223153   0.3763698), wk =   0.0380952
        k(   24) = (   0.2093499   0.3223153   0.5645546), wk =   0.0380952
        k(   25) = (   0.2093499   0.5237624   0.0000000), wk =   0.0190476
        k(   26) = (   0.2093499   0.5237624   0.1881849), wk =   0.0380952
        k(   27) = (   0.2093499   0.5237624   0.3763698), wk =   0.0380952
        k(   28) = (   0.2093499   0.5237624   0.5645546), wk =   0.0380952
        k(   29) = (   0.2093499  -0.4834729   0.0000000), wk =   0.0190476
        k(   30) = (   0.2093499  -0.4834729   0.1881849), wk =   0.0380952
        k(   31) = (   0.2093499  -0.4834729   0.3763698), wk =   0.0380952
        k(   32) = (   0.2093499  -0.4834729   0.5645546), wk =   0.0380952
        k(   33) = (   0.2093499  -0.2820259   0.0000000), wk =   0.0190476
        k(   34) = (   0.2093499  -0.2820259   0.1881849), wk =   0.0380952
        k(   35) = (   0.2093499  -0.2820259   0.3763698), wk =   0.0380952
        k(   36) = (   0.2093499  -0.2820259   0.5645546), wk =   0.0380952
        k(   37) = (   0.2093499  -0.0805788   0.0000000), wk =   0.0190476
        k(   38) = (   0.2093499  -0.0805788   0.1881849), wk =   0.0380952
        k(   39) = (   0.2093499  -0.0805788   0.3763698), wk =   0.0380952
        k(   40) = (   0.2093499  -0.0805788   0.5645546), wk =   0.0380952
        k(   41) = (   0.4186999   0.2417365   0.0000000), wk =   0.0190476
        k(   42) = (   0.4186999   0.2417365   0.1881849), wk =   0.0380952
        k(   43) = (   0.4186999   0.2417365   0.3763698), wk =   0.0380952
        k(   44) = (   0.4186999   0.2417365   0.5645546), wk =   0.0380952
        k(   45) = (   0.4186999   0.4431835   0.0000000), wk =   0.0190476
        k(   46) = (   0.4186999   0.4431835   0.1881849), wk =   0.0380952
        k(   47) = (   0.4186999   0.4431835   0.3763698), wk =   0.0380952
        k(   48) = (   0.4186999   0.4431835   0.5645546), wk =   0.0380952
        k(   49) = (   0.4186999   0.6446306   0.0000000), wk =   0.0190476
        k(   50) = (   0.4186999   0.6446306   0.1881849), wk =   0.0380952
        k(   51) = (   0.4186999   0.6446306   0.3763698), wk =   0.0380952
        k(   52) = (   0.4186999   0.6446306   0.5645546), wk =   0.0380952
        k(   53) = (   0.4186999  -0.3626047   0.0000000), wk =   0.0190476
        k(   54) = (   0.4186999  -0.3626047   0.1881849), wk =   0.0380952
        k(   55) = (   0.4186999  -0.3626047   0.3763698), wk =   0.0380952
        k(   56) = (   0.4186999  -0.3626047   0.5645546), wk =   0.0380952
        k(   57) = (   0.4186999  -0.1611576   0.0000000), wk =   0.0190476
        k(   58) = (   0.4186999  -0.1611576   0.1881849), wk =   0.0380952
        k(   59) = (   0.4186999  -0.1611576   0.3763698), wk =   0.0380952
        k(   60) = (   0.4186999  -0.1611576   0.5645546), wk =   0.0380952
        k(   61) = (   0.4186999   0.0402894   0.0000000), wk =   0.0190476
        k(   62) = (   0.4186999   0.0402894   0.1881849), wk =   0.0380952
        k(   63) = (   0.4186999   0.0402894   0.3763698), wk =   0.0380952
        k(   64) = (   0.4186999   0.0402894   0.5645546), wk =   0.0380952

[...]

     The maximum number of steps has been reached.

     End of BFGS Geometry Optimization
Begin final coordinates
     new unit-cell volume =   1041.18732 a.u.^3 (   154.28804 Ang^3 )

CELL_PARAMETERS (alat= 12.01680127)
   0.955338283   0.000000000   0.000000000
  -0.477669142   0.827347223   0.000000000
   0.000000000   0.000000000   0.759131897

ATOMIC_POSITIONS (crystal)
Mg       0.670291766   0.835145883   0.250000000
Mg       0.835145883   0.164854117   0.750000000
Mg       0.329708234   0.164854117   0.750000000
Mg       0.164854117   0.835145883   0.250000000
Mg       0.164854117   0.329708234   0.250000000
Mg       0.835145883   0.670291766   0.750000000
Cd       0.666667000   0.333333000   0.250000000
Cd       0.333333000   0.666667000   0.750000000
End final coordinates

     A final scf calculation at the relaxed structure.
     The G-vectors are recalculated for the final unit cell
     Results may differ from those at the preceding step.

     bravais-lattice index     =            0
     lattice parameter (alat)  =      12.0168  a.u.
     unit-cell volume          =    1041.1873 (a.u.)^3
     number of atoms/cell      =            8
     number of atomic types    =            2
     number of electrons       =       144.00
     number of Kohn-Sham states=           86
     kinetic-energy cutoff     =      40.0000  Ry
     charge density cutoff     =     160.0000  Ry
     convergence threshold     =      2.8E-05
     mixing beta               =       0.7000
     number of iterations used =            8  plain     mixing
     Exchange-correlation      = SLA-PZ-NOGX-NOGC ( 1 1 0 0 0)
     EXX-fraction              =        0.00

     celldm(1)=  12.016801  celldm(2)=   0.000000  celldm(3)=   0.000000
     celldm(4)=   0.000000  celldm(5)=   0.000000  celldm(6)=   0.000000

     crystal axes: (cart. coord. in units of alat)
               a(1) = (   0.955338   0.000000   0.000000 )
               a(2) = (  -0.477669   0.827347   0.000000 )
               a(3) = (   0.000000   0.000000   0.759132 )

     reciprocal axes: (cart. coord. in units 2 pi/alat)
               b(1) = (  1.046750  0.604341  0.000000 )
               b(2) = (  0.000000  1.208682  0.000000 )
               b(3) = (  0.000000  0.000000  1.317294 )

     PseudoPot. # 1 for Sm read from file:
     /home/cwx6513/pp.La/Sm.UPF
     MD5 check sum: 5079e8b144a06bfcdbc14fb02b96ab09
     Pseudo is Norm-conserving, Zval = 16.0
     Generated in analytical, separable form
     Using radial grid of 1259 points,  6 beta functions with:
                l(1) =   0
                l(2) =   0
                l(3) =   1
                l(4) =   1
                l(5) =   2
                l(6) =   3

     PseudoPot. # 2 for Yb read from file:
     /home/cwx6513/pp.La/Yb.UPF
     MD5 check sum: 3e859b81cc28c53ec6aa3a2e888efcdf
     Pseudo is Norm-conserving, Zval = 24.0
     Generated in analytical, separable form
     Using radial grid of 1269 points,  6 beta functions with:
                l(1) =   0
                l(2) =   0
                l(3) =   1
                l(4) =   1
                l(5) =   2
                l(6) =   3

     atomic species   valence    mass     pseudopotential
        Mg            16.00    24.30500     Sm( 1.00)
        Cd            24.00   112.41100     Yb( 1.00)

     24 Sym. Ops., with inversion, found (12 have fractional translation)

   Cartesian axes

     site n.     atom                  positions (alat units)
         1           Mg  tau(   1) = (   0.2414320   0.6909556   0.1897830  )
         2           Mg  tau(   2) = (   0.7191011   0.1363916   0.5693489  )
         3           Mg  tau(   3) = (   0.2362372   0.1363916   0.5693489  )
         4           Mg  tau(   4) = (  -0.2414320   0.6909556   0.1897830  )
         5           Mg  tau(   5) = (   0.0000000   0.2727832   0.1897830  )
         6           Mg  tau(   6) = (   0.4776691   0.5545640   0.5693489  )
         7           Cd  tau(   7) = (   0.4776696   0.2757821   0.1897830  )
         8           Cd  tau(   8) = (  -0.0000005   0.5515651   0.5693489  )

     number of k points=    64  gaussian smearing, width (Ry)=  0.1000
                       cart. coord. in units 2pi/alat
        k(    1) = (   0.0000000   0.0000000   0.0000000), wk =   0.0095238
        k(    2) = (   0.0000000   0.0000000   0.1881849), wk =   0.0190476
        k(    3) = (   0.0000000   0.0000000   0.3763698), wk =   0.0190476
        k(    4) = (   0.0000000   0.0000000   0.5645546), wk =   0.0190476
        k(    5) = (   0.0000000   0.2014471   0.0000000), wk =   0.0190476
        k(    6) = (   0.0000000   0.2014471   0.1881849), wk =   0.0380952
        k(    7) = (   0.0000000   0.2014471   0.3763698), wk =   0.0380952
        k(    8) = (   0.0000000   0.2014471   0.5645546), wk =   0.0380952
        k(    9) = (   0.0000000   0.4028941   0.0000000), wk =   0.0190476
        k(   10) = (   0.0000000   0.4028941   0.1881849), wk =   0.0380952
        k(   11) = (   0.0000000   0.4028941   0.3763698), wk =   0.0380952
        k(   12) = (   0.0000000   0.4028941   0.5645546), wk =   0.0380952
        k(   13) = (   0.0000000  -0.6043412   0.0000000), wk =   0.0095238
        k(   14) = (   0.0000000  -0.6043412   0.1881849), wk =   0.0190476
        k(   15) = (   0.0000000  -0.6043412   0.3763698), wk =   0.0190476
        k(   16) = (   0.0000000  -0.6043412   0.5645546), wk =   0.0190476
        k(   17) = (   0.2093499   0.1208682   0.0000000), wk =   0.0190476
        k(   18) = (   0.2093499   0.1208682   0.1881849), wk =   0.0380952
        k(   19) = (   0.2093499   0.1208682   0.3763698), wk =   0.0380952
        k(   20) = (   0.2093499   0.1208682   0.5645546), wk =   0.0380952
        k(   21) = (   0.2093499   0.3223153   0.0000000), wk =   0.0190476
        k(   22) = (   0.2093499   0.3223153   0.1881849), wk =   0.0380952
        k(   23) = (   0.2093499   0.3223153   0.3763698), wk =   0.0380952
        k(   24) = (   0.2093499   0.3223153   0.5645546), wk =   0.0380952
        k(   25) = (   0.2093499   0.5237624   0.0000000), wk =   0.0190476
        k(   26) = (   0.2093499   0.5237624   0.1881849), wk =   0.0380952
        k(   27) = (   0.2093499   0.5237624   0.3763698), wk =   0.0380952
        k(   28) = (   0.2093499   0.5237624   0.5645546), wk =   0.0380952
        k(   29) = (   0.2093499  -0.4834729   0.0000000), wk =   0.0190476
        k(   30) = (   0.2093499  -0.4834729   0.1881849), wk =   0.0380952
        k(   31) = (   0.2093499  -0.4834729   0.3763698), wk =   0.0380952
        k(   32) = (   0.2093499  -0.4834729   0.5645546), wk =   0.0380952
        k(   33) = (   0.2093499  -0.2820259   0.0000000), wk =   0.0190476
        k(   34) = (   0.2093499  -0.2820259   0.1881849), wk =   0.0380952
        k(   35) = (   0.2093499  -0.2820259   0.3763698), wk =   0.0380952
        k(   36) = (   0.2093499  -0.2820259   0.5645546), wk =   0.0380952
        k(   37) = (   0.2093499  -0.0805788   0.0000000), wk =   0.0190476
        k(   38) = (   0.2093499  -0.0805788   0.1881849), wk =   0.0380952
        k(   39) = (   0.2093499  -0.0805788   0.3763698), wk =   0.0380952
        k(   40) = (   0.2093499  -0.0805788   0.5645546), wk =   0.0380952
        k(   41) = (   0.4186999   0.2417365   0.0000000), wk =   0.0190476
        k(   42) = (   0.4186999   0.2417365   0.1881849), wk =   0.0380952
        k(   43) = (   0.4186999   0.2417365   0.3763698), wk =   0.0380952
        k(   44) = (   0.4186999   0.2417365   0.5645546), wk =   0.0380952
        k(   45) = (   0.4186999   0.4431835   0.0000000), wk =   0.0190476
        k(   46) = (   0.4186999   0.4431835   0.1881849), wk =   0.0380952
        k(   47) = (   0.4186999   0.4431835   0.3763698), wk =   0.0380952
        k(   48) = (   0.4186999   0.4431835   0.5645546), wk =   0.0380952
        k(   49) = (   0.4186999   0.6446306   0.0000000), wk =   0.0190476
        k(   50) = (   0.4186999   0.6446306   0.1881849), wk =   0.0380952
        k(   51) = (   0.4186999   0.6446306   0.3763698), wk =   0.0380952
        k(   52) = (   0.4186999   0.6446306   0.5645546), wk =   0.0380952
        k(   53) = (   0.4186999  -0.3626047   0.0000000), wk =   0.0190476
        k(   54) = (   0.4186999  -0.3626047   0.1881849), wk =   0.0380952
        k(   55) = (   0.4186999  -0.3626047   0.3763698), wk =   0.0380952
        k(   56) = (   0.4186999  -0.3626047   0.5645546), wk =   0.0380952
        k(   57) = (   0.4186999  -0.1611576   0.0000000), wk =   0.0190476
        k(   58) = (   0.4186999  -0.1611576   0.1881849), wk =   0.0380952
        k(   59) = (   0.4186999  -0.1611576   0.3763698), wk =   0.0380952
        k(   60) = (   0.4186999  -0.1611576   0.5645546), wk =   0.0380952
        k(   61) = (   0.4186999   0.0402894   0.0000000), wk =   0.0190476
        k(   62) = (   0.4186999   0.0402894   0.1881849), wk =   0.0380952
        k(   63) = (   0.4186999   0.0402894   0.3763698), wk =   0.0380952
        k(   64) = (   0.4186999   0.0402894   0.5645546), wk =   0.0380952

     Largest allocated arrays     est. size (Mb)     dimensions
     Largest temporary arrays     est. size (Mb)     dimensions

     Initial potential from superposition of free atoms

     Starting from uniform charge
     Starting wfc are    0 randomized atomic wfcs

     Writing output data file Prototype-La-hP8-Mg3Cd.save

     Self-consistent Calculation

[...]

     iteration # 10     ecut=    40.00 Ry     beta=0.70
     CG style diagonalization
     c_bands:  1 eigenvalues not converged
     ethr =  1.26E-07,  avg # of iterations =  4.2

     total energy              =   -1728.88394457 Ry
     Harris-Foulkes estimate   =   -1728.88397886 Ry
     estimated scf accuracy    <       0.00006564 Ry

     iteration # 11     ecut=    40.00 Ry     beta=0.70
     CG style diagonalization
     ethr =  4.56E-08,  avg # of iterations =  3.5

     End of self-consistent calculation

[...]

          k = 0.4187 0.0403 0.5646 (  4451 PWs)   bands (ev):

   -98.0970 -98.0800 -56.8565 -56.8558 -56.8534 -56.8515 -56.8464 -56.8447
   -31.0294 -30.9874 -30.9516 -30.9331 -30.9161 -30.9021  -6.8042  -6.7567
    -6.7408  -6.7211  -6.6284  -6.6099  -6.2658  -6.1831  -6.1090  -6.0831
    -5.9921  -5.9285  -5.8813  -5.8568  -5.8324  -5.7697  -5.7327  -5.7232
     1.2813   1.2840   1.2857   1.2908   1.2928   1.2954   1.2980   1.3024
     1.3165   1.3207  14.0367  14.0956  19.1384  19.2112  19.8777  19.9656
    20.2693  20.3912  21.1889  21.3174  21.5964  21.8939  21.9917  22.1533
    22.2455  22.3180  22.8312  23.0047  23.2860  23.4176  23.7578  24.6501
    24.7434  24.9773  25.3475  25.3905  25.5045  25.6505  25.8274  26.0946
    26.6944  26.7854  26.8661  27.2980  27.7038  28.1371  28.5732  28.6381
    29.7710  30.0513  31.5599  32.4000  33.8522  33.9129

     the Fermi energy is    26.5573 ev

!    total energy              =   -1728.88395951 Ry
     Harris-Foulkes estimate   =   -1728.88395941 Ry
     estimated scf accuracy    <       0.00000443 Ry

     The total energy is the sum of the following terms:

     one-electron contribution =    -313.46950696 Ry
     hartree contribution      =     252.10283083 Ry
     xc contribution           =    -162.66429520 Ry
     ewald contribution        =   -1504.37715278 Ry
     smearing contrib. (-TS)   =      -0.47583540 Ry

     convergence has been achieved in  11 iterations

     Forces acting on atoms (Ry/au):

     atom    1 type  1   force =    -0.00017048   -0.00009843    0.00000000
     atom    2 type  1   force =    -0.00017048    0.00009843    0.00000000
     atom    3 type  1   force =     0.00017048    0.00009843    0.00000000
     atom    4 type  1   force =     0.00017048   -0.00009843    0.00000000
     atom    5 type  1   force =     0.00000000    0.00019685    0.00000000
     atom    6 type  1   force =     0.00000000   -0.00019685    0.00000000
     atom    7 type  2   force =     0.00000000    0.00000000    0.00000000
     atom    8 type  2   force =     0.00000000    0.00000000    0.00000000

     Total force =     0.000482     Total SCF correction =     0.000000

     entering subroutine stress ...

          total   stress  (Ry/bohr**3)                   (kbar)     P=  -16.53
  -0.00014973   0.00000000   0.00000000        -22.03      0.00      0.00
   0.00000000  -0.00014973   0.00000000          0.00    -22.03      0.00
   0.00000000   0.00000000  -0.00003756          0.00      0.00     -5.53

     Writing output data file Prototype-La-hP8-Mg3Cd.save

     General routines

     Parallel routines

   This run was terminated on:  20: 9:45  22Mar2018

   JOB DONE.