     Program PWSCF v.5.0.2 starts on 22Mar2018 at 18:48:42

     Current dimensions of program PWSCF are:
     Max number of different atomic species (ntypx) = 10
     Max number of k-points (npk) =  40000
     Max angular momentum in pseudopotentials (lmaxx) =  3
     Waiting for input...
     Reading input from standard input

     Subspace diagonalization in iterative solution of the eigenvalue problem:
     a serial algorithm will be used

     bravais-lattice index     =            0
     lattice parameter (alat)  =       7.0151  a.u.
     unit-cell volume          =     862.2778 (a.u.)^3
     number of atoms/cell      =           12
     number of atomic types    =            2
     number of electrons       =       224.00
     number of Kohn-Sham states=          134
     kinetic-energy cutoff     =      40.0000  Ry
     charge density cutoff     =     160.0000  Ry
     convergence threshold     =      1.0E-04
     mixing beta               =       0.7000
     number of iterations used =            8  plain     mixing
     Exchange-correlation      = SLA-PZ-NOGX-NOGC ( 1 1 0 0 0)
     EXX-fraction              =        0.00
     nstep                     =           50

     celldm(1)=   7.015105  celldm(2)=   0.000000  celldm(3)=   0.000000
     celldm(4)=   0.000000  celldm(5)=   0.000000  celldm(6)=   0.000000

     crystal axes: (cart. coord. in units of alat)
               a(1) = (   1.000000   0.000000   0.000000 )
               a(2) = (   0.000000   1.315963   0.000000 )
               a(3) = (   0.000000   0.000000   1.898020 )

     reciprocal axes: (cart. coord. in units 2 pi/alat)
               b(1) = (  1.000000  0.000000  0.000000 )
               b(2) = (  0.000000  0.759900  0.000000 )
               b(3) = (  0.000000  0.000000  0.526865 )

     PseudoPot. # 1 for Sm read from file:
     /home/cwx6513/pp.La/Sm.UPF
     MD5 check sum: 5079e8b144a06bfcdbc14fb02b96ab09
     Pseudo is Norm-conserving, Zval = 16.0
     Generated in analytical, separable form
     Using radial grid of 1259 points,  6 beta functions with:
                l(1) =   0
                l(2) =   0
                l(3) =   1
                l(4) =   1
                l(5) =   2
                l(6) =   3

     PseudoPot. # 2 for Yb read from file:
     /home/cwx6513/pp.La/Yb.UPF
     MD5 check sum: 3e859b81cc28c53ec6aa3a2e888efcdf
     Pseudo is Norm-conserving, Zval = 24.0
     Generated in analytical, separable form
     Using radial grid of 1269 points,  6 beta functions with:
                l(1) =   0
                l(2) =   0
                l(3) =   1
                l(4) =   1
                l(5) =   2
                l(6) =   3

     atomic species   valence    mass     pseudopotential
        Co            16.00    58.93320     Sm( 1.00)
        Si            24.00    28.08550     Yb( 1.00)

      8 Sym. Ops., with inversion, found ( 6 have fractional translation)

   Cartesian axes

     site n.     atom                  positions (alat units)
         1           Co  tau(   1) = (   0.7500000   1.0875135   0.8270358  )
         2           Co  tau(   2) = (   0.2500000   0.2284499   1.0709846  )
         3           Co  tau(   3) = (   0.7500000   0.4295318   0.1219744  )
         4           Co  tau(   4) = (   0.2500000   0.8864316   1.7760460  )
         5           Co  tau(   5) = (   0.2500000   0.7067855   0.5358966  )
         6           Co  tau(   6) = (   0.7500000   0.6091779   1.3621238  )
         7           Co  tau(   7) = (   0.2500000   0.0488038   0.4131136  )
         8           Co  tau(   8) = (   0.7500000   1.2671596   1.4849068  )
         9           Si  tau(   9) = (   0.2500000   0.2669484   1.6960710  )
        10           Si  tau(  10) = (   0.7500000   1.0490149   0.2019494  )
        11           Si  tau(  11) = (   0.2500000   0.9249301   1.1509596  )
        12           Si  tau(  12) = (   0.7500000   0.3910333   0.7470608  )

     number of k points=    12  gaussian smearing, width (Ry)=  0.1000
                       cart. coord. in units 2pi/alat
        k(    1) = (   0.0000000   0.0000000   0.0000000), wk =   0.0833333
        k(    2) = (   0.0000000   0.0000000   0.1317162), wk =   0.1666667
        k(    3) = (   0.0000000   0.0000000  -0.2634324), wk =   0.0833333
        k(    4) = (   0.0000000   0.2532999   0.0000000), wk =   0.1666667
        k(    5) = (   0.0000000   0.2532999   0.1317162), wk =   0.3333333
        k(    6) = (   0.0000000   0.2532999  -0.2634324), wk =   0.1666667
        k(    7) = (  -0.5000000   0.0000000   0.0000000), wk =   0.0833333
        k(    8) = (  -0.5000000   0.0000000   0.1317162), wk =   0.1666667
        k(    9) = (  -0.5000000   0.0000000  -0.2634324), wk =   0.0833333
        k(   10) = (  -0.5000000   0.2532999   0.0000000), wk =   0.1666667
        k(   11) = (  -0.5000000   0.2532999   0.1317162), wk =   0.3333333
        k(   12) = (  -0.5000000   0.2532999  -0.2634324), wk =   0.1666667

     Largest allocated arrays     est. size (Mb)     dimensions
     Largest temporary arrays     est. size (Mb)     dimensions

     Initial potential from superposition of free atoms

     Starting from uniform charge
     Starting wfc are    0 randomized atomic wfcs

     Self-consistent Calculation

     iteration #  1     ecut=    40.00 Ry     beta=0.70
     CG style diagonalization
     c_bands:  4 eigenvalues not converged
     c_bands:  4 eigenvalues not converged
     ethr =  1.00E-02,  avg # of iterations = 16.2

     total energy              =   -1919.75260548 Ry
     Harris-Foulkes estimate   =   -3495.16900689 Ry
     estimated scf accuracy    <    1890.32529734 Ry

[...]

     iteration #  4     ecut=    40.00 Ry     beta=0.70
     CG style diagonalization
     ethr =  1.00E-02,  avg # of iterations =  4.4

[...]

     End of self-consistent calculation

          k = 0.0000 0.0000 0.0000 (  3675 PWs)   bands (ev):

   -74.0872 -74.0573 -74.0515 -74.0230 -33.1927 -33.1927 -33.1796 -33.1648
   -33.1403 -33.1400 -33.1394 -33.1352 -33.0358 -33.0251 -33.0110 -32.9936
    -9.0684  -8.3296  -8.2853  -7.9360  -7.7599  -7.3987  -7.3908  -7.3615
    12.6153  13.1290  13.7155  13.7178  13.7965  13.8865  14.3370  14.5087
    14.8085  14.9779  15.2565  15.5040  15.5570  15.9857  16.0992  16.2808
    16.3468  16.5878  16.8017  17.3512  17.3518  17.8214  18.3332  18.6380
    23.0474  23.3587  23.4691  23.4967  23.5515  23.6089  23.7577  23.7660
    23.8964  23.8969  24.0292  24.4390  24.4457  24.7665  24.8517  24.8609
    25.0238  25.1755  25.2143  25.2364  33.8678  34.0972  36.1683  36.5635
    37.6555  38.3019  39.6202  39.9851  40.5365  40.7538  40.7764  40.9078
    41.0487  41.3055  41.3065  41.3850  42.3334  42.5819  42.5975  43.5079
    44.0383  44.1871  45.3278  45.5214  45.7185  46.0157  46.0615  47.2088
    47.4823  47.7525  47.8997  47.9003  47.9895  48.5497  49.1388  49.1819
    49.2073  49.7536  50.0925  50.2478  50.9151  51.1834  51.7272  52.9984
    53.2821  53.4918  53.5529  54.3139  54.9247  55.1531  55.3811  56.1012
    56.4364  56.6876  56.7127  57.0169  57.0813  57.5256  57.6817  57.8112
    57.8203  58.1875  58.2697  58.3320  58.4090  58.7170

[...]

          k =-0.5000 0.0000 0.0000 (  3722 PWs)   bands (ev):

[...]

     the Fermi energy is    52.4958 ev

!    total energy              =   -2837.81674167 Ry
     Harris-Foulkes estimate   =   -2837.81677515 Ry
     estimated scf accuracy    <       0.00003798 Ry

     The total energy is the sum of the following terms:

     one-electron contribution =     123.26345066 Ry
     hartree contribution      =     270.09804431 Ry
     xc contribution           =    -276.57086296 Ry
     ewald contribution        =   -2954.36492437 Ry
     smearing contrib. (-TS)   =      -0.24244931 Ry

     convergence has been achieved in  10 iterations

     Forces acting on atoms (Ry/au):

     atom    1 type  1   force =     0.00000000   -0.01231501   -0.03971932
     atom    2 type  1   force =     0.00000000    0.01231501    0.03971932
     atom    3 type  1   force =     0.00000000   -0.01231501    0.03971932
     atom    4 type  1   force =     0.00000000    0.01231501   -0.03971932
     atom    5 type  1   force =     0.00000000    0.11812905   -0.24549634
     atom    6 type  1   force =     0.00000000   -0.11812905    0.24549634
     atom    7 type  1   force =     0.00000000    0.11812905    0.24549634
     atom    8 type  1   force =     0.00000000   -0.11812905   -0.24549634
     atom    9 type  2   force =     0.00000000   -0.15942524    0.04685546
     atom   10 type  2   force =     0.00000000    0.15942524   -0.04685546
     atom   11 type  2   force =     0.00000000   -0.15942524   -0.04685546
     atom   12 type  2   force =     0.00000000    0.15942524    0.04685546

     Total force =     0.643627     Total SCF correction =     0.000000

     entering subroutine stress ...

          total   stress  (Ry/bohr**3)                   (kbar)     P= 7237.07
   0.05174217   0.00000000   0.00000000       7611.53      0.00      0.00
   0.00000000   0.04685179   0.00000000          0.00   6892.13      0.00
   0.00000000   0.00000000   0.04899595          0.00      0.00   7207.55

     BFGS Geometry Optimization

     number of scf cycles    =   1
     number of bfgs steps    =   0

     enthalpy new            =   -2837.8167416729 Ry

     new trust radius        =       0.5000000000 bohr
     new conv_thr            =       0.0001000000 Ry

     new unit-cell volume =   1089.07006 a.u.^3 (   161.38353 Ang^3 )

CELL_PARAMETERS (alat=  7.01510508)
   1.085136619   0.000000000   0.000000000
   0.000000000   1.417410975   0.000000000
   0.000000000   0.000000000   2.051034978

ATOMIC_POSITIONS (crystal)
Co       0.750000000   0.826313201   0.435539665
Co       0.250000000   0.173686799   0.564460335
Co       0.750000000   0.326313201   0.064460335
Co       0.250000000   0.673686799   0.935539665
Co       0.250000000   0.537928191   0.281131495
Co       0.750000000   0.462071809   0.718868505
Co       0.250000000   0.037928191   0.218868505
Co       0.750000000   0.962071809   0.781131495
Si       0.250000000   0.201717392   0.893831610
Si       0.750000000   0.798282608   0.106168390
Si       0.250000000   0.701717392   0.606168390
Si       0.750000000   0.298282608   0.393831610

     Writing output data file Prototype-La-oP12-Co2Si.save
     NEW-OLD atomic charge density approx. for the potential
     NEW k-points:
        k(    1) = (   0.0000000   0.0000000   0.0000000), wk =   0.0833333
        k(    2) = (   0.0000000   0.0000000   0.1218897), wk =   0.1666667
        k(    3) = (   0.0000000   0.0000000  -0.2437794), wk =   0.0833333
        k(    4) = (   0.0000000   0.2351706   0.0000000), wk =   0.1666667
        k(    5) = (   0.0000000   0.2351706   0.1218897), wk =   0.3333333
        k(    6) = (   0.0000000   0.2351706  -0.2437794), wk =   0.1666667
        k(    7) = (  -0.4607715   0.0000000   0.0000000), wk =   0.0833333
        k(    8) = (  -0.4607715   0.0000000   0.1218897), wk =   0.1666667
        k(    9) = (  -0.4607715   0.0000000  -0.2437794), wk =   0.0833333
        k(   10) = (  -0.4607715   0.2351706   0.0000000), wk =   0.1666667
        k(   11) = (  -0.4607715   0.2351706   0.1218897), wk =   0.3333333
        k(   12) = (  -0.4607715   0.2351706  -0.2437794), wk =   0.1666667

[...]

     enthalpy old            =   -2837.8167416729 Ry
     enthalpy new            =   -2844.6255572251 Ry

     CASE: enthalpy_new < enthalpy_old

     small trust_radius: resetting bfgs history

     new trust radius        =       2.5840045064 bohr
     new conv_thr            =       0.0001000000 Ry

[...]

          total   stress  (Ry/bohr**3)                   (kbar)     P=-3345.36
  -0.02369453   0.00000000   0.00000000      -3485.59      0.00      0.00
   0.00000000  -0.02178957   0.00000000          0.00  -3205.36      0.00
   0.00000000   0.00000000  -0.02273981          0.00      0.00  -3345.14

     number of scf cycles    =   3
     number of bfgs steps    =   2

     enthalpy old            =   -2844.6255572251 Ry
     enthalpy new            =   -2821.3338002355 Ry

     CASE: enthalpy_new > enthalpy_old

     new trust radius        =       0.6697421541 bohr

     trust_radius < trust_radius_min

     resetting bfgs history

     Message from routine bfgs:
     history already reset at previous step: stopping
     new conv_thr            =       0.0001000000 Ry

     new unit-cell volume =   1303.28223 a.u.^3 (   193.12650 Ang^3 )

[...]

ATOMIC_POSITIONS (crystal)
Co       0.750000000   0.826385933   0.435412227
Co       0.250000000   0.173614067   0.564587773
Co       0.750000000   0.326385933   0.064587773
Co       0.250000000   0.673614067   0.935412227
Co       0.250000000   0.538604624   0.280138613
Co       0.750000000   0.461395376   0.719861387
Co       0.250000000   0.038604624   0.219861387
Co       0.750000000   0.961395376   0.780138613
Si       0.250000000   0.200728007   0.893945794
Si       0.750000000   0.799271993   0.106054206
Si       0.250000000   0.700728007   0.606054206
Si       0.750000000   0.299271993   0.393945794

     Writing output data file Prototype-La-oP12-Co2Si.save
     NEW-OLD atomic charge density approx. for the potential
     NEW k-points:
        k(    1) = (   0.0000000   0.0000000   0.0000000), wk =   0.0833333
        k(    2) = (   0.0000000   0.0000000   0.1147513), wk =   0.1666667
        k(    3) = (   0.0000000   0.0000000  -0.2295027), wk =   0.0833333
        k(    4) = (   0.0000000   0.2223505   0.0000000), wk =   0.1666667
        k(    5) = (   0.0000000   0.2223505   0.1147513), wk =   0.3333333
        k(    6) = (   0.0000000   0.2223505  -0.2295027), wk =   0.1666667
        k(    7) = (  -0.4325706   0.0000000   0.0000000), wk =   0.0833333
        k(    8) = (  -0.4325706   0.0000000   0.1147513), wk =   0.1666667
        k(    9) = (  -0.4325706   0.0000000  -0.2295027), wk =   0.0833333
        k(   10) = (  -0.4325706   0.2223505   0.0000000), wk =   0.1666667
        k(   11) = (  -0.4325706   0.2223505   0.1147513), wk =   0.3333333
        k(   12) = (  -0.4325706   0.2223505  -0.2295027), wk =   0.1666667

[...]

     The maximum number of steps has been reached.

     End of BFGS Geometry Optimization
Begin final coordinates
     new unit-cell volume =   1303.28223 a.u.^3 (   193.12650 Ang^3 )

CELL_PARAMETERS (alat=  7.01510508)
   1.155880770   0.000000000   0.000000000
   0.000000000   1.499134539   0.000000000
   0.000000000   0.000000000   2.178624001

ATOMIC_POSITIONS (crystal)
Co       0.750000000   0.826385933   0.435412227
Co       0.250000000   0.173614067   0.564587773
Co       0.750000000   0.326385933   0.064587773
Co       0.250000000   0.673614067   0.935412227
Co       0.250000000   0.538604624   0.280138613
Co       0.750000000   0.461395376   0.719861387
Co       0.250000000   0.038604624   0.219861387
Co       0.750000000   0.961395376   0.780138613
Si       0.250000000   0.200728007   0.893945794
Si       0.750000000   0.799271993   0.106054206
Si       0.250000000   0.700728007   0.606054206
Si       0.750000000   0.299271993   0.393945794
End final coordinates

     A final scf calculation at the relaxed structure.
     The G-vectors are recalculated for the final unit cell
     Results may differ from those at the preceding step.

     bravais-lattice index     =            0
     lattice parameter (alat)  =       7.0151  a.u.
     unit-cell volume          =    1303.2822 (a.u.)^3
     number of atoms/cell      =           12
     number of atomic types    =            2
     number of electrons       =       224.00
     number of Kohn-Sham states=          134
     kinetic-energy cutoff     =      40.0000  Ry
     charge density cutoff     =     160.0000  Ry
     convergence threshold     =      1.0E-04
     mixing beta               =       0.7000
     number of iterations used =            8  plain     mixing
     Exchange-correlation      = SLA-PZ-NOGX-NOGC ( 1 1 0 0 0)
     EXX-fraction              =        0.00

     celldm(1)=   7.015105  celldm(2)=   0.000000  celldm(3)=   0.000000
     celldm(4)=   0.000000  celldm(5)=   0.000000  celldm(6)=   0.000000

     crystal axes: (cart. coord. in units of alat)
               a(1) = (   1.155881   0.000000   0.000000 )
               a(2) = (   0.000000   1.499135   0.000000 )
               a(3) = (   0.000000   0.000000   2.178624 )

     reciprocal axes: (cart. coord. in units 2 pi/alat)
               b(1) = (  0.865141  0.000000  0.000000 )
               b(2) = (  0.000000  0.667052  0.000000 )
               b(3) = (  0.000000  0.000000  0.459005 )

     PseudoPot. # 1 for Sm read from file:
     /home/cwx6513/pp.La/Sm.UPF
     MD5 check sum: 5079e8b144a06bfcdbc14fb02b96ab09
     Pseudo is Norm-conserving, Zval = 16.0
     Generated in analytical, separable form
     Using radial grid of 1259 points,  6 beta functions with:
                l(1) =   0
                l(2) =   0
                l(3) =   1
                l(4) =   1
                l(5) =   2
                l(6) =   3

     PseudoPot. # 2 for Yb read from file:
     /home/cwx6513/pp.La/Yb.UPF
     MD5 check sum: 3e859b81cc28c53ec6aa3a2e888efcdf
     Pseudo is Norm-conserving, Zval = 24.0
     Generated in analytical, separable form
     Using radial grid of 1269 points,  6 beta functions with:
                l(1) =   0
                l(2) =   0
                l(3) =   1
                l(4) =   1
                l(5) =   2
                l(6) =   3

     atomic species   valence    mass     pseudopotential
        Co            16.00    58.93320     Sm( 1.00)
        Si            24.00    28.08550     Yb( 1.00)

      8 Sym. Ops., with inversion, found ( 6 have fractional translation)

   Cartesian axes

     site n.     atom                  positions (alat units)
         1           Co  tau(   1) = (   0.8669106   1.2388637   0.9485995  )
         2           Co  tau(   2) = (   0.2889702   0.2602708   1.2300245  )
         3           Co  tau(   3) = (   0.8669106   0.4892964   0.1407125  )
         4           Co  tau(   4) = (   0.2889702   1.0098381   2.0379115  )
         5           Co  tau(   5) = (   0.2889702   0.8074408   0.6103167  )
         6           Co  tau(   6) = (   0.8669106   0.6916937   1.5683073  )
         7           Co  tau(   7) = (   0.2889702   0.0578735   0.4789953  )
         8           Co  tau(   8) = (   0.8669106   1.4412610   1.6996287  )
         9           Si  tau(   9) = (   0.2889702   0.3009183   1.9475718  )
        10           Si  tau(  10) = (   0.8669106   1.1982163   0.2310522  )
        11           Si  tau(  11) = (   0.2889702   1.0504856   1.3203642  )
        12           Si  tau(  12) = (   0.8669106   0.4486490   0.8582598  )

     number of k points=    12  gaussian smearing, width (Ry)=  0.1000
                       cart. coord. in units 2pi/alat
        k(    1) = (   0.0000000   0.0000000   0.0000000), wk =   0.0833333
        k(    2) = (   0.0000000   0.0000000   0.1147513), wk =   0.1666667
        k(    3) = (   0.0000000   0.0000000  -0.2295027), wk =   0.0833333
        k(    4) = (   0.0000000   0.2223505   0.0000000), wk =   0.1666667
        k(    5) = (   0.0000000   0.2223505   0.1147513), wk =   0.3333333
        k(    6) = (   0.0000000   0.2223505  -0.2295027), wk =   0.1666667
        k(    7) = (  -0.4325706   0.0000000   0.0000000), wk =   0.0833333
        k(    8) = (  -0.4325706   0.0000000   0.1147513), wk =   0.1666667
        k(    9) = (  -0.4325706   0.0000000  -0.2295027), wk =   0.0833333
        k(   10) = (  -0.4325706   0.2223505   0.0000000), wk =   0.1666667
        k(   11) = (  -0.4325706   0.2223505   0.1147513), wk =   0.3333333
        k(   12) = (  -0.4325706   0.2223505  -0.2295027), wk =   0.1666667

     Largest allocated arrays     est. size (Mb)     dimensions
     Largest temporary arrays     est. size (Mb)     dimensions

     Initial potential from superposition of free atoms

     Starting from uniform charge
     Starting wfc are    0 randomized atomic wfcs

     Writing output data file Prototype-La-oP12-Co2Si.save

     Self-consistent Calculation

[...]

     iteration #  6     ecut=    40.00 Ry     beta=0.70
     CG style diagonalization
     ethr =  1.39E-03,  avg # of iterations =  4.2

[...]

     total energy              =   -2849.72112207 Ry
     Harris-Foulkes estimate   =   -2849.72190331 Ry
     estimated scf accuracy    <       0.00162954 Ry

     iteration # 10     ecut=    40.00 Ry     beta=0.70
     CG style diagonalization
     c_bands:  1 eigenvalues not converged
     c_bands:  1 eigenvalues not converged
     ethr =  7.27E-07,  avg # of iterations =  3.8

     End of self-consistent calculation

[...]

          k = 0.0000 0.2224-0.2295 (  5558 PWs)   bands (ev):

[...]

          k =-0.4326 0.2224-0.2295 (  5568 PWs)   bands (ev):

   -91.4683 -91.4683 -91.4572 -91.4572 -50.2941 -50.2941 -50.2935 -50.2935
   -50.2837 -50.2837 -50.2835 -50.2835 -50.2754 -50.2754 -50.2734 -50.2734
   -24.5655 -24.5655 -24.5451 -24.5451 -24.4468 -24.4468 -24.3702 -24.3702
    -0.7749  -0.7749  -0.5810  -0.5810  -0.5387  -0.5387  -0.4461  -0.4461
    -0.3775  -0.3775  -0.0077  -0.0077   0.1472   0.1472   0.3159   0.3159
     0.4293   0.4293   0.4443   0.4443   0.5787   0.5787   0.6803   0.6803
     7.4856   7.4856   7.4872   7.4872   7.5388   7.5388   7.5578   7.5578
     7.6158   7.6158   7.6283   7.6283   7.6728   7.6728   7.6920   7.6920
     7.7360   7.7360   7.7449   7.7449  19.8392  19.8392  20.0887  20.0887
    24.2527  24.2527  24.6997  24.6997  25.8009  25.8009  26.1217  26.1217
    26.2243  26.2243  26.8907  26.8907  27.1645  27.1645  27.5698  27.5698
    27.7287  27.7287  28.4886  28.4886  28.5243  28.5243  29.5324  29.5324
    29.7223  29.7223  30.0805  30.0805  30.6980  30.6980  31.1570  31.1570
    31.2001  31.2001  31.3935  31.3935  31.8579  31.8579  32.6121  32.6121
    34.0173  34.0173  34.4110  34.4110  35.3952  35.3952  36.3351  36.3352
    37.1063  37.1063  37.4334  37.4334  38.6528  38.6530  39.2185  39.2185
    39.6195  39.6196  39.6599  39.6599  39.8305  39.8306

     the Fermi energy is    33.5620 ev

!    total energy              =   -2849.72160221 Ry
     Harris-Foulkes estimate   =   -2849.72164335 Ry
     estimated scf accuracy    <       0.00005473 Ry

     The total energy is the sum of the following terms:

     one-electron contribution =    -397.57240572 Ry
     hartree contribution      =     387.52796854 Ry
     xc contribution           =    -263.81589246 Ry
     ewald contribution        =   -2575.46584860 Ry
     smearing contrib. (-TS)   =      -0.39542398 Ry

     convergence has been achieved in  10 iterations

     Forces acting on atoms (Ry/au):

     atom    1 type  1   force =     0.00000000    0.00759211    0.01369849
     atom    2 type  1   force =     0.00000000   -0.00759211   -0.01369849
     atom    3 type  1   force =     0.00000000    0.00759211   -0.01369849
     atom    4 type  1   force =     0.00000000   -0.00759211    0.01369849
     atom    5 type  1   force =     0.00000000    0.02154064   -0.05736775
     atom    6 type  1   force =     0.00000000   -0.02154064    0.05736775
     atom    7 type  1   force =     0.00000000    0.02154064    0.05736775
     atom    8 type  1   force =     0.00000000   -0.02154064   -0.05736775
     atom    9 type  2   force =     0.00000000   -0.03759301    0.03037473
     atom   10 type  2   force =     0.00000000    0.03759301   -0.03037473
     atom   11 type  2   force =     0.00000000   -0.03759301   -0.03037473
     atom   12 type  2   force =     0.00000000    0.03759301    0.03037473

     Total force =     0.159201     Total SCF correction =     0.000000

     entering subroutine stress ...

          total   stress  (Ry/bohr**3)                   (kbar)     P=  894.86
   0.00618108   0.00000000   0.00000000        909.27      0.00      0.00
   0.00000000   0.00593144   0.00000000          0.00    872.54      0.00
   0.00000000   0.00000000   0.00613691          0.00      0.00    902.77

     Writing output data file Prototype-La-oP12-Co2Si.save

     General routines

     Parallel routines

   This run was terminated on:  19: 5:15  22Mar2018

   JOB DONE.