     Program PWSCF v.5.0.2 starts on 22Mar2018 at 21:13:37

     Current dimensions of program PWSCF are:
     Max number of different atomic species (ntypx) = 10
     Max number of k-points (npk) =  40000
     Max angular momentum in pseudopotentials (lmaxx) =  3
     Waiting for input...
     Reading input from standard input

     Subspace diagonalization in iterative solution of the eigenvalue problem:
     a serial algorithm will be used

     bravais-lattice index     =            0
     lattice parameter (alat)  =       9.9235  a.u.
     unit-cell volume          =    1361.0366 (a.u.)^3
     number of atoms/cell      =           12
     number of atomic types    =            2
     number of electrons       =       180.00
     number of Kohn-Sham states=          108
     kinetic-energy cutoff     =      40.0000  Ry
     charge density cutoff     =     160.0000  Ry
     convergence threshold     =      1.0E-04
     mixing beta               =       0.7000
     number of iterations used =            8  plain     mixing
     Exchange-correlation      = SLA-PZ-NOGX-NOGC ( 1 1 0 0 0)
     EXX-fraction              =        0.00
     nstep                     =           50

     celldm(1)=   9.923489  celldm(2)=   0.000000  celldm(3)=   0.000000
     celldm(4)=   0.000000  celldm(5)=   0.000000  celldm(6)=   0.000000

     crystal axes: (cart. coord. in units of alat)
               a(1) = (   1.000000   0.000000   0.000000 )
               a(2) = (  -0.500000   0.866025   0.000000 )
               a(3) = (   0.000000   0.000000   1.608222 )

     reciprocal axes: (cart. coord. in units 2 pi/alat)
               b(1) = (  1.000000  0.577350  0.000000 )
               b(2) = (  0.000000  1.154701  0.000000 )
               b(3) = (  0.000000  0.000000  0.621805 )

     PseudoPot. # 1 for Eu read from file:
     /home/cwx6513/pp.La/Eu.UPF
     MD5 check sum: 5efdbbfc50c6a10138933a6429836ad2
     Pseudo is Norm-conserving, Zval = 17.0
     Generated in analytical, separable form
     Using radial grid of 1261 points,  6 beta functions with:
                l(1) =   0
                l(2) =   0
                l(3) =   1
                l(4) =   1
                l(5) =   2
                l(6) =   3

     PseudoPot. # 2 for Nd read from file:
     /home/cwx6513/pp.La/Nd.UPF
     MD5 check sum: c66c5b6abe7b5840ced9b1e244e3bed6
     Pseudo is Norm-conserving, Zval = 14.0
     Generated in analytical, separable form
     Using radial grid of 1257 points,  6 beta functions with:
                l(1) =   0
                l(2) =   0
                l(3) =   1
                l(4) =   1
                l(5) =   2
                l(6) =   3

     atomic species   valence    mass     pseudopotential
        Mg            17.00    24.30500     Eu( 1.00)
        Zn            14.00    65.39000     Nd( 1.00)

     24 Sym. Ops., with inversion, found (12 have fractional translation)

   Cartesian axes

     site n.     atom                  positions (alat units)
         1           Mg  tau(   1) = (  -0.0000005   0.5773506   0.1003820  )
         2           Mg  tau(   2) = (   0.5000005   0.2886748   0.9044931  )
         3           Mg  tau(   3) = (   0.5000005   0.2886748   1.5078402  )
         4           Mg  tau(   4) = (  -0.0000005   0.5773506   0.7037291  )
         5           Zn  tau(   5) = (   0.0000000   0.0000000   0.0000000  )
         6           Zn  tau(   6) = (   0.0000000   0.0000000   0.8041111  )
         7           Zn  tau(   7) = (   0.0000000   0.2950739   1.2061667  )
         8           Zn  tau(   8) = (   0.7444585   0.1475370   0.4020556  )
         9           Zn  tau(   9) = (   0.2555415   0.1475370   0.4020556  )
        10           Zn  tau(  10) = (   0.2444585   0.7184884   1.2061667  )
        11           Zn  tau(  11) = (  -0.2444585   0.7184884   1.2061667  )
        12           Zn  tau(  12) = (   0.5000000   0.5709515   0.4020556  )

     number of k points=    12  gaussian smearing, width (Ry)=  0.1000
                       cart. coord. in units 2pi/alat
        k(    1) = (   0.0000000   0.0000000   0.0000000), wk =   0.0833333
        k(    2) = (   0.0000000   0.0000000   0.1554512), wk =   0.1666667
        k(    3) = (   0.0000000   0.0000000  -0.3109023), wk =   0.0833333
        k(    4) = (   0.0000000   0.3849002   0.0000000), wk =   0.1666667
        k(    5) = (   0.0000000   0.3849002   0.1554512), wk =   0.3333333
        k(    6) = (   0.0000000   0.3849002  -0.3109023), wk =   0.1666667
        k(    7) = (  -0.5000000  -0.2886751   0.0000000), wk =   0.0833333
        k(    8) = (  -0.5000000  -0.2886751   0.1554512), wk =   0.1666667
        k(    9) = (  -0.5000000  -0.2886751  -0.3109023), wk =   0.0833333
        k(   10) = (  -0.5000000   0.0962250   0.0000000), wk =   0.1666667
        k(   11) = (  -0.5000000   0.0962250   0.1554512), wk =   0.3333333
        k(   12) = (  -0.5000000   0.0962250  -0.3109023), wk =   0.1666667

     Largest allocated arrays     est. size (Mb)     dimensions
     Largest temporary arrays     est. size (Mb)     dimensions

     Initial potential from superposition of free atoms

     Starting from uniform charge
     Starting wfc are    0 randomized atomic wfcs

     Self-consistent Calculation

     iteration #  1     ecut=    40.00 Ry     beta=0.70
     CG style diagonalization
     c_bands:  3 eigenvalues not converged
     c_bands:  3 eigenvalues not converged
     c_bands:  2 eigenvalues not converged
     c_bands:  3 eigenvalues not converged
     c_bands:  3 eigenvalues not converged
     c_bands:  3 eigenvalues not converged
     c_bands:  4 eigenvalues not converged
     c_bands:  2 eigenvalues not converged
     c_bands:  1 eigenvalues not converged
     c_bands:  5 eigenvalues not converged
     c_bands:  2 eigenvalues not converged
     ethr =  1.00E-02,  avg # of iterations = 12.2

     total energy              =   -1488.83956302 Ry
     Harris-Foulkes estimate   =   -1768.25913023 Ry
     estimated scf accuracy    <     374.59684874 Ry

     iteration #  2     ecut=    40.00 Ry     beta=0.70
     CG style diagonalization
     ethr =  1.00E-02,  avg # of iterations =  7.4

[...]

     End of self-consistent calculation

          k = 0.0000 0.0000 0.0000 (  5769 PWs)   bands (ev):

   -34.4476 -34.4339 -34.4103 -34.3937 -20.7954 -20.4690 -19.6076 -19.2380
   -19.2380 -19.2321 -19.2321 -19.1990  -7.3577  -7.3577  -7.3409  -7.3200
    -7.3056  -7.3056  -7.1334  -7.1279  -7.1278  -7.1235  -7.0994  -7.0994
    -2.6209  -1.8222  -0.8918   0.2235   0.2235   0.4505   0.4505   0.6133
     0.6133   1.2841   2.0713   2.0713   2.1268   2.1268   2.4212   3.6505
     3.6525   3.7004   3.7011   3.7012   4.0733   4.0733   4.2359   4.2359
    19.7792  20.7971  20.8159  22.0575  22.0575  22.3704  22.5684  22.6120
    22.6120  22.8966  22.9794  22.9794  22.9845  22.9846  23.0742  23.1515
    23.1515  23.3550  23.8224  23.8224  24.2646  24.2647  24.9571  25.1106
    25.1106  25.7951  25.7951  25.8078  25.8078  25.8360  25.8635  25.8635
    26.3139  26.3139  26.9443  26.9443  27.3661  27.4551  27.4552  28.2772
    29.4402  29.5838  29.5838  29.7339  29.8817  30.0132  30.0132  30.6984
    30.8004  31.3691  31.3691  31.7253  31.7253  31.7347  31.7347  32.7203
    32.7595  32.7596  34.5601  34.5780

[...]

          k =-0.5000-0.2887 0.0000 (  5800 PWs)   bands (ev):

[...]

     the Fermi energy is    28.7573 ev

!    total energy              =   -1582.60375382 Ry
     Harris-Foulkes estimate   =   -1582.60376118 Ry
     estimated scf accuracy    <       0.00000632 Ry

     The total energy is the sum of the following terms:

     one-electron contribution =      83.83173540 Ry
     hartree contribution      =     128.81994576 Ry
     xc contribution           =    -181.83364211 Ry
     ewald contribution        =   -1612.84857295 Ry
     smearing contrib. (-TS)   =      -0.57321991 Ry

     convergence has been achieved in  11 iterations

     Forces acting on atoms (Ry/au):

     atom    1 type  1   force =     0.00000000    0.00000000    0.01948535
     atom    2 type  1   force =     0.00000000    0.00000000    0.01948535
     atom    3 type  1   force =     0.00000000    0.00000000   -0.01948535
     atom    4 type  1   force =     0.00000000    0.00000000   -0.01948535
     atom    5 type  2   force =     0.00000000    0.00000000    0.00000000
     atom    6 type  2   force =     0.00000000    0.00000000    0.00000000
     atom    7 type  2   force =     0.00000000    0.04270737    0.00000000
     atom    8 type  2   force =    -0.03698567    0.02135368    0.00000000
     atom    9 type  2   force =     0.03698567    0.02135368    0.00000000
     atom   10 type  2   force =    -0.03698567   -0.02135368    0.00000000
     atom   11 type  2   force =     0.03698567   -0.02135368    0.00000000
     atom   12 type  2   force =     0.00000000   -0.04270737    0.00000000

     Total force =     0.111634     Total SCF correction =     0.000000

     entering subroutine stress ...

          total   stress  (Ry/bohr**3)                   (kbar)     P=  781.71
   0.00533398   0.00000000   0.00000000        784.65      0.00      0.00
   0.00000000   0.00533398   0.00000000          0.00    784.65      0.00
   0.00000000   0.00000000   0.00527384          0.00      0.00    775.81

     BFGS Geometry Optimization

     number of scf cycles    =   1
     number of bfgs steps    =   0

     enthalpy new            =   -1582.6037538162 Ry

     new trust radius        =       0.5000000000 bohr
     new conv_thr            =       0.0001000000 Ry

     new unit-cell volume =   1655.71642 a.u.^3 (   245.35186 Ang^3 )

CELL_PARAMETERS (alat=  9.92348860)
   1.067764947   0.000000000   0.000000000
  -0.533882474   0.924711570   0.000000000
   0.000000000   0.000000000   1.715974695

ATOMIC_POSITIONS (crystal)
Mg       0.333333000   0.666667000   0.063038457
Mg       0.666667000   0.333333000   0.563038457
Mg       0.666667000   0.333333000   0.936961543
Mg       0.333333000   0.666667000   0.436961543
Zn       0.000000000   0.000000000   0.000000000
Zn       0.000000000   0.000000000   0.500000000
Zn       0.171623676   0.343247352   0.750000000
Zn       0.828376324   0.171623676   0.250000000
Zn       0.343247352   0.171623676   0.250000000
Zn       0.656752648   0.828376324   0.750000000
Zn       0.171623676   0.828376324   0.750000000
Zn       0.828376324   0.656752648   0.250000000

     Writing output data file Prototype-La-hP12-MgZn2.save
     NEW-OLD atomic charge density approx. for the potential
     NEW k-points:
        k(    1) = (   0.0000000   0.0000000   0.0000000), wk =   0.0833333
        k(    2) = (   0.0000000   0.0000000   0.1456898), wk =   0.1666667
        k(    3) = (   0.0000000   0.0000000  -0.2913796), wk =   0.0833333
        k(    4) = (   0.0000000   0.3604728   0.0000000), wk =   0.1666667
        k(    5) = (   0.0000000   0.3604728   0.1456898), wk =   0.3333333
        k(    6) = (   0.0000000   0.3604728  -0.2913796), wk =   0.1666667
        k(    7) = (  -0.4682679  -0.2703546   0.0000000), wk =   0.0833333
        k(    8) = (  -0.4682679  -0.2703546   0.1456898), wk =   0.1666667
        k(    9) = (  -0.4682679  -0.2703546  -0.2913796), wk =   0.0833333
        k(   10) = (  -0.4682679   0.0901182   0.0000000), wk =   0.1666667
        k(   11) = (  -0.4682679   0.0901182   0.1456898), wk =   0.3333333
        k(   12) = (  -0.4682679   0.0901182  -0.2913796), wk =   0.1666667

[...]

     enthalpy old            =   -1582.6037538162 Ry
     enthalpy new            =   -1583.0992485609 Ry

     CASE: enthalpy_new < enthalpy_old

     small trust_radius: resetting bfgs history

[...]

     number of scf cycles    =   3
     number of bfgs steps    =   2

     enthalpy old            =   -1583.0992485609 Ry
     enthalpy new            =   -1583.1015943300 Ry

     CASE: enthalpy_new < enthalpy_old

     Message from routine bfgs:
     history already reset at previous step: stopping
     small trust_radius: resetting bfgs history

     new trust radius        =       0.2475957334 bohr
     new conv_thr            =       0.0000122567 Ry

     new unit-cell volume =   1664.88416 a.u.^3 (   246.71038 Ang^3 )

[...]

ATOMIC_POSITIONS (crystal)
Mg       0.333333000   0.666667000   0.064056041
Mg       0.666667000   0.333333000   0.564056041
Mg       0.666667000   0.333333000   0.935943959
Mg       0.333333000   0.666667000   0.435943959
Zn       0.000000000   0.000000000   0.000000000
Zn       0.000000000   0.000000000   0.500000000
Zn       0.171457412   0.342914823   0.750000000
Zn       0.828542588   0.171457412   0.250000000
Zn       0.342914823   0.171457412   0.250000000
Zn       0.657085177   0.828542588   0.750000000
Zn       0.171457412   0.828542588   0.750000000
Zn       0.828542588   0.657085177   0.250000000

     Writing output data file Prototype-La-hP12-MgZn2.save
     NEW-OLD atomic charge density approx. for the potential
     NEW k-points:
        k(    1) = (   0.0000000   0.0000000   0.0000000), wk =   0.0833333
        k(    2) = (   0.0000000   0.0000000   0.1459199), wk =   0.1666667
        k(    3) = (   0.0000000   0.0000000  -0.2918398), wk =   0.0833333
        k(    4) = (   0.0000000   0.3591953   0.0000000), wk =   0.1666667
        k(    5) = (   0.0000000   0.3591953   0.1459199), wk =   0.3333333
        k(    6) = (   0.0000000   0.3591953  -0.2918398), wk =   0.1666667
        k(    7) = (  -0.4666084  -0.2693965   0.0000000), wk =   0.0833333
        k(    8) = (  -0.4666084  -0.2693965   0.1459199), wk =   0.1666667
        k(    9) = (  -0.4666084  -0.2693965  -0.2918398), wk =   0.0833333
        k(   10) = (  -0.4666084   0.0897988   0.0000000), wk =   0.1666667
        k(   11) = (  -0.4666084   0.0897988   0.1459199), wk =   0.3333333
        k(   12) = (  -0.4666084   0.0897988  -0.2918398), wk =   0.1666667

[...]

     The maximum number of steps has been reached.

     End of BFGS Geometry Optimization
Begin final coordinates
     new unit-cell volume =   1664.88416 a.u.^3 (   246.71038 Ang^3 )

CELL_PARAMETERS (alat=  9.92348860)
   1.071562268   0.000000000   0.000000000
  -0.535781134   0.928000146   0.000000000
   0.000000000   0.000000000   1.713268536

ATOMIC_POSITIONS (crystal)
Mg       0.333333000   0.666667000   0.064056041
Mg       0.666667000   0.333333000   0.564056041
Mg       0.666667000   0.333333000   0.935943959
Mg       0.333333000   0.666667000   0.435943959
Zn       0.000000000   0.000000000   0.000000000
Zn       0.000000000   0.000000000   0.500000000
Zn       0.171457412   0.342914823   0.750000000
Zn       0.828542588   0.171457412   0.250000000
Zn       0.342914823   0.171457412   0.250000000
Zn       0.657085177   0.828542588   0.750000000
Zn       0.171457412   0.828542588   0.750000000
Zn       0.828542588   0.657085177   0.250000000
End final coordinates

     A final scf calculation at the relaxed structure.
     The G-vectors are recalculated for the final unit cell
     Results may differ from those at the preceding step.

     bravais-lattice index     =            0
     lattice parameter (alat)  =       9.9235  a.u.
     unit-cell volume          =    1664.8842 (a.u.)^3
     number of atoms/cell      =           12
     number of atomic types    =            2
     number of electrons       =       180.00
     number of Kohn-Sham states=          108
     kinetic-energy cutoff     =      40.0000  Ry
     charge density cutoff     =     160.0000  Ry
     convergence threshold     =      1.2E-05
     mixing beta               =       0.7000
     number of iterations used =            8  plain     mixing
     Exchange-correlation      = SLA-PZ-NOGX-NOGC ( 1 1 0 0 0)
     EXX-fraction              =        0.00

     celldm(1)=   9.923489  celldm(2)=   0.000000  celldm(3)=   0.000000
     celldm(4)=   0.000000  celldm(5)=   0.000000  celldm(6)=   0.000000

     crystal axes: (cart. coord. in units of alat)
               a(1) = (   1.071562   0.000000   0.000000 )
               a(2) = (  -0.535781   0.928000   0.000000 )
               a(3) = (   0.000000   0.000000   1.713269 )

     reciprocal axes: (cart. coord. in units 2 pi/alat)
               b(1) = (  0.933217  0.538793  0.000000 )
               b(2) = (  0.000000  1.077586  0.000000 )
               b(3) = (  0.000000  0.000000  0.583680 )

     PseudoPot. # 1 for Eu read from file:
     /home/cwx6513/pp.La/Eu.UPF
     MD5 check sum: 5efdbbfc50c6a10138933a6429836ad2
     Pseudo is Norm-conserving, Zval = 17.0
     Generated in analytical, separable form
     Using radial grid of 1261 points,  6 beta functions with:
                l(1) =   0
                l(2) =   0
                l(3) =   1
                l(4) =   1
                l(5) =   2
                l(6) =   3

     PseudoPot. # 2 for Nd read from file:
     /home/cwx6513/pp.La/Nd.UPF
     MD5 check sum: c66c5b6abe7b5840ced9b1e244e3bed6
     Pseudo is Norm-conserving, Zval = 14.0
     Generated in analytical, separable form
     Using radial grid of 1257 points,  6 beta functions with:
                l(1) =   0
                l(2) =   0
                l(3) =   1
                l(4) =   1
                l(5) =   2
                l(6) =   3

     atomic species   valence    mass     pseudopotential
        Mg            17.00    24.30500     Eu( 1.00)
        Zn            14.00    65.39000     Nd( 1.00)

     24 Sym. Ops., with inversion, found (12 have fractional translation)

   Cartesian axes

     site n.     atom                  positions (alat units)
         1           Mg  tau(   1) = (  -0.0000005   0.6186671   0.1097452  )
         2           Mg  tau(   2) = (   0.5357817   0.3093331   0.9663795  )
         3           Mg  tau(   3) = (   0.5357817   0.3093331   1.6035233  )
         4           Mg  tau(   4) = (  -0.0000005   0.6186671   0.7468891  )
         5           Zn  tau(   5) = (   0.0000000   0.0000000   0.0000000  )
         6           Zn  tau(   6) = (   0.0000000   0.0000000   0.8566343  )
         7           Zn  tau(   7) = (   0.0000000   0.3182250   1.2849514  )
         8           Zn  tau(   8) = (   0.7959713   0.1591125   0.4283171  )
         9           Zn  tau(   9) = (   0.2755909   0.1591125   0.4283171  )
        10           Zn  tau(  10) = (   0.2601902   0.7688876   1.2849514  )
        11           Zn  tau(  11) = (  -0.2601902   0.7688876   1.2849514  )
        12           Zn  tau(  12) = (   0.5357811   0.6097751   0.4283171  )

     number of k points=    12  gaussian smearing, width (Ry)=  0.1000
                       cart. coord. in units 2pi/alat
        k(    1) = (   0.0000000   0.0000000   0.0000000), wk =   0.0833333
        k(    2) = (   0.0000000   0.0000000   0.1459199), wk =   0.1666667
        k(    3) = (   0.0000000   0.0000000  -0.2918398), wk =   0.0833333
        k(    4) = (   0.0000000   0.3591953   0.0000000), wk =   0.1666667
        k(    5) = (   0.0000000   0.3591953   0.1459199), wk =   0.3333333
        k(    6) = (   0.0000000   0.3591953  -0.2918398), wk =   0.1666667
        k(    7) = (  -0.4666084  -0.2693965   0.0000000), wk =   0.0833333
        k(    8) = (  -0.4666084  -0.2693965   0.1459199), wk =   0.1666667
        k(    9) = (  -0.4666084  -0.2693965  -0.2918398), wk =   0.0833333
        k(   10) = (  -0.4666084   0.0897988   0.0000000), wk =   0.1666667
        k(   11) = (  -0.4666084   0.0897988   0.1459199), wk =   0.3333333
        k(   12) = (  -0.4666084   0.0897988  -0.2918398), wk =   0.1666667

     Largest allocated arrays     est. size (Mb)     dimensions
     Largest temporary arrays     est. size (Mb)     dimensions

     Initial potential from superposition of free atoms

     Starting from uniform charge
     Starting wfc are    0 randomized atomic wfcs

     Writing output data file Prototype-La-hP12-MgZn2.save

     Self-consistent Calculation

[...]

     iteration # 12     ecut=    40.00 Ry     beta=0.70
     CG style diagonalization
     c_bands:  1 eigenvalues not converged
     ethr =  1.76E-07,  avg # of iterations =  3.6

     total energy              =   -1583.79790810 Ry
     Harris-Foulkes estimate   =   -1583.79791702 Ry
     estimated scf accuracy    <       0.00002505 Ry

     iteration # 13     ecut=    40.00 Ry     beta=0.70
     CG style diagonalization
     ethr =  1.39E-08,  avg # of iterations =  4.4

     End of self-consistent calculation

[...]

          k = 0.0000 0.3592-0.2918 (  7104 PWs)   bands (ev):

[...]

          k =-0.4666 0.0898-0.2918 (  7110 PWs)   bands (ev):

   -40.0222 -40.0222 -40.0139 -40.0139 -25.7210 -25.7210 -25.5072 -25.5072
   -25.1891 -25.1891 -25.1298 -25.1298 -12.7804 -12.7804 -12.7489 -12.7489
   -12.7146 -12.7146 -12.6726 -12.6725 -12.6444 -12.6444 -12.6408 -12.6408
    -5.6549  -5.6549  -4.9508  -4.9508  -4.4386  -4.4386  -4.3682  -4.3682
    -4.2215  -4.2215  -4.0145  -4.0145  -3.6461  -3.6461  -3.3113  -3.3113
    -3.0759  -3.0759  -2.9228  -2.9228  -2.5722  -2.5722  -2.4975  -2.4975
    17.1117  17.1118  17.4313  17.4313  17.8669  17.8669  18.0831  18.0831
    18.2068  18.2068  18.3476  18.3476  18.6363  18.6363  18.8040  18.8040
    18.8787  18.8787  19.1231  19.1231  19.3395  19.3395  19.7436  19.7436
    20.0542  20.0542  20.1665  20.1665  20.6156  20.6156  20.8585  20.8585
    21.1902  21.1902  21.3768  21.3768  21.7421  21.7421  22.2292  22.2292
    22.3170  22.3170  22.6037  22.6037  23.0297  23.0297  23.5267  23.5267
    23.8195  23.8195  24.1159  24.1159  24.2011  24.2011  24.9172  24.9172
    25.1907  25.1908  25.3126  25.3132

     the Fermi energy is    22.6527 ev

!    total energy              =   -1583.79791769 Ry
     Harris-Foulkes estimate   =   -1583.79791904 Ry
     estimated scf accuracy    <       0.00000154 Ry

     The total energy is the sum of the following terms:

     one-electron contribution =     -58.61041068 Ry
     hartree contribution      =     161.67601645 Ry
     xc contribution           =    -177.85294560 Ry
     ewald contribution        =   -1508.28753949 Ry
     smearing contrib. (-TS)   =      -0.72303837 Ry

     convergence has been achieved in  13 iterations

     Forces acting on atoms (Ry/au):

     atom    1 type  1   force =     0.00000000    0.00000000    0.00635016
     atom    2 type  1   force =     0.00000000    0.00000000    0.00635016
     atom    3 type  1   force =     0.00000000    0.00000000   -0.00635016
     atom    4 type  1   force =     0.00000000    0.00000000   -0.00635016
     atom    5 type  2   force =     0.00000000    0.00000000    0.00000000
     atom    6 type  2   force =     0.00000000    0.00000000    0.00000000
     atom    7 type  2   force =     0.00000000    0.00722632    0.00000000
     atom    8 type  2   force =    -0.00625818    0.00361316    0.00000000
     atom    9 type  2   force =     0.00625818    0.00361316    0.00000000
     atom   10 type  2   force =    -0.00625818   -0.00361316    0.00000000
     atom   11 type  2   force =     0.00625818   -0.00361316    0.00000000
     atom   12 type  2   force =     0.00000000   -0.00722632    0.00000000

     Total force =     0.021786     Total SCF correction =     0.000000

     entering subroutine stress ...

          total   stress  (Ry/bohr**3)                   (kbar)     P=   13.79
   0.00012036   0.00000000   0.00000000         17.71      0.00      0.00
   0.00000000   0.00012036   0.00000000          0.00     17.71      0.00
   0.00000000   0.00000000   0.00004061          0.00      0.00      5.97

     Writing output data file Prototype-La-hP12-MgZn2.save

     General routines

     Parallel routines

   This run was terminated on:  21:31: 5  22Mar2018

   JOB DONE.