     Program PWSCF v.5.0.2 starts on 22Mar2018 at 21:15: 6

     Current dimensions of program PWSCF are:
     Max number of different atomic species (ntypx) = 10
     Max number of k-points (npk) =  40000
     Max angular momentum in pseudopotentials (lmaxx) =  3
     Waiting for input...
     Reading input from standard input

     Subspace diagonalization in iterative solution of the eigenvalue problem:
     a serial algorithm will be used

     bravais-lattice index     =            0
     lattice parameter (alat)  =       7.0151  a.u.
     unit-cell volume          =     862.2778 (a.u.)^3
     number of atoms/cell      =           12
     number of atomic types    =            2
     number of electrons       =       192.00
     number of Kohn-Sham states=          115
     kinetic-energy cutoff     =      40.0000  Ry
     charge density cutoff     =     160.0000  Ry
     convergence threshold     =      1.0E-04
     mixing beta               =       0.7000
     number of iterations used =            8  plain     mixing
     Exchange-correlation      = SLA-PZ-NOGX-NOGC ( 1 1 0 0 0)
     EXX-fraction              =        0.00
     nstep                     =           50

     celldm(1)=   7.015105  celldm(2)=   0.000000  celldm(3)=   0.000000
     celldm(4)=   0.000000  celldm(5)=   0.000000  celldm(6)=   0.000000

     crystal axes: (cart. coord. in units of alat)
               a(1) = (   1.000000   0.000000   0.000000 )
               a(2) = (   0.000000   1.315963   0.000000 )
               a(3) = (   0.000000   0.000000   1.898020 )

     reciprocal axes: (cart. coord. in units 2 pi/alat)
               b(1) = (  1.000000  0.000000  0.000000 )
               b(2) = (  0.000000  0.759900  0.000000 )
               b(3) = (  0.000000  0.000000  0.526865 )

     PseudoPot. # 1 for Eu read from file:
     /home/cwx6513/pp.La/Eu.UPF
     MD5 check sum: 5efdbbfc50c6a10138933a6429836ad2
     Pseudo is Norm-conserving, Zval = 17.0
     Generated in analytical, separable form
     Using radial grid of 1261 points,  6 beta functions with:
                l(1) =   0
                l(2) =   0
                l(3) =   1
                l(4) =   1
                l(5) =   2
                l(6) =   3

     PseudoPot. # 2 for Nd read from file:
     /home/cwx6513/pp.La/Nd.UPF
     MD5 check sum: c66c5b6abe7b5840ced9b1e244e3bed6
     Pseudo is Norm-conserving, Zval = 14.0
     Generated in analytical, separable form
     Using radial grid of 1257 points,  6 beta functions with:
                l(1) =   0
                l(2) =   0
                l(3) =   1
                l(4) =   1
                l(5) =   2
                l(6) =   3

     atomic species   valence    mass     pseudopotential
        Co            17.00    58.93320     Eu( 1.00)
        Si            14.00    28.08550     Nd( 1.00)

      8 Sym. Ops., with inversion, found ( 6 have fractional translation)

   Cartesian axes

     site n.     atom                  positions (alat units)
         1           Co  tau(   1) = (   0.7500000   1.0875135   0.8270358  )
         2           Co  tau(   2) = (   0.2500000   0.2284499   1.0709846  )
         3           Co  tau(   3) = (   0.7500000   0.4295318   0.1219744  )
         4           Co  tau(   4) = (   0.2500000   0.8864316   1.7760460  )
         5           Co  tau(   5) = (   0.2500000   0.7067855   0.5358966  )
         6           Co  tau(   6) = (   0.7500000   0.6091779   1.3621238  )
         7           Co  tau(   7) = (   0.2500000   0.0488038   0.4131136  )
         8           Co  tau(   8) = (   0.7500000   1.2671596   1.4849068  )
         9           Si  tau(   9) = (   0.2500000   0.2669484   1.6960710  )
        10           Si  tau(  10) = (   0.7500000   1.0490149   0.2019494  )
        11           Si  tau(  11) = (   0.2500000   0.9249301   1.1509596  )
        12           Si  tau(  12) = (   0.7500000   0.3910333   0.7470608  )

     number of k points=    12  gaussian smearing, width (Ry)=  0.1000
                       cart. coord. in units 2pi/alat
        k(    1) = (   0.0000000   0.0000000   0.0000000), wk =   0.0833333
        k(    2) = (   0.0000000   0.0000000   0.1317162), wk =   0.1666667
        k(    3) = (   0.0000000   0.0000000  -0.2634324), wk =   0.0833333
        k(    4) = (   0.0000000   0.2532999   0.0000000), wk =   0.1666667
        k(    5) = (   0.0000000   0.2532999   0.1317162), wk =   0.3333333
        k(    6) = (   0.0000000   0.2532999  -0.2634324), wk =   0.1666667
        k(    7) = (  -0.5000000   0.0000000   0.0000000), wk =   0.0833333
        k(    8) = (  -0.5000000   0.0000000   0.1317162), wk =   0.1666667
        k(    9) = (  -0.5000000   0.0000000  -0.2634324), wk =   0.0833333
        k(   10) = (  -0.5000000   0.2532999   0.0000000), wk =   0.1666667
        k(   11) = (  -0.5000000   0.2532999   0.1317162), wk =   0.3333333
        k(   12) = (  -0.5000000   0.2532999  -0.2634324), wk =   0.1666667

     Largest allocated arrays     est. size (Mb)     dimensions
     Largest temporary arrays     est. size (Mb)     dimensions

     Initial potential from superposition of free atoms

     Starting from uniform charge
     Starting wfc are    0 randomized atomic wfcs

     Self-consistent Calculation

     iteration #  1     ecut=    40.00 Ry     beta=0.70
     CG style diagonalization
     c_bands:  1 eigenvalues not converged
     c_bands:  1 eigenvalues not converged
     ethr =  1.00E-02,  avg # of iterations = 10.7

     total energy              =   -1736.76759234 Ry
     Harris-Foulkes estimate   =   -1958.65121060 Ry
     estimated scf accuracy    <     297.86558123 Ry

     iteration #  2     ecut=    40.00 Ry     beta=0.70
     CG style diagonalization
     ethr =  1.00E-02,  avg # of iterations =  8.3

[...]

     End of self-consistent calculation

          k = 0.0000 0.0000 0.0000 (  3675 PWs)   bands (ev):

   -18.6497 -18.0588 -18.0413 -17.7400 -17.6072 -17.3689 -17.3417 -17.2986
    -2.3210  -2.3187  -2.0901  -1.7025   6.1945   6.7545   6.9278   7.0366
     7.4749   7.5661   7.5821   7.6403   7.8419   8.4236   8.6208   8.6741
     8.8484   8.8698   8.9331   9.0062   9.2041   9.5321   9.5693   9.6724
     9.9188   9.9932  10.6619  10.8928  18.5331  18.9298  19.0360  19.2401
    19.2712  19.5809  19.8533  19.9198  19.9386  20.1381  20.3249  20.3795
    33.3541  33.5335  33.6076  34.4080  34.4161  34.6418  34.8983  35.2418
    35.3353  36.5041  36.8335  37.1929  37.5428  38.0106  38.2999  38.7370
    39.1342  39.3803  39.3956  39.9792  40.2220  40.5450  40.6940  41.0820
    41.7390  41.8111  41.9128  41.9845  42.4116  42.8013  43.0983  43.3884
    43.9474  43.9678  44.2459  44.2534  44.5493  44.9720  46.0630  46.1361
    46.4671  46.6958  46.8627  46.9984  47.8534  47.9882  48.5122  48.9575
    49.0280  49.3861  49.6102  50.7071  50.9234  51.1962  51.3854  51.4518
    51.5380  52.4865  52.7213  52.8830  53.2666  53.3004  54.4937  54.8304
    54.9797  55.6184  56.1164

[...]

          k =-0.5000 0.0000 0.0000 (  3722 PWs)   bands (ev):

[...]

     the Fermi energy is    48.4570 ev

!    total energy              =   -1831.58004167 Ry
     Harris-Foulkes estimate   =   -1831.58008010 Ry
     estimated scf accuracy    <       0.00004400 Ry

     The total energy is the sum of the following terms:

     one-electron contribution =     433.24298304 Ry
     hartree contribution      =      89.81531570 Ry
     xc contribution           =    -214.31996337 Ry
     ewald contribution        =   -2139.89566481 Ry
     smearing contrib. (-TS)   =      -0.42271223 Ry

     convergence has been achieved in   9 iterations

     Forces acting on atoms (Ry/au):

     atom    1 type  1   force =     0.00000000   -0.06656812   -0.12010282
     atom    2 type  1   force =     0.00000000    0.06656812    0.12010282
     atom    3 type  1   force =     0.00000000   -0.06656812    0.12010282
     atom    4 type  1   force =     0.00000000    0.06656812   -0.12010282
     atom    5 type  1   force =     0.00000000    0.17571656   -0.20157646
     atom    6 type  1   force =     0.00000000   -0.17571656    0.20157646
     atom    7 type  1   force =     0.00000000    0.17571656    0.20157646
     atom    8 type  1   force =     0.00000000   -0.17571656   -0.20157646
     atom    9 type  2   force =     0.00000000   -0.15146318   -0.05417550
     atom   10 type  2   force =     0.00000000    0.15146318    0.05417550
     atom   11 type  2   force =     0.00000000   -0.15146318    0.05417550
     atom   12 type  2   force =     0.00000000    0.15146318   -0.05417550

     Total force =     0.681884     Total SCF correction =     0.000000

     entering subroutine stress ...

          total   stress  (Ry/bohr**3)                   (kbar)     P= 6413.01
   0.04528233   0.00000000   0.00000000       6661.26      0.00      0.00
   0.00000000   0.04120337   0.00000000          0.00   6061.22      0.00
   0.00000000   0.00000000   0.04429861          0.00      0.00   6516.55

     BFGS Geometry Optimization

     number of scf cycles    =   1
     number of bfgs steps    =   0

     enthalpy new            =   -1831.5800416662 Ry

     new trust radius        =       0.5000000000 bohr
     new conv_thr            =       0.0001000000 Ry

     new unit-cell volume =   1092.14286 a.u.^3 (   161.83887 Ang^3 )

CELL_PARAMETERS (alat=  7.01510508)
   1.085136619   0.000000000   0.000000000
   0.000000000   1.417907973   0.000000000
   0.000000000   0.000000000   2.056101005

ATOMIC_POSITIONS (crystal)
Co       0.750000000   0.825858705   0.435057631
Co       0.250000000   0.174141295   0.564942369
Co       0.750000000   0.325858705   0.064942369
Co       0.250000000   0.674141295   0.935057631
Co       0.250000000   0.538517470   0.281206449
Co       0.750000000   0.461482530   0.718793551
Co       0.250000000   0.038517470   0.218793551
Co       0.750000000   0.961482530   0.781206449
Si       0.250000000   0.201620109   0.893294004
Si       0.750000000   0.798379891   0.106705996
Si       0.250000000   0.701620109   0.606705996
Si       0.750000000   0.298379891   0.393294004

     Writing output data file Prototype-La-oP12-Co2Si.save
     NEW-OLD atomic charge density approx. for the potential
     NEW k-points:
        k(    1) = (   0.0000000   0.0000000   0.0000000), wk =   0.0833333
        k(    2) = (   0.0000000   0.0000000   0.1215894), wk =   0.1666667
        k(    3) = (   0.0000000   0.0000000  -0.2431787), wk =   0.0833333
        k(    4) = (   0.0000000   0.2350881   0.0000000), wk =   0.1666667
        k(    5) = (   0.0000000   0.2350881   0.1215894), wk =   0.3333333
        k(    6) = (   0.0000000   0.2350881  -0.2431787), wk =   0.1666667
        k(    7) = (  -0.4607715   0.0000000   0.0000000), wk =   0.0833333
        k(    8) = (  -0.4607715   0.0000000   0.1215894), wk =   0.1666667
        k(    9) = (  -0.4607715   0.0000000  -0.2431787), wk =   0.0833333
        k(   10) = (  -0.4607715   0.2350881   0.0000000), wk =   0.1666667
        k(   11) = (  -0.4607715   0.2350881   0.1215894), wk =   0.3333333
        k(   12) = (  -0.4607715   0.2350881  -0.2431787), wk =   0.1666667

[...]

     enthalpy old            =   -1831.5800416662 Ry
     enthalpy new            =   -1837.6500118907 Ry

     CASE: enthalpy_new < enthalpy_old

     small trust_radius: resetting bfgs history

     new trust radius        =       2.2670641121 bohr
     new conv_thr            =       0.0001000000 Ry

[...]

          total   stress  (Ry/bohr**3)                   (kbar)     P=-1423.41
  -0.00988563   0.00000000   0.00000000      -1454.23      0.00      0.00
   0.00000000  -0.00939676   0.00000000          0.00  -1382.31      0.00
   0.00000000   0.00000000  -0.00974596          0.00      0.00  -1433.68

     number of scf cycles    =   3
     number of bfgs steps    =   2

     enthalpy old            =   -1837.6500118907 Ry
     enthalpy new            =   -1828.4688701606 Ry

     CASE: enthalpy_new > enthalpy_old

     new trust radius        =       0.7888023890 bohr

     trust_radius < trust_radius_min

     resetting bfgs history

     Message from routine bfgs:
     history already reset at previous step: stopping
     new conv_thr            =       0.0001000000 Ry

     new unit-cell volume =   1309.47480 a.u.^3 (   194.04414 Ang^3 )

[...]

ATOMIC_POSITIONS (crystal)
Co       0.750000000   0.825278380   0.434364876
Co       0.250000000   0.174721620   0.565635124
Co       0.750000000   0.325278380   0.065635124
Co       0.250000000   0.674721620   0.934364876
Co       0.250000000   0.540098359   0.280204774
Co       0.750000000   0.459901641   0.719795226
Co       0.250000000   0.040098359   0.219795226
Co       0.750000000   0.959901641   0.780204774
Si       0.250000000   0.200494491   0.892834884
Si       0.750000000   0.799505509   0.107165116
Si       0.250000000   0.700494491   0.607165116
Si       0.750000000   0.299505509   0.392834884

     Writing output data file Prototype-La-oP12-Co2Si.save
     NEW-OLD atomic charge density approx. for the potential
     NEW k-points:
        k(    1) = (   0.0000000   0.0000000   0.0000000), wk =   0.0833333
        k(    2) = (   0.0000000   0.0000000   0.1142015), wk =   0.1666667
        k(    3) = (   0.0000000   0.0000000  -0.2284031), wk =   0.0833333
        k(    4) = (   0.0000000   0.2225994   0.0000000), wk =   0.1666667
        k(    5) = (   0.0000000   0.2225994   0.1142015), wk =   0.3333333
        k(    6) = (   0.0000000   0.2225994  -0.2284031), wk =   0.1666667
        k(    7) = (  -0.4321138   0.0000000   0.0000000), wk =   0.0833333
        k(    8) = (  -0.4321138   0.0000000   0.1142015), wk =   0.1666667
        k(    9) = (  -0.4321138   0.0000000  -0.2284031), wk =   0.0833333
        k(   10) = (  -0.4321138   0.2225994   0.0000000), wk =   0.1666667
        k(   11) = (  -0.4321138   0.2225994   0.1142015), wk =   0.3333333
        k(   12) = (  -0.4321138   0.2225994  -0.2284031), wk =   0.1666667

[...]

     The maximum number of steps has been reached.

     End of BFGS Geometry Optimization
Begin final coordinates
     new unit-cell volume =   1309.47480 a.u.^3 (   194.04414 Ang^3 )

CELL_PARAMETERS (alat=  7.01510508)
   1.157102615   0.000000000   0.000000000
   0.000000000   1.497458113   0.000000000
   0.000000000   0.000000000   2.189112316

ATOMIC_POSITIONS (crystal)
Co       0.750000000   0.825278380   0.434364876
Co       0.250000000   0.174721620   0.565635124
Co       0.750000000   0.325278380   0.065635124
Co       0.250000000   0.674721620   0.934364876
Co       0.250000000   0.540098359   0.280204774
Co       0.750000000   0.459901641   0.719795226
Co       0.250000000   0.040098359   0.219795226
Co       0.750000000   0.959901641   0.780204774
Si       0.250000000   0.200494491   0.892834884
Si       0.750000000   0.799505509   0.107165116
Si       0.250000000   0.700494491   0.607165116
Si       0.750000000   0.299505509   0.392834884
End final coordinates

     A final scf calculation at the relaxed structure.
     The G-vectors are recalculated for the final unit cell
     Results may differ from those at the preceding step.

     bravais-lattice index     =            0
     lattice parameter (alat)  =       7.0151  a.u.
     unit-cell volume          =    1309.4748 (a.u.)^3
     number of atoms/cell      =           12
     number of atomic types    =            2
     number of electrons       =       192.00
     number of Kohn-Sham states=          115
     kinetic-energy cutoff     =      40.0000  Ry
     charge density cutoff     =     160.0000  Ry
     convergence threshold     =      1.0E-04
     mixing beta               =       0.7000
     number of iterations used =            8  plain     mixing
     Exchange-correlation      = SLA-PZ-NOGX-NOGC ( 1 1 0 0 0)
     EXX-fraction              =        0.00

     celldm(1)=   7.015105  celldm(2)=   0.000000  celldm(3)=   0.000000
     celldm(4)=   0.000000  celldm(5)=   0.000000  celldm(6)=   0.000000

     crystal axes: (cart. coord. in units of alat)
               a(1) = (   1.157103   0.000000   0.000000 )
               a(2) = (   0.000000   1.497458   0.000000 )
               a(3) = (   0.000000   0.000000   2.189112 )

     reciprocal axes: (cart. coord. in units 2 pi/alat)
               b(1) = (  0.864228  0.000000  0.000000 )
               b(2) = (  0.000000  0.667798  0.000000 )
               b(3) = (  0.000000  0.000000  0.456806 )

     PseudoPot. # 1 for Eu read from file:
     /home/cwx6513/pp.La/Eu.UPF
     MD5 check sum: 5efdbbfc50c6a10138933a6429836ad2
     Pseudo is Norm-conserving, Zval = 17.0
     Generated in analytical, separable form
     Using radial grid of 1261 points,  6 beta functions with:
                l(1) =   0
                l(2) =   0
                l(3) =   1
                l(4) =   1
                l(5) =   2
                l(6) =   3

     PseudoPot. # 2 for Nd read from file:
     /home/cwx6513/pp.La/Nd.UPF
     MD5 check sum: c66c5b6abe7b5840ced9b1e244e3bed6
     Pseudo is Norm-conserving, Zval = 14.0
     Generated in analytical, separable form
     Using radial grid of 1257 points,  6 beta functions with:
                l(1) =   0
                l(2) =   0
                l(3) =   1
                l(4) =   1
                l(5) =   2
                l(6) =   3

     atomic species   valence    mass     pseudopotential
        Co            17.00    58.93320     Eu( 1.00)
        Si            14.00    28.08550     Nd( 1.00)

      8 Sym. Ops., with inversion, found ( 6 have fractional translation)

   Cartesian axes

     site n.     atom                  positions (alat units)
         1           Co  tau(   1) = (   0.8678270   1.2358198   0.9508735  )
         2           Co  tau(   2) = (   0.2892757   0.2616383   1.2382388  )
         3           Co  tau(   3) = (   0.8678270   0.4870907   0.1436827  )
         4           Co  tau(   4) = (   0.2892757   1.0103674   2.0454297  )
         5           Co  tau(   5) = (   0.2892757   0.8087747   0.6133997  )
         6           Co  tau(   6) = (   0.8678270   0.6886834   1.5757126  )
         7           Co  tau(   7) = (   0.2892757   0.0600456   0.4811564  )
         8           Co  tau(   8) = (   0.8678270   1.4374125   1.7079559  )
         9           Si  tau(   9) = (   0.2892757   0.3002321   1.9545158  )
        10           Si  tau(  10) = (   0.8678270   1.1972260   0.2345965  )
        11           Si  tau(  11) = (   0.2892757   1.0489612   1.3291526  )
        12           Si  tau(  12) = (   0.8678270   0.4484970   0.8599597  )

     number of k points=    12  gaussian smearing, width (Ry)=  0.1000
                       cart. coord. in units 2pi/alat
        k(    1) = (   0.0000000   0.0000000   0.0000000), wk =   0.0833333
        k(    2) = (   0.0000000   0.0000000   0.1142015), wk =   0.1666667
        k(    3) = (   0.0000000   0.0000000  -0.2284031), wk =   0.0833333
        k(    4) = (   0.0000000   0.2225994   0.0000000), wk =   0.1666667
        k(    5) = (   0.0000000   0.2225994   0.1142015), wk =   0.3333333
        k(    6) = (   0.0000000   0.2225994  -0.2284031), wk =   0.1666667
        k(    7) = (  -0.4321138   0.0000000   0.0000000), wk =   0.0833333
        k(    8) = (  -0.4321138   0.0000000   0.1142015), wk =   0.1666667
        k(    9) = (  -0.4321138   0.0000000  -0.2284031), wk =   0.0833333
        k(   10) = (  -0.4321138   0.2225994   0.0000000), wk =   0.1666667
        k(   11) = (  -0.4321138   0.2225994   0.1142015), wk =   0.3333333
        k(   12) = (  -0.4321138   0.2225994  -0.2284031), wk =   0.1666667

     Largest allocated arrays     est. size (Mb)     dimensions
     Largest temporary arrays     est. size (Mb)     dimensions

     Initial potential from superposition of free atoms

     Starting from uniform charge
     Starting wfc are    0 randomized atomic wfcs

     Writing output data file Prototype-La-oP12-Co2Si.save

     Self-consistent Calculation

[...]

     iteration # 10     ecut=    40.00 Ry     beta=0.70
     CG style diagonalization
     c_bands:  2 eigenvalues not converged
     c_bands:  1 eigenvalues not converged
     c_bands:  1 eigenvalues not converged
     c_bands:  1 eigenvalues not converged
     ethr =  8.50E-07,  avg # of iterations =  4.6

     total energy              =   -1841.73060178 Ry
     Harris-Foulkes estimate   =   -1841.73065650 Ry
     estimated scf accuracy    <       0.00014442 Ry

     iteration # 11     ecut=    40.00 Ry     beta=0.70
     CG style diagonalization
     ethr =  7.52E-08,  avg # of iterations =  4.0

     End of self-consistent calculation

[...]

          k = 0.0000 0.2226-0.2284 (  5568 PWs)   bands (ev):

[...]

          k =-0.4321 0.2226-0.2284 (  5584 PWs)   bands (ev):

   -33.3234 -33.3234 -33.3178 -33.3178 -33.2106 -33.2106 -33.1518 -33.1518
   -18.0733 -18.0733 -18.0584 -18.0584  -6.7903  -6.7903  -6.5899  -6.5899
    -6.5732  -6.5732  -6.5352  -6.5352  -6.3804  -6.3804  -6.2235  -6.2235
    -6.0844  -6.0844  -5.9252  -5.9252  -5.8909  -5.8909  -5.8674  -5.8674
    -5.7424  -5.7424  -5.6660  -5.6660   3.2853   3.2853   3.3714   3.3714
     3.4958   3.4958   3.4983   3.4983   3.5786   3.5786   3.5938   3.5938
    22.4480  22.4480  23.0417  23.0417  23.0661  23.0661  23.5815  23.5815
    23.6281  23.6281  24.0073  24.0073  24.1668  24.1668  24.4076  24.4076
    24.4868  24.4868  24.7968  24.7968  24.9036  24.9036  25.2233  25.2233
    25.4046  25.4046  25.9838  25.9838  26.1202  26.1202  26.3932  26.3932
    26.5928  26.5928  27.5328  27.5328  27.6108  27.6108  28.1875  28.1875
    28.5448  28.5448  28.6079  28.6079  29.8293  29.8293  30.1182  30.1182
    30.5470  30.5470  30.7501  30.7501  31.1854  31.1854  31.4861  31.4861
    32.3345  32.3345  32.7973  32.7973  33.6757  33.6757  33.7517  33.7518
    35.1733  35.1741  35.6510

     the Fermi energy is    30.4992 ev

!    total energy              =   -1841.73059187 Ry
     Harris-Foulkes estimate   =   -1841.73065416 Ry
     estimated scf accuracy    <       0.00006982 Ry

     The total energy is the sum of the following terms:

     one-electron contribution =      64.62808072 Ry
     hartree contribution      =     158.52330402 Ry
     xc contribution           =    -202.14146640 Ry
     ewald contribution        =   -1862.12548855 Ry
     smearing contrib. (-TS)   =      -0.61502166 Ry

     convergence has been achieved in  11 iterations

     Forces acting on atoms (Ry/au):

     atom    1 type  1   force =     0.00000000   -0.03145526   -0.02053117
     atom    2 type  1   force =     0.00000000    0.03145526    0.02053117
     atom    3 type  1   force =     0.00000000   -0.03145526    0.02053117
     atom    4 type  1   force =     0.00000000    0.03145526   -0.02053117
     atom    5 type  1   force =     0.00000000    0.06525613   -0.04219261
     atom    6 type  1   force =     0.00000000   -0.06525613    0.04219261
     atom    7 type  1   force =     0.00000000    0.06525613    0.04219261
     atom    8 type  1   force =     0.00000000   -0.06525613   -0.04219261
     atom    9 type  2   force =     0.00000000   -0.04299888   -0.01839986
     atom   10 type  2   force =     0.00000000    0.04299888    0.01839986
     atom   11 type  2   force =     0.00000000   -0.04299888    0.01839986
     atom   12 type  2   force =     0.00000000    0.04299888   -0.01839986

     Total force =     0.196336     Total SCF correction =     0.000000

     entering subroutine stress ...

          total   stress  (Ry/bohr**3)                   (kbar)     P=  776.19
   0.00547818   0.00000000   0.00000000        805.87      0.00      0.00
   0.00000000   0.00495015   0.00000000          0.00    728.19      0.00
   0.00000000   0.00000000   0.00540099          0.00      0.00    794.51

     Writing output data file Prototype-La-oP12-Co2Si.save

     General routines

     Parallel routines

   This run was terminated on:  21:29:10  22Mar2018

   JOB DONE.