     Program PWSCF v.5.0.2 starts on 23Mar2018 at  2:16:44

     Current dimensions of program PWSCF are:
     Max number of different atomic species (ntypx) = 10
     Max number of k-points (npk) =  40000
     Max angular momentum in pseudopotentials (lmaxx) =  3
     Waiting for input...
     Reading input from standard input

     Subspace diagonalization in iterative solution of the eigenvalue problem:
     a serial algorithm will be used

     bravais-lattice index     =            0
     lattice parameter (alat)  =      12.0168  a.u.
     unit-cell volume          =    1187.3413 (a.u.)^3
     number of atoms/cell      =            8
     number of atomic types    =            2
     number of electrons       =       144.00
     number of Kohn-Sham states=           86
     kinetic-energy cutoff     =      40.0000  Ry
     charge density cutoff     =     160.0000  Ry
     convergence threshold     =      1.0E-04
     mixing beta               =       0.7000
     number of iterations used =            8  plain     mixing
     Exchange-correlation      = SLA-PZ-NOGX-NOGC ( 1 1 0 0 0)
     EXX-fraction              =        0.00
     nstep                     =           50

     celldm(1)=  12.016801  celldm(2)=   0.000000  celldm(3)=   0.000000
     celldm(4)=   0.000000  celldm(5)=   0.000000  celldm(6)=   0.000000

     crystal axes: (cart. coord. in units of alat)
               a(1) = (   1.000000   0.000000   0.000000 )
               a(2) = (  -0.500000   0.866025   0.000000 )
               a(3) = (   0.000000   0.000000   0.790093 )

     reciprocal axes: (cart. coord. in units 2 pi/alat)
               b(1) = (  1.000000  0.577350  0.000000 )
               b(2) = (  0.000000  1.154701  0.000000 )
               b(3) = (  0.000000  0.000000  1.265674 )

     PseudoPot. # 1 for Dy read from file:
     /home/cwx6513/pp.La/Dy.UPF
     MD5 check sum: 9597327bec62616a94a14d07f3fd9936
     Pseudo is Norm-conserving, Zval = 20.0
     Generated in analytical, separable form
     Using radial grid of 1265 points,  6 beta functions with:
                l(1) =   0
                l(2) =   0
                l(3) =   1
                l(4) =   1
                l(5) =   2
                l(6) =   3

     PseudoPot. # 2 for Ce read from file:
     /home/cwx6513/pp.La/Ce.UPF
     MD5 check sum: 44451aa79a44a00cf2bc029dc19922f6
     Pseudo is Norm-conserving, Zval = 12.0
     Generated in analytical, separable form
     Using radial grid of 1255 points,  6 beta functions with:
                l(1) =   0
                l(2) =   0
                l(3) =   1
                l(4) =   1
                l(5) =   2
                l(6) =   3

     atomic species   valence    mass     pseudopotential
        Mg            20.00    24.30500     Dy( 1.00)
        Cd            12.00   112.41100     Ce( 1.00)

     24 Sym. Ops., with inversion, found (12 have fractional translation)

   Cartesian axes

     site n.     atom                  positions (alat units)
         1           Mg  tau(   1) = (   0.2478935   0.7204716   0.1975233  )
         2           Mg  tau(   2) = (   0.7478935   0.1455538   0.5925699  )
         3           Mg  tau(   3) = (   0.2521065   0.1455538   0.5925699  )
         4           Mg  tau(   4) = (  -0.2478935   0.7204716   0.1975233  )
         5           Mg  tau(   5) = (   0.0000000   0.2911075   0.1975233  )
         6           Mg  tau(   6) = (   0.5000000   0.5749179   0.5925699  )
         7           Cd  tau(   7) = (   0.5000005   0.2886748   0.1975233  )
         8           Cd  tau(   8) = (  -0.0000005   0.5773506   0.5925699  )

     number of k points=    64  gaussian smearing, width (Ry)=  0.1000
                       cart. coord. in units 2pi/alat
        k(    1) = (   0.0000000   0.0000000   0.0000000), wk =   0.0095238
        k(    2) = (   0.0000000   0.0000000   0.1808105), wk =   0.0190476
        k(    3) = (   0.0000000   0.0000000   0.3616210), wk =   0.0190476
        k(    4) = (   0.0000000   0.0000000   0.5424315), wk =   0.0190476
        k(    5) = (   0.0000000   0.1924501   0.0000000), wk =   0.0190476
        k(    6) = (   0.0000000   0.1924501   0.1808105), wk =   0.0380952
        k(    7) = (   0.0000000   0.1924501   0.3616210), wk =   0.0380952
        k(    8) = (   0.0000000   0.1924501   0.5424315), wk =   0.0380952
        k(    9) = (   0.0000000   0.3849002   0.0000000), wk =   0.0190476
        k(   10) = (   0.0000000   0.3849002   0.1808105), wk =   0.0380952
        k(   11) = (   0.0000000   0.3849002   0.3616210), wk =   0.0380952
        k(   12) = (   0.0000000   0.3849002   0.5424315), wk =   0.0380952
        k(   13) = (   0.0000000  -0.5773503   0.0000000), wk =   0.0095238
        k(   14) = (   0.0000000  -0.5773503   0.1808105), wk =   0.0190476
        k(   15) = (   0.0000000  -0.5773503   0.3616210), wk =   0.0190476
        k(   16) = (   0.0000000  -0.5773503   0.5424315), wk =   0.0190476
        k(   17) = (   0.2000000   0.1154701   0.0000000), wk =   0.0190476
        k(   18) = (   0.2000000   0.1154701   0.1808105), wk =   0.0380952
        k(   19) = (   0.2000000   0.1154701   0.3616210), wk =   0.0380952
        k(   20) = (   0.2000000   0.1154701   0.5424315), wk =   0.0380952
        k(   21) = (   0.2000000   0.3079201   0.0000000), wk =   0.0190476
        k(   22) = (   0.2000000   0.3079201   0.1808105), wk =   0.0380952
        k(   23) = (   0.2000000   0.3079201   0.3616210), wk =   0.0380952
        k(   24) = (   0.2000000   0.3079201   0.5424315), wk =   0.0380952
        k(   25) = (   0.2000000   0.5003702   0.0000000), wk =   0.0190476
        k(   26) = (   0.2000000   0.5003702   0.1808105), wk =   0.0380952
        k(   27) = (   0.2000000   0.5003702   0.3616210), wk =   0.0380952
        k(   28) = (   0.2000000   0.5003702   0.5424315), wk =   0.0380952
        k(   29) = (   0.2000000  -0.4618802   0.0000000), wk =   0.0190476
        k(   30) = (   0.2000000  -0.4618802   0.1808105), wk =   0.0380952
        k(   31) = (   0.2000000  -0.4618802   0.3616210), wk =   0.0380952
        k(   32) = (   0.2000000  -0.4618802   0.5424315), wk =   0.0380952
        k(   33) = (   0.2000000  -0.2694301   0.0000000), wk =   0.0190476
        k(   34) = (   0.2000000  -0.2694301   0.1808105), wk =   0.0380952
        k(   35) = (   0.2000000  -0.2694301   0.3616210), wk =   0.0380952
        k(   36) = (   0.2000000  -0.2694301   0.5424315), wk =   0.0380952
        k(   37) = (   0.2000000  -0.0769800   0.0000000), wk =   0.0190476
        k(   38) = (   0.2000000  -0.0769800   0.1808105), wk =   0.0380952
        k(   39) = (   0.2000000  -0.0769800   0.3616210), wk =   0.0380952
        k(   40) = (   0.2000000  -0.0769800   0.5424315), wk =   0.0380952
        k(   41) = (   0.4000000   0.2309401   0.0000000), wk =   0.0190476
        k(   42) = (   0.4000000   0.2309401   0.1808105), wk =   0.0380952
        k(   43) = (   0.4000000   0.2309401   0.3616210), wk =   0.0380952
        k(   44) = (   0.4000000   0.2309401   0.5424315), wk =   0.0380952
        k(   45) = (   0.4000000   0.4233902   0.0000000), wk =   0.0190476
        k(   46) = (   0.4000000   0.4233902   0.1808105), wk =   0.0380952
        k(   47) = (   0.4000000   0.4233902   0.3616210), wk =   0.0380952
        k(   48) = (   0.4000000   0.4233902   0.5424315), wk =   0.0380952
        k(   49) = (   0.4000000   0.6158403   0.0000000), wk =   0.0190476
        k(   50) = (   0.4000000   0.6158403   0.1808105), wk =   0.0380952
        k(   51) = (   0.4000000   0.6158403   0.3616210), wk =   0.0380952
        k(   52) = (   0.4000000   0.6158403   0.5424315), wk =   0.0380952
        k(   53) = (   0.4000000  -0.3464102   0.0000000), wk =   0.0190476
        k(   54) = (   0.4000000  -0.3464102   0.1808105), wk =   0.0380952
        k(   55) = (   0.4000000  -0.3464102   0.3616210), wk =   0.0380952
        k(   56) = (   0.4000000  -0.3464102   0.5424315), wk =   0.0380952
        k(   57) = (   0.4000000  -0.1539601   0.0000000), wk =   0.0190476
        k(   58) = (   0.4000000  -0.1539601   0.1808105), wk =   0.0380952
        k(   59) = (   0.4000000  -0.1539601   0.3616210), wk =   0.0380952
        k(   60) = (   0.4000000  -0.1539601   0.5424315), wk =   0.0380952
        k(   61) = (   0.4000000   0.0384900   0.0000000), wk =   0.0190476
        k(   62) = (   0.4000000   0.0384900   0.1808105), wk =   0.0380952
        k(   63) = (   0.4000000   0.0384900   0.3616210), wk =   0.0380952
        k(   64) = (   0.4000000   0.0384900   0.5424315), wk =   0.0380952

     Largest allocated arrays     est. size (Mb)     dimensions
     Largest temporary arrays     est. size (Mb)     dimensions

     Initial potential from superposition of free atoms

     Starting from uniform charge
     Starting wfc are    0 randomized atomic wfcs

     Self-consistent Calculation

     iteration #  1     ecut=    40.00 Ry     beta=0.70
     CG style diagonalization
     c_bands:  5 eigenvalues not converged
     c_bands:  5 eigenvalues not converged
     c_bands:  4 eigenvalues not converged
     c_bands:  3 eigenvalues not converged
     c_bands:  5 eigenvalues not converged
     c_bands:  5 eigenvalues not converged
     c_bands:  5 eigenvalues not converged
     c_bands:  5 eigenvalues not converged
     c_bands:  4 eigenvalues not converged
     c_bands:  4 eigenvalues not converged
     ethr =  1.00E-02,  avg # of iterations = 15.5

     total energy              =   -1288.35638727 Ry
     Harris-Foulkes estimate   =   -2236.38932743 Ry
     estimated scf accuracy    <    1175.58106005 Ry

[...]

     iteration #  4     ecut=    40.00 Ry     beta=0.70
     CG style diagonalization
     ethr =  1.00E-02,  avg # of iterations =  6.8

[...]

     End of self-consistent calculation

          k = 0.0000 0.0000 0.0000 (  5047 PWs)   bands (ev):

   -60.2333 -60.2298 -60.2286 -60.2285 -60.2235 -60.2234 -27.2928 -27.2541
   -27.2172 -27.2069 -27.2068 -27.1619 -27.1619 -27.1583 -27.1582 -27.1062
   -27.0914 -27.0913 -27.0446 -27.0435 -27.0435 -27.0255 -27.0255 -27.0064
   -15.4655 -15.4523   2.3306   2.4204   2.4693   2.4693   2.5620   2.5620
    12.2193  12.4046  12.4046  12.4932  12.6847  12.9885  12.9886  13.0270
    13.0271  13.1290  13.1297  13.3961  13.6765  13.6765  14.1063  14.2051
    14.2052  14.4697  14.4698  14.5679  14.5679  14.5706  14.7613  14.7614
    15.0347  15.0347  15.4211  15.4212  15.7026  15.9296  15.9607  18.7427
    19.0585  19.8395  19.8395  20.5869  20.5869  21.2325  22.5511  22.5511
    23.3253  23.3254  23.9142  25.2303  25.2304  25.2664  25.2665  25.8441
    27.5026  27.5026  27.5042  27.9629  27.9631  28.1096

[...]

     the Fermi energy is    22.6378 ev

!    total energy              =   -1718.02782086 Ry
     Harris-Foulkes estimate   =   -1718.02788764 Ry
     estimated scf accuracy    <       0.00007827 Ry

     The total energy is the sum of the following terms:

     one-electron contribution =    -406.69257754 Ry
     hartree contribution      =     292.61045547 Ry
     xc contribution           =    -163.83068046 Ry
     ewald contribution        =   -1439.83552988 Ry
[...]
        k(   14) = (   0.0000000  -0.5818665   0.1822712), wk =   0.0190476
        k(   15) = (   0.0000000  -0.5818665   0.3645424), wk =   0.0190476
        k(   16) = (   0.0000000  -0.5818665   0.5468136), wk =   0.0190476
        k(   17) = (   0.2015645   0.1163733   0.0000000), wk =   0.0190476
        k(   18) = (   0.2015645   0.1163733   0.1822712), wk =   0.0380952
        k(   19) = (   0.2015645   0.1163733   0.3645424), wk =   0.0380952
        k(   20) = (   0.2015645   0.1163733   0.5468136), wk =   0.0380952
        k(   21) = (   0.2015645   0.3103288   0.0000000), wk =   0.0190476
        k(   22) = (   0.2015645   0.3103288   0.1822712), wk =   0.0380952
        k(   23) = (   0.2015645   0.3103288   0.3645424), wk =   0.0380952
        k(   24) = (   0.2015645   0.3103288   0.5468136), wk =   0.0380952
        k(   25) = (   0.2015645   0.5042843   0.0000000), wk =   0.0190476
        k(   26) = (   0.2015645   0.5042843   0.1822712), wk =   0.0380952
        k(   27) = (   0.2015645   0.5042843   0.3645424), wk =   0.0380952
        k(   28) = (   0.2015645   0.5042843   0.5468136), wk =   0.0380952
        k(   29) = (   0.2015645  -0.4654932   0.0000000), wk =   0.0190476
        k(   30) = (   0.2015645  -0.4654932   0.1822712), wk =   0.0380952
        k(   31) = (   0.2015645  -0.4654932   0.3645424), wk =   0.0380952
        k(   32) = (   0.2015645  -0.4654932   0.5468136), wk =   0.0380952
        k(   33) = (   0.2015645  -0.2715377   0.0000000), wk =   0.0190476
        k(   34) = (   0.2015645  -0.2715377   0.1822712), wk =   0.0380952
        k(   35) = (   0.2015645  -0.2715377   0.3645424), wk =   0.0380952
        k(   36) = (   0.2015645  -0.2715377   0.5468136), wk =   0.0380952
        k(   37) = (   0.2015645  -0.0775822   0.0000000), wk =   0.0190476
        k(   38) = (   0.2015645  -0.0775822   0.1822712), wk =   0.0380952
        k(   39) = (   0.2015645  -0.0775822   0.3645424), wk =   0.0380952
        k(   40) = (   0.2015645  -0.0775822   0.5468136), wk =   0.0380952
        k(   41) = (   0.4031289   0.2327466   0.0000000), wk =   0.0190476
        k(   42) = (   0.4031289   0.2327466   0.1822712), wk =   0.0380952
        k(   43) = (   0.4031289   0.2327466   0.3645424), wk =   0.0380952
        k(   44) = (   0.4031289   0.2327466   0.5468136), wk =   0.0380952
        k(   45) = (   0.4031289   0.4267021   0.0000000), wk =   0.0190476
        k(   46) = (   0.4031289   0.4267021   0.1822712), wk =   0.0380952
        k(   47) = (   0.4031289   0.4267021   0.3645424), wk =   0.0380952
        k(   48) = (   0.4031289   0.4267021   0.5468136), wk =   0.0380952
        k(   49) = (   0.4031289   0.6206576   0.0000000), wk =   0.0190476
        k(   50) = (   0.4031289   0.6206576   0.1822712), wk =   0.0380952
        k(   51) = (   0.4031289   0.6206576   0.3645424), wk =   0.0380952
        k(   52) = (   0.4031289   0.6206576   0.5468136), wk =   0.0380952
        k(   53) = (   0.4031289  -0.3491199   0.0000000), wk =   0.0190476
        k(   54) = (   0.4031289  -0.3491199   0.1822712), wk =   0.0380952
        k(   55) = (   0.4031289  -0.3491199   0.3645424), wk =   0.0380952
        k(   56) = (   0.4031289  -0.3491199   0.5468136), wk =   0.0380952
        k(   57) = (   0.4031289  -0.1551644   0.0000000), wk =   0.0190476
        k(   58) = (   0.4031289  -0.1551644   0.1822712), wk =   0.0380952
        k(   59) = (   0.4031289  -0.1551644   0.3645424), wk =   0.0380952
        k(   60) = (   0.4031289  -0.1551644   0.5468136), wk =   0.0380952
        k(   61) = (   0.4031289   0.0387911   0.0000000), wk =   0.0190476
        k(   62) = (   0.4031289   0.0387911   0.1822712), wk =   0.0380952
        k(   63) = (   0.4031289   0.0387911   0.3645424), wk =   0.0380952
        k(   64) = (   0.4031289   0.0387911   0.5468136), wk =   0.0380952

[...]

     Threshold (ethr) on eigenvalues was too large:
     Diagonalizing with lowered threshold

     CG style diagonalization
     ethr =  1.88E-08,  avg # of iterations =  3.7

[...]

     The maximum number of steps has been reached.

     End of BFGS Geometry Optimization
Begin final coordinates
     new unit-cell volume =   1159.61350 a.u.^3 (   171.83699 Ang^3 )

CELL_PARAMETERS (alat= 12.01680127)
   0.992238383   0.000000000   0.000000000
  -0.496119191   0.859303646   0.000000000
   0.000000000   0.000000000   0.783761537

ATOMIC_POSITIONS (crystal)
Mg       0.664522541   0.832261271   0.250000000
Mg       0.832261271   0.167738729   0.750000000
Mg       0.335477459   0.167738729   0.750000000
Mg       0.167738729   0.832261271   0.250000000
Mg       0.167738729   0.335477459   0.250000000
Mg       0.832261271   0.664522541   0.750000000
Cd       0.666667000   0.333333000   0.250000000
Cd       0.333333000   0.666667000   0.750000000
End final coordinates

     A final scf calculation at the relaxed structure.
     The G-vectors are recalculated for the final unit cell
     Results may differ from those at the preceding step.

     bravais-lattice index     =            0
     lattice parameter (alat)  =      12.0168  a.u.
     unit-cell volume          =    1159.6135 (a.u.)^3
     number of atoms/cell      =            8
     number of atomic types    =            2
     number of electrons       =       144.00
     number of Kohn-Sham states=           86
     kinetic-energy cutoff     =      40.0000  Ry
     charge density cutoff     =     160.0000  Ry
     convergence threshold     =      2.2E-05
     mixing beta               =       0.7000
     number of iterations used =            8  plain     mixing
     Exchange-correlation      = SLA-PZ-NOGX-NOGC ( 1 1 0 0 0)
     EXX-fraction              =        0.00

     celldm(1)=  12.016801  celldm(2)=   0.000000  celldm(3)=   0.000000
     celldm(4)=   0.000000  celldm(5)=   0.000000  celldm(6)=   0.000000

     crystal axes: (cart. coord. in units of alat)
               a(1) = (   0.992238   0.000000   0.000000 )
               a(2) = (  -0.496119   0.859304   0.000000 )
               a(3) = (   0.000000   0.000000   0.783762 )

     reciprocal axes: (cart. coord. in units 2 pi/alat)
               b(1) = (  1.007822  0.581866  0.000000 )
               b(2) = (  0.000000  1.163733  0.000000 )
               b(3) = (  0.000000  0.000000  1.275898 )

     PseudoPot. # 1 for Dy read from file:
     /home/cwx6513/pp.La/Dy.UPF
     MD5 check sum: 9597327bec62616a94a14d07f3fd9936
     Pseudo is Norm-conserving, Zval = 20.0
     Generated in analytical, separable form
     Using radial grid of 1265 points,  6 beta functions with:
                l(1) =   0
                l(2) =   0
                l(3) =   1
                l(4) =   1
                l(5) =   2
                l(6) =   3

     PseudoPot. # 2 for Ce read from file:
     /home/cwx6513/pp.La/Ce.UPF
     MD5 check sum: 44451aa79a44a00cf2bc029dc19922f6
     Pseudo is Norm-conserving, Zval = 12.0
     Generated in analytical, separable form
     Using radial grid of 1255 points,  6 beta functions with:
                l(1) =   0
                l(2) =   0
                l(3) =   1
                l(4) =   1
                l(5) =   2
                l(6) =   3

     atomic species   valence    mass     pseudopotential
        Mg            20.00    24.30500     Dy( 1.00)
        Cd            12.00   112.41100     Ce( 1.00)

     24 Sym. Ops., with inversion, found (12 have fractional translation)

   Cartesian axes

     site n.     atom                  positions (alat units)
         1           Mg  tau(   1) = (   0.2464640   0.7151651   0.1959404  )
         2           Mg  tau(   2) = (   0.7425832   0.1441385   0.5878212  )
         3           Mg  tau(   3) = (   0.2496552   0.1441385   0.5878212  )
         4           Mg  tau(   4) = (  -0.2464640   0.7151651   0.1959404  )
         5           Mg  tau(   5) = (   0.0000000   0.2882770   0.1959404  )
         6           Mg  tau(   6) = (   0.4961192   0.5710266   0.5878212  )
         7           Cd  tau(   7) = (   0.4961197   0.2864343   0.1959404  )
         8           Cd  tau(   8) = (  -0.0000005   0.5728694   0.5878212  )

     number of k points=    64  gaussian smearing, width (Ry)=  0.1000
                       cart. coord. in units 2pi/alat
        k(    1) = (   0.0000000   0.0000000   0.0000000), wk =   0.0095238
        k(    2) = (   0.0000000   0.0000000   0.1822712), wk =   0.0190476
        k(    3) = (   0.0000000   0.0000000   0.3645424), wk =   0.0190476
        k(    4) = (   0.0000000   0.0000000   0.5468136), wk =   0.0190476
        k(    5) = (   0.0000000   0.1939555   0.0000000), wk =   0.0190476
        k(    6) = (   0.0000000   0.1939555   0.1822712), wk =   0.0380952
        k(    7) = (   0.0000000   0.1939555   0.3645424), wk =   0.0380952
        k(    8) = (   0.0000000   0.1939555   0.5468136), wk =   0.0380952
        k(    9) = (   0.0000000   0.3879110   0.0000000), wk =   0.0190476
        k(   10) = (   0.0000000   0.3879110   0.1822712), wk =   0.0380952
        k(   11) = (   0.0000000   0.3879110   0.3645424), wk =   0.0380952
        k(   12) = (   0.0000000   0.3879110   0.5468136), wk =   0.0380952
        k(   13) = (   0.0000000  -0.5818665   0.0000000), wk =   0.0095238
        k(   14) = (   0.0000000  -0.5818665   0.1822712), wk =   0.0190476
        k(   15) = (   0.0000000  -0.5818665   0.3645424), wk =   0.0190476
        k(   16) = (   0.0000000  -0.5818665   0.5468136), wk =   0.0190476
        k(   17) = (   0.2015645   0.1163733   0.0000000), wk =   0.0190476
        k(   18) = (   0.2015645   0.1163733   0.1822712), wk =   0.0380952
        k(   19) = (   0.2015645   0.1163733   0.3645424), wk =   0.0380952
        k(   20) = (   0.2015645   0.1163733   0.5468136), wk =   0.0380952
        k(   21) = (   0.2015645   0.3103288   0.0000000), wk =   0.0190476
        k(   22) = (   0.2015645   0.3103288   0.1822712), wk =   0.0380952
        k(   23) = (   0.2015645   0.3103288   0.3645424), wk =   0.0380952
        k(   24) = (   0.2015645   0.3103288   0.5468136), wk =   0.0380952
        k(   25) = (   0.2015645   0.5042843   0.0000000), wk =   0.0190476
        k(   26) = (   0.2015645   0.5042843   0.1822712), wk =   0.0380952
        k(   27) = (   0.2015645   0.5042843   0.3645424), wk =   0.0380952
        k(   28) = (   0.2015645   0.5042843   0.5468136), wk =   0.0380952
        k(   29) = (   0.2015645  -0.4654932   0.0000000), wk =   0.0190476
        k(   30) = (   0.2015645  -0.4654932   0.1822712), wk =   0.0380952
        k(   31) = (   0.2015645  -0.4654932   0.3645424), wk =   0.0380952
        k(   32) = (   0.2015645  -0.4654932   0.5468136), wk =   0.0380952
        k(   33) = (   0.2015645  -0.2715377   0.0000000), wk =   0.0190476
        k(   34) = (   0.2015645  -0.2715377   0.1822712), wk =   0.0380952
        k(   35) = (   0.2015645  -0.2715377   0.3645424), wk =   0.0380952
        k(   36) = (   0.2015645  -0.2715377   0.5468136), wk =   0.0380952
        k(   37) = (   0.2015645  -0.0775822   0.0000000), wk =   0.0190476
        k(   38) = (   0.2015645  -0.0775822   0.1822712), wk =   0.0380952
        k(   39) = (   0.2015645  -0.0775822   0.3645424), wk =   0.0380952
        k(   40) = (   0.2015645  -0.0775822   0.5468136), wk =   0.0380952
        k(   41) = (   0.4031289   0.2327466   0.0000000), wk =   0.0190476
        k(   42) = (   0.4031289   0.2327466   0.1822712), wk =   0.0380952
        k(   43) = (   0.4031289   0.2327466   0.3645424), wk =   0.0380952
        k(   44) = (   0.4031289   0.2327466   0.5468136), wk =   0.0380952
        k(   45) = (   0.4031289   0.4267021   0.0000000), wk =   0.0190476
        k(   46) = (   0.4031289   0.4267021   0.1822712), wk =   0.0380952
        k(   47) = (   0.4031289   0.4267021   0.3645424), wk =   0.0380952
        k(   48) = (   0.4031289   0.4267021   0.5468136), wk =   0.0380952
        k(   49) = (   0.4031289   0.6206576   0.0000000), wk =   0.0190476
        k(   50) = (   0.4031289   0.6206576   0.1822712), wk =   0.0380952
        k(   51) = (   0.4031289   0.6206576   0.3645424), wk =   0.0380952
        k(   52) = (   0.4031289   0.6206576   0.5468136), wk =   0.0380952
        k(   53) = (   0.4031289  -0.3491199   0.0000000), wk =   0.0190476
        k(   54) = (   0.4031289  -0.3491199   0.1822712), wk =   0.0380952
        k(   55) = (   0.4031289  -0.3491199   0.3645424), wk =   0.0380952
        k(   56) = (   0.4031289  -0.3491199   0.5468136), wk =   0.0380952
        k(   57) = (   0.4031289  -0.1551644   0.0000000), wk =   0.0190476
        k(   58) = (   0.4031289  -0.1551644   0.1822712), wk =   0.0380952
        k(   59) = (   0.4031289  -0.1551644   0.3645424), wk =   0.0380952
        k(   60) = (   0.4031289  -0.1551644   0.5468136), wk =   0.0380952
        k(   61) = (   0.4031289   0.0387911   0.0000000), wk =   0.0190476
        k(   62) = (   0.4031289   0.0387911   0.1822712), wk =   0.0380952
        k(   63) = (   0.4031289   0.0387911   0.3645424), wk =   0.0380952
        k(   64) = (   0.4031289   0.0387911   0.5468136), wk =   0.0380952

     Largest allocated arrays     est. size (Mb)     dimensions
     Largest temporary arrays     est. size (Mb)     dimensions

     Initial potential from superposition of free atoms

     Starting from uniform charge
     Starting wfc are    0 randomized atomic wfcs

     Writing output data file Prototype-La-hP8-Mg3Cd.save

     Self-consistent Calculation

[...]

     iteration # 11     ecut=    40.00 Ry     beta=0.70
     CG style diagonalization
     c_bands:  1 eigenvalues not converged
     ethr =  1.49E-06,  avg # of iterations =  4.4

[...]

     total energy              =   -1717.95159447 Ry
     Harris-Foulkes estimate   =   -1717.95161619 Ry
     estimated scf accuracy    <       0.00004197 Ry

     iteration # 14     ecut=    40.00 Ry     beta=0.70
     CG style diagonalization
     ethr =  2.91E-08,  avg # of iterations =  4.0

     End of self-consistent calculation

[...]

          k = 0.4031 0.0388 0.5468 (  4945 PWs)   bands (ev):

   -59.6507 -59.6481 -59.6442 -59.6420 -59.6409 -59.6387 -26.6666 -26.6620
   -26.6514 -26.6467 -26.6235 -26.6219 -26.5748 -26.5503 -26.5326 -26.5300
   -26.5173 -26.5071 -26.4945 -26.4865 -26.4765 -26.4675 -26.4594 -26.4540
   -14.7872 -14.7854   2.9509   2.9598   3.1133   3.1218   3.1425   3.1513
    13.1654  13.2204  13.3702  13.4060  13.4693  13.5469  13.5929  13.6924
    13.7086  13.7903  13.9834  14.1175  14.4139  14.5095  14.5517  14.5960
    14.6907  14.8261  14.8871  15.0668  15.1072  15.1576  15.2360  15.3427
    15.3935  15.4371  15.8261  15.8618  16.1580  16.3337  16.6706  17.6330
    18.7545  19.5464  19.8147  20.3903  21.7967  22.1836  22.2841  22.5931
    23.8547  24.1219  24.4395  24.5953  25.2812  25.4973  26.4665  26.6176
    27.3525  27.8020  28.7972  29.5709  29.8916  30.2392

     the Fermi energy is    23.2903 ev

!    total energy              =   -1717.95160856 Ry
     Harris-Foulkes estimate   =   -1717.95161079 Ry
     estimated scf accuracy    <       0.00000248 Ry

     The total energy is the sum of the following terms:

     one-electron contribution =    -389.88257935 Ry
     hartree contribution      =     287.24040775 Ry
     xc contribution           =    -164.01882165 Ry
     ewald contribution        =   -1451.01606295 Ry
     smearing contrib. (-TS)   =      -0.27455236 Ry

     convergence has been achieved in  14 iterations

     Forces acting on atoms (Ry/au):

     atom    1 type  1   force =     0.01696877    0.00979693    0.00000000
     atom    2 type  1   force =     0.01696877   -0.00979693    0.00000000
     atom    3 type  1   force =    -0.01696877   -0.00979693    0.00000000
     atom    4 type  1   force =    -0.01696877    0.00979693    0.00000000
     atom    5 type  1   force =     0.00000000   -0.01959385    0.00000000
     atom    6 type  1   force =     0.00000000    0.01959385    0.00000000
     atom    7 type  2   force =     0.00000000    0.00000000    0.00000000
     atom    8 type  2   force =     0.00000000    0.00000000    0.00000000

     Total force =     0.047995     Total SCF correction =     0.000000

     entering subroutine stress ...

          total   stress  (Ry/bohr**3)                   (kbar)     P=  -23.76
  -0.00016539   0.00000000   0.00000000        -24.33      0.00      0.00
   0.00000000  -0.00016539   0.00000000          0.00    -24.33      0.00
   0.00000000   0.00000000  -0.00015367          0.00      0.00    -22.61

     Writing output data file Prototype-La-hP8-Mg3Cd.save

     General routines

     Parallel routines

   This run was terminated on:   3:11:20  23Mar2018

   JOB DONE.