     Program PWSCF v.5.0.2 starts on 23Mar2018 at  2:16:42

     Current dimensions of program PWSCF are:
     Max number of different atomic species (ntypx) = 10
     Max number of k-points (npk) =  40000
     Max angular momentum in pseudopotentials (lmaxx) =  3
     Waiting for input...
     Reading input from standard input

     Subspace diagonalization in iterative solution of the eigenvalue problem:
     a serial algorithm will be used

     bravais-lattice index     =            0
     lattice parameter (alat)  =       8.5346  a.u.
     unit-cell volume          =     621.6493 (a.u.)^3
     number of atoms/cell      =            8
     number of atomic types    =            2
     number of electrons       =       144.00
     number of Kohn-Sham states=           86
     kinetic-energy cutoff     =      40.0000  Ry
     charge density cutoff     =     160.0000  Ry
     convergence threshold     =      1.0E-04
     mixing beta               =       0.7000
     number of iterations used =            8  plain     mixing
     Exchange-correlation      = SLA-PZ-NOGX-NOGC ( 1 1 0 0 0)
     EXX-fraction              =        0.00
     nstep                     =           50

     celldm(1)=   8.534573  celldm(2)=   0.000000  celldm(3)=   0.000000
     celldm(4)=   0.000000  celldm(5)=   0.000000  celldm(6)=   0.000000

     crystal axes: (cart. coord. in units of alat)
               a(1) = (   1.000000   0.000000   0.000000 )
               a(2) = (   0.000000   1.000000   0.000000 )
               a(3) = (   0.000000   0.000000   1.000000 )

     reciprocal axes: (cart. coord. in units 2 pi/alat)
               b(1) = (  1.000000  0.000000  0.000000 )
               b(2) = (  0.000000  1.000000  0.000000 )
               b(3) = (  0.000000  0.000000  1.000000 )

     PseudoPot. # 1 for Dy read from file:
     /home/cwx6513/pp.La/Dy.UPF
     MD5 check sum: 9597327bec62616a94a14d07f3fd9936
     Pseudo is Norm-conserving, Zval = 20.0
     Generated in analytical, separable form
     Using radial grid of 1265 points,  6 beta functions with:
                l(1) =   0
                l(2) =   0
                l(3) =   1
                l(4) =   1
                l(5) =   2
                l(6) =   3

     PseudoPot. # 2 for Ce read from file:
     /home/cwx6513/pp.La/Ce.UPF
     MD5 check sum: 44451aa79a44a00cf2bc029dc19922f6
     Pseudo is Norm-conserving, Zval = 12.0
     Generated in analytical, separable form
     Using radial grid of 1255 points,  6 beta functions with:
                l(1) =   0
                l(2) =   0
                l(3) =   1
                l(4) =   1
                l(5) =   2
                l(6) =   3

     atomic species   valence    mass     pseudopotential
        Cr            20.00    51.99610     Dy( 1.00)
        Si            12.00    28.08550     Ce( 1.00)

     48 Sym. Ops., with inversion, found (24 have fractional translation)

   Cartesian axes

     site n.     atom                  positions (alat units)
         1           Cr  tau(   1) = (   0.0000000   0.5000000   0.2500000  )
         2           Cr  tau(   2) = (   0.0000000   0.5000000   0.7500000  )
         3           Cr  tau(   3) = (   0.5000000   0.7500000   0.0000000  )
         4           Cr  tau(   4) = (   0.5000000   0.2500000   0.0000000  )
         5           Cr  tau(   5) = (   0.7500000   0.0000000   0.5000000  )
         6           Cr  tau(   6) = (   0.2500000   0.0000000   0.5000000  )
         7           Si  tau(   7) = (   0.5000000   0.5000000   0.5000000  )
         8           Si  tau(   8) = (   0.0000000   0.0000000   0.0000000  )

     number of k points=    48  gaussian smearing, width (Ry)=  0.1000
                       cart. coord. in units 2pi/alat
        k(    1) = (   0.0000000   0.0000000   0.0000000), wk =   0.0095238
        k(    2) = (   0.0000000   0.0000000   0.1428571), wk =   0.0190476
        k(    3) = (   0.0000000   0.0000000   0.2857143), wk =   0.0190476
        k(    4) = (   0.0000000   0.0000000   0.4285714), wk =   0.0190476
        k(    5) = (   0.0000000   0.1666667   0.0000000), wk =   0.0190476
        k(    6) = (   0.0000000   0.1666667   0.1428571), wk =   0.0380952
        k(    7) = (   0.0000000   0.1666667   0.2857143), wk =   0.0380952
        k(    8) = (   0.0000000   0.1666667   0.4285714), wk =   0.0380952
        k(    9) = (   0.0000000   0.3333333   0.0000000), wk =   0.0190476
        k(   10) = (   0.0000000   0.3333333   0.1428571), wk =   0.0380952
        k(   11) = (   0.0000000   0.3333333   0.2857143), wk =   0.0380952
        k(   12) = (   0.0000000   0.3333333   0.4285714), wk =   0.0380952
        k(   13) = (   0.0000000  -0.5000000   0.0000000), wk =   0.0095238
        k(   14) = (   0.0000000  -0.5000000   0.1428571), wk =   0.0190476
        k(   15) = (   0.0000000  -0.5000000   0.2857143), wk =   0.0190476
        k(   16) = (   0.0000000  -0.5000000   0.4285714), wk =   0.0190476
        k(   17) = (   0.2000000   0.0000000   0.0000000), wk =   0.0190476
        k(   18) = (   0.2000000   0.0000000   0.1428571), wk =   0.0380952
        k(   19) = (   0.2000000   0.0000000   0.2857143), wk =   0.0380952
        k(   20) = (   0.2000000   0.0000000   0.4285714), wk =   0.0380952
        k(   21) = (   0.2000000   0.1666667   0.0000000), wk =   0.0380952
        k(   22) = (   0.2000000   0.1666667   0.1428571), wk =   0.0761905
        k(   23) = (   0.2000000   0.1666667   0.2857143), wk =   0.0761905
        k(   24) = (   0.2000000   0.1666667   0.4285714), wk =   0.0761905
        k(   25) = (   0.2000000   0.3333333   0.0000000), wk =   0.0380952
        k(   26) = (   0.2000000   0.3333333   0.1428571), wk =   0.0761905
        k(   27) = (   0.2000000   0.3333333   0.2857143), wk =   0.0761905
        k(   28) = (   0.2000000   0.3333333   0.4285714), wk =   0.0761905
        k(   29) = (   0.2000000  -0.5000000   0.0000000), wk =   0.0190476
        k(   30) = (   0.2000000  -0.5000000   0.1428571), wk =   0.0380952
        k(   31) = (   0.2000000  -0.5000000   0.2857143), wk =   0.0380952
        k(   32) = (   0.2000000  -0.5000000   0.4285714), wk =   0.0380952
        k(   33) = (   0.4000000   0.0000000   0.0000000), wk =   0.0190476
        k(   34) = (   0.4000000   0.0000000   0.1428571), wk =   0.0380952
        k(   35) = (   0.4000000   0.0000000   0.2857143), wk =   0.0380952
        k(   36) = (   0.4000000   0.0000000   0.4285714), wk =   0.0380952
        k(   37) = (   0.4000000   0.1666667   0.0000000), wk =   0.0380952
        k(   38) = (   0.4000000   0.1666667   0.1428571), wk =   0.0761905
        k(   39) = (   0.4000000   0.1666667   0.2857143), wk =   0.0761905
        k(   40) = (   0.4000000   0.1666667   0.4285714), wk =   0.0761905
        k(   41) = (   0.4000000   0.3333333   0.0000000), wk =   0.0380952
        k(   42) = (   0.4000000   0.3333333   0.1428571), wk =   0.0761905
        k(   43) = (   0.4000000   0.3333333   0.2857143), wk =   0.0761905
        k(   44) = (   0.4000000   0.3333333   0.4285714), wk =   0.0761905
        k(   45) = (   0.4000000  -0.5000000   0.0000000), wk =   0.0190476
        k(   46) = (   0.4000000  -0.5000000   0.1428571), wk =   0.0380952
        k(   47) = (   0.4000000  -0.5000000   0.2857143), wk =   0.0380952
        k(   48) = (   0.4000000  -0.5000000   0.4285714), wk =   0.0380952

     Largest allocated arrays     est. size (Mb)     dimensions
     Largest temporary arrays     est. size (Mb)     dimensions

     Initial potential from superposition of free atoms

     Starting from uniform charge
     Starting wfc are    0 randomized atomic wfcs

     Self-consistent Calculation

     iteration #  1     ecut=    40.00 Ry     beta=0.70
     CG style diagonalization
     c_bands:  2 eigenvalues not converged
     c_bands:  1 eigenvalues not converged
     c_bands:  2 eigenvalues not converged
     c_bands:  1 eigenvalues not converged
     c_bands:  2 eigenvalues not converged
     c_bands:  2 eigenvalues not converged
     ethr =  1.00E-02,  avg # of iterations = 17.0

     total energy              =   -1391.24724246 Ry
     Harris-Foulkes estimate   =   -1999.36975222 Ry
     estimated scf accuracy    <     757.72446453 Ry

[...]

     iteration #  4     ecut=    40.00 Ry     beta=0.70
     CG style diagonalization
     ethr =  1.00E-02,  avg # of iterations =  3.8

[...]

     End of self-consistent calculation

          k = 0.0000 0.0000 0.0000 (  2601 PWs)   bands (ev):

   -39.9839 -39.8691 -39.8691 -39.2345 -39.2345 -39.2345  -9.3840  -9.3840
    -9.1241  -7.3996  -7.3996  -7.3996  -6.5389  -6.5389  -6.5389  -6.5085
    -6.5085  -6.5085  -6.2642  -6.2642  -6.2642  -5.2679  -5.2679  -5.2679
     7.4546   7.6208  23.0364  23.0364  23.0364  23.3323  23.3323  23.3323
    27.7307  27.7307  27.8860  29.3698  29.3698  29.3698  30.4968  31.9052
    31.9052  31.9052  32.1418  32.1418  33.0628  34.5955  34.5955  34.5955
    34.6963  35.6763  35.6763  35.6763  37.1203  37.1203  37.2569  37.2569
    37.2569  37.2681  37.2681  37.2681  38.3608  38.3608  38.3607  38.9715
    38.9715  43.8448  43.8448  43.8448  44.8075  44.8075  46.5321  46.5321
    46.5321  47.7687  47.7687  47.7687  50.7008  50.7006  50.7005  51.0262
    51.0262  51.0263  53.1968  54.1799  55.1580  55.1579

[...]

     the Fermi energy is    47.2286 ev

!    total energy              =   -1709.54881817 Ry
     Harris-Foulkes estimate   =   -1709.54882748 Ry
     estimated scf accuracy    <       0.00001130 Ry

     The total energy is the sum of the following terms:

     one-electron contribution =      85.83838074 Ry
     hartree contribution      =     161.44045386 Ry
     xc contribution           =    -173.14069896 Ry
     ewald contribution        =   -1783.42611539 Ry
     smearing contrib. (-TS)   =      -0.26083841 Ry

     convergence has been achieved in   9 iterations

     Forces acting on atoms (Ry/au):

     atom    1 type  1   force =     0.00000000    0.00000000    0.00000000
     atom    2 type  1   force =     0.00000000    0.00000000    0.00000000
     atom    3 type  1   force =     0.00000000    0.00000000    0.00000000
     atom    4 type  1   force =     0.00000000    0.00000000    0.00000000
     atom    5 type  1   force =     0.00000000    0.00000000    0.00000000
     atom    6 type  1   force =     0.00000000    0.00000000    0.00000000
     atom    7 type  2   force =     0.00000000    0.00000000    0.00000000
     atom    8 type  2   force =     0.00000000    0.00000000    0.00000000

     Total force =     0.000000     Total SCF correction =     0.000000

     entering subroutine stress ...

          total   stress  (Ry/bohr**3)                   (kbar)     P= 5482.02
   0.03726599   0.00000000   0.00000000       5482.02      0.00      0.00
   0.00000000   0.03726599   0.00000000          0.00   5482.02      0.00
   0.00000000   0.00000000   0.03726599          0.00      0.00   5482.02

     BFGS Geometry Optimization

     number of scf cycles    =   1
     number of bfgs steps    =   0

     enthalpy new            =   -1709.5488181684 Ry

     new trust radius        =       0.5000000000 bohr
[...]

     CASE: enthalpy_new < enthalpy_old

     small trust_radius: resetting bfgs history

     new trust radius        =       1.0791199458 bohr
     new conv_thr            =       0.0000010000 Ry

[...]

          total   stress  (Ry/bohr**3)                   (kbar)     P=-1314.43
  -0.00893530   0.00000000   0.00000000      -1314.43      0.00      0.00
   0.00000000  -0.00893530   0.00000000          0.00  -1314.43      0.00
   0.00000000   0.00000000  -0.00893530          0.00      0.00  -1314.43

     number of scf cycles    =   3
     number of bfgs steps    =   2

     enthalpy old            =   -1713.6294177465 Ry
     enthalpy new            =   -1711.6218250548 Ry

     CASE: enthalpy_new > enthalpy_old

     new trust radius        =       0.3733960060 bohr

     trust_radius < trust_radius_min

     resetting bfgs history

     Message from routine bfgs:
     history already reset at previous step: stopping
     new conv_thr            =       0.0000010000 Ry

     new unit-cell volume =   1042.27679 a.u.^3 (   154.44948 Ang^3 )

[...]

ATOMIC_POSITIONS (crystal)
Cr       0.000000000   0.500000000   0.250000000
Cr       0.000000000   0.500000000   0.750000000
Cr       0.500000000   0.750000000   0.000000000
Cr       0.500000000   0.250000000   0.000000000
Cr       0.750000000   0.000000000   0.500000000
Cr       0.250000000   0.000000000   0.500000000
Si       0.500000000   0.500000000   0.500000000
Si       0.000000000   0.000000000   0.000000000

     Writing output data file Prototype-La-cP8-Cr3Si.save
     NEW-OLD atomic charge density approx. for the potential
     NEW k-points:
        k(    1) = (   0.0000000   0.0000000   0.0000000), wk =   0.0095238
        k(    2) = (   0.0000000   0.0000000   0.1202512), wk =   0.0190476
        k(    3) = (   0.0000000   0.0000000   0.2405024), wk =   0.0190476
        k(    4) = (   0.0000000   0.0000000   0.3607536), wk =   0.0190476
        k(    5) = (   0.0000000   0.1402931   0.0000000), wk =   0.0190476
        k(    6) = (   0.0000000   0.1402931   0.1202512), wk =   0.0380952
        k(    7) = (   0.0000000   0.1402931   0.2405024), wk =   0.0380952
        k(    8) = (   0.0000000   0.1402931   0.3607536), wk =   0.0380952
        k(    9) = (   0.0000000   0.2805861   0.0000000), wk =   0.0190476
        k(   10) = (   0.0000000   0.2805861   0.1202512), wk =   0.0380952
        k(   11) = (   0.0000000   0.2805861   0.2405024), wk =   0.0380952
        k(   12) = (   0.0000000   0.2805861   0.3607536), wk =   0.0380952
        k(   13) = (   0.0000000  -0.4208792   0.0000000), wk =   0.0095238
        k(   14) = (   0.0000000  -0.4208792   0.1202512), wk =   0.0190476
        k(   15) = (   0.0000000  -0.4208792   0.2405024), wk =   0.0190476
        k(   16) = (   0.0000000  -0.4208792   0.3607536), wk =   0.0190476
        k(   17) = (   0.1683517   0.0000000   0.0000000), wk =   0.0190476
        k(   18) = (   0.1683517   0.0000000   0.1202512), wk =   0.0380952
        k(   19) = (   0.1683517   0.0000000   0.2405024), wk =   0.0380952
        k(   20) = (   0.1683517   0.0000000   0.3607536), wk =   0.0380952
        k(   21) = (   0.1683517   0.1402931   0.0000000), wk =   0.0380952
        k(   22) = (   0.1683517   0.1402931   0.1202512), wk =   0.0761905
        k(   23) = (   0.1683517   0.1402931   0.2405024), wk =   0.0761905
        k(   24) = (   0.1683517   0.1402931   0.3607536), wk =   0.0761905
        k(   25) = (   0.1683517   0.2805861   0.0000000), wk =   0.0380952
        k(   26) = (   0.1683517   0.2805861   0.1202512), wk =   0.0761905
        k(   27) = (   0.1683517   0.2805861   0.2405024), wk =   0.0761905
        k(   28) = (   0.1683517   0.2805861   0.3607536), wk =   0.0761905
        k(   29) = (   0.1683517  -0.4208792   0.0000000), wk =   0.0190476
        k(   30) = (   0.1683517  -0.4208792   0.1202512), wk =   0.0380952
        k(   31) = (   0.1683517  -0.4208792   0.2405024), wk =   0.0380952
        k(   32) = (   0.1683517  -0.4208792   0.3607536), wk =   0.0380952
        k(   33) = (   0.3367034   0.0000000   0.0000000), wk =   0.0190476
        k(   34) = (   0.3367034   0.0000000   0.1202512), wk =   0.0380952
        k(   35) = (   0.3367034   0.0000000   0.2405024), wk =   0.0380952
        k(   36) = (   0.3367034   0.0000000   0.3607536), wk =   0.0380952
        k(   37) = (   0.3367034   0.1402931   0.0000000), wk =   0.0380952
        k(   38) = (   0.3367034   0.1402931   0.1202512), wk =   0.0761905
        k(   39) = (   0.3367034   0.1402931   0.2405024), wk =   0.0761905
        k(   40) = (   0.3367034   0.1402931   0.3607536), wk =   0.0761905
        k(   41) = (   0.3367034   0.2805861   0.0000000), wk =   0.0380952
        k(   42) = (   0.3367034   0.2805861   0.1202512), wk =   0.0761905
        k(   43) = (   0.3367034   0.2805861   0.2405024), wk =   0.0761905
        k(   44) = (   0.3367034   0.2805861   0.3607536), wk =   0.0761905
        k(   45) = (   0.3367034  -0.4208792   0.0000000), wk =   0.0190476
        k(   46) = (   0.3367034  -0.4208792   0.1202512), wk =   0.0380952
        k(   47) = (   0.3367034  -0.4208792   0.2405024), wk =   0.0380952
        k(   48) = (   0.3367034  -0.4208792   0.3607536), wk =   0.0380952

[...]

     The maximum number of steps has been reached.

     End of BFGS Geometry Optimization
Begin final coordinates
     new unit-cell volume =   1042.27679 a.u.^3 (   154.44948 Ang^3 )

CELL_PARAMETERS (alat=  8.53457320)
   1.187989352   0.000000000   0.000000000
   0.000000000   1.187989352   0.000000000
   0.000000000   0.000000000   1.187989352

ATOMIC_POSITIONS (crystal)
Cr       0.000000000   0.500000000   0.250000000
Cr       0.000000000   0.500000000   0.750000000
Cr       0.500000000   0.750000000   0.000000000
Cr       0.500000000   0.250000000   0.000000000
Cr       0.750000000   0.000000000   0.500000000
Cr       0.250000000   0.000000000   0.500000000
Si       0.500000000   0.500000000   0.500000000
Si       0.000000000   0.000000000   0.000000000
End final coordinates

     A final scf calculation at the relaxed structure.
     The G-vectors are recalculated for the final unit cell
     Results may differ from those at the preceding step.

     bravais-lattice index     =            0
     lattice parameter (alat)  =       8.5346  a.u.
     unit-cell volume          =    1042.2768 (a.u.)^3
     number of atoms/cell      =            8
     number of atomic types    =            2
     number of electrons       =       144.00
     number of Kohn-Sham states=           86
     kinetic-energy cutoff     =      40.0000  Ry
     charge density cutoff     =     160.0000  Ry
     convergence threshold     =      1.0E-06
     mixing beta               =       0.7000
     number of iterations used =            8  plain     mixing
     Exchange-correlation      = SLA-PZ-NOGX-NOGC ( 1 1 0 0 0)
     EXX-fraction              =        0.00

     celldm(1)=   8.534573  celldm(2)=   0.000000  celldm(3)=   0.000000
     celldm(4)=   0.000000  celldm(5)=   0.000000  celldm(6)=   0.000000

     crystal axes: (cart. coord. in units of alat)
               a(1) = (   1.187989   0.000000   0.000000 )
               a(2) = (   0.000000   1.187989   0.000000 )
               a(3) = (   0.000000   0.000000   1.187989 )

     reciprocal axes: (cart. coord. in units 2 pi/alat)
               b(1) = (  0.841758  0.000000  0.000000 )
               b(2) = (  0.000000  0.841758  0.000000 )
               b(3) = (  0.000000  0.000000  0.841758 )

     PseudoPot. # 1 for Dy read from file:
     /home/cwx6513/pp.La/Dy.UPF
     MD5 check sum: 9597327bec62616a94a14d07f3fd9936
     Pseudo is Norm-conserving, Zval = 20.0
     Generated in analytical, separable form
     Using radial grid of 1265 points,  6 beta functions with:
                l(1) =   0
                l(2) =   0
                l(3) =   1
                l(4) =   1
                l(5) =   2
                l(6) =   3

     PseudoPot. # 2 for Ce read from file:
     /home/cwx6513/pp.La/Ce.UPF
     MD5 check sum: 44451aa79a44a00cf2bc029dc19922f6
     Pseudo is Norm-conserving, Zval = 12.0
     Generated in analytical, separable form
     Using radial grid of 1255 points,  6 beta functions with:
                l(1) =   0
                l(2) =   0
                l(3) =   1
                l(4) =   1
                l(5) =   2
                l(6) =   3

     atomic species   valence    mass     pseudopotential
        Cr            20.00    51.99610     Dy( 1.00)
        Si            12.00    28.08550     Ce( 1.00)

     48 Sym. Ops., with inversion, found (24 have fractional translation)

   Cartesian axes

     site n.     atom                  positions (alat units)
         1           Cr  tau(   1) = (   0.0000000   0.5939947   0.2969973  )
         2           Cr  tau(   2) = (   0.0000000   0.5939947   0.8909920  )
         3           Cr  tau(   3) = (   0.5939947   0.8909920   0.0000000  )
         4           Cr  tau(   4) = (   0.5939947   0.2969973   0.0000000  )
         5           Cr  tau(   5) = (   0.8909920   0.0000000   0.5939947  )
         6           Cr  tau(   6) = (   0.2969973   0.0000000   0.5939947  )
         7           Si  tau(   7) = (   0.5939947   0.5939947   0.5939947  )
         8           Si  tau(   8) = (   0.0000000   0.0000000   0.0000000  )

     number of k points=    48  gaussian smearing, width (Ry)=  0.1000
                       cart. coord. in units 2pi/alat
        k(    1) = (   0.0000000   0.0000000   0.0000000), wk =   0.0095238
        k(    2) = (   0.0000000   0.0000000   0.1202512), wk =   0.0190476
        k(    3) = (   0.0000000   0.0000000   0.2405024), wk =   0.0190476
        k(    4) = (   0.0000000   0.0000000   0.3607536), wk =   0.0190476
        k(    5) = (   0.0000000   0.1402931   0.0000000), wk =   0.0190476
        k(    6) = (   0.0000000   0.1402931   0.1202512), wk =   0.0380952
        k(    7) = (   0.0000000   0.1402931   0.2405024), wk =   0.0380952
        k(    8) = (   0.0000000   0.1402931   0.3607536), wk =   0.0380952
        k(    9) = (   0.0000000   0.2805861   0.0000000), wk =   0.0190476
        k(   10) = (   0.0000000   0.2805861   0.1202512), wk =   0.0380952
        k(   11) = (   0.0000000   0.2805861   0.2405024), wk =   0.0380952
        k(   12) = (   0.0000000   0.2805861   0.3607536), wk =   0.0380952
        k(   13) = (   0.0000000  -0.4208792   0.0000000), wk =   0.0095238
        k(   14) = (   0.0000000  -0.4208792   0.1202512), wk =   0.0190476
        k(   15) = (   0.0000000  -0.4208792   0.2405024), wk =   0.0190476
        k(   16) = (   0.0000000  -0.4208792   0.3607536), wk =   0.0190476
        k(   17) = (   0.1683517   0.0000000   0.0000000), wk =   0.0190476
        k(   18) = (   0.1683517   0.0000000   0.1202512), wk =   0.0380952
        k(   19) = (   0.1683517   0.0000000   0.2405024), wk =   0.0380952
        k(   20) = (   0.1683517   0.0000000   0.3607536), wk =   0.0380952
        k(   21) = (   0.1683517   0.1402931   0.0000000), wk =   0.0380952
        k(   22) = (   0.1683517   0.1402931   0.1202512), wk =   0.0761905
        k(   23) = (   0.1683517   0.1402931   0.2405024), wk =   0.0761905
        k(   24) = (   0.1683517   0.1402931   0.3607536), wk =   0.0761905
        k(   25) = (   0.1683517   0.2805861   0.0000000), wk =   0.0380952
        k(   26) = (   0.1683517   0.2805861   0.1202512), wk =   0.0761905
        k(   27) = (   0.1683517   0.2805861   0.2405024), wk =   0.0761905
        k(   28) = (   0.1683517   0.2805861   0.3607536), wk =   0.0761905
        k(   29) = (   0.1683517  -0.4208792   0.0000000), wk =   0.0190476
        k(   30) = (   0.1683517  -0.4208792   0.1202512), wk =   0.0380952
        k(   31) = (   0.1683517  -0.4208792   0.2405024), wk =   0.0380952
        k(   32) = (   0.1683517  -0.4208792   0.3607536), wk =   0.0380952
        k(   33) = (   0.3367034   0.0000000   0.0000000), wk =   0.0190476
        k(   34) = (   0.3367034   0.0000000   0.1202512), wk =   0.0380952
        k(   35) = (   0.3367034   0.0000000   0.2405024), wk =   0.0380952
        k(   36) = (   0.3367034   0.0000000   0.3607536), wk =   0.0380952
        k(   37) = (   0.3367034   0.1402931   0.0000000), wk =   0.0380952
        k(   38) = (   0.3367034   0.1402931   0.1202512), wk =   0.0761905
        k(   39) = (   0.3367034   0.1402931   0.2405024), wk =   0.0761905
        k(   40) = (   0.3367034   0.1402931   0.3607536), wk =   0.0761905
        k(   41) = (   0.3367034   0.2805861   0.0000000), wk =   0.0380952
        k(   42) = (   0.3367034   0.2805861   0.1202512), wk =   0.0761905
        k(   43) = (   0.3367034   0.2805861   0.2405024), wk =   0.0761905
        k(   44) = (   0.3367034   0.2805861   0.3607536), wk =   0.0761905
        k(   45) = (   0.3367034  -0.4208792   0.0000000), wk =   0.0190476
        k(   46) = (   0.3367034  -0.4208792   0.1202512), wk =   0.0380952
        k(   47) = (   0.3367034  -0.4208792   0.2405024), wk =   0.0380952
        k(   48) = (   0.3367034  -0.4208792   0.3607536), wk =   0.0380952

     Largest allocated arrays     est. size (Mb)     dimensions
     Largest temporary arrays     est. size (Mb)     dimensions

     Initial potential from superposition of free atoms

     Starting from uniform charge
     Starting wfc are    0 randomized atomic wfcs

     Writing output data file Prototype-La-cP8-Cr3Si.save

     Self-consistent Calculation

[...]

     iteration # 10     ecut=    40.00 Ry     beta=0.70
     CG style diagonalization
     c_bands:  1 eigenvalues not converged
     c_bands:  1 eigenvalues not converged
     ethr =  3.42E-07,  avg # of iterations =  4.7

[...]

     total energy              =   -1717.21792565 Ry
     Harris-Foulkes estimate   =   -1717.21792654 Ry
     estimated scf accuracy    <       0.00000184 Ry

     iteration # 12     ecut=    40.00 Ry     beta=0.70
     CG style diagonalization
     ethr =  1.28E-09,  avg # of iterations =  4.8

     End of self-consistent calculation

[...]

          k = 0.3367-0.4209 0.3608 (  4464 PWs)   bands (ev):

   -57.0084 -57.0028 -56.9953 -56.9949 -56.9878 -56.9830 -24.1978 -24.1644
   -24.0734 -24.0728 -23.9774 -23.9458 -23.9442 -23.9439 -23.8974 -23.8916
   -23.8813 -23.8751 -23.8636 -23.8598 -23.8567 -23.8505 -23.8449 -23.8436
   -11.4534 -11.4534   6.1329   6.1359   6.1600   6.1600   6.1761   6.1779
    15.8534  15.8652  15.8889  15.9511  15.9652  16.0421  16.0989  16.1176
    16.3620  16.3716  16.4327  16.4732  16.5215  16.5264  16.6164  16.6196
    17.2866  17.2868  17.3784  17.3890  17.4432  17.4475  17.7392  17.8837
    17.9376  17.9733  18.0536  18.0669  18.1468  18.1734  21.4403  21.4459
    22.0271  22.0313  22.3269  22.3813  24.8878  24.8881  27.1623  27.1677
    27.2134  27.2177  28.1347  28.2805  28.6626  28.7125  29.0610  29.1223
    31.1387  31.3977  32.2995  32.3185  33.3307  33.7941

     the Fermi energy is    26.5789 ev

!    total energy              =   -1717.21792703 Ry
     Harris-Foulkes estimate   =   -1717.21792741 Ry
     estimated scf accuracy    <       0.00000047 Ry

     The total energy is the sum of the following terms:

     one-electron contribution =    -315.64382639 Ry
     hartree contribution      =     265.17400634 Ry
     xc contribution           =    -165.18948146 Ry
     ewald contribution        =   -1501.21388949 Ry
     smearing contrib. (-TS)   =      -0.34473603 Ry

     convergence has been achieved in  12 iterations

     Forces acting on atoms (Ry/au):

     atom    1 type  1   force =     0.00000000    0.00000000    0.00000000
     atom    2 type  1   force =     0.00000000    0.00000000    0.00000000
     atom    3 type  1   force =     0.00000000    0.00000000    0.00000000
     atom    4 type  1   force =     0.00000000    0.00000000    0.00000000
     atom    5 type  1   force =     0.00000000    0.00000000    0.00000000
     atom    6 type  1   force =     0.00000000    0.00000000    0.00000000
     atom    7 type  2   force =     0.00000000    0.00000000    0.00000000
     atom    8 type  2   force =     0.00000000    0.00000000    0.00000000

     Total force =     0.000000     Total SCF correction =     0.000000

     entering subroutine stress ...

          total   stress  (Ry/bohr**3)                   (kbar)     P=  335.13
   0.00227816   0.00000000   0.00000000        335.13      0.00      0.00
   0.00000000   0.00227816   0.00000000          0.00    335.13      0.00
   0.00000000   0.00000000   0.00227816          0.00      0.00    335.13

     Writing output data file Prototype-La-cP8-Cr3Si.save

     General routines

     Parallel routines

   This run was terminated on:   2:47: 7  23Mar2018

   JOB DONE.