     Program PWSCF v.5.0.2 starts on 22Mar2018 at  0:39:28

     Current dimensions of program PWSCF are:
     Max number of different atomic species (ntypx) = 10
     Max number of k-points (npk) =  40000
     Max angular momentum in pseudopotentials (lmaxx) =  3
     Waiting for input...
     Reading input from standard input

     Subspace diagonalization in iterative solution of the eigenvalue problem:
     a serial algorithm will be used

     bravais-lattice index     =            0
     lattice parameter (alat)  =      12.0168  a.u.
     unit-cell volume          =    1187.3413 (a.u.)^3
     number of atoms/cell      =            8
     number of atomic types    =            2
     number of electrons       =       104.00
     number of Kohn-Sham states=           62
     kinetic-energy cutoff     =      40.0000  Ry
     charge density cutoff     =     160.0000  Ry
     convergence threshold     =      1.0E-04
     mixing beta               =       0.7000
     number of iterations used =            8  plain     mixing
     Exchange-correlation      = SLA-PZ-NOGX-NOGC ( 1 1 0 0 0)
     EXX-fraction              =        0.00
     nstep                     =           50

     celldm(1)=  12.016801  celldm(2)=   0.000000  celldm(3)=   0.000000
     celldm(4)=   0.000000  celldm(5)=   0.000000  celldm(6)=   0.000000

     crystal axes: (cart. coord. in units of alat)
               a(1) = (   1.000000   0.000000   0.000000 )
               a(2) = (  -0.500000   0.866025   0.000000 )
               a(3) = (   0.000000   0.000000   0.790093 )

     reciprocal axes: (cart. coord. in units 2 pi/alat)
               b(1) = (  1.000000  0.577350  0.000000 )
               b(2) = (  0.000000  1.154701  0.000000 )
               b(3) = (  0.000000  0.000000  1.265674 )

     PseudoPot. # 1 for Ce read from file:
     /home/jld5415/pp.La/Ce.UPF
     MD5 check sum: 44451aa79a44a00cf2bc029dc19922f6
     Pseudo is Norm-conserving, Zval = 12.0
     Generated in analytical, separable form
     Using radial grid of 1255 points,  6 beta functions with:
                l(1) =   0
                l(2) =   0
                l(3) =   1
                l(4) =   1
                l(5) =   2
                l(6) =   3

     PseudoPot. # 2 for Sm read from file:
     /home/jld5415/pp.La/Sm.UPF
     MD5 check sum: 5079e8b144a06bfcdbc14fb02b96ab09
     Pseudo is Norm-conserving, Zval = 16.0
     Generated in analytical, separable form
     Using radial grid of 1259 points,  6 beta functions with:
                l(1) =   0
                l(2) =   0
                l(3) =   1
                l(4) =   1
                l(5) =   2
                l(6) =   3

     atomic species   valence    mass     pseudopotential
        Mg            12.00    24.30500     Ce( 1.00)
        Cd            16.00   112.41100     Sm( 1.00)

     24 Sym. Ops., with inversion, found (12 have fractional translation)

   Cartesian axes

     site n.     atom                  positions (alat units)
         1           Mg  tau(   1) = (   0.2478935   0.7204716   0.1975233  )
         2           Mg  tau(   2) = (   0.7478935   0.1455538   0.5925699  )
         3           Mg  tau(   3) = (   0.2521065   0.1455538   0.5925699  )
         4           Mg  tau(   4) = (  -0.2478935   0.7204716   0.1975233  )
         5           Mg  tau(   5) = (   0.0000000   0.2911075   0.1975233  )
         6           Mg  tau(   6) = (   0.5000000   0.5749179   0.5925699  )
         7           Cd  tau(   7) = (   0.5000005   0.2886748   0.1975233  )
         8           Cd  tau(   8) = (  -0.0000005   0.5773506   0.5925699  )

     number of k points=    64  gaussian smearing, width (Ry)=  0.1000
                       cart. coord. in units 2pi/alat
        k(    1) = (   0.0000000   0.0000000   0.0000000), wk =   0.0095238
        k(    2) = (   0.0000000   0.0000000   0.1808105), wk =   0.0190476
        k(    3) = (   0.0000000   0.0000000   0.3616210), wk =   0.0190476
        k(    4) = (   0.0000000   0.0000000   0.5424315), wk =   0.0190476
        k(    5) = (   0.0000000   0.1924501   0.0000000), wk =   0.0190476
        k(    6) = (   0.0000000   0.1924501   0.1808105), wk =   0.0380952
        k(    7) = (   0.0000000   0.1924501   0.3616210), wk =   0.0380952
        k(    8) = (   0.0000000   0.1924501   0.5424315), wk =   0.0380952
        k(    9) = (   0.0000000   0.3849002   0.0000000), wk =   0.0190476
        k(   10) = (   0.0000000   0.3849002   0.1808105), wk =   0.0380952
        k(   11) = (   0.0000000   0.3849002   0.3616210), wk =   0.0380952
        k(   12) = (   0.0000000   0.3849002   0.5424315), wk =   0.0380952
        k(   13) = (   0.0000000  -0.5773503   0.0000000), wk =   0.0095238
        k(   14) = (   0.0000000  -0.5773503   0.1808105), wk =   0.0190476
        k(   15) = (   0.0000000  -0.5773503   0.3616210), wk =   0.0190476
        k(   16) = (   0.0000000  -0.5773503   0.5424315), wk =   0.0190476
        k(   17) = (   0.2000000   0.1154701   0.0000000), wk =   0.0190476
        k(   18) = (   0.2000000   0.1154701   0.1808105), wk =   0.0380952
        k(   19) = (   0.2000000   0.1154701   0.3616210), wk =   0.0380952
        k(   20) = (   0.2000000   0.1154701   0.5424315), wk =   0.0380952
        k(   21) = (   0.2000000   0.3079201   0.0000000), wk =   0.0190476
        k(   22) = (   0.2000000   0.3079201   0.1808105), wk =   0.0380952
        k(   23) = (   0.2000000   0.3079201   0.3616210), wk =   0.0380952
        k(   24) = (   0.2000000   0.3079201   0.5424315), wk =   0.0380952
        k(   25) = (   0.2000000   0.5003702   0.0000000), wk =   0.0190476
        k(   26) = (   0.2000000   0.5003702   0.1808105), wk =   0.0380952
        k(   27) = (   0.2000000   0.5003702   0.3616210), wk =   0.0380952
        k(   28) = (   0.2000000   0.5003702   0.5424315), wk =   0.0380952
        k(   29) = (   0.2000000  -0.4618802   0.0000000), wk =   0.0190476
        k(   30) = (   0.2000000  -0.4618802   0.1808105), wk =   0.0380952
        k(   31) = (   0.2000000  -0.4618802   0.3616210), wk =   0.0380952
        k(   32) = (   0.2000000  -0.4618802   0.5424315), wk =   0.0380952
        k(   33) = (   0.2000000  -0.2694301   0.0000000), wk =   0.0190476
        k(   34) = (   0.2000000  -0.2694301   0.1808105), wk =   0.0380952
        k(   35) = (   0.2000000  -0.2694301   0.3616210), wk =   0.0380952
        k(   36) = (   0.2000000  -0.2694301   0.5424315), wk =   0.0380952
        k(   37) = (   0.2000000  -0.0769800   0.0000000), wk =   0.0190476
        k(   38) = (   0.2000000  -0.0769800   0.1808105), wk =   0.0380952
        k(   39) = (   0.2000000  -0.0769800   0.3616210), wk =   0.0380952
        k(   40) = (   0.2000000  -0.0769800   0.5424315), wk =   0.0380952
        k(   41) = (   0.4000000   0.2309401   0.0000000), wk =   0.0190476
        k(   42) = (   0.4000000   0.2309401   0.1808105), wk =   0.0380952
        k(   43) = (   0.4000000   0.2309401   0.3616210), wk =   0.0380952
        k(   44) = (   0.4000000   0.2309401   0.5424315), wk =   0.0380952
        k(   45) = (   0.4000000   0.4233902   0.0000000), wk =   0.0190476
        k(   46) = (   0.4000000   0.4233902   0.1808105), wk =   0.0380952
        k(   47) = (   0.4000000   0.4233902   0.3616210), wk =   0.0380952
        k(   48) = (   0.4000000   0.4233902   0.5424315), wk =   0.0380952
        k(   49) = (   0.4000000   0.6158403   0.0000000), wk =   0.0190476
        k(   50) = (   0.4000000   0.6158403   0.1808105), wk =   0.0380952
        k(   51) = (   0.4000000   0.6158403   0.3616210), wk =   0.0380952
        k(   52) = (   0.4000000   0.6158403   0.5424315), wk =   0.0380952
        k(   53) = (   0.4000000  -0.3464102   0.0000000), wk =   0.0190476
        k(   54) = (   0.4000000  -0.3464102   0.1808105), wk =   0.0380952
        k(   55) = (   0.4000000  -0.3464102   0.3616210), wk =   0.0380952
        k(   56) = (   0.4000000  -0.3464102   0.5424315), wk =   0.0380952
        k(   57) = (   0.4000000  -0.1539601   0.0000000), wk =   0.0190476
        k(   58) = (   0.4000000  -0.1539601   0.1808105), wk =   0.0380952
        k(   59) = (   0.4000000  -0.1539601   0.3616210), wk =   0.0380952
        k(   60) = (   0.4000000  -0.1539601   0.5424315), wk =   0.0380952
        k(   61) = (   0.4000000   0.0384900   0.0000000), wk =   0.0190476
        k(   62) = (   0.4000000   0.0384900   0.1808105), wk =   0.0380952
        k(   63) = (   0.4000000   0.0384900   0.3616210), wk =   0.0380952
        k(   64) = (   0.4000000   0.0384900   0.5424315), wk =   0.0380952

     Largest allocated arrays     est. size (Mb)     dimensions
     Largest temporary arrays     est. size (Mb)     dimensions

     Initial potential from superposition of free atoms

     Starting from uniform charge
     Starting wfc are    0 randomized atomic wfcs

     Self-consistent Calculation

     iteration #  1     ecut=    40.00 Ry     beta=0.70
     CG style diagonalization
     c_bands:  1 eigenvalues not converged
     c_bands:  1 eigenvalues not converged
     ethr =  1.00E-02,  avg # of iterations = 10.7

     total energy              =    -387.64650911 Ry
     Harris-Foulkes estimate   =    -917.79930544 Ry
     estimated scf accuracy    <     648.39192061 Ry

[...]

     iteration #  3     ecut=    40.00 Ry     beta=0.70
     CG style diagonalization
     ethr =  1.00E-02,  avg # of iterations =  9.5

[...]

     End of self-consistent calculation

          k = 0.0000 0.0000 0.0000 (  5047 PWs)   bands (ev):

   -36.3054 -36.3037 -17.4517 -16.9408 -16.9407 -16.8604 -16.6480 -16.6479
   -11.5704 -11.5478 -11.5085 -11.5085 -11.4890 -11.4890  -0.7524  -0.4249
    -0.0518   0.3846   0.3847   0.4574   0.4575   0.5638   0.5638   1.2816
     1.7108   1.7109   2.1597   2.1597   2.2198   2.2198   2.2212   2.3082
    15.7905  15.8666  15.8666  16.2056  16.3576  16.8174  16.8175  17.0556
    17.3111  17.3111  17.3955  18.5477  18.5477  19.8911  20.1065  20.1066
    20.6081  20.7552  20.9208  20.9209  21.4665  21.7059  21.7059  21.9350
    21.9350  22.3509  22.3509  22.6302  22.8271  22.8272

[...]

     the Fermi energy is    20.6931 ev

!    total energy              =    -766.65642605 Ry
     Harris-Foulkes estimate   =    -766.65648422 Ry
     estimated scf accuracy    <       0.00009695 Ry

     The total energy is the sum of the following terms:

     one-electron contribution =      -1.47186916 Ry
     hartree contribution      =      73.08594885 Ry
     xc contribution           =     -94.38454499 Ry
     ewald contribution        =    -743.30696777 Ry
     smearing contrib. (-TS)   =      -0.57899298 Ry

     convergence has been achieved in  12 iterations

     Forces acting on atoms (Ry/au):

     atom    1 type  1   force =    -0.03214043   -0.01855629    0.00000000
     atom    2 type  1   force =    -0.03214043    0.01855629    0.00000000
     atom    3 type  1   force =     0.03214043    0.01855629    0.00000000
     atom    4 type  1   force =     0.03214043   -0.01855629    0.00000000
     atom    5 type  1   force =     0.00000000    0.03711258    0.00000000
[...]
        k(   12) = (   0.0000000   0.3726979   0.5188522), wk =   0.0380952
        k(   13) = (   0.0000000  -0.5590469   0.0000000), wk =   0.0095238
        k(   14) = (   0.0000000  -0.5590469   0.1729507), wk =   0.0190476
        k(   15) = (   0.0000000  -0.5590469   0.3459014), wk =   0.0190476
        k(   16) = (   0.0000000  -0.5590469   0.5188522), wk =   0.0190476
        k(   17) = (   0.1936595   0.1118094   0.0000000), wk =   0.0190476
        k(   18) = (   0.1936595   0.1118094   0.1729507), wk =   0.0380952
        k(   19) = (   0.1936595   0.1118094   0.3459014), wk =   0.0380952
        k(   20) = (   0.1936595   0.1118094   0.5188522), wk =   0.0380952
        k(   21) = (   0.1936595   0.2981583   0.0000000), wk =   0.0190476
        k(   22) = (   0.1936595   0.2981583   0.1729507), wk =   0.0380952
        k(   23) = (   0.1936595   0.2981583   0.3459014), wk =   0.0380952
        k(   24) = (   0.1936595   0.2981583   0.5188522), wk =   0.0380952
        k(   25) = (   0.1936595   0.4845073   0.0000000), wk =   0.0190476
        k(   26) = (   0.1936595   0.4845073   0.1729507), wk =   0.0380952
        k(   27) = (   0.1936595   0.4845073   0.3459014), wk =   0.0380952
        k(   28) = (   0.1936595   0.4845073   0.5188522), wk =   0.0380952
        k(   29) = (   0.1936595  -0.4472375   0.0000000), wk =   0.0190476
        k(   30) = (   0.1936595  -0.4472375   0.1729507), wk =   0.0380952
        k(   31) = (   0.1936595  -0.4472375   0.3459014), wk =   0.0380952
        k(   32) = (   0.1936595  -0.4472375   0.5188522), wk =   0.0380952
        k(   33) = (   0.1936595  -0.2608885   0.0000000), wk =   0.0190476
        k(   34) = (   0.1936595  -0.2608885   0.1729507), wk =   0.0380952
        k(   35) = (   0.1936595  -0.2608885   0.3459014), wk =   0.0380952
        k(   36) = (   0.1936595  -0.2608885   0.5188522), wk =   0.0380952
        k(   37) = (   0.1936595  -0.0745396   0.0000000), wk =   0.0190476
        k(   38) = (   0.1936595  -0.0745396   0.1729507), wk =   0.0380952
        k(   39) = (   0.1936595  -0.0745396   0.3459014), wk =   0.0380952
        k(   40) = (   0.1936595  -0.0745396   0.5188522), wk =   0.0380952
        k(   41) = (   0.3873190   0.2236187   0.0000000), wk =   0.0190476
        k(   42) = (   0.3873190   0.2236187   0.1729507), wk =   0.0380952
        k(   43) = (   0.3873190   0.2236187   0.3459014), wk =   0.0380952
        k(   44) = (   0.3873190   0.2236187   0.5188522), wk =   0.0380952
        k(   45) = (   0.3873190   0.4099677   0.0000000), wk =   0.0190476
        k(   46) = (   0.3873190   0.4099677   0.1729507), wk =   0.0380952
        k(   47) = (   0.3873190   0.4099677   0.3459014), wk =   0.0380952
        k(   48) = (   0.3873190   0.4099677   0.5188522), wk =   0.0380952
        k(   49) = (   0.3873190   0.5963166   0.0000000), wk =   0.0190476
        k(   50) = (   0.3873190   0.5963166   0.1729507), wk =   0.0380952
        k(   51) = (   0.3873190   0.5963166   0.3459014), wk =   0.0380952
        k(   52) = (   0.3873190   0.5963166   0.5188522), wk =   0.0380952
        k(   53) = (   0.3873190  -0.3354281   0.0000000), wk =   0.0190476
        k(   54) = (   0.3873190  -0.3354281   0.1729507), wk =   0.0380952
        k(   55) = (   0.3873190  -0.3354281   0.3459014), wk =   0.0380952
        k(   56) = (   0.3873190  -0.3354281   0.5188522), wk =   0.0380952
        k(   57) = (   0.3873190  -0.1490792   0.0000000), wk =   0.0190476
        k(   58) = (   0.3873190  -0.1490792   0.1729507), wk =   0.0380952
        k(   59) = (   0.3873190  -0.1490792   0.3459014), wk =   0.0380952
        k(   60) = (   0.3873190  -0.1490792   0.5188522), wk =   0.0380952
        k(   61) = (   0.3873190   0.0372698   0.0000000), wk =   0.0190476
        k(   62) = (   0.3873190   0.0372698   0.1729507), wk =   0.0380952
        k(   63) = (   0.3873190   0.0372698   0.3459014), wk =   0.0380952
        k(   64) = (   0.3873190   0.0372698   0.5188522), wk =   0.0380952

[...]

     The maximum number of steps has been reached.

     End of BFGS Geometry Optimization
Begin final coordinates
     new unit-cell volume =   1323.91214 a.u.^3 (   196.18354 Ang^3 )

CELL_PARAMETERS (alat= 12.01680127)
   1.032740387   0.000000000   0.000000000
  -0.516370194   0.894379411   0.000000000
   0.000000000   0.000000000   0.825999099

ATOMIC_POSITIONS (crystal)
Mg       0.659046013   0.829523006   0.250000000
Mg       0.829523006   0.170476994   0.750000000
Mg       0.340953987   0.170476994   0.750000000
Mg       0.170476994   0.829523006   0.250000000
Mg       0.170476994   0.340953987   0.250000000
Mg       0.829523006   0.659046013   0.750000000
Cd       0.666667000   0.333333000   0.250000000
Cd       0.333333000   0.666667000   0.750000000
End final coordinates

     A final scf calculation at the relaxed structure.
     The G-vectors are recalculated for the final unit cell
     Results may differ from those at the preceding step.

     bravais-lattice index     =            0
     lattice parameter (alat)  =      12.0168  a.u.
     unit-cell volume          =    1323.9121 (a.u.)^3
     number of atoms/cell      =            8
     number of atomic types    =            2
     number of electrons       =       104.00
     number of Kohn-Sham states=           62
     kinetic-energy cutoff     =      40.0000  Ry
     charge density cutoff     =     160.0000  Ry
     convergence threshold     =      1.3E-05
     mixing beta               =       0.7000
     number of iterations used =            8  plain     mixing
     Exchange-correlation      = SLA-PZ-NOGX-NOGC ( 1 1 0 0 0)
     EXX-fraction              =        0.00

     celldm(1)=  12.016801  celldm(2)=   0.000000  celldm(3)=   0.000000
     celldm(4)=   0.000000  celldm(5)=   0.000000  celldm(6)=   0.000000

     crystal axes: (cart. coord. in units of alat)
               a(1) = (   1.032740   0.000000   0.000000 )
               a(2) = (  -0.516370   0.894379   0.000000 )
               a(3) = (   0.000000   0.000000   0.825999 )

     reciprocal axes: (cart. coord. in units 2 pi/alat)
               b(1) = (  0.968298  0.559047  0.000000 )
               b(2) = (  0.000000  1.118094  0.000000 )
               b(3) = (  0.000000  0.000000  1.210655 )

     PseudoPot. # 1 for Ce read from file:
     /home/jld5415/pp.La/Ce.UPF
     MD5 check sum: 44451aa79a44a00cf2bc029dc19922f6
     Pseudo is Norm-conserving, Zval = 12.0
     Generated in analytical, separable form
     Using radial grid of 1255 points,  6 beta functions with:
                l(1) =   0
                l(2) =   0
                l(3) =   1
                l(4) =   1
                l(5) =   2
                l(6) =   3

     PseudoPot. # 2 for Sm read from file:
     /home/jld5415/pp.La/Sm.UPF
     MD5 check sum: 5079e8b144a06bfcdbc14fb02b96ab09
     Pseudo is Norm-conserving, Zval = 16.0
     Generated in analytical, separable form
     Using radial grid of 1259 points,  6 beta functions with:
                l(1) =   0
                l(2) =   0
                l(3) =   1
                l(4) =   1
                l(5) =   2
                l(6) =   3

     atomic species   valence    mass     pseudopotential
        Mg            12.00    24.30500     Ce( 1.00)
        Cd            16.00   112.41100     Sm( 1.00)

     24 Sym. Ops., with inversion, found (12 have fractional translation)

   Cartesian axes

     site n.     atom                  positions (alat units)
         1           Mg  tau(   1) = (   0.2522825   0.7419083   0.2064998  )
         2           Mg  tau(   2) = (   0.7686527   0.1524711   0.6194993  )
         3           Mg  tau(   3) = (   0.2640877   0.1524711   0.6194993  )
         4           Mg  tau(   4) = (  -0.2522825   0.7419083   0.2064998  )
         5           Mg  tau(   5) = (   0.0000000   0.3049422   0.2064998  )
         6           Mg  tau(   6) = (   0.5163702   0.5894372   0.6194993  )
         7           Cd  tau(   7) = (   0.5163707   0.2981262   0.2064998  )
         8           Cd  tau(   8) = (  -0.0000005   0.5962532   0.6194993  )

     number of k points=    64  gaussian smearing, width (Ry)=  0.1000
                       cart. coord. in units 2pi/alat
        k(    1) = (   0.0000000   0.0000000   0.0000000), wk =   0.0095238
        k(    2) = (   0.0000000   0.0000000   0.1729507), wk =   0.0190476
        k(    3) = (   0.0000000   0.0000000   0.3459014), wk =   0.0190476
        k(    4) = (   0.0000000   0.0000000   0.5188522), wk =   0.0190476
        k(    5) = (   0.0000000   0.1863490   0.0000000), wk =   0.0190476
        k(    6) = (   0.0000000   0.1863490   0.1729507), wk =   0.0380952
        k(    7) = (   0.0000000   0.1863490   0.3459014), wk =   0.0380952
        k(    8) = (   0.0000000   0.1863490   0.5188522), wk =   0.0380952
        k(    9) = (   0.0000000   0.3726979   0.0000000), wk =   0.0190476
        k(   10) = (   0.0000000   0.3726979   0.1729507), wk =   0.0380952
        k(   11) = (   0.0000000   0.3726979   0.3459014), wk =   0.0380952
        k(   12) = (   0.0000000   0.3726979   0.5188522), wk =   0.0380952
        k(   13) = (   0.0000000  -0.5590469   0.0000000), wk =   0.0095238
        k(   14) = (   0.0000000  -0.5590469   0.1729507), wk =   0.0190476
        k(   15) = (   0.0000000  -0.5590469   0.3459014), wk =   0.0190476
        k(   16) = (   0.0000000  -0.5590469   0.5188522), wk =   0.0190476
        k(   17) = (   0.1936595   0.1118094   0.0000000), wk =   0.0190476
        k(   18) = (   0.1936595   0.1118094   0.1729507), wk =   0.0380952
        k(   19) = (   0.1936595   0.1118094   0.3459014), wk =   0.0380952
        k(   20) = (   0.1936595   0.1118094   0.5188522), wk =   0.0380952
        k(   21) = (   0.1936595   0.2981583   0.0000000), wk =   0.0190476
        k(   22) = (   0.1936595   0.2981583   0.1729507), wk =   0.0380952
        k(   23) = (   0.1936595   0.2981583   0.3459014), wk =   0.0380952
        k(   24) = (   0.1936595   0.2981583   0.5188522), wk =   0.0380952
        k(   25) = (   0.1936595   0.4845073   0.0000000), wk =   0.0190476
        k(   26) = (   0.1936595   0.4845073   0.1729507), wk =   0.0380952
        k(   27) = (   0.1936595   0.4845073   0.3459014), wk =   0.0380952
        k(   28) = (   0.1936595   0.4845073   0.5188522), wk =   0.0380952
        k(   29) = (   0.1936595  -0.4472375   0.0000000), wk =   0.0190476
        k(   30) = (   0.1936595  -0.4472375   0.1729507), wk =   0.0380952
        k(   31) = (   0.1936595  -0.4472375   0.3459014), wk =   0.0380952
        k(   32) = (   0.1936595  -0.4472375   0.5188522), wk =   0.0380952
        k(   33) = (   0.1936595  -0.2608885   0.0000000), wk =   0.0190476
        k(   34) = (   0.1936595  -0.2608885   0.1729507), wk =   0.0380952
        k(   35) = (   0.1936595  -0.2608885   0.3459014), wk =   0.0380952
        k(   36) = (   0.1936595  -0.2608885   0.5188522), wk =   0.0380952
        k(   37) = (   0.1936595  -0.0745396   0.0000000), wk =   0.0190476
        k(   38) = (   0.1936595  -0.0745396   0.1729507), wk =   0.0380952
        k(   39) = (   0.1936595  -0.0745396   0.3459014), wk =   0.0380952
        k(   40) = (   0.1936595  -0.0745396   0.5188522), wk =   0.0380952
        k(   41) = (   0.3873190   0.2236187   0.0000000), wk =   0.0190476
        k(   42) = (   0.3873190   0.2236187   0.1729507), wk =   0.0380952
        k(   43) = (   0.3873190   0.2236187   0.3459014), wk =   0.0380952
        k(   44) = (   0.3873190   0.2236187   0.5188522), wk =   0.0380952
        k(   45) = (   0.3873190   0.4099677   0.0000000), wk =   0.0190476
        k(   46) = (   0.3873190   0.4099677   0.1729507), wk =   0.0380952
        k(   47) = (   0.3873190   0.4099677   0.3459014), wk =   0.0380952
        k(   48) = (   0.3873190   0.4099677   0.5188522), wk =   0.0380952
        k(   49) = (   0.3873190   0.5963166   0.0000000), wk =   0.0190476
        k(   50) = (   0.3873190   0.5963166   0.1729507), wk =   0.0380952
        k(   51) = (   0.3873190   0.5963166   0.3459014), wk =   0.0380952
        k(   52) = (   0.3873190   0.5963166   0.5188522), wk =   0.0380952
        k(   53) = (   0.3873190  -0.3354281   0.0000000), wk =   0.0190476
        k(   54) = (   0.3873190  -0.3354281   0.1729507), wk =   0.0380952
        k(   55) = (   0.3873190  -0.3354281   0.3459014), wk =   0.0380952
        k(   56) = (   0.3873190  -0.3354281   0.5188522), wk =   0.0380952
        k(   57) = (   0.3873190  -0.1490792   0.0000000), wk =   0.0190476
        k(   58) = (   0.3873190  -0.1490792   0.1729507), wk =   0.0380952
        k(   59) = (   0.3873190  -0.1490792   0.3459014), wk =   0.0380952
        k(   60) = (   0.3873190  -0.1490792   0.5188522), wk =   0.0380952
        k(   61) = (   0.3873190   0.0372698   0.0000000), wk =   0.0190476
        k(   62) = (   0.3873190   0.0372698   0.1729507), wk =   0.0380952
        k(   63) = (   0.3873190   0.0372698   0.3459014), wk =   0.0380952
        k(   64) = (   0.3873190   0.0372698   0.5188522), wk =   0.0380952

     Largest allocated arrays     est. size (Mb)     dimensions
     Largest temporary arrays     est. size (Mb)     dimensions

     Initial potential from superposition of free atoms

     Starting from uniform charge
     Starting wfc are    0 randomized atomic wfcs

     Writing output data file Prototype-La-hP8-Mg3Cd.save

     Self-consistent Calculation

[...]

     iteration # 10     ecut=    40.00 Ry     beta=0.70
     CG style diagonalization
     ethr =  6.79E-05,  avg # of iterations =  3.7

[...]

     total energy              =    -766.82942429 Ry
     Harris-Foulkes estimate   =    -766.82942869 Ry
     estimated scf accuracy    <       0.00001918 Ry

     iteration # 15     ecut=    40.00 Ry     beta=0.70
     CG style diagonalization
     c_bands:  1 eigenvalues not converged
     c_bands:  1 eigenvalues not converged
     c_bands:  1 eigenvalues not converged
     c_bands:  1 eigenvalues not converged
     c_bands:  1 eigenvalues not converged
     c_bands:  1 eigenvalues not converged
     c_bands:  1 eigenvalues not converged
     c_bands:  1 eigenvalues not converged
     ethr =  1.84E-08,  avg # of iterations =  3.8

     End of self-consistent calculation

[...]

          k = 0.3873 0.0373 0.5189 (  5650 PWs)   bands (ev):

   -38.6202 -38.6202 -19.5853 -19.5253 -19.4211 -19.3738 -19.3444 -19.3178
   -13.7897 -13.7877 -13.7613 -13.7602 -13.7545 -13.7530  -2.3673  -2.3464
    -2.2021  -2.1762  -1.9620  -1.9149  -1.5642  -1.4617  -1.2390  -1.2235
    -1.0590  -0.9352  -0.8002  -0.7765  -0.6910  -0.6025  -0.5520  -0.5284
    14.6936  14.7453  14.8527  15.0460  15.0868  15.2234  15.4508  15.5791
    15.6873  15.7674  15.9836  16.3129  16.3766  16.7225  16.8153  17.1704
    17.5671  17.7626  18.1615  18.2968  18.4328  18.6156  18.9119  19.1142
    19.1621  19.2354  19.4598  19.7133  20.1893  20.2938

     the Fermi energy is    18.2719 ev

!    total energy              =    -766.82942767 Ry
     Harris-Foulkes estimate   =    -766.82942792 Ry
     estimated scf accuracy    <       0.00000028 Ry

     The total energy is the sum of the following terms:

     one-electron contribution =     -39.31820221 Ry
     hartree contribution      =      82.50453600 Ry
     xc contribution           =     -93.32688903 Ry
     ewald contribution        =    -716.05359293 Ry
     smearing contrib. (-TS)   =      -0.63527951 Ry

     convergence has been achieved in  15 iterations

     Forces acting on atoms (Ry/au):

     atom    1 type  1   force =    -0.00706826   -0.00408086    0.00000000
     atom    2 type  1   force =    -0.00706826    0.00408086    0.00000000
     atom    3 type  1   force =     0.00706826    0.00408086    0.00000000
     atom    4 type  1   force =     0.00706826   -0.00408086    0.00000000
     atom    5 type  1   force =     0.00000000    0.00816172    0.00000000
     atom    6 type  1   force =     0.00000000   -0.00816172    0.00000000
     atom    7 type  2   force =     0.00000000    0.00000000    0.00000000
     atom    8 type  2   force =     0.00000000    0.00000000    0.00000000

     Total force =     0.019992     Total SCF correction =     0.000000

     entering subroutine stress ...

          total   stress  (Ry/bohr**3)                   (kbar)     P=   36.62
   0.00020602   0.00000000   0.00000000         30.31      0.00      0.00
   0.00000000   0.00020602   0.00000000          0.00     30.31      0.00
   0.00000000   0.00000000   0.00033481          0.00      0.00     49.25

     Writing output data file Prototype-La-hP8-Mg3Cd.save

     General routines

     Parallel routines

   This run was terminated on:   1:28:41  22Mar2018

   JOB DONE.