     Program PWSCF v.5.0.2 starts on 22Mar2018 at  0:39:27

     Current dimensions of program PWSCF are:
     Max number of different atomic species (ntypx) = 10
     Max number of k-points (npk) =  40000
     Max angular momentum in pseudopotentials (lmaxx) =  3
     Waiting for input...
     Reading input from standard input

     Subspace diagonalization in iterative solution of the eigenvalue problem:
     a serial algorithm will be used

     bravais-lattice index     =            0
     lattice parameter (alat)  =       9.9235  a.u.
     unit-cell volume          =    1361.0366 (a.u.)^3
     number of atoms/cell      =           12
     number of atomic types    =            2
     number of electrons       =       176.00
     number of Kohn-Sham states=          106
     kinetic-energy cutoff     =      40.0000  Ry
     charge density cutoff     =     160.0000  Ry
     convergence threshold     =      1.0E-04
     mixing beta               =       0.7000
     number of iterations used =            8  plain     mixing
     Exchange-correlation      = SLA-PZ-NOGX-NOGC ( 1 1 0 0 0)
     EXX-fraction              =        0.00
     nstep                     =           50

     celldm(1)=   9.923489  celldm(2)=   0.000000  celldm(3)=   0.000000
     celldm(4)=   0.000000  celldm(5)=   0.000000  celldm(6)=   0.000000

     crystal axes: (cart. coord. in units of alat)
               a(1) = (   1.000000   0.000000   0.000000 )
               a(2) = (  -0.500000   0.866025   0.000000 )
               a(3) = (   0.000000   0.000000   1.608222 )

     reciprocal axes: (cart. coord. in units 2 pi/alat)
               b(1) = (  1.000000  0.577350  0.000000 )
               b(2) = (  0.000000  1.154701  0.000000 )
               b(3) = (  0.000000  0.000000  0.621805 )

     PseudoPot. # 1 for Ce read from file:
     /home/jld5415/pp.La/Ce.UPF
     MD5 check sum: 44451aa79a44a00cf2bc029dc19922f6
     Pseudo is Norm-conserving, Zval = 12.0
     Generated in analytical, separable form
     Using radial grid of 1255 points,  6 beta functions with:
                l(1) =   0
                l(2) =   0
                l(3) =   1
                l(4) =   1
                l(5) =   2
                l(6) =   3

     PseudoPot. # 2 for Sm read from file:
     /home/jld5415/pp.La/Sm.UPF
     MD5 check sum: 5079e8b144a06bfcdbc14fb02b96ab09
     Pseudo is Norm-conserving, Zval = 16.0
     Generated in analytical, separable form
     Using radial grid of 1259 points,  6 beta functions with:
                l(1) =   0
                l(2) =   0
                l(3) =   1
                l(4) =   1
                l(5) =   2
                l(6) =   3

     atomic species   valence    mass     pseudopotential
        Mg            12.00    24.30500     Ce( 1.00)
        Zn            16.00    65.39000     Sm( 1.00)

     24 Sym. Ops., with inversion, found (12 have fractional translation)

   Cartesian axes

     site n.     atom                  positions (alat units)
         1           Mg  tau(   1) = (  -0.0000005   0.5773506   0.1003820  )
         2           Mg  tau(   2) = (   0.5000005   0.2886748   0.9044931  )
         3           Mg  tau(   3) = (   0.5000005   0.2886748   1.5078402  )
         4           Mg  tau(   4) = (  -0.0000005   0.5773506   0.7037291  )
         5           Zn  tau(   5) = (   0.0000000   0.0000000   0.0000000  )
         6           Zn  tau(   6) = (   0.0000000   0.0000000   0.8041111  )
         7           Zn  tau(   7) = (   0.0000000   0.2950739   1.2061667  )
         8           Zn  tau(   8) = (   0.7444585   0.1475370   0.4020556  )
         9           Zn  tau(   9) = (   0.2555415   0.1475370   0.4020556  )
        10           Zn  tau(  10) = (   0.2444585   0.7184884   1.2061667  )
        11           Zn  tau(  11) = (  -0.2444585   0.7184884   1.2061667  )
        12           Zn  tau(  12) = (   0.5000000   0.5709515   0.4020556  )

     number of k points=    12  gaussian smearing, width (Ry)=  0.1000
                       cart. coord. in units 2pi/alat
        k(    1) = (   0.0000000   0.0000000   0.0000000), wk =   0.0833333
        k(    2) = (   0.0000000   0.0000000   0.1554512), wk =   0.1666667
        k(    3) = (   0.0000000   0.0000000  -0.3109023), wk =   0.0833333
        k(    4) = (   0.0000000   0.3849002   0.0000000), wk =   0.1666667
        k(    5) = (   0.0000000   0.3849002   0.1554512), wk =   0.3333333
        k(    6) = (   0.0000000   0.3849002  -0.3109023), wk =   0.1666667
        k(    7) = (  -0.5000000  -0.2886751   0.0000000), wk =   0.0833333
        k(    8) = (  -0.5000000  -0.2886751   0.1554512), wk =   0.1666667
        k(    9) = (  -0.5000000  -0.2886751  -0.3109023), wk =   0.0833333
        k(   10) = (  -0.5000000   0.0962250   0.0000000), wk =   0.1666667
        k(   11) = (  -0.5000000   0.0962250   0.1554512), wk =   0.3333333
        k(   12) = (  -0.5000000   0.0962250  -0.3109023), wk =   0.1666667

     Largest allocated arrays     est. size (Mb)     dimensions
     Largest temporary arrays     est. size (Mb)     dimensions

     Initial potential from superposition of free atoms

     Starting from uniform charge
     Starting wfc are    0 randomized atomic wfcs

     Self-consistent Calculation

     iteration #  1     ecut=    40.00 Ry     beta=0.70
     CG style diagonalization
     ethr =  1.00E-02,  avg # of iterations = 17.6

     total energy              =   -1029.16712284 Ry
     Harris-Foulkes estimate   =   -1855.03074717 Ry
     estimated scf accuracy    <    1002.28107841 Ry

[...]

     iteration #  3     ecut=    40.00 Ry     beta=0.70
     CG style diagonalization
     c_bands:  2 eigenvalues not converged
     c_bands:  1 eigenvalues not converged
     c_bands:  1 eigenvalues not converged
     ethr =  1.00E-02,  avg # of iterations = 12.1

[...]

     End of self-consistent calculation

          k = 0.0000 0.0000 0.0000 (  5769 PWs)   bands (ev):

   -29.9494 -29.7202 -29.3720 -29.1209 -29.0518 -29.0517 -29.0500 -29.0500
    -9.3391  -9.2821  -9.0135  -8.8514  -7.6919  -7.1397  -6.5395  -5.7266
    -5.7266  -5.5711  -5.5711  -5.4873  -5.4873  -4.8598  -4.5140  -4.5140
    -4.4571  -4.4570  -4.4429  -3.5027  -3.5011  -3.5010  -3.4681  -3.4665
    -3.2411  -3.2411  -3.1547  -3.1546   8.0660   8.1149   8.1149   8.1170
     8.1859   8.1860   9.1760   9.2690   9.3041   9.3041   9.3378   9.3378
    18.9499  19.8421  20.0611  20.9849  20.9849  21.6227  21.6227  22.0944
    22.0980  22.0980  22.4324  22.4324  22.4536  22.5636  22.9692  22.9693
    23.5849  24.2671  24.3985  24.3985  24.8375  24.8375  25.9444  26.0350
    26.0350  26.6538  27.0832  27.0832  27.2442  27.2442  27.5798  27.5988
    27.5988  27.6372  27.6372  27.9924  27.9924  28.1580  28.1587  28.3071
    28.7118  28.7119  28.7937  28.7937  28.8688  28.8688  30.1571  31.1298
    31.3762  31.3763  31.4162  31.4163  32.1947  32.1949  32.8501  32.8506
    33.9325  34.1655

[...]

          k =-0.5000-0.2887 0.0000 (  5800 PWs)   bands (ev):

[...]

     the Fermi energy is    28.5996 ev

!    total energy              =   -1520.51689662 Ry
     Harris-Foulkes estimate   =   -1520.51690895 Ry
     estimated scf accuracy    <       0.00001464 Ry

     The total energy is the sum of the following terms:

     one-electron contribution =      17.90164137 Ry
     hartree contribution      =     158.45617546 Ry
     xc contribution           =    -176.58849846 Ry
     ewald contribution        =   -1519.64122293 Ry
     smearing contrib. (-TS)   =      -0.64499206 Ry

     convergence has been achieved in  11 iterations

     Forces acting on atoms (Ry/au):

     atom    1 type  1   force =     0.00000000    0.00000000    0.03431409
     atom    2 type  1   force =     0.00000000    0.00000000    0.03431409
     atom    3 type  1   force =     0.00000000    0.00000000   -0.03431409
     atom    4 type  1   force =     0.00000000    0.00000000   -0.03431409
     atom    5 type  2   force =     0.00000000    0.00000000    0.00000000
     atom    6 type  2   force =     0.00000000    0.00000000    0.00000000
     atom    7 type  2   force =     0.00000000    0.02829467    0.00000000
     atom    8 type  2   force =    -0.02450391    0.01414734    0.00000000
     atom    9 type  2   force =     0.02450391    0.01414734    0.00000000
     atom   10 type  2   force =    -0.02450391   -0.01414734    0.00000000
     atom   11 type  2   force =     0.02450391   -0.01414734    0.00000000
     atom   12 type  2   force =     0.00000000   -0.02829467    0.00000000

     Total force =     0.097536     Total SCF correction =     0.000000

     entering subroutine stress ...

          total   stress  (Ry/bohr**3)                   (kbar)     P= 1064.43
   0.00727527   0.00000000   0.00000000       1070.23      0.00      0.00
   0.00000000   0.00727527   0.00000000          0.00   1070.23      0.00
   0.00000000   0.00000000   0.00715711          0.00      0.00   1052.85

     BFGS Geometry Optimization

     number of scf cycles    =   1
     number of bfgs steps    =   0

     enthalpy new            =   -1520.5168966179 Ry

     new trust radius        =       0.5000000000 bohr
     new conv_thr            =       0.0001000000 Ry

     new unit-cell volume =   1655.19413 a.u.^3 (   245.27446 Ang^3 )

CELL_PARAMETERS (alat=  9.92348860)
   1.067764947   0.000000000   0.000000000
  -0.533882474   0.924711570   0.000000000
   0.000000000   0.000000000   1.715433398

ATOMIC_POSITIONS (crystal)
Mg       0.333333000   0.666667000   0.063219084
Mg       0.666667000   0.333333000   0.563219084
Mg       0.666667000   0.333333000   0.936780916
Mg       0.333333000   0.666667000   0.436780916
Zn       0.000000000   0.000000000   0.000000000
Zn       0.000000000   0.000000000   0.500000000
Zn       0.170974332   0.341948664   0.750000000
Zn       0.829025668   0.170974332   0.250000000
Zn       0.341948664   0.170974332   0.250000000
Zn       0.658051336   0.829025668   0.750000000
Zn       0.170974332   0.829025668   0.750000000
Zn       0.829025668   0.658051336   0.250000000

     Writing output data file Prototype-La-hP12-MgZn2.save
     NEW-OLD atomic charge density approx. for the potential
     NEW k-points:
        k(    1) = (   0.0000000   0.0000000   0.0000000), wk =   0.0833333
        k(    2) = (   0.0000000   0.0000000   0.1457358), wk =   0.1666667
        k(    3) = (   0.0000000   0.0000000  -0.2914715), wk =   0.0833333
        k(    4) = (   0.0000000   0.3604728   0.0000000), wk =   0.1666667
        k(    5) = (   0.0000000   0.3604728   0.1457358), wk =   0.3333333
        k(    6) = (   0.0000000   0.3604728  -0.2914715), wk =   0.1666667
        k(    7) = (  -0.4682679  -0.2703546   0.0000000), wk =   0.0833333
        k(    8) = (  -0.4682679  -0.2703546   0.1457358), wk =   0.1666667
        k(    9) = (  -0.4682679  -0.2703546  -0.2914715), wk =   0.0833333
        k(   10) = (  -0.4682679   0.0901182   0.0000000), wk =   0.1666667
        k(   11) = (  -0.4682679   0.0901182   0.1457358), wk =   0.3333333
        k(   12) = (  -0.4682679   0.0901182  -0.2914715), wk =   0.1666667

[...]

     enthalpy old            =   -1520.5168966179 Ry
     enthalpy new            =   -1521.5695997016 Ry

     CASE: enthalpy_new < enthalpy_old

     small trust_radius: resetting bfgs history

[...]

     number of scf cycles    =   3
     number of bfgs steps    =   2

     enthalpy old            =   -1521.5695997016 Ry
     enthalpy new            =   -1521.5717465511 Ry

     CASE: enthalpy_new < enthalpy_old

     Message from routine bfgs:
     history already reset at previous step: stopping
     small trust_radius: resetting bfgs history

     new trust radius        =       0.1286015916 bohr
     new conv_thr            =       0.0000183410 Ry

     new unit-cell volume =   1672.88599 a.u.^3 (   247.89612 Ang^3 )

[...]

ATOMIC_POSITIONS (crystal)
Mg       0.333333000   0.666667000   0.064952519
Mg       0.666667000   0.333333000   0.564952519
Mg       0.666667000   0.333333000   0.935047481
Mg       0.333333000   0.666667000   0.435047481
Zn       0.000000000   0.000000000   0.000000000
Zn       0.000000000   0.000000000   0.500000000
Zn       0.171105648   0.342211297   0.750000000
Zn       0.828894352   0.171105648   0.250000000
Zn       0.342211297   0.171105648   0.250000000
Zn       0.657788703   0.828894352   0.750000000
Zn       0.171105648   0.828894352   0.750000000
Zn       0.828894352   0.657788703   0.250000000

     Writing output data file Prototype-La-hP12-MgZn2.save
     NEW-OLD atomic charge density approx. for the potential
     NEW k-points:
        k(    1) = (   0.0000000   0.0000000   0.0000000), wk =   0.0833333
        k(    2) = (   0.0000000   0.0000000   0.1450984), wk =   0.1666667
        k(    3) = (   0.0000000   0.0000000  -0.2901968), wk =   0.0833333
        k(    4) = (   0.0000000   0.3593482   0.0000000), wk =   0.1666667
        k(    5) = (   0.0000000   0.3593482   0.1450984), wk =   0.3333333
        k(    6) = (   0.0000000   0.3593482  -0.2901968), wk =   0.1666667
        k(    7) = (  -0.4668070  -0.2695112   0.0000000), wk =   0.0833333
        k(    8) = (  -0.4668070  -0.2695112   0.1450984), wk =   0.1666667
        k(    9) = (  -0.4668070  -0.2695112  -0.2901968), wk =   0.0833333
        k(   10) = (  -0.4668070   0.0898371   0.0000000), wk =   0.1666667
        k(   11) = (  -0.4668070   0.0898371   0.1450984), wk =   0.3333333
        k(   12) = (  -0.4668070   0.0898371  -0.2901968), wk =   0.1666667

[...]

     The maximum number of steps has been reached.

     End of BFGS Geometry Optimization
Begin final coordinates
     new unit-cell volume =   1672.88599 a.u.^3 (   247.89612 Ang^3 )

CELL_PARAMETERS (alat=  9.92348860)
   1.071106380   0.000000000   0.000000000
  -0.535553190   0.927605335   0.000000000
   0.000000000   0.000000000   1.722968646

ATOMIC_POSITIONS (crystal)
Mg       0.333333000   0.666667000   0.064952519
Mg       0.666667000   0.333333000   0.564952519
Mg       0.666667000   0.333333000   0.935047481
Mg       0.333333000   0.666667000   0.435047481
Zn       0.000000000   0.000000000   0.000000000
Zn       0.000000000   0.000000000   0.500000000
Zn       0.171105648   0.342211297   0.750000000
Zn       0.828894352   0.171105648   0.250000000
Zn       0.342211297   0.171105648   0.250000000
Zn       0.657788703   0.828894352   0.750000000
Zn       0.171105648   0.828894352   0.750000000
Zn       0.828894352   0.657788703   0.250000000
End final coordinates

     A final scf calculation at the relaxed structure.
     The G-vectors are recalculated for the final unit cell
     Results may differ from those at the preceding step.

     bravais-lattice index     =            0
     lattice parameter (alat)  =       9.9235  a.u.
     unit-cell volume          =    1672.8860 (a.u.)^3
     number of atoms/cell      =           12
     number of atomic types    =            2
     number of electrons       =       176.00
     number of Kohn-Sham states=          106
     kinetic-energy cutoff     =      40.0000  Ry
     charge density cutoff     =     160.0000  Ry
     convergence threshold     =      1.8E-05
     mixing beta               =       0.7000
     number of iterations used =            8  plain     mixing
     Exchange-correlation      = SLA-PZ-NOGX-NOGC ( 1 1 0 0 0)
     EXX-fraction              =        0.00

     celldm(1)=   9.923489  celldm(2)=   0.000000  celldm(3)=   0.000000
     celldm(4)=   0.000000  celldm(5)=   0.000000  celldm(6)=   0.000000

     crystal axes: (cart. coord. in units of alat)
               a(1) = (   1.071106   0.000000   0.000000 )
               a(2) = (  -0.535553   0.927605   0.000000 )
               a(3) = (   0.000000   0.000000   1.722969 )

     reciprocal axes: (cart. coord. in units 2 pi/alat)
               b(1) = (  0.933614  0.539022  0.000000 )
               b(2) = (  0.000000  1.078045  0.000000 )
               b(3) = (  0.000000  0.000000  0.580394 )

     PseudoPot. # 1 for Ce read from file:
     /home/jld5415/pp.La/Ce.UPF
     MD5 check sum: 44451aa79a44a00cf2bc029dc19922f6
     Pseudo is Norm-conserving, Zval = 12.0
     Generated in analytical, separable form
     Using radial grid of 1255 points,  6 beta functions with:
                l(1) =   0
                l(2) =   0
                l(3) =   1
                l(4) =   1
                l(5) =   2
                l(6) =   3

     PseudoPot. # 2 for Sm read from file:
     /home/jld5415/pp.La/Sm.UPF
     MD5 check sum: 5079e8b144a06bfcdbc14fb02b96ab09
     Pseudo is Norm-conserving, Zval = 16.0
     Generated in analytical, separable form
     Using radial grid of 1259 points,  6 beta functions with:
                l(1) =   0
                l(2) =   0
                l(3) =   1
                l(4) =   1
                l(5) =   2
                l(6) =   3

     atomic species   valence    mass     pseudopotential
        Mg            12.00    24.30500     Ce( 1.00)
        Zn            16.00    65.39000     Sm( 1.00)

     24 Sym. Ops., with inversion, found (12 have fractional translation)

   Cartesian axes

     site n.     atom                  positions (alat units)
         1           Mg  tau(   1) = (  -0.0000005   0.6184039   0.1119112  )
         2           Mg  tau(   2) = (   0.5355537   0.3092015   0.9733955  )
         3           Mg  tau(   3) = (   0.5355537   0.3092015   1.6110575  )
         4           Mg  tau(   4) = (  -0.0000005   0.6184039   0.7495732  )
         5           Zn  tau(   5) = (   0.0000000   0.0000000   0.0000000  )
         6           Zn  tau(   6) = (   0.0000000   0.0000000   0.8614843  )
         7           Zn  tau(   7) = (   0.0000000   0.3174370   1.2922265  )
         8           Zn  tau(   8) = (   0.7961979   0.1587185   0.4307422  )
         9           Zn  tau(   9) = (   0.2749085   0.1587185   0.4307422  )
        10           Zn  tau(  10) = (   0.2606447   0.7688868   1.2922265  )
        11           Zn  tau(  11) = (  -0.2606447   0.7688868   1.2922265  )
        12           Zn  tau(  12) = (   0.5355532   0.6101683   0.4307422  )

     number of k points=    12  gaussian smearing, width (Ry)=  0.1000
                       cart. coord. in units 2pi/alat
        k(    1) = (   0.0000000   0.0000000   0.0000000), wk =   0.0833333
        k(    2) = (   0.0000000   0.0000000   0.1450984), wk =   0.1666667
        k(    3) = (   0.0000000   0.0000000  -0.2901968), wk =   0.0833333
        k(    4) = (   0.0000000   0.3593482   0.0000000), wk =   0.1666667
        k(    5) = (   0.0000000   0.3593482   0.1450984), wk =   0.3333333
        k(    6) = (   0.0000000   0.3593482  -0.2901968), wk =   0.1666667
        k(    7) = (  -0.4668070  -0.2695112   0.0000000), wk =   0.0833333
        k(    8) = (  -0.4668070  -0.2695112   0.1450984), wk =   0.1666667
        k(    9) = (  -0.4668070  -0.2695112  -0.2901968), wk =   0.0833333
        k(   10) = (  -0.4668070   0.0898371   0.0000000), wk =   0.1666667
        k(   11) = (  -0.4668070   0.0898371   0.1450984), wk =   0.3333333
        k(   12) = (  -0.4668070   0.0898371  -0.2901968), wk =   0.1666667

     Largest allocated arrays     est. size (Mb)     dimensions
     Largest temporary arrays     est. size (Mb)     dimensions

     Initial potential from superposition of free atoms

     Starting from uniform charge
     Starting wfc are    0 randomized atomic wfcs

     Writing output data file Prototype-La-hP12-MgZn2.save

     Self-consistent Calculation

[...]

     iteration #  9     ecut=    40.00 Ry     beta=0.70
     CG style diagonalization
     c_bands:  2 eigenvalues not converged
     c_bands:  1 eigenvalues not converged
     c_bands:  1 eigenvalues not converged
     ethr =  5.68E-06,  avg # of iterations =  5.0

[...]

     total energy              =   -1522.02645840 Ry
     Harris-Foulkes estimate   =   -1522.02647457 Ry
     estimated scf accuracy    <       0.00005203 Ry

     iteration # 13     ecut=    40.00 Ry     beta=0.70
     CG style diagonalization
     ethr =  2.96E-08,  avg # of iterations =  3.3

     End of self-consistent calculation

[...]

          k = 0.0000 0.3593-0.2902 (  7142 PWs)   bands (ev):

[...]

          k =-0.4668 0.0898-0.2902 (  7146 PWs)   bands (ev):

   -35.0569 -35.0569 -34.9421 -34.9421 -34.7781 -34.7781 -34.7648 -34.7648
   -15.3311 -15.3310 -15.2344 -15.2343 -11.2622 -11.2622 -10.8225 -10.8225
   -10.4710 -10.4710 -10.4411 -10.4411 -10.3434 -10.3434 -10.1996 -10.1995
    -9.9763  -9.9763  -9.7936  -9.7936  -9.6691  -9.6691  -9.5951  -9.5951
    -9.4212  -9.4212  -9.3637  -9.3637   2.4015   2.4016   2.4480   2.4481
     2.6475   2.6476   2.9419   2.9420   3.1642   3.1642   3.1837   3.1838
    16.4476  16.4476  17.0910  17.0910  17.5099  17.5099  17.6083  17.6083
    17.8533  17.8533  18.0143  18.0143  18.2446  18.2446  18.4302  18.4302
    18.6437  18.6437  19.0344  19.0344  19.2744  19.2744  19.7834  19.7834
    19.9120  19.9120  20.2065  20.2065  20.4392  20.4392  21.0530  21.0531
    21.2080  21.2080  21.4419  21.4419  21.9055  21.9055  22.1518  22.1518
    22.5975  22.5975  23.4298  23.4298  23.5582  23.5582  23.6979  23.6980
    24.1639  24.1639  24.6324  24.6324  24.8848  24.8848  25.4249  25.4250
    25.9769  25.9770

     the Fermi energy is    22.5607 ev

!    total energy              =   -1522.02646695 Ry
     Harris-Foulkes estimate   =   -1522.02646718 Ry
     estimated scf accuracy    <       0.00000033 Ry

     The total energy is the sum of the following terms:

     one-electron contribution =    -118.47140646 Ry
     hartree contribution      =     188.76365220 Ry
     xc contribution           =    -172.44168149 Ry
     ewald contribution        =   -1419.09565348 Ry
     smearing contrib. (-TS)   =      -0.78137771 Ry

     convergence has been achieved in  13 iterations

     Forces acting on atoms (Ry/au):

     atom    1 type  1   force =     0.00000000    0.00000000    0.00987131
     atom    2 type  1   force =     0.00000000    0.00000000    0.00987131
     atom    3 type  1   force =     0.00000000    0.00000000   -0.00987131
     atom    4 type  1   force =     0.00000000    0.00000000   -0.00987131
     atom    5 type  2   force =     0.00000000    0.00000000    0.00000000
     atom    6 type  2   force =     0.00000000    0.00000000    0.00000000
     atom    7 type  2   force =     0.00000000    0.00247473    0.00000000
     atom    8 type  2   force =    -0.00214318    0.00123737    0.00000000
     atom    9 type  2   force =     0.00214318    0.00123737    0.00000000
     atom   10 type  2   force =    -0.00214318   -0.00123737    0.00000000
     atom   11 type  2   force =     0.00214318   -0.00123737    0.00000000
     atom   12 type  2   force =     0.00000000   -0.00247473    0.00000000

     Total force =     0.020652     Total SCF correction =     0.000000

     entering subroutine stress ...

          total   stress  (Ry/bohr**3)                   (kbar)     P=  199.36
   0.00137217   0.00000000   0.00000000        201.85      0.00      0.00
   0.00000000   0.00137217   0.00000000          0.00    201.85      0.00
   0.00000000   0.00000000   0.00132127          0.00      0.00    194.37

     Writing output data file Prototype-La-hP12-MgZn2.save

     General routines

     Parallel routines

   This run was terminated on:   1:11:22  22Mar2018

   JOB DONE.