     Program PWSCF v.5.0.2 starts on 22Mar2018 at  0:39:29

     Current dimensions of program PWSCF are:
     Max number of different atomic species (ntypx) = 10
     Max number of k-points (npk) =  40000
     Max angular momentum in pseudopotentials (lmaxx) =  3
     Waiting for input...
     Reading input from standard input

     Subspace diagonalization in iterative solution of the eigenvalue problem:
     a serial algorithm will be used

     bravais-lattice index     =            0
     lattice parameter (alat)  =       7.0151  a.u.
     unit-cell volume          =     862.2778 (a.u.)^3
     number of atoms/cell      =           12
     number of atomic types    =            2
     number of electrons       =       160.00
     number of Kohn-Sham states=           96
     kinetic-energy cutoff     =      40.0000  Ry
     charge density cutoff     =     160.0000  Ry
     convergence threshold     =      1.0E-04
     mixing beta               =       0.7000
     number of iterations used =            8  plain     mixing
     Exchange-correlation      = SLA-PZ-NOGX-NOGC ( 1 1 0 0 0)
     EXX-fraction              =        0.00
     nstep                     =           50

     celldm(1)=   7.015105  celldm(2)=   0.000000  celldm(3)=   0.000000
     celldm(4)=   0.000000  celldm(5)=   0.000000  celldm(6)=   0.000000

     crystal axes: (cart. coord. in units of alat)
               a(1) = (   1.000000   0.000000   0.000000 )
               a(2) = (   0.000000   1.315963   0.000000 )
               a(3) = (   0.000000   0.000000   1.898020 )

     reciprocal axes: (cart. coord. in units 2 pi/alat)
               b(1) = (  1.000000  0.000000  0.000000 )
               b(2) = (  0.000000  0.759900  0.000000 )
               b(3) = (  0.000000  0.000000  0.526865 )

     PseudoPot. # 1 for Ce read from file:
     /home/jld5415/pp.La/Ce.UPF
     MD5 check sum: 44451aa79a44a00cf2bc029dc19922f6
     Pseudo is Norm-conserving, Zval = 12.0
     Generated in analytical, separable form
     Using radial grid of 1255 points,  6 beta functions with:
                l(1) =   0
                l(2) =   0
                l(3) =   1
                l(4) =   1
                l(5) =   2
                l(6) =   3

     PseudoPot. # 2 for Sm read from file:
     /home/jld5415/pp.La/Sm.UPF
     MD5 check sum: 5079e8b144a06bfcdbc14fb02b96ab09
     Pseudo is Norm-conserving, Zval = 16.0
     Generated in analytical, separable form
     Using radial grid of 1259 points,  6 beta functions with:
                l(1) =   0
                l(2) =   0
                l(3) =   1
                l(4) =   1
                l(5) =   2
                l(6) =   3

     atomic species   valence    mass     pseudopotential
        Co            12.00    58.93320     Ce( 1.00)
        Si            16.00    28.08550     Sm( 1.00)

      8 Sym. Ops., with inversion, found ( 6 have fractional translation)

   Cartesian axes

     site n.     atom                  positions (alat units)
         1           Co  tau(   1) = (   0.7500000   1.0875135   0.8270358  )
         2           Co  tau(   2) = (   0.2500000   0.2284499   1.0709846  )
         3           Co  tau(   3) = (   0.7500000   0.4295318   0.1219744  )
         4           Co  tau(   4) = (   0.2500000   0.8864316   1.7760460  )
         5           Co  tau(   5) = (   0.2500000   0.7067855   0.5358966  )
         6           Co  tau(   6) = (   0.7500000   0.6091779   1.3621238  )
         7           Co  tau(   7) = (   0.2500000   0.0488038   0.4131136  )
         8           Co  tau(   8) = (   0.7500000   1.2671596   1.4849068  )
         9           Si  tau(   9) = (   0.2500000   0.2669484   1.6960710  )
        10           Si  tau(  10) = (   0.7500000   1.0490149   0.2019494  )
        11           Si  tau(  11) = (   0.2500000   0.9249301   1.1509596  )
        12           Si  tau(  12) = (   0.7500000   0.3910333   0.7470608  )

     number of k points=    12  gaussian smearing, width (Ry)=  0.1000
                       cart. coord. in units 2pi/alat
        k(    1) = (   0.0000000   0.0000000   0.0000000), wk =   0.0833333
        k(    2) = (   0.0000000   0.0000000   0.1317162), wk =   0.1666667
        k(    3) = (   0.0000000   0.0000000  -0.2634324), wk =   0.0833333
        k(    4) = (   0.0000000   0.2532999   0.0000000), wk =   0.1666667
        k(    5) = (   0.0000000   0.2532999   0.1317162), wk =   0.3333333
        k(    6) = (   0.0000000   0.2532999  -0.2634324), wk =   0.1666667
        k(    7) = (  -0.5000000   0.0000000   0.0000000), wk =   0.0833333
        k(    8) = (  -0.5000000   0.0000000   0.1317162), wk =   0.1666667
        k(    9) = (  -0.5000000   0.0000000  -0.2634324), wk =   0.0833333
        k(   10) = (  -0.5000000   0.2532999   0.0000000), wk =   0.1666667
        k(   11) = (  -0.5000000   0.2532999   0.1317162), wk =   0.3333333
        k(   12) = (  -0.5000000   0.2532999  -0.2634324), wk =   0.1666667

     Largest allocated arrays     est. size (Mb)     dimensions
     Largest temporary arrays     est. size (Mb)     dimensions

     Initial potential from superposition of free atoms

     Starting from uniform charge
     Starting wfc are    0 randomized atomic wfcs

     Self-consistent Calculation

     iteration #  1     ecut=    40.00 Ry     beta=0.70
     CG style diagonalization
     c_bands:  5 eigenvalues not converged
     c_bands:  5 eigenvalues not converged
     c_bands:  3 eigenvalues not converged
     c_bands:  2 eigenvalues not converged
     c_bands:  4 eigenvalues not converged
     c_bands:  3 eigenvalues not converged
     c_bands:  4 eigenvalues not converged
     c_bands:  5 eigenvalues not converged
     ethr =  1.00E-02,  avg # of iterations = 13.8

     total energy              =   -1047.70598936 Ry
     Harris-Foulkes estimate   =   -1304.92421264 Ry
     estimated scf accuracy    <     325.87450100 Ry

[...]

     iteration #  3     ecut=    40.00 Ry     beta=0.70
     CG style diagonalization
     ethr =  1.00E-02,  avg # of iterations =  7.8

[...]

     End of self-consistent calculation

          k = 0.0000 0.0000 0.0000 (  3675 PWs)   bands (ev):

   -15.4622 -15.2769 -15.2155 -15.1324   2.5938   2.9106   2.9681   4.8299
     5.1508   5.6008   5.6073   5.6096   7.1682   7.7503   7.8829   7.9514
     8.1649   8.8797   8.9191   9.4563   9.5883  10.0716  10.5747  10.8800
    17.8229  18.1723  19.0643  19.3651  20.5148  20.6155  21.3075  21.4791
    21.9054  22.1342  22.4525  22.5514  23.1162  23.3021  23.6468  24.2830
    24.4146  24.9315  25.2043  25.7678  27.7331  27.8042  27.9333  28.6557
    32.4505  33.1913  34.1269  34.4295  34.5939  34.8170  35.1623  35.2781
    35.8411  37.0241  37.1538  37.5398  38.0192  38.2258  40.0752  40.1513
    40.2404  40.7398  41.3899  41.5746  42.3526  42.4460  42.5880  42.7937
    42.8033  43.8264  43.8318  44.8693  44.9490  45.5672  45.8266  45.9365
    46.2500  46.2788  46.7685  46.9916  47.2881  47.7083  48.4365  48.5662
    48.6816  48.9357  49.1623  49.4535  49.5909  50.2334  50.6049  50.8792

[...]

          k =-0.5000 0.0000 0.0000 (  3722 PWs)   bands (ev):

[...]

     the Fermi energy is    45.5051 ev

!    total energy              =   -1212.12852710 Ry
     Harris-Foulkes estimate   =   -1212.12853161 Ry
     estimated scf accuracy    <       0.00000891 Ry

     The total energy is the sum of the following terms:

     one-electron contribution =     393.66942304 Ry
     hartree contribution      =      50.98547939 Ry
     xc contribution           =    -164.53710935 Ry
     ewald contribution        =   -1491.84300909 Ry
     smearing contrib. (-TS)   =      -0.40331109 Ry

     convergence has been achieved in   9 iterations

     Forces acting on atoms (Ry/au):

     atom    1 type  1   force =     0.00000000   -0.02061529   -0.10554791
     atom    2 type  1   force =     0.00000000    0.02061529    0.10554791
     atom    3 type  1   force =     0.00000000   -0.02061529    0.10554791
     atom    4 type  1   force =     0.00000000    0.02061529   -0.10554791
     atom    5 type  1   force =     0.00000000    0.13640200   -0.25420479
     atom    6 type  1   force =     0.00000000   -0.13640200    0.25420479
     atom    7 type  1   force =     0.00000000    0.13640200    0.25420479
     atom    8 type  1   force =     0.00000000   -0.13640200   -0.25420479
     atom    9 type  2   force =     0.00000000   -0.15913789   -0.01933134
     atom   10 type  2   force =     0.00000000    0.15913789    0.01933134
     atom   11 type  2   force =     0.00000000   -0.15913789    0.01933134
     atom   12 type  2   force =     0.00000000    0.15913789   -0.01933134

     Total force =     0.694232     Total SCF correction =     0.000000

     entering subroutine stress ...

          total   stress  (Ry/bohr**3)                   (kbar)     P= 6335.83
   0.04384884   0.00000000   0.00000000       6450.39      0.00      0.00
   0.00000000   0.04118543   0.00000000          0.00   6058.58      0.00
   0.00000000   0.00000000   0.04417600          0.00      0.00   6498.51

     BFGS Geometry Optimization

     number of scf cycles    =   1
     number of bfgs steps    =   0

     enthalpy new            =   -1212.1285271016 Ry

     new trust radius        =       0.5000000000 bohr
     new conv_thr            =       0.0001000000 Ry

     new unit-cell volume =   1095.30546 a.u.^3 (   162.30752 Ang^3 )

CELL_PARAMETERS (alat=  7.01510508)
   1.084506105   0.000000000   0.000000000
   0.000000000   1.420415537   0.000000000
   0.000000000   0.000000000   2.059611444

ATOMIC_POSITIONS (crystal)
Co       0.750000000   0.826228852   0.435124911
Co       0.250000000   0.173771148   0.564875089
Co       0.750000000   0.326228852   0.064875089
Co       0.250000000   0.673771148   0.935124911
Co       0.250000000   0.538225024   0.280873234
Co       0.750000000   0.461774976   0.719126766
Co       0.250000000   0.038225024   0.219126766
Co       0.750000000   0.961774976   0.780873234
Si       0.250000000   0.201525121   0.893488078
Si       0.750000000   0.798474879   0.106511922
Si       0.250000000   0.701525121   0.606511922
Si       0.750000000   0.298474879   0.393488078

     Writing output data file Prototype-La-oP12-Co2Si.save
     NEW-OLD atomic charge density approx. for the potential
     NEW k-points:
        k(    1) = (   0.0000000   0.0000000   0.0000000), wk =   0.0833333
        k(    2) = (   0.0000000   0.0000000   0.1213821), wk =   0.1666667
        k(    3) = (   0.0000000   0.0000000  -0.2427642), wk =   0.0833333
        k(    4) = (   0.0000000   0.2346731   0.0000000), wk =   0.1666667
        k(    5) = (   0.0000000   0.2346731   0.1213821), wk =   0.3333333
        k(    6) = (   0.0000000   0.2346731  -0.2427642), wk =   0.1666667
        k(    7) = (  -0.4610394   0.0000000   0.0000000), wk =   0.0833333
        k(    8) = (  -0.4610394   0.0000000   0.1213821), wk =   0.1666667
        k(    9) = (  -0.4610394   0.0000000  -0.2427642), wk =   0.0833333
        k(   10) = (  -0.4610394   0.2346731   0.0000000), wk =   0.1666667
        k(   11) = (  -0.4610394   0.2346731   0.1213821), wk =   0.3333333
        k(   12) = (  -0.4610394   0.2346731  -0.2427642), wk =   0.1666667

[...]

     enthalpy old            =   -1212.1285271016 Ry
     enthalpy new            =   -1218.7338677470 Ry

     CASE: enthalpy_new < enthalpy_old

     small trust_radius: resetting bfgs history

     new trust radius        =       2.9370715131 bohr
     new conv_thr            =       0.0001000000 Ry

[...]

          total   stress  (Ry/bohr**3)                   (kbar)     P=-1026.66
  -0.00711891   0.00000000   0.00000000      -1047.23      0.00      0.00
   0.00000000  -0.00676554   0.00000000          0.00   -995.25      0.00
   0.00000000   0.00000000  -0.00705274          0.00      0.00  -1037.49

     number of scf cycles    =   3
     number of bfgs steps    =   2

     enthalpy old            =   -1218.7338677470 Ry
     enthalpy new            =   -1212.3594214230 Ry

     CASE: enthalpy_new > enthalpy_old

     new trust radius        =       1.3745000685 bohr

     trust_radius < trust_radius_min

     resetting bfgs history

     Message from routine bfgs:
     history already reset at previous step: stopping
     new conv_thr            =       0.0001000000 Ry

     new unit-cell volume =   1305.92482 a.u.^3 (   193.51809 Ang^3 )

[...]

ATOMIC_POSITIONS (crystal)
Co       0.750000000   0.826136431   0.434800538
Co       0.250000000   0.173863569   0.565199462
Co       0.750000000   0.326136431   0.065199462
Co       0.250000000   0.673863569   0.934800538
Co       0.250000000   0.538920406   0.279973610
Co       0.750000000   0.461079594   0.720026390
Co       0.250000000   0.038920406   0.220026390
Co       0.750000000   0.961079594   0.779973610
Si       0.250000000   0.200370499   0.893600998
Si       0.750000000   0.799629501   0.106399002
Si       0.250000000   0.700370499   0.606399002
Si       0.750000000   0.299629501   0.393600998

     Writing output data file Prototype-La-oP12-Co2Si.save
     NEW-OLD atomic charge density approx. for the potential
     NEW k-points:
        k(    1) = (   0.0000000   0.0000000   0.0000000), wk =   0.0833333
        k(    2) = (   0.0000000   0.0000000   0.1142451), wk =   0.1666667
        k(    3) = (   0.0000000   0.0000000  -0.2284901), wk =   0.0833333
        k(    4) = (   0.0000000   0.2224877   0.0000000), wk =   0.1666667
        k(    5) = (   0.0000000   0.2224877   0.1142451), wk =   0.3333333
        k(    6) = (   0.0000000   0.2224877  -0.2284901), wk =   0.1666667
        k(    7) = (  -0.4333409   0.0000000   0.0000000), wk =   0.0833333
        k(    8) = (  -0.4333409   0.0000000   0.1142451), wk =   0.1666667
        k(    9) = (  -0.4333409   0.0000000  -0.2284901), wk =   0.0833333
        k(   10) = (  -0.4333409   0.2224877   0.0000000), wk =   0.1666667
        k(   11) = (  -0.4333409   0.2224877   0.1142451), wk =   0.3333333
        k(   12) = (  -0.4333409   0.2224877  -0.2284901), wk =   0.1666667

[...]

     The maximum number of steps has been reached.

     End of BFGS Geometry Optimization
Begin final coordinates
     new unit-cell volume =   1305.92482 a.u.^3 (   193.51809 Ang^3 )

CELL_PARAMETERS (alat=  7.01510508)
   1.153825975   0.000000000   0.000000000
   0.000000000   1.498210124   0.000000000
   0.000000000   0.000000000   2.188278501

ATOMIC_POSITIONS (crystal)
Co       0.750000000   0.826136431   0.434800538
Co       0.250000000   0.173863569   0.565199462
Co       0.750000000   0.326136431   0.065199462
Co       0.250000000   0.673863569   0.934800538
Co       0.250000000   0.538920406   0.279973610
Co       0.750000000   0.461079594   0.720026390
Co       0.250000000   0.038920406   0.220026390
Co       0.750000000   0.961079594   0.779973610
Si       0.250000000   0.200370499   0.893600998
Si       0.750000000   0.799629501   0.106399002
Si       0.250000000   0.700370499   0.606399002
Si       0.750000000   0.299629501   0.393600998
End final coordinates

     A final scf calculation at the relaxed structure.
     The G-vectors are recalculated for the final unit cell
     Results may differ from those at the preceding step.

     bravais-lattice index     =            0
     lattice parameter (alat)  =       7.0151  a.u.
     unit-cell volume          =    1305.9248 (a.u.)^3
     number of atoms/cell      =           12
     number of atomic types    =            2
     number of electrons       =       160.00
     number of Kohn-Sham states=           96
     kinetic-energy cutoff     =      40.0000  Ry
     charge density cutoff     =     160.0000  Ry
     convergence threshold     =      1.0E-04
     mixing beta               =       0.7000
     number of iterations used =            8  plain     mixing
     Exchange-correlation      = SLA-PZ-NOGX-NOGC ( 1 1 0 0 0)
     EXX-fraction              =        0.00

     celldm(1)=   7.015105  celldm(2)=   0.000000  celldm(3)=   0.000000
     celldm(4)=   0.000000  celldm(5)=   0.000000  celldm(6)=   0.000000

     crystal axes: (cart. coord. in units of alat)
               a(1) = (   1.153826   0.000000   0.000000 )
               a(2) = (   0.000000   1.498210   0.000000 )
               a(3) = (   0.000000   0.000000   2.188279 )

     reciprocal axes: (cart. coord. in units 2 pi/alat)
               b(1) = (  0.866682  0.000000  0.000000 )
               b(2) = (  0.000000  0.667463  0.000000 )
               b(3) = (  0.000000  0.000000  0.456980 )

     PseudoPot. # 1 for Ce read from file:
     /home/jld5415/pp.La/Ce.UPF
     MD5 check sum: 44451aa79a44a00cf2bc029dc19922f6
     Pseudo is Norm-conserving, Zval = 12.0
     Generated in analytical, separable form
     Using radial grid of 1255 points,  6 beta functions with:
                l(1) =   0
                l(2) =   0
                l(3) =   1
                l(4) =   1
                l(5) =   2
                l(6) =   3

     PseudoPot. # 2 for Sm read from file:
     /home/jld5415/pp.La/Sm.UPF
     MD5 check sum: 5079e8b144a06bfcdbc14fb02b96ab09
     Pseudo is Norm-conserving, Zval = 16.0
     Generated in analytical, separable form
     Using radial grid of 1259 points,  6 beta functions with:
                l(1) =   0
                l(2) =   0
                l(3) =   1
                l(4) =   1
                l(5) =   2
                l(6) =   3

     atomic species   valence    mass     pseudopotential
        Co            12.00    58.93320     Ce( 1.00)
        Si            16.00    28.08550     Sm( 1.00)

      8 Sym. Ops., with inversion, found ( 6 have fractional translation)

   Cartesian axes

     site n.     atom                  positions (alat units)
         1           Co  tau(   1) = (   0.8653695   1.2377260   0.9514647  )
         2           Co  tau(   2) = (   0.2884565   0.2604842   1.2368138  )
         3           Co  tau(   3) = (   0.8653695   0.4886209   0.1426746  )
         4           Co  tau(   4) = (   0.2884565   1.0095892   2.0456039  )
         5           Co  tau(   5) = (   0.2884565   0.8074160   0.6126602  )
         6           Co  tau(   6) = (   0.8653695   0.6907941   1.5756183  )
         7           Co  tau(   7) = (   0.2884565   0.0583109   0.4814790  )
         8           Co  tau(   8) = (   0.8653695   1.4398992   1.7067995  )
         9           Si  tau(   9) = (   0.2884565   0.3001971   1.9554479  )
        10           Si  tau(  10) = (   0.8653695   1.1980130   0.2328306  )
        11           Si  tau(  11) = (   0.2884565   1.0493022   1.3269699  )
        12           Si  tau(  12) = (   0.8653695   0.4489080   0.8613086  )

     number of k points=    12  gaussian smearing, width (Ry)=  0.1000
                       cart. coord. in units 2pi/alat
        k(    1) = (   0.0000000   0.0000000   0.0000000), wk =   0.0833333
        k(    2) = (   0.0000000   0.0000000   0.1142451), wk =   0.1666667
        k(    3) = (   0.0000000   0.0000000  -0.2284901), wk =   0.0833333
        k(    4) = (   0.0000000   0.2224877   0.0000000), wk =   0.1666667
        k(    5) = (   0.0000000   0.2224877   0.1142451), wk =   0.3333333
        k(    6) = (   0.0000000   0.2224877  -0.2284901), wk =   0.1666667
        k(    7) = (  -0.4333409   0.0000000   0.0000000), wk =   0.0833333
        k(    8) = (  -0.4333409   0.0000000   0.1142451), wk =   0.1666667
        k(    9) = (  -0.4333409   0.0000000  -0.2284901), wk =   0.0833333
        k(   10) = (  -0.4333409   0.2224877   0.0000000), wk =   0.1666667
        k(   11) = (  -0.4333409   0.2224877   0.1142451), wk =   0.3333333
        k(   12) = (  -0.4333409   0.2224877  -0.2284901), wk =   0.1666667

     Largest allocated arrays     est. size (Mb)     dimensions
     Largest temporary arrays     est. size (Mb)     dimensions

     Initial potential from superposition of free atoms

     Starting from uniform charge
     Starting wfc are    0 randomized atomic wfcs

     Writing output data file Prototype-La-oP12-Co2Si.save

     Self-consistent Calculation

[...]

     iteration #  7     ecut=    40.00 Ry     beta=0.70
     CG style diagonalization
     c_bands:  1 eigenvalues not converged
     c_bands:  1 eigenvalues not converged
     c_bands:  2 eigenvalues not converged
     ethr =  5.46E-05,  avg # of iterations =  4.7

[...]

     total energy              =   -1222.13415108 Ry
     Harris-Foulkes estimate   =   -1222.13434975 Ry
     estimated scf accuracy    <       0.00044708 Ry

     iteration # 10     ecut=    40.00 Ry     beta=0.70
     CG style diagonalization
     ethr =  2.79E-07,  avg # of iterations =  4.1

     End of self-consistent calculation

[...]

          k = 0.0000 0.2225-0.2285 (  5564 PWs)   bands (ev):

[...]

          k =-0.4333 0.2225-0.2285 (  5576 PWs)   bands (ev):

   -28.6022 -28.6022 -28.5953 -28.5953  -9.1615  -9.1615  -8.8752  -8.8752
    -8.4869  -8.4869  -8.3161  -8.3161  -4.3025  -4.3025  -4.2672  -4.2672
    -4.1008  -4.1008  -4.0062  -4.0062  -3.8025  -3.8025  -3.7856  -3.7856
     7.1155   7.1155   7.6072   7.6072   7.9183   7.9183   8.1152   8.1152
     8.3295   8.3295   9.2032   9.2032   9.6842   9.6842   9.9618   9.9618
    10.2878  10.2878  10.3389  10.3389  10.7127  10.7127  10.8008  10.8008
    22.9127  22.9127  23.4166  23.4166  23.8516  23.8516  24.3104  24.3104
    24.5909  24.5909  24.8909  24.8909  25.1573  25.1573  25.4038  25.4038
    26.0935  26.0935  26.2536  26.2536  27.2605  27.2605  27.2709  27.2709
    27.6336  27.6336  27.9777  27.9777  28.3542  28.3542  28.9292  28.9292
    28.9336  28.9336  29.8890  29.8890  30.0633  30.0633  30.8047  30.8047
    30.9477  30.9477  31.8081  31.8083  32.0797  32.0799  32.4786  32.4793

     the Fermi energy is    29.3854 ev

!    total energy              =   -1222.13429011 Ry
     Harris-Foulkes estimate   =   -1222.13429922 Ry
     estimated scf accuracy    <       0.00001369 Ry

     The total energy is the sum of the following terms:

     one-electron contribution =     142.54841598 Ry
     hartree contribution      =      88.96482346 Ry
     xc contribution           =    -153.46999447 Ry
     ewald contribution        =   -1299.59058292 Ry
     smearing contrib. (-TS)   =      -0.58695216 Ry

     convergence has been achieved in  10 iterations

     Forces acting on atoms (Ry/au):

     atom    1 type  1   force =     0.00000000   -0.01211089   -0.01997484
     atom    2 type  1   force =     0.00000000    0.01211089    0.01997484
     atom    3 type  1   force =     0.00000000   -0.01211089    0.01997484
     atom    4 type  1   force =     0.00000000    0.01211089   -0.01997484
     atom    5 type  1   force =     0.00000000    0.03356418   -0.06937123
     atom    6 type  1   force =     0.00000000   -0.03356418    0.06937123
     atom    7 type  1   force =     0.00000000    0.03356418    0.06937123
     atom    8 type  1   force =     0.00000000   -0.03356418   -0.06937123
     atom    9 type  2   force =     0.00000000   -0.08568213    0.03929913
     atom   10 type  2   force =     0.00000000    0.08568213   -0.03929913
     atom   11 type  2   force =     0.00000000   -0.08568213   -0.03929913
     atom   12 type  2   force =     0.00000000    0.08568213    0.03929913

     Total force =     0.247955     Total SCF correction =     0.000000

     entering subroutine stress ...

          total   stress  (Ry/bohr**3)                   (kbar)     P= 1299.43
   0.00924482   0.00000000   0.00000000       1359.96      0.00      0.00
   0.00000000   0.00834124   0.00000000          0.00   1227.04      0.00
   0.00000000   0.00000000   0.00891396          0.00      0.00   1311.29

     Writing output data file Prototype-La-oP12-Co2Si.save

     General routines

     Parallel routines

   This run was terminated on:   0:56:56  22Mar2018

   JOB DONE.