     Program PWSCF v.5.0.2 starts on 22Mar2018 at  0:39:31

     Current dimensions of program PWSCF are:
     Max number of different atomic species (ntypx) = 10
     Max number of k-points (npk) =  40000
     Max angular momentum in pseudopotentials (lmaxx) =  3
     Waiting for input...
     Reading input from standard input

     Subspace diagonalization in iterative solution of the eigenvalue problem:
     a serial algorithm will be used

     bravais-lattice index     =            0
     lattice parameter (alat)  =      13.3930  a.u.
     unit-cell volume          =    1134.0956 (a.u.)^3
     number of atoms/cell      =            4
     number of atomic types    =            2
     number of electrons       =        56.00
     number of Kohn-Sham states=           34
     kinetic-energy cutoff     =      40.0000  Ry
     charge density cutoff     =     160.0000  Ry
     convergence threshold     =      1.0E-04
     mixing beta               =       0.7000
     number of iterations used =            8  plain     mixing
     Exchange-correlation      = SLA-PZ-NOGX-NOGC ( 1 1 0 0 0)
     EXX-fraction              =        0.00
     nstep                     =           50

     celldm(1)=  13.392972  celldm(2)=   0.000000  celldm(3)=   0.000000
     celldm(4)=   0.000000  celldm(5)=   0.000000  celldm(6)=   0.000000

     crystal axes: (cart. coord. in units of alat)
               a(1) = (   1.000000   0.000000   0.000000 )
               a(2) = (  -0.776311   0.630350   0.000000 )
               a(3) = (   0.000000   0.000000   0.748922 )

     reciprocal axes: (cart. coord. in units 2 pi/alat)
               b(1) = (  1.000000  1.231554  0.000000 )
               b(2) = (  0.000000  1.586419  0.000000 )
               b(3) = (  0.000000  0.000000  1.335252 )

     PseudoPot. # 1 for Ce read from file:
     /home/jld5415/pp.La/Ce.UPF
     MD5 check sum: 44451aa79a44a00cf2bc029dc19922f6
     Pseudo is Norm-conserving, Zval = 12.0
     Generated in analytical, separable form
     Using radial grid of 1255 points,  6 beta functions with:
                l(1) =   0
                l(2) =   0
                l(3) =   1
                l(4) =   1
                l(5) =   2
                l(6) =   3

     PseudoPot. # 2 for Sm read from file:
     /home/jld5415/pp.La/Sm.UPF
     MD5 check sum: 5079e8b144a06bfcdbc14fb02b96ab09
     Pseudo is Norm-conserving, Zval = 16.0
     Generated in analytical, separable form
     Using radial grid of 1259 points,  6 beta functions with:
                l(1) =   0
                l(2) =   0
                l(3) =   1
                l(4) =   1
                l(5) =   2
                l(6) =   3

     atomic species   valence    mass     pseudopotential
        Tl            12.00   204.38300     Ce( 1.00)
        I             16.00   126.90400     Sm( 1.00)

      2 Sym. Ops., with inversion, found
          (note:  2 additional sym.ops. were found but ignored
           their fractional translations are incommensurate with FFT grid)

   Cartesian axes

     site n.     atom                  positions (alat units)
         1           Tl  tau(   1) = (  -0.0906317   0.3870269   0.5616917  )
         2           Tl  tau(   2) = (   0.3143210   0.2433234   0.1872306  )
         3           I   tau(   3) = (  -0.5408004   0.5467760   0.5616917  )
         4           I   tau(   4) = (   0.7644896   0.0835744   0.1872306  )

     number of k points=   106  gaussian smearing, width (Ry)=  0.1000

     Number of k-points >= 100: set verbosity='high' to print them.

     Largest allocated arrays     est. size (Mb)     dimensions
     Largest temporary arrays     est. size (Mb)     dimensions

     Initial potential from superposition of free atoms

     Starting from uniform charge
     Starting wfc are    0 randomized atomic wfcs

     Self-consistent Calculation

     iteration #  1     ecut=    40.00 Ry     beta=0.70
     CG style diagonalization
     c_bands:  1 eigenvalues not converged
     c_bands:  1 eigenvalues not converged
     c_bands:  1 eigenvalues not converged
     c_bands:  1 eigenvalues not converged
     c_bands:  1 eigenvalues not converged
     c_bands:  1 eigenvalues not converged
     c_bands:  1 eigenvalues not converged
     c_bands:  1 eigenvalues not converged
     c_bands:  1 eigenvalues not converged
     c_bands:  1 eigenvalues not converged
     c_bands:  1 eigenvalues not converged
     c_bands:  1 eigenvalues not converged
     c_bands:  1 eigenvalues not converged
     c_bands:  1 eigenvalues not converged
     ethr =  1.00E-02,  avg # of iterations = 12.4

     total energy              =    -237.57672093 Ry
     Harris-Foulkes estimate   =    -603.96628114 Ry
     estimated scf accuracy    <     453.80360805 Ry

     iteration #  2     ecut=    40.00 Ry     beta=0.70
     CG style diagonalization
     ethr =  1.00E-02,  avg # of iterations = 18.2

[...]

     negative rho (up, down):  0.251E-05 0.000E+00

[...]

     End of self-consistent calculation

     Number of k-points >= 100: set verbosity='high' to print the bands.

     the Fermi energy is     9.0268 ev

!    total energy              =    -457.34616958 Ry
     Harris-Foulkes estimate   =    -457.34623845 Ry
     estimated scf accuracy    <       0.00008911 Ry

     The total energy is the sum of the following terms:

     one-electron contribution =    -148.40535085 Ry
     hartree contribution      =      88.01687739 Ry
     xc contribution           =     -51.06071006 Ry
     ewald contribution        =    -345.41823216 Ry
     smearing contrib. (-TS)   =      -0.47875390 Ry

     convergence has been achieved in  10 iterations

     Forces acting on atoms (Ry/au):

     atom    1 type  1   force =    -0.01568666    0.00545892    0.00005807
     atom    2 type  1   force =     0.01568666   -0.00545892   -0.00005807
     atom    3 type  2   force =    -0.01322404    0.00483822    0.00024942
     atom    4 type  2   force =     0.01322404   -0.00483822   -0.00024942

     Total force =     0.030797     Total SCF correction =     0.000000

     entering subroutine stress ...

          total   stress  (Ry/bohr**3)                   (kbar)     P= -223.68
  -0.00151757  -0.00000658   0.00000028       -223.24     -0.97      0.04
  -0.00000658  -0.00153326  -0.00000048         -0.97   -225.55     -0.07
   0.00000028  -0.00000048  -0.00151076          0.04     -0.07   -222.24

     BFGS Geometry Optimization

     number of scf cycles    =   1
     number of bfgs steps    =   0

     enthalpy new            =    -457.3461695843 Ry

     new trust radius        =       0.2581746047 bohr
     new conv_thr            =       0.0001000000 Ry

     new unit-cell volume =   1009.61737 a.u.^3 (   149.60986 Ang^3 )

CELL_PARAMETERS (alat= 13.39297219)
   0.962060645  -0.000164569   0.000007044
  -0.746961757   0.606315937  -0.000013034
   0.000005275  -0.000008989   0.720636095

ATOMIC_POSITIONS (crystal)
Tl       0.385343716   0.614633618   0.750005789
Tl       0.614656284   0.385366382   0.249994211
I        0.132041513   0.867989095   0.750024866
I        0.867958487   0.132010905   0.249975134

     Writing output data file Prototype-La-oS8-TlI.save
     NEW-OLD atomic charge density approx. for the potential
     NEW k-points: (use verbosity='high' to print them)

[...]

     enthalpy old            =    -457.3461695843 Ry
     enthalpy new            =    -457.5251089658 Ry

     CASE: enthalpy_new < enthalpy_old

     WARNING: bfgs curvature condition failed, Theta= 0.965
     small trust_radius: resetting bfgs history

[...]

     number of scf cycles    =   3
     number of bfgs steps    =   2

     enthalpy old            =    -457.5251089658 Ry
     enthalpy new            =    -457.6561139931 Ry

     CASE: enthalpy_new < enthalpy_old

     WARNING: bfgs curvature condition failed, Theta= 0.957
     Message from routine bfgs:
     history already reset at previous step: stopping
     small trust_radius: resetting bfgs history

     new trust radius        =       0.1933942647 bohr
     new conv_thr            =       0.0000218989 Ry

     new unit-cell volume =    829.46537 a.u.^3 (   122.91408 Ang^3 )

[...]

ATOMIC_POSITIONS (crystal)
Tl       0.384010425   0.616037360   0.750380483
Tl       0.615989575   0.383962640   0.249619517
I        0.130755411   0.869520497   0.750766562
I        0.869244589   0.130479503   0.249233438

     Writing output data file Prototype-La-oS8-TlI.save
     NEW-OLD atomic charge density approx. for the potential
     NEW k-points: (use verbosity='high' to print them)

[...]

     The maximum number of steps has been reached.

     End of BFGS Geometry Optimization
Begin final coordinates
     new unit-cell volume =    829.46537 a.u.^3 (   122.91408 Ang^3 )

CELL_PARAMETERS (alat= 13.39297219)
   0.901630248  -0.001340082   0.000005807
  -0.700789990   0.567326523  -0.000007081
   0.000004353  -0.000003037   0.676244686

ATOMIC_POSITIONS (crystal)
Tl       0.384010425   0.616037360   0.750380483
Tl       0.615989575   0.383962640   0.249619517
I        0.130755411   0.869520497   0.750766562
I        0.869244589   0.130479503   0.249233438
End final coordinates

     A final scf calculation at the relaxed structure.
     The G-vectors are recalculated for the final unit cell
     Results may differ from those at the preceding step.

     bravais-lattice index     =            0
     lattice parameter (alat)  =      13.3930  a.u.
     unit-cell volume          =     829.4654 (a.u.)^3
     number of atoms/cell      =            4
     number of atomic types    =            2
     number of electrons       =        56.00
     number of Kohn-Sham states=           34
     kinetic-energy cutoff     =      40.0000  Ry
     charge density cutoff     =     160.0000  Ry
     convergence threshold     =      2.2E-05
     mixing beta               =       0.7000
     number of iterations used =            8  plain     mixing
     Exchange-correlation      = SLA-PZ-NOGX-NOGC ( 1 1 0 0 0)
     EXX-fraction              =        0.00

     celldm(1)=  13.392972  celldm(2)=   0.000000  celldm(3)=   0.000000
     celldm(4)=   0.000000  celldm(5)=   0.000000  celldm(6)=   0.000000

     crystal axes: (cart. coord. in units of alat)
               a(1) = (   0.901630  -0.001340   0.000006 )
               a(2) = (  -0.700790   0.567327  -0.000007 )
               a(3) = (   0.000004  -0.000003   0.676245 )

     reciprocal axes: (cart. coord. in units 2 pi/alat)
               b(1) = (  1.111142  1.372538 -0.000001 )
               b(2) = (  0.002625  1.765895  0.000008 )
               b(3) = ( -0.000010  0.000007  1.478755 )

     PseudoPot. # 1 for Ce read from file:
     /home/jld5415/pp.La/Ce.UPF
     MD5 check sum: 44451aa79a44a00cf2bc029dc19922f6
     Pseudo is Norm-conserving, Zval = 12.0
     Generated in analytical, separable form
     Using radial grid of 1255 points,  6 beta functions with:
                l(1) =   0
                l(2) =   0
                l(3) =   1
                l(4) =   1
                l(5) =   2
                l(6) =   3

     PseudoPot. # 2 for Sm read from file:
     /home/jld5415/pp.La/Sm.UPF
     MD5 check sum: 5079e8b144a06bfcdbc14fb02b96ab09
     Pseudo is Norm-conserving, Zval = 16.0
     Generated in analytical, separable form
     Using radial grid of 1259 points,  6 beta functions with:
                l(1) =   0
                l(2) =   0
                l(3) =   1
                l(4) =   1
                l(5) =   2
                l(6) =   3

     atomic species   valence    mass     pseudopotential
        Tl            12.00   204.38300     Ce( 1.00)
        I             16.00   126.90400     Sm( 1.00)

      2 Sym. Ops., with inversion, found
          (note:  2 additional sym.ops. were found but ignored
           their fractional translations are incommensurate with FFT grid)

   Cartesian axes

     site n.     atom                  positions (alat units)
         1           Tl  tau(   1) = (  -0.0854741   0.3489774   0.5074387  )
         2           Tl  tau(   2) = (   0.2863187   0.2170060   0.1688047  )
         3           I   tau(   3) = (  -0.4914550   0.4931245   0.5076965  )
         4           I   tau(   4) = (   0.6922996   0.0728589   0.1685469  )

     number of k points=   106  gaussian smearing, width (Ry)=  0.1000

     Number of k-points >= 100: set verbosity='high' to print them.

     Largest allocated arrays     est. size (Mb)     dimensions
     Largest temporary arrays     est. size (Mb)     dimensions

     Initial potential from superposition of free atoms

     Starting from uniform charge
     Starting wfc are    0 randomized atomic wfcs

     Writing output data file Prototype-La-oS8-TlI.save

     Self-consistent Calculation

[...]

     iteration # 11     ecut=    40.00 Ry     beta=0.70
     CG style diagonalization
     c_bands:  1 eigenvalues not converged
     c_bands:  1 eigenvalues not converged
     ethr =  2.31E-07,  avg # of iterations =  3.3

     total energy              =    -457.68303235 Ry
     Harris-Foulkes estimate   =    -457.68304385 Ry
     estimated scf accuracy    <       0.00002803 Ry

     iteration # 12     ecut=    40.00 Ry     beta=0.70
     CG style diagonalization
     ethr =  5.00E-08,  avg # of iterations =  4.6

     End of self-consistent calculation

     Number of k-points >= 100: set verbosity='high' to print the bands.

     the Fermi energy is    13.7603 ev

!    total energy              =    -457.68303186 Ry
     Harris-Foulkes estimate   =    -457.68304931 Ry
     estimated scf accuracy    <       0.00001894 Ry

     The total energy is the sum of the following terms:

     one-electron contribution =     -91.94891843 Ry
     hartree contribution      =      69.85845073 Ry
     xc contribution           =     -51.94341254 Ry
     ewald contribution        =    -383.32801765 Ry
     smearing contrib. (-TS)   =      -0.32113398 Ry

     convergence has been achieved in  12 iterations

     Forces acting on atoms (Ry/au):

     atom    1 type  1   force =    -0.00686198    0.00235690   -0.00095191
     atom    2 type  1   force =     0.00686198   -0.00235690    0.00095191
     atom    3 type  2   force =    -0.03299328    0.01160680   -0.00128829
     atom    4 type  2   force =     0.03299328   -0.01160680    0.00128829

     Total force =     0.050566     Total SCF correction =     0.000000

     entering subroutine stress ...

          total   stress  (Ry/bohr**3)                   (kbar)     P= -192.09
  -0.00129210  -0.00004581  -0.00000012       -190.07     -6.74     -0.02
  -0.00004581  -0.00140564   0.00000012         -6.74   -206.78      0.02
  -0.00000012   0.00000012  -0.00121961         -0.02      0.02   -179.41

     Writing output data file Prototype-La-oS8-TlI.save

     General routines

     Parallel routines

   This run was terminated on:   1:15:55  22Mar2018

   JOB DONE.