     Program PWSCF v.5.0.2 starts on 22Mar2018 at 22:47:20

     Current dimensions of program PWSCF are:
     Max number of different atomic species (ntypx) = 10
     Max number of k-points (npk) =  40000
     Max angular momentum in pseudopotentials (lmaxx) =  3
     Waiting for input...
     Reading input from standard input

     Subspace diagonalization in iterative solution of the eigenvalue problem:
     a serial algorithm will be used

     bravais-lattice index     =            0
     lattice parameter (alat)  =       9.9235  a.u.
     unit-cell volume          =    1361.0366 (a.u.)^3
     number of atoms/cell      =           12
     number of atomic types    =            2
     number of electrons       =       280.00
     number of Kohn-Sham states=          168
     kinetic-energy cutoff     =      40.0000  Ry
     charge density cutoff     =     160.0000  Ry
     convergence threshold     =      1.0E-04
     mixing beta               =       0.7000
     number of iterations used =            8  plain     mixing
     Exchange-correlation      = SLA-PZ-NOGX-NOGC ( 1 1 0 0 0)
     EXX-fraction              =        0.00
     nstep                     =           50

     celldm(1)=   9.923489  celldm(2)=   0.000000  celldm(3)=   0.000000
     celldm(4)=   0.000000  celldm(5)=   0.000000  celldm(6)=   0.000000

     crystal axes: (cart. coord. in units of alat)
               a(1) = (   1.000000   0.000000   0.000000 )
               a(2) = (  -0.500000   0.866025   0.000000 )
               a(3) = (   0.000000   0.000000   1.608222 )

     reciprocal axes: (cart. coord. in units 2 pi/alat)
               b(1) = (  1.000000  0.577350  0.000000 )
               b(2) = (  0.000000  1.154701  0.000000 )
               b(3) = (  0.000000  0.000000  0.621805 )

     PseudoPot. # 1 for Er read from file:
     /home/cwx6513/pp.La/Er.UPF
     MD5 check sum: e152ae21b84514339d8526f066caf99b
     Pseudo is Norm-conserving, Zval = 22.0
     Generated in analytical, separable form
     Using radial grid of 1267 points,  6 beta functions with:
                l(1) =   0
                l(2) =   0
                l(3) =   1
                l(4) =   1
                l(5) =   2
                l(6) =   3

     PseudoPot. # 2 for Yb read from file:
     /home/cwx6513/pp.La/Yb.UPF
     MD5 check sum: 3e859b81cc28c53ec6aa3a2e888efcdf
     Pseudo is Norm-conserving, Zval = 24.0
     Generated in analytical, separable form
     Using radial grid of 1269 points,  6 beta functions with:
                l(1) =   0
                l(2) =   0
                l(3) =   1
                l(4) =   1
                l(5) =   2
                l(6) =   3

     atomic species   valence    mass     pseudopotential
        Mg            22.00    24.30500     Er( 1.00)
        Zn            24.00    65.39000     Yb( 1.00)

     24 Sym. Ops., with inversion, found (12 have fractional translation)

   Cartesian axes

     site n.     atom                  positions (alat units)
         1           Mg  tau(   1) = (  -0.0000005   0.5773506   0.1003820  )
         2           Mg  tau(   2) = (   0.5000005   0.2886748   0.9044931  )
         3           Mg  tau(   3) = (   0.5000005   0.2886748   1.5078402  )
         4           Mg  tau(   4) = (  -0.0000005   0.5773506   0.7037291  )
         5           Zn  tau(   5) = (   0.0000000   0.0000000   0.0000000  )
         6           Zn  tau(   6) = (   0.0000000   0.0000000   0.8041111  )
         7           Zn  tau(   7) = (   0.0000000   0.2950739   1.2061667  )
         8           Zn  tau(   8) = (   0.7444585   0.1475370   0.4020556  )
         9           Zn  tau(   9) = (   0.2555415   0.1475370   0.4020556  )
        10           Zn  tau(  10) = (   0.2444585   0.7184884   1.2061667  )
        11           Zn  tau(  11) = (  -0.2444585   0.7184884   1.2061667  )
        12           Zn  tau(  12) = (   0.5000000   0.5709515   0.4020556  )

     number of k points=    12  gaussian smearing, width (Ry)=  0.1000
                       cart. coord. in units 2pi/alat
        k(    1) = (   0.0000000   0.0000000   0.0000000), wk =   0.0833333
        k(    2) = (   0.0000000   0.0000000   0.1554512), wk =   0.1666667
        k(    3) = (   0.0000000   0.0000000  -0.3109023), wk =   0.0833333
        k(    4) = (   0.0000000   0.3849002   0.0000000), wk =   0.1666667
        k(    5) = (   0.0000000   0.3849002   0.1554512), wk =   0.3333333
        k(    6) = (   0.0000000   0.3849002  -0.3109023), wk =   0.1666667
        k(    7) = (  -0.5000000  -0.2886751   0.0000000), wk =   0.0833333
        k(    8) = (  -0.5000000  -0.2886751   0.1554512), wk =   0.1666667
        k(    9) = (  -0.5000000  -0.2886751  -0.3109023), wk =   0.0833333
        k(   10) = (  -0.5000000   0.0962250   0.0000000), wk =   0.1666667
        k(   11) = (  -0.5000000   0.0962250   0.1554512), wk =   0.3333333
        k(   12) = (  -0.5000000   0.0962250  -0.3109023), wk =   0.1666667

     Largest allocated arrays     est. size (Mb)     dimensions
     Largest temporary arrays     est. size (Mb)     dimensions

     Initial potential from superposition of free atoms

     Starting from uniform charge
     Starting wfc are    0 randomized atomic wfcs

     Self-consistent Calculation

     iteration #  1     ecut=    40.00 Ry     beta=0.70
     CG style diagonalization
     ethr =  1.00E-02,  avg # of iterations = 21.8

     total energy              =   -3413.99426456 Ry
     Harris-Foulkes estimate   =   -5852.89307257 Ry
     estimated scf accuracy    <    2948.47147881 Ry

[...]

     iteration #  3     ecut=    40.00 Ry     beta=0.70
     CG style diagonalization
     c_bands:  1 eigenvalues not converged
     c_bands:  3 eigenvalues not converged
     c_bands:  5 eigenvalues not converged
     c_bands:  2 eigenvalues not converged
     c_bands:  2 eigenvalues not converged
     c_bands:  2 eigenvalues not converged
     c_bands:  3 eigenvalues not converged
     c_bands:  2 eigenvalues not converged
     c_bands:  2 eigenvalues not converged
     c_bands:  1 eigenvalues not converged
     c_bands:  1 eigenvalues not converged
     ethr =  1.00E-02,  avg # of iterations = 13.2

[...]

     End of self-consistent calculation

          k = 0.0000 0.0000 0.0000 (  5769 PWs)   bands (ev):

   -88.4116 -88.3927 -88.3592 -88.3592 -88.3546 -88.3352 -88.3351 -88.2597
   -64.6403 -64.6301 -64.6235 -64.5933 -47.6670 -47.5870 -47.5123 -47.3950
   -47.3552 -47.3552 -47.3397 -47.3397 -47.3012 -47.3012 -47.2241 -47.2227
   -47.2227 -47.1971 -47.1971 -47.1516 -47.1467 -47.1467 -47.1290 -47.1290
   -47.1240 -47.1239 -47.0806 -47.0727 -26.6747 -26.6589 -26.6579 -26.6579
   -26.6366 -26.6366 -26.6229 -26.6019 -26.6019 -26.5963 -26.5931 -26.5931
     7.5058   7.8429   8.0574   8.5719   8.5719   8.6583   8.6584   8.8401
     8.8401   8.9871   9.1485   9.1485   9.6267   9.9047   9.9600   9.9601
    10.0173  10.0173  10.3765  10.5054  10.5054  10.7702  10.7702  10.8674
    10.8937  10.8937  10.9667  10.9668  10.9747  10.9857  11.1019  11.1020
    11.2246  11.2247  11.6347  11.6348  11.8560  11.8560  12.2016  12.2024
    15.7679  17.2914  19.1233  19.2899  19.2899  19.3231  19.4845  19.4846
    19.4903  19.4904  19.6619  19.6620  19.7481  19.9184  19.9184  19.9911
    20.0733  20.0733  20.3457  20.3457  20.4466  20.4466  20.7476  23.1137
    23.4207  25.8135  25.8136  26.0311  26.7077  26.7078  28.0173  28.0174
    28.3385  28.3386  28.7092  28.7391  28.7392  28.9514  29.7677  29.9278
    30.8582  32.1961  32.1962  34.4575  34.9083  34.9084  35.5210  35.5540
    35.5541  36.2354  36.3537  36.5080  36.5081  37.1747  37.1747  37.4774
    37.4774  38.0106  38.1305  39.5928  40.1701  40.1702  40.2334  40.2366
    40.2834  40.3549  40.3549  40.4065  41.5267  42.2485  42.2486  42.7252
    42.7253  43.8908  44.1735  44.3874  44.3876  44.6499  44.6501  45.1027

[...]

          k =-0.5000-0.2887 0.0000 (  5800 PWs)   bands (ev):

[...]

     the Fermi energy is    36.9292 ev

!    total energy              =   -4587.65002724 Ry
     Harris-Foulkes estimate   =   -4587.65008759 Ry
     estimated scf accuracy    <       0.00006772 Ry

     The total energy is the sum of the following terms:

     one-electron contribution =   -1120.95089495 Ry
     hartree contribution      =     755.51506646 Ry
     xc contribution           =    -372.47192375 Ry
     ewald contribution        =   -3849.23981590 Ry
     smearing contrib. (-TS)   =      -0.50245910 Ry

     convergence has been achieved in  10 iterations

     Forces acting on atoms (Ry/au):

     atom    1 type  1   force =     0.00000000    0.00000000   -0.00909331
     atom    2 type  1   force =     0.00000000    0.00000000   -0.00909331
     atom    3 type  1   force =     0.00000000    0.00000000    0.00909331
     atom    4 type  1   force =     0.00000000    0.00000000    0.00909331
     atom    5 type  2   force =     0.00000000    0.00000000    0.00000000
     atom    6 type  2   force =     0.00000000    0.00000000    0.00000000
     atom    7 type  2   force =     0.00000000    0.11264332    0.00000000
     atom    8 type  2   force =    -0.09755198    0.05632166    0.00000000
     atom    9 type  2   force =     0.09755198    0.05632166    0.00000000
     atom   10 type  2   force =    -0.09755198   -0.05632166    0.00000000
     atom   11 type  2   force =     0.09755198   -0.05632166    0.00000000
     atom   12 type  2   force =     0.00000000   -0.11264332    0.00000000

     Total force =     0.276517     Total SCF correction =     0.000000

     entering subroutine stress ...

          total   stress  (Ry/bohr**3)                   (kbar)     P= 1386.05
   0.00940189   0.00000000   0.00000000       1383.07      0.00      0.00
   0.00000000   0.00940189   0.00000000          0.00   1383.07      0.00
   0.00000000   0.00000000   0.00946268          0.00      0.00   1392.01

     BFGS Geometry Optimization

     number of scf cycles    =   1
     number of bfgs steps    =   0

     enthalpy new            =   -4587.6500272400 Ry

     new trust radius        =       0.5000000000 bohr
     new conv_thr            =       0.0001000000 Ry

     new unit-cell volume =   1655.55131 a.u.^3 (   245.32739 Ang^3 )

CELL_PARAMETERS (alat=  9.92348860)
   1.067329676   0.000000000   0.000000000
  -0.533664838   0.924334614   0.000000000
   0.000000000   0.000000000   1.717203317

ATOMIC_POSITIONS (crystal)
Mg       0.333333000   0.666667000   0.062254784
Mg       0.666667000   0.333333000   0.562254784
Mg       0.666667000   0.333333000   0.937745216
Mg       0.333333000   0.666667000   0.437745216
Zn       0.000000000   0.000000000   0.000000000
Zn       0.000000000   0.000000000   0.500000000
Zn       0.172238291   0.344476582   0.750000000
Zn       0.827761709   0.172238291   0.250000000
Zn       0.344476582   0.172238291   0.250000000
Zn       0.655523418   0.827761709   0.750000000
Zn       0.172238291   0.827761709   0.750000000
Zn       0.827761709   0.655523418   0.250000000

     Writing output data file Prototype-La-hP12-MgZn2.save
     NEW-OLD atomic charge density approx. for the potential
     NEW k-points:
        k(    1) = (   0.0000000   0.0000000   0.0000000), wk =   0.0833333
        k(    2) = (   0.0000000   0.0000000   0.1455856), wk =   0.1666667
        k(    3) = (   0.0000000   0.0000000  -0.2911711), wk =   0.0833333
        k(    4) = (   0.0000000   0.3606198   0.0000000), wk =   0.1666667
        k(    5) = (   0.0000000   0.3606198   0.1455856), wk =   0.3333333
        k(    6) = (   0.0000000   0.3606198  -0.2911711), wk =   0.1666667
        k(    7) = (  -0.4684588  -0.2704648   0.0000000), wk =   0.0833333
        k(    8) = (  -0.4684588  -0.2704648   0.1455856), wk =   0.1666667
        k(    9) = (  -0.4684588  -0.2704648  -0.2911711), wk =   0.0833333
        k(   10) = (  -0.4684588   0.0901549   0.0000000), wk =   0.1666667
        k(   11) = (  -0.4684588   0.0901549   0.1455856), wk =   0.3333333
        k(   12) = (  -0.4684588   0.0901549  -0.2911711), wk =   0.1666667

[...]

     enthalpy old            =   -4587.6500272400 Ry
     enthalpy new            =   -4588.6742013139 Ry

     CASE: enthalpy_new < enthalpy_old

     small trust_radius: resetting bfgs history

     new trust radius        =       0.3139916651 bohr
     new conv_thr            =       0.0000372069 Ry

[...]

     number of scf cycles    =   3
     number of bfgs steps    =   2

     enthalpy old            =   -4588.6742013139 Ry
     enthalpy new            =   -4588.4783803567 Ry

     CASE: enthalpy_new > enthalpy_old

     new trust radius        =       0.0882196219 bohr

     trust_radius < trust_radius_min

     resetting bfgs history

     Message from routine bfgs:
     history already reset at previous step: stopping
     new conv_thr            =       0.0000372069 Ry

     new unit-cell volume =   1478.29852 a.u.^3 (   219.06124 Ang^3 )

[...]

ATOMIC_POSITIONS (crystal)
Mg       0.333333000   0.666667000   0.064616980
Mg       0.666667000   0.333333000   0.564616980
Mg       0.666667000   0.333333000   0.935383020
Mg       0.333333000   0.666667000   0.435383020
Zn       0.000000000   0.000000000   0.000000000
Zn       0.000000000   0.000000000   0.500000000
Zn       0.171877310   0.343754620   0.750000000
Zn       0.828122690   0.171877310   0.250000000
Zn       0.343754620   0.171877310   0.250000000
Zn       0.656245380   0.828122690   0.750000000
Zn       0.171877310   0.828122690   0.750000000
Zn       0.828122690   0.656245380   0.250000000

     Writing output data file Prototype-La-hP12-MgZn2.save
     NEW-OLD atomic charge density approx. for the potential
     NEW k-points:
        k(    1) = (   0.0000000   0.0000000   0.0000000), wk =   0.0833333
        k(    2) = (   0.0000000   0.0000000   0.1516165), wk =   0.1666667
        k(    3) = (   0.0000000   0.0000000  -0.3032331), wk =   0.0833333
        k(    4) = (   0.0000000   0.3739604   0.0000000), wk =   0.1666667
        k(    5) = (   0.0000000   0.3739604   0.1516165), wk =   0.3333333
        k(    6) = (   0.0000000   0.3739604  -0.3032331), wk =   0.1666667
        k(    7) = (  -0.4857888  -0.2804703   0.0000000), wk =   0.0833333
        k(    8) = (  -0.4857888  -0.2804703   0.1516165), wk =   0.1666667
        k(    9) = (  -0.4857888  -0.2804703  -0.3032331), wk =   0.0833333
        k(   10) = (  -0.4857888   0.0934901   0.0000000), wk =   0.1666667
        k(   11) = (  -0.4857888   0.0934901   0.1516165), wk =   0.3333333
        k(   12) = (  -0.4857888   0.0934901  -0.3032331), wk =   0.1666667

[...]

     The maximum number of steps has been reached.

     End of BFGS Geometry Optimization
Begin final coordinates
     new unit-cell volume =   1478.29852 a.u.^3 (   219.06124 Ang^3 )

CELL_PARAMETERS (alat=  9.92348860)
   1.029253776   0.000000000   0.000000000
  -0.514626888   0.891359917   0.000000000
   0.000000000   0.000000000   1.648896699

ATOMIC_POSITIONS (crystal)
Mg       0.333333000   0.666667000   0.064616980
Mg       0.666667000   0.333333000   0.564616980
Mg       0.666667000   0.333333000   0.935383020
Mg       0.333333000   0.666667000   0.435383020
Zn       0.000000000   0.000000000   0.000000000
Zn       0.000000000   0.000000000   0.500000000
Zn       0.171877310   0.343754620   0.750000000
Zn       0.828122690   0.171877310   0.250000000
Zn       0.343754620   0.171877310   0.250000000
Zn       0.656245380   0.828122690   0.750000000
Zn       0.171877310   0.828122690   0.750000000
Zn       0.828122690   0.656245380   0.250000000
End final coordinates

     A final scf calculation at the relaxed structure.
     The G-vectors are recalculated for the final unit cell
     Results may differ from those at the preceding step.

     bravais-lattice index     =            0
     lattice parameter (alat)  =       9.9235  a.u.
     unit-cell volume          =    1478.2985 (a.u.)^3
     number of atoms/cell      =           12
     number of atomic types    =            2
     number of electrons       =       280.00
     number of Kohn-Sham states=          168
     kinetic-energy cutoff     =      40.0000  Ry
     charge density cutoff     =     160.0000  Ry
     convergence threshold     =      3.7E-05
     mixing beta               =       0.7000
     number of iterations used =            8  plain     mixing
     Exchange-correlation      = SLA-PZ-NOGX-NOGC ( 1 1 0 0 0)
     EXX-fraction              =        0.00

     celldm(1)=   9.923489  celldm(2)=   0.000000  celldm(3)=   0.000000
     celldm(4)=   0.000000  celldm(5)=   0.000000  celldm(6)=   0.000000

     crystal axes: (cart. coord. in units of alat)
               a(1) = (   1.029254   0.000000   0.000000 )
               a(2) = (  -0.514627   0.891360   0.000000 )
               a(3) = (   0.000000   0.000000   1.648897 )

     reciprocal axes: (cart. coord. in units 2 pi/alat)
               b(1) = (  0.971578  0.560941  0.000000 )
               b(2) = (  0.000000  1.121881  0.000000 )
               b(3) = (  0.000000  0.000000  0.606466 )

     PseudoPot. # 1 for Er read from file:
     /home/cwx6513/pp.La/Er.UPF
     MD5 check sum: e152ae21b84514339d8526f066caf99b
     Pseudo is Norm-conserving, Zval = 22.0
     Generated in analytical, separable form
     Using radial grid of 1267 points,  6 beta functions with:
                l(1) =   0
                l(2) =   0
                l(3) =   1
                l(4) =   1
                l(5) =   2
                l(6) =   3

     PseudoPot. # 2 for Yb read from file:
     /home/cwx6513/pp.La/Yb.UPF
     MD5 check sum: 3e859b81cc28c53ec6aa3a2e888efcdf
     Pseudo is Norm-conserving, Zval = 24.0
     Generated in analytical, separable form
     Using radial grid of 1269 points,  6 beta functions with:
                l(1) =   0
                l(2) =   0
                l(3) =   1
                l(4) =   1
                l(5) =   2
                l(6) =   3

     atomic species   valence    mass     pseudopotential
        Mg            22.00    24.30500     Er( 1.00)
        Zn            24.00    65.39000     Yb( 1.00)

     24 Sym. Ops., with inversion, found (12 have fractional translation)

   Cartesian axes

     site n.     atom                  positions (alat units)
         1           Mg  tau(   1) = (  -0.0000005   0.5942402   0.1065467  )
         2           Mg  tau(   2) = (   0.5146274   0.2971197   0.9309951  )
         3           Mg  tau(   3) = (   0.5146274   0.2971197   1.5423500  )
         4           Mg  tau(   4) = (  -0.0000005   0.5942402   0.7179016  )
         5           Zn  tau(   5) = (   0.0000000   0.0000000   0.0000000  )
         6           Zn  tau(   6) = (   0.0000000   0.0000000   0.8244483  )
         7           Zn  tau(   7) = (   0.0000000   0.3064091   1.2366725  )
         8           Zn  tau(   8) = (   0.7638957   0.1532045   0.4122242  )
         9           Zn  tau(   9) = (   0.2653581   0.1532045   0.4122242  )
        10           Zn  tau(  10) = (   0.2492688   0.7381554   1.2366725  )
        11           Zn  tau(  11) = (  -0.2492688   0.7381554   1.2366725  )
        12           Zn  tau(  12) = (   0.5146269   0.5849508   0.4122242  )

     number of k points=    12  gaussian smearing, width (Ry)=  0.1000
                       cart. coord. in units 2pi/alat
        k(    1) = (   0.0000000   0.0000000   0.0000000), wk =   0.0833333
        k(    2) = (   0.0000000   0.0000000   0.1516165), wk =   0.1666667
        k(    3) = (   0.0000000   0.0000000  -0.3032331), wk =   0.0833333
        k(    4) = (   0.0000000   0.3739604   0.0000000), wk =   0.1666667
        k(    5) = (   0.0000000   0.3739604   0.1516165), wk =   0.3333333
        k(    6) = (   0.0000000   0.3739604  -0.3032331), wk =   0.1666667
        k(    7) = (  -0.4857888  -0.2804703   0.0000000), wk =   0.0833333
        k(    8) = (  -0.4857888  -0.2804703   0.1516165), wk =   0.1666667
        k(    9) = (  -0.4857888  -0.2804703  -0.3032331), wk =   0.0833333
        k(   10) = (  -0.4857888   0.0934901   0.0000000), wk =   0.1666667
        k(   11) = (  -0.4857888   0.0934901   0.1516165), wk =   0.3333333
        k(   12) = (  -0.4857888   0.0934901  -0.3032331), wk =   0.1666667

     Largest allocated arrays     est. size (Mb)     dimensions
     Largest temporary arrays     est. size (Mb)     dimensions

     Initial potential from superposition of free atoms

     Starting from uniform charge
     Starting wfc are    0 randomized atomic wfcs

     Writing output data file Prototype-La-hP12-MgZn2.save

     Self-consistent Calculation

[...]

     iteration #  8     ecut=    40.00 Ry     beta=0.70
     CG style diagonalization
     c_bands:  1 eigenvalues not converged
     c_bands:  1 eigenvalues not converged
     ethr =  1.44E-05,  avg # of iterations =  4.0

[...]

     total energy              =   -4589.55443163 Ry
     Harris-Foulkes estimate   =   -4589.55447290 Ry
     estimated scf accuracy    <       0.00007924 Ry

     iteration # 11     ecut=    40.00 Ry     beta=0.70
     CG style diagonalization
     ethr =  2.83E-08,  avg # of iterations =  3.6

     End of self-consistent calculation

[...]

          k = 0.0000 0.3740-0.3032 (  6316 PWs)   bands (ev):

[...]

          k =-0.4858 0.0935-0.3032 (  6314 PWs)   bands (ev):

   -91.3363 -91.3363 -91.3002 -91.3002 -91.2868 -91.2868 -91.2757 -91.2757
   -67.6308 -67.6308 -67.6215 -67.6214 -50.3785 -50.3785 -50.3284 -50.3284
   -50.2360 -50.2360 -50.2170 -50.2170 -50.1565 -50.1565 -50.1497 -50.1497
   -50.1037 -50.1037 -50.0941 -50.0941 -50.0776 -50.0776 -50.0754 -50.0754
   -50.0689 -50.0689 -50.0457 -50.0457 -29.6280 -29.6280 -29.6081 -29.6081
   -29.6008 -29.6008 -29.5947 -29.5947 -29.5866 -29.5865 -29.5812 -29.5812
     5.9493   5.9493   6.2408   6.2408   6.3864   6.3864   6.5100   6.5100
     6.5860   6.5860   6.9710   6.9710   7.1454   7.1454   7.2965   7.2965
     7.4199   7.4199   7.4636   7.4636   7.6261   7.6261   7.6870   7.6870
     7.8082   7.8083   7.9576   7.9576   8.0228   8.0228   8.1558   8.1558
     8.1724   8.1724   8.2423   8.2423   8.3779   8.3779   8.6857   8.6858
    15.0705  15.0705  16.0868  16.0868  16.7395  16.7395  16.7764  16.7765
    16.8891  16.8891  17.0730  17.0730  17.1504  17.1504  17.2018  17.2018
    17.3557  17.3558  17.3985  17.3985  17.4857  17.4857  18.2971  18.2971
    20.1992  20.1992  21.2676  21.2677  23.7178  23.7178  24.6052  24.6052
    25.7813  25.7813  26.9357  26.9357  28.9416  28.9416  29.3890  29.3890
    30.1194  30.1194  31.2774  31.2774  31.8159  31.8159  32.3283  32.3283
    33.2931  33.2931  33.5594  33.5594  34.2577  34.2577  34.5099  34.5099
    35.1839  35.1839  35.3032  35.3032  35.8382  35.8382  36.5786  36.5786
    37.6329  37.6329  38.0867  38.0868  38.4305  38.4306  38.7701  38.7701
    39.6486  39.6487  40.1886  40.1887  40.5727  40.5729  40.9242  40.9246

     the Fermi energy is    33.8049 ev

!    total energy              =   -4589.55444396 Ry
     Harris-Foulkes estimate   =   -4589.55444826 Ry
     estimated scf accuracy    <       0.00000547 Ry

     The total energy is the sum of the following terms:

     one-electron contribution =   -1273.47722601 Ry
     hartree contribution      =     801.22117980 Ry
     xc contribution           =    -370.58073836 Ry
     ewald contribution        =   -3746.22889278 Ry
     smearing contrib. (-TS)   =      -0.48876660 Ry

     convergence has been achieved in  11 iterations

     Forces acting on atoms (Ry/au):

     atom    1 type  1   force =     0.00000000    0.00000000    0.01173712
     atom    2 type  1   force =     0.00000000    0.00000000    0.01173712
     atom    3 type  1   force =     0.00000000    0.00000000   -0.01173712
     atom    4 type  1   force =     0.00000000    0.00000000   -0.01173712
     atom    5 type  2   force =     0.00000000    0.00000000    0.00000000
     atom    6 type  2   force =     0.00000000    0.00000000    0.00000000
     atom    7 type  2   force =     0.00000000    0.00208554    0.00000000
     atom    8 type  2   force =    -0.00180613    0.00104277    0.00000000
     atom    9 type  2   force =     0.00180613    0.00104277    0.00000000
     atom   10 type  2   force =    -0.00180613   -0.00104277    0.00000000
     atom   11 type  2   force =     0.00180613   -0.00104277    0.00000000
     atom   12 type  2   force =     0.00000000   -0.00208554    0.00000000

     Total force =     0.024024     Total SCF correction =     0.000000

     entering subroutine stress ...

          total   stress  (Ry/bohr**3)                   (kbar)     P=  829.62
   0.00569585   0.00000000   0.00000000        837.89      0.00      0.00
   0.00000000   0.00569585   0.00000000          0.00    837.89      0.00
   0.00000000   0.00000000   0.00552729          0.00      0.00    813.09

     Writing output data file Prototype-La-hP12-MgZn2.save

     General routines

     Parallel routines

   This run was terminated on:  23:24:55  22Mar2018

   JOB DONE.