     Program PWSCF v.5.0.2 starts on 23Mar2018 at  0:58:44

     Current dimensions of program PWSCF are:
     Max number of different atomic species (ntypx) = 10
     Max number of k-points (npk) =  40000
     Max angular momentum in pseudopotentials (lmaxx) =  3
     Waiting for input...
     Reading input from standard input

     Subspace diagonalization in iterative solution of the eigenvalue problem:
     a serial algorithm will be used

     bravais-lattice index     =            0
     lattice parameter (alat)  =       9.9235  a.u.
     unit-cell volume          =    1361.0366 (a.u.)^3
     number of atoms/cell      =           12
     number of atomic types    =            2
     number of electrons       =       212.00
     number of Kohn-Sham states=          127
     kinetic-energy cutoff     =      40.0000  Ry
     charge density cutoff     =     160.0000  Ry
     convergence threshold     =      1.0E-04
     mixing beta               =       0.7000
     number of iterations used =            8  plain     mixing
     Exchange-correlation      = SLA-PZ-NOGX-NOGC ( 1 1 0 0 0)
     EXX-fraction              =        0.00
     nstep                     =           50

     celldm(1)=   9.923489  celldm(2)=   0.000000  celldm(3)=   0.000000
     celldm(4)=   0.000000  celldm(5)=   0.000000  celldm(6)=   0.000000

     crystal axes: (cart. coord. in units of alat)
               a(1) = (   1.000000   0.000000   0.000000 )
               a(2) = (  -0.500000   0.866025   0.000000 )
               a(3) = (   0.000000   0.000000   1.608222 )

     reciprocal axes: (cart. coord. in units 2 pi/alat)
               b(1) = (  1.000000  0.577350  0.000000 )
               b(2) = (  0.000000  1.154701  0.000000 )
               b(3) = (  0.000000  0.000000  0.621805 )

     PseudoPot. # 1 for Ho read from file:
     /home/cwx6513/pp.La/Ho.UPF
     MD5 check sum: f307ee11bce99f5b724fa279e3790763
     Pseudo is Norm-conserving, Zval = 21.0
     Generated in analytical, separable form
     Using radial grid of 1265 points,  6 beta functions with:
                l(1) =   0
                l(2) =   0
                l(3) =   1
                l(4) =   1
                l(5) =   2
                l(6) =   3

     PseudoPot. # 2 for Sm read from file:
     /home/cwx6513/pp.La/Sm.UPF
     MD5 check sum: 5079e8b144a06bfcdbc14fb02b96ab09
     Pseudo is Norm-conserving, Zval = 16.0
     Generated in analytical, separable form
     Using radial grid of 1259 points,  6 beta functions with:
                l(1) =   0
                l(2) =   0
                l(3) =   1
                l(4) =   1
                l(5) =   2
                l(6) =   3

     atomic species   valence    mass     pseudopotential
        Mg            21.00    24.30500     Ho( 1.00)
        Zn            16.00    65.39000     Sm( 1.00)

     24 Sym. Ops., with inversion, found (12 have fractional translation)

   Cartesian axes

     site n.     atom                  positions (alat units)
         1           Mg  tau(   1) = (  -0.0000005   0.5773506   0.1003820  )
         2           Mg  tau(   2) = (   0.5000005   0.2886748   0.9044931  )
         3           Mg  tau(   3) = (   0.5000005   0.2886748   1.5078402  )
         4           Mg  tau(   4) = (  -0.0000005   0.5773506   0.7037291  )
         5           Zn  tau(   5) = (   0.0000000   0.0000000   0.0000000  )
         6           Zn  tau(   6) = (   0.0000000   0.0000000   0.8041111  )
         7           Zn  tau(   7) = (   0.0000000   0.2950739   1.2061667  )
         8           Zn  tau(   8) = (   0.7444585   0.1475370   0.4020556  )
         9           Zn  tau(   9) = (   0.2555415   0.1475370   0.4020556  )
        10           Zn  tau(  10) = (   0.2444585   0.7184884   1.2061667  )
        11           Zn  tau(  11) = (  -0.2444585   0.7184884   1.2061667  )
        12           Zn  tau(  12) = (   0.5000000   0.5709515   0.4020556  )

     number of k points=    12  gaussian smearing, width (Ry)=  0.1000
                       cart. coord. in units 2pi/alat
        k(    1) = (   0.0000000   0.0000000   0.0000000), wk =   0.0833333
        k(    2) = (   0.0000000   0.0000000   0.1554512), wk =   0.1666667
        k(    3) = (   0.0000000   0.0000000  -0.3109023), wk =   0.0833333
        k(    4) = (   0.0000000   0.3849002   0.0000000), wk =   0.1666667
        k(    5) = (   0.0000000   0.3849002   0.1554512), wk =   0.3333333
        k(    6) = (   0.0000000   0.3849002  -0.3109023), wk =   0.1666667
        k(    7) = (  -0.5000000  -0.2886751   0.0000000), wk =   0.0833333
        k(    8) = (  -0.5000000  -0.2886751   0.1554512), wk =   0.1666667
        k(    9) = (  -0.5000000  -0.2886751  -0.3109023), wk =   0.0833333
        k(   10) = (  -0.5000000   0.0962250   0.0000000), wk =   0.1666667
        k(   11) = (  -0.5000000   0.0962250   0.1554512), wk =   0.3333333
        k(   12) = (  -0.5000000   0.0962250  -0.3109023), wk =   0.1666667

     Largest allocated arrays     est. size (Mb)     dimensions
     Largest temporary arrays     est. size (Mb)     dimensions

     Initial potential from superposition of free atoms

     Starting from uniform charge
     Starting wfc are    0 randomized atomic wfcs

     Self-consistent Calculation

     iteration #  1     ecut=    40.00 Ry     beta=0.70
     CG style diagonalization
     c_bands:  3 eigenvalues not converged
     c_bands:  4 eigenvalues not converged
     c_bands:  4 eigenvalues not converged
     c_bands:  4 eigenvalues not converged
     c_bands:  1 eigenvalues not converged
     c_bands:  4 eigenvalues not converged
     c_bands:  2 eigenvalues not converged
     c_bands:  2 eigenvalues not converged
     c_bands:  1 eigenvalues not converged
     c_bands:  1 eigenvalues not converged
     ethr =  1.00E-02,  avg # of iterations = 12.5

     total energy              =   -1571.27768363 Ry
     Harris-Foulkes estimate   =   -2880.50742053 Ry
     estimated scf accuracy    <    1600.56084041 Ry

     iteration #  2     ecut=    40.00 Ry     beta=0.70
     CG style diagonalization
     ethr =  1.00E-02,  avg # of iterations = 14.7

[...]

     End of self-consistent calculation

          k = 0.0000 0.0000 0.0000 (  5769 PWs)   bands (ev):

   -61.6421 -61.6370 -61.6295 -61.6133 -28.1201 -27.9037 -27.5317 -27.2854
   -27.2276 -27.2275 -27.2258 -27.2258 -25.8388 -25.8331 -25.8269 -25.8269
   -25.8040 -25.8040 -25.7816 -25.7552 -25.7539 -25.7539 -25.7465 -25.7465
    -5.9048  -5.3452  -4.6961  -3.8966  -3.8966  -3.7348  -3.7347  -3.6603
    -3.6603  -3.1701  -2.6973  -2.6973  -2.6341  -2.6340  -2.5985  -1.6784
    -1.6784  -1.6474  -1.6465  -1.6458  -1.4277  -1.4277  -1.3337  -1.3337
    17.3126  17.3323  17.3323  17.4482  17.5185  17.5185  17.6705  17.6706
    17.7741  17.7741  18.0564  18.1952  18.1953  18.2658  18.3567  18.3567
    18.4314  18.4314  18.4577  18.4577  18.9931  20.3859  21.0222  21.1419
    22.3597  22.4068  22.4068  23.2600  23.2600  23.5222  23.6036  23.6036
    23.6268  23.6638  24.3297  24.3297  25.6565  25.6565  25.8934  25.8934
    26.1614  26.1614  26.8123  28.2088  28.2089  28.2938  28.8388  28.8726
    29.3831  29.9643  30.0677  30.0678  30.2071  30.2071  30.3470  30.3471
    30.3788  30.3789  31.2474  32.1849  32.1849  32.4187  32.4187  32.7092
    32.7092  32.9457  32.9547  34.3056  34.3057  34.5808  34.5809  35.3442
    35.6196  35.9565  35.9994  36.1147  36.3300  36.3301  37.4459

[...]

          k =-0.5000-0.2887 0.0000 (  5800 PWs)   bands (ev):

[...]

     the Fermi energy is    30.4814 ev

!    total energy              =   -2385.63625246 Ry
     Harris-Foulkes estimate   =   -2385.63625811 Ry
     estimated scf accuracy    <       0.00000839 Ry

     The total energy is the sum of the following terms:

     one-electron contribution =    -173.94469566 Ry
     hartree contribution      =     280.28121210 Ry
     xc contribution           =    -238.90280438 Ry
     ewald contribution        =   -2252.52580599 Ry
     smearing contrib. (-TS)   =      -0.54415853 Ry

     convergence has been achieved in  11 iterations

     Forces acting on atoms (Ry/au):

     atom    1 type  1   force =     0.00000000    0.00000000    0.02966447
     atom    2 type  1   force =     0.00000000    0.00000000    0.02966447
     atom    3 type  1   force =     0.00000000    0.00000000   -0.02966447
     atom    4 type  1   force =     0.00000000    0.00000000   -0.02966447
     atom    5 type  2   force =     0.00000000    0.00000000    0.00000000
     atom    6 type  2   force =     0.00000000    0.00000000    0.00000000
     atom    7 type  2   force =     0.00000000    0.05213188    0.00000000
     atom    8 type  2   force =    -0.04514754    0.02606594    0.00000000
     atom    9 type  2   force =     0.04514754    0.02606594    0.00000000
     atom   10 type  2   force =    -0.04514754   -0.02606594    0.00000000
     atom   11 type  2   force =     0.04514754   -0.02606594    0.00000000
     atom   12 type  2   force =     0.00000000   -0.05213188    0.00000000

     Total force =     0.140806     Total SCF correction =     0.000000

     entering subroutine stress ...

          total   stress  (Ry/bohr**3)                   (kbar)     P=  760.98
   0.00505034   0.00000000   0.00000000        742.93      0.00      0.00
   0.00000000   0.00505034   0.00000000          0.00    742.93      0.00
   0.00000000   0.00000000   0.00541851          0.00      0.00    797.09

     number of scf cycles    =   2
     number of bfgs steps    =   1

     enthalpy old            =   -2385.6362523645 Ry
     enthalpy new            =   -2385.6362524558 Ry

     CASE: enthalpy_new < enthalpy_old

     WARNING: unexpected behaviour in update_inverse_hessian
              resetting bfgs history

     small trust_radius: resetting bfgs history

     new trust radius        =       0.9995036976 bohr
     new conv_thr            =       0.0000010000 Ry

     new unit-cell volume =   1960.28352 a.u.^3 (   290.48404 Ang^3 )

CELL_PARAMETERS (alat=  9.92348860)
   1.126258584   0.000000000   0.000000000
  -0.563129292   0.975368545   0.000000000
   0.000000000   0.000000000   1.826076236

ATOMIC_POSITIONS (crystal)
Mg       0.333333000   0.666667000   0.064276772
Mg       0.666667000   0.333333000   0.564276772
Mg       0.666667000   0.333333000   0.935723228
Mg       0.333333000   0.666667000   0.435723228
Zn       0.000000000   0.000000000   0.000000000
Zn       0.000000000   0.000000000   0.500000000
Zn       0.173394042   0.346788084   0.750000000
Zn       0.826605958   0.173394042   0.250000000
Zn       0.346788084   0.173394042   0.250000000
Zn       0.653211916   0.826605958   0.750000000
Zn       0.173394042   0.826605958   0.750000000
Zn       0.826605958   0.653211916   0.250000000

     Writing output data file Prototype-La-hP12-MgZn2.save
     NEW-OLD atomic charge density approx. for the potential
     NEW k-points:
        k(    1) = (   0.0000000   0.0000000   0.0000000), wk =   0.0833333
        k(    2) = (   0.0000000   0.0000000   0.1369056), wk =   0.1666667
        k(    3) = (   0.0000000   0.0000000  -0.2738111), wk =   0.0833333
        k(    4) = (   0.0000000   0.3417512   0.0000000), wk =   0.1666667
        k(    5) = (   0.0000000   0.3417512   0.1369056), wk =   0.3333333
        k(    6) = (   0.0000000   0.3417512  -0.2738111), wk =   0.1666667
        k(    7) = (  -0.4439478  -0.2563134   0.0000000), wk =   0.0833333
        k(    8) = (  -0.4439478  -0.2563134   0.1369056), wk =   0.1666667
        k(    9) = (  -0.4439478  -0.2563134  -0.2738111), wk =   0.0833333
        k(   10) = (  -0.4439478   0.0854378   0.0000000), wk =   0.1666667
        k(   11) = (  -0.4439478   0.0854378   0.1369056), wk =   0.3333333
        k(   12) = (  -0.4439478   0.0854378  -0.2738111), wk =   0.1666667

[...]

     number of scf cycles    =   3
     number of bfgs steps    =   2

     enthalpy old            =   -2385.6362524558 Ry
     enthalpy new            =   -2384.9053787567 Ry

     CASE: enthalpy_new > enthalpy_old

     new trust radius        =       0.4174472168 bohr

     trust_radius < trust_radius_min

     resetting bfgs history

     Message from routine bfgs:
     history already reset at previous step: stopping
     new conv_thr            =       0.0000010000 Ry

     new unit-cell volume =   1623.60395 a.u.^3 (   240.59328 Ang^3 )

[...]

ATOMIC_POSITIONS (crystal)
Mg       0.333333000   0.666667000   0.063180286
Mg       0.666667000   0.333333000   0.563180286
Mg       0.666667000   0.333333000   0.936819714
Mg       0.333333000   0.666667000   0.436819714
Zn       0.000000000   0.000000000   0.000000000
Zn       0.000000000   0.000000000   0.500000000
Zn       0.171625269   0.343250538   0.750000000
Zn       0.828374731   0.171625269   0.250000000
Zn       0.343250538   0.171625269   0.250000000
Zn       0.656749462   0.828374731   0.750000000
Zn       0.171625269   0.828374731   0.750000000
Zn       0.828374731   0.656749462   0.250000000

     Writing output data file Prototype-La-hP12-MgZn2.save
     NEW-OLD atomic charge density approx. for the potential
     NEW k-points:
        k(    1) = (   0.0000000   0.0000000   0.0000000), wk =   0.0833333
        k(    2) = (   0.0000000   0.0000000   0.1460850), wk =   0.1666667
        k(    3) = (   0.0000000   0.0000000  -0.2921701), wk =   0.0833333
        k(    4) = (   0.0000000   0.3635273   0.0000000), wk =   0.1666667
        k(    5) = (   0.0000000   0.3635273   0.1460850), wk =   0.3333333
        k(    6) = (   0.0000000   0.3635273  -0.2921701), wk =   0.1666667
        k(    7) = (  -0.4722359  -0.2726455   0.0000000), wk =   0.0833333
        k(    8) = (  -0.4722359  -0.2726455   0.1460850), wk =   0.1666667
        k(    9) = (  -0.4722359  -0.2726455  -0.2921701), wk =   0.0833333
        k(   10) = (  -0.4722359   0.0908818   0.0000000), wk =   0.1666667
        k(   11) = (  -0.4722359   0.0908818   0.1460850), wk =   0.3333333
        k(   12) = (  -0.4722359   0.0908818  -0.2921701), wk =   0.1666667

[...]

     The maximum number of steps has been reached.

     End of BFGS Geometry Optimization
Begin final coordinates
     new unit-cell volume =   1623.60395 a.u.^3 (   240.59328 Ang^3 )

CELL_PARAMETERS (alat=  9.92348860)
   1.058792964   0.000000000   0.000000000
  -0.529396482   0.916941605   0.000000000
   0.000000000   0.000000000   1.711331911

ATOMIC_POSITIONS (crystal)
Mg       0.333333000   0.666667000   0.063180286
Mg       0.666667000   0.333333000   0.563180286
Mg       0.666667000   0.333333000   0.936819714
Mg       0.333333000   0.666667000   0.436819714
Zn       0.000000000   0.000000000   0.000000000
Zn       0.000000000   0.000000000   0.500000000
Zn       0.171625269   0.343250538   0.750000000
Zn       0.828374731   0.171625269   0.250000000
Zn       0.343250538   0.171625269   0.250000000
Zn       0.656749462   0.828374731   0.750000000
Zn       0.171625269   0.828374731   0.750000000
Zn       0.828374731   0.656749462   0.250000000
End final coordinates

     A final scf calculation at the relaxed structure.
     The G-vectors are recalculated for the final unit cell
     Results may differ from those at the preceding step.

     bravais-lattice index     =            0
     lattice parameter (alat)  =       9.9235  a.u.
     unit-cell volume          =    1623.6040 (a.u.)^3
     number of atoms/cell      =           12
     number of atomic types    =            2
     number of electrons       =       212.00
     number of Kohn-Sham states=          127
     kinetic-energy cutoff     =      40.0000  Ry
     charge density cutoff     =     160.0000  Ry
     convergence threshold     =      1.0E-06
     mixing beta               =       0.7000
     number of iterations used =            8  plain     mixing
     Exchange-correlation      = SLA-PZ-NOGX-NOGC ( 1 1 0 0 0)
     EXX-fraction              =        0.00

     celldm(1)=   9.923489  celldm(2)=   0.000000  celldm(3)=   0.000000
     celldm(4)=   0.000000  celldm(5)=   0.000000  celldm(6)=   0.000000

     crystal axes: (cart. coord. in units of alat)
               a(1) = (   1.058793   0.000000   0.000000 )
               a(2) = (  -0.529396   0.916942   0.000000 )
               a(3) = (   0.000000   0.000000   1.711332 )

     reciprocal axes: (cart. coord. in units 2 pi/alat)
               b(1) = (  0.944472  0.545291  0.000000 )
               b(2) = (  0.000000  1.090582  0.000000 )
               b(3) = (  0.000000  0.000000  0.584340 )

     PseudoPot. # 1 for Ho read from file:
     /home/cwx6513/pp.La/Ho.UPF
     MD5 check sum: f307ee11bce99f5b724fa279e3790763
     Pseudo is Norm-conserving, Zval = 21.0
     Generated in analytical, separable form
     Using radial grid of 1265 points,  6 beta functions with:
                l(1) =   0
                l(2) =   0
                l(3) =   1
                l(4) =   1
                l(5) =   2
                l(6) =   3

     PseudoPot. # 2 for Sm read from file:
     /home/cwx6513/pp.La/Sm.UPF
     MD5 check sum: 5079e8b144a06bfcdbc14fb02b96ab09
     Pseudo is Norm-conserving, Zval = 16.0
     Generated in analytical, separable form
     Using radial grid of 1259 points,  6 beta functions with:
                l(1) =   0
                l(2) =   0
                l(3) =   1
                l(4) =   1
                l(5) =   2
                l(6) =   3

     atomic species   valence    mass     pseudopotential
        Mg            21.00    24.30500     Ho( 1.00)
        Zn            16.00    65.39000     Sm( 1.00)

     24 Sym. Ops., with inversion, found (12 have fractional translation)

   Cartesian axes

     site n.     atom                  positions (alat units)
         1           Mg  tau(   1) = (  -0.0000005   0.6112947   0.1081224  )
         2           Mg  tau(   2) = (   0.5293970   0.3056469   0.9637884  )
         3           Mg  tau(   3) = (   0.5293970   0.3056469   1.6032095  )
         4           Mg  tau(   4) = (  -0.0000005   0.6112947   0.7475435  )
         5           Zn  tau(   5) = (   0.0000000   0.0000000   0.0000000  )
         6           Zn  tau(   6) = (   0.0000000   0.0000000   0.8556660  )
         7           Zn  tau(   7) = (   0.0000000   0.3147407   1.2834989  )
         8           Zn  tau(   8) = (   0.7862195   0.1573703   0.4278330  )
         9           Zn  tau(   9) = (   0.2725734   0.1573703   0.4278330  )
        10           Zn  tau(  10) = (   0.2568230   0.7595713   1.2834989  )
        11           Zn  tau(  11) = (  -0.2568230   0.7595713   1.2834989  )
        12           Zn  tau(  12) = (   0.5293965   0.6022009   0.4278330  )

     number of k points=    12  gaussian smearing, width (Ry)=  0.1000
                       cart. coord. in units 2pi/alat
        k(    1) = (   0.0000000   0.0000000   0.0000000), wk =   0.0833333
        k(    2) = (   0.0000000   0.0000000   0.1460850), wk =   0.1666667
        k(    3) = (   0.0000000   0.0000000  -0.2921701), wk =   0.0833333
        k(    4) = (   0.0000000   0.3635273   0.0000000), wk =   0.1666667
        k(    5) = (   0.0000000   0.3635273   0.1460850), wk =   0.3333333
        k(    6) = (   0.0000000   0.3635273  -0.2921701), wk =   0.1666667
        k(    7) = (  -0.4722359  -0.2726455   0.0000000), wk =   0.0833333
        k(    8) = (  -0.4722359  -0.2726455   0.1460850), wk =   0.1666667
        k(    9) = (  -0.4722359  -0.2726455  -0.2921701), wk =   0.0833333
        k(   10) = (  -0.4722359   0.0908818   0.0000000), wk =   0.1666667
        k(   11) = (  -0.4722359   0.0908818   0.1460850), wk =   0.3333333
        k(   12) = (  -0.4722359   0.0908818  -0.2921701), wk =   0.1666667

     Largest allocated arrays     est. size (Mb)     dimensions
     Largest temporary arrays     est. size (Mb)     dimensions

     Initial potential from superposition of free atoms

     Starting from uniform charge
     Starting wfc are    0 randomized atomic wfcs

     Writing output data file Prototype-La-hP12-MgZn2.save

     Self-consistent Calculation

[...]

     iteration # 11     ecut=    40.00 Ry     beta=0.70
     CG style diagonalization
     c_bands:  1 eigenvalues not converged
     c_bands:  1 eigenvalues not converged
     ethr =  4.64E-07,  avg # of iterations =  4.5

[...]

     total energy              =   -2387.03025246 Ry
     Harris-Foulkes estimate   =   -2387.03025329 Ry
     estimated scf accuracy    <       0.00000310 Ry

     iteration # 14     ecut=    40.00 Ry     beta=0.70
     CG style diagonalization
     ethr =  1.46E-09,  avg # of iterations =  3.2

     End of self-consistent calculation

[...]

          k = 0.0000 0.3635-0.2922 (  6944 PWs)   bands (ev):

[...]

          k =-0.4722 0.0909-0.2922 (  6930 PWs)   bands (ev):

   -66.8146 -66.8146 -66.8128 -66.8128 -33.0192 -33.0192 -32.8983 -32.8983
   -32.7078 -32.7078 -32.6905 -32.6905 -30.9525 -30.9525 -30.9385 -30.9385
   -30.9294 -30.9294 -30.9266 -30.9266 -30.9240 -30.9240 -30.9175 -30.9174
    -9.3444  -9.3444  -8.8734  -8.8734  -8.4787  -8.4787  -8.4416  -8.4416
    -8.3433  -8.3433  -8.2035  -8.2035  -7.9240  -7.9240  -7.7341  -7.7341
    -7.6013  -7.6013  -7.5199  -7.5199  -7.3262  -7.3262  -7.2632  -7.2632
    12.6436  12.6436  12.6699  12.6699  12.7354  12.7354  12.8836  12.8836
    12.9451  12.9451  13.0969  13.0969  13.1717  13.1717  13.2285  13.2285
    13.4116  13.4116  13.4821  13.4821  16.9319  16.9319  17.6348  17.6348
    18.5383  18.5383  19.2324  19.2324  19.5220  19.5221  19.7539  19.7539
    19.9408  19.9408  20.2434  20.2434  20.6580  20.6580  20.7532  20.7532
    21.0798  21.0798  21.8586  21.8586  22.0896  22.0896  22.4359  22.4359
    22.7270  22.7270  22.9827  22.9827  23.3561  23.3561  23.7178  23.7178
    24.1980  24.1980  24.5715  24.5716  24.8722  24.8722  25.7020  25.7020
    26.4564  26.4564  27.0279  27.0280  27.7810  27.7810  28.2897  28.2897
    29.0555  29.0555  30.1442  30.1442  31.4477  31.4478  31.9355

     the Fermi energy is    24.7133 ev

!    total energy              =   -2387.03025294 Ry
     Harris-Foulkes estimate   =   -2387.03025296 Ry
     estimated scf accuracy    <       0.00000003 Ry

     The total energy is the sum of the following terms:

     one-electron contribution =    -356.89141821 Ry
     hartree contribution      =     330.11657912 Ry
     xc contribution           =    -235.44665532 Ry
     ewald contribution        =   -2124.14924143 Ry
     smearing contrib. (-TS)   =      -0.65951711 Ry

     convergence has been achieved in  14 iterations

     Forces acting on atoms (Ry/au):

     atom    1 type  1   force =     0.00000000    0.00000000    0.01063367
     atom    2 type  1   force =     0.00000000    0.00000000    0.01063367
     atom    3 type  1   force =     0.00000000    0.00000000   -0.01063367
     atom    4 type  1   force =     0.00000000    0.00000000   -0.01063367
     atom    5 type  2   force =     0.00000000    0.00000000    0.00000000
     atom    6 type  2   force =     0.00000000    0.00000000    0.00000000
     atom    7 type  2   force =     0.00000000   -0.00133656    0.00000000
     atom    8 type  2   force =     0.00115750   -0.00066828    0.00000000
     atom    9 type  2   force =    -0.00115750   -0.00066828    0.00000000
     atom   10 type  2   force =     0.00115750    0.00066828    0.00000000
     atom   11 type  2   force =    -0.00115750    0.00066828    0.00000000
     atom   12 type  2   force =     0.00000000    0.00133656    0.00000000

     Total force =     0.021518     Total SCF correction =     0.000000

     entering subroutine stress ...

          total   stress  (Ry/bohr**3)                   (kbar)     P=   23.20
   0.00013130   0.00000000   0.00000000         19.32      0.00      0.00
   0.00000000   0.00013130   0.00000000          0.00     19.32      0.00
   0.00000000   0.00000000   0.00021050          0.00      0.00     30.97

     Writing output data file Prototype-La-hP12-MgZn2.save

     General routines

     Parallel routines

   This run was terminated on:   1:35:48  23Mar2018

   JOB DONE.