     Program PWSCF v.5.0.2 starts on 23Mar2018 at  2:19:40

     Current dimensions of program PWSCF are:
     Max number of different atomic species (ntypx) = 10
     Max number of k-points (npk) =  40000
     Max angular momentum in pseudopotentials (lmaxx) =  3
     Waiting for input...
     Reading input from standard input

     Subspace diagonalization in iterative solution of the eigenvalue problem:
     a serial algorithm will be used

     bravais-lattice index     =            0
     lattice parameter (alat)  =       7.0151  a.u.
     unit-cell volume          =     862.2778 (a.u.)^3
     number of atoms/cell      =           12
     number of atomic types    =            2
     number of electrons       =       216.00
     number of Kohn-Sham states=          130
     kinetic-energy cutoff     =      40.0000  Ry
     charge density cutoff     =     160.0000  Ry
     convergence threshold     =      1.0E-04
     mixing beta               =       0.7000
     number of iterations used =            8  plain     mixing
     Exchange-correlation      = SLA-PZ-NOGX-NOGC ( 1 1 0 0 0)
     EXX-fraction              =        0.00
     nstep                     =           50

     celldm(1)=   7.015105  celldm(2)=   0.000000  celldm(3)=   0.000000
     celldm(4)=   0.000000  celldm(5)=   0.000000  celldm(6)=   0.000000

     crystal axes: (cart. coord. in units of alat)
               a(1) = (   1.000000   0.000000   0.000000 )
               a(2) = (   0.000000   1.315963   0.000000 )
               a(3) = (   0.000000   0.000000   1.898020 )

     reciprocal axes: (cart. coord. in units 2 pi/alat)
               b(1) = (  1.000000  0.000000  0.000000 )
               b(2) = (  0.000000  0.759900  0.000000 )
               b(3) = (  0.000000  0.000000  0.526865 )

     PseudoPot. # 1 for Dy read from file:
     /home/cwx6513/pp.La/Dy.UPF
     MD5 check sum: 9597327bec62616a94a14d07f3fd9936
     Pseudo is Norm-conserving, Zval = 20.0
     Generated in analytical, separable form
     Using radial grid of 1265 points,  6 beta functions with:
                l(1) =   0
                l(2) =   0
                l(3) =   1
                l(4) =   1
                l(5) =   2
                l(6) =   3

     PseudoPot. # 2 for Nd read from file:
     /home/cwx6513/pp.La/Nd.UPF
     MD5 check sum: c66c5b6abe7b5840ced9b1e244e3bed6
     Pseudo is Norm-conserving, Zval = 14.0
     Generated in analytical, separable form
     Using radial grid of 1257 points,  6 beta functions with:
                l(1) =   0
                l(2) =   0
                l(3) =   1
                l(4) =   1
                l(5) =   2
                l(6) =   3

     atomic species   valence    mass     pseudopotential
        Co            20.00    58.93320     Dy( 1.00)
        Si            14.00    28.08550     Nd( 1.00)

      8 Sym. Ops., with inversion, found ( 6 have fractional translation)

   Cartesian axes

     site n.     atom                  positions (alat units)
         1           Co  tau(   1) = (   0.7500000   1.0875135   0.8270358  )
         2           Co  tau(   2) = (   0.2500000   0.2284499   1.0709846  )
         3           Co  tau(   3) = (   0.7500000   0.4295318   0.1219744  )
         4           Co  tau(   4) = (   0.2500000   0.8864316   1.7760460  )
         5           Co  tau(   5) = (   0.2500000   0.7067855   0.5358966  )
         6           Co  tau(   6) = (   0.7500000   0.6091779   1.3621238  )
         7           Co  tau(   7) = (   0.2500000   0.0488038   0.4131136  )
         8           Co  tau(   8) = (   0.7500000   1.2671596   1.4849068  )
         9           Si  tau(   9) = (   0.2500000   0.2669484   1.6960710  )
        10           Si  tau(  10) = (   0.7500000   1.0490149   0.2019494  )
        11           Si  tau(  11) = (   0.2500000   0.9249301   1.1509596  )
        12           Si  tau(  12) = (   0.7500000   0.3910333   0.7470608  )

     number of k points=    12  gaussian smearing, width (Ry)=  0.1000
                       cart. coord. in units 2pi/alat
        k(    1) = (   0.0000000   0.0000000   0.0000000), wk =   0.0833333
        k(    2) = (   0.0000000   0.0000000   0.1317162), wk =   0.1666667
        k(    3) = (   0.0000000   0.0000000  -0.2634324), wk =   0.0833333
        k(    4) = (   0.0000000   0.2532999   0.0000000), wk =   0.1666667
        k(    5) = (   0.0000000   0.2532999   0.1317162), wk =   0.3333333
        k(    6) = (   0.0000000   0.2532999  -0.2634324), wk =   0.1666667
        k(    7) = (  -0.5000000   0.0000000   0.0000000), wk =   0.0833333
        k(    8) = (  -0.5000000   0.0000000   0.1317162), wk =   0.1666667
        k(    9) = (  -0.5000000   0.0000000  -0.2634324), wk =   0.0833333
        k(   10) = (  -0.5000000   0.2532999   0.0000000), wk =   0.1666667
        k(   11) = (  -0.5000000   0.2532999   0.1317162), wk =   0.3333333
        k(   12) = (  -0.5000000   0.2532999  -0.2634324), wk =   0.1666667

     Largest allocated arrays     est. size (Mb)     dimensions
     Largest temporary arrays     est. size (Mb)     dimensions

     Initial potential from superposition of free atoms

     Starting from uniform charge
     Starting wfc are    0 randomized atomic wfcs

     Self-consistent Calculation

     iteration #  1     ecut=    40.00 Ry     beta=0.70
     CG style diagonalization
     c_bands:  4 eigenvalues not converged
     c_bands:  2 eigenvalues not converged
     c_bands:  3 eigenvalues not converged
     c_bands:  4 eigenvalues not converged
     ethr =  1.00E-02,  avg # of iterations = 15.1

     total energy              =   -2156.38064214 Ry
     Harris-Foulkes estimate   =   -2829.15928177 Ry
     estimated scf accuracy    <     850.24428879 Ry

[...]

     iteration #  4     ecut=    40.00 Ry     beta=0.70
     CG style diagonalization
     ethr =  1.00E-02,  avg # of iterations =  3.2

[...]

     End of self-consistent calculation

          k = 0.0000 0.0000 0.0000 (  3675 PWs)   bands (ev):

   -36.1780 -36.0351 -35.9215 -35.8605 -35.8207 -35.7802 -35.7628 -35.7534
    -4.8851  -4.5208  -4.2676  -4.1837  -4.0836  -3.9582  -3.8235  -3.6372
    -3.6169  -3.4962  -3.4706  -3.2674  -3.2245  -3.1433  -3.1249  -3.1239
    -2.9672  -2.9542  -2.8274  -2.8106  -2.7856  -2.5873  -2.4321  -2.3430
     0.8889   1.4390   1.6221   1.6555  20.0216  20.4376  20.5070  20.5572
    20.8462  21.0145  21.0243  21.2362  21.2798  21.5555  21.9361  22.4185
    31.4953  31.7830  32.0946  32.1382  32.2306  32.3603  32.5588  33.1382
    33.6466  34.0858  34.3293  34.7921  34.9167  35.1347  35.3553  36.1926
    36.2364  36.3193  36.5393  36.7045  36.7265  36.7296  37.4238  37.5240
    37.6871  37.8762  38.0635  38.5381  38.6736  39.0591  39.3695  39.8617
    39.9400  40.1683  40.3865  40.4983  40.5092  40.9304  40.9931  41.2103
    42.0721  42.1386  43.6652  44.1622  45.4805  45.7951  46.0713  46.9407
    47.0105  47.0145  47.2562  47.7928  48.8073  49.2335  49.7031  49.8781
    49.9036  50.7918  50.9583  51.5662  51.8032  51.9910  52.0245  52.6789
    52.8151  53.4372  54.0849  54.9898  55.4274  55.4461  55.5661  56.1697
    56.2082  56.8572  57.5012  57.8951  57.9991  58.0304  58.1877  58.9388
    59.2123  59.2874

[...]

          k =-0.5000 0.0000 0.0000 (  3722 PWs)   bands (ev):

[...]

     the Fermi energy is    50.7196 ev

!    total energy              =   -2511.14280328 Ry
     Harris-Foulkes estimate   =   -2511.14280791 Ry
     estimated scf accuracy    <       0.00000536 Ry

     The total energy is the sum of the following terms:

     one-electron contribution =     290.11634067 Ry
     hartree contribution      =     194.21547058 Ry
     xc contribution           =    -260.30582015 Ry
     ewald contribution        =   -2734.79731219 Ry
     smearing contrib. (-TS)   =      -0.37148219 Ry

     convergence has been achieved in  11 iterations

     Forces acting on atoms (Ry/au):

     atom    1 type  1   force =     0.00000000   -0.08683711   -0.06846506
     atom    2 type  1   force =     0.00000000    0.08683711    0.06846506
     atom    3 type  1   force =     0.00000000   -0.08683711    0.06846506
     atom    4 type  1   force =     0.00000000    0.08683711   -0.06846506
     atom    5 type  1   force =     0.00000000    0.17100275   -0.24887806
     atom    6 type  1   force =     0.00000000   -0.17100275    0.24887806
     atom    7 type  1   force =     0.00000000    0.17100275    0.24887806
     atom    8 type  1   force =     0.00000000   -0.17100275   -0.24887806
     atom    9 type  2   force =     0.00000000   -0.17866896    0.03263345
     atom   10 type  2   force =     0.00000000    0.17866896   -0.03263345
     atom   11 type  2   force =     0.00000000   -0.17866896   -0.03263345
     atom   12 type  2   force =     0.00000000    0.17866896    0.03263345

     Total force =     0.738642     Total SCF correction =     0.000000

     entering subroutine stress ...

          total   stress  (Ry/bohr**3)                   (kbar)     P= 7194.01
   0.05233637   0.00000000   0.00000000       7698.94      0.00      0.00
   0.00000000   0.04620879   0.00000000          0.00   6797.55      0.00
   0.00000000   0.00000000   0.04816654          0.00      0.00   7085.54

     BFGS Geometry Optimization

     number of scf cycles    =   1
     number of bfgs steps    =   0

     enthalpy new            =   -2511.1428032808 Ry

     new trust radius        =       0.5000000000 bohr
     new conv_thr            =       0.0001000000 Ry

     new unit-cell volume =   1084.84934 a.u.^3 (   160.75808 Ang^3 )

CELL_PARAMETERS (alat=  7.01510508)
   1.085136619   0.000000000   0.000000000
   0.000000000   1.414882737   0.000000000
   0.000000000   0.000000000   2.046736900

ATOMIC_POSITIONS (crystal)
Co       0.750000000   0.825788931   0.435401415
Co       0.250000000   0.174211069   0.564598585
Co       0.750000000   0.325788931   0.064598585
Co       0.250000000   0.674211069   0.935401415
Co       0.250000000   0.538291308   0.281128746
Co       0.750000000   0.461708692   0.718871254
Co       0.250000000   0.038291308   0.218871254
Co       0.750000000   0.961708692   0.781128746
Si       0.250000000   0.201594657   0.893759478
Si       0.750000000   0.798405343   0.106240522
Si       0.250000000   0.701594657   0.606240522
Si       0.750000000   0.298405343   0.393759478

     Writing output data file Prototype-La-oP12-Co2Si.save
     NEW-OLD atomic charge density approx. for the potential
     NEW k-points:
        k(    1) = (   0.0000000   0.0000000   0.0000000), wk =   0.0833333
        k(    2) = (   0.0000000   0.0000000   0.1221456), wk =   0.1666667
        k(    3) = (   0.0000000   0.0000000  -0.2442913), wk =   0.0833333
        k(    4) = (   0.0000000   0.2355908   0.0000000), wk =   0.1666667
        k(    5) = (   0.0000000   0.2355908   0.1221456), wk =   0.3333333
        k(    6) = (   0.0000000   0.2355908  -0.2442913), wk =   0.1666667
        k(    7) = (  -0.4607715   0.0000000   0.0000000), wk =   0.0833333
        k(    8) = (  -0.4607715   0.0000000   0.1221456), wk =   0.1666667
        k(    9) = (  -0.4607715   0.0000000  -0.2442913), wk =   0.0833333
        k(   10) = (  -0.4607715   0.2355908   0.0000000), wk =   0.1666667
        k(   11) = (  -0.4607715   0.2355908   0.1221456), wk =   0.3333333
        k(   12) = (  -0.4607715   0.2355908  -0.2442913), wk =   0.1666667

[...]

     enthalpy old            =   -2511.1428032808 Ry
     enthalpy new            =   -2517.9769705455 Ry

     CASE: enthalpy_new < enthalpy_old

     small trust_radius: resetting bfgs history

     new trust radius        =       2.9636655470 bohr
     new conv_thr            =       0.0001000000 Ry

[...]

          total   stress  (Ry/bohr**3)                   (kbar)     P=-2030.75
  -0.01505737   0.00000000   0.00000000      -2215.02      0.00      0.00
   0.00000000  -0.01283830   0.00000000          0.00  -1888.58      0.00
   0.00000000   0.00000000  -0.01351850          0.00      0.00  -1988.64

     number of scf cycles    =   3
     number of bfgs steps    =   2

     enthalpy old            =   -2517.9769705455 Ry
     enthalpy new            =   -2502.5767634062 Ry

     CASE: enthalpy_new > enthalpy_old

     new trust radius        =       1.0184257053 bohr

     trust_radius < trust_radius_min

     resetting bfgs history

     Message from routine bfgs:
     history already reset at previous step: stopping
     new conv_thr            =       0.0001000000 Ry

     new unit-cell volume =   1282.09678 a.u.^3 (   189.98714 Ang^3 )

[...]

ATOMIC_POSITIONS (crystal)
Co       0.750000000   0.825273842   0.435211841
Co       0.250000000   0.174726158   0.564788159
Co       0.750000000   0.325273842   0.064788159
Co       0.250000000   0.674726158   0.935211841
Co       0.250000000   0.539290564   0.279984395
Co       0.750000000   0.460709436   0.720015605
Co       0.250000000   0.039290564   0.220015605
Co       0.750000000   0.960709436   0.779984395
Si       0.250000000   0.200490142   0.893975146
Si       0.750000000   0.799509858   0.106024854
Si       0.250000000   0.700490142   0.606024854
Si       0.750000000   0.299509858   0.393975146

     Writing output data file Prototype-La-oP12-Co2Si.save
     NEW-OLD atomic charge density approx. for the potential
     NEW k-points:
        k(    1) = (   0.0000000   0.0000000   0.0000000), wk =   0.0833333
        k(    2) = (   0.0000000   0.0000000   0.1156843), wk =   0.1666667
        k(    3) = (   0.0000000   0.0000000  -0.2313686), wk =   0.0833333
        k(    4) = (   0.0000000   0.2242784   0.0000000), wk =   0.1666667
        k(    5) = (   0.0000000   0.2242784   0.1156843), wk =   0.3333333
        k(    6) = (   0.0000000   0.2242784  -0.2313686), wk =   0.1666667
        k(    7) = (  -0.4324230   0.0000000   0.0000000), wk =   0.0833333
        k(    8) = (  -0.4324230   0.0000000   0.1156843), wk =   0.1666667
        k(    9) = (  -0.4324230   0.0000000  -0.2313686), wk =   0.0833333
        k(   10) = (  -0.4324230   0.2242784   0.0000000), wk =   0.1666667
        k(   11) = (  -0.4324230   0.2242784   0.1156843), wk =   0.3333333
        k(   12) = (  -0.4324230   0.2242784  -0.2313686), wk =   0.1666667

[...]

     The maximum number of steps has been reached.

     End of BFGS Geometry Optimization
Begin final coordinates
     new unit-cell volume =   1282.09678 a.u.^3 (   189.98714 Ang^3 )

CELL_PARAMETERS (alat=  7.01510508)
   1.156275317   0.000000000   0.000000000
   0.000000000   1.486248348   0.000000000
   0.000000000   0.000000000   2.161054045

ATOMIC_POSITIONS (crystal)
Co       0.750000000   0.825273842   0.435211841
Co       0.250000000   0.174726158   0.564788159
Co       0.750000000   0.325273842   0.064788159
Co       0.250000000   0.674726158   0.935211841
Co       0.250000000   0.539290564   0.279984395
Co       0.750000000   0.460709436   0.720015605
Co       0.250000000   0.039290564   0.220015605
Co       0.750000000   0.960709436   0.779984395
Si       0.250000000   0.200490142   0.893975146
Si       0.750000000   0.799509858   0.106024854
Si       0.250000000   0.700490142   0.606024854
Si       0.750000000   0.299509858   0.393975146
End final coordinates

     A final scf calculation at the relaxed structure.
     The G-vectors are recalculated for the final unit cell
     Results may differ from those at the preceding step.

     bravais-lattice index     =            0
     lattice parameter (alat)  =       7.0151  a.u.
     unit-cell volume          =    1282.0968 (a.u.)^3
     number of atoms/cell      =           12
     number of atomic types    =            2
     number of electrons       =       216.00
     number of Kohn-Sham states=          130
     kinetic-energy cutoff     =      40.0000  Ry
     charge density cutoff     =     160.0000  Ry
     convergence threshold     =      1.0E-04
     mixing beta               =       0.7000
     number of iterations used =            8  plain     mixing
     Exchange-correlation      = SLA-PZ-NOGX-NOGC ( 1 1 0 0 0)
     EXX-fraction              =        0.00

     celldm(1)=   7.015105  celldm(2)=   0.000000  celldm(3)=   0.000000
     celldm(4)=   0.000000  celldm(5)=   0.000000  celldm(6)=   0.000000

     crystal axes: (cart. coord. in units of alat)
               a(1) = (   1.156275   0.000000   0.000000 )
               a(2) = (   0.000000   1.486248   0.000000 )
               a(3) = (   0.000000   0.000000   2.161054 )

     reciprocal axes: (cart. coord. in units 2 pi/alat)
               b(1) = (  0.864846  0.000000  0.000000 )
               b(2) = (  0.000000  0.672835  0.000000 )
               b(3) = (  0.000000  0.000000  0.462737 )

     PseudoPot. # 1 for Dy read from file:
     /home/cwx6513/pp.La/Dy.UPF
     MD5 check sum: 9597327bec62616a94a14d07f3fd9936
     Pseudo is Norm-conserving, Zval = 20.0
     Generated in analytical, separable form
     Using radial grid of 1265 points,  6 beta functions with:
                l(1) =   0
                l(2) =   0
                l(3) =   1
                l(4) =   1
                l(5) =   2
                l(6) =   3

     PseudoPot. # 2 for Nd read from file:
     /home/cwx6513/pp.La/Nd.UPF
     MD5 check sum: c66c5b6abe7b5840ced9b1e244e3bed6
     Pseudo is Norm-conserving, Zval = 14.0
     Generated in analytical, separable form
     Using radial grid of 1257 points,  6 beta functions with:
                l(1) =   0
                l(2) =   0
                l(3) =   1
                l(4) =   1
                l(5) =   2
                l(6) =   3

     atomic species   valence    mass     pseudopotential
        Co            20.00    58.93320     Dy( 1.00)
        Si            14.00    28.08550     Nd( 1.00)

      8 Sym. Ops., with inversion, found ( 6 have fractional translation)

   Cartesian axes

     site n.     atom                  positions (alat units)
         1           Co  tau(   1) = (   0.8672065   1.2265619   0.9405163  )
         2           Co  tau(   2) = (   0.2890688   0.2596865   1.2205377  )
         3           Co  tau(   3) = (   0.8672065   0.4834377   0.1400107  )
         4           Co  tau(   4) = (   0.2890688   1.0028106   2.0210433  )
         5           Co  tau(   5) = (   0.2890688   0.8015197   0.6050614  )
         6           Co  tau(   6) = (   0.8672065   0.6847286   1.5559926  )
         7           Co  tau(   7) = (   0.2890688   0.0583955   0.4754656  )
         8           Co  tau(   8) = (   0.8672065   1.4278528   1.6855884  )
         9           Si  tau(   9) = (   0.2890688   0.2979781   1.9319286  )
        10           Si  tau(  10) = (   0.8672065   1.1882702   0.2291254  )
        11           Si  tau(  11) = (   0.2890688   1.0411023   1.3096525  )
        12           Si  tau(  12) = (   0.8672065   0.4451460   0.8514016  )

     number of k points=    12  gaussian smearing, width (Ry)=  0.1000
                       cart. coord. in units 2pi/alat
        k(    1) = (   0.0000000   0.0000000   0.0000000), wk =   0.0833333
        k(    2) = (   0.0000000   0.0000000   0.1156843), wk =   0.1666667
        k(    3) = (   0.0000000   0.0000000  -0.2313686), wk =   0.0833333
        k(    4) = (   0.0000000   0.2242784   0.0000000), wk =   0.1666667
        k(    5) = (   0.0000000   0.2242784   0.1156843), wk =   0.3333333
        k(    6) = (   0.0000000   0.2242784  -0.2313686), wk =   0.1666667
        k(    7) = (  -0.4324230   0.0000000   0.0000000), wk =   0.0833333
        k(    8) = (  -0.4324230   0.0000000   0.1156843), wk =   0.1666667
        k(    9) = (  -0.4324230   0.0000000  -0.2313686), wk =   0.0833333
        k(   10) = (  -0.4324230   0.2242784   0.0000000), wk =   0.1666667
        k(   11) = (  -0.4324230   0.2242784   0.1156843), wk =   0.3333333
        k(   12) = (  -0.4324230   0.2242784  -0.2313686), wk =   0.1666667

     Largest allocated arrays     est. size (Mb)     dimensions
     Largest temporary arrays     est. size (Mb)     dimensions

     Initial potential from superposition of free atoms

     Starting from uniform charge
     Starting wfc are    0 randomized atomic wfcs

     Writing output data file Prototype-La-oP12-Co2Si.save

     Self-consistent Calculation

[...]

     iteration #  6     ecut=    40.00 Ry     beta=0.70
     CG style diagonalization
     ethr =  1.32E-03,  avg # of iterations =  4.1

[...]

     total energy              =   -2523.16694771 Ry
     Harris-Foulkes estimate   =   -2523.16743091 Ry
     estimated scf accuracy    <       0.00092220 Ry

     iteration # 10     ecut=    40.00 Ry     beta=0.70
     CG style diagonalization
     c_bands:  1 eigenvalues not converged
     c_bands:  1 eigenvalues not converged
     c_bands:  1 eigenvalues not converged
     ethr =  4.27E-07,  avg # of iterations =  3.7

     End of self-consistent calculation

[...]

          k = 0.0000 0.2243-0.2314 (  5474 PWs)   bands (ev):

[...]

          k =-0.4324 0.2243-0.2314 (  5504 PWs)   bands (ev):

   -51.0914 -51.0914 -51.0888 -51.0888 -51.0490 -51.0490 -51.0313 -51.0313
   -18.3795 -18.3795 -18.3027 -18.3027 -18.2757 -18.2757 -18.2260 -18.2260
   -18.2132 -18.2132 -18.1047 -18.1047 -18.0366 -18.0366 -17.9902 -17.9902
   -17.9782 -17.9782 -17.9635 -17.9635 -17.9305 -17.9305 -17.8994 -17.8994
   -15.0135 -15.0135 -14.9986 -14.9986   5.7577   5.7577   5.8379   5.8379
     5.9522   5.9522   5.9550   5.9550   6.1833   6.1833   6.2138   6.2138
    20.4482  20.4482  20.8896  20.8896  21.0600  21.0600  21.3460  21.3460
    21.3616  21.3616  21.5363  21.5363  21.5566  21.5566  22.0635  22.0635
    22.1218  22.1218  22.3172  22.3172  22.3382  22.3382  22.7957  22.7957
    22.8888  22.8888  23.0379  23.0379  23.1633  23.1633  23.2988  23.2988
    23.6384  23.6384  24.2457  24.2457  24.3068  24.3068  24.7777  24.7777
    25.9351  25.9351  26.2367  26.2367  28.1937  28.1937  29.0627  29.0627
    30.1380  30.1380  30.1566  30.1566  30.6540  30.6540  31.3044  31.3044
    32.0680  32.0680  32.1599  32.1599  32.5909  32.5909  32.8191  32.8191
    34.3932  34.3932  35.0699  35.0699  35.7280  35.7281  37.4206  37.4206
    38.2166  38.2166  39.7416  39.7417  40.1154  40.1155  40.7095  40.7096
    40.7385  40.7384

     the Fermi energy is    32.7761 ev

!    total energy              =   -2523.16715081 Ry
     Harris-Foulkes estimate   =   -2523.16717790 Ry
     estimated scf accuracy    <       0.00003299 Ry

     The total energy is the sum of the following terms:

     one-electron contribution =    -178.10131798 Ry
     hartree contribution      =     300.92079739 Ry
     xc contribution           =    -249.05593085 Ry
     ewald contribution        =   -2396.45181444 Ry
     smearing contrib. (-TS)   =      -0.47888492 Ry

     convergence has been achieved in  10 iterations

     Forces acting on atoms (Ry/au):

     atom    1 type  1   force =     0.00000000   -0.04451670    0.00341809
     atom    2 type  1   force =     0.00000000    0.04451670   -0.00341809
     atom    3 type  1   force =     0.00000000   -0.04451670   -0.00341809
     atom    4 type  1   force =     0.00000000    0.04451670    0.00341809
     atom    5 type  1   force =     0.00000000    0.05785215   -0.09494347
     atom    6 type  1   force =     0.00000000   -0.05785215    0.09494347
     atom    7 type  1   force =     0.00000000    0.05785215    0.09494347
     atom    8 type  1   force =     0.00000000   -0.05785215   -0.09494347
     atom    9 type  2   force =     0.00000000   -0.07442946    0.02896919
     atom   10 type  2   force =     0.00000000    0.07442946   -0.02896919
     atom   11 type  2   force =     0.00000000   -0.07442946   -0.02896919
     atom   12 type  2   force =     0.00000000    0.07442946    0.02896919

     Total force =     0.287983     Total SCF correction =     0.000000

     entering subroutine stress ...

          total   stress  (Ry/bohr**3)                   (kbar)     P= 1214.79
   0.00907018   0.00000000   0.00000000       1334.27      0.00      0.00
   0.00000000   0.00760392   0.00000000          0.00   1118.57      0.00
   0.00000000   0.00000000   0.00809987          0.00      0.00   1191.53

     Writing output data file Prototype-La-oP12-Co2Si.save

     General routines

     Parallel routines

   This run was terminated on:   3: 2:53  23Mar2018

   JOB DONE.