     Program PWSCF v.5.0.2 starts on 22Mar2018 at 21:16:41

     Current dimensions of program PWSCF are:
     Max number of different atomic species (ntypx) = 10
     Max number of k-points (npk) =  40000
     Max angular momentum in pseudopotentials (lmaxx) =  3
     Waiting for input...
     Reading input from standard input

     Subspace diagonalization in iterative solution of the eigenvalue problem:
     a serial algorithm will be used

     bravais-lattice index     =            0
     lattice parameter (alat)  =       8.5346  a.u.
     unit-cell volume          =     621.6493 (a.u.)^3
     number of atoms/cell      =            8
     number of atomic types    =            2
     number of electrons       =       148.00
     number of Kohn-Sham states=           89
     kinetic-energy cutoff     =      40.0000  Ry
     charge density cutoff     =     160.0000  Ry
     convergence threshold     =      1.0E-04
     mixing beta               =       0.7000
     number of iterations used =            8  plain     mixing
     Exchange-correlation      = SLA-PZ-NOGX-NOGC ( 1 1 0 0 0)
     EXX-fraction              =        0.00
     nstep                     =           50

     celldm(1)=   8.534573  celldm(2)=   0.000000  celldm(3)=   0.000000
     celldm(4)=   0.000000  celldm(5)=   0.000000  celldm(6)=   0.000000

     crystal axes: (cart. coord. in units of alat)
               a(1) = (   1.000000   0.000000   0.000000 )
               a(2) = (   0.000000   1.000000   0.000000 )
               a(3) = (   0.000000   0.000000   1.000000 )

     reciprocal axes: (cart. coord. in units 2 pi/alat)
               b(1) = (  1.000000  0.000000  0.000000 )
               b(2) = (  0.000000  1.000000  0.000000 )
               b(3) = (  0.000000  0.000000  1.000000 )

     PseudoPot. # 1 for Eu read from file:
     /home/cwx6513/pp.La/Eu.UPF
     MD5 check sum: 5efdbbfc50c6a10138933a6429836ad2
     Pseudo is Norm-conserving, Zval = 17.0
     Generated in analytical, separable form
     Using radial grid of 1261 points,  6 beta functions with:
                l(1) =   0
                l(2) =   0
                l(3) =   1
                l(4) =   1
                l(5) =   2
                l(6) =   3

     PseudoPot. # 2 for Tm read from file:
     /home/cwx6513/pp.La/Tm.UPF
     MD5 check sum: 245516e0878b5372ceeb9443ded2c4e1
     Pseudo is Norm-conserving, Zval = 23.0
     Generated in analytical, separable form
     Using radial grid of 1269 points,  6 beta functions with:
                l(1) =   0
                l(2) =   0
                l(3) =   1
                l(4) =   1
                l(5) =   2
                l(6) =   3

     atomic species   valence    mass     pseudopotential
        Cr            17.00    51.99610     Eu( 1.00)
        Si            23.00    28.08550     Tm( 1.00)

     48 Sym. Ops., with inversion, found (24 have fractional translation)

   Cartesian axes

     site n.     atom                  positions (alat units)
         1           Cr  tau(   1) = (   0.0000000   0.5000000   0.2500000  )
         2           Cr  tau(   2) = (   0.0000000   0.5000000   0.7500000  )
         3           Cr  tau(   3) = (   0.5000000   0.7500000   0.0000000  )
         4           Cr  tau(   4) = (   0.5000000   0.2500000   0.0000000  )
         5           Cr  tau(   5) = (   0.7500000   0.0000000   0.5000000  )
         6           Cr  tau(   6) = (   0.2500000   0.0000000   0.5000000  )
         7           Si  tau(   7) = (   0.5000000   0.5000000   0.5000000  )
         8           Si  tau(   8) = (   0.0000000   0.0000000   0.0000000  )

     number of k points=    48  gaussian smearing, width (Ry)=  0.1000
                       cart. coord. in units 2pi/alat
        k(    1) = (   0.0000000   0.0000000   0.0000000), wk =   0.0095238
        k(    2) = (   0.0000000   0.0000000   0.1428571), wk =   0.0190476
        k(    3) = (   0.0000000   0.0000000   0.2857143), wk =   0.0190476
        k(    4) = (   0.0000000   0.0000000   0.4285714), wk =   0.0190476
        k(    5) = (   0.0000000   0.1666667   0.0000000), wk =   0.0190476
        k(    6) = (   0.0000000   0.1666667   0.1428571), wk =   0.0380952
        k(    7) = (   0.0000000   0.1666667   0.2857143), wk =   0.0380952
        k(    8) = (   0.0000000   0.1666667   0.4285714), wk =   0.0380952
        k(    9) = (   0.0000000   0.3333333   0.0000000), wk =   0.0190476
        k(   10) = (   0.0000000   0.3333333   0.1428571), wk =   0.0380952
        k(   11) = (   0.0000000   0.3333333   0.2857143), wk =   0.0380952
        k(   12) = (   0.0000000   0.3333333   0.4285714), wk =   0.0380952
        k(   13) = (   0.0000000  -0.5000000   0.0000000), wk =   0.0095238
        k(   14) = (   0.0000000  -0.5000000   0.1428571), wk =   0.0190476
        k(   15) = (   0.0000000  -0.5000000   0.2857143), wk =   0.0190476
        k(   16) = (   0.0000000  -0.5000000   0.4285714), wk =   0.0190476
        k(   17) = (   0.2000000   0.0000000   0.0000000), wk =   0.0190476
        k(   18) = (   0.2000000   0.0000000   0.1428571), wk =   0.0380952
        k(   19) = (   0.2000000   0.0000000   0.2857143), wk =   0.0380952
        k(   20) = (   0.2000000   0.0000000   0.4285714), wk =   0.0380952
        k(   21) = (   0.2000000   0.1666667   0.0000000), wk =   0.0380952
        k(   22) = (   0.2000000   0.1666667   0.1428571), wk =   0.0761905
        k(   23) = (   0.2000000   0.1666667   0.2857143), wk =   0.0761905
        k(   24) = (   0.2000000   0.1666667   0.4285714), wk =   0.0761905
        k(   25) = (   0.2000000   0.3333333   0.0000000), wk =   0.0380952
        k(   26) = (   0.2000000   0.3333333   0.1428571), wk =   0.0761905
        k(   27) = (   0.2000000   0.3333333   0.2857143), wk =   0.0761905
        k(   28) = (   0.2000000   0.3333333   0.4285714), wk =   0.0761905
        k(   29) = (   0.2000000  -0.5000000   0.0000000), wk =   0.0190476
        k(   30) = (   0.2000000  -0.5000000   0.1428571), wk =   0.0380952
        k(   31) = (   0.2000000  -0.5000000   0.2857143), wk =   0.0380952
        k(   32) = (   0.2000000  -0.5000000   0.4285714), wk =   0.0380952
        k(   33) = (   0.4000000   0.0000000   0.0000000), wk =   0.0190476
        k(   34) = (   0.4000000   0.0000000   0.1428571), wk =   0.0380952
        k(   35) = (   0.4000000   0.0000000   0.2857143), wk =   0.0380952
        k(   36) = (   0.4000000   0.0000000   0.4285714), wk =   0.0380952
        k(   37) = (   0.4000000   0.1666667   0.0000000), wk =   0.0380952
        k(   38) = (   0.4000000   0.1666667   0.1428571), wk =   0.0761905
        k(   39) = (   0.4000000   0.1666667   0.2857143), wk =   0.0761905
        k(   40) = (   0.4000000   0.1666667   0.4285714), wk =   0.0761905
        k(   41) = (   0.4000000   0.3333333   0.0000000), wk =   0.0380952
        k(   42) = (   0.4000000   0.3333333   0.1428571), wk =   0.0761905
        k(   43) = (   0.4000000   0.3333333   0.2857143), wk =   0.0761905
        k(   44) = (   0.4000000   0.3333333   0.4285714), wk =   0.0761905
        k(   45) = (   0.4000000  -0.5000000   0.0000000), wk =   0.0190476
        k(   46) = (   0.4000000  -0.5000000   0.1428571), wk =   0.0380952
        k(   47) = (   0.4000000  -0.5000000   0.2857143), wk =   0.0380952
        k(   48) = (   0.4000000  -0.5000000   0.4285714), wk =   0.0380952

     Largest allocated arrays     est. size (Mb)     dimensions
     Largest temporary arrays     est. size (Mb)     dimensions

     Initial potential from superposition of free atoms

     Starting from uniform charge
     Starting wfc are    0 randomized atomic wfcs

     Self-consistent Calculation

     iteration #  1     ecut=    40.00 Ry     beta=0.70
     CG style diagonalization
     c_bands:  1 eigenvalues not converged
     c_bands:  1 eigenvalues not converged
     c_bands:  1 eigenvalues not converged
     c_bands:  1 eigenvalues not converged
     ethr =  1.00E-02,  avg # of iterations = 11.9

     total energy              =   -1299.69964568 Ry
     Harris-Foulkes estimate   =   -2095.38685294 Ry
     estimated scf accuracy    <     961.12885227 Ry

[...]

     iteration #  4     ecut=    40.00 Ry     beta=0.70
     CG style diagonalization
     ethr =  1.00E-02,  avg # of iterations =  3.5

[...]

     End of self-consistent calculation

          k = 0.0000 0.0000 0.0000 (  2601 PWs)   bands (ev):

   -65.9161 -65.8536 -24.8324 -24.8324 -24.8324 -24.7988 -24.7988 -24.7988
   -19.0569 -18.5288 -18.5288 -17.2604 -17.2604 -17.2604   4.5707   4.5707
     5.2411   7.2173   7.2173   7.2173   8.8258   8.8258   8.8258   9.2063
     9.2063   9.2063   9.5698   9.5698   9.5698  12.0690  12.0690  12.0690
    23.1451  23.1451  23.5494  23.5494  23.7412  23.7412  23.7412  23.8108
    23.8108  23.8108  30.4126  31.3304  33.3130  33.3130  33.3130  35.3693
    35.3693  35.3693  35.5422  35.6307  35.7959  35.7959  39.4403  39.4403
    39.4403  39.7891  39.7891  41.0530  41.0530  41.0530  42.5452  42.5452
    42.5452  45.8788  45.8788  46.6739  46.6739  46.6739  47.1310  47.1310
    47.1310  47.4918  50.3261  50.3262  50.3262  50.6358  50.6358  50.6358
    51.6365  51.6365  52.6351  53.9305  53.9308  53.9310  54.0545  54.0545
    54.0541

[...]

     the Fermi energy is    47.5554 ev

!    total energy              =   -1779.20418036 Ry
     Harris-Foulkes estimate   =   -1779.20423887 Ry
     estimated scf accuracy    <       0.00006499 Ry

     The total energy is the sum of the following terms:

     one-electron contribution =     112.25855266 Ry
     hartree contribution      =     154.86076592 Ry
     xc contribution           =    -178.58813165 Ry
     ewald contribution        =   -1867.49614006 Ry
     smearing contrib. (-TS)   =      -0.23922724 Ry

     convergence has been achieved in   8 iterations

     Forces acting on atoms (Ry/au):

     atom    1 type  1   force =     0.00000000    0.00000000    0.00000000
     atom    2 type  1   force =     0.00000000    0.00000000    0.00000000
     atom    3 type  1   force =     0.00000000    0.00000000    0.00000000
     atom    4 type  1   force =     0.00000000    0.00000000    0.00000000
     atom    5 type  1   force =     0.00000000    0.00000000    0.00000000
     atom    6 type  1   force =     0.00000000    0.00000000    0.00000000
     atom    7 type  2   force =     0.00000000    0.00000000    0.00000000
     atom    8 type  2   force =     0.00000000    0.00000000    0.00000000

     Total force =     0.000000     Total SCF correction =     0.000000

     entering subroutine stress ...

          total   stress  (Ry/bohr**3)                   (kbar)     P= 4885.47
   0.03321073   0.00000000   0.00000000       4885.47      0.00      0.00
   0.00000000   0.03321073   0.00000000          0.00   4885.47      0.00
   0.00000000   0.00000000   0.03321073          0.00      0.00   4885.47

     BFGS Geometry Optimization

     number of scf cycles    =   1
     number of bfgs steps    =   0

     enthalpy new            =   -1779.2041803592 Ry

     new trust radius        =       0.5000000000 bohr
     new conv_thr            =       0.0001000000 Ry

[...]
        k(   47) = (   0.3635474  -0.4544343   0.2596767), wk =   0.0380952
        k(   48) = (   0.3635474  -0.4544343   0.3895151), wk =   0.0380952

[...]

     enthalpy old            =   -1779.2041803592 Ry
     enthalpy new            =   -1782.2567067297 Ry

     CASE: enthalpy_new < enthalpy_old

     small trust_radius: resetting bfgs history

     new trust radius        =       0.3035811268 bohr
     new conv_thr            =       0.0000010000 Ry

[...]

     number of scf cycles    =   3
     number of bfgs steps    =   2

     enthalpy old            =   -1782.2567067297 Ry
     enthalpy new            =   -1781.8930450721 Ry

     CASE: enthalpy_new > enthalpy_old

     new trust radius        =       0.0672665379 bohr

     trust_radius < trust_radius_min

     resetting bfgs history

     Message from routine bfgs:
     history already reset at previous step: stopping
     new conv_thr            =       0.0000010000 Ry

     new unit-cell volume =    958.83279 a.u.^3 (   142.08436 Ang^3 )

[...]

ATOMIC_POSITIONS (crystal)
Cr       0.000000000   0.500000000   0.250000000
Cr       0.000000000   0.500000000   0.750000000
Cr       0.500000000   0.750000000   0.000000000
Cr       0.500000000   0.250000000   0.000000000
Cr       0.750000000   0.000000000   0.500000000
Cr       0.250000000   0.000000000   0.500000000
Si       0.500000000   0.500000000   0.500000000
Si       0.000000000   0.000000000   0.000000000

     Writing output data file Prototype-La-cP8-Cr3Si.save
     NEW-OLD atomic charge density approx. for the potential
     NEW k-points:
        k(    1) = (   0.0000000   0.0000000   0.0000000), wk =   0.0095238
        k(    2) = (   0.0000000   0.0000000   0.1236430), wk =   0.0190476
        k(    3) = (   0.0000000   0.0000000   0.2472860), wk =   0.0190476
        k(    4) = (   0.0000000   0.0000000   0.3709289), wk =   0.0190476
        k(    5) = (   0.0000000   0.1442501   0.0000000), wk =   0.0190476
        k(    6) = (   0.0000000   0.1442501   0.1236430), wk =   0.0380952
        k(    7) = (   0.0000000   0.1442501   0.2472860), wk =   0.0380952
        k(    8) = (   0.0000000   0.1442501   0.3709289), wk =   0.0380952
        k(    9) = (   0.0000000   0.2885003   0.0000000), wk =   0.0190476
        k(   10) = (   0.0000000   0.2885003   0.1236430), wk =   0.0380952
        k(   11) = (   0.0000000   0.2885003   0.2472860), wk =   0.0380952
        k(   12) = (   0.0000000   0.2885003   0.3709289), wk =   0.0380952
        k(   13) = (   0.0000000  -0.4327504   0.0000000), wk =   0.0095238
        k(   14) = (   0.0000000  -0.4327504   0.1236430), wk =   0.0190476
        k(   15) = (   0.0000000  -0.4327504   0.2472860), wk =   0.0190476
        k(   16) = (   0.0000000  -0.4327504   0.3709289), wk =   0.0190476
        k(   17) = (   0.1731002   0.0000000   0.0000000), wk =   0.0190476
        k(   18) = (   0.1731002   0.0000000   0.1236430), wk =   0.0380952
        k(   19) = (   0.1731002   0.0000000   0.2472860), wk =   0.0380952
        k(   20) = (   0.1731002   0.0000000   0.3709289), wk =   0.0380952
        k(   21) = (   0.1731002   0.1442501   0.0000000), wk =   0.0380952
        k(   22) = (   0.1731002   0.1442501   0.1236430), wk =   0.0761905
        k(   23) = (   0.1731002   0.1442501   0.2472860), wk =   0.0761905
        k(   24) = (   0.1731002   0.1442501   0.3709289), wk =   0.0761905
        k(   25) = (   0.1731002   0.2885003   0.0000000), wk =   0.0380952
        k(   26) = (   0.1731002   0.2885003   0.1236430), wk =   0.0761905
        k(   27) = (   0.1731002   0.2885003   0.2472860), wk =   0.0761905
        k(   28) = (   0.1731002   0.2885003   0.3709289), wk =   0.0761905
        k(   29) = (   0.1731002  -0.4327504   0.0000000), wk =   0.0190476
        k(   30) = (   0.1731002  -0.4327504   0.1236430), wk =   0.0380952
        k(   31) = (   0.1731002  -0.4327504   0.2472860), wk =   0.0380952
        k(   32) = (   0.1731002  -0.4327504   0.3709289), wk =   0.0380952
        k(   33) = (   0.3462004   0.0000000   0.0000000), wk =   0.0190476
        k(   34) = (   0.3462004   0.0000000   0.1236430), wk =   0.0380952
        k(   35) = (   0.3462004   0.0000000   0.2472860), wk =   0.0380952
        k(   36) = (   0.3462004   0.0000000   0.3709289), wk =   0.0380952
        k(   37) = (   0.3462004   0.1442501   0.0000000), wk =   0.0380952
        k(   38) = (   0.3462004   0.1442501   0.1236430), wk =   0.0761905
        k(   39) = (   0.3462004   0.1442501   0.2472860), wk =   0.0761905
        k(   40) = (   0.3462004   0.1442501   0.3709289), wk =   0.0761905
        k(   41) = (   0.3462004   0.2885003   0.0000000), wk =   0.0380952
        k(   42) = (   0.3462004   0.2885003   0.1236430), wk =   0.0761905
        k(   43) = (   0.3462004   0.2885003   0.2472860), wk =   0.0761905
        k(   44) = (   0.3462004   0.2885003   0.3709289), wk =   0.0761905
        k(   45) = (   0.3462004  -0.4327504   0.0000000), wk =   0.0190476
        k(   46) = (   0.3462004  -0.4327504   0.1236430), wk =   0.0380952
        k(   47) = (   0.3462004  -0.4327504   0.2472860), wk =   0.0380952
        k(   48) = (   0.3462004  -0.4327504   0.3709289), wk =   0.0380952

[...]

     The maximum number of steps has been reached.

     End of BFGS Geometry Optimization
Begin final coordinates
     new unit-cell volume =    958.83279 a.u.^3 (   142.08436 Ang^3 )

CELL_PARAMETERS (alat=  8.53457320)
   1.155400323   0.000000000   0.000000000
   0.000000000   1.155400323   0.000000000
   0.000000000   0.000000000   1.155400323

ATOMIC_POSITIONS (crystal)
Cr       0.000000000   0.500000000   0.250000000
Cr       0.000000000   0.500000000   0.750000000
Cr       0.500000000   0.750000000   0.000000000
Cr       0.500000000   0.250000000   0.000000000
Cr       0.750000000   0.000000000   0.500000000
Cr       0.250000000   0.000000000   0.500000000
Si       0.500000000   0.500000000   0.500000000
Si       0.000000000   0.000000000   0.000000000
End final coordinates

     A final scf calculation at the relaxed structure.
     The G-vectors are recalculated for the final unit cell
     Results may differ from those at the preceding step.

     bravais-lattice index     =            0
     lattice parameter (alat)  =       8.5346  a.u.
     unit-cell volume          =     958.8328 (a.u.)^3
     number of atoms/cell      =            8
     number of atomic types    =            2
     number of electrons       =       148.00
     number of Kohn-Sham states=           89
     kinetic-energy cutoff     =      40.0000  Ry
     charge density cutoff     =     160.0000  Ry
     convergence threshold     =      1.0E-06
     mixing beta               =       0.7000
     number of iterations used =            8  plain     mixing
     Exchange-correlation      = SLA-PZ-NOGX-NOGC ( 1 1 0 0 0)
     EXX-fraction              =        0.00

     celldm(1)=   8.534573  celldm(2)=   0.000000  celldm(3)=   0.000000
     celldm(4)=   0.000000  celldm(5)=   0.000000  celldm(6)=   0.000000

     crystal axes: (cart. coord. in units of alat)
               a(1) = (   1.155400   0.000000   0.000000 )
               a(2) = (   0.000000   1.155400   0.000000 )
               a(3) = (   0.000000   0.000000   1.155400 )

     reciprocal axes: (cart. coord. in units 2 pi/alat)
               b(1) = (  0.865501  0.000000  0.000000 )
               b(2) = (  0.000000  0.865501  0.000000 )
               b(3) = (  0.000000  0.000000  0.865501 )

     PseudoPot. # 1 for Eu read from file:
     /home/cwx6513/pp.La/Eu.UPF
     MD5 check sum: 5efdbbfc50c6a10138933a6429836ad2
     Pseudo is Norm-conserving, Zval = 17.0
     Generated in analytical, separable form
     Using radial grid of 1261 points,  6 beta functions with:
                l(1) =   0
                l(2) =   0
                l(3) =   1
                l(4) =   1
                l(5) =   2
                l(6) =   3

     PseudoPot. # 2 for Tm read from file:
     /home/cwx6513/pp.La/Tm.UPF
     MD5 check sum: 245516e0878b5372ceeb9443ded2c4e1
     Pseudo is Norm-conserving, Zval = 23.0
     Generated in analytical, separable form
     Using radial grid of 1269 points,  6 beta functions with:
                l(1) =   0
                l(2) =   0
                l(3) =   1
                l(4) =   1
                l(5) =   2
                l(6) =   3

     atomic species   valence    mass     pseudopotential
        Cr            17.00    51.99610     Eu( 1.00)
        Si            23.00    28.08550     Tm( 1.00)

     48 Sym. Ops., with inversion, found (24 have fractional translation)

   Cartesian axes

     site n.     atom                  positions (alat units)
         1           Cr  tau(   1) = (   0.0000000   0.5777002   0.2888501  )
         2           Cr  tau(   2) = (   0.0000000   0.5777002   0.8665502  )
         3           Cr  tau(   3) = (   0.5777002   0.8665502   0.0000000  )
         4           Cr  tau(   4) = (   0.5777002   0.2888501   0.0000000  )
         5           Cr  tau(   5) = (   0.8665502   0.0000000   0.5777002  )
         6           Cr  tau(   6) = (   0.2888501   0.0000000   0.5777002  )
         7           Si  tau(   7) = (   0.5777002   0.5777002   0.5777002  )
         8           Si  tau(   8) = (   0.0000000   0.0000000   0.0000000  )

     number of k points=    48  gaussian smearing, width (Ry)=  0.1000
                       cart. coord. in units 2pi/alat
        k(    1) = (   0.0000000   0.0000000   0.0000000), wk =   0.0095238
        k(    2) = (   0.0000000   0.0000000   0.1236430), wk =   0.0190476
        k(    3) = (   0.0000000   0.0000000   0.2472860), wk =   0.0190476
        k(    4) = (   0.0000000   0.0000000   0.3709289), wk =   0.0190476
        k(    5) = (   0.0000000   0.1442501   0.0000000), wk =   0.0190476
        k(    6) = (   0.0000000   0.1442501   0.1236430), wk =   0.0380952
        k(    7) = (   0.0000000   0.1442501   0.2472860), wk =   0.0380952
        k(    8) = (   0.0000000   0.1442501   0.3709289), wk =   0.0380952
        k(    9) = (   0.0000000   0.2885003   0.0000000), wk =   0.0190476
        k(   10) = (   0.0000000   0.2885003   0.1236430), wk =   0.0380952
        k(   11) = (   0.0000000   0.2885003   0.2472860), wk =   0.0380952
        k(   12) = (   0.0000000   0.2885003   0.3709289), wk =   0.0380952
        k(   13) = (   0.0000000  -0.4327504   0.0000000), wk =   0.0095238
        k(   14) = (   0.0000000  -0.4327504   0.1236430), wk =   0.0190476
        k(   15) = (   0.0000000  -0.4327504   0.2472860), wk =   0.0190476
        k(   16) = (   0.0000000  -0.4327504   0.3709289), wk =   0.0190476
        k(   17) = (   0.1731002   0.0000000   0.0000000), wk =   0.0190476
        k(   18) = (   0.1731002   0.0000000   0.1236430), wk =   0.0380952
        k(   19) = (   0.1731002   0.0000000   0.2472860), wk =   0.0380952
        k(   20) = (   0.1731002   0.0000000   0.3709289), wk =   0.0380952
        k(   21) = (   0.1731002   0.1442501   0.0000000), wk =   0.0380952
        k(   22) = (   0.1731002   0.1442501   0.1236430), wk =   0.0761905
        k(   23) = (   0.1731002   0.1442501   0.2472860), wk =   0.0761905
        k(   24) = (   0.1731002   0.1442501   0.3709289), wk =   0.0761905
        k(   25) = (   0.1731002   0.2885003   0.0000000), wk =   0.0380952
        k(   26) = (   0.1731002   0.2885003   0.1236430), wk =   0.0761905
        k(   27) = (   0.1731002   0.2885003   0.2472860), wk =   0.0761905
        k(   28) = (   0.1731002   0.2885003   0.3709289), wk =   0.0761905
        k(   29) = (   0.1731002  -0.4327504   0.0000000), wk =   0.0190476
        k(   30) = (   0.1731002  -0.4327504   0.1236430), wk =   0.0380952
        k(   31) = (   0.1731002  -0.4327504   0.2472860), wk =   0.0380952
        k(   32) = (   0.1731002  -0.4327504   0.3709289), wk =   0.0380952
        k(   33) = (   0.3462004   0.0000000   0.0000000), wk =   0.0190476
        k(   34) = (   0.3462004   0.0000000   0.1236430), wk =   0.0380952
        k(   35) = (   0.3462004   0.0000000   0.2472860), wk =   0.0380952
        k(   36) = (   0.3462004   0.0000000   0.3709289), wk =   0.0380952
        k(   37) = (   0.3462004   0.1442501   0.0000000), wk =   0.0380952
        k(   38) = (   0.3462004   0.1442501   0.1236430), wk =   0.0761905
        k(   39) = (   0.3462004   0.1442501   0.2472860), wk =   0.0761905
        k(   40) = (   0.3462004   0.1442501   0.3709289), wk =   0.0761905
        k(   41) = (   0.3462004   0.2885003   0.0000000), wk =   0.0380952
        k(   42) = (   0.3462004   0.2885003   0.1236430), wk =   0.0761905
        k(   43) = (   0.3462004   0.2885003   0.2472860), wk =   0.0761905
        k(   44) = (   0.3462004   0.2885003   0.3709289), wk =   0.0761905
        k(   45) = (   0.3462004  -0.4327504   0.0000000), wk =   0.0190476
        k(   46) = (   0.3462004  -0.4327504   0.1236430), wk =   0.0380952
        k(   47) = (   0.3462004  -0.4327504   0.2472860), wk =   0.0380952
        k(   48) = (   0.3462004  -0.4327504   0.3709289), wk =   0.0380952

     Largest allocated arrays     est. size (Mb)     dimensions
     Largest temporary arrays     est. size (Mb)     dimensions

     Initial potential from superposition of free atoms

     Starting from uniform charge
     Starting wfc are    0 randomized atomic wfcs

     Writing output data file Prototype-La-cP8-Cr3Si.save

     Self-consistent Calculation

[...]

     iteration #  9     ecut=    40.00 Ry     beta=0.70
     CG style diagonalization
     c_bands:  1 eigenvalues not converged
     ethr =  1.86E-07,  avg # of iterations =  3.8

[...]

     total energy              =   -1785.25485926 Ry
     Harris-Foulkes estimate   =   -1785.25486088 Ry
     estimated scf accuracy    <       0.00000247 Ry

     iteration # 11     ecut=    40.00 Ry     beta=0.70
     CG style diagonalization
     ethr =  1.67E-09,  avg # of iterations =  4.1

     End of self-consistent calculation

[...]

          k = 0.3462-0.4328 0.3709 (  4102 PWs)   bands (ev):

   -82.7395 -82.7394 -41.3904 -41.3903 -41.3881 -41.3880 -41.3850 -41.3849
   -34.2406 -34.2277 -34.1908 -34.1905 -34.1545 -34.1412  -7.6670  -7.5715
    -7.3462  -7.3390  -7.3082  -7.3042  -7.1431  -7.1038  -6.9892  -6.9749
    -6.9308  -6.9242  -6.8673  -6.8628  -6.8497  -6.8396  -6.8375  -6.8068
     7.6182   7.6184   7.6234   7.6241   7.6266   7.6305   7.6358   7.6359
     7.6419   7.6440  17.8465  17.8474  21.8735  22.0052  22.2657  22.3180
    22.4548  22.4782  23.3098  23.3170  23.4427  23.4487  23.6008  23.6665
    24.1978  24.4487  24.6929  24.7424  24.8760  24.9174  25.1306  25.1753
    25.7441  25.7791  26.8544  26.9344  27.0413  27.0762  27.2683  27.4439
    27.5996  27.6393  28.2303  28.3721  28.5745  28.8119  29.3993  29.4717
    34.0493  34.0509  36.5232  36.6570  37.0669  37.1000  37.8097  37.8224
    38.2337

     the Fermi energy is    28.9861 ev

!    total energy              =   -1785.25486050 Ry
     Harris-Foulkes estimate   =   -1785.25486059 Ry
     estimated scf accuracy    <       0.00000011 Ry

     The total energy is the sum of the following terms:

     one-electron contribution =    -235.44222388 Ry
     hartree contribution      =     237.76802460 Ry
     xc contribution           =    -170.83796131 Ry
     ewald contribution        =   -1616.31955851 Ry
     smearing contrib. (-TS)   =      -0.42314141 Ry

     convergence has been achieved in  11 iterations

     Forces acting on atoms (Ry/au):

     atom    1 type  1   force =     0.00000000    0.00000000    0.00000000
     atom    2 type  1   force =     0.00000000    0.00000000    0.00000000
     atom    3 type  1   force =     0.00000000    0.00000000    0.00000000
     atom    4 type  1   force =     0.00000000    0.00000000    0.00000000
     atom    5 type  1   force =     0.00000000    0.00000000    0.00000000
     atom    6 type  1   force =     0.00000000    0.00000000    0.00000000
     atom    7 type  2   force =     0.00000000    0.00000000    0.00000000
     atom    8 type  2   force =     0.00000000    0.00000000    0.00000000

     Total force =     0.000000     Total SCF correction =     0.000000

     entering subroutine stress ...

          total   stress  (Ry/bohr**3)                   (kbar)     P=  162.02
   0.00110141   0.00000000   0.00000000        162.02      0.00      0.00
   0.00000000   0.00110141   0.00000000          0.00    162.02      0.00
   0.00000000   0.00000000   0.00110141          0.00      0.00    162.02

     Writing output data file Prototype-La-cP8-Cr3Si.save

     General routines

     Parallel routines

   This run was terminated on:  21:36:12  22Mar2018

   JOB DONE.