     Program PWSCF v.5.0.2 starts on 22Mar2018 at 17:40:20

     Current dimensions of program PWSCF are:
     Max number of different atomic species (ntypx) = 10
     Max number of k-points (npk) =  40000
     Max angular momentum in pseudopotentials (lmaxx) =  3
     Waiting for input...
     Reading input from standard input

     Subspace diagonalization in iterative solution of the eigenvalue problem:
     a serial algorithm will be used

     bravais-lattice index     =            0
     lattice parameter (alat)  =       8.8008  a.u.
     unit-cell volume          =    1116.9454 (a.u.)^3
     number of atoms/cell      =           16
     number of atomic types    =            2
     number of electrons       =       324.00
     number of Kohn-Sham states=          194
     kinetic-energy cutoff     =      40.0000  Ry
     charge density cutoff     =     160.0000  Ry
     convergence threshold     =      1.0E-04
     mixing beta               =       0.7000
     number of iterations used =            8  plain     mixing
     Exchange-correlation      = SLA-PZ-NOGX-NOGC ( 1 1 0 0 0)
     EXX-fraction              =        0.00
     nstep                     =           50

     celldm(1)=   8.800765  celldm(2)=   0.000000  celldm(3)=   0.000000
     celldm(4)=   0.000000  celldm(5)=   0.000000  celldm(6)=   0.000000

     crystal axes: (cart. coord. in units of alat)
               a(1) = (   1.000000   0.000000   0.000000 )
               a(2) = (   0.000000   1.083771   0.000000 )
               a(3) = (   0.000000   0.000000   1.511935 )

     reciprocal axes: (cart. coord. in units 2 pi/alat)
               b(1) = (  1.000000  0.000000  0.000000 )
               b(2) = (  0.000000  0.922704  0.000000 )
               b(3) = (  0.000000  0.000000  0.661404 )

     PseudoPot. # 1 for Tb read from file:
     /home/jld5415/pp.La/Tb.UPF
     MD5 check sum: 3d6088a3f0cf7fd2e110c43f7f8e95c2
     Pseudo is Norm-conserving, Zval = 19.0
     Generated in analytical, separable form
     Using radial grid of 1263 points,  6 beta functions with:
                l(1) =   0
                l(2) =   0
                l(3) =   1
                l(4) =   1
                l(5) =   2
                l(6) =   3

     PseudoPot. # 2 for Yb read from file:
     /home/jld5415/pp.La/Yb.UPF
     MD5 check sum: 3e859b81cc28c53ec6aa3a2e888efcdf
     Pseudo is Norm-conserving, Zval = 24.0
     Generated in analytical, separable form
     Using radial grid of 1269 points,  6 beta functions with:
                l(1) =   0
                l(2) =   0
                l(3) =   1
                l(4) =   1
                l(5) =   2
                l(6) =   3

     atomic species   valence    mass     pseudopotential
        Fe            19.00    55.84500     Tb( 1.00)
        C             24.00    12.01070     Yb( 1.00)

      8 Sym. Ops., with inversion, found ( 6 have fractional translation)

   Cartesian axes

     site n.     atom                  positions (alat units)
         1           Fe  tau(   1) = (   0.3472940   0.1827628   1.3947267  )
         2           Fe  tau(   2) = (   0.1527060   0.7246484   0.8731757  )
         3           Fe  tau(   3) = (   0.8472940   0.3591227   0.6387592  )
         4           Fe  tau(   4) = (   0.3396640   0.4879235   0.3779837  )
         5           Fe  tau(   5) = (   0.1527060   0.7246484   1.3947267  )
         6           Fe  tau(   6) = (   0.3472940   0.1827628   0.8731757  )
         7           Fe  tau(   7) = (   0.1603360   1.0298091   0.3779837  )
         8           Fe  tau(   8) = (   0.6527060   0.9010083   0.6387592  )
         9           Fe  tau(   9) = (   0.8472940   0.3591227   0.1172082  )
        10           Fe  tau(  10) = (   0.6603360   0.5958476   1.1339512  )
        11           Fe  tau(  11) = (   0.6527060   0.9010083   0.1172082  )
        12           Fe  tau(  12) = (   0.8396640   0.0539620   1.1339512  )
        13           C   tau(  13) = (   0.0000000   0.0000000   0.0000000  )
        14           C   tau(  14) = (   0.5000000   0.5418856   0.0000000  )
        15           C   tau(  15) = (   0.5000000   0.5418856   0.7559674  )
        16           C   tau(  16) = (   0.0000000   0.0000000   0.7559674  )

     number of k points=    12  gaussian smearing, width (Ry)=  0.1000
                       cart. coord. in units 2pi/alat
        k(    1) = (   0.0000000   0.0000000   0.0000000), wk =   0.0833333
        k(    2) = (   0.0000000   0.0000000   0.1653510), wk =   0.1666667
        k(    3) = (   0.0000000   0.0000000  -0.3307021), wk =   0.0833333
        k(    4) = (   0.0000000   0.3075680   0.0000000), wk =   0.1666667
        k(    5) = (   0.0000000   0.3075680   0.1653510), wk =   0.3333333
        k(    6) = (   0.0000000   0.3075680  -0.3307021), wk =   0.1666667
        k(    7) = (  -0.5000000   0.0000000   0.0000000), wk =   0.0833333
        k(    8) = (  -0.5000000   0.0000000   0.1653510), wk =   0.1666667
        k(    9) = (  -0.5000000   0.0000000  -0.3307021), wk =   0.0833333
        k(   10) = (  -0.5000000   0.3075680   0.0000000), wk =   0.1666667
        k(   11) = (  -0.5000000   0.3075680   0.1653510), wk =   0.3333333
        k(   12) = (  -0.5000000   0.3075680  -0.3307021), wk =   0.1666667

     Largest allocated arrays     est. size (Mb)     dimensions
     Largest temporary arrays     est. size (Mb)     dimensions

     Initial potential from superposition of free atoms

     Starting from uniform charge
     Starting wfc are    0 randomized atomic wfcs

     Self-consistent Calculation

     iteration #  1     ecut=    40.00 Ry     beta=0.70
     CG style diagonalization
     ethr =  1.00E-02,  avg # of iterations = 23.1

     total energy              =   -3062.82347156 Ry
     Harris-Foulkes estimate   =   -5636.27897212 Ry
     estimated scf accuracy    <    3039.00290500 Ry

[...]

     iteration #  3     ecut=    40.00 Ry     beta=0.70
     CG style diagonalization
     c_bands:  4 eigenvalues not converged
     c_bands:  4 eigenvalues not converged
     c_bands:  2 eigenvalues not converged
     c_bands:  3 eigenvalues not converged
     c_bands:  1 eigenvalues not converged
     c_bands:  4 eigenvalues not converged
     ethr =  1.00E-02,  avg # of iterations = 13.1

[...]

     End of self-consistent calculation

          k = 0.0000 0.0000 0.0000 (  4785 PWs)   bands (ev):

   -73.7473 -73.7452 -73.6885 -73.6282 -34.1239 -34.1223 -34.1048 -34.1008
   -33.7799 -33.7756 -33.5872 -33.5823 -33.5575 -33.5536 -33.3415 -33.3364
   -26.9689 -26.9023 -26.8056 -26.7387 -26.3655 -26.2569 -25.7598 -25.7517
   -25.5972 -25.5909 -25.5344 -25.4223   0.6201   0.7037   0.9801   1.0973
     1.3672   1.7777   2.9456   3.0576   3.0666   3.1143   3.1728   3.4867
     3.5166   3.6343   3.6441   3.7712   4.2276   4.2889   4.5406   4.8229
     4.8871   5.1220   5.1792   5.2489   5.2804   5.2885   5.3157   5.4519
     5.4916   5.5701   5.9093   5.9458   6.1721   6.1731   6.2019   6.3662
    20.2541  20.4057  20.8209  21.1428  21.1456  21.2700  21.3969  21.5432
    22.3474  22.5284  22.5455  22.9483  23.6069  24.0789  24.0956  24.1258
    24.2475  26.0928  26.1888  26.2979  34.1333  35.3257  35.9988  35.9995
    36.7111  36.8252  36.8338  37.0290  37.3575  37.3792  37.9616  38.0314
    38.2766  38.3424  38.3801  38.5188  39.0393  39.0483  39.0540  39.1747
    39.5829  39.5833  39.7782  39.8513  39.8797  40.0379  40.5180  40.9041
    40.9837  41.3186  41.5615  41.5689  41.6388  42.3904  42.4060  42.5168
    42.8295  42.8880  43.1400  43.2636  43.3990  43.4529  44.1790  44.6506
    44.7239  44.9608  45.0306  45.0351  45.1715  45.6923  45.8820  45.9454
    46.1052  46.2486  46.3628  46.4784  46.5305  46.6278  46.8525  47.3314
    47.9365  49.0022  49.2264  49.4758  49.7762  52.3222  52.6433  52.7364
    53.1574  53.1661  53.7458  54.1131  54.2039  54.4486  54.8520  55.3011
    55.3150  56.0046  56.0929  56.3333  56.4996  56.6360  56.8109  57.2134
    57.6964  57.8427  57.9088  58.1233  58.2772  58.4617  59.3751  59.4851
    59.5724  60.3921  60.4117  60.4868  60.7542  60.8054  61.0239  61.2408
    61.3824  61.8467  61.8598  61.9301  62.1514  62.2414  63.0303  63.0853
    63.2851  63.5160

[...]

          k =-0.5000 0.0000 0.0000 (  4798 PWs)   bands (ev):

[...]

     the Fermi energy is    56.5572 ev

!    total energy              =   -4346.74878676 Ry
     Harris-Foulkes estimate   =   -4346.74880413 Ry
     estimated scf accuracy    <       0.00001794 Ry

     The total energy is the sum of the following terms:

     one-electron contribution =    -221.39700421 Ry
     hartree contribution      =     609.79982570 Ry
     xc contribution           =    -422.13730929 Ry
     ewald contribution        =   -4312.50371466 Ry
     smearing contrib. (-TS)   =      -0.51058429 Ry

     convergence has been achieved in  10 iterations

     Forces acting on atoms (Ry/au):

     atom    1 type  1   force =     1.12550098   -1.19872388   -1.53790078
     atom    2 type  1   force =    -1.12550098   -1.19872388    1.53790078
     atom    3 type  1   force =     1.12550098    1.19872388   -1.53790078
     atom    4 type  1   force =    -1.90451824   -0.69519523    0.00000000
     atom    5 type  1   force =    -1.12550098   -1.19872388   -1.53790078
     atom    6 type  1   force =     1.12550098   -1.19872388    1.53790078
     atom    7 type  1   force =     1.90451824   -0.69519523    0.00000000
     atom    8 type  1   force =    -1.12550098    1.19872388   -1.53790078
     atom    9 type  1   force =     1.12550098    1.19872388    1.53790078
     atom   10 type  1   force =     1.90451824    0.69519523    0.00000000
     atom   11 type  1   force =    -1.12550098    1.19872388    1.53790078
     atom   12 type  1   force =    -1.90451824    0.69519523    0.00000000
     atom   13 type  2   force =     0.00000000    0.00000000    0.00000000
     atom   14 type  2   force =     0.00000000    0.00000000    0.00000000
     atom   15 type  2   force =     0.00000000    0.00000000    0.00000000
     atom   16 type  2   force =     0.00000000    0.00000000    0.00000000

     Total force =     7.549343     Total SCF correction =     0.000000

     entering subroutine stress ...

          total   stress  (Ry/bohr**3)                   (kbar)     P=12473.50
   0.08562207   0.00000000   0.00000000      12595.44      0.00      0.00
   0.00000000   0.08568335   0.00000000          0.00  12604.45      0.00
   0.00000000   0.00000000   0.08307402          0.00      0.00  12220.61

     BFGS Geometry Optimization

     number of scf cycles    =   1
     number of bfgs steps    =   0

     enthalpy new            =   -4346.7487867571 Ry

     new trust radius        =       0.5000000000 bohr
     new conv_thr            =       0.0001000000 Ry

     new unit-cell volume =   1383.81020 a.u.^3 (   205.05951 Ang^3 )

CELL_PARAMETERS (alat=  8.80076499)
   1.074750365   0.000000000   0.000000000
   0.000000000   1.164841411   0.000000000
   0.000000000   0.000000000   1.621589239

ATOMIC_POSITIONS (crystal)
Fe       0.351759941   0.164247170   0.918441896
Fe       0.148240059   0.664247170   0.581558104
Fe       0.851759941   0.335752830   0.418441896
Fe       0.332106950   0.447663715   0.250000000
Fe       0.148240059   0.664247170   0.918441896
Fe       0.351759941   0.164247170   0.581558104
Fe       0.167893050   0.947663715   0.250000000
Fe       0.648240059   0.835752830   0.418441896
Fe       0.851759941   0.335752830   0.081558104
Fe       0.667893050   0.552336285   0.750000000
Fe       0.648240059   0.835752830   0.081558104
Fe       0.832106950   0.052336285   0.750000000
C        0.000000000   0.000000000   0.000000000
C        0.500000000   0.500000000   0.000000000
C        0.500000000   0.500000000   0.500000000
C        0.000000000   0.000000000   0.500000000

     Writing output data file Prototype-La-oP16-Fe3C.save
     NEW-OLD atomic charge density approx. for the potential
     NEW k-points:
        k(    1) = (   0.0000000   0.0000000   0.0000000), wk =   0.0833333
        k(    2) = (   0.0000000   0.0000000   0.1541697), wk =   0.1666667
        k(    3) = (   0.0000000   0.0000000  -0.3083395), wk =   0.0833333
        k(    4) = (   0.0000000   0.2861620   0.0000000), wk =   0.1666667
        k(    5) = (   0.0000000   0.2861620   0.1541697), wk =   0.3333333
        k(    6) = (   0.0000000   0.2861620  -0.3083395), wk =   0.1666667
        k(    7) = (  -0.4652243   0.0000000   0.0000000), wk =   0.0833333
        k(    8) = (  -0.4652243   0.0000000   0.1541697), wk =   0.1666667
        k(    9) = (  -0.4652243   0.0000000  -0.3083395), wk =   0.0833333
        k(   10) = (  -0.4652243   0.2861620   0.0000000), wk =   0.1666667
        k(   11) = (  -0.4652243   0.2861620   0.1541697), wk =   0.3333333
        k(   12) = (  -0.4652243   0.2861620  -0.3083395), wk =   0.1666667

[...]

          total   stress  (Ry/bohr**3)                   (kbar)     P= 5411.15
   0.03734142   0.00000000   0.00000000       5493.11      0.00      0.00
   0.00000000   0.03650762   0.00000000          0.00   5370.46      0.00
   0.00000000   0.00000000   0.03650364          0.00      0.00   5369.87

[...]

     enthalpy old            =   -4346.7487867571 Ry
     enthalpy new            =   -4363.8140090897 Ry

     CASE: enthalpy_new < enthalpy_old

     small trust_radius: resetting bfgs history

     new trust radius        =       6.9454285577 bohr
     new conv_thr            =       0.0001000000 Ry

[...]

          total   stress  (Ry/bohr**3)                   (kbar)     P=-4597.97
  -0.03168403   0.00000000   0.00000000      -4660.88      0.00      0.00
   0.00000000  -0.03113778   0.00000000          0.00  -4580.52      0.00
   0.00000000   0.00000000  -0.03094732          0.00      0.00  -4552.51

     number of scf cycles    =   3
     number of bfgs steps    =   2

     enthalpy old            =   -4363.8140090897 Ry
     enthalpy new            =   -4168.3572532438 Ry

     CASE: enthalpy_new > enthalpy_old

     new trust radius        =       2.1539369373 bohr

     trust_radius < trust_radius_min

     resetting bfgs history

     Message from routine bfgs:
     history already reset at previous step: stopping
     new conv_thr            =       0.0001000000 Ry

     new unit-cell volume =   1590.26734 a.u.^3 (   235.65330 Ang^3 )

[...]

ATOMIC_POSITIONS (crystal)
Fe       0.353653896   0.162390505   0.916743259
Fe       0.146346104   0.662390505   0.583256741
Fe       0.853653896   0.337609495   0.416743259
Fe       0.328879098   0.446538361   0.250000000
Fe       0.146346104   0.662390505   0.916743259
Fe       0.353653896   0.162390505   0.583256741
Fe       0.171120902   0.946538361   0.250000000
Fe       0.646346104   0.837609495   0.416743259
Fe       0.853653896   0.337609495   0.083256741
Fe       0.671120902   0.553461639   0.750000000
Fe       0.646346104   0.837609495   0.083256741
Fe       0.828879098   0.053461639   0.750000000
C        0.000000000   0.000000000   0.000000000
C        0.500000000   0.500000000   0.000000000
C        0.500000000   0.500000000   0.500000000
C        0.000000000   0.000000000   0.500000000

     Writing output data file Prototype-La-oP16-Fe3C.save
     NEW-OLD atomic charge density approx. for the potential
     NEW k-points:
        k(    1) = (   0.0000000   0.0000000   0.0000000), wk =   0.0833333
        k(    2) = (   0.0000000   0.0000000   0.1472865), wk =   0.1666667
        k(    3) = (   0.0000000   0.0000000  -0.2945730), wk =   0.0833333
        k(    4) = (   0.0000000   0.2733831   0.0000000), wk =   0.1666667
        k(    5) = (   0.0000000   0.2733831   0.1472865), wk =   0.3333333
        k(    6) = (   0.0000000   0.2733831  -0.2945730), wk =   0.1666667
        k(    7) = (  -0.4435528   0.0000000   0.0000000), wk =   0.0833333
        k(    8) = (  -0.4435528   0.0000000   0.1472865), wk =   0.1666667
        k(    9) = (  -0.4435528   0.0000000  -0.2945730), wk =   0.0833333
        k(   10) = (  -0.4435528   0.2733831   0.0000000), wk =   0.1666667
        k(   11) = (  -0.4435528   0.2733831   0.1472865), wk =   0.3333333
        k(   12) = (  -0.4435528   0.2733831  -0.2945730), wk =   0.1666667

[...]

     The maximum number of steps has been reached.

     End of BFGS Geometry Optimization
Begin final coordinates
     new unit-cell volume =   1590.26734 a.u.^3 (   235.65330 Ang^3 )

CELL_PARAMETERS (alat=  8.80076499)
   1.127261573   0.000000000   0.000000000
   0.000000000   1.219290303   0.000000000
   0.000000000   0.000000000   1.697372048

ATOMIC_POSITIONS (crystal)
Fe       0.353653896   0.162390505   0.916743259
Fe       0.146346104   0.662390505   0.583256741
Fe       0.853653896   0.337609495   0.416743259
Fe       0.328879098   0.446538361   0.250000000
Fe       0.146346104   0.662390505   0.916743259
Fe       0.353653896   0.162390505   0.583256741
Fe       0.171120902   0.946538361   0.250000000
Fe       0.646346104   0.837609495   0.416743259
Fe       0.853653896   0.337609495   0.083256741
Fe       0.671120902   0.553461639   0.750000000
Fe       0.646346104   0.837609495   0.083256741
Fe       0.828879098   0.053461639   0.750000000
C        0.000000000   0.000000000   0.000000000
C        0.500000000   0.500000000   0.000000000
C        0.500000000   0.500000000   0.500000000
C        0.000000000   0.000000000   0.500000000
End final coordinates

     A final scf calculation at the relaxed structure.
     The G-vectors are recalculated for the final unit cell
     Results may differ from those at the preceding step.

     bravais-lattice index     =            0
     lattice parameter (alat)  =       8.8008  a.u.
     unit-cell volume          =    1590.2673 (a.u.)^3
     number of atoms/cell      =           16
     number of atomic types    =            2
     number of electrons       =       324.00
     number of Kohn-Sham states=          194
     kinetic-energy cutoff     =      40.0000  Ry
     charge density cutoff     =     160.0000  Ry
     convergence threshold     =      1.0E-04
     mixing beta               =       0.7000
     number of iterations used =            8  plain     mixing
     Exchange-correlation      = SLA-PZ-NOGX-NOGC ( 1 1 0 0 0)
     EXX-fraction              =        0.00

     celldm(1)=   8.800765  celldm(2)=   0.000000  celldm(3)=   0.000000
     celldm(4)=   0.000000  celldm(5)=   0.000000  celldm(6)=   0.000000

     crystal axes: (cart. coord. in units of alat)
               a(1) = (   1.127262   0.000000   0.000000 )
               a(2) = (   0.000000   1.219290   0.000000 )
               a(3) = (   0.000000   0.000000   1.697372 )

     reciprocal axes: (cart. coord. in units 2 pi/alat)
               b(1) = (  0.887106  0.000000  0.000000 )
               b(2) = (  0.000000  0.820149  0.000000 )
               b(3) = (  0.000000  0.000000  0.589146 )

     PseudoPot. # 1 for Tb read from file:
     /home/jld5415/pp.La/Tb.UPF
     MD5 check sum: 3d6088a3f0cf7fd2e110c43f7f8e95c2
     Pseudo is Norm-conserving, Zval = 19.0
     Generated in analytical, separable form
     Using radial grid of 1263 points,  6 beta functions with:
                l(1) =   0
                l(2) =   0
                l(3) =   1
                l(4) =   1
                l(5) =   2
                l(6) =   3

     PseudoPot. # 2 for Yb read from file:
     /home/jld5415/pp.La/Yb.UPF
     MD5 check sum: 3e859b81cc28c53ec6aa3a2e888efcdf
     Pseudo is Norm-conserving, Zval = 24.0
     Generated in analytical, separable form
     Using radial grid of 1269 points,  6 beta functions with:
                l(1) =   0
                l(2) =   0
                l(3) =   1
                l(4) =   1
                l(5) =   2
                l(6) =   3

     atomic species   valence    mass     pseudopotential
        Fe            19.00    55.84500     Tb( 1.00)
        C             24.00    12.01070     Yb( 1.00)

      8 Sym. Ops., with inversion, found ( 6 have fractional translation)

   Cartesian axes

     site n.     atom                  positions (alat units)
         1           Fe  tau(   1) = (   0.3986604   0.1980012   1.5560544  )
         2           Fe  tau(   2) = (   0.1649703   0.8076463   0.9900037  )
         3           Fe  tau(   3) = (   0.9622912   0.4116440   0.7073684  )
         4           Fe  tau(   4) = (   0.3707328   0.5444599   0.4243430  )
         5           Fe  tau(   5) = (   0.1649703   0.8076463   1.5560544  )
         6           Fe  tau(   6) = (   0.3986604   0.1980012   0.9900037  )
         7           Fe  tau(   7) = (   0.1928980   1.1541050   0.4243430  )
         8           Fe  tau(   8) = (   0.7286011   1.0212891   0.7073684  )
         9           Fe  tau(   9) = (   0.9622912   0.4116440   0.1413177  )
        10           Fe  tau(  10) = (   0.7565288   0.6748304   1.2730290  )
        11           Fe  tau(  11) = (   0.7286011   1.0212891   0.1413177  )
        12           Fe  tau(  12) = (   0.9343636   0.0651853   1.2730290  )
        13           C   tau(  13) = (   0.0000000   0.0000000   0.0000000  )
        14           C   tau(  14) = (   0.5636308   0.6096452   0.0000000  )
        15           C   tau(  15) = (   0.5636308   0.6096452   0.8486860  )
        16           C   tau(  16) = (   0.0000000   0.0000000   0.8486860  )

     number of k points=    12  gaussian smearing, width (Ry)=  0.1000
                       cart. coord. in units 2pi/alat
        k(    1) = (   0.0000000   0.0000000   0.0000000), wk =   0.0833333
        k(    2) = (   0.0000000   0.0000000   0.1472865), wk =   0.1666667
        k(    3) = (   0.0000000   0.0000000  -0.2945730), wk =   0.0833333
        k(    4) = (   0.0000000   0.2733831   0.0000000), wk =   0.1666667
        k(    5) = (   0.0000000   0.2733831   0.1472865), wk =   0.3333333
        k(    6) = (   0.0000000   0.2733831  -0.2945730), wk =   0.1666667
        k(    7) = (  -0.4435528   0.0000000   0.0000000), wk =   0.0833333
        k(    8) = (  -0.4435528   0.0000000   0.1472865), wk =   0.1666667
        k(    9) = (  -0.4435528   0.0000000  -0.2945730), wk =   0.0833333
        k(   10) = (  -0.4435528   0.2733831   0.0000000), wk =   0.1666667
        k(   11) = (  -0.4435528   0.2733831   0.1472865), wk =   0.3333333
        k(   12) = (  -0.4435528   0.2733831  -0.2945730), wk =   0.1666667

     Largest allocated arrays     est. size (Mb)     dimensions
     Largest temporary arrays     est. size (Mb)     dimensions

     Initial potential from superposition of free atoms

     Starting from uniform charge
     Starting wfc are    0 randomized atomic wfcs

     Writing output data file Prototype-La-oP16-Fe3C.save

     Self-consistent Calculation

[...]

     iteration #  9     ecut=    40.00 Ry     beta=0.70
     CG style diagonalization
     c_bands:  1 eigenvalues not converged
     ethr =  2.61E-06,  avg # of iterations =  4.6

     total energy              =   -4376.22485826 Ry
     Harris-Foulkes estimate   =   -4376.22532750 Ry
     estimated scf accuracy    <       0.00075984 Ry

     iteration # 10     ecut=    40.00 Ry     beta=0.70
     CG style diagonalization
     ethr =  2.35E-07,  avg # of iterations =  3.8

     End of self-consistent calculation

[...]

          k = 0.0000 0.2734-0.2946 (  6768 PWs)   bands (ev):

[...]

          k =-0.4436 0.2734-0.2946 (  6824 PWs)   bands (ev):

   -88.7319 -88.7319 -88.7312 -88.7312 -47.8929 -47.8929 -47.8916 -47.8916
   -47.8478 -47.8478 -47.8469 -47.8469 -47.7999 -47.7999 -47.7998 -47.7998
   -40.5266 -40.5266 -40.5192 -40.5192 -40.4371 -40.4371 -40.4330 -40.4330
   -40.2531 -40.2531 -40.2367 -40.2367 -10.4967 -10.4967 -10.4951 -10.4951
   -10.0802 -10.0802 -10.0461 -10.0461 -10.0236 -10.0236 -10.0175 -10.0175
    -9.3693  -9.3693  -9.3637  -9.3637  -9.0417  -9.0417  -8.9989  -8.9989
    -8.8363  -8.8363  -8.7960  -8.7960  -8.7361  -8.7361  -8.7248  -8.7248
    -8.4919  -8.4919  -8.3887  -8.3887  -8.3189  -8.3189  -8.2579  -8.2579
     8.5531   8.5531   8.5548   8.5548   8.9566   8.9566   8.9633   8.9633
     9.1172   9.1172   9.1190   9.1190   9.3020   9.3020   9.3100   9.3100
     9.3923   9.3923   9.3956   9.3956  20.5364  20.5364  20.5983  20.5983
    24.0868  24.0868  24.2294  24.2294  25.2123  25.2123  25.2595  25.2595
    25.5724  25.5724  25.8223  25.8223  26.1277  26.1277  26.4045  26.4045
    26.4369  26.4369  26.6128  26.6128  26.6527  26.6527  26.9289  26.9289
    27.2633  27.2633  27.3868  27.3868  27.8011  27.8011  28.2242  28.2242
    28.7159  28.7159  28.7828  28.7828  28.8677  28.8677  29.2148  29.2148
    29.3691  29.3691  29.8328  29.8328  29.8645  29.8645  30.0340  30.0340
    30.5019  30.5019  30.6076  30.6076  30.9701  30.9701  31.0165  31.0165
    31.2732  31.2732  31.5255  31.5255  32.4215  32.4215  32.6744  32.6744
    33.8210  33.8210  36.0190  36.0190  37.8115  37.8115  38.0113  38.0113
    38.9106  38.9106  39.1144  39.1144  40.8198  40.8198  40.9937  40.9937
    41.9480  41.9481  42.1269  42.1270  42.8477  42.8477  42.9148  42.9148
    43.6971  43.6971  43.7882  43.7882  43.9889  43.9890  44.0206  44.0207
    44.3535  44.3536  44.3586  44.3586  45.2191  45.2192  45.2706  45.2711
    45.7975  45.8114

     the Fermi energy is    39.1769 ev

!    total energy              =   -4376.22506613 Ry
     Harris-Foulkes estimate   =   -4376.22512364 Ry
     estimated scf accuracy    <       0.00006718 Ry

     The total energy is the sum of the following terms:

     one-electron contribution =    -837.48894514 Ry
     hartree contribution      =     735.90604170 Ry
     xc contribution           =    -405.19292016 Ry
     ewald contribution        =   -3869.07678644 Ry
     smearing contrib. (-TS)   =      -0.37245609 Ry

     convergence has been achieved in  10 iterations

     Forces acting on atoms (Ry/au):

     atom    1 type  1   force =     0.48372546   -0.50281361   -0.60488739
     atom    2 type  1   force =    -0.48372546   -0.50281361    0.60488739
     atom    3 type  1   force =     0.48372546    0.50281361   -0.60488739
     atom    4 type  1   force =    -0.83046859   -0.29223531    0.00000000
     atom    5 type  1   force =    -0.48372546   -0.50281361   -0.60488739
     atom    6 type  1   force =     0.48372546   -0.50281361    0.60488739
     atom    7 type  1   force =     0.83046859   -0.29223531    0.00000000
     atom    8 type  1   force =    -0.48372546    0.50281361   -0.60488739
     atom    9 type  1   force =     0.48372546    0.50281361    0.60488739
     atom   10 type  1   force =     0.83046859    0.29223531    0.00000000
     atom   11 type  1   force =    -0.48372546    0.50281361    0.60488739
     atom   12 type  1   force =    -0.83046859    0.29223531    0.00000000
     atom   13 type  2   force =     0.00000000    0.00000000    0.00000000
     atom   14 type  2   force =     0.00000000    0.00000000    0.00000000
     atom   15 type  2   force =     0.00000000    0.00000000    0.00000000
     atom   16 type  2   force =     0.00000000    0.00000000    0.00000000

     Total force =     3.149908     Total SCF correction =     0.000000

     entering subroutine stress ...

          total   stress  (Ry/bohr**3)                   (kbar)     P= 3440.17
   0.02362246   0.00000000   0.00000000       3474.98      0.00      0.00
   0.00000000   0.02314050   0.00000000          0.00   3404.08      0.00
   0.00000000   0.00000000   0.02339437          0.00      0.00   3441.43

     Writing output data file Prototype-La-oP16-Fe3C.save

     General routines

     Parallel routines

   This run was terminated on:  18:31:26  22Mar2018

   JOB DONE.