     Program PWSCF v.5.0.2 starts on 22Mar2018 at 17:40:20

     Current dimensions of program PWSCF are:
     Max number of different atomic species (ntypx) = 10
     Max number of k-points (npk) =  40000
     Max angular momentum in pseudopotentials (lmaxx) =  3
     Waiting for input...
     Reading input from standard input

     Subspace diagonalization in iterative solution of the eigenvalue problem:
     a serial algorithm will be used

     bravais-lattice index     =            0
     lattice parameter (alat)  =      12.0168  a.u.
     unit-cell volume          =    1187.3413 (a.u.)^3
     number of atoms/cell      =            8
     number of atomic types    =            2
     number of electrons       =       162.00
     number of Kohn-Sham states=           97
     kinetic-energy cutoff     =      40.0000  Ry
     charge density cutoff     =     160.0000  Ry
     convergence threshold     =      1.0E-04
     mixing beta               =       0.7000
     number of iterations used =            8  plain     mixing
     Exchange-correlation      = SLA-PZ-NOGX-NOGC ( 1 1 0 0 0)
     EXX-fraction              =        0.00
     nstep                     =           50

     celldm(1)=  12.016801  celldm(2)=   0.000000  celldm(3)=   0.000000
     celldm(4)=   0.000000  celldm(5)=   0.000000  celldm(6)=   0.000000

     crystal axes: (cart. coord. in units of alat)
               a(1) = (   1.000000   0.000000   0.000000 )
               a(2) = (  -0.500000   0.866025   0.000000 )
               a(3) = (   0.000000   0.000000   0.790093 )

     reciprocal axes: (cart. coord. in units 2 pi/alat)
               b(1) = (  1.000000  0.577350  0.000000 )
               b(2) = (  0.000000  1.154701  0.000000 )
               b(3) = (  0.000000  0.000000  1.265674 )

     PseudoPot. # 1 for Tb read from file:
     /home/cwx6513/pp.La/Tb.UPF
     MD5 check sum: 3d6088a3f0cf7fd2e110c43f7f8e95c2
     Pseudo is Norm-conserving, Zval = 19.0
     Generated in analytical, separable form
     Using radial grid of 1263 points,  6 beta functions with:
                l(1) =   0
                l(2) =   0
                l(3) =   1
                l(4) =   1
                l(5) =   2
                l(6) =   3

     PseudoPot. # 2 for Yb read from file:
     /home/cwx6513/pp.La/Yb.UPF
     MD5 check sum: 3e859b81cc28c53ec6aa3a2e888efcdf
     Pseudo is Norm-conserving, Zval = 24.0
     Generated in analytical, separable form
     Using radial grid of 1269 points,  6 beta functions with:
                l(1) =   0
                l(2) =   0
                l(3) =   1
                l(4) =   1
                l(5) =   2
                l(6) =   3

     atomic species   valence    mass     pseudopotential
        Mg            19.00    24.30500     Tb( 1.00)
        Cd            24.00   112.41100     Yb( 1.00)

     24 Sym. Ops., with inversion, found (12 have fractional translation)

   Cartesian axes

     site n.     atom                  positions (alat units)
         1           Mg  tau(   1) = (   0.2478935   0.7204716   0.1975233  )
         2           Mg  tau(   2) = (   0.7478935   0.1455538   0.5925699  )
         3           Mg  tau(   3) = (   0.2521065   0.1455538   0.5925699  )
         4           Mg  tau(   4) = (  -0.2478935   0.7204716   0.1975233  )
         5           Mg  tau(   5) = (   0.0000000   0.2911075   0.1975233  )
         6           Mg  tau(   6) = (   0.5000000   0.5749179   0.5925699  )
         7           Cd  tau(   7) = (   0.5000005   0.2886748   0.1975233  )
         8           Cd  tau(   8) = (  -0.0000005   0.5773506   0.5925699  )

     number of k points=    64  gaussian smearing, width (Ry)=  0.1000
                       cart. coord. in units 2pi/alat
        k(    1) = (   0.0000000   0.0000000   0.0000000), wk =   0.0095238
        k(    2) = (   0.0000000   0.0000000   0.1808105), wk =   0.0190476
        k(    3) = (   0.0000000   0.0000000   0.3616210), wk =   0.0190476
        k(    4) = (   0.0000000   0.0000000   0.5424315), wk =   0.0190476
        k(    5) = (   0.0000000   0.1924501   0.0000000), wk =   0.0190476
        k(    6) = (   0.0000000   0.1924501   0.1808105), wk =   0.0380952
        k(    7) = (   0.0000000   0.1924501   0.3616210), wk =   0.0380952
        k(    8) = (   0.0000000   0.1924501   0.5424315), wk =   0.0380952
        k(    9) = (   0.0000000   0.3849002   0.0000000), wk =   0.0190476
        k(   10) = (   0.0000000   0.3849002   0.1808105), wk =   0.0380952
        k(   11) = (   0.0000000   0.3849002   0.3616210), wk =   0.0380952
        k(   12) = (   0.0000000   0.3849002   0.5424315), wk =   0.0380952
        k(   13) = (   0.0000000  -0.5773503   0.0000000), wk =   0.0095238
        k(   14) = (   0.0000000  -0.5773503   0.1808105), wk =   0.0190476
        k(   15) = (   0.0000000  -0.5773503   0.3616210), wk =   0.0190476
        k(   16) = (   0.0000000  -0.5773503   0.5424315), wk =   0.0190476
        k(   17) = (   0.2000000   0.1154701   0.0000000), wk =   0.0190476
        k(   18) = (   0.2000000   0.1154701   0.1808105), wk =   0.0380952
        k(   19) = (   0.2000000   0.1154701   0.3616210), wk =   0.0380952
        k(   20) = (   0.2000000   0.1154701   0.5424315), wk =   0.0380952
        k(   21) = (   0.2000000   0.3079201   0.0000000), wk =   0.0190476
        k(   22) = (   0.2000000   0.3079201   0.1808105), wk =   0.0380952
        k(   23) = (   0.2000000   0.3079201   0.3616210), wk =   0.0380952
        k(   24) = (   0.2000000   0.3079201   0.5424315), wk =   0.0380952
        k(   25) = (   0.2000000   0.5003702   0.0000000), wk =   0.0190476
        k(   26) = (   0.2000000   0.5003702   0.1808105), wk =   0.0380952
        k(   27) = (   0.2000000   0.5003702   0.3616210), wk =   0.0380952
        k(   28) = (   0.2000000   0.5003702   0.5424315), wk =   0.0380952
        k(   29) = (   0.2000000  -0.4618802   0.0000000), wk =   0.0190476
        k(   30) = (   0.2000000  -0.4618802   0.1808105), wk =   0.0380952
        k(   31) = (   0.2000000  -0.4618802   0.3616210), wk =   0.0380952
        k(   32) = (   0.2000000  -0.4618802   0.5424315), wk =   0.0380952
        k(   33) = (   0.2000000  -0.2694301   0.0000000), wk =   0.0190476
        k(   34) = (   0.2000000  -0.2694301   0.1808105), wk =   0.0380952
        k(   35) = (   0.2000000  -0.2694301   0.3616210), wk =   0.0380952
        k(   36) = (   0.2000000  -0.2694301   0.5424315), wk =   0.0380952
        k(   37) = (   0.2000000  -0.0769800   0.0000000), wk =   0.0190476
        k(   38) = (   0.2000000  -0.0769800   0.1808105), wk =   0.0380952
        k(   39) = (   0.2000000  -0.0769800   0.3616210), wk =   0.0380952
        k(   40) = (   0.2000000  -0.0769800   0.5424315), wk =   0.0380952
        k(   41) = (   0.4000000   0.2309401   0.0000000), wk =   0.0190476
        k(   42) = (   0.4000000   0.2309401   0.1808105), wk =   0.0380952
        k(   43) = (   0.4000000   0.2309401   0.3616210), wk =   0.0380952
        k(   44) = (   0.4000000   0.2309401   0.5424315), wk =   0.0380952
        k(   45) = (   0.4000000   0.4233902   0.0000000), wk =   0.0190476
        k(   46) = (   0.4000000   0.4233902   0.1808105), wk =   0.0380952
        k(   47) = (   0.4000000   0.4233902   0.3616210), wk =   0.0380952
        k(   48) = (   0.4000000   0.4233902   0.5424315), wk =   0.0380952
        k(   49) = (   0.4000000   0.6158403   0.0000000), wk =   0.0190476
        k(   50) = (   0.4000000   0.6158403   0.1808105), wk =   0.0380952
        k(   51) = (   0.4000000   0.6158403   0.3616210), wk =   0.0380952
        k(   52) = (   0.4000000   0.6158403   0.5424315), wk =   0.0380952
        k(   53) = (   0.4000000  -0.3464102   0.0000000), wk =   0.0190476
        k(   54) = (   0.4000000  -0.3464102   0.1808105), wk =   0.0380952
        k(   55) = (   0.4000000  -0.3464102   0.3616210), wk =   0.0380952
        k(   56) = (   0.4000000  -0.3464102   0.5424315), wk =   0.0380952
        k(   57) = (   0.4000000  -0.1539601   0.0000000), wk =   0.0190476
        k(   58) = (   0.4000000  -0.1539601   0.1808105), wk =   0.0380952
        k(   59) = (   0.4000000  -0.1539601   0.3616210), wk =   0.0380952
        k(   60) = (   0.4000000  -0.1539601   0.5424315), wk =   0.0380952
        k(   61) = (   0.4000000   0.0384900   0.0000000), wk =   0.0190476
        k(   62) = (   0.4000000   0.0384900   0.1808105), wk =   0.0380952
        k(   63) = (   0.4000000   0.0384900   0.3616210), wk =   0.0380952
        k(   64) = (   0.4000000   0.0384900   0.5424315), wk =   0.0380952

     Largest allocated arrays     est. size (Mb)     dimensions
     Largest temporary arrays     est. size (Mb)     dimensions

     Initial potential from superposition of free atoms

     Starting from uniform charge
     Starting wfc are    0 randomized atomic wfcs

     Self-consistent Calculation

     iteration #  1     ecut=    40.00 Ry     beta=0.70
     CG style diagonalization
     ethr =  1.00E-02,  avg # of iterations = 16.6

     total energy              =   -1593.87743050 Ry
     Harris-Foulkes estimate   =   -2854.04915894 Ry
     estimated scf accuracy    <    1529.43828873 Ry

     iteration #  2     ecut=    40.00 Ry     beta=0.70
     CG style diagonalization
     c_bands:  3 eigenvalues not converged
     c_bands:  5 eigenvalues not converged
     c_bands:  2 eigenvalues not converged
     c_bands:  3 eigenvalues not converged
     c_bands:  4 eigenvalues not converged
     c_bands:  3 eigenvalues not converged
     c_bands:  2 eigenvalues not converged
     c_bands:  3 eigenvalues not converged
     c_bands:  2 eigenvalues not converged
     c_bands:  2 eigenvalues not converged
     c_bands:  4 eigenvalues not converged
     c_bands:  3 eigenvalues not converged
     c_bands:  1 eigenvalues not converged
     c_bands:  3 eigenvalues not converged
     c_bands:  2 eigenvalues not converged
     c_bands:  3 eigenvalues not converged
     c_bands:  2 eigenvalues not converged
     c_bands:  5 eigenvalues not converged
     c_bands:  1 eigenvalues not converged
     c_bands:  3 eigenvalues not converged
     c_bands:  5 eigenvalues not converged
     c_bands:  2 eigenvalues not converged
     c_bands:  2 eigenvalues not converged
     c_bands:  5 eigenvalues not converged
     c_bands:  2 eigenvalues not converged
     c_bands:  3 eigenvalues not converged
     c_bands:  4 eigenvalues not converged
     c_bands:  3 eigenvalues not converged
     c_bands:  3 eigenvalues not converged
     c_bands:  2 eigenvalues not converged
     c_bands:  4 eigenvalues not converged
     c_bands:  5 eigenvalues not converged
     c_bands:  1 eigenvalues not converged
     c_bands:  4 eigenvalues not converged
     c_bands:  5 eigenvalues not converged
     c_bands:  1 eigenvalues not converged
     c_bands:  1 eigenvalues not converged
     c_bands:  4 eigenvalues not converged
     c_bands:  2 eigenvalues not converged
     c_bands:  2 eigenvalues not converged
     c_bands:  3 eigenvalues not converged
     c_bands:  5 eigenvalues not converged
     c_bands:  3 eigenvalues not converged
[...]
        k(   16) = (   0.0000000  -0.6242741   0.5822076), wk =   0.0190476
        k(   17) = (   0.2162549   0.1248548   0.0000000), wk =   0.0190476
        k(   18) = (   0.2162549   0.1248548   0.1940692), wk =   0.0380952
        k(   19) = (   0.2162549   0.1248548   0.3881384), wk =   0.0380952
        k(   20) = (   0.2162549   0.1248548   0.5822076), wk =   0.0380952
        k(   21) = (   0.2162549   0.3329462   0.0000000), wk =   0.0190476
        k(   22) = (   0.2162549   0.3329462   0.1940692), wk =   0.0380952
        k(   23) = (   0.2162549   0.3329462   0.3881384), wk =   0.0380952
        k(   24) = (   0.2162549   0.3329462   0.5822076), wk =   0.0380952
        k(   25) = (   0.2162549   0.5410376   0.0000000), wk =   0.0190476
        k(   26) = (   0.2162549   0.5410376   0.1940692), wk =   0.0380952
        k(   27) = (   0.2162549   0.5410376   0.3881384), wk =   0.0380952
        k(   28) = (   0.2162549   0.5410376   0.5822076), wk =   0.0380952
        k(   29) = (   0.2162549  -0.4994193   0.0000000), wk =   0.0190476
        k(   30) = (   0.2162549  -0.4994193   0.1940692), wk =   0.0380952
        k(   31) = (   0.2162549  -0.4994193   0.3881384), wk =   0.0380952
        k(   32) = (   0.2162549  -0.4994193   0.5822076), wk =   0.0380952
        k(   33) = (   0.2162549  -0.2913279   0.0000000), wk =   0.0190476
        k(   34) = (   0.2162549  -0.2913279   0.1940692), wk =   0.0380952
        k(   35) = (   0.2162549  -0.2913279   0.3881384), wk =   0.0380952
        k(   36) = (   0.2162549  -0.2913279   0.5822076), wk =   0.0380952
        k(   37) = (   0.2162549  -0.0832366   0.0000000), wk =   0.0190476
        k(   38) = (   0.2162549  -0.0832366   0.1940692), wk =   0.0380952
        k(   39) = (   0.2162549  -0.0832366   0.3881384), wk =   0.0380952
        k(   40) = (   0.2162549  -0.0832366   0.5822076), wk =   0.0380952
        k(   41) = (   0.4325098   0.2497097   0.0000000), wk =   0.0190476
        k(   42) = (   0.4325098   0.2497097   0.1940692), wk =   0.0380952
        k(   43) = (   0.4325098   0.2497097   0.3881384), wk =   0.0380952
        k(   44) = (   0.4325098   0.2497097   0.5822076), wk =   0.0380952
        k(   45) = (   0.4325098   0.4578010   0.0000000), wk =   0.0190476
        k(   46) = (   0.4325098   0.4578010   0.1940692), wk =   0.0380952
        k(   47) = (   0.4325098   0.4578010   0.3881384), wk =   0.0380952
        k(   48) = (   0.4325098   0.4578010   0.5822076), wk =   0.0380952
        k(   49) = (   0.4325098   0.6658924   0.0000000), wk =   0.0190476
        k(   50) = (   0.4325098   0.6658924   0.1940692), wk =   0.0380952
        k(   51) = (   0.4325098   0.6658924   0.3881384), wk =   0.0380952
        k(   52) = (   0.4325098   0.6658924   0.5822076), wk =   0.0380952
        k(   53) = (   0.4325098  -0.3745645   0.0000000), wk =   0.0190476
        k(   54) = (   0.4325098  -0.3745645   0.1940692), wk =   0.0380952
        k(   55) = (   0.4325098  -0.3745645   0.3881384), wk =   0.0380952
        k(   56) = (   0.4325098  -0.3745645   0.5822076), wk =   0.0380952
        k(   57) = (   0.4325098  -0.1664731   0.0000000), wk =   0.0190476
        k(   58) = (   0.4325098  -0.1664731   0.1940692), wk =   0.0380952
        k(   59) = (   0.4325098  -0.1664731   0.3881384), wk =   0.0380952
        k(   60) = (   0.4325098  -0.1664731   0.5822076), wk =   0.0380952
        k(   61) = (   0.4325098   0.0416183   0.0000000), wk =   0.0190476
        k(   62) = (   0.4325098   0.0416183   0.1940692), wk =   0.0380952
        k(   63) = (   0.4325098   0.0416183   0.3881384), wk =   0.0380952
        k(   64) = (   0.4325098   0.0416183   0.5822076), wk =   0.0380952

[...]

     Threshold (ethr) on eigenvalues was too large:
     Diagonalizing with lowered threshold

     CG style diagonalization
     ethr =  3.53E-08,  avg # of iterations =  3.6

[...]

     The maximum number of steps has been reached.

     End of BFGS Geometry Optimization
Begin final coordinates
     new unit-cell volume =    946.17335 a.u.^3 (   140.20842 Ang^3 )

CELL_PARAMETERS (alat= 12.01680127)
   0.924834522   0.000000000   0.000000000
  -0.462417261   0.800930191   0.000000000
   0.000000000   0.000000000   0.736114508

ATOMIC_POSITIONS (crystal)
Mg       0.668279135   0.834139568   0.250000000
Mg       0.834139568   0.165860432   0.750000000
Mg       0.331720865   0.165860432   0.750000000
Mg       0.165860432   0.834139568   0.250000000
Mg       0.165860432   0.331720865   0.250000000
Mg       0.834139568   0.668279135   0.750000000
Cd       0.666667000   0.333333000   0.250000000
Cd       0.333333000   0.666667000   0.750000000
End final coordinates

     A final scf calculation at the relaxed structure.
     The G-vectors are recalculated for the final unit cell
     Results may differ from those at the preceding step.

     bravais-lattice index     =            0
     lattice parameter (alat)  =      12.0168  a.u.
     unit-cell volume          =     946.1734 (a.u.)^3
     number of atoms/cell      =            8
     number of atomic types    =            2
     number of electrons       =       162.00
     number of Kohn-Sham states=           97
     kinetic-energy cutoff     =      40.0000  Ry
     charge density cutoff     =     160.0000  Ry
     convergence threshold     =      1.0E-04
     mixing beta               =       0.7000
     number of iterations used =            8  plain     mixing
     Exchange-correlation      = SLA-PZ-NOGX-NOGC ( 1 1 0 0 0)
     EXX-fraction              =        0.00

     celldm(1)=  12.016801  celldm(2)=   0.000000  celldm(3)=   0.000000
     celldm(4)=   0.000000  celldm(5)=   0.000000  celldm(6)=   0.000000

     crystal axes: (cart. coord. in units of alat)
               a(1) = (   0.924835   0.000000   0.000000 )
               a(2) = (  -0.462417   0.800930   0.000000 )
               a(3) = (   0.000000   0.000000   0.736115 )

     reciprocal axes: (cart. coord. in units 2 pi/alat)
               b(1) = (  1.081275  0.624274  0.000000 )
               b(2) = (  0.000000  1.248548  0.000000 )
               b(3) = (  0.000000  0.000000  1.358484 )

     PseudoPot. # 1 for Tb read from file:
     /home/cwx6513/pp.La/Tb.UPF
     MD5 check sum: 3d6088a3f0cf7fd2e110c43f7f8e95c2
     Pseudo is Norm-conserving, Zval = 19.0
     Generated in analytical, separable form
     Using radial grid of 1263 points,  6 beta functions with:
                l(1) =   0
                l(2) =   0
                l(3) =   1
                l(4) =   1
                l(5) =   2
                l(6) =   3

     PseudoPot. # 2 for Yb read from file:
     /home/cwx6513/pp.La/Yb.UPF
     MD5 check sum: 3e859b81cc28c53ec6aa3a2e888efcdf
     Pseudo is Norm-conserving, Zval = 24.0
     Generated in analytical, separable form
     Using radial grid of 1269 points,  6 beta functions with:
                l(1) =   0
                l(2) =   0
                l(3) =   1
                l(4) =   1
                l(5) =   2
                l(6) =   3

     atomic species   valence    mass     pseudopotential
        Mg            19.00    24.30500     Tb( 1.00)
        Cd            24.00   112.41100     Yb( 1.00)

     24 Sym. Ops., with inversion, found (12 have fractional translation)

   Cartesian axes

     site n.     atom                  positions (alat units)
         1           Mg  tau(   1) = (   0.2323271   0.6680876   0.1840286  )
         2           Mg  tau(   2) = (   0.6947443   0.1328426   0.5520859  )
         3           Mg  tau(   3) = (   0.2300902   0.1328426   0.5520859  )
         4           Mg  tau(   4) = (  -0.2323271   0.6680876   0.1840286  )
         5           Mg  tau(   5) = (   0.0000000   0.2656853   0.1840286  )
         6           Mg  tau(   6) = (   0.4624173   0.5352449   0.5520859  )
         7           Cd  tau(   7) = (   0.4624177   0.2669765   0.1840286  )
         8           Cd  tau(   8) = (  -0.0000005   0.5339537   0.5520859  )

     number of k points=    64  gaussian smearing, width (Ry)=  0.1000
                       cart. coord. in units 2pi/alat
        k(    1) = (   0.0000000   0.0000000   0.0000000), wk =   0.0095238
        k(    2) = (   0.0000000   0.0000000   0.1940692), wk =   0.0190476
        k(    3) = (   0.0000000   0.0000000   0.3881384), wk =   0.0190476
        k(    4) = (   0.0000000   0.0000000   0.5822076), wk =   0.0190476
        k(    5) = (   0.0000000   0.2080914   0.0000000), wk =   0.0190476
        k(    6) = (   0.0000000   0.2080914   0.1940692), wk =   0.0380952
        k(    7) = (   0.0000000   0.2080914   0.3881384), wk =   0.0380952
        k(    8) = (   0.0000000   0.2080914   0.5822076), wk =   0.0380952
        k(    9) = (   0.0000000   0.4161828   0.0000000), wk =   0.0190476
        k(   10) = (   0.0000000   0.4161828   0.1940692), wk =   0.0380952
        k(   11) = (   0.0000000   0.4161828   0.3881384), wk =   0.0380952
        k(   12) = (   0.0000000   0.4161828   0.5822076), wk =   0.0380952
        k(   13) = (   0.0000000  -0.6242741   0.0000000), wk =   0.0095238
        k(   14) = (   0.0000000  -0.6242741   0.1940692), wk =   0.0190476
        k(   15) = (   0.0000000  -0.6242741   0.3881384), wk =   0.0190476
        k(   16) = (   0.0000000  -0.6242741   0.5822076), wk =   0.0190476
        k(   17) = (   0.2162549   0.1248548   0.0000000), wk =   0.0190476
        k(   18) = (   0.2162549   0.1248548   0.1940692), wk =   0.0380952
        k(   19) = (   0.2162549   0.1248548   0.3881384), wk =   0.0380952
        k(   20) = (   0.2162549   0.1248548   0.5822076), wk =   0.0380952
        k(   21) = (   0.2162549   0.3329462   0.0000000), wk =   0.0190476
        k(   22) = (   0.2162549   0.3329462   0.1940692), wk =   0.0380952
        k(   23) = (   0.2162549   0.3329462   0.3881384), wk =   0.0380952
        k(   24) = (   0.2162549   0.3329462   0.5822076), wk =   0.0380952
        k(   25) = (   0.2162549   0.5410376   0.0000000), wk =   0.0190476
        k(   26) = (   0.2162549   0.5410376   0.1940692), wk =   0.0380952
        k(   27) = (   0.2162549   0.5410376   0.3881384), wk =   0.0380952
        k(   28) = (   0.2162549   0.5410376   0.5822076), wk =   0.0380952
        k(   29) = (   0.2162549  -0.4994193   0.0000000), wk =   0.0190476
        k(   30) = (   0.2162549  -0.4994193   0.1940692), wk =   0.0380952
        k(   31) = (   0.2162549  -0.4994193   0.3881384), wk =   0.0380952
        k(   32) = (   0.2162549  -0.4994193   0.5822076), wk =   0.0380952
        k(   33) = (   0.2162549  -0.2913279   0.0000000), wk =   0.0190476
        k(   34) = (   0.2162549  -0.2913279   0.1940692), wk =   0.0380952
        k(   35) = (   0.2162549  -0.2913279   0.3881384), wk =   0.0380952
        k(   36) = (   0.2162549  -0.2913279   0.5822076), wk =   0.0380952
        k(   37) = (   0.2162549  -0.0832366   0.0000000), wk =   0.0190476
        k(   38) = (   0.2162549  -0.0832366   0.1940692), wk =   0.0380952
        k(   39) = (   0.2162549  -0.0832366   0.3881384), wk =   0.0380952
        k(   40) = (   0.2162549  -0.0832366   0.5822076), wk =   0.0380952
        k(   41) = (   0.4325098   0.2497097   0.0000000), wk =   0.0190476
        k(   42) = (   0.4325098   0.2497097   0.1940692), wk =   0.0380952
        k(   43) = (   0.4325098   0.2497097   0.3881384), wk =   0.0380952
        k(   44) = (   0.4325098   0.2497097   0.5822076), wk =   0.0380952
        k(   45) = (   0.4325098   0.4578010   0.0000000), wk =   0.0190476
        k(   46) = (   0.4325098   0.4578010   0.1940692), wk =   0.0380952
        k(   47) = (   0.4325098   0.4578010   0.3881384), wk =   0.0380952
        k(   48) = (   0.4325098   0.4578010   0.5822076), wk =   0.0380952
        k(   49) = (   0.4325098   0.6658924   0.0000000), wk =   0.0190476
        k(   50) = (   0.4325098   0.6658924   0.1940692), wk =   0.0380952
        k(   51) = (   0.4325098   0.6658924   0.3881384), wk =   0.0380952
        k(   52) = (   0.4325098   0.6658924   0.5822076), wk =   0.0380952
        k(   53) = (   0.4325098  -0.3745645   0.0000000), wk =   0.0190476
        k(   54) = (   0.4325098  -0.3745645   0.1940692), wk =   0.0380952
        k(   55) = (   0.4325098  -0.3745645   0.3881384), wk =   0.0380952
        k(   56) = (   0.4325098  -0.3745645   0.5822076), wk =   0.0380952
        k(   57) = (   0.4325098  -0.1664731   0.0000000), wk =   0.0190476
        k(   58) = (   0.4325098  -0.1664731   0.1940692), wk =   0.0380952
        k(   59) = (   0.4325098  -0.1664731   0.3881384), wk =   0.0380952
        k(   60) = (   0.4325098  -0.1664731   0.5822076), wk =   0.0380952
        k(   61) = (   0.4325098   0.0416183   0.0000000), wk =   0.0190476
        k(   62) = (   0.4325098   0.0416183   0.1940692), wk =   0.0380952
        k(   63) = (   0.4325098   0.0416183   0.3881384), wk =   0.0380952
        k(   64) = (   0.4325098   0.0416183   0.5822076), wk =   0.0380952

     Largest allocated arrays     est. size (Mb)     dimensions
     Largest temporary arrays     est. size (Mb)     dimensions

     Initial potential from superposition of free atoms

     Starting from uniform charge
     Starting wfc are    0 randomized atomic wfcs

     Writing output data file Prototype-La-hP8-Mg3Cd.save

     Self-consistent Calculation

[...]

     iteration #  9     ecut=    40.00 Ry     beta=0.70
     CG style diagonalization
     ethr =  1.28E-05,  avg # of iterations =  3.5

[...]

     total energy              =   -2194.84267650 Ry
     Harris-Foulkes estimate   =   -2194.84278982 Ry
     estimated scf accuracy    <       0.00026880 Ry

     iteration # 11     ecut=    40.00 Ry     beta=0.70
     CG style diagonalization
     c_bands:  1 eigenvalues not converged
     c_bands:  1 eigenvalues not converged
     c_bands:  1 eigenvalues not converged
     ethr =  1.37E-07,  avg # of iterations =  3.4

     End of self-consistent calculation

[...]

          k = 0.4325 0.0416 0.5822 (  4054 PWs)   bands (ev):

   -93.6757 -93.6636 -52.4835 -52.4812 -52.4661 -52.4629 -52.4606 -52.4595
   -45.3393 -45.3210 -45.3025 -45.2960 -45.2872 -45.2832 -14.0727 -14.0521
   -14.0425 -14.0311 -13.9810 -13.9732 -13.7869 -13.7559 -13.7008 -13.6990
   -13.6431 -13.6043 -13.5839 -13.5765 -13.5701 -13.5342 -13.5056 -13.4961
     5.4224   5.4240   5.4326   5.4385   5.4448   5.4481   5.4718   5.4762
     5.4894   5.4952  16.8305  16.9189  20.4048  20.5717  21.0743  21.1278
    21.3441  21.4986  21.6281  21.7209  21.9023  22.0814  22.3235  22.3866
    22.6333  22.6916  23.0259  23.0622  23.5799  23.6541  23.8035  24.4383
    24.5115  24.6004  24.9673  25.0891  25.1873  25.2694  25.5306  25.6333
    26.2682  26.5476  26.7197  26.9402  26.9818  27.6364  29.0872  29.2859
    31.3113  31.6567  33.7852  34.3204  35.2240  35.4767  35.8155  36.4630
    36.7191  37.2901  37.6561  37.6880  37.9904  38.1002  38.5727  38.7925
    38.8854

     the Fermi energy is    31.5328 ev

!    total energy              =   -2194.84267167 Ry
     Harris-Foulkes estimate   =   -2194.84270518 Ry
     estimated scf accuracy    <       0.00003662 Ry

     The total energy is the sum of the following terms:

     one-electron contribution =    -366.44436582 Ry
     hartree contribution      =     310.41491086 Ry
     xc contribution           =    -197.69550463 Ry
     ewald contribution        =   -1940.97228364 Ry
     smearing contrib. (-TS)   =      -0.14542844 Ry

     convergence has been achieved in  11 iterations

     Forces acting on atoms (Ry/au):

     atom    1 type  1   force =     0.02192408    0.01265787    0.00000000
     atom    2 type  1   force =     0.02192408   -0.01265787    0.00000000
     atom    3 type  1   force =    -0.02192408   -0.01265787    0.00000000
     atom    4 type  1   force =    -0.02192408    0.01265787    0.00000000
     atom    5 type  1   force =     0.00000000   -0.02531575    0.00000000
     atom    6 type  1   force =     0.00000000    0.02531575    0.00000000
     atom    7 type  2   force =     0.00000000    0.00000000    0.00000000
     atom    8 type  2   force =     0.00000000    0.00000000    0.00000000

     Total force =     0.062011     Total SCF correction =     0.000000

     entering subroutine stress ...

          total   stress  (Ry/bohr**3)                   (kbar)     P=  255.41
   0.00149481   0.00000000   0.00000000        219.89      0.00      0.00
   0.00000000   0.00149481   0.00000000          0.00    219.89      0.00
   0.00000000   0.00000000   0.00221906          0.00      0.00    326.43

     Writing output data file Prototype-La-hP8-Mg3Cd.save

     General routines

     Parallel routines

   This run was terminated on:  18:24:38  22Mar2018

   JOB DONE.