     Program PWSCF v.5.0.2 starts on 22Mar2018 at 17:38:37

     Current dimensions of program PWSCF are:
     Max number of different atomic species (ntypx) = 10
     Max number of k-points (npk) =  40000
     Max angular momentum in pseudopotentials (lmaxx) =  3
     Waiting for input...
     Reading input from standard input

     Subspace diagonalization in iterative solution of the eigenvalue problem:
     a serial algorithm will be used

     bravais-lattice index     =            0
     lattice parameter (alat)  =       8.5346  a.u.
     unit-cell volume          =     621.6493 (a.u.)^3
     number of atoms/cell      =            8
     number of atomic types    =            2
     number of electrons       =       162.00
     number of Kohn-Sham states=           97
     kinetic-energy cutoff     =      40.0000  Ry
     charge density cutoff     =     160.0000  Ry
     convergence threshold     =      1.0E-04
     mixing beta               =       0.7000
     number of iterations used =            8  plain     mixing
     Exchange-correlation      = SLA-PZ-NOGX-NOGC ( 1 1 0 0 0)
     EXX-fraction              =        0.00
     nstep                     =           50

     celldm(1)=   8.534573  celldm(2)=   0.000000  celldm(3)=   0.000000
     celldm(4)=   0.000000  celldm(5)=   0.000000  celldm(6)=   0.000000

     crystal axes: (cart. coord. in units of alat)
               a(1) = (   1.000000   0.000000   0.000000 )
               a(2) = (   0.000000   1.000000   0.000000 )
               a(3) = (   0.000000   0.000000   1.000000 )

     reciprocal axes: (cart. coord. in units 2 pi/alat)
               b(1) = (  1.000000  0.000000  0.000000 )
               b(2) = (  0.000000  1.000000  0.000000 )
               b(3) = (  0.000000  0.000000  1.000000 )

     PseudoPot. # 1 for Tb read from file:
     /home/cwx6513/pp.La/Tb.UPF
     MD5 check sum: 3d6088a3f0cf7fd2e110c43f7f8e95c2
     Pseudo is Norm-conserving, Zval = 19.0
     Generated in analytical, separable form
     Using radial grid of 1263 points,  6 beta functions with:
                l(1) =   0
                l(2) =   0
                l(3) =   1
                l(4) =   1
                l(5) =   2
                l(6) =   3

     PseudoPot. # 2 for Yb read from file:
     /home/cwx6513/pp.La/Yb.UPF
     MD5 check sum: 3e859b81cc28c53ec6aa3a2e888efcdf
     Pseudo is Norm-conserving, Zval = 24.0
     Generated in analytical, separable form
     Using radial grid of 1269 points,  6 beta functions with:
                l(1) =   0
                l(2) =   0
                l(3) =   1
                l(4) =   1
                l(5) =   2
                l(6) =   3

     atomic species   valence    mass     pseudopotential
        Cr            19.00    51.99610     Tb( 1.00)
        Si            24.00    28.08550     Yb( 1.00)

     48 Sym. Ops., with inversion, found (24 have fractional translation)

   Cartesian axes

     site n.     atom                  positions (alat units)
         1           Cr  tau(   1) = (   0.0000000   0.5000000   0.2500000  )
         2           Cr  tau(   2) = (   0.0000000   0.5000000   0.7500000  )
         3           Cr  tau(   3) = (   0.5000000   0.7500000   0.0000000  )
         4           Cr  tau(   4) = (   0.5000000   0.2500000   0.0000000  )
         5           Cr  tau(   5) = (   0.7500000   0.0000000   0.5000000  )
         6           Cr  tau(   6) = (   0.2500000   0.0000000   0.5000000  )
         7           Si  tau(   7) = (   0.5000000   0.5000000   0.5000000  )
         8           Si  tau(   8) = (   0.0000000   0.0000000   0.0000000  )

     number of k points=    48  gaussian smearing, width (Ry)=  0.1000
                       cart. coord. in units 2pi/alat
        k(    1) = (   0.0000000   0.0000000   0.0000000), wk =   0.0095238
        k(    2) = (   0.0000000   0.0000000   0.1428571), wk =   0.0190476
        k(    3) = (   0.0000000   0.0000000   0.2857143), wk =   0.0190476
        k(    4) = (   0.0000000   0.0000000   0.4285714), wk =   0.0190476
        k(    5) = (   0.0000000   0.1666667   0.0000000), wk =   0.0190476
        k(    6) = (   0.0000000   0.1666667   0.1428571), wk =   0.0380952
        k(    7) = (   0.0000000   0.1666667   0.2857143), wk =   0.0380952
        k(    8) = (   0.0000000   0.1666667   0.4285714), wk =   0.0380952
        k(    9) = (   0.0000000   0.3333333   0.0000000), wk =   0.0190476
        k(   10) = (   0.0000000   0.3333333   0.1428571), wk =   0.0380952
        k(   11) = (   0.0000000   0.3333333   0.2857143), wk =   0.0380952
        k(   12) = (   0.0000000   0.3333333   0.4285714), wk =   0.0380952
        k(   13) = (   0.0000000  -0.5000000   0.0000000), wk =   0.0095238
        k(   14) = (   0.0000000  -0.5000000   0.1428571), wk =   0.0190476
        k(   15) = (   0.0000000  -0.5000000   0.2857143), wk =   0.0190476
        k(   16) = (   0.0000000  -0.5000000   0.4285714), wk =   0.0190476
        k(   17) = (   0.2000000   0.0000000   0.0000000), wk =   0.0190476
        k(   18) = (   0.2000000   0.0000000   0.1428571), wk =   0.0380952
        k(   19) = (   0.2000000   0.0000000   0.2857143), wk =   0.0380952
        k(   20) = (   0.2000000   0.0000000   0.4285714), wk =   0.0380952
        k(   21) = (   0.2000000   0.1666667   0.0000000), wk =   0.0380952
        k(   22) = (   0.2000000   0.1666667   0.1428571), wk =   0.0761905
        k(   23) = (   0.2000000   0.1666667   0.2857143), wk =   0.0761905
        k(   24) = (   0.2000000   0.1666667   0.4285714), wk =   0.0761905
        k(   25) = (   0.2000000   0.3333333   0.0000000), wk =   0.0380952
        k(   26) = (   0.2000000   0.3333333   0.1428571), wk =   0.0761905
        k(   27) = (   0.2000000   0.3333333   0.2857143), wk =   0.0761905
        k(   28) = (   0.2000000   0.3333333   0.4285714), wk =   0.0761905
        k(   29) = (   0.2000000  -0.5000000   0.0000000), wk =   0.0190476
        k(   30) = (   0.2000000  -0.5000000   0.1428571), wk =   0.0380952
        k(   31) = (   0.2000000  -0.5000000   0.2857143), wk =   0.0380952
        k(   32) = (   0.2000000  -0.5000000   0.4285714), wk =   0.0380952
        k(   33) = (   0.4000000   0.0000000   0.0000000), wk =   0.0190476
        k(   34) = (   0.4000000   0.0000000   0.1428571), wk =   0.0380952
        k(   35) = (   0.4000000   0.0000000   0.2857143), wk =   0.0380952
        k(   36) = (   0.4000000   0.0000000   0.4285714), wk =   0.0380952
        k(   37) = (   0.4000000   0.1666667   0.0000000), wk =   0.0380952
        k(   38) = (   0.4000000   0.1666667   0.1428571), wk =   0.0761905
        k(   39) = (   0.4000000   0.1666667   0.2857143), wk =   0.0761905
        k(   40) = (   0.4000000   0.1666667   0.4285714), wk =   0.0761905
        k(   41) = (   0.4000000   0.3333333   0.0000000), wk =   0.0380952
        k(   42) = (   0.4000000   0.3333333   0.1428571), wk =   0.0761905
        k(   43) = (   0.4000000   0.3333333   0.2857143), wk =   0.0761905
        k(   44) = (   0.4000000   0.3333333   0.4285714), wk =   0.0761905
        k(   45) = (   0.4000000  -0.5000000   0.0000000), wk =   0.0190476
        k(   46) = (   0.4000000  -0.5000000   0.1428571), wk =   0.0380952
        k(   47) = (   0.4000000  -0.5000000   0.2857143), wk =   0.0380952
        k(   48) = (   0.4000000  -0.5000000   0.4285714), wk =   0.0380952

     Largest allocated arrays     est. size (Mb)     dimensions
     Largest temporary arrays     est. size (Mb)     dimensions

     Initial potential from superposition of free atoms

     Starting from uniform charge
     Starting wfc are    0 randomized atomic wfcs

     Self-consistent Calculation

     iteration #  1     ecut=    40.00 Ry     beta=0.70
     CG style diagonalization
     c_bands:  1 eigenvalues not converged
     c_bands:  1 eigenvalues not converged
     c_bands:  1 eigenvalues not converged
     c_bands:  1 eigenvalues not converged
     c_bands:  1 eigenvalues not converged
     c_bands:  2 eigenvalues not converged
     c_bands:  1 eigenvalues not converged
     c_bands:  1 eigenvalues not converged
     c_bands:  1 eigenvalues not converged
     c_bands:  1 eigenvalues not converged
     c_bands:  1 eigenvalues not converged
     ethr =  1.00E-02,  avg # of iterations = 12.1

     total energy              =   -1710.34795069 Ry
     Harris-Foulkes estimate   =   -2557.09890311 Ry
     estimated scf accuracy    <    1031.67613584 Ry

[...]

     iteration #  4     ecut=    40.00 Ry     beta=0.70
     CG style diagonalization
     ethr =  7.28E-03,  avg # of iterations =  3.7

[...]

     End of self-consistent calculation

          k = 0.0000 0.0000 0.0000 (  2601 PWs)   bands (ev):

   -76.1522 -76.0625 -35.1635 -35.1635 -35.1635 -35.1488 -35.1488 -35.1488
   -30.0166 -29.7988 -29.7988 -29.0099 -29.0099 -29.0099  -1.3299  -1.3299
    -0.9163   0.9077   0.9077   0.9077   2.0299   2.0299   2.0299   2.1037
     2.1037   2.1037   2.4118   2.4118   2.4118   3.8834   3.8834   3.8834
    21.5447  21.5447  21.8213  21.8213  21.9765  21.9765  21.9765  22.0245
    22.0245  22.0245  29.2913  30.5061  32.2549  32.2549  32.2549  33.1505
    33.4538  33.4538  33.7832  33.7832  33.7832  34.8210  37.7268  37.7268
    37.7268  38.0076  38.0076  38.7507  38.7507  38.7507  40.3369  40.3370
    40.3369  42.8748  42.8748  43.5988  43.5988  43.5988  43.8741  43.8741
    43.8741  46.8118  47.6778  47.6778  47.6778  48.8902  48.9328  48.9328
    50.5996  50.5996  50.5996  53.4605  53.4605  53.4605  54.0638  54.0638
    54.0639  54.1609  54.1609  54.1609  56.2313  56.2635  56.2627  56.2634
    56.2329

[...]

     the Fermi energy is    51.3044 ev

!    total energy              =   -2187.23351814 Ry
     Harris-Foulkes estimate   =   -2187.23354772 Ry
     estimated scf accuracy    <       0.00005832 Ry

     The total energy is the sum of the following terms:

     one-electron contribution =      39.34815680 Ry
     hartree contribution      =     206.82129927 Ry
     xc contribution           =    -205.05064329 Ry
     ewald contribution        =   -2228.18570235 Ry
     smearing contrib. (-TS)   =      -0.16662858 Ry

     convergence has been achieved in   7 iterations

     Forces acting on atoms (Ry/au):

     atom    1 type  1   force =     0.00000000    0.00000000    0.00000000
     atom    2 type  1   force =     0.00000000    0.00000000    0.00000000
     atom    3 type  1   force =     0.00000000    0.00000000    0.00000000
     atom    4 type  1   force =     0.00000000    0.00000000    0.00000000
     atom    5 type  1   force =     0.00000000    0.00000000    0.00000000
     atom    6 type  1   force =     0.00000000    0.00000000    0.00000000
     atom    7 type  2   force =     0.00000000    0.00000000    0.00000000
     atom    8 type  2   force =     0.00000000    0.00000000    0.00000000

     Total force =     0.000000     Total SCF correction =     0.000000

     entering subroutine stress ...

          total   stress  (Ry/bohr**3)                   (kbar)     P= 5323.34
   0.03618731   0.00000000   0.00000000       5323.34      0.00      0.00
[...]
   0.00000000  -0.00884862   0.00000000          0.00  -1301.68      0.00
   0.00000000   0.00000000  -0.00884862          0.00      0.00  -1301.68

     number of scf cycles    =   3
     number of bfgs steps    =   2

     enthalpy old            =   -2190.7072997385 Ry
     enthalpy new            =   -2189.9270935600 Ry

     CASE: enthalpy_new > enthalpy_old

     new trust radius        =       0.0970033621 bohr

     trust_radius < trust_radius_min

     resetting bfgs history

     Message from routine bfgs:
     history already reset at previous step: stopping
     new conv_thr            =       0.0000010000 Ry

     new unit-cell volume =   1016.92216 a.u.^3 (   150.69231 Ang^3 )

[...]

ATOMIC_POSITIONS (crystal)
Cr       0.000000000   0.500000000   0.250000000
Cr       0.000000000   0.500000000   0.750000000
Cr       0.500000000   0.750000000   0.000000000
Cr       0.500000000   0.250000000   0.000000000
Cr       0.750000000   0.000000000   0.500000000
Cr       0.250000000   0.000000000   0.500000000
Si       0.500000000   0.500000000   0.500000000
Si       0.000000000   0.000000000   0.000000000

     Writing output data file Prototype-La-cP8-Cr3Si.save
     NEW-OLD atomic charge density approx. for the potential
     NEW k-points:
        k(    1) = (   0.0000000   0.0000000   0.0000000), wk =   0.0095238
        k(    2) = (   0.0000000   0.0000000   0.1212424), wk =   0.0190476
        k(    3) = (   0.0000000   0.0000000   0.2424848), wk =   0.0190476
        k(    4) = (   0.0000000   0.0000000   0.3637272), wk =   0.0190476
        k(    5) = (   0.0000000   0.1414495   0.0000000), wk =   0.0190476
        k(    6) = (   0.0000000   0.1414495   0.1212424), wk =   0.0380952
        k(    7) = (   0.0000000   0.1414495   0.2424848), wk =   0.0380952
        k(    8) = (   0.0000000   0.1414495   0.3637272), wk =   0.0380952
        k(    9) = (   0.0000000   0.2828989   0.0000000), wk =   0.0190476
        k(   10) = (   0.0000000   0.2828989   0.1212424), wk =   0.0380952
        k(   11) = (   0.0000000   0.2828989   0.2424848), wk =   0.0380952
        k(   12) = (   0.0000000   0.2828989   0.3637272), wk =   0.0380952
        k(   13) = (   0.0000000  -0.4243484   0.0000000), wk =   0.0095238
        k(   14) = (   0.0000000  -0.4243484   0.1212424), wk =   0.0190476
        k(   15) = (   0.0000000  -0.4243484   0.2424848), wk =   0.0190476
        k(   16) = (   0.0000000  -0.4243484   0.3637272), wk =   0.0190476
        k(   17) = (   0.1697394   0.0000000   0.0000000), wk =   0.0190476
        k(   18) = (   0.1697394   0.0000000   0.1212424), wk =   0.0380952
        k(   19) = (   0.1697394   0.0000000   0.2424848), wk =   0.0380952
        k(   20) = (   0.1697394   0.0000000   0.3637272), wk =   0.0380952
        k(   21) = (   0.1697394   0.1414495   0.0000000), wk =   0.0380952
        k(   22) = (   0.1697394   0.1414495   0.1212424), wk =   0.0761905
        k(   23) = (   0.1697394   0.1414495   0.2424848), wk =   0.0761905
        k(   24) = (   0.1697394   0.1414495   0.3637272), wk =   0.0761905
        k(   25) = (   0.1697394   0.2828989   0.0000000), wk =   0.0380952
        k(   26) = (   0.1697394   0.2828989   0.1212424), wk =   0.0761905
        k(   27) = (   0.1697394   0.2828989   0.2424848), wk =   0.0761905
        k(   28) = (   0.1697394   0.2828989   0.3637272), wk =   0.0761905
        k(   29) = (   0.1697394  -0.4243484   0.0000000), wk =   0.0190476
        k(   30) = (   0.1697394  -0.4243484   0.1212424), wk =   0.0380952
        k(   31) = (   0.1697394  -0.4243484   0.2424848), wk =   0.0380952
        k(   32) = (   0.1697394  -0.4243484   0.3637272), wk =   0.0380952
        k(   33) = (   0.3394787   0.0000000   0.0000000), wk =   0.0190476
        k(   34) = (   0.3394787   0.0000000   0.1212424), wk =   0.0380952
        k(   35) = (   0.3394787   0.0000000   0.2424848), wk =   0.0380952
        k(   36) = (   0.3394787   0.0000000   0.3637272), wk =   0.0380952
        k(   37) = (   0.3394787   0.1414495   0.0000000), wk =   0.0380952
        k(   38) = (   0.3394787   0.1414495   0.1212424), wk =   0.0761905
        k(   39) = (   0.3394787   0.1414495   0.2424848), wk =   0.0761905
        k(   40) = (   0.3394787   0.1414495   0.3637272), wk =   0.0761905
        k(   41) = (   0.3394787   0.2828989   0.0000000), wk =   0.0380952
        k(   42) = (   0.3394787   0.2828989   0.1212424), wk =   0.0761905
        k(   43) = (   0.3394787   0.2828989   0.2424848), wk =   0.0761905
        k(   44) = (   0.3394787   0.2828989   0.3637272), wk =   0.0761905
        k(   45) = (   0.3394787  -0.4243484   0.0000000), wk =   0.0190476
        k(   46) = (   0.3394787  -0.4243484   0.1212424), wk =   0.0380952
        k(   47) = (   0.3394787  -0.4243484   0.2424848), wk =   0.0380952
        k(   48) = (   0.3394787  -0.4243484   0.3637272), wk =   0.0380952

[...]

          total   stress  (Ry/bohr**3)                   (kbar)     P=-1220.02
  -0.00829352   0.00000000   0.00000000      -1220.02      0.00      0.00
   0.00000000  -0.00829352   0.00000000          0.00  -1220.02      0.00
   0.00000000   0.00000000  -0.00829352          0.00      0.00  -1220.02

     The maximum number of steps has been reached.

     End of BFGS Geometry Optimization
Begin final coordinates
     new unit-cell volume =   1016.92216 a.u.^3 (   150.69231 Ang^3 )

CELL_PARAMETERS (alat=  8.53457320)
   1.178277079   0.000000000   0.000000000
   0.000000000   1.178277079   0.000000000
   0.000000000   0.000000000   1.178277079

ATOMIC_POSITIONS (crystal)
Cr       0.000000000   0.500000000   0.250000000
Cr       0.000000000   0.500000000   0.750000000
Cr       0.500000000   0.750000000   0.000000000
Cr       0.500000000   0.250000000   0.000000000
Cr       0.750000000   0.000000000   0.500000000
Cr       0.250000000   0.000000000   0.500000000
Si       0.500000000   0.500000000   0.500000000
Si       0.000000000   0.000000000   0.000000000
End final coordinates

     A final scf calculation at the relaxed structure.
     The G-vectors are recalculated for the final unit cell
     Results may differ from those at the preceding step.

     bravais-lattice index     =            0
     lattice parameter (alat)  =       8.5346  a.u.
     unit-cell volume          =    1016.9222 (a.u.)^3
     number of atoms/cell      =            8
     number of atomic types    =            2
     number of electrons       =       162.00
     number of Kohn-Sham states=           97
     kinetic-energy cutoff     =      40.0000  Ry
     charge density cutoff     =     160.0000  Ry
     convergence threshold     =      1.0E-06
     mixing beta               =       0.7000
     number of iterations used =            8  plain     mixing
     Exchange-correlation      = SLA-PZ-NOGX-NOGC ( 1 1 0 0 0)
     EXX-fraction              =        0.00

     celldm(1)=   8.534573  celldm(2)=   0.000000  celldm(3)=   0.000000
     celldm(4)=   0.000000  celldm(5)=   0.000000  celldm(6)=   0.000000

     crystal axes: (cart. coord. in units of alat)
               a(1) = (   1.178277   0.000000   0.000000 )
               a(2) = (   0.000000   1.178277   0.000000 )
               a(3) = (   0.000000   0.000000   1.178277 )

     reciprocal axes: (cart. coord. in units 2 pi/alat)
               b(1) = (  0.848697  0.000000  0.000000 )
               b(2) = (  0.000000  0.848697  0.000000 )
               b(3) = (  0.000000  0.000000  0.848697 )

     PseudoPot. # 1 for Tb read from file:
     /home/cwx6513/pp.La/Tb.UPF
     MD5 check sum: 3d6088a3f0cf7fd2e110c43f7f8e95c2
     Pseudo is Norm-conserving, Zval = 19.0
     Generated in analytical, separable form
     Using radial grid of 1263 points,  6 beta functions with:
                l(1) =   0
                l(2) =   0
                l(3) =   1
                l(4) =   1
                l(5) =   2
                l(6) =   3

     PseudoPot. # 2 for Yb read from file:
     /home/cwx6513/pp.La/Yb.UPF
     MD5 check sum: 3e859b81cc28c53ec6aa3a2e888efcdf
     Pseudo is Norm-conserving, Zval = 24.0
     Generated in analytical, separable form
     Using radial grid of 1269 points,  6 beta functions with:
                l(1) =   0
                l(2) =   0
                l(3) =   1
                l(4) =   1
                l(5) =   2
                l(6) =   3

     atomic species   valence    mass     pseudopotential
        Cr            19.00    51.99610     Tb( 1.00)
        Si            24.00    28.08550     Yb( 1.00)

     48 Sym. Ops., with inversion, found (24 have fractional translation)

   Cartesian axes

     site n.     atom                  positions (alat units)
         1           Cr  tau(   1) = (   0.0000000   0.5891385   0.2945693  )
         2           Cr  tau(   2) = (   0.0000000   0.5891385   0.8837078  )
         3           Cr  tau(   3) = (   0.5891385   0.8837078   0.0000000  )
         4           Cr  tau(   4) = (   0.5891385   0.2945693   0.0000000  )
         5           Cr  tau(   5) = (   0.8837078   0.0000000   0.5891385  )
         6           Cr  tau(   6) = (   0.2945693   0.0000000   0.5891385  )
         7           Si  tau(   7) = (   0.5891385   0.5891385   0.5891385  )
         8           Si  tau(   8) = (   0.0000000   0.0000000   0.0000000  )

     number of k points=    48  gaussian smearing, width (Ry)=  0.1000
                       cart. coord. in units 2pi/alat
        k(    1) = (   0.0000000   0.0000000   0.0000000), wk =   0.0095238
        k(    2) = (   0.0000000   0.0000000   0.1212424), wk =   0.0190476
        k(    3) = (   0.0000000   0.0000000   0.2424848), wk =   0.0190476
        k(    4) = (   0.0000000   0.0000000   0.3637272), wk =   0.0190476
        k(    5) = (   0.0000000   0.1414495   0.0000000), wk =   0.0190476
        k(    6) = (   0.0000000   0.1414495   0.1212424), wk =   0.0380952
        k(    7) = (   0.0000000   0.1414495   0.2424848), wk =   0.0380952
        k(    8) = (   0.0000000   0.1414495   0.3637272), wk =   0.0380952
        k(    9) = (   0.0000000   0.2828989   0.0000000), wk =   0.0190476
        k(   10) = (   0.0000000   0.2828989   0.1212424), wk =   0.0380952
        k(   11) = (   0.0000000   0.2828989   0.2424848), wk =   0.0380952
        k(   12) = (   0.0000000   0.2828989   0.3637272), wk =   0.0380952
        k(   13) = (   0.0000000  -0.4243484   0.0000000), wk =   0.0095238
        k(   14) = (   0.0000000  -0.4243484   0.1212424), wk =   0.0190476
        k(   15) = (   0.0000000  -0.4243484   0.2424848), wk =   0.0190476
        k(   16) = (   0.0000000  -0.4243484   0.3637272), wk =   0.0190476
        k(   17) = (   0.1697394   0.0000000   0.0000000), wk =   0.0190476
        k(   18) = (   0.1697394   0.0000000   0.1212424), wk =   0.0380952
        k(   19) = (   0.1697394   0.0000000   0.2424848), wk =   0.0380952
        k(   20) = (   0.1697394   0.0000000   0.3637272), wk =   0.0380952
        k(   21) = (   0.1697394   0.1414495   0.0000000), wk =   0.0380952
        k(   22) = (   0.1697394   0.1414495   0.1212424), wk =   0.0761905
        k(   23) = (   0.1697394   0.1414495   0.2424848), wk =   0.0761905
        k(   24) = (   0.1697394   0.1414495   0.3637272), wk =   0.0761905
        k(   25) = (   0.1697394   0.2828989   0.0000000), wk =   0.0380952
        k(   26) = (   0.1697394   0.2828989   0.1212424), wk =   0.0761905
        k(   27) = (   0.1697394   0.2828989   0.2424848), wk =   0.0761905
        k(   28) = (   0.1697394   0.2828989   0.3637272), wk =   0.0761905
        k(   29) = (   0.1697394  -0.4243484   0.0000000), wk =   0.0190476
        k(   30) = (   0.1697394  -0.4243484   0.1212424), wk =   0.0380952
        k(   31) = (   0.1697394  -0.4243484   0.2424848), wk =   0.0380952
        k(   32) = (   0.1697394  -0.4243484   0.3637272), wk =   0.0380952
        k(   33) = (   0.3394787   0.0000000   0.0000000), wk =   0.0190476
        k(   34) = (   0.3394787   0.0000000   0.1212424), wk =   0.0380952
        k(   35) = (   0.3394787   0.0000000   0.2424848), wk =   0.0380952
        k(   36) = (   0.3394787   0.0000000   0.3637272), wk =   0.0380952
        k(   37) = (   0.3394787   0.1414495   0.0000000), wk =   0.0380952
        k(   38) = (   0.3394787   0.1414495   0.1212424), wk =   0.0761905
        k(   39) = (   0.3394787   0.1414495   0.2424848), wk =   0.0761905
        k(   40) = (   0.3394787   0.1414495   0.3637272), wk =   0.0761905
        k(   41) = (   0.3394787   0.2828989   0.0000000), wk =   0.0380952
        k(   42) = (   0.3394787   0.2828989   0.1212424), wk =   0.0761905
        k(   43) = (   0.3394787   0.2828989   0.2424848), wk =   0.0761905
        k(   44) = (   0.3394787   0.2828989   0.3637272), wk =   0.0761905
        k(   45) = (   0.3394787  -0.4243484   0.0000000), wk =   0.0190476
        k(   46) = (   0.3394787  -0.4243484   0.1212424), wk =   0.0380952
        k(   47) = (   0.3394787  -0.4243484   0.2424848), wk =   0.0380952
        k(   48) = (   0.3394787  -0.4243484   0.3637272), wk =   0.0380952

     Largest allocated arrays     est. size (Mb)     dimensions
     Largest temporary arrays     est. size (Mb)     dimensions

     Initial potential from superposition of free atoms

     Starting from uniform charge
     Starting wfc are    0 randomized atomic wfcs

     Writing output data file Prototype-La-cP8-Cr3Si.save

     Self-consistent Calculation

[...]

     iteration #  6     ecut=    40.00 Ry     beta=0.70
     CG style diagonalization
     ethr =  9.62E-04,  avg # of iterations =  3.7

[...]

     total energy              =   -2195.13439187 Ry
     Harris-Foulkes estimate   =   -2195.13439099 Ry
     estimated scf accuracy    <       0.00000534 Ry

     iteration # 11     ecut=    40.00 Ry     beta=0.70
     CG style diagonalization
     c_bands:  1 eigenvalues not converged
     ethr =  3.30E-09,  avg # of iterations =  4.3

     End of self-consistent calculation

[...]

          k = 0.3395-0.4243 0.3637 (  4344 PWs)   bands (ev):

   -96.1315 -96.1315 -54.9253 -54.9251 -54.9221 -54.9221 -54.9207 -54.9207
   -47.5301 -47.5252 -47.5124 -47.5123 -47.4995 -47.4944 -16.2915 -16.2365
   -16.0951 -16.0939 -15.9868 -15.9860 -15.9675 -15.9292 -15.8940 -15.8784
   -15.8562 -15.8464 -15.8222 -15.8121 -15.8096 -15.8084 -15.8036 -15.7996
     3.0713   3.0715   3.0725   3.0725   3.0886   3.0900   3.0930   3.0939
     3.0952   3.0954  15.1668  15.1678  19.2226  19.3246  19.5091  19.5525
    19.6404  19.6617  20.2307  20.2654  20.3207  20.4108  20.4191  20.4672
    20.6512  20.7385  21.1500  21.1923  21.2801  21.3483  21.4309  21.4383
    21.7898  21.8918  22.6828  22.7582  22.8455  22.8933  22.9606  23.0188
    23.4288  23.4474  23.9001  24.0721  24.1093  24.3175  24.8736  24.9591
    30.8862  30.8871  32.3647  32.3924  32.5949  32.5964  33.3625  33.3680
    34.4012  34.6964  35.4607  35.4627  35.8324  35.8630  36.0126  36.0600
    36.3174

     the Fermi energy is    28.8504 ev

!    total energy              =   -2195.13439560 Ry
     Harris-Foulkes estimate   =   -2195.13439602 Ry
     estimated scf accuracy    <       0.00000047 Ry

     The total energy is the sum of the following terms:

     one-electron contribution =    -440.96856913 Ry
     hartree contribution      =     334.03239989 Ry
     xc contribution           =    -196.98296309 Ry
     ewald contribution        =   -1891.05410177 Ry
     smearing contrib. (-TS)   =      -0.16116149 Ry

     convergence has been achieved in  11 iterations

     Forces acting on atoms (Ry/au):

     atom    1 type  1   force =     0.00000000    0.00000000    0.00000000
     atom    2 type  1   force =     0.00000000    0.00000000    0.00000000
     atom    3 type  1   force =     0.00000000    0.00000000    0.00000000
     atom    4 type  1   force =     0.00000000    0.00000000    0.00000000
     atom    5 type  1   force =     0.00000000    0.00000000    0.00000000
     atom    6 type  1   force =     0.00000000    0.00000000    0.00000000
     atom    7 type  2   force =     0.00000000    0.00000000    0.00000000
     atom    8 type  2   force =     0.00000000    0.00000000    0.00000000

     Total force =     0.000000     Total SCF correction =     0.000000

     entering subroutine stress ...

          total   stress  (Ry/bohr**3)                   (kbar)     P=   30.55
   0.00020769   0.00000000   0.00000000         30.55      0.00      0.00
   0.00000000   0.00020769   0.00000000          0.00     30.55      0.00
   0.00000000   0.00000000   0.00020769          0.00      0.00     30.55

     Writing output data file Prototype-La-cP8-Cr3Si.save

     General routines

     Parallel routines

   This run was terminated on:  17:58:48  22Mar2018

   JOB DONE.