     Program PWSCF v.5.0.2 starts on 22Mar2018 at 17:40:19

     Current dimensions of program PWSCF are:
     Max number of different atomic species (ntypx) = 10
     Max number of k-points (npk) =  40000
     Max angular momentum in pseudopotentials (lmaxx) =  3
     Waiting for input...
     Reading input from standard input

     Subspace diagonalization in iterative solution of the eigenvalue problem:
     a serial algorithm will be used

     bravais-lattice index     =            0
     lattice parameter (alat)  =       7.0151  a.u.
     unit-cell volume          =     862.2778 (a.u.)^3
     number of atoms/cell      =           12
     number of atomic types    =            2
     number of electrons       =       248.00
     number of Kohn-Sham states=          149
     kinetic-energy cutoff     =      40.0000  Ry
     charge density cutoff     =     160.0000  Ry
     convergence threshold     =      1.0E-04
     mixing beta               =       0.7000
     number of iterations used =            8  plain     mixing
     Exchange-correlation      = SLA-PZ-NOGX-NOGC ( 1 1 0 0 0)
     EXX-fraction              =        0.00
     nstep                     =           50

     celldm(1)=   7.015105  celldm(2)=   0.000000  celldm(3)=   0.000000
     celldm(4)=   0.000000  celldm(5)=   0.000000  celldm(6)=   0.000000

     crystal axes: (cart. coord. in units of alat)
               a(1) = (   1.000000   0.000000   0.000000 )
               a(2) = (   0.000000   1.315963   0.000000 )
               a(3) = (   0.000000   0.000000   1.898020 )

     reciprocal axes: (cart. coord. in units 2 pi/alat)
               b(1) = (  1.000000  0.000000  0.000000 )
               b(2) = (  0.000000  0.759900  0.000000 )
               b(3) = (  0.000000  0.000000  0.526865 )

     PseudoPot. # 1 for Tb read from file:
     /home/cwx6513/pp.La/Tb.UPF
     MD5 check sum: 3d6088a3f0cf7fd2e110c43f7f8e95c2
     Pseudo is Norm-conserving, Zval = 19.0
     Generated in analytical, separable form
     Using radial grid of 1263 points,  6 beta functions with:
                l(1) =   0
                l(2) =   0
                l(3) =   1
                l(4) =   1
                l(5) =   2
                l(6) =   3

     PseudoPot. # 2 for Yb read from file:
     /home/cwx6513/pp.La/Yb.UPF
     MD5 check sum: 3e859b81cc28c53ec6aa3a2e888efcdf
     Pseudo is Norm-conserving, Zval = 24.0
     Generated in analytical, separable form
     Using radial grid of 1269 points,  6 beta functions with:
                l(1) =   0
                l(2) =   0
                l(3) =   1
                l(4) =   1
                l(5) =   2
                l(6) =   3

     atomic species   valence    mass     pseudopotential
        Co            19.00    58.93320     Tb( 1.00)
        Si            24.00    28.08550     Yb( 1.00)

      8 Sym. Ops., with inversion, found ( 6 have fractional translation)

   Cartesian axes

     site n.     atom                  positions (alat units)
         1           Co  tau(   1) = (   0.7500000   1.0875135   0.8270358  )
         2           Co  tau(   2) = (   0.2500000   0.2284499   1.0709846  )
         3           Co  tau(   3) = (   0.7500000   0.4295318   0.1219744  )
         4           Co  tau(   4) = (   0.2500000   0.8864316   1.7760460  )
         5           Co  tau(   5) = (   0.2500000   0.7067855   0.5358966  )
         6           Co  tau(   6) = (   0.7500000   0.6091779   1.3621238  )
         7           Co  tau(   7) = (   0.2500000   0.0488038   0.4131136  )
         8           Co  tau(   8) = (   0.7500000   1.2671596   1.4849068  )
         9           Si  tau(   9) = (   0.2500000   0.2669484   1.6960710  )
        10           Si  tau(  10) = (   0.7500000   1.0490149   0.2019494  )
        11           Si  tau(  11) = (   0.2500000   0.9249301   1.1509596  )
        12           Si  tau(  12) = (   0.7500000   0.3910333   0.7470608  )

     number of k points=    12  gaussian smearing, width (Ry)=  0.1000
                       cart. coord. in units 2pi/alat
        k(    1) = (   0.0000000   0.0000000   0.0000000), wk =   0.0833333
        k(    2) = (   0.0000000   0.0000000   0.1317162), wk =   0.1666667
        k(    3) = (   0.0000000   0.0000000  -0.2634324), wk =   0.0833333
        k(    4) = (   0.0000000   0.2532999   0.0000000), wk =   0.1666667
        k(    5) = (   0.0000000   0.2532999   0.1317162), wk =   0.3333333
        k(    6) = (   0.0000000   0.2532999  -0.2634324), wk =   0.1666667
        k(    7) = (  -0.5000000   0.0000000   0.0000000), wk =   0.0833333
        k(    8) = (  -0.5000000   0.0000000   0.1317162), wk =   0.1666667
        k(    9) = (  -0.5000000   0.0000000  -0.2634324), wk =   0.0833333
        k(   10) = (  -0.5000000   0.2532999   0.0000000), wk =   0.1666667
        k(   11) = (  -0.5000000   0.2532999   0.1317162), wk =   0.3333333
        k(   12) = (  -0.5000000   0.2532999  -0.2634324), wk =   0.1666667

     Largest allocated arrays     est. size (Mb)     dimensions
     Largest temporary arrays     est. size (Mb)     dimensions

     Initial potential from superposition of free atoms

     Starting from uniform charge
     Starting wfc are    0 randomized atomic wfcs

     Self-consistent Calculation

     iteration #  1     ecut=    40.00 Ry     beta=0.70
     CG style diagonalization
     c_bands:  1 eigenvalues not converged
     c_bands:  2 eigenvalues not converged
     c_bands:  1 eigenvalues not converged
     c_bands:  3 eigenvalues not converged
     c_bands:  4 eigenvalues not converged
     c_bands:  1 eigenvalues not converged
     c_bands:  1 eigenvalues not converged
     c_bands:  1 eigenvalues not converged
     c_bands:  3 eigenvalues not converged
     c_bands:  1 eigenvalues not converged
     c_bands:  1 eigenvalues not converged
     ethr =  1.00E-02,  avg # of iterations = 13.3

     total energy              =   -2556.80684349 Ry
     Harris-Foulkes estimate   =   -4045.30061568 Ry
     estimated scf accuracy    <    1801.56457455 Ry

     iteration #  2     ecut=    40.00 Ry     beta=0.70
     CG style diagonalization
     ethr =  1.00E-02,  avg # of iterations = 15.8

[...]

     End of self-consistent calculation

          k = 0.0000 0.0000 0.0000 (  3675 PWs)   bands (ev):

   -71.5679 -71.5380 -71.5325 -71.5038 -30.7212 -30.7198 -30.7194 -30.7069
   -30.7028 -30.6917 -30.6912 -30.6896 -30.4810 -30.4674 -30.4474 -30.4357
   -25.8510 -25.6056 -25.5427 -25.5329 -25.3750 -25.2085 -25.0882 -25.0849
     3.9694   4.3382   4.3881   4.5230   4.6652   4.6975   4.8623   4.8867
     5.1570   5.1751   5.4427   5.5034   5.6735   5.6938   5.7838   5.8078
     5.9810   6.0315   6.1318   6.2744   6.3745   6.6088   6.9602   7.0790
    25.2764  25.3071  25.3575  25.3739  25.5427  25.5869  25.6614  25.6897
    25.6938  25.7664  25.8309  25.9065  25.9173  26.1464  26.2266  26.4646
    26.5445  26.6016  26.6650  26.7532  32.6295  33.7494  35.4897  35.7035
    36.5825  36.9343  37.7739  38.3601  38.7236  38.8069  38.8361  38.8864
    38.9592  38.9819  39.1732  39.1802  40.0302  40.2575  40.3291  40.9848
    41.1883  41.6363  42.6117  42.6342  42.6948  42.7745  43.2485  44.1011
    44.1153  44.2743  44.3216  44.4399  44.4871  44.9579  45.8701  46.2540
    46.2579  46.2890  46.3990  46.5890  46.8704  47.7632  47.9683  48.1661
    48.7230  49.6121  50.7287  51.8946  52.5163  53.1280  53.1957  54.8030
    55.1481  55.2083  56.0237  56.4711  57.1517  57.3290  57.5103  57.5673
    57.6645  57.7583  58.1374  58.2178  58.5373  58.8885  58.9383  59.0344
    59.1567  59.6698  59.7021  59.8998  59.9039  60.5163  60.7089  61.0774
    61.1639  61.5921  61.9646  62.1223  62.2346

[...]

          k =-0.5000 0.0000 0.0000 (  3722 PWs)   bands (ev):

[...]

     the Fermi energy is    56.3775 ev

!    total energy              =   -3456.04599551 Ry
     Harris-Foulkes estimate   =   -3456.04604016 Ry
     estimated scf accuracy    <       0.00005071 Ry

     The total energy is the sum of the following terms:

     one-electron contribution =     120.75188906 Ry
     hartree contribution      =     316.03818922 Ry
     xc contribution           =    -320.45684765 Ry
     ewald contribution        =   -3571.93750117 Ry
     smearing contrib. (-TS)   =      -0.44172497 Ry

     convergence has been achieved in  10 iterations

     Forces acting on atoms (Ry/au):

     atom    1 type  1   force =     0.00000000   -0.05485762   -0.12079472
     atom    2 type  1   force =     0.00000000    0.05485762    0.12079472
     atom    3 type  1   force =     0.00000000   -0.05485762    0.12079472
     atom    4 type  1   force =     0.00000000    0.05485762   -0.12079472
     atom    5 type  1   force =     0.00000000    0.16038242   -0.30376137
     atom    6 type  1   force =     0.00000000   -0.16038242    0.30376137
     atom    7 type  1   force =     0.00000000    0.16038242    0.30376137
     atom    8 type  1   force =     0.00000000   -0.16038242   -0.30376137
     atom    9 type  2   force =     0.00000000   -0.19091504   -0.02307239
     atom   10 type  2   force =     0.00000000    0.19091504    0.02307239
     atom   11 type  2   force =     0.00000000   -0.19091504    0.02307239
     atom   12 type  2   force =     0.00000000    0.19091504   -0.02307239

     Total force =     0.830843     Total SCF correction =     0.000000

     entering subroutine stress ...

          total   stress  (Ry/bohr**3)                   (kbar)     P= 7122.58
   0.05001460   0.00000000   0.00000000       7357.40      0.00      0.00
   0.00000000   0.04617829   0.00000000          0.00   6793.06      0.00
   0.00000000   0.00000000   0.04906213          0.00      0.00   7217.29

     BFGS Geometry Optimization

     number of scf cycles    =   1
     number of bfgs steps    =   0

     enthalpy new            =   -3456.0459955140 Ry

     new trust radius        =       0.5000000000 bohr
     new conv_thr            =       0.0001000000 Ry

     new unit-cell volume =   1093.52736 a.u.^3 (   162.04403 Ang^3 )

CELL_PARAMETERS (alat=  7.01510508)
   1.085136619   0.000000000   0.000000000
   0.000000000   1.419406433   0.000000000
   0.000000000   0.000000000   2.056534137

ATOMIC_POSITIONS (crystal)
Co       0.750000000   0.825996388   0.435118279
Co       0.250000000   0.174003612   0.564881721
Co       0.750000000   0.325996388   0.064881721
Co       0.250000000   0.674003612   0.935118279
Co       0.250000000   0.538268928   0.280791622
Co       0.750000000   0.461731072   0.719208378
Co       0.250000000   0.038268928   0.219208378
Co       0.750000000   0.961731072   0.780791622
Si       0.250000000   0.201445873   0.893482012
Si       0.750000000   0.798554127   0.106517988
Si       0.250000000   0.701445873   0.606517988
Si       0.750000000   0.298554127   0.393482012

     Writing output data file Prototype-La-oP12-Co2Si.save
     NEW-OLD atomic charge density approx. for the potential
     NEW k-points:
        k(    1) = (   0.0000000   0.0000000   0.0000000), wk =   0.0833333
        k(    2) = (   0.0000000   0.0000000   0.1215637), wk =   0.1666667
        k(    3) = (   0.0000000   0.0000000  -0.2431275), wk =   0.0833333
        k(    4) = (   0.0000000   0.2348399   0.0000000), wk =   0.1666667
        k(    5) = (   0.0000000   0.2348399   0.1215637), wk =   0.3333333
        k(    6) = (   0.0000000   0.2348399  -0.2431275), wk =   0.1666667
        k(    7) = (  -0.4607715   0.0000000   0.0000000), wk =   0.0833333
        k(    8) = (  -0.4607715   0.0000000   0.1215637), wk =   0.1666667
        k(    9) = (  -0.4607715   0.0000000  -0.2431275), wk =   0.0833333
        k(   10) = (  -0.4607715   0.2348399   0.0000000), wk =   0.1666667
        k(   11) = (  -0.4607715   0.2348399   0.1215637), wk =   0.3333333
        k(   12) = (  -0.4607715   0.2348399  -0.2431275), wk =   0.1666667

[...]

     enthalpy old            =   -3456.0459955140 Ry
     enthalpy new            =   -3462.9369437746 Ry

     CASE: enthalpy_new < enthalpy_old

     small trust_radius: resetting bfgs history

     new trust radius        =       2.5428943829 bohr
     new conv_thr            =       0.0001000000 Ry

[...]

          total   stress  (Ry/bohr**3)                   (kbar)     P=-3704.92
  -0.02659331   0.00000000   0.00000000      -3912.01      0.00      0.00
   0.00000000  -0.02354445   0.00000000          0.00  -3463.51      0.00
   0.00000000   0.00000000  -0.02541891          0.00      0.00  -3739.25

     number of scf cycles    =   3
     number of bfgs steps    =   2

     enthalpy old            =   -3462.9369437746 Ry
     enthalpy new            =   -3438.4487739469 Ry

     CASE: enthalpy_new > enthalpy_old

     new trust radius        =       0.6097549034 bohr

     trust_radius < trust_radius_min

     resetting bfgs history

     Message from routine bfgs:
     history already reset at previous step: stopping
     new conv_thr            =       0.0001000000 Ry

     new unit-cell volume =   1303.31550 a.u.^3 (   193.13143 Ang^3 )

[...]

ATOMIC_POSITIONS (crystal)
Co       0.750000000   0.825888248   0.434865789
Co       0.250000000   0.174111752   0.565134211
Co       0.750000000   0.325888248   0.065134211
Co       0.250000000   0.674111752   0.934865789
Co       0.250000000   0.539481800   0.279203434
Co       0.750000000   0.460518200   0.720796566
Co       0.250000000   0.039481800   0.220796566
Co       0.750000000   0.960518200   0.779203434
Si       0.250000000   0.200163034   0.893749440
Si       0.750000000   0.799836966   0.106250560
Si       0.250000000   0.700163034   0.606250560
Si       0.750000000   0.299836966   0.393749440

     Writing output data file Prototype-La-oP12-Co2Si.save
     NEW-OLD atomic charge density approx. for the potential
     NEW k-points:
        k(    1) = (   0.0000000   0.0000000   0.0000000), wk =   0.0833333
        k(    2) = (   0.0000000   0.0000000   0.1145309), wk =   0.1666667
        k(    3) = (   0.0000000   0.0000000  -0.2290617), wk =   0.0833333
        k(    4) = (   0.0000000   0.2229010   0.0000000), wk =   0.1666667
        k(    5) = (   0.0000000   0.2229010   0.1145309), wk =   0.3333333
        k(    6) = (   0.0000000   0.2229010  -0.2290617), wk =   0.1666667
        k(    7) = (  -0.4323218   0.0000000   0.0000000), wk =   0.0833333
        k(    8) = (  -0.4323218   0.0000000   0.1145309), wk =   0.1666667
        k(    9) = (  -0.4323218   0.0000000  -0.2290617), wk =   0.0833333
        k(   10) = (  -0.4323218   0.2229010   0.0000000), wk =   0.1666667
        k(   11) = (  -0.4323218   0.2229010   0.1145309), wk =   0.3333333
        k(   12) = (  -0.4323218   0.2229010  -0.2290617), wk =   0.1666667

[...]

     The maximum number of steps has been reached.

     End of BFGS Geometry Optimization
Begin final coordinates
     new unit-cell volume =   1303.31550 a.u.^3 (   193.13143 Ang^3 )

CELL_PARAMETERS (alat=  7.01510508)
   1.156545798   0.000000000   0.000000000
   0.000000000   1.495432030   0.000000000
   0.000000000   0.000000000   2.182817887

ATOMIC_POSITIONS (crystal)
Co       0.750000000   0.825888248   0.434865789
Co       0.250000000   0.174111752   0.565134211
Co       0.750000000   0.325888248   0.065134211
Co       0.250000000   0.674111752   0.934865789
Co       0.250000000   0.539481800   0.279203434
Co       0.750000000   0.460518200   0.720796566
Co       0.250000000   0.039481800   0.220796566
Co       0.750000000   0.960518200   0.779203434
Si       0.250000000   0.200163034   0.893749440
Si       0.750000000   0.799836966   0.106250560
Si       0.250000000   0.700163034   0.606250560
Si       0.750000000   0.299836966   0.393749440
End final coordinates

     A final scf calculation at the relaxed structure.
     The G-vectors are recalculated for the final unit cell
     Results may differ from those at the preceding step.

     bravais-lattice index     =            0
     lattice parameter (alat)  =       7.0151  a.u.
     unit-cell volume          =    1303.3155 (a.u.)^3
     number of atoms/cell      =           12
     number of atomic types    =            2
     number of electrons       =       248.00
     number of Kohn-Sham states=          149
     kinetic-energy cutoff     =      40.0000  Ry
     charge density cutoff     =     160.0000  Ry
     convergence threshold     =      1.0E-04
     mixing beta               =       0.7000
     number of iterations used =            8  plain     mixing
     Exchange-correlation      = SLA-PZ-NOGX-NOGC ( 1 1 0 0 0)
     EXX-fraction              =        0.00

     celldm(1)=   7.015105  celldm(2)=   0.000000  celldm(3)=   0.000000
     celldm(4)=   0.000000  celldm(5)=   0.000000  celldm(6)=   0.000000

     crystal axes: (cart. coord. in units of alat)
               a(1) = (   1.156546   0.000000   0.000000 )
               a(2) = (   0.000000   1.495432   0.000000 )
               a(3) = (   0.000000   0.000000   2.182818 )

     reciprocal axes: (cart. coord. in units 2 pi/alat)
               b(1) = (  0.864644  0.000000  0.000000 )
               b(2) = (  0.000000  0.668703  0.000000 )
               b(3) = (  0.000000  0.000000  0.458123 )

     PseudoPot. # 1 for Tb read from file:
     /home/cwx6513/pp.La/Tb.UPF
     MD5 check sum: 3d6088a3f0cf7fd2e110c43f7f8e95c2
     Pseudo is Norm-conserving, Zval = 19.0
     Generated in analytical, separable form
     Using radial grid of 1263 points,  6 beta functions with:
                l(1) =   0
                l(2) =   0
                l(3) =   1
                l(4) =   1
                l(5) =   2
                l(6) =   3

     PseudoPot. # 2 for Yb read from file:
     /home/cwx6513/pp.La/Yb.UPF
     MD5 check sum: 3e859b81cc28c53ec6aa3a2e888efcdf
     Pseudo is Norm-conserving, Zval = 24.0
     Generated in analytical, separable form
     Using radial grid of 1269 points,  6 beta functions with:
                l(1) =   0
                l(2) =   0
                l(3) =   1
                l(4) =   1
                l(5) =   2
                l(6) =   3

     atomic species   valence    mass     pseudopotential
        Co            19.00    58.93320     Tb( 1.00)
        Si            24.00    28.08550     Yb( 1.00)

      8 Sym. Ops., with inversion, found ( 6 have fractional translation)

   Cartesian axes

     site n.     atom                  positions (alat units)
         1           Co  tau(   1) = (   0.8674093   1.2350597   0.9492328  )
         2           Co  tau(   2) = (   0.2891364   0.2603723   1.2335851  )
         3           Co  tau(   3) = (   0.8674093   0.4873437   0.1421761  )
         4           Co  tau(   4) = (   0.2891364   1.0080883   2.0406418  )
         5           Co  tau(   5) = (   0.2891364   0.8067584   0.6094502  )
         6           Co  tau(   6) = (   0.8674093   0.6886737   1.5733676  )
         7           Co  tau(   7) = (   0.2891364   0.0590423   0.4819587  )
         8           Co  tau(   8) = (   0.8674093   1.4363897   1.7008592  )
         9           Si  tau(   9) = (   0.2891364   0.2993302   1.9508923  )
        10           Si  tau(  10) = (   0.8674093   1.1961018   0.2319256  )
        11           Si  tau(  11) = (   0.2891364   1.0470462   1.3233346  )
        12           Si  tau(  12) = (   0.8674093   0.4483858   0.8594833  )

     number of k points=    12  gaussian smearing, width (Ry)=  0.1000
                       cart. coord. in units 2pi/alat
        k(    1) = (   0.0000000   0.0000000   0.0000000), wk =   0.0833333
        k(    2) = (   0.0000000   0.0000000   0.1145309), wk =   0.1666667
        k(    3) = (   0.0000000   0.0000000  -0.2290617), wk =   0.0833333
        k(    4) = (   0.0000000   0.2229010   0.0000000), wk =   0.1666667
        k(    5) = (   0.0000000   0.2229010   0.1145309), wk =   0.3333333
        k(    6) = (   0.0000000   0.2229010  -0.2290617), wk =   0.1666667
        k(    7) = (  -0.4323218   0.0000000   0.0000000), wk =   0.0833333
        k(    8) = (  -0.4323218   0.0000000   0.1145309), wk =   0.1666667
        k(    9) = (  -0.4323218   0.0000000  -0.2290617), wk =   0.0833333
        k(   10) = (  -0.4323218   0.2229010   0.0000000), wk =   0.1666667
        k(   11) = (  -0.4323218   0.2229010   0.1145309), wk =   0.3333333
        k(   12) = (  -0.4323218   0.2229010  -0.2290617), wk =   0.1666667

     Largest allocated arrays     est. size (Mb)     dimensions
     Largest temporary arrays     est. size (Mb)     dimensions

     Initial potential from superposition of free atoms

     Starting from uniform charge
     Starting wfc are    0 randomized atomic wfcs

     Writing output data file Prototype-La-oP12-Co2Si.save

     Self-consistent Calculation

[...]

     iteration #  8     ecut=    40.00 Ry     beta=0.70
     CG style diagonalization
     ethr =  1.54E-04,  avg # of iterations =  3.8

[...]

     total energy              =   -3470.34562184 Ry
     Harris-Foulkes estimate   =   -3470.34589132 Ry
     estimated scf accuracy    <       0.00043847 Ry

     iteration # 11     ecut=    40.00 Ry     beta=0.70
     CG style diagonalization
     c_bands:  1 eigenvalues not converged
     ethr =  1.77E-07,  avg # of iterations =  4.5

     End of self-consistent calculation

[...]

          k = 0.0000 0.2229-0.2291 (  5558 PWs)   bands (ev):

[...]

          k =-0.4323 0.2229-0.2291 (  5560 PWs)   bands (ev):

   -89.8738 -89.8738 -89.8672 -89.8672 -48.7524 -48.7524 -48.7517 -48.7517
   -48.7468 -48.7468 -48.7458 -48.7458 -48.6593 -48.6593 -48.6590 -48.6590
   -42.1754 -42.1754 -42.1697 -42.1697 -41.8884 -41.8884 -41.8589 -41.8589
   -10.9142 -10.9142 -10.8607 -10.8607 -10.8384 -10.8384 -10.8160 -10.8160
   -10.6908 -10.6908 -10.6516 -10.6516 -10.5015 -10.5015 -10.3888 -10.3888
   -10.3781 -10.3781 -10.3193 -10.3193 -10.2558 -10.2558 -10.1616 -10.1616
     8.8133   8.8133   8.8249   8.8249   8.9100   8.9100   8.9204   8.9204
     8.9761   8.9761   8.9987   8.9987   9.0233   9.0233   9.0386   9.0386
     9.1462   9.1462   9.1805   9.1805  19.9078  19.9078  20.0074  20.0074
    23.0410  23.0410  23.5858  23.5858  24.2729  24.2729  24.5855  24.5855
    24.5975  24.5975  25.0405  25.0405  25.1242  25.1242  25.2596  25.2596
    25.4211  25.4211  25.9002  25.9002  26.1910  26.1910  26.6834  26.6834
    26.8514  26.8514  26.9777  26.9777  27.4848  27.4848  27.8882  27.8882
    27.9657  27.9657  28.2467  28.2467  28.3749  28.3749  29.0384  29.0384
    30.1607  30.1607  30.4950  30.4950  31.5692  31.5692  33.6243  33.6243
    34.4467  34.4467  34.8368  34.8368  36.7397  36.7397  37.0464  37.0464
    38.8722  38.8722  39.6548  39.6548  40.1280  40.1281  40.4376  40.4375
    40.6957  40.6958  41.2067  41.2065  41.5242  41.5242  42.0395  42.0396
    42.1596  42.1595  42.7938  42.7941  43.0215

     the Fermi energy is    35.9965 ev

!    total energy              =   -3470.34584313 Ry
     Harris-Foulkes estimate   =   -3470.34588324 Ry
     estimated scf accuracy    <       0.00004427 Ry

     The total energy is the sum of the following terms:

     one-electron contribution =    -524.29107299 Ry
     hartree contribution      =     476.88896865 Ry
     xc contribution           =    -308.60498038 Ry
     ewald contribution        =   -3114.03771369 Ry
     smearing contrib. (-TS)   =      -0.30104472 Ry

     convergence has been achieved in  11 iterations

     Forces acting on atoms (Ry/au):

     atom    1 type  1   force =     0.00000000   -0.01649608   -0.03089615
     atom    2 type  1   force =     0.00000000    0.01649608    0.03089615
     atom    3 type  1   force =     0.00000000   -0.01649608    0.03089615
     atom    4 type  1   force =     0.00000000    0.01649608   -0.03089615
     atom    5 type  1   force =     0.00000000    0.05758799   -0.10993301
     atom    6 type  1   force =     0.00000000   -0.05758799    0.10993301
     atom    7 type  1   force =     0.00000000    0.05758799    0.10993301
     atom    8 type  1   force =     0.00000000   -0.05758799   -0.10993301
     atom    9 type  2   force =     0.00000000   -0.07062101    0.00150309
     atom   10 type  2   force =     0.00000000    0.07062101   -0.00150309
     atom   11 type  2   force =     0.00000000   -0.07062101   -0.00150309
     atom   12 type  2   force =     0.00000000    0.07062101    0.00150309

     Total force =     0.294061     Total SCF correction =     0.000000

     entering subroutine stress ...

          total   stress  (Ry/bohr**3)                   (kbar)     P= 1025.61
   0.00754565   0.00000000   0.00000000       1110.00      0.00      0.00
   0.00000000   0.00639833   0.00000000          0.00    941.23      0.00
   0.00000000   0.00000000   0.00697182          0.00      0.00   1025.59

     Writing output data file Prototype-La-oP12-Co2Si.save

     General routines

     Parallel routines

   This run was terminated on:  17:59:32  22Mar2018

   JOB DONE.