     Program PWSCF v.5.0.2 starts on 22Mar2018 at 22:49: 3

     Current dimensions of program PWSCF are:
     Max number of different atomic species (ntypx) = 10
     Max number of k-points (npk) =  40000
     Max angular momentum in pseudopotentials (lmaxx) =  3
     Waiting for input...
     Reading input from standard input

     Subspace diagonalization in iterative solution of the eigenvalue problem:
     a serial algorithm will be used

     bravais-lattice index     =            0
     lattice parameter (alat)  =       7.0151  a.u.
     unit-cell volume          =     862.2778 (a.u.)^3
     number of atoms/cell      =           12
     number of atomic types    =            2
     number of electrons       =       220.00
     number of Kohn-Sham states=          132
     kinetic-energy cutoff     =      40.0000  Ry
     charge density cutoff     =     160.0000  Ry
     convergence threshold     =      1.0E-04
     mixing beta               =       0.7000
     number of iterations used =            8  plain     mixing
     Exchange-correlation      = SLA-PZ-NOGX-NOGC ( 1 1 0 0 0)
     EXX-fraction              =        0.00
     nstep                     =           50

     celldm(1)=   7.015105  celldm(2)=   0.000000  celldm(3)=   0.000000
     celldm(4)=   0.000000  celldm(5)=   0.000000  celldm(6)=   0.000000

     crystal axes: (cart. coord. in units of alat)
               a(1) = (   1.000000   0.000000   0.000000 )
               a(2) = (   0.000000   1.315963   0.000000 )
               a(3) = (   0.000000   0.000000   1.898020 )

     reciprocal axes: (cart. coord. in units 2 pi/alat)
               b(1) = (  1.000000  0.000000  0.000000 )
               b(2) = (  0.000000  0.759900  0.000000 )
               b(3) = (  0.000000  0.000000  0.526865 )

     PseudoPot. # 1 for Gd read from file:
     /home/cwx6513/pp.La/Gd.UPF
     MD5 check sum: 09a8be538722f05520810cb6aac0efd2
     Pseudo is Norm-conserving, Zval = 18.0
     Generated in analytical, separable form
     Using radial grid of 1263 points,  6 beta functions with:
                l(1) =   0
                l(2) =   0
                l(3) =   1
                l(4) =   1
                l(5) =   2
                l(6) =   3

     PseudoPot. # 2 for Tb read from file:
     /home/cwx6513/pp.La/Tb.UPF
     MD5 check sum: 3d6088a3f0cf7fd2e110c43f7f8e95c2
     Pseudo is Norm-conserving, Zval = 19.0
     Generated in analytical, separable form
     Using radial grid of 1263 points,  6 beta functions with:
                l(1) =   0
                l(2) =   0
                l(3) =   1
                l(4) =   1
                l(5) =   2
                l(6) =   3

     atomic species   valence    mass     pseudopotential
        Co            18.00    58.93320     Gd( 1.00)
        Si            19.00    28.08550     Tb( 1.00)

      8 Sym. Ops., with inversion, found ( 6 have fractional translation)

   Cartesian axes

     site n.     atom                  positions (alat units)
         1           Co  tau(   1) = (   0.7500000   1.0875135   0.8270358  )
         2           Co  tau(   2) = (   0.2500000   0.2284499   1.0709846  )
         3           Co  tau(   3) = (   0.7500000   0.4295318   0.1219744  )
         4           Co  tau(   4) = (   0.2500000   0.8864316   1.7760460  )
         5           Co  tau(   5) = (   0.2500000   0.7067855   0.5358966  )
         6           Co  tau(   6) = (   0.7500000   0.6091779   1.3621238  )
         7           Co  tau(   7) = (   0.2500000   0.0488038   0.4131136  )
         8           Co  tau(   8) = (   0.7500000   1.2671596   1.4849068  )
         9           Si  tau(   9) = (   0.2500000   0.2669484   1.6960710  )
        10           Si  tau(  10) = (   0.7500000   1.0490149   0.2019494  )
        11           Si  tau(  11) = (   0.2500000   0.9249301   1.1509596  )
        12           Si  tau(  12) = (   0.7500000   0.3910333   0.7470608  )

     number of k points=    12  gaussian smearing, width (Ry)=  0.1000
                       cart. coord. in units 2pi/alat
        k(    1) = (   0.0000000   0.0000000   0.0000000), wk =   0.0833333
        k(    2) = (   0.0000000   0.0000000   0.1317162), wk =   0.1666667
        k(    3) = (   0.0000000   0.0000000  -0.2634324), wk =   0.0833333
        k(    4) = (   0.0000000   0.2532999   0.0000000), wk =   0.1666667
        k(    5) = (   0.0000000   0.2532999   0.1317162), wk =   0.3333333
        k(    6) = (   0.0000000   0.2532999  -0.2634324), wk =   0.1666667
        k(    7) = (  -0.5000000   0.0000000   0.0000000), wk =   0.0833333
        k(    8) = (  -0.5000000   0.0000000   0.1317162), wk =   0.1666667
        k(    9) = (  -0.5000000   0.0000000  -0.2634324), wk =   0.0833333
        k(   10) = (  -0.5000000   0.2532999   0.0000000), wk =   0.1666667
        k(   11) = (  -0.5000000   0.2532999   0.1317162), wk =   0.3333333
        k(   12) = (  -0.5000000   0.2532999  -0.2634324), wk =   0.1666667

     Largest allocated arrays     est. size (Mb)     dimensions
     Largest temporary arrays     est. size (Mb)     dimensions

     Initial potential from superposition of free atoms

     Starting from uniform charge
     Starting wfc are    0 randomized atomic wfcs

     Self-consistent Calculation

     iteration #  1     ecut=    40.00 Ry     beta=0.70
     CG style diagonalization
     c_bands:  1 eigenvalues not converged
     c_bands:  1 eigenvalues not converged
     c_bands:  5 eigenvalues not converged
     c_bands:  2 eigenvalues not converged
     c_bands:  1 eigenvalues not converged
     c_bands:  4 eigenvalues not converged
     c_bands:  4 eigenvalues not converged
     ethr =  1.00E-02,  avg # of iterations = 11.5

     total energy              =   -2410.40081905 Ry
     Harris-Foulkes estimate   =   -2737.96699416 Ry
     estimated scf accuracy    <     441.65116258 Ry

     iteration #  2     ecut=    40.00 Ry     beta=0.70
     CG style diagonalization
     ethr =  1.00E-02,  avg # of iterations =  6.5

[...]

     End of self-consistent calculation

          k = 0.0000 0.0000 0.0000 (  3675 PWs)   bands (ev):

   -29.0561 -28.9692 -28.9475 -28.9333 -21.7521 -21.5752 -21.5604 -21.3765
   -21.2762 -21.0966 -21.0044 -21.0024   0.7456   1.2634   1.3380   1.3473
     1.3480   1.5176   1.5489   1.5833   1.7067   1.8099   2.0781   2.2243
     5.3975   5.6483   5.7790   6.0844   6.5456   6.6687   6.7178   6.9821
     6.9918   7.0354   7.2694   7.3379   7.3545   7.4245   7.6347   7.6941
     7.8344   7.8898   7.8936   8.0658   8.6811   8.6812   8.8323   8.9551
    32.9099  32.9729  32.9806  33.8742  33.8791  33.9195  34.0548  34.3614
    34.3711  35.2062  35.5100  35.8002  36.0120  36.1300  36.3111  36.3645
    36.8938  38.2645  38.3312  38.3721  38.4621  38.8316  38.9605  39.5973
    39.6230  39.7378  40.2758  40.3204  40.3755  40.7613  40.7719  41.0049
    41.0764  41.6730  41.7942  41.9966  42.1985  42.8484  42.9876  43.1773
    43.2132  43.4649  44.0784  44.9219  45.1859  45.6081  45.7392  46.1215
    46.5215  47.0863  47.1617  47.3323  47.5542  47.7362  47.7979  48.0428
    48.5542  48.7411  48.8299  49.4608  49.7146  49.7459  50.2289  51.5710
    53.1912  53.3143  54.1525  55.3148  55.3928  56.5972  56.6220  56.6265
    56.7614  57.3409  57.8816  57.9130  58.0206  58.2893  58.3889  58.5490
    58.5812  58.8670  59.3225  59.4573

[...]

          k =-0.5000 0.0000 0.0000 (  3722 PWs)   bands (ev):

[...]

     the Fermi energy is    50.0830 ev

!    total energy              =   -2516.20726598 Ry
     Harris-Foulkes estimate   =   -2516.20729626 Ry
     estimated scf accuracy    <       0.00003295 Ry

     The total energy is the sum of the following terms:

     one-electron contribution =     379.61764009 Ry
     hartree contribution      =     163.87479301 Ry
     xc contribution           =    -264.22781552 Ry
     ewald contribution        =   -2795.20090983 Ry
     smearing contrib. (-TS)   =      -0.27097373 Ry

     convergence has been achieved in   8 iterations

     Forces acting on atoms (Ry/au):

     atom    1 type  1   force =     0.00000000   -0.03995589   -0.04698425
     atom    2 type  1   force =     0.00000000    0.03995589    0.04698425
     atom    3 type  1   force =     0.00000000   -0.03995589    0.04698425
     atom    4 type  1   force =     0.00000000    0.03995589   -0.04698425
     atom    5 type  1   force =     0.00000000    0.14641147   -0.26492952
     atom    6 type  1   force =     0.00000000   -0.14641147    0.26492952
     atom    7 type  1   force =     0.00000000    0.14641147    0.26492952
     atom    8 type  1   force =     0.00000000   -0.14641147   -0.26492952
     atom    9 type  2   force =     0.00000000   -0.20545959    0.04064890
     atom   10 type  2   force =     0.00000000    0.20545959   -0.04064890
     atom   11 type  2   force =     0.00000000   -0.20545959   -0.04064890
     atom   12 type  2   force =     0.00000000    0.20545959    0.04064890

     Total force =     0.746442     Total SCF correction =     0.000000

     entering subroutine stress ...

          total   stress  (Ry/bohr**3)                   (kbar)     P= 6788.70
   0.04981037   0.00000000   0.00000000       7327.36      0.00      0.00
   0.00000000   0.04312664   0.00000000          0.00   6344.15      0.00
   0.00000000   0.00000000   0.04550901          0.00      0.00   6694.61

     BFGS Geometry Optimization

     number of scf cycles    =   1
     number of bfgs steps    =   0

     enthalpy new            =   -2516.2072659810 Ry

     new trust radius        =       0.5000000000 bohr
     new conv_thr            =       0.0001000000 Ry

     new unit-cell volume =   1082.80870 a.u.^3 (   160.45569 Ang^3 )

CELL_PARAMETERS (alat=  7.01510508)
   1.085136619   0.000000000   0.000000000
   0.000000000   1.412966588   0.000000000
   0.000000000   0.000000000   2.045657307

ATOMIC_POSITIONS (crystal)
Co       0.750000000   0.826105090   0.435494746
Co       0.250000000   0.173894910   0.564505254
Co       0.750000000   0.326105090   0.064505254
Co       0.250000000   0.673894910   0.935494746
Co       0.250000000   0.538170311   0.280984646
Co       0.750000000   0.461829689   0.719015354
Co       0.250000000   0.038170311   0.219015354
Co       0.750000000   0.961829689   0.780984646
Si       0.250000000   0.201332384   0.893808723
Si       0.750000000   0.798667616   0.106191277
Si       0.250000000   0.701332384   0.606191277
Si       0.750000000   0.298667616   0.393808723

     Writing output data file Prototype-La-oP12-Co2Si.save
     NEW-OLD atomic charge density approx. for the potential
     NEW k-points:
        k(    1) = (   0.0000000   0.0000000   0.0000000), wk =   0.0833333
        k(    2) = (   0.0000000   0.0000000   0.1222101), wk =   0.1666667
        k(    3) = (   0.0000000   0.0000000  -0.2444202), wk =   0.0833333
        k(    4) = (   0.0000000   0.2359103   0.0000000), wk =   0.1666667
        k(    5) = (   0.0000000   0.2359103   0.1222101), wk =   0.3333333
        k(    6) = (   0.0000000   0.2359103  -0.2444202), wk =   0.1666667
        k(    7) = (  -0.4607715   0.0000000   0.0000000), wk =   0.0833333
        k(    8) = (  -0.4607715   0.0000000   0.1222101), wk =   0.1666667
        k(    9) = (  -0.4607715   0.0000000  -0.2444202), wk =   0.0833333
        k(   10) = (  -0.4607715   0.2359103   0.0000000), wk =   0.1666667
        k(   11) = (  -0.4607715   0.2359103   0.1222101), wk =   0.3333333
        k(   12) = (  -0.4607715   0.2359103  -0.2444202), wk =   0.1666667

[...]

     number of scf cycles    =   3
     number of bfgs steps    =   2

     enthalpy old            =   -2516.2072670727 Ry
     enthalpy new            =   -2522.2022295232 Ry

     CASE: enthalpy_new < enthalpy_old

     Message from routine bfgs:
     history already reset at previous step: stopping
     small trust_radius: resetting bfgs history

     new trust radius        =       2.2760016958 bohr
     new conv_thr            =       0.0001000000 Ry

     new unit-cell volume =   2456.30391 a.u.^3 (   363.98668 Ang^3 )

[...]

ATOMIC_POSITIONS (crystal)
Co       0.750000000   0.823081105   0.433852402
Co       0.250000000   0.176918895   0.566147598
Co       0.750000000   0.323081105   0.066147598
Co       0.250000000   0.676918895   0.933852402
Co       0.250000000   0.546437195   0.270582093
Co       0.750000000   0.453562805   0.729417907
Co       0.250000000   0.046437195   0.229417907
Co       0.750000000   0.953562805   0.770582093
Si       0.250000000   0.189081157   0.895389784
Si       0.750000000   0.810918843   0.104610216
Si       0.250000000   0.689081157   0.604610216
Si       0.750000000   0.310918843   0.395389784

     Writing output data file Prototype-La-oP12-Co2Si.save
     NEW-OLD atomic charge density approx. for the potential
     NEW k-points:
        k(    1) = (   0.0000000   0.0000000   0.0000000), wk =   0.0833333
        k(    2) = (   0.0000000   0.0000000   0.0931845), wk =   0.1666667
        k(    3) = (   0.0000000   0.0000000  -0.1863689), wk =   0.0833333
        k(    4) = (   0.0000000   0.1835572   0.0000000), wk =   0.1666667
        k(    5) = (   0.0000000   0.1835572   0.0931845), wk =   0.3333333
        k(    6) = (   0.0000000   0.1835572  -0.1863689), wk =   0.1666667
        k(    7) = (  -0.3423689   0.0000000   0.0000000), wk =   0.0833333
        k(    8) = (  -0.3423689   0.0000000   0.0931845), wk =   0.1666667
        k(    9) = (  -0.3423689   0.0000000  -0.1863689), wk =   0.0833333
        k(   10) = (  -0.3423689   0.1835572   0.0000000), wk =   0.1666667
        k(   11) = (  -0.3423689   0.1835572   0.0931845), wk =   0.3333333
        k(   12) = (  -0.3423689   0.1835572  -0.1863689), wk =   0.1666667

[...]

          total   stress  (Ry/bohr**3)                   (kbar)     P=-1569.35
  -0.01131974   0.00000000   0.00000000      -1665.19      0.00      0.00
   0.00000000  -0.01012450   0.00000000          0.00  -1489.37      0.00
   0.00000000   0.00000000  -0.01056054          0.00      0.00  -1553.51

     The maximum number of steps has been reached.

     End of BFGS Geometry Optimization
Begin final coordinates
     new unit-cell volume =   2456.30391 a.u.^3 (   363.98668 Ang^3 )

CELL_PARAMETERS (alat=  7.01510508)
   1.460412923   0.000000000   0.000000000
   0.000000000   1.815964423   0.000000000
   0.000000000   0.000000000   2.682851004

ATOMIC_POSITIONS (crystal)
Co       0.750000000   0.823081105   0.433852402
Co       0.250000000   0.176918895   0.566147598
Co       0.750000000   0.323081105   0.066147598
Co       0.250000000   0.676918895   0.933852402
Co       0.250000000   0.546437195   0.270582093
Co       0.750000000   0.453562805   0.729417907
Co       0.250000000   0.046437195   0.229417907
Co       0.750000000   0.953562805   0.770582093
Si       0.250000000   0.189081157   0.895389784
Si       0.750000000   0.810918843   0.104610216
Si       0.250000000   0.689081157   0.604610216
Si       0.750000000   0.310918843   0.395389784
End final coordinates

     A final scf calculation at the relaxed structure.
     The G-vectors are recalculated for the final unit cell
     Results may differ from those at the preceding step.

     bravais-lattice index     =            0
     lattice parameter (alat)  =       7.0151  a.u.
     unit-cell volume          =    2456.3039 (a.u.)^3
     number of atoms/cell      =           12
     number of atomic types    =            2
     number of electrons       =       220.00
     number of Kohn-Sham states=          132
     kinetic-energy cutoff     =      40.0000  Ry
     charge density cutoff     =     160.0000  Ry
     convergence threshold     =      1.0E-04
     mixing beta               =       0.7000
     number of iterations used =            8  plain     mixing
     Exchange-correlation      = SLA-PZ-NOGX-NOGC ( 1 1 0 0 0)
     EXX-fraction              =        0.00

     celldm(1)=   7.015105  celldm(2)=   0.000000  celldm(3)=   0.000000
     celldm(4)=   0.000000  celldm(5)=   0.000000  celldm(6)=   0.000000

     crystal axes: (cart. coord. in units of alat)
               a(1) = (   1.460413   0.000000   0.000000 )
               a(2) = (   0.000000   1.815964   0.000000 )
               a(3) = (   0.000000   0.000000   2.682851 )

     reciprocal axes: (cart. coord. in units 2 pi/alat)
               b(1) = (  0.684738  0.000000  0.000000 )
               b(2) = (  0.000000  0.550672  0.000000 )
               b(3) = (  0.000000  0.000000  0.372738 )

     PseudoPot. # 1 for Gd read from file:
     /home/cwx6513/pp.La/Gd.UPF
     MD5 check sum: 09a8be538722f05520810cb6aac0efd2
     Pseudo is Norm-conserving, Zval = 18.0
     Generated in analytical, separable form
     Using radial grid of 1263 points,  6 beta functions with:
                l(1) =   0
                l(2) =   0
                l(3) =   1
                l(4) =   1
                l(5) =   2
                l(6) =   3

     PseudoPot. # 2 for Tb read from file:
     /home/cwx6513/pp.La/Tb.UPF
     MD5 check sum: 3d6088a3f0cf7fd2e110c43f7f8e95c2
     Pseudo is Norm-conserving, Zval = 19.0
     Generated in analytical, separable form
     Using radial grid of 1263 points,  6 beta functions with:
                l(1) =   0
                l(2) =   0
                l(3) =   1
                l(4) =   1
                l(5) =   2
                l(6) =   3

     atomic species   valence    mass     pseudopotential
        Co            18.00    58.93320     Gd( 1.00)
        Si            19.00    28.08550     Tb( 1.00)

      8 Sym. Ops., with inversion, found ( 6 have fractional translation)

   Cartesian axes

     site n.     atom                  positions (alat units)
         1           Co  tau(   1) = (   1.0953097   1.4946860   1.1639614  )
         2           Co  tau(   2) = (   0.3651032   0.3212784   1.5188897  )
         3           Co  tau(   3) = (   1.0953097   0.5867038   0.1774642  )
         4           Co  tau(   4) = (   0.3651032   1.2292606   2.5053869  )
         5           Co  tau(   5) = (   0.3651032   0.9923105   0.7259314  )
         6           Co  tau(   6) = (   1.0953097   0.8236539   1.9569196  )
         7           Co  tau(   7) = (   0.3651032   0.0843283   0.6154941  )
         8           Co  tau(   8) = (   1.0953097   1.7316361   2.0673569  )
         9           Si  tau(   9) = (   0.3651032   0.3433647   2.4021974  )
        10           Si  tau(  10) = (   1.0953097   1.4725998   0.2806536  )
        11           Si  tau(  11) = (   0.3651032   1.2513469   1.6220791  )
        12           Si  tau(  12) = (   1.0953097   0.5646176   1.0607719  )

     number of k points=    12  gaussian smearing, width (Ry)=  0.1000
                       cart. coord. in units 2pi/alat
        k(    1) = (   0.0000000   0.0000000   0.0000000), wk =   0.0833333
        k(    2) = (   0.0000000   0.0000000   0.0931845), wk =   0.1666667
        k(    3) = (   0.0000000   0.0000000  -0.1863689), wk =   0.0833333
        k(    4) = (   0.0000000   0.1835572   0.0000000), wk =   0.1666667
        k(    5) = (   0.0000000   0.1835572   0.0931845), wk =   0.3333333
        k(    6) = (   0.0000000   0.1835572  -0.1863689), wk =   0.1666667
        k(    7) = (  -0.3423689   0.0000000   0.0000000), wk =   0.0833333
        k(    8) = (  -0.3423689   0.0000000   0.0931845), wk =   0.1666667
        k(    9) = (  -0.3423689   0.0000000  -0.1863689), wk =   0.0833333
        k(   10) = (  -0.3423689   0.1835572   0.0000000), wk =   0.1666667
        k(   11) = (  -0.3423689   0.1835572   0.0931845), wk =   0.3333333
        k(   12) = (  -0.3423689   0.1835572  -0.1863689), wk =   0.1666667

     Largest allocated arrays     est. size (Mb)     dimensions
     Largest temporary arrays     est. size (Mb)     dimensions

     Initial potential from superposition of free atoms

     Starting from uniform charge
     Starting wfc are    0 randomized atomic wfcs

     Writing output data file Prototype-La-oP12-Co2Si.save

     Self-consistent Calculation

[...]

     iteration # 10     ecut=    40.00 Ry     beta=0.70
     CG style diagonalization
     ethr =  9.14E-06,  avg # of iterations =  3.2

     total energy              =   -2528.36655170 Ry
     Harris-Foulkes estimate   =   -2528.36753683 Ry
     estimated scf accuracy    <       0.00222102 Ry

     iteration # 11     ecut=    40.00 Ry     beta=0.70
     CG style diagonalization
     c_bands:  1 eigenvalues not converged
     ethr =  1.01E-06,  avg # of iterations =  3.6

     End of self-consistent calculation

[...]

          k = 0.0000 0.1836-0.1864 ( 10490 PWs)   bands (ev):

[...]

          k =-0.3424 0.1836-0.1864 ( 10496 PWs)   bands (ev):

   -60.4110 -60.4110 -60.4093 -60.4093 -53.9618 -53.9618 -53.9574 -53.9574
   -53.9427 -53.9427 -53.9426 -53.9426 -28.6942 -28.6942 -28.6935 -28.6935
   -28.6856 -28.6856 -28.6843 -28.6843 -28.6721 -28.6721 -28.6662 -28.6662
   -24.9069 -24.9069 -24.8814 -24.8814 -24.8778 -24.8778 -24.8631 -24.8631
   -24.8621 -24.8621 -24.8467 -24.8467 -24.8387 -24.8387 -24.8362 -24.8362
   -24.8226 -24.8226 -24.8208 -24.8208 -24.8127 -24.8127 -24.8104 -24.8104
     8.7168   8.7168   8.8395   8.8395   8.9385   8.9385   8.9956   8.9956
     9.0184   9.0184   9.0564   9.0564   9.0879   9.0879   9.1308   9.1308
     9.3460   9.3460   9.4910   9.4910   9.7853   9.7853   9.8604   9.8604
    10.0843  10.0843  10.2894  10.2894  10.3805  10.3805  10.4203  10.4203
    10.5904  10.5904  10.7373  10.7373  10.7919  10.7919  10.8912  10.8912
    11.0765  11.0765  11.1441  11.1441  11.1659  11.1659  11.3253  11.3253
    11.3307  11.3307  11.4564  11.4564  11.6309  11.6309  11.7889  11.7889
    12.0030  12.0030  12.0506  12.0506  12.3980  12.3980  12.5263  12.5263
    13.3882  13.3882  13.5170  13.5170  15.1929  15.1929  16.4028  16.4029
    17.0444  17.0444  17.3761  17.3761  18.8451  18.8451  19.1258  19.1259
    21.5130  21.5131  21.9769  21.9892

     the Fermi energy is    12.9996 ev

!    total energy              =   -2528.36710812 Ry
     Harris-Foulkes estimate   =   -2528.36713683 Ry
     estimated scf accuracy    <       0.00003097 Ry

     The total energy is the sum of the following terms:

     one-electron contribution =    -795.99340958 Ry
     hartree contribution      =     487.08250281 Ry
     xc contribution           =    -244.49340632 Ry
     ewald contribution        =   -1974.22092188 Ry
     smearing contrib. (-TS)   =      -0.74187314 Ry

     convergence has been achieved in  11 iterations

     Forces acting on atoms (Ry/au):

     atom    1 type  1   force =     0.00000000   -0.00382969    0.00764609
     atom    2 type  1   force =     0.00000000    0.00382969   -0.00764609
     atom    3 type  1   force =     0.00000000   -0.00382969   -0.00764609
     atom    4 type  1   force =     0.00000000    0.00382969    0.00764609
     atom    5 type  1   force =     0.00000000    0.00295967   -0.00050438
     atom    6 type  1   force =     0.00000000   -0.00295967    0.00050438
     atom    7 type  1   force =     0.00000000    0.00295967    0.00050438
     atom    8 type  1   force =     0.00000000   -0.00295967   -0.00050438
     atom    9 type  2   force =     0.00000000   -0.00640502    0.00945060
     atom   10 type  2   force =     0.00000000    0.00640502   -0.00945060
     atom   11 type  2   force =     0.00000000   -0.00640502   -0.00945060
     atom   12 type  2   force =     0.00000000    0.00640502    0.00945060

     Total force =     0.029153     Total SCF correction =     0.000000

     entering subroutine stress ...

          total   stress  (Ry/bohr**3)                   (kbar)     P= -478.63
  -0.00323726   0.00000000   0.00000000       -476.22      0.00      0.00
   0.00000000  -0.00327206   0.00000000          0.00   -481.34      0.00
   0.00000000   0.00000000  -0.00325174          0.00      0.00   -478.35

     Writing output data file Prototype-La-oP12-Co2Si.save

     General routines

     Parallel routines

   This run was terminated on:  23:29: 0  22Mar2018

   JOB DONE.