     Program PWSCF v.5.0.2 starts on 22Mar2018 at 22:44:14

     Current dimensions of program PWSCF are:
     Max number of different atomic species (ntypx) = 10
     Max number of k-points (npk) =  40000
     Max angular momentum in pseudopotentials (lmaxx) =  3
     Waiting for input...
     Reading input from standard input

     Subspace diagonalization in iterative solution of the eigenvalue problem:
     a serial algorithm will be used

     bravais-lattice index     =            0
     lattice parameter (alat)  =      12.0168  a.u.
     unit-cell volume          =    1187.3413 (a.u.)^3
     number of atoms/cell      =            8
     number of atomic types    =            2
     number of electrons       =       174.00
     number of Kohn-Sham states=          104
     kinetic-energy cutoff     =      40.0000  Ry
     charge density cutoff     =     160.0000  Ry
     convergence threshold     =      1.0E-04
     mixing beta               =       0.7000
     number of iterations used =            8  plain     mixing
     Exchange-correlation      = SLA-PZ-NOGX-NOGC ( 1 1 0 0 0)
     EXX-fraction              =        0.00
     nstep                     =           50

     celldm(1)=  12.016801  celldm(2)=   0.000000  celldm(3)=   0.000000
     celldm(4)=   0.000000  celldm(5)=   0.000000  celldm(6)=   0.000000

     crystal axes: (cart. coord. in units of alat)
               a(1) = (   1.000000   0.000000   0.000000 )
               a(2) = (  -0.500000   0.866025   0.000000 )
               a(3) = (   0.000000   0.000000   0.790093 )

     reciprocal axes: (cart. coord. in units 2 pi/alat)
               b(1) = (  1.000000  0.577350  0.000000 )
               b(2) = (  0.000000  1.154701  0.000000 )
               b(3) = (  0.000000  0.000000  1.265674 )

     PseudoPot. # 1 for Er read from file:
     /home/cwx6513/pp.La/Er.UPF
     MD5 check sum: e152ae21b84514339d8526f066caf99b
     Pseudo is Norm-conserving, Zval = 22.0
     Generated in analytical, separable form
     Using radial grid of 1267 points,  6 beta functions with:
                l(1) =   0
                l(2) =   0
                l(3) =   1
                l(4) =   1
                l(5) =   2
                l(6) =   3

     PseudoPot. # 2 for Ho read from file:
     /home/cwx6513/pp.La/Ho.UPF
     MD5 check sum: f307ee11bce99f5b724fa279e3790763
     Pseudo is Norm-conserving, Zval = 21.0
     Generated in analytical, separable form
     Using radial grid of 1265 points,  6 beta functions with:
                l(1) =   0
                l(2) =   0
                l(3) =   1
                l(4) =   1
                l(5) =   2
                l(6) =   3

     atomic species   valence    mass     pseudopotential
        Mg            22.00    24.30500     Er( 1.00)
        Cd            21.00   112.41100     Ho( 1.00)

     24 Sym. Ops., with inversion, found (12 have fractional translation)

   Cartesian axes

     site n.     atom                  positions (alat units)
         1           Mg  tau(   1) = (   0.2478935   0.7204716   0.1975233  )
         2           Mg  tau(   2) = (   0.7478935   0.1455538   0.5925699  )
         3           Mg  tau(   3) = (   0.2521065   0.1455538   0.5925699  )
         4           Mg  tau(   4) = (  -0.2478935   0.7204716   0.1975233  )
         5           Mg  tau(   5) = (   0.0000000   0.2911075   0.1975233  )
         6           Mg  tau(   6) = (   0.5000000   0.5749179   0.5925699  )
         7           Cd  tau(   7) = (   0.5000005   0.2886748   0.1975233  )
         8           Cd  tau(   8) = (  -0.0000005   0.5773506   0.5925699  )

     number of k points=    64  gaussian smearing, width (Ry)=  0.1000
                       cart. coord. in units 2pi/alat
        k(    1) = (   0.0000000   0.0000000   0.0000000), wk =   0.0095238
        k(    2) = (   0.0000000   0.0000000   0.1808105), wk =   0.0190476
        k(    3) = (   0.0000000   0.0000000   0.3616210), wk =   0.0190476
        k(    4) = (   0.0000000   0.0000000   0.5424315), wk =   0.0190476
        k(    5) = (   0.0000000   0.1924501   0.0000000), wk =   0.0190476
        k(    6) = (   0.0000000   0.1924501   0.1808105), wk =   0.0380952
        k(    7) = (   0.0000000   0.1924501   0.3616210), wk =   0.0380952
        k(    8) = (   0.0000000   0.1924501   0.5424315), wk =   0.0380952
        k(    9) = (   0.0000000   0.3849002   0.0000000), wk =   0.0190476
        k(   10) = (   0.0000000   0.3849002   0.1808105), wk =   0.0380952
        k(   11) = (   0.0000000   0.3849002   0.3616210), wk =   0.0380952
        k(   12) = (   0.0000000   0.3849002   0.5424315), wk =   0.0380952
        k(   13) = (   0.0000000  -0.5773503   0.0000000), wk =   0.0095238
        k(   14) = (   0.0000000  -0.5773503   0.1808105), wk =   0.0190476
        k(   15) = (   0.0000000  -0.5773503   0.3616210), wk =   0.0190476
        k(   16) = (   0.0000000  -0.5773503   0.5424315), wk =   0.0190476
        k(   17) = (   0.2000000   0.1154701   0.0000000), wk =   0.0190476
        k(   18) = (   0.2000000   0.1154701   0.1808105), wk =   0.0380952
        k(   19) = (   0.2000000   0.1154701   0.3616210), wk =   0.0380952
        k(   20) = (   0.2000000   0.1154701   0.5424315), wk =   0.0380952
        k(   21) = (   0.2000000   0.3079201   0.0000000), wk =   0.0190476
        k(   22) = (   0.2000000   0.3079201   0.1808105), wk =   0.0380952
        k(   23) = (   0.2000000   0.3079201   0.3616210), wk =   0.0380952
        k(   24) = (   0.2000000   0.3079201   0.5424315), wk =   0.0380952
        k(   25) = (   0.2000000   0.5003702   0.0000000), wk =   0.0190476
        k(   26) = (   0.2000000   0.5003702   0.1808105), wk =   0.0380952
        k(   27) = (   0.2000000   0.5003702   0.3616210), wk =   0.0380952
        k(   28) = (   0.2000000   0.5003702   0.5424315), wk =   0.0380952
        k(   29) = (   0.2000000  -0.4618802   0.0000000), wk =   0.0190476
        k(   30) = (   0.2000000  -0.4618802   0.1808105), wk =   0.0380952
        k(   31) = (   0.2000000  -0.4618802   0.3616210), wk =   0.0380952
        k(   32) = (   0.2000000  -0.4618802   0.5424315), wk =   0.0380952
        k(   33) = (   0.2000000  -0.2694301   0.0000000), wk =   0.0190476
        k(   34) = (   0.2000000  -0.2694301   0.1808105), wk =   0.0380952
        k(   35) = (   0.2000000  -0.2694301   0.3616210), wk =   0.0380952
        k(   36) = (   0.2000000  -0.2694301   0.5424315), wk =   0.0380952
        k(   37) = (   0.2000000  -0.0769800   0.0000000), wk =   0.0190476
        k(   38) = (   0.2000000  -0.0769800   0.1808105), wk =   0.0380952
        k(   39) = (   0.2000000  -0.0769800   0.3616210), wk =   0.0380952
        k(   40) = (   0.2000000  -0.0769800   0.5424315), wk =   0.0380952
        k(   41) = (   0.4000000   0.2309401   0.0000000), wk =   0.0190476
        k(   42) = (   0.4000000   0.2309401   0.1808105), wk =   0.0380952
        k(   43) = (   0.4000000   0.2309401   0.3616210), wk =   0.0380952
        k(   44) = (   0.4000000   0.2309401   0.5424315), wk =   0.0380952
        k(   45) = (   0.4000000   0.4233902   0.0000000), wk =   0.0190476
        k(   46) = (   0.4000000   0.4233902   0.1808105), wk =   0.0380952
        k(   47) = (   0.4000000   0.4233902   0.3616210), wk =   0.0380952
        k(   48) = (   0.4000000   0.4233902   0.5424315), wk =   0.0380952
        k(   49) = (   0.4000000   0.6158403   0.0000000), wk =   0.0190476
        k(   50) = (   0.4000000   0.6158403   0.1808105), wk =   0.0380952
        k(   51) = (   0.4000000   0.6158403   0.3616210), wk =   0.0380952
        k(   52) = (   0.4000000   0.6158403   0.5424315), wk =   0.0380952
        k(   53) = (   0.4000000  -0.3464102   0.0000000), wk =   0.0190476
        k(   54) = (   0.4000000  -0.3464102   0.1808105), wk =   0.0380952
        k(   55) = (   0.4000000  -0.3464102   0.3616210), wk =   0.0380952
        k(   56) = (   0.4000000  -0.3464102   0.5424315), wk =   0.0380952
        k(   57) = (   0.4000000  -0.1539601   0.0000000), wk =   0.0190476
        k(   58) = (   0.4000000  -0.1539601   0.1808105), wk =   0.0380952
        k(   59) = (   0.4000000  -0.1539601   0.3616210), wk =   0.0380952
        k(   60) = (   0.4000000  -0.1539601   0.5424315), wk =   0.0380952
        k(   61) = (   0.4000000   0.0384900   0.0000000), wk =   0.0190476
        k(   62) = (   0.4000000   0.0384900   0.1808105), wk =   0.0380952
        k(   63) = (   0.4000000   0.0384900   0.3616210), wk =   0.0380952
        k(   64) = (   0.4000000   0.0384900   0.5424315), wk =   0.0380952

     Largest allocated arrays     est. size (Mb)     dimensions
     Largest temporary arrays     est. size (Mb)     dimensions

     Initial potential from superposition of free atoms

     Starting from uniform charge
     Starting wfc are    0 randomized atomic wfcs

     Self-consistent Calculation

     iteration #  1     ecut=    40.00 Ry     beta=0.70
     CG style diagonalization
     c_bands:  1 eigenvalues not converged
     c_bands:  4 eigenvalues not converged
     c_bands:  1 eigenvalues not converged
     c_bands:  2 eigenvalues not converged
     c_bands:  2 eigenvalues not converged
     c_bands:  1 eigenvalues not converged
     c_bands:  1 eigenvalues not converged
     c_bands:  3 eigenvalues not converged
     c_bands:  3 eigenvalues not converged
     c_bands:  1 eigenvalues not converged
     c_bands:  1 eigenvalues not converged
     c_bands:  4 eigenvalues not converged
     c_bands:  3 eigenvalues not converged
     c_bands:  3 eigenvalues not converged
     c_bands:  1 eigenvalues not converged
     c_bands:  1 eigenvalues not converged
     c_bands:  1 eigenvalues not converged
     c_bands:  1 eigenvalues not converged
     c_bands:  1 eigenvalues not converged
     c_bands:  1 eigenvalues not converged
     c_bands:  1 eigenvalues not converged
     c_bands:  1 eigenvalues not converged
     c_bands:  2 eigenvalues not converged
     c_bands:  4 eigenvalues not converged
     c_bands:  2 eigenvalues not converged
     c_bands:  1 eigenvalues not converged
     c_bands:  2 eigenvalues not converged
     c_bands:  1 eigenvalues not converged
     c_bands:  2 eigenvalues not converged
     c_bands:  1 eigenvalues not converged
     c_bands:  3 eigenvalues not converged
     c_bands:  2 eigenvalues not converged
     c_bands:  1 eigenvalues not converged
     c_bands:  2 eigenvalues not converged
     c_bands:  1 eigenvalues not converged
     c_bands:  2 eigenvalues not converged
     c_bands:  2 eigenvalues not converged
     c_bands:  3 eigenvalues not converged
     c_bands:  1 eigenvalues not converged
     c_bands:  3 eigenvalues not converged
     c_bands:  1 eigenvalues not converged
     c_bands:  1 eigenvalues not converged
     c_bands:  1 eigenvalues not converged
     c_bands:  2 eigenvalues not converged
     c_bands:  1 eigenvalues not converged
     ethr =  1.00E-02,  avg # of iterations = 14.6

     total energy              =   -2261.92564515 Ry
     Harris-Foulkes estimate   =   -3252.44004995 Ry
     estimated scf accuracy    <    1248.76540375 Ry

[...]

[...]
        k(   17) = (   0.2064121   0.1191721   0.0000000), wk =   0.0190476
        k(   18) = (   0.2064121   0.1191721   0.1842771), wk =   0.0380952
        k(   19) = (   0.2064121   0.1191721   0.3685542), wk =   0.0380952
        k(   20) = (   0.2064121   0.1191721   0.5528313), wk =   0.0380952
        k(   21) = (   0.2064121   0.3177922   0.0000000), wk =   0.0190476
        k(   22) = (   0.2064121   0.3177922   0.1842771), wk =   0.0380952
        k(   23) = (   0.2064121   0.3177922   0.3685542), wk =   0.0380952
        k(   24) = (   0.2064121   0.3177922   0.5528313), wk =   0.0380952
        k(   25) = (   0.2064121   0.5164124   0.0000000), wk =   0.0190476
        k(   26) = (   0.2064121   0.5164124   0.1842771), wk =   0.0380952
        k(   27) = (   0.2064121   0.5164124   0.3685542), wk =   0.0380952
        k(   28) = (   0.2064121   0.5164124   0.5528313), wk =   0.0380952
        k(   29) = (   0.2064121  -0.4766884   0.0000000), wk =   0.0190476
        k(   30) = (   0.2064121  -0.4766884   0.1842771), wk =   0.0380952
        k(   31) = (   0.2064121  -0.4766884   0.3685542), wk =   0.0380952
        k(   32) = (   0.2064121  -0.4766884   0.5528313), wk =   0.0380952
        k(   33) = (   0.2064121  -0.2780682   0.0000000), wk =   0.0190476
        k(   34) = (   0.2064121  -0.2780682   0.1842771), wk =   0.0380952
        k(   35) = (   0.2064121  -0.2780682   0.3685542), wk =   0.0380952
        k(   36) = (   0.2064121  -0.2780682   0.5528313), wk =   0.0380952
        k(   37) = (   0.2064121  -0.0794481   0.0000000), wk =   0.0190476
        k(   38) = (   0.2064121  -0.0794481   0.1842771), wk =   0.0380952
        k(   39) = (   0.2064121  -0.0794481   0.3685542), wk =   0.0380952
        k(   40) = (   0.2064121  -0.0794481   0.5528313), wk =   0.0380952
        k(   41) = (   0.4128242   0.2383442   0.0000000), wk =   0.0190476
        k(   42) = (   0.4128242   0.2383442   0.1842771), wk =   0.0380952
        k(   43) = (   0.4128242   0.2383442   0.3685542), wk =   0.0380952
        k(   44) = (   0.4128242   0.2383442   0.5528313), wk =   0.0380952
        k(   45) = (   0.4128242   0.4369643   0.0000000), wk =   0.0190476
        k(   46) = (   0.4128242   0.4369643   0.1842771), wk =   0.0380952
        k(   47) = (   0.4128242   0.4369643   0.3685542), wk =   0.0380952
        k(   48) = (   0.4128242   0.4369643   0.5528313), wk =   0.0380952
        k(   49) = (   0.4128242   0.6355845   0.0000000), wk =   0.0190476
        k(   50) = (   0.4128242   0.6355845   0.1842771), wk =   0.0380952
        k(   51) = (   0.4128242   0.6355845   0.3685542), wk =   0.0380952
        k(   52) = (   0.4128242   0.6355845   0.5528313), wk =   0.0380952
        k(   53) = (   0.4128242  -0.3575163   0.0000000), wk =   0.0190476
        k(   54) = (   0.4128242  -0.3575163   0.1842771), wk =   0.0380952
        k(   55) = (   0.4128242  -0.3575163   0.3685542), wk =   0.0380952
        k(   56) = (   0.4128242  -0.3575163   0.5528313), wk =   0.0380952
        k(   57) = (   0.4128242  -0.1588961   0.0000000), wk =   0.0190476
        k(   58) = (   0.4128242  -0.1588961   0.1842771), wk =   0.0380952
        k(   59) = (   0.4128242  -0.1588961   0.3685542), wk =   0.0380952
        k(   60) = (   0.4128242  -0.1588961   0.5528313), wk =   0.0380952
        k(   61) = (   0.4128242   0.0397240   0.0000000), wk =   0.0190476
        k(   62) = (   0.4128242   0.0397240   0.1842771), wk =   0.0380952
        k(   63) = (   0.4128242   0.0397240   0.3685542), wk =   0.0380952
        k(   64) = (   0.4128242   0.0397240   0.5528313), wk =   0.0380952

[...]

     Threshold (ethr) on eigenvalues was too large:
     Diagonalizing with lowered threshold

     CG style diagonalization
     ethr =  2.36E-09,  avg # of iterations =  3.9

[...]

     The maximum number of steps has been reached.

     End of BFGS Geometry Optimization
Begin final coordinates
     new unit-cell volume =   1093.74839 a.u.^3 (   162.07679 Ang^3 )

CELL_PARAMETERS (alat= 12.01680127)
   0.968935349   0.000000000   0.000000000
  -0.484467675   0.839122627   0.000000000
   0.000000000   0.000000000   0.775229973

ATOMIC_POSITIONS (crystal)
Mg       0.665437128   0.832718564   0.250000000
Mg       0.832718564   0.167281436   0.750000000
Mg       0.334562872   0.167281436   0.750000000
Mg       0.167281436   0.832718564   0.250000000
Mg       0.167281436   0.334562872   0.250000000
Mg       0.832718564   0.665437128   0.750000000
Cd       0.666667000   0.333333000   0.250000000
Cd       0.333333000   0.666667000   0.750000000
End final coordinates

     A final scf calculation at the relaxed structure.
     The G-vectors are recalculated for the final unit cell
     Results may differ from those at the preceding step.

     bravais-lattice index     =            0
     lattice parameter (alat)  =      12.0168  a.u.
     unit-cell volume          =    1093.7484 (a.u.)^3
     number of atoms/cell      =            8
     number of atomic types    =            2
     number of electrons       =       174.00
     number of Kohn-Sham states=          104
     kinetic-energy cutoff     =      40.0000  Ry
     charge density cutoff     =     160.0000  Ry
     convergence threshold     =      1.0E-04
     mixing beta               =       0.7000
     number of iterations used =            8  plain     mixing
     Exchange-correlation      = SLA-PZ-NOGX-NOGC ( 1 1 0 0 0)
     EXX-fraction              =        0.00

     celldm(1)=  12.016801  celldm(2)=   0.000000  celldm(3)=   0.000000
     celldm(4)=   0.000000  celldm(5)=   0.000000  celldm(6)=   0.000000

     crystal axes: (cart. coord. in units of alat)
               a(1) = (   0.968935   0.000000   0.000000 )
               a(2) = (  -0.484468   0.839123   0.000000 )
               a(3) = (   0.000000   0.000000   0.775230 )

     reciprocal axes: (cart. coord. in units 2 pi/alat)
               b(1) = (  1.032061  0.595860  0.000000 )
               b(2) = (  0.000000  1.191721  0.000000 )
               b(3) = (  0.000000  0.000000  1.289940 )

     PseudoPot. # 1 for Er read from file:
     /home/cwx6513/pp.La/Er.UPF
     MD5 check sum: e152ae21b84514339d8526f066caf99b
     Pseudo is Norm-conserving, Zval = 22.0
     Generated in analytical, separable form
     Using radial grid of 1267 points,  6 beta functions with:
                l(1) =   0
                l(2) =   0
                l(3) =   1
                l(4) =   1
                l(5) =   2
                l(6) =   3

     PseudoPot. # 2 for Ho read from file:
     /home/cwx6513/pp.La/Ho.UPF
     MD5 check sum: f307ee11bce99f5b724fa279e3790763
     Pseudo is Norm-conserving, Zval = 21.0
     Generated in analytical, separable form
     Using radial grid of 1265 points,  6 beta functions with:
                l(1) =   0
                l(2) =   0
                l(3) =   1
                l(4) =   1
                l(5) =   2
                l(6) =   3

     atomic species   valence    mass     pseudopotential
        Mg            22.00    24.30500     Er( 1.00)
        Cd            21.00   112.41100     Ho( 1.00)

     24 Sym. Ops., with inversion, found (12 have fractional translation)

   Cartesian axes

     site n.     atom                  positions (alat units)
         1           Mg  tau(   1) = (   0.2413403   0.6987530   0.1938075  )
         2           Mg  tau(   2) = (   0.7258080   0.1403696   0.5814225  )
         3           Mg  tau(   3) = (   0.2431273   0.1403696   0.5814225  )
         4           Mg  tau(   4) = (  -0.2413403   0.6987530   0.1938075  )
         5           Mg  tau(   5) = (   0.0000000   0.2807393   0.1938075  )
         6           Mg  tau(   6) = (   0.4844677   0.5583834   0.5814225  )
         7           Cd  tau(   7) = (   0.4844682   0.2797073   0.1938075  )
         8           Cd  tau(   8) = (  -0.0000005   0.5594154   0.5814225  )

     number of k points=    64  gaussian smearing, width (Ry)=  0.1000
                       cart. coord. in units 2pi/alat
        k(    1) = (   0.0000000   0.0000000   0.0000000), wk =   0.0095238
        k(    2) = (   0.0000000   0.0000000   0.1842771), wk =   0.0190476
        k(    3) = (   0.0000000   0.0000000   0.3685542), wk =   0.0190476
        k(    4) = (   0.0000000   0.0000000   0.5528313), wk =   0.0190476
        k(    5) = (   0.0000000   0.1986202   0.0000000), wk =   0.0190476
        k(    6) = (   0.0000000   0.1986202   0.1842771), wk =   0.0380952
        k(    7) = (   0.0000000   0.1986202   0.3685542), wk =   0.0380952
        k(    8) = (   0.0000000   0.1986202   0.5528313), wk =   0.0380952
        k(    9) = (   0.0000000   0.3972403   0.0000000), wk =   0.0190476
        k(   10) = (   0.0000000   0.3972403   0.1842771), wk =   0.0380952
        k(   11) = (   0.0000000   0.3972403   0.3685542), wk =   0.0380952
        k(   12) = (   0.0000000   0.3972403   0.5528313), wk =   0.0380952
        k(   13) = (   0.0000000  -0.5958605   0.0000000), wk =   0.0095238
        k(   14) = (   0.0000000  -0.5958605   0.1842771), wk =   0.0190476
        k(   15) = (   0.0000000  -0.5958605   0.3685542), wk =   0.0190476
        k(   16) = (   0.0000000  -0.5958605   0.5528313), wk =   0.0190476
        k(   17) = (   0.2064121   0.1191721   0.0000000), wk =   0.0190476
        k(   18) = (   0.2064121   0.1191721   0.1842771), wk =   0.0380952
        k(   19) = (   0.2064121   0.1191721   0.3685542), wk =   0.0380952
        k(   20) = (   0.2064121   0.1191721   0.5528313), wk =   0.0380952
        k(   21) = (   0.2064121   0.3177922   0.0000000), wk =   0.0190476
        k(   22) = (   0.2064121   0.3177922   0.1842771), wk =   0.0380952
        k(   23) = (   0.2064121   0.3177922   0.3685542), wk =   0.0380952
        k(   24) = (   0.2064121   0.3177922   0.5528313), wk =   0.0380952
        k(   25) = (   0.2064121   0.5164124   0.0000000), wk =   0.0190476
        k(   26) = (   0.2064121   0.5164124   0.1842771), wk =   0.0380952
        k(   27) = (   0.2064121   0.5164124   0.3685542), wk =   0.0380952
        k(   28) = (   0.2064121   0.5164124   0.5528313), wk =   0.0380952
        k(   29) = (   0.2064121  -0.4766884   0.0000000), wk =   0.0190476
        k(   30) = (   0.2064121  -0.4766884   0.1842771), wk =   0.0380952
        k(   31) = (   0.2064121  -0.4766884   0.3685542), wk =   0.0380952
        k(   32) = (   0.2064121  -0.4766884   0.5528313), wk =   0.0380952
        k(   33) = (   0.2064121  -0.2780682   0.0000000), wk =   0.0190476
        k(   34) = (   0.2064121  -0.2780682   0.1842771), wk =   0.0380952
        k(   35) = (   0.2064121  -0.2780682   0.3685542), wk =   0.0380952
        k(   36) = (   0.2064121  -0.2780682   0.5528313), wk =   0.0380952
        k(   37) = (   0.2064121  -0.0794481   0.0000000), wk =   0.0190476
        k(   38) = (   0.2064121  -0.0794481   0.1842771), wk =   0.0380952
        k(   39) = (   0.2064121  -0.0794481   0.3685542), wk =   0.0380952
        k(   40) = (   0.2064121  -0.0794481   0.5528313), wk =   0.0380952
        k(   41) = (   0.4128242   0.2383442   0.0000000), wk =   0.0190476
        k(   42) = (   0.4128242   0.2383442   0.1842771), wk =   0.0380952
        k(   43) = (   0.4128242   0.2383442   0.3685542), wk =   0.0380952
        k(   44) = (   0.4128242   0.2383442   0.5528313), wk =   0.0380952
        k(   45) = (   0.4128242   0.4369643   0.0000000), wk =   0.0190476
        k(   46) = (   0.4128242   0.4369643   0.1842771), wk =   0.0380952
        k(   47) = (   0.4128242   0.4369643   0.3685542), wk =   0.0380952
        k(   48) = (   0.4128242   0.4369643   0.5528313), wk =   0.0380952
        k(   49) = (   0.4128242   0.6355845   0.0000000), wk =   0.0190476
        k(   50) = (   0.4128242   0.6355845   0.1842771), wk =   0.0380952
        k(   51) = (   0.4128242   0.6355845   0.3685542), wk =   0.0380952
        k(   52) = (   0.4128242   0.6355845   0.5528313), wk =   0.0380952
        k(   53) = (   0.4128242  -0.3575163   0.0000000), wk =   0.0190476
        k(   54) = (   0.4128242  -0.3575163   0.1842771), wk =   0.0380952
        k(   55) = (   0.4128242  -0.3575163   0.3685542), wk =   0.0380952
        k(   56) = (   0.4128242  -0.3575163   0.5528313), wk =   0.0380952
        k(   57) = (   0.4128242  -0.1588961   0.0000000), wk =   0.0190476
        k(   58) = (   0.4128242  -0.1588961   0.1842771), wk =   0.0380952
        k(   59) = (   0.4128242  -0.1588961   0.3685542), wk =   0.0380952
        k(   60) = (   0.4128242  -0.1588961   0.5528313), wk =   0.0380952
        k(   61) = (   0.4128242   0.0397240   0.0000000), wk =   0.0190476
        k(   62) = (   0.4128242   0.0397240   0.1842771), wk =   0.0380952
        k(   63) = (   0.4128242   0.0397240   0.3685542), wk =   0.0380952
        k(   64) = (   0.4128242   0.0397240   0.5528313), wk =   0.0380952

     Largest allocated arrays     est. size (Mb)     dimensions
     Largest temporary arrays     est. size (Mb)     dimensions

     Initial potential from superposition of free atoms

     Starting from uniform charge
     Starting wfc are    0 randomized atomic wfcs

     Writing output data file Prototype-La-hP8-Mg3Cd.save

     Self-consistent Calculation

[...]

     iteration #  7     ecut=    40.00 Ry     beta=0.70
     CG style diagonalization
     ethr =  2.32E-04,  avg # of iterations =  3.7

[...]

     total energy              =   -2561.82599405 Ry
     Harris-Foulkes estimate   =   -2561.82637076 Ry
     estimated scf accuracy    <       0.00056144 Ry

     iteration # 10     ecut=    40.00 Ry     beta=0.70
     CG style diagonalization
     c_bands:  1 eigenvalues not converged
     c_bands:  1 eigenvalues not converged
     ethr =  3.23E-07,  avg # of iterations =  3.6

     End of self-consistent calculation

[...]

          k = 0.4128 0.0397 0.5528 (  4661 PWs)   bands (ev):

   -73.1143 -73.1082 -73.1068 -73.1037 -73.0979 -73.0935 -63.9179 -63.9140
   -35.1507 -35.1492 -35.1379 -35.1347 -35.1221 -35.1168 -35.0989 -35.0878
   -35.0738 -35.0693 -35.0633 -35.0534 -35.0405 -35.0391 -35.0345 -35.0325
   -35.0291 -35.0219 -28.1087 -28.1064 -28.1040 -28.0985 -28.0955 -28.0935
    10.7162  10.7207  10.7858  10.8613  10.9019  10.9389  10.9634  11.0335
    11.0716  11.0987  11.2867  11.3399  11.4907  11.5355  11.5448  11.5862
    11.6158  11.7681  11.7834  11.9145  11.9427  12.0480  12.0702  12.1168
    12.1709  12.2101  12.4151  12.4452  12.5981  12.7066  15.0314  15.2097
    15.5203  15.5363  15.6344  15.6543  15.7396  15.7659  15.9208  15.9509
    16.2597  17.3503  18.7136  19.2099  19.9207  20.4164  22.6112  23.3359
    24.1825  24.9953  26.8875  27.3948  27.9829  28.4159  28.5023  29.4660
    30.5257  31.0270  31.7625  32.0518  32.4151  32.5489  32.7884  32.9749
    33.3245  33.5904  33.8028  33.9163  34.0436  34.0865  34.2425  34.3731

     the Fermi energy is    28.8195 ev

!    total energy              =   -2561.82612507 Ry
     Harris-Foulkes estimate   =   -2561.82614128 Ry
     estimated scf accuracy    <       0.00001872 Ry

     The total energy is the sum of the following terms:

     one-electron contribution =    -651.95182472 Ry
     hartree contribution      =     432.25763650 Ry
     xc contribution           =    -219.89146174 Ry
     ewald contribution        =   -2122.01892740 Ry
     smearing contrib. (-TS)   =      -0.22154770 Ry

     convergence has been achieved in  10 iterations

     Forces acting on atoms (Ry/au):

     atom    1 type  1   force =     0.00213317    0.00123159    0.00000000
     atom    2 type  1   force =     0.00213317   -0.00123159    0.00000000
     atom    3 type  1   force =    -0.00213317   -0.00123159    0.00000000
     atom    4 type  1   force =    -0.00213317    0.00123159    0.00000000
     atom    5 type  1   force =     0.00000000   -0.00246317    0.00000000
     atom    6 type  1   force =     0.00000000    0.00246317    0.00000000
     atom    7 type  2   force =     0.00000000    0.00000000    0.00000000
     atom    8 type  2   force =     0.00000000    0.00000000    0.00000000

     Total force =     0.006034     Total SCF correction =     0.000000

     entering subroutine stress ...

          total   stress  (Ry/bohr**3)                   (kbar)     P=   90.88
   0.00047529   0.00000000   0.00000000         69.92      0.00      0.00
   0.00000000   0.00047529   0.00000000          0.00     69.92      0.00
   0.00000000   0.00000000   0.00090287          0.00      0.00    132.82

     Writing output data file Prototype-La-hP8-Mg3Cd.save

     General routines

     Parallel routines

   This run was terminated on:  23:34:32  22Mar2018

   JOB DONE.