     Program PWSCF v.5.0.2 starts on 22Mar2018 at 22:44:14

     Current dimensions of program PWSCF are:
     Max number of different atomic species (ntypx) = 10
     Max number of k-points (npk) =  40000
     Max angular momentum in pseudopotentials (lmaxx) =  3
     Waiting for input...
     Reading input from standard input

     Subspace diagonalization in iterative solution of the eigenvalue problem:
     a serial algorithm will be used

     bravais-lattice index     =            0
     lattice parameter (alat)  =       7.0151  a.u.
     unit-cell volume          =     862.2778 (a.u.)^3
     number of atoms/cell      =           12
     number of atomic types    =            2
     number of electrons       =       260.00
     number of Kohn-Sham states=          156
     kinetic-energy cutoff     =      40.0000  Ry
     charge density cutoff     =     160.0000  Ry
     convergence threshold     =      1.0E-04
     mixing beta               =       0.7000
     number of iterations used =            8  plain     mixing
     Exchange-correlation      = SLA-PZ-NOGX-NOGC ( 1 1 0 0 0)
     EXX-fraction              =        0.00
     nstep                     =           50

     celldm(1)=   7.015105  celldm(2)=   0.000000  celldm(3)=   0.000000
     celldm(4)=   0.000000  celldm(5)=   0.000000  celldm(6)=   0.000000

     crystal axes: (cart. coord. in units of alat)
               a(1) = (   1.000000   0.000000   0.000000 )
               a(2) = (   0.000000   1.315963   0.000000 )
               a(3) = (   0.000000   0.000000   1.898020 )

     reciprocal axes: (cart. coord. in units 2 pi/alat)
               b(1) = (  1.000000  0.000000  0.000000 )
               b(2) = (  0.000000  0.759900  0.000000 )
               b(3) = (  0.000000  0.000000  0.526865 )

     PseudoPot. # 1 for Er read from file:
     /home/cwx6513/pp.La/Er.UPF
     MD5 check sum: e152ae21b84514339d8526f066caf99b
     Pseudo is Norm-conserving, Zval = 22.0
     Generated in analytical, separable form
     Using radial grid of 1267 points,  6 beta functions with:
                l(1) =   0
                l(2) =   0
                l(3) =   1
                l(4) =   1
                l(5) =   2
                l(6) =   3

     PseudoPot. # 2 for Ho read from file:
     /home/cwx6513/pp.La/Ho.UPF
     MD5 check sum: f307ee11bce99f5b724fa279e3790763
     Pseudo is Norm-conserving, Zval = 21.0
     Generated in analytical, separable form
     Using radial grid of 1265 points,  6 beta functions with:
                l(1) =   0
                l(2) =   0
                l(3) =   1
                l(4) =   1
                l(5) =   2
                l(6) =   3

     atomic species   valence    mass     pseudopotential
        Co            22.00    58.93320     Er( 1.00)
        Si            21.00    28.08550     Ho( 1.00)

      8 Sym. Ops., with inversion, found ( 6 have fractional translation)

   Cartesian axes

     site n.     atom                  positions (alat units)
         1           Co  tau(   1) = (   0.7500000   1.0875135   0.8270358  )
         2           Co  tau(   2) = (   0.2500000   0.2284499   1.0709846  )
         3           Co  tau(   3) = (   0.7500000   0.4295318   0.1219744  )
         4           Co  tau(   4) = (   0.2500000   0.8864316   1.7760460  )
         5           Co  tau(   5) = (   0.2500000   0.7067855   0.5358966  )
         6           Co  tau(   6) = (   0.7500000   0.6091779   1.3621238  )
         7           Co  tau(   7) = (   0.2500000   0.0488038   0.4131136  )
         8           Co  tau(   8) = (   0.7500000   1.2671596   1.4849068  )
         9           Si  tau(   9) = (   0.2500000   0.2669484   1.6960710  )
        10           Si  tau(  10) = (   0.7500000   1.0490149   0.2019494  )
        11           Si  tau(  11) = (   0.2500000   0.9249301   1.1509596  )
        12           Si  tau(  12) = (   0.7500000   0.3910333   0.7470608  )

     number of k points=    12  gaussian smearing, width (Ry)=  0.1000
                       cart. coord. in units 2pi/alat
        k(    1) = (   0.0000000   0.0000000   0.0000000), wk =   0.0833333
        k(    2) = (   0.0000000   0.0000000   0.1317162), wk =   0.1666667
        k(    3) = (   0.0000000   0.0000000  -0.2634324), wk =   0.0833333
        k(    4) = (   0.0000000   0.2532999   0.0000000), wk =   0.1666667
        k(    5) = (   0.0000000   0.2532999   0.1317162), wk =   0.3333333
        k(    6) = (   0.0000000   0.2532999  -0.2634324), wk =   0.1666667
        k(    7) = (  -0.5000000   0.0000000   0.0000000), wk =   0.0833333
        k(    8) = (  -0.5000000   0.0000000   0.1317162), wk =   0.1666667
        k(    9) = (  -0.5000000   0.0000000  -0.2634324), wk =   0.0833333
        k(   10) = (  -0.5000000   0.2532999   0.0000000), wk =   0.1666667
        k(   11) = (  -0.5000000   0.2532999   0.1317162), wk =   0.3333333
        k(   12) = (  -0.5000000   0.2532999  -0.2634324), wk =   0.1666667

     Largest allocated arrays     est. size (Mb)     dimensions
     Largest temporary arrays     est. size (Mb)     dimensions

     Initial potential from superposition of free atoms

     Starting from uniform charge
     Starting wfc are    0 randomized atomic wfcs

     Self-consistent Calculation

     iteration #  1     ecut=    40.00 Ry     beta=0.70
     CG style diagonalization
     ethr =  1.00E-02,  avg # of iterations = 16.8

     total energy              =   -3478.79425548 Ry
     Harris-Foulkes estimate   =   -4287.74753370 Ry
     estimated scf accuracy    <    1041.13036232 Ry

[...]

     iteration #  8     ecut=    40.00 Ry     beta=0.70
     CG style diagonalization
     c_bands:  1 eigenvalues not converged
     c_bands:  1 eigenvalues not converged
     ethr =  2.51E-06,  avg # of iterations =  4.4

[...]

     End of self-consistent calculation

          k = 0.0000 0.0000 0.0000 (  3675 PWs)   bands (ev):

   -48.0703 -48.0064 -48.0003 -47.9993 -47.8595 -47.8016 -47.7202 -47.7173
   -40.1037 -40.1017 -40.0849 -40.0798 -11.0477 -11.0041 -10.8486 -10.7492
   -10.7341 -10.6656 -10.6342 -10.6310 -10.5964 -10.5361 -10.3869 -10.2992
   -10.2708 -10.2607 -10.1708 -10.1681 -10.1421 -10.0897 -10.0135  -9.9931
    -9.9149  -9.8653  -9.6872  -9.6344  -4.8654  -4.8361  -4.8184  -4.7960
    -4.7511  -4.7326  -4.6868  -4.6733  -4.4487  -4.4423  -4.3894  -4.3691
    30.3079  30.5899  30.7356  30.8233  30.8675  30.9205  31.3496  31.3498
    31.4313  31.8604  31.8938  32.2803  32.5025  32.6243  32.6900  32.9344
    33.3134  33.5755  33.5795  33.8996  34.2237  34.4081  34.4161  34.4481
    34.7025  34.9090  35.0410  35.2312  35.2998  35.6230  35.6569  35.7727
    35.8509  35.9537  35.9756  36.4091  36.4931  36.8446  37.0036  37.5968
    38.1377  38.1819  38.2782  38.3409  38.6694  38.7817  39.2235  39.4231
    40.0110  40.3123  40.3639  40.4914  40.6455  40.6492  40.7622  40.9365
    41.7468  41.8402  42.0483  42.0708  42.5370  42.6221  42.6704  45.8112
    46.9276  47.7319  48.2696  48.3655  50.5617  51.4425  52.1135  54.1242
    55.0503  55.3077  55.5614  55.8155  55.9928  56.2430  56.6114  56.9334
    56.9646  56.9897  57.1905  57.5772  57.7245  57.7760  57.8156  58.3018
    58.6967  58.7745  58.7937  58.9178  58.9414  59.3773  59.5834  59.9883
    60.0142  60.1769  60.9445  61.0860  61.4177  61.9673  62.5073  62.7889
    62.8398  62.8465  62.9273  63.6869

[...]

          k =-0.5000 0.0000 0.0000 (  3722 PWs)   bands (ev):

[...]

     the Fermi energy is    57.3583 ev

!    total energy              =   -3786.35799139 Ry
     Harris-Foulkes estimate   =   -3786.35807760 Ry
     estimated scf accuracy    <       0.00009768 Ry

     The total energy is the sum of the following terms:

     one-electron contribution =     119.11797373 Ry
     hartree contribution      =     344.89127033 Ry
     xc contribution           =    -344.08387102 Ry
     ewald contribution        =   -3905.75223469 Ry
     smearing contrib. (-TS)   =      -0.53112974 Ry

     convergence has been achieved in   9 iterations

     Forces acting on atoms (Ry/au):

     atom    1 type  1   force =     0.00000000   -0.07194859   -0.11687771
     atom    2 type  1   force =     0.00000000    0.07194859    0.11687771
     atom    3 type  1   force =     0.00000000   -0.07194859    0.11687771
     atom    4 type  1   force =     0.00000000    0.07194859   -0.11687771
     atom    5 type  1   force =     0.00000000    0.10765176   -0.18572886
     atom    6 type  1   force =     0.00000000   -0.10765176    0.18572886
     atom    7 type  1   force =     0.00000000    0.10765176    0.18572886
     atom    8 type  1   force =     0.00000000   -0.10765176   -0.18572886
     atom    9 type  2   force =     0.00000000   -0.22222878    0.01701445
     atom   10 type  2   force =     0.00000000    0.22222878   -0.01701445
     atom   11 type  2   force =     0.00000000   -0.22222878   -0.01701445
     atom   12 type  2   force =     0.00000000    0.22222878    0.01701445

     Total force =     0.677041     Total SCF correction =     0.000000

     entering subroutine stress ...

          total   stress  (Ry/bohr**3)                   (kbar)     P= 7835.20
   0.05752668   0.00000000   0.00000000       8462.47      0.00      0.00
   0.00000000   0.05021423   0.00000000          0.00   7386.77      0.00
   0.00000000   0.00000000   0.05204684          0.00      0.00   7656.35

     BFGS Geometry Optimization

     number of scf cycles    =   1
     number of bfgs steps    =   0

     enthalpy new            =   -3786.3579913925 Ry

     new trust radius        =       0.5000000000 bohr
     new conv_thr            =       0.0001000000 Ry

     new unit-cell volume =   1082.65373 a.u.^3 (   160.43273 Ang^3 )

CELL_PARAMETERS (alat=  7.01510508)
   1.085136619   0.000000000   0.000000000
   0.000000000   1.413758607   0.000000000
   0.000000000   0.000000000   2.044218686

ATOMIC_POSITIONS (crystal)
Co       0.750000000   0.825939628   0.435216359
Co       0.250000000   0.174060372   0.564783641
Co       0.750000000   0.325939628   0.064783641
Co       0.250000000   0.674060372   0.935216359
Co       0.250000000   0.537776320   0.281519245
Co       0.750000000   0.462223680   0.718480755
Co       0.250000000   0.037776320   0.218480755
Co       0.750000000   0.962223680   0.781519245
Si       0.250000000   0.201428952   0.893675647
Si       0.750000000   0.798571048   0.106324353
Si       0.250000000   0.701428952   0.606324353
Si       0.750000000   0.298571048   0.393675647

     Writing output data file Prototype-La-oP12-Co2Si.save
     NEW-OLD atomic charge density approx. for the potential
     NEW k-points:
        k(    1) = (   0.0000000   0.0000000   0.0000000), wk =   0.0833333
        k(    2) = (   0.0000000   0.0000000   0.1222961), wk =   0.1666667
        k(    3) = (   0.0000000   0.0000000  -0.2445922), wk =   0.0833333
        k(    4) = (   0.0000000   0.2357781   0.0000000), wk =   0.1666667
        k(    5) = (   0.0000000   0.2357781   0.1222961), wk =   0.3333333
        k(    6) = (   0.0000000   0.2357781  -0.2445922), wk =   0.1666667
        k(    7) = (  -0.4607715   0.0000000   0.0000000), wk =   0.0833333
        k(    8) = (  -0.4607715   0.0000000   0.1222961), wk =   0.1666667
        k(    9) = (  -0.4607715   0.0000000  -0.2445922), wk =   0.0833333
        k(   10) = (  -0.4607715   0.2357781   0.0000000), wk =   0.1666667
        k(   11) = (  -0.4607715   0.2357781   0.1222961), wk =   0.3333333
        k(   12) = (  -0.4607715   0.2357781  -0.2445922), wk =   0.1666667

[...]

     enthalpy old            =   -3786.3579913925 Ry
     enthalpy new            =   -3794.0650219902 Ry

     CASE: enthalpy_new < enthalpy_old

     small trust_radius: resetting bfgs history

     new trust radius        =       3.6227757091 bohr
     new conv_thr            =       0.0001000000 Ry

[...]

          total   stress  (Ry/bohr**3)                   (kbar)     P=-4614.32
  -0.03591506   0.00000000   0.00000000      -5283.29      0.00      0.00
   0.00000000  -0.02836433   0.00000000          0.00  -4172.54      0.00
   0.00000000   0.00000000  -0.02982320          0.00      0.00  -4387.14

     number of scf cycles    =   3
     number of bfgs steps    =   2

     enthalpy old            =   -3794.0650219902 Ry
     enthalpy new            =   -3748.2992800548 Ry

     CASE: enthalpy_new > enthalpy_old

     new trust radius        =       0.8656366279 bohr

     trust_radius < trust_radius_min

     resetting bfgs history

     Message from routine bfgs:
     history already reset at previous step: stopping
     new conv_thr            =       0.0001000000 Ry

     new unit-cell volume =   1266.00463 a.u.^3 (   187.60253 Ang^3 )

[...]

ATOMIC_POSITIONS (crystal)
Co       0.750000000   0.825733960   0.435029650
Co       0.250000000   0.174266040   0.564970350
Co       0.750000000   0.325733960   0.064970350
Co       0.250000000   0.674266040   0.935029650
Co       0.250000000   0.538206195   0.280913852
Co       0.750000000   0.461793805   0.719086148
Co       0.250000000   0.038206195   0.219086148
Co       0.750000000   0.961793805   0.780913852
Si       0.250000000   0.200719473   0.893841098
Si       0.750000000   0.799280527   0.106158902
Si       0.250000000   0.700719473   0.606158902
Si       0.750000000   0.299280527   0.393841098

     Writing output data file Prototype-La-oP12-Co2Si.save
     NEW-OLD atomic charge density approx. for the potential
     NEW k-points:
        k(    1) = (   0.0000000   0.0000000   0.0000000), wk =   0.0833333
        k(    2) = (   0.0000000   0.0000000   0.1164867), wk =   0.1666667
        k(    3) = (   0.0000000   0.0000000  -0.2329734), wk =   0.0833333
        k(    4) = (   0.0000000   0.2254118   0.0000000), wk =   0.1666667
        k(    5) = (   0.0000000   0.2254118   0.1164867), wk =   0.3333333
        k(    6) = (   0.0000000   0.2254118  -0.2329734), wk =   0.1666667
        k(    7) = (  -0.4327159   0.0000000   0.0000000), wk =   0.0833333
        k(    8) = (  -0.4327159   0.0000000   0.1164867), wk =   0.1666667
        k(    9) = (  -0.4327159   0.0000000  -0.2329734), wk =   0.0833333
        k(   10) = (  -0.4327159   0.2254118   0.0000000), wk =   0.1666667
        k(   11) = (  -0.4327159   0.2254118   0.1164867), wk =   0.3333333
        k(   12) = (  -0.4327159   0.2254118  -0.2329734), wk =   0.1666667

[...]

     The maximum number of steps has been reached.

     End of BFGS Geometry Optimization
Begin final coordinates
     new unit-cell volume =   1266.00463 a.u.^3 (   187.60253 Ang^3 )

CELL_PARAMETERS (alat=  7.01510508)
   1.155492433   0.000000000   0.000000000
   0.000000000   1.478774760   0.000000000
   0.000000000   0.000000000   2.146167519

ATOMIC_POSITIONS (crystal)
Co       0.750000000   0.825733960   0.435029650
Co       0.250000000   0.174266040   0.564970350
Co       0.750000000   0.325733960   0.064970350
Co       0.250000000   0.674266040   0.935029650
Co       0.250000000   0.538206195   0.280913852
Co       0.750000000   0.461793805   0.719086148
Co       0.250000000   0.038206195   0.219086148
Co       0.750000000   0.961793805   0.780913852
Si       0.250000000   0.200719473   0.893841098
Si       0.750000000   0.799280527   0.106158902
Si       0.250000000   0.700719473   0.606158902
Si       0.750000000   0.299280527   0.393841098
End final coordinates

     A final scf calculation at the relaxed structure.
     The G-vectors are recalculated for the final unit cell
     Results may differ from those at the preceding step.

     bravais-lattice index     =            0
     lattice parameter (alat)  =       7.0151  a.u.
     unit-cell volume          =    1266.0046 (a.u.)^3
     number of atoms/cell      =           12
     number of atomic types    =            2
     number of electrons       =       260.00
     number of Kohn-Sham states=          156
     kinetic-energy cutoff     =      40.0000  Ry
     charge density cutoff     =     160.0000  Ry
     convergence threshold     =      1.0E-04
     mixing beta               =       0.7000
     number of iterations used =            8  plain     mixing
     Exchange-correlation      = SLA-PZ-NOGX-NOGC ( 1 1 0 0 0)
     EXX-fraction              =        0.00

     celldm(1)=   7.015105  celldm(2)=   0.000000  celldm(3)=   0.000000
     celldm(4)=   0.000000  celldm(5)=   0.000000  celldm(6)=   0.000000

     crystal axes: (cart. coord. in units of alat)
               a(1) = (   1.155492   0.000000   0.000000 )
               a(2) = (   0.000000   1.478775   0.000000 )
               a(3) = (   0.000000   0.000000   2.146168 )

     reciprocal axes: (cart. coord. in units 2 pi/alat)
               b(1) = (  0.865432  0.000000  0.000000 )
               b(2) = (  0.000000  0.676236  0.000000 )
               b(3) = (  0.000000  0.000000  0.465947 )

     PseudoPot. # 1 for Er read from file:
     /home/cwx6513/pp.La/Er.UPF
     MD5 check sum: e152ae21b84514339d8526f066caf99b
     Pseudo is Norm-conserving, Zval = 22.0
     Generated in analytical, separable form
     Using radial grid of 1267 points,  6 beta functions with:
                l(1) =   0
                l(2) =   0
                l(3) =   1
                l(4) =   1
                l(5) =   2
                l(6) =   3

     PseudoPot. # 2 for Ho read from file:
     /home/cwx6513/pp.La/Ho.UPF
     MD5 check sum: f307ee11bce99f5b724fa279e3790763
     Pseudo is Norm-conserving, Zval = 21.0
     Generated in analytical, separable form
     Using radial grid of 1265 points,  6 beta functions with:
                l(1) =   0
                l(2) =   0
                l(3) =   1
                l(4) =   1
                l(5) =   2
                l(6) =   3

     atomic species   valence    mass     pseudopotential
        Co            22.00    58.93320     Er( 1.00)
        Si            21.00    28.08550     Ho( 1.00)

      8 Sym. Ops., with inversion, found ( 6 have fractional translation)

   Cartesian axes

     site n.     atom                  positions (alat units)
         1           Co  tau(   1) = (   0.8666193   1.2210745   0.9336465  )
         2           Co  tau(   2) = (   0.2888731   0.2577002   1.2125210  )
         3           Co  tau(   3) = (   0.8666193   0.4816872   0.1394373  )
         4           Co  tau(   4) = (   0.2888731   0.9970876   2.0067303  )
         5           Co  tau(   5) = (   0.2888731   0.7958857   0.6028882  )
         6           Co  tau(   6) = (   0.8666193   0.6828890   1.5432793  )
         7           Co  tau(   7) = (   0.2888731   0.0564984   0.4701956  )
         8           Co  tau(   8) = (   0.8666193   1.4222764   1.6759719  )
         9           Si  tau(   9) = (   0.2888731   0.2968189   1.9183327  )
        10           Si  tau(  10) = (   0.8666193   1.1819559   0.2278348  )
        11           Si  tau(  11) = (   0.2888731   1.0362063   1.3009185  )
        12           Si  tau(  12) = (   0.8666193   0.4425685   0.8452490  )

     number of k points=    12  gaussian smearing, width (Ry)=  0.1000
                       cart. coord. in units 2pi/alat
        k(    1) = (   0.0000000   0.0000000   0.0000000), wk =   0.0833333
        k(    2) = (   0.0000000   0.0000000   0.1164867), wk =   0.1666667
        k(    3) = (   0.0000000   0.0000000  -0.2329734), wk =   0.0833333
        k(    4) = (   0.0000000   0.2254118   0.0000000), wk =   0.1666667
        k(    5) = (   0.0000000   0.2254118   0.1164867), wk =   0.3333333
        k(    6) = (   0.0000000   0.2254118  -0.2329734), wk =   0.1666667
        k(    7) = (  -0.4327159   0.0000000   0.0000000), wk =   0.0833333
        k(    8) = (  -0.4327159   0.0000000   0.1164867), wk =   0.1666667
        k(    9) = (  -0.4327159   0.0000000  -0.2329734), wk =   0.0833333
        k(   10) = (  -0.4327159   0.2254118   0.0000000), wk =   0.1666667
        k(   11) = (  -0.4327159   0.2254118   0.1164867), wk =   0.3333333
        k(   12) = (  -0.4327159   0.2254118  -0.2329734), wk =   0.1666667

     Largest allocated arrays     est. size (Mb)     dimensions
     Largest temporary arrays     est. size (Mb)     dimensions

     Initial potential from superposition of free atoms

     Starting from uniform charge
     Starting wfc are    0 randomized atomic wfcs

     Writing output data file Prototype-La-oP12-Co2Si.save

     Self-consistent Calculation

[...]

     iteration #  8     ecut=    40.00 Ry     beta=0.70
     CG style diagonalization
     c_bands:  3 eigenvalues not converged
     c_bands:  1 eigenvalues not converged
     c_bands:  1 eigenvalues not converged
     c_bands:  1 eigenvalues not converged
     ethr =  7.91E-06,  avg # of iterations =  4.4

[...]

     total energy              =   -3802.24771671 Ry
     Harris-Foulkes estimate   =   -3802.24778466 Ry
     estimated scf accuracy    <       0.00013382 Ry

     iteration # 10     ecut=    40.00 Ry     beta=0.70
     CG style diagonalization
     ethr =  5.15E-08,  avg # of iterations =  4.0

     End of self-consistent calculation

[...]

          k = 0.0000 0.2254-0.2330 (  5410 PWs)   bands (ev):

[...]

          k =-0.4327 0.2254-0.2330 (  5424 PWs)   bands (ev):

   -64.5830 -64.5830 -64.5770 -64.5770 -64.4145 -64.4145 -64.4101 -64.4101
   -55.9291 -55.9291 -55.9258 -55.9258 -26.7460 -26.7460 -26.7271 -26.7271
   -26.6978 -26.6978 -26.6839 -26.6839 -26.6231 -26.6231 -26.6140 -26.6140
   -26.5718 -26.5718 -26.4908 -26.4908 -26.4818 -26.4818 -26.4760 -26.4760
   -26.4357 -26.4357 -26.4036 -26.4036 -20.2988 -20.2988 -20.2912 -20.2912
   -20.2825 -20.2825 -20.2805 -20.2805 -20.1630 -20.1630 -20.1553 -20.1553
    18.0414  18.0414  18.3483  18.3483  18.4308  18.4308  18.5437  18.5437
    18.6163  18.6163  18.8069  18.8069  18.9181  18.9181  19.0458  19.0458
    19.1224  19.1224  19.2068  19.2068  19.3158  19.3158  19.4932  19.4932
    19.6364  19.6364  19.8005  19.8005  19.8270  19.8270  20.0079  20.0079
    20.2641  20.2641  20.5066  20.5066  20.5858  20.5858  21.0391  21.0391
    22.1150  22.1150  22.2598  22.2598  23.0606  23.0606  23.2414  23.2414
    23.3464  23.3464  23.4003  23.4003  23.7065  23.7065  23.8781  23.8781
    24.1191  24.1191  24.1954  24.1954  25.4566  25.4566  25.8798  25.8798
    27.7482  27.7482  28.0364  28.0364  30.7116  30.7116  32.9738  32.9738
    34.2043  34.2043  34.4314  34.4314  36.5726  36.5726  36.8268  36.8268
    39.8653  39.8653  40.8782  40.8783  41.2200  41.2201  41.2843  41.2843
    41.8162  41.8162  41.8752  41.8752  42.6019  42.6019  42.6340  42.6340
    43.0354  43.0354  43.0875  43.0875  43.3267  43.3267  43.7955  43.7955
    44.0918  44.0919  44.5647  44.5657

     the Fermi energy is    38.4409 ev

!    total energy              =   -3802.24774760 Ry
     Harris-Foulkes estimate   =   -3802.24776700 Ry
     estimated scf accuracy    <       0.00002191 Ry

     The total energy is the sum of the following terms:

     one-electron contribution =    -548.43865296 Ry
     hartree contribution      =     517.15875590 Ry
     xc contribution           =    -332.99052166 Ry
     ewald contribution        =   -3437.65696707 Ry
     smearing contrib. (-TS)   =      -0.32036181 Ry

     convergence has been achieved in  10 iterations

     Forces acting on atoms (Ry/au):

     atom    1 type  1   force =     0.00000000   -0.05475612   -0.00000319
     atom    2 type  1   force =     0.00000000    0.05475612    0.00000319
     atom    3 type  1   force =     0.00000000   -0.05475612    0.00000319
     atom    4 type  1   force =     0.00000000    0.05475612   -0.00000319
     atom    5 type  1   force =     0.00000000    0.02583295   -0.04732100
     atom    6 type  1   force =     0.00000000   -0.02583295    0.04732100
     atom    7 type  1   force =     0.00000000    0.02583295    0.04732100
     atom    8 type  1   force =     0.00000000   -0.02583295   -0.04732100
     atom    9 type  2   force =     0.00000000   -0.07165421    0.03344564
     atom   10 type  2   force =     0.00000000    0.07165421   -0.03344564
     atom   11 type  2   force =     0.00000000   -0.07165421   -0.03344564
     atom   12 type  2   force =     0.00000000    0.07165421    0.03344564

     Total force =     0.220525     Total SCF correction =     0.000000

     entering subroutine stress ...

          total   stress  (Ry/bohr**3)                   (kbar)     P= 1713.88
   0.01309420   0.00000000   0.00000000       1926.22      0.00      0.00
   0.00000000   0.01069763   0.00000000          0.00   1573.68      0.00
   0.00000000   0.00000000   0.01116035          0.00      0.00   1641.74

     Writing output data file Prototype-La-oP12-Co2Si.save

     General routines

     Parallel routines

   This run was terminated on:  23: 7:26  22Mar2018

   JOB DONE.