     Program PWSCF v.5.0.2 starts on 22Mar2018 at 22:45:40

     Current dimensions of program PWSCF are:
     Max number of different atomic species (ntypx) = 10
     Max number of k-points (npk) =  40000
     Max angular momentum in pseudopotentials (lmaxx) =  3
     Waiting for input...
     Reading input from standard input

     Subspace diagonalization in iterative solution of the eigenvalue problem:
     a serial algorithm will be used

     bravais-lattice index     =            0
     lattice parameter (alat)  =       9.9235  a.u.
     unit-cell volume          =    1361.0366 (a.u.)^3
     number of atoms/cell      =           12
     number of atomic types    =            2
     number of electrons       =       192.00
     number of Kohn-Sham states=          115
     kinetic-energy cutoff     =      40.0000  Ry
     charge density cutoff     =     160.0000  Ry
     convergence threshold     =      1.0E-04
     mixing beta               =       0.7000
     number of iterations used =            8  plain     mixing
     Exchange-correlation      = SLA-PZ-NOGX-NOGC ( 1 1 0 0 0)
     EXX-fraction              =        0.00
     nstep                     =           50

     celldm(1)=   9.923489  celldm(2)=   0.000000  celldm(3)=   0.000000
     celldm(4)=   0.000000  celldm(5)=   0.000000  celldm(6)=   0.000000

     crystal axes: (cart. coord. in units of alat)
               a(1) = (   1.000000   0.000000   0.000000 )
               a(2) = (  -0.500000   0.866025   0.000000 )
               a(3) = (   0.000000   0.000000   1.608222 )

     reciprocal axes: (cart. coord. in units 2 pi/alat)
               b(1) = (  1.000000  0.577350  0.000000 )
               b(2) = (  0.000000  1.154701  0.000000 )
               b(3) = (  0.000000  0.000000  0.621805 )

     PseudoPot. # 1 for Er read from file:
     /home/cwx6513/pp.La/Er.UPF
     MD5 check sum: e152ae21b84514339d8526f066caf99b
     Pseudo is Norm-conserving, Zval = 22.0
     Generated in analytical, separable form
     Using radial grid of 1267 points,  6 beta functions with:
                l(1) =   0
                l(2) =   0
                l(3) =   1
                l(4) =   1
                l(5) =   2
                l(6) =   3

     PseudoPot. # 2 for Pr read from file:
     /home/cwx6513/pp.La/Pr.UPF
     MD5 check sum: 70e2b4b153859e92c8c91247dfc63203
     Pseudo is Norm-conserving, Zval = 13.0
     Generated in analytical, separable form
     Using radial grid of 1255 points,  6 beta functions with:
                l(1) =   0
                l(2) =   0
                l(3) =   1
                l(4) =   1
                l(5) =   2
                l(6) =   3

     atomic species   valence    mass     pseudopotential
        Mg            22.00    24.30500     Er( 1.00)
        Zn            13.00    65.39000     Pr( 1.00)

     24 Sym. Ops., with inversion, found (12 have fractional translation)

   Cartesian axes

     site n.     atom                  positions (alat units)
         1           Mg  tau(   1) = (  -0.0000005   0.5773506   0.1003820  )
         2           Mg  tau(   2) = (   0.5000005   0.2886748   0.9044931  )
         3           Mg  tau(   3) = (   0.5000005   0.2886748   1.5078402  )
         4           Mg  tau(   4) = (  -0.0000005   0.5773506   0.7037291  )
         5           Zn  tau(   5) = (   0.0000000   0.0000000   0.0000000  )
         6           Zn  tau(   6) = (   0.0000000   0.0000000   0.8041111  )
         7           Zn  tau(   7) = (   0.0000000   0.2950739   1.2061667  )
         8           Zn  tau(   8) = (   0.7444585   0.1475370   0.4020556  )
         9           Zn  tau(   9) = (   0.2555415   0.1475370   0.4020556  )
        10           Zn  tau(  10) = (   0.2444585   0.7184884   1.2061667  )
        11           Zn  tau(  11) = (  -0.2444585   0.7184884   1.2061667  )
        12           Zn  tau(  12) = (   0.5000000   0.5709515   0.4020556  )

     number of k points=    12  gaussian smearing, width (Ry)=  0.1000
                       cart. coord. in units 2pi/alat
        k(    1) = (   0.0000000   0.0000000   0.0000000), wk =   0.0833333
        k(    2) = (   0.0000000   0.0000000   0.1554512), wk =   0.1666667
        k(    3) = (   0.0000000   0.0000000  -0.3109023), wk =   0.0833333
        k(    4) = (   0.0000000   0.3849002   0.0000000), wk =   0.1666667
        k(    5) = (   0.0000000   0.3849002   0.1554512), wk =   0.3333333
        k(    6) = (   0.0000000   0.3849002  -0.3109023), wk =   0.1666667
        k(    7) = (  -0.5000000  -0.2886751   0.0000000), wk =   0.0833333
        k(    8) = (  -0.5000000  -0.2886751   0.1554512), wk =   0.1666667
        k(    9) = (  -0.5000000  -0.2886751  -0.3109023), wk =   0.0833333
        k(   10) = (  -0.5000000   0.0962250   0.0000000), wk =   0.1666667
        k(   11) = (  -0.5000000   0.0962250   0.1554512), wk =   0.3333333
        k(   12) = (  -0.5000000   0.0962250  -0.3109023), wk =   0.1666667

     Largest allocated arrays     est. size (Mb)     dimensions
     Largest temporary arrays     est. size (Mb)     dimensions

     Initial potential from superposition of free atoms
     Check: negative starting charge=   -0.000695

     starting charge  103.92434, renormalised to  192.00000

     negative rho (up, down):  0.128E-02 0.000E+00
     Starting wfc are  160 randomized atomic wfcs

     Self-consistent Calculation

     iteration #  1     ecut=    40.00 Ry     beta=0.70
     CG style diagonalization
     c_bands:  1 eigenvalues not converged
     c_bands:  1 eigenvalues not converged
     ethr =  1.00E-02,  avg # of iterations = 24.3

     negative rho (up, down):  0.364E-03 0.000E+00

     total energy              =       3.41632526 Ry
     Harris-Foulkes estimate   =   -4605.79353414 Ry
     estimated scf accuracy    <    5402.51125407 Ry

     iteration #  2     ecut=    40.00 Ry     beta=0.70
     CG style diagonalization
     ethr =  1.00E-02,  avg # of iterations = 22.3

[...]

     End of self-consistent calculation

          k = 0.0000 0.0000 0.0000 (  5769 PWs)   bands (ev):

   -71.0485 -71.0380 -71.0317 -71.0010 -33.0537 -33.0371 -33.0273 -33.0273
   -33.0053 -33.0053 -33.0017 -32.9754 -32.9717 -32.9717 -32.9630 -32.9630
   -14.5224 -14.0872 -12.9258 -12.4130 -12.4130 -12.4000 -12.4000 -12.3566
     1.6006   2.5317   3.4766   4.6416   4.6416   4.9146   4.9147   5.1228
     5.1229   5.9479   6.9956   6.9957   7.0375   7.0376   7.7018   8.9325
     9.0699   9.0784   9.1353   9.1354   9.6362   9.6362   9.8330   9.8330
    13.3935  13.3935  13.4118  13.4155  13.6053  13.6054  13.7369  13.7369
    13.7877  13.7877  13.9370  13.9909  13.9909  14.0617  14.0617  14.2059
    14.2059  14.2108  14.2108  14.2244  18.1242  20.1129  20.4790  22.8511
    22.8512  23.2373  24.1954  24.6866  24.8437  24.8776  24.8776  25.2054
    25.9308  25.9308  26.1580  26.1581  26.9218  26.9218  27.5520  27.8209
    28.2750  28.2751  28.9813  28.9813  30.4810  30.4812  31.0477  31.8186
    32.2546  32.4763  32.5899  32.5900  32.9623  32.9624  33.4090  33.5140
    33.5141  33.5690  33.5686  33.6718  33.6719  34.1880  34.1885  34.1910
    34.6075  34.7743  35.5484

[...]

          k =-0.5000-0.2887 0.0000 (  5800 PWs)   bands (ev):

[...]

     the Fermi energy is    30.6122 ev

!    total energy              =   -2058.15150396 Ry
     Harris-Foulkes estimate   =   -2058.15153708 Ry
     estimated scf accuracy    <       0.00003913 Ry

     The total energy is the sum of the following terms:

     one-electron contribution =    -214.35191186 Ry
     hartree contribution      =     273.57186321 Ry
     xc contribution           =    -210.00604681 Ry
     ewald contribution        =   -1906.88174894 Ry
     smearing contrib. (-TS)   =      -0.48365956 Ry

     convergence has been achieved in  12 iterations

     Forces acting on atoms (Ry/au):

     atom    1 type  1   force =     0.00000000    0.00000000    0.02233188
     atom    2 type  1   force =     0.00000000    0.00000000    0.02233188
     atom    3 type  1   force =     0.00000000    0.00000000   -0.02233188
     atom    4 type  1   force =     0.00000000    0.00000000   -0.02233188
     atom    5 type  2   force =     0.00000000    0.00000000    0.00000000
     atom    6 type  2   force =     0.00000000    0.00000000    0.00000000
     atom    7 type  2   force =     0.00000000    0.05411481    0.00000000
     atom    8 type  2   force =    -0.04686480    0.02705741    0.00000000
     atom    9 type  2   force =     0.04686480    0.02705741    0.00000000
     atom   10 type  2   force =    -0.04686480   -0.02705741    0.00000000
     atom   11 type  2   force =     0.04686480   -0.02705741    0.00000000
     atom   12 type  2   force =     0.00000000   -0.05411481    0.00000000

     Total force =     0.139876     Total SCF correction =     0.009685

     entering subroutine stress ...

          total   stress  (Ry/bohr**3)                   (kbar)     P=  990.15
   0.00650456   0.00000000   0.00000000        956.85      0.00      0.00
   0.00000000   0.00650456   0.00000000          0.00    956.85      0.00
   0.00000000   0.00000000   0.00718356          0.00      0.00   1056.74

     BFGS Geometry Optimization

     number of scf cycles    =   1
     number of bfgs steps    =   0

     enthalpy new            =   -2058.1515039592 Ry

     new trust radius        =       0.5000000000 bohr
     new conv_thr            =       0.0001000000 Ry

     new unit-cell volume =   1637.08300 a.u.^3 (   242.59067 Ang^3 )

CELL_PARAMETERS (alat=  9.92348860)
   1.061359743   0.000000000   0.000000000
  -0.530679872   0.919164500   0.000000000
   0.000000000   0.000000000   1.717203317

ATOMIC_POSITIONS (crystal)
Mg       0.333333000   0.666667000   0.062946008
Mg       0.666667000   0.333333000   0.562946008
Mg       0.666667000   0.333333000   0.937053992
Mg       0.333333000   0.666667000   0.437053992
Zn       0.000000000   0.000000000   0.000000000
Zn       0.000000000   0.000000000   0.500000000
Zn       0.171549000   0.343098001   0.750000000
Zn       0.828451000   0.171549000   0.250000000
Zn       0.343098001   0.171549000   0.250000000
Zn       0.656901999   0.828451000   0.750000000
Zn       0.171549000   0.828451000   0.750000000
Zn       0.828451000   0.656901999   0.250000000

     Writing output data file Prototype-La-hP12-MgZn2.save
     Check: negative starting charge=   -0.000695
     NEW-OLD atomic charge density approx. for the potential
     NEW k-points:
        k(    1) = (   0.0000000   0.0000000   0.0000000), wk =   0.0833333
        k(    2) = (   0.0000000   0.0000000   0.1455856), wk =   0.1666667
        k(    3) = (   0.0000000   0.0000000  -0.2911711), wk =   0.0833333
        k(    4) = (   0.0000000   0.3626482   0.0000000), wk =   0.1666667
        k(    5) = (   0.0000000   0.3626482   0.1455856), wk =   0.3333333
        k(    6) = (   0.0000000   0.3626482  -0.2911711), wk =   0.1666667
        k(    7) = (  -0.4710938  -0.2719861   0.0000000), wk =   0.0833333
        k(    8) = (  -0.4710938  -0.2719861   0.1455856), wk =   0.1666667
        k(    9) = (  -0.4710938  -0.2719861  -0.2911711), wk =   0.0833333
        k(   10) = (  -0.4710938   0.0906620   0.0000000), wk =   0.1666667
        k(   11) = (  -0.4710938   0.0906620   0.1455856), wk =   0.3333333
        k(   12) = (  -0.4710938   0.0906620  -0.2911711), wk =   0.1666667
     Check: negative starting charge=   -0.006994

     negative rho (up, down):  0.606E-02 0.000E+00
     extrapolated charge  209.52381, renormalised to  192.00000

[...]

     Total force =     0.011868     Total SCF correction =     0.005518
     SCF correction compared to forces is large: reduce conv_thr to get better values

[...]

     enthalpy old            =   -2058.1515039591 Ry
     enthalpy new            =   -2058.9631062646 Ry

     CASE: enthalpy_new < enthalpy_old

     small trust_radius: resetting bfgs history

     new trust radius        =       0.0197478117 bohr
     new conv_thr            =       0.0000058837 Ry

[...]

     Writing output data file Prototype-La-hP12-MgZn2.save
     Check: negative starting charge=   -0.006994
     NEW-OLD atomic charge density approx. for the potential
     NEW k-points:
        k(    1) = (   0.0000000   0.0000000   0.0000000), wk =   0.0833333
        k(    2) = (   0.0000000   0.0000000   0.1457660), wk =   0.1666667
        k(    3) = (   0.0000000   0.0000000  -0.2915320), wk =   0.0833333
        k(    4) = (   0.0000000   0.3635353   0.0000000), wk =   0.1666667
        k(    5) = (   0.0000000   0.3635353   0.1457660), wk =   0.3333333
        k(    6) = (   0.0000000   0.3635353  -0.2915320), wk =   0.1666667
        k(    7) = (  -0.4722463  -0.2726515   0.0000000), wk =   0.0833333
        k(    8) = (  -0.4722463  -0.2726515   0.1457660), wk =   0.1666667
        k(    9) = (  -0.4722463  -0.2726515  -0.2915320), wk =   0.0833333
        k(   10) = (  -0.4722463   0.0908838   0.0000000), wk =   0.1666667
        k(   11) = (  -0.4722463   0.0908838   0.1457660), wk =   0.3333333
        k(   12) = (  -0.4722463   0.0908838  -0.2915320), wk =   0.1666667
     Check: negative starting charge=   -0.006689
     extrapolated charge  191.36147, renormalised to  192.00000

[...]

     number of scf cycles    =   3
     number of bfgs steps    =   2

     enthalpy old            =   -2058.9631062646 Ry
     enthalpy new            =   -2058.9630927486 Ry

     CASE: enthalpy_new > enthalpy_old

     new trust radius        =       0.0097388872 bohr

     trust_radius < trust_radius_min

     resetting bfgs history

     Message from routine bfgs:
     history already reset at previous step: stopping
     new conv_thr            =       0.0000058837 Ry

     new unit-cell volume =   1627.06870 a.u.^3 (   241.10670 Ang^3 )

[...]

ATOMIC_POSITIONS (crystal)
Mg       0.333333000   0.666667000   0.063292137
Mg       0.666667000   0.333333000   0.563292137
Mg       0.666667000   0.333333000   0.936707863
Mg       0.333333000   0.666667000   0.436707863
Zn       0.000000000   0.000000000   0.000000000
Zn       0.000000000   0.000000000   0.500000000
Zn       0.171583678   0.343167357   0.750000000
Zn       0.828416322   0.171583678   0.250000000
Zn       0.343167357   0.171583678   0.250000000
Zn       0.656832643   0.828416322   0.750000000
Zn       0.171583678   0.828416322   0.750000000
Zn       0.828416322   0.656832643   0.250000000

     Writing output data file Prototype-La-hP12-MgZn2.save
     Check: negative starting charge=   -0.006689
     NEW-OLD atomic charge density approx. for the potential
     NEW k-points:
        k(    1) = (   0.0000000   0.0000000   0.0000000), wk =   0.0833333
        k(    2) = (   0.0000000   0.0000000   0.1457667), wk =   0.1666667
        k(    3) = (   0.0000000   0.0000000  -0.2915333), wk =   0.0833333
        k(    4) = (   0.0000000   0.3635364   0.0000000), wk =   0.1666667
        k(    5) = (   0.0000000   0.3635364   0.1457667), wk =   0.3333333
        k(    6) = (   0.0000000   0.3635364  -0.2915333), wk =   0.1666667
        k(    7) = (  -0.4722477  -0.2726523   0.0000000), wk =   0.0833333
        k(    8) = (  -0.4722477  -0.2726523   0.1457667), wk =   0.1666667
        k(    9) = (  -0.4722477  -0.2726523  -0.2915333), wk =   0.0833333
        k(   10) = (  -0.4722477   0.0908841   0.0000000), wk =   0.1666667
        k(   11) = (  -0.4722477   0.0908841   0.1457667), wk =   0.3333333
        k(   12) = (  -0.4722477   0.0908841  -0.2915333), wk =   0.1666667
     Check: negative starting charge=   -0.006689
     extrapolated charge  191.99890, renormalised to  192.00000

[...]

     Threshold (ethr) on eigenvalues was too large:
     Diagonalizing with lowered threshold

     CG style diagonalization
     ethr =  1.12E-08,  avg # of iterations =  3.0

[...]

     The maximum number of steps has been reached.

     End of BFGS Geometry Optimization
Begin final coordinates
     new unit-cell volume =   1627.06870 a.u.^3 (   241.10670 Ang^3 )

CELL_PARAMETERS (alat=  9.92348860)
   1.058766435   0.000000000   0.000000000
  -0.529383217   0.916918629   0.000000000
   0.000000000   0.000000000   1.715069814

ATOMIC_POSITIONS (crystal)
Mg       0.333333000   0.666667000   0.063292137
Mg       0.666667000   0.333333000   0.563292137
Mg       0.666667000   0.333333000   0.936707863
Mg       0.333333000   0.666667000   0.436707863
Zn       0.000000000   0.000000000   0.000000000
Zn       0.000000000   0.000000000   0.500000000
Zn       0.171583678   0.343167357   0.750000000
Zn       0.828416322   0.171583678   0.250000000
Zn       0.343167357   0.171583678   0.250000000
Zn       0.656832643   0.828416322   0.750000000
Zn       0.171583678   0.828416322   0.750000000
Zn       0.828416322   0.656832643   0.250000000
End final coordinates

     A final scf calculation at the relaxed structure.
     The G-vectors are recalculated for the final unit cell
     Results may differ from those at the preceding step.

     bravais-lattice index     =            0
     lattice parameter (alat)  =       9.9235  a.u.
     unit-cell volume          =    1627.0687 (a.u.)^3
     number of atoms/cell      =           12
     number of atomic types    =            2
     number of electrons       =       192.00
     number of Kohn-Sham states=          115
     kinetic-energy cutoff     =      40.0000  Ry
     charge density cutoff     =     160.0000  Ry
     convergence threshold     =      5.9E-06
     mixing beta               =       0.7000
     number of iterations used =            8  plain     mixing
     Exchange-correlation      = SLA-PZ-NOGX-NOGC ( 1 1 0 0 0)
     EXX-fraction              =        0.00

     celldm(1)=   9.923489  celldm(2)=   0.000000  celldm(3)=   0.000000
     celldm(4)=   0.000000  celldm(5)=   0.000000  celldm(6)=   0.000000

     crystal axes: (cart. coord. in units of alat)
               a(1) = (   1.058766   0.000000   0.000000 )
               a(2) = (  -0.529383   0.916919   0.000000 )
               a(3) = (   0.000000   0.000000   1.715070 )

     reciprocal axes: (cart. coord. in units 2 pi/alat)
               b(1) = (  0.944495  0.545305  0.000000 )
               b(2) = (  0.000000  1.090609  0.000000 )
               b(3) = (  0.000000  0.000000  0.583067 )

     PseudoPot. # 1 for Er read from file:
     /home/cwx6513/pp.La/Er.UPF
     MD5 check sum: e152ae21b84514339d8526f066caf99b
     Pseudo is Norm-conserving, Zval = 22.0
     Generated in analytical, separable form
     Using radial grid of 1267 points,  6 beta functions with:
                l(1) =   0
                l(2) =   0
                l(3) =   1
                l(4) =   1
                l(5) =   2
                l(6) =   3

     PseudoPot. # 2 for Pr read from file:
     /home/cwx6513/pp.La/Pr.UPF
     MD5 check sum: 70e2b4b153859e92c8c91247dfc63203
     Pseudo is Norm-conserving, Zval = 13.0
     Generated in analytical, separable form
     Using radial grid of 1255 points,  6 beta functions with:
                l(1) =   0
                l(2) =   0
                l(3) =   1
                l(4) =   1
                l(5) =   2
                l(6) =   3

     atomic species   valence    mass     pseudopotential
        Mg            22.00    24.30500     Er( 1.00)
        Zn            13.00    65.39000     Pr( 1.00)

     24 Sym. Ops., with inversion, found (12 have fractional translation)

   Cartesian axes

     site n.     atom                  positions (alat units)
         1           Mg  tau(   1) = (  -0.0000005   0.6112794   0.1085504  )
         2           Mg  tau(   2) = (   0.5293837   0.3056392   0.9660853  )
         3           Mg  tau(   3) = (   0.5293837   0.3056392   1.6065194  )
         4           Mg  tau(   4) = (  -0.0000005   0.6112794   0.7489845  )
         5           Zn  tau(   5) = (   0.0000000   0.0000000   0.0000000  )
         6           Zn  tau(   6) = (   0.0000000   0.0000000   0.8575349  )
         7           Zn  tau(   7) = (   0.0000000   0.3146565   1.2863024  )
         8           Zn  tau(   8) = (   0.7862659   0.1573283   0.4287675  )
         9           Zn  tau(   9) = (   0.2725006   0.1573283   0.4287675  )
        10           Zn  tau(  10) = (   0.2568827   0.7595904   1.2863024  )
        11           Zn  tau(  11) = (  -0.2568827   0.7595904   1.2863024  )
        12           Zn  tau(  12) = (   0.5293832   0.6022621   0.4287675  )

     number of k points=    12  gaussian smearing, width (Ry)=  0.1000
                       cart. coord. in units 2pi/alat
        k(    1) = (   0.0000000   0.0000000   0.0000000), wk =   0.0833333
        k(    2) = (   0.0000000   0.0000000   0.1457667), wk =   0.1666667
        k(    3) = (   0.0000000   0.0000000  -0.2915333), wk =   0.0833333
        k(    4) = (   0.0000000   0.3635364   0.0000000), wk =   0.1666667
        k(    5) = (   0.0000000   0.3635364   0.1457667), wk =   0.3333333
        k(    6) = (   0.0000000   0.3635364  -0.2915333), wk =   0.1666667
        k(    7) = (  -0.4722477  -0.2726523   0.0000000), wk =   0.0833333
        k(    8) = (  -0.4722477  -0.2726523   0.1457667), wk =   0.1666667
        k(    9) = (  -0.4722477  -0.2726523  -0.2915333), wk =   0.0833333
        k(   10) = (  -0.4722477   0.0908841   0.0000000), wk =   0.1666667
        k(   11) = (  -0.4722477   0.0908841   0.1457667), wk =   0.3333333
        k(   12) = (  -0.4722477   0.0908841  -0.2915333), wk =   0.1666667

     Largest allocated arrays     est. size (Mb)     dimensions
     Largest temporary arrays     est. size (Mb)     dimensions

     Initial potential from superposition of free atoms
     Check: negative starting charge=   -0.001771

     starting charge  103.92434, renormalised to  192.00000

     negative rho (up, down):  0.327E-02 0.000E+00
     Starting wfc are  160 randomized atomic wfcs

     Writing output data file Prototype-La-hP12-MgZn2.save

     Self-consistent Calculation

[...]

     negative rho (up, down):  0.953E-05 0.000E+00

[...]

     iteration # 12     ecut=    40.00 Ry     beta=0.70
     CG style diagonalization
     c_bands:  1 eigenvalues not converged
     c_bands:  1 eigenvalues not converged
     ethr =  1.36E-07,  avg # of iterations =  5.3

[...]

     total energy              =   -2059.98408051 Ry
     Harris-Foulkes estimate   =   -2059.98409408 Ry
     estimated scf accuracy    <       0.00003437 Ry

     iteration # 14     ecut=    40.00 Ry     beta=0.70
     CG style diagonalization
     ethr =  1.79E-08,  avg # of iterations =  3.7

     End of self-consistent calculation

[...]

          k = 0.0000 0.3635-0.2915 (  6948 PWs)   bands (ev):

[...]

          k =-0.4722 0.0909-0.2915 (  6946 PWs)   bands (ev):

   -76.0233 -76.0233 -76.0208 -76.0208 -37.9651 -37.9651 -37.9601 -37.9600
   -37.9467 -37.9467 -37.9445 -37.9445 -37.9397 -37.9397 -37.9333 -37.9333
   -18.5894 -18.5894 -18.2603 -18.2603 -17.7538 -17.7538 -17.6800 -17.6800
    -0.6579  -0.6579   0.2358   0.2358   0.8313   0.8313   0.9210   0.9210
     1.1390   1.1390   1.3877   1.3877   1.9106   1.9106   2.3913   2.3913
     2.7021   2.7022   2.9654   2.9654   3.4650   3.4650   3.5676   3.5676
     8.7431   8.7431   8.7617   8.7617   8.8664   8.8665   8.9540   8.9540
     8.9997   8.9997   9.0686   9.0686   9.0914   9.0914   9.1289   9.1289
     9.2686   9.2686   9.3013   9.3013  16.1488  16.1489  16.8848  16.8849
    20.1418  20.1418  20.3921  20.3921  21.0523  21.0524  21.3601  21.3601
    21.6170  21.6170  22.0164  22.0164  22.6136  22.6136  22.7921  22.7921
    23.1032  23.1032  23.8930  23.8930  24.4873  24.4873  24.6061  24.6061
    25.4187  25.4187  25.6357  25.6357  26.1534  26.1534  26.3942  26.3942
    26.5200  26.5200  27.4973  27.4974  27.9493  27.9494  28.4837  28.4838
    29.2385  29.2386  29.6167

     the Fermi energy is    25.1063 ev

!    total energy              =   -2059.98408700 Ry
     Harris-Foulkes estimate   =   -2059.98408801 Ry
     estimated scf accuracy    <       0.00000114 Ry

     The total energy is the sum of the following terms:

     one-electron contribution =    -371.31614029 Ry
     hartree contribution      =     315.11915982 Ry
     xc contribution           =    -206.51881885 Ry
     ewald contribution        =   -1796.70064769 Ry
     smearing contrib. (-TS)   =      -0.56764000 Ry

     convergence has been achieved in  14 iterations

     Forces acting on atoms (Ry/au):

     atom    1 type  1   force =     0.00000000    0.00000000    0.00771416
     atom    2 type  1   force =     0.00000000    0.00000000    0.00771416
     atom    3 type  1   force =     0.00000000    0.00000000   -0.00771416
     atom    4 type  1   force =     0.00000000    0.00000000   -0.00771416
     atom    5 type  2   force =     0.00000000    0.00000000    0.00000000
     atom    6 type  2   force =     0.00000000    0.00000000    0.00000000
     atom    7 type  2   force =     0.00000000    0.00213025    0.00000000
     atom    8 type  2   force =    -0.00184485    0.00106512    0.00000000
     atom    9 type  2   force =     0.00184485    0.00106512    0.00000000
     atom   10 type  2   force =    -0.00184485   -0.00106512    0.00000000
     atom   11 type  2   force =     0.00184485   -0.00106512    0.00000000
     atom   12 type  2   force =     0.00000000   -0.00213025    0.00000000

     Total force =     0.016287     Total SCF correction =     0.004681
     SCF correction compared to forces is large: reduce conv_thr to get better values

     entering subroutine stress ...

          total   stress  (Ry/bohr**3)                   (kbar)     P=  228.66
   0.00151898   0.00000000   0.00000000        223.45      0.00      0.00
   0.00000000   0.00151898   0.00000000          0.00    223.45      0.00
   0.00000000   0.00000000   0.00162521          0.00      0.00    239.08

     Writing output data file Prototype-La-hP12-MgZn2.save

     General routines

     Parallel routines

   This run was terminated on:  23:15:39  22Mar2018

   JOB DONE.