     Program PWSCF v.5.0.2 starts on 22Mar2018 at 21:32:26

     Current dimensions of program PWSCF are:
     Max number of different atomic species (ntypx) = 10
     Max number of k-points (npk) =  40000
     Max angular momentum in pseudopotentials (lmaxx) =  3
     Waiting for input...
     Reading input from standard input

     Subspace diagonalization in iterative solution of the eigenvalue problem:
     a serial algorithm will be used

     bravais-lattice index     =            0
     lattice parameter (alat)  =       7.0151  a.u.
     unit-cell volume          =     862.2778 (a.u.)^3
     number of atoms/cell      =           12
     number of atomic types    =            2
     number of electrons       =       264.00
     number of Kohn-Sham states=          158
     kinetic-energy cutoff     =      40.0000  Ry
     charge density cutoff     =     160.0000  Ry
     convergence threshold     =      1.0E-04
     mixing beta               =       0.7000
     number of iterations used =            8  plain     mixing
     Exchange-correlation      = SLA-PZ-NOGX-NOGC ( 1 1 0 0 0)
     EXX-fraction              =        0.00
     nstep                     =           50

     celldm(1)=   7.015105  celldm(2)=   0.000000  celldm(3)=   0.000000
     celldm(4)=   0.000000  celldm(5)=   0.000000  celldm(6)=   0.000000

     crystal axes: (cart. coord. in units of alat)
               a(1) = (   1.000000   0.000000   0.000000 )
               a(2) = (   0.000000   1.315963   0.000000 )
               a(3) = (   0.000000   0.000000   1.898020 )

     reciprocal axes: (cart. coord. in units 2 pi/alat)
               b(1) = (  1.000000  0.000000  0.000000 )
               b(2) = (  0.000000  0.759900  0.000000 )
               b(3) = (  0.000000  0.000000  0.526865 )

     PseudoPot. # 1 for Tm read from file:
     /home/cwx6513/pp.La/Tm.UPF
     MD5 check sum: 245516e0878b5372ceeb9443ded2c4e1
     Pseudo is Norm-conserving, Zval = 23.0
     Generated in analytical, separable form
     Using radial grid of 1269 points,  6 beta functions with:
                l(1) =   0
                l(2) =   0
                l(3) =   1
                l(4) =   1
                l(5) =   2
                l(6) =   3

     PseudoPot. # 2 for Dy read from file:
     /home/cwx6513/pp.La/Dy.UPF
     MD5 check sum: 9597327bec62616a94a14d07f3fd9936
     Pseudo is Norm-conserving, Zval = 20.0
     Generated in analytical, separable form
     Using radial grid of 1265 points,  6 beta functions with:
                l(1) =   0
                l(2) =   0
                l(3) =   1
                l(4) =   1
                l(5) =   2
                l(6) =   3

     atomic species   valence    mass     pseudopotential
        Co            23.00    58.93320     Tm( 1.00)
        Si            20.00    28.08550     Dy( 1.00)

      8 Sym. Ops., with inversion, found ( 6 have fractional translation)

   Cartesian axes

     site n.     atom                  positions (alat units)
         1           Co  tau(   1) = (   0.7500000   1.0875135   0.8270358  )
         2           Co  tau(   2) = (   0.2500000   0.2284499   1.0709846  )
         3           Co  tau(   3) = (   0.7500000   0.4295318   0.1219744  )
         4           Co  tau(   4) = (   0.2500000   0.8864316   1.7760460  )
         5           Co  tau(   5) = (   0.2500000   0.7067855   0.5358966  )
         6           Co  tau(   6) = (   0.7500000   0.6091779   1.3621238  )
         7           Co  tau(   7) = (   0.2500000   0.0488038   0.4131136  )
         8           Co  tau(   8) = (   0.7500000   1.2671596   1.4849068  )
         9           Si  tau(   9) = (   0.2500000   0.2669484   1.6960710  )
        10           Si  tau(  10) = (   0.7500000   1.0490149   0.2019494  )
        11           Si  tau(  11) = (   0.2500000   0.9249301   1.1509596  )
        12           Si  tau(  12) = (   0.7500000   0.3910333   0.7470608  )

     number of k points=    12  gaussian smearing, width (Ry)=  0.1000
                       cart. coord. in units 2pi/alat
        k(    1) = (   0.0000000   0.0000000   0.0000000), wk =   0.0833333
        k(    2) = (   0.0000000   0.0000000   0.1317162), wk =   0.1666667
        k(    3) = (   0.0000000   0.0000000  -0.2634324), wk =   0.0833333
        k(    4) = (   0.0000000   0.2532999   0.0000000), wk =   0.1666667
        k(    5) = (   0.0000000   0.2532999   0.1317162), wk =   0.3333333
        k(    6) = (   0.0000000   0.2532999  -0.2634324), wk =   0.1666667
        k(    7) = (  -0.5000000   0.0000000   0.0000000), wk =   0.0833333
        k(    8) = (  -0.5000000   0.0000000   0.1317162), wk =   0.1666667
        k(    9) = (  -0.5000000   0.0000000  -0.2634324), wk =   0.0833333
        k(   10) = (  -0.5000000   0.2532999   0.0000000), wk =   0.1666667
        k(   11) = (  -0.5000000   0.2532999   0.1317162), wk =   0.3333333
        k(   12) = (  -0.5000000   0.2532999  -0.2634324), wk =   0.1666667

     Largest allocated arrays     est. size (Mb)     dimensions
     Largest temporary arrays     est. size (Mb)     dimensions

     Initial potential from superposition of free atoms

     Starting from uniform charge
     Starting wfc are    0 randomized atomic wfcs

     Self-consistent Calculation

     iteration #  1     ecut=    40.00 Ry     beta=0.70
     CG style diagonalization
     c_bands:  1 eigenvalues not converged
     ethr =  1.00E-02,  avg # of iterations = 12.0

     total energy              =   -3596.49333494 Ry
     Harris-Foulkes estimate   =   -4528.76134448 Ry
     estimated scf accuracy    <    1189.06084940 Ry

[...]

     iteration #  3     ecut=    40.00 Ry     beta=0.70
     CG style diagonalization
     ethr =  1.00E-02,  avg # of iterations =  5.5

[...]

     End of self-consistent calculation

          k = 0.0000 0.0000 0.0000 (  3675 PWs)   bands (ev):

   -56.8264 -56.8076 -56.8071 -56.7878 -56.6626 -56.6165 -56.5487 -56.5478
   -31.4760 -31.4681 -31.4668 -31.4651 -16.2973 -16.2412 -16.1936 -16.0904
   -16.0499 -16.0362 -16.0143 -16.0139 -16.0081 -15.9012 -15.8147 -15.7762
   -15.7231 -15.7080 -15.6694 -15.6657 -15.5873 -15.5664 -15.5449 -15.5338
   -15.4796 -15.3849 -15.2572 -15.2218   0.7462   0.8415   0.8664   0.8664
     0.8761   0.8909   0.8916   0.9455   1.2480   1.3275   1.3288   1.4293
    28.6070  28.8009  28.8393  28.9072  28.9173  29.1615  29.2952  29.3855
    29.7427  29.8404  29.8970  30.2586  30.3592  30.7218  30.8374  31.2597
    31.3381  31.3503  31.4329  31.5805  31.7163  31.8675  31.8746  31.9013
    32.1455  32.1823  32.4601  32.6056  32.6683  32.7038  32.8492  32.9206
    32.9888  33.2739  33.3004  33.8412  34.2190  34.3879  34.4715  34.5169
    34.7754  36.7106  36.8062  37.4703  39.1264  40.1603  40.2099  40.2364
    40.2489  40.8107  41.0443  41.6255  41.7604  41.7780  42.0851  42.2878
    42.6394  43.3450  43.4817  43.5075  43.5615  43.6479  43.6592  44.3999
    46.4959  48.1337  48.4646  48.8067  49.3108  50.4403  50.9402  54.1512
    54.3384  54.5222  54.9783  55.3145  55.4456  55.5857  56.2976  56.4740
    56.8011  56.8937  57.2524  57.3651  57.5574  57.6619  57.9674  58.0465
    58.0542  58.3049  58.4019  58.5286  58.6062  58.7602  59.0072  59.4283
    59.9036  59.9692  61.0391  61.0701  61.3412  62.2617  62.5201  62.6307
    62.6414  62.6695  62.8497  63.6217  63.6671  63.8728

[...]

          k =-0.5000 0.0000 0.0000 (  3722 PWs)   bands (ev):

[...]

     the Fermi energy is    57.5893 ev

!    total energy              =   -3959.38327999 Ry
     Harris-Foulkes estimate   =   -3959.38332400 Ry
     estimated scf accuracy    <       0.00005574 Ry

     The total energy is the sum of the following terms:

     one-electron contribution =      51.77325336 Ry
     hartree contribution      =     379.28630018 Ry
     xc contribution           =    -353.21694442 Ry
     ewald contribution        =   -4036.69478692 Ry
     smearing contrib. (-TS)   =      -0.53110219 Ry

     convergence has been achieved in   9 iterations

     Forces acting on atoms (Ry/au):

     atom    1 type  1   force =     0.00000000   -0.06170114   -0.10079294
     atom    2 type  1   force =     0.00000000    0.06170114    0.10079294
     atom    3 type  1   force =     0.00000000   -0.06170114    0.10079294
     atom    4 type  1   force =     0.00000000    0.06170114   -0.10079294
     atom    5 type  1   force =     0.00000000    0.08178094   -0.15196239
     atom    6 type  1   force =     0.00000000   -0.08178094    0.15196239
     atom    7 type  1   force =     0.00000000    0.08178094    0.15196239
     atom    8 type  1   force =     0.00000000   -0.08178094   -0.15196239
     atom    9 type  2   force =     0.00000000   -0.17638059    0.02819623
     atom   10 type  2   force =     0.00000000    0.17638059   -0.02819623
     atom   11 type  2   force =     0.00000000   -0.17638059   -0.02819623
     atom   12 type  2   force =     0.00000000    0.17638059    0.02819623

     Total force =     0.550098     Total SCF correction =     0.000000

     entering subroutine stress ...

          total   stress  (Ry/bohr**3)                   (kbar)     P= 7847.30
   0.05705195   0.00000000   0.00000000       8392.63      0.00      0.00
   0.00000000   0.05073163   0.00000000          0.00   7462.88      0.00
   0.00000000   0.00000000   0.05225110          0.00      0.00   7686.40

     BFGS Geometry Optimization

     number of scf cycles    =   1
     number of bfgs steps    =   0

     enthalpy new            =   -3959.3832799885 Ry

     new trust radius        =       0.5000000000 bohr
     new conv_thr            =       0.0001000000 Ry

     new unit-cell volume =   1085.00693 a.u.^3 (   160.78144 Ang^3 )

CELL_PARAMETERS (alat=  7.01510508)
   1.085136619   0.000000000   0.000000000
   0.000000000   1.415588423   0.000000000
   0.000000000   0.000000000   2.046013753

ATOMIC_POSITIONS (crystal)
Co       0.750000000   0.826002048   0.435284143
Co       0.250000000   0.173997952   0.564715857
Co       0.750000000   0.326002048   0.064715857
Co       0.250000000   0.673997952   0.935284143
Co       0.250000000   0.537614786   0.281663749
Co       0.750000000   0.462385214   0.718336251
Co       0.250000000   0.037614786   0.218336251
Co       0.750000000   0.962385214   0.781663749
Si       0.250000000   0.201713544   0.893726404
Si       0.750000000   0.798286456   0.106273596
Si       0.250000000   0.701713544   0.606273596
Si       0.750000000   0.298286456   0.393726404

     Writing output data file Prototype-La-oP12-Co2Si.save
     NEW-OLD atomic charge density approx. for the potential
     NEW k-points:
        k(    1) = (   0.0000000   0.0000000   0.0000000), wk =   0.0833333
        k(    2) = (   0.0000000   0.0000000   0.1221888), wk =   0.1666667
        k(    3) = (   0.0000000   0.0000000  -0.2443776), wk =   0.0833333
        k(    4) = (   0.0000000   0.2354733   0.0000000), wk =   0.1666667
        k(    5) = (   0.0000000   0.2354733   0.1221888), wk =   0.3333333
        k(    6) = (   0.0000000   0.2354733  -0.2443776), wk =   0.1666667
        k(    7) = (  -0.4607715   0.0000000   0.0000000), wk =   0.0833333
        k(    8) = (  -0.4607715   0.0000000   0.1221888), wk =   0.1666667
        k(    9) = (  -0.4607715   0.0000000  -0.2443776), wk =   0.0833333
        k(   10) = (  -0.4607715   0.2354733   0.0000000), wk =   0.1666667
        k(   11) = (  -0.4607715   0.2354733   0.1221888), wk =   0.3333333
        k(   12) = (  -0.4607715   0.2354733  -0.2443776), wk =   0.1666667

[...]

     enthalpy old            =   -3959.3832799885 Ry
     enthalpy new            =   -3966.9474063814 Ry

     CASE: enthalpy_new < enthalpy_old

     small trust_radius: resetting bfgs history

     new trust radius        =       3.2324176823 bohr
     new conv_thr            =       0.0000831150 Ry

[...]

          total   stress  (Ry/bohr**3)                   (kbar)     P=-5116.63
  -0.03845335   0.00000000   0.00000000      -5656.68      0.00      0.00
   0.00000000  -0.03222657   0.00000000          0.00  -4740.69      0.00
   0.00000000   0.00000000  -0.03366653          0.00      0.00  -4952.52

     number of scf cycles    =   3
     number of bfgs steps    =   2

     enthalpy old            =   -3966.9474063814 Ry
     enthalpy new            =   -3921.1612762493 Ry

     CASE: enthalpy_new > enthalpy_old

     new trust radius        =       0.6910624636 bohr

     trust_radius < trust_radius_min

     resetting bfgs history

     Message from routine bfgs:
     history already reset at previous step: stopping
     new conv_thr            =       0.0000831150 Ry

     new unit-cell volume =   1278.49254 a.u.^3 (   189.45305 Ang^3 )

[...]

ATOMIC_POSITIONS (crystal)
Co       0.750000000   0.825625319   0.435165104
Co       0.250000000   0.174374681   0.564834896
Co       0.750000000   0.325625319   0.064834896
Co       0.250000000   0.674374681   0.935165104
Co       0.250000000   0.537904645   0.281267849
Co       0.750000000   0.462095355   0.718732151
Co       0.250000000   0.037904645   0.218732151
Co       0.750000000   0.962095355   0.781267849
Si       0.250000000   0.200960498   0.894013772
Si       0.750000000   0.799039502   0.105986228
Si       0.250000000   0.700960498   0.605986228
Si       0.750000000   0.299039502   0.394013772

     Writing output data file Prototype-La-oP12-Co2Si.save
     NEW-OLD atomic charge density approx. for the potential
     NEW k-points:
        k(    1) = (   0.0000000   0.0000000   0.0000000), wk =   0.0833333
        k(    2) = (   0.0000000   0.0000000   0.1159497), wk =   0.1666667
        k(    3) = (   0.0000000   0.0000000  -0.2318994), wk =   0.0833333
        k(    4) = (   0.0000000   0.2242594   0.0000000), wk =   0.1666667
        k(    5) = (   0.0000000   0.2242594   0.1159497), wk =   0.3333333
        k(    6) = (   0.0000000   0.2242594  -0.2318994), wk =   0.1666667
        k(    7) = (  -0.4326860   0.0000000   0.0000000), wk =   0.0833333
        k(    8) = (  -0.4326860   0.0000000   0.1159497), wk =   0.1666667
        k(    9) = (  -0.4326860   0.0000000  -0.2318994), wk =   0.0833333
        k(   10) = (  -0.4326860   0.2242594   0.0000000), wk =   0.1666667
        k(   11) = (  -0.4326860   0.2242594   0.1159497), wk =   0.3333333
        k(   12) = (  -0.4326860   0.2242594  -0.2318994), wk =   0.1666667

[...]

     The maximum number of steps has been reached.

     End of BFGS Geometry Optimization
Begin final coordinates
     new unit-cell volume =   1278.49254 a.u.^3 (   189.45305 Ang^3 )

CELL_PARAMETERS (alat=  7.01510508)
   1.155572305   0.000000000   0.000000000
   0.000000000   1.486374240   0.000000000
   0.000000000   0.000000000   2.156107250

ATOMIC_POSITIONS (crystal)
Co       0.750000000   0.825625319   0.435165104
Co       0.250000000   0.174374681   0.564834896
Co       0.750000000   0.325625319   0.064834896
Co       0.250000000   0.674374681   0.935165104
Co       0.250000000   0.537904645   0.281267849
Co       0.750000000   0.462095355   0.718732151
Co       0.250000000   0.037904645   0.218732151
Co       0.750000000   0.962095355   0.781267849
Si       0.250000000   0.200960498   0.894013772
Si       0.750000000   0.799039502   0.105986228
Si       0.250000000   0.700960498   0.605986228
Si       0.750000000   0.299039502   0.394013772
End final coordinates

     A final scf calculation at the relaxed structure.
     The G-vectors are recalculated for the final unit cell
     Results may differ from those at the preceding step.

     bravais-lattice index     =            0
     lattice parameter (alat)  =       7.0151  a.u.
     unit-cell volume          =    1278.4925 (a.u.)^3
     number of atoms/cell      =           12
     number of atomic types    =            2
     number of electrons       =       264.00
     number of Kohn-Sham states=          158
     kinetic-energy cutoff     =      40.0000  Ry
     charge density cutoff     =     160.0000  Ry
     convergence threshold     =      8.3E-05
     mixing beta               =       0.7000
     number of iterations used =            8  plain     mixing
     Exchange-correlation      = SLA-PZ-NOGX-NOGC ( 1 1 0 0 0)
     EXX-fraction              =        0.00

     celldm(1)=   7.015105  celldm(2)=   0.000000  celldm(3)=   0.000000
     celldm(4)=   0.000000  celldm(5)=   0.000000  celldm(6)=   0.000000

     crystal axes: (cart. coord. in units of alat)
               a(1) = (   1.155572   0.000000   0.000000 )
               a(2) = (   0.000000   1.486374   0.000000 )
               a(3) = (   0.000000   0.000000   2.156107 )

     reciprocal axes: (cart. coord. in units 2 pi/alat)
               b(1) = (  0.865372  0.000000  0.000000 )
               b(2) = (  0.000000  0.672778  0.000000 )
               b(3) = (  0.000000  0.000000  0.463799 )

     PseudoPot. # 1 for Tm read from file:
     /home/cwx6513/pp.La/Tm.UPF
     MD5 check sum: 245516e0878b5372ceeb9443ded2c4e1
     Pseudo is Norm-conserving, Zval = 23.0
     Generated in analytical, separable form
     Using radial grid of 1269 points,  6 beta functions with:
                l(1) =   0
                l(2) =   0
                l(3) =   1
                l(4) =   1
                l(5) =   2
                l(6) =   3

     PseudoPot. # 2 for Dy read from file:
     /home/cwx6513/pp.La/Dy.UPF
     MD5 check sum: 9597327bec62616a94a14d07f3fd9936
     Pseudo is Norm-conserving, Zval = 20.0
     Generated in analytical, separable form
     Using radial grid of 1265 points,  6 beta functions with:
                l(1) =   0
                l(2) =   0
                l(3) =   1
                l(4) =   1
                l(5) =   2
                l(6) =   3

     atomic species   valence    mass     pseudopotential
        Co            23.00    58.93320     Tm( 1.00)
        Si            20.00    28.08550     Dy( 1.00)

      8 Sym. Ops., with inversion, found ( 6 have fractional translation)

   Cartesian axes

     site n.     atom                  positions (alat units)
         1           Co  tau(   1) = (   0.8666792   1.2271882   0.9382626  )
         2           Co  tau(   2) = (   0.2888931   0.2591860   1.2178446  )
         3           Co  tau(   3) = (   0.8666792   0.4840011   0.1397910  )
         4           Co  tau(   4) = (   0.2888931   1.0023732   2.0163163  )
         5           Co  tau(   5) = (   0.2888931   0.7995276   0.6064436  )
         6           Co  tau(   6) = (   0.8666792   0.6868466   1.5496636  )
         7           Co  tau(   7) = (   0.2888931   0.0563405   0.4716100  )
         8           Co  tau(   8) = (   0.8666792   1.4300338   1.6844973  )
         9           Si  tau(   9) = (   0.2888931   0.2987025   1.9275896  )
        10           Si  tau(  10) = (   0.8666792   1.1876717   0.2285177  )
        11           Si  tau(  11) = (   0.2888931   1.0418896   1.3065713  )
        12           Si  tau(  12) = (   0.8666792   0.4444846   0.8495360  )

     number of k points=    12  gaussian smearing, width (Ry)=  0.1000
                       cart. coord. in units 2pi/alat
        k(    1) = (   0.0000000   0.0000000   0.0000000), wk =   0.0833333
        k(    2) = (   0.0000000   0.0000000   0.1159497), wk =   0.1666667
        k(    3) = (   0.0000000   0.0000000  -0.2318994), wk =   0.0833333
        k(    4) = (   0.0000000   0.2242594   0.0000000), wk =   0.1666667
        k(    5) = (   0.0000000   0.2242594   0.1159497), wk =   0.3333333
        k(    6) = (   0.0000000   0.2242594  -0.2318994), wk =   0.1666667
        k(    7) = (  -0.4326860   0.0000000   0.0000000), wk =   0.0833333
        k(    8) = (  -0.4326860   0.0000000   0.1159497), wk =   0.1666667
        k(    9) = (  -0.4326860   0.0000000  -0.2318994), wk =   0.0833333
        k(   10) = (  -0.4326860   0.2242594   0.0000000), wk =   0.1666667
        k(   11) = (  -0.4326860   0.2242594   0.1159497), wk =   0.3333333
        k(   12) = (  -0.4326860   0.2242594  -0.2318994), wk =   0.1666667

     Largest allocated arrays     est. size (Mb)     dimensions
     Largest temporary arrays     est. size (Mb)     dimensions

     Initial potential from superposition of free atoms

     Starting from uniform charge
     Starting wfc are    0 randomized atomic wfcs

     Writing output data file Prototype-La-oP12-Co2Si.save

     Self-consistent Calculation

[...]

     iteration #  9     ecut=    40.00 Ry     beta=0.70
     CG style diagonalization
     c_bands:  1 eigenvalues not converged
     c_bands:  1 eigenvalues not converged
     ethr =  9.02E-07,  avg # of iterations =  4.2

[...]

     total energy              =   -3975.51321795 Ry
     Harris-Foulkes estimate   =   -3975.51327313 Ry
     estimated scf accuracy    <       0.00010992 Ry

     iteration # 11     ecut=    40.00 Ry     beta=0.70
     CG style diagonalization
     ethr =  4.16E-08,  avg # of iterations =  3.5

     End of self-consistent calculation

[...]

          k = 0.0000 0.2243-0.2319 (  5474 PWs)   bands (ev):

[...]

          k =-0.4327 0.2243-0.2319 (  5484 PWs)   bands (ev):

   -74.3762 -74.3762 -74.3721 -74.3721 -74.2291 -74.2291 -74.2238 -74.2238
   -47.2262 -47.2262 -47.2254 -47.2254 -33.1934 -33.1934 -33.1837 -33.1837
   -33.1533 -33.1533 -33.1509 -33.1509 -33.0955 -33.0955 -33.0952 -33.0952
   -33.0538 -33.0538 -32.9967 -32.9967 -32.9925 -32.9925 -32.9873 -32.9873
   -32.9378 -32.9378 -32.9150 -32.9150 -14.4185 -14.4185 -14.4127 -14.4127
   -14.3916 -14.3916 -14.3900 -14.3900 -14.2441 -14.2441 -14.2404 -14.2404
    14.5571  14.5571  14.7498  14.7498  14.8243  14.8243  14.9109  14.9109
    14.9414  14.9414  15.0711  15.0711  15.0851  15.0851  15.3024  15.3024
    15.3596  15.3596  15.4101  15.4101  15.4305  15.4305  15.6661  15.6661
    15.6822  15.6822  15.7822  15.7822  15.8054  15.8054  15.8732  15.8732
    15.9980  15.9980  16.2159  16.2159  16.2855  16.2855  16.5670  16.5670
    22.2537  22.2537  22.5394  22.5394  23.8032  23.8032  23.8785  23.8785
    25.5156  25.5156  25.5333  25.5333  25.7763  25.7763  26.1204  26.1204
    26.2663  26.2663  26.2997  26.2997  26.5054  26.5054  26.6507  26.6507
    28.4822  28.4822  28.5680  28.5680  30.1908  30.1908  32.2344  32.2344
    33.2128  33.2128  33.6964  33.6964  35.2352  35.2352  36.3341  36.3341
    39.1226  39.1226  39.4047  39.4047  40.4916  40.4916  40.5984  40.5984
    40.7935  40.7936  40.8509  40.8509  42.0005  42.0006  42.1830  42.1830
    42.4604  42.4604  42.7433  42.7433  42.9260  42.9260  43.1772  43.1772
    43.3303  43.3303  43.7792  43.7792  44.2033  44.2034

     the Fermi energy is    38.4617 ev

!    total energy              =   -3975.51323835 Ry
     Harris-Foulkes estimate   =   -3975.51324737 Ry
     estimated scf accuracy    <       0.00001034 Ry

     The total energy is the sum of the following terms:

     one-electron contribution =    -655.24160921 Ry
     hartree contribution      =     562.56232624 Ry
     xc contribution           =    -341.48316214 Ry
     ewald contribution        =   -3541.00275787 Ry
     smearing contrib. (-TS)   =      -0.34803538 Ry

     convergence has been achieved in  11 iterations

     Forces acting on atoms (Ry/au):

     atom    1 type  1   force =     0.00000000   -0.04882698   -0.01606336
     atom    2 type  1   force =     0.00000000    0.04882698    0.01606336
     atom    3 type  1   force =     0.00000000   -0.04882698    0.01606336
     atom    4 type  1   force =     0.00000000    0.04882698   -0.01606336
     atom    5 type  1   force =     0.00000000    0.01389975   -0.02456953
     atom    6 type  1   force =     0.00000000   -0.01389975    0.02456953
     atom    7 type  1   force =     0.00000000    0.01389975    0.02456953
     atom    8 type  1   force =     0.00000000   -0.01389975   -0.02456953
     atom    9 type  2   force =     0.00000000   -0.06558455    0.02944512
     atom   10 type  2   force =     0.00000000    0.06558455   -0.02944512
     atom   11 type  2   force =     0.00000000   -0.06558455   -0.02944512
     atom   12 type  2   force =     0.00000000    0.06558455    0.02944512

     Total force =     0.185551     Total SCF correction =     0.000000

     entering subroutine stress ...

          total   stress  (Ry/bohr**3)                   (kbar)     P= 1566.57
   0.01159432   0.00000000   0.00000000       1705.58      0.00      0.00
   0.00000000   0.00998400   0.00000000          0.00   1468.70      0.00
   0.00000000   0.00000000   0.01036973          0.00      0.00   1525.44

     Writing output data file Prototype-La-oP12-Co2Si.save

     General routines

     Parallel routines

   This run was terminated on:  21:59:20  22Mar2018

   JOB DONE.