     Program PWSCF v.5.0.2 starts on 22Mar2018 at 12: 4:16

     Current dimensions of program PWSCF are:
     Max number of different atomic species (ntypx) = 10
     Max number of k-points (npk) =  40000
     Max angular momentum in pseudopotentials (lmaxx) =  3
     Waiting for input...
     Reading input from standard input

     Subspace diagonalization in iterative solution of the eigenvalue problem:
     a serial algorithm will be used

     bravais-lattice index     =            0
     lattice parameter (alat)  =       8.5346  a.u.
     unit-cell volume          =     621.6493 (a.u.)^3
     number of atoms/cell      =            8
     number of atomic types    =            2
     number of electrons       =       168.00
     number of Kohn-Sham states=          101
     kinetic-energy cutoff     =      40.0000  Ry
     charge density cutoff     =     160.0000  Ry
     convergence threshold     =      1.0E-04
     mixing beta               =       0.7000
     number of iterations used =            8  plain     mixing
     Exchange-correlation      = SLA-PZ-NOGX-NOGC ( 1 1 0 0 0)
     EXX-fraction              =        0.00
     nstep                     =           50

     celldm(1)=   8.534573  celldm(2)=   0.000000  celldm(3)=   0.000000
     celldm(4)=   0.000000  celldm(5)=   0.000000  celldm(6)=   0.000000

     crystal axes: (cart. coord. in units of alat)
               a(1) = (   1.000000   0.000000   0.000000 )
               a(2) = (   0.000000   1.000000   0.000000 )
               a(3) = (   0.000000   0.000000   1.000000 )

     reciprocal axes: (cart. coord. in units 2 pi/alat)
               b(1) = (  1.000000  0.000000  0.000000 )
               b(2) = (  0.000000  1.000000  0.000000 )
               b(3) = (  0.000000  0.000000  1.000000 )

     PseudoPot. # 1 for Yb read from file:
     /home/jld5415/pp.La/Yb.UPF
     MD5 check sum: 3e859b81cc28c53ec6aa3a2e888efcdf
     Pseudo is Norm-conserving, Zval = 24.0
     Generated in analytical, separable form
     Using radial grid of 1269 points,  6 beta functions with:
                l(1) =   0
                l(2) =   0
                l(3) =   1
                l(4) =   1
                l(5) =   2
                l(6) =   3

     PseudoPot. # 2 for Ce read from file:
     /home/jld5415/pp.La/Ce.UPF
     MD5 check sum: 44451aa79a44a00cf2bc029dc19922f6
     Pseudo is Norm-conserving, Zval = 12.0
     Generated in analytical, separable form
     Using radial grid of 1255 points,  6 beta functions with:
                l(1) =   0
                l(2) =   0
                l(3) =   1
                l(4) =   1
                l(5) =   2
                l(6) =   3

     atomic species   valence    mass     pseudopotential
        Cr            24.00    51.99610     Yb( 1.00)
        Si            12.00    28.08550     Ce( 1.00)

     48 Sym. Ops., with inversion, found (24 have fractional translation)

   Cartesian axes

     site n.     atom                  positions (alat units)
         1           Cr  tau(   1) = (   0.0000000   0.5000000   0.2500000  )
         2           Cr  tau(   2) = (   0.0000000   0.5000000   0.7500000  )
         3           Cr  tau(   3) = (   0.5000000   0.7500000   0.0000000  )
         4           Cr  tau(   4) = (   0.5000000   0.2500000   0.0000000  )
         5           Cr  tau(   5) = (   0.7500000   0.0000000   0.5000000  )
         6           Cr  tau(   6) = (   0.2500000   0.0000000   0.5000000  )
         7           Si  tau(   7) = (   0.5000000   0.5000000   0.5000000  )
         8           Si  tau(   8) = (   0.0000000   0.0000000   0.0000000  )

     number of k points=    48  gaussian smearing, width (Ry)=  0.1000
                       cart. coord. in units 2pi/alat
        k(    1) = (   0.0000000   0.0000000   0.0000000), wk =   0.0095238
        k(    2) = (   0.0000000   0.0000000   0.1428571), wk =   0.0190476
        k(    3) = (   0.0000000   0.0000000   0.2857143), wk =   0.0190476
        k(    4) = (   0.0000000   0.0000000   0.4285714), wk =   0.0190476
        k(    5) = (   0.0000000   0.1666667   0.0000000), wk =   0.0190476
        k(    6) = (   0.0000000   0.1666667   0.1428571), wk =   0.0380952
        k(    7) = (   0.0000000   0.1666667   0.2857143), wk =   0.0380952
        k(    8) = (   0.0000000   0.1666667   0.4285714), wk =   0.0380952
        k(    9) = (   0.0000000   0.3333333   0.0000000), wk =   0.0190476
        k(   10) = (   0.0000000   0.3333333   0.1428571), wk =   0.0380952
        k(   11) = (   0.0000000   0.3333333   0.2857143), wk =   0.0380952
        k(   12) = (   0.0000000   0.3333333   0.4285714), wk =   0.0380952
        k(   13) = (   0.0000000  -0.5000000   0.0000000), wk =   0.0095238
        k(   14) = (   0.0000000  -0.5000000   0.1428571), wk =   0.0190476
        k(   15) = (   0.0000000  -0.5000000   0.2857143), wk =   0.0190476
        k(   16) = (   0.0000000  -0.5000000   0.4285714), wk =   0.0190476
        k(   17) = (   0.2000000   0.0000000   0.0000000), wk =   0.0190476
        k(   18) = (   0.2000000   0.0000000   0.1428571), wk =   0.0380952
        k(   19) = (   0.2000000   0.0000000   0.2857143), wk =   0.0380952
        k(   20) = (   0.2000000   0.0000000   0.4285714), wk =   0.0380952
        k(   21) = (   0.2000000   0.1666667   0.0000000), wk =   0.0380952
        k(   22) = (   0.2000000   0.1666667   0.1428571), wk =   0.0761905
        k(   23) = (   0.2000000   0.1666667   0.2857143), wk =   0.0761905
        k(   24) = (   0.2000000   0.1666667   0.4285714), wk =   0.0761905
        k(   25) = (   0.2000000   0.3333333   0.0000000), wk =   0.0380952
        k(   26) = (   0.2000000   0.3333333   0.1428571), wk =   0.0761905
        k(   27) = (   0.2000000   0.3333333   0.2857143), wk =   0.0761905
        k(   28) = (   0.2000000   0.3333333   0.4285714), wk =   0.0761905
        k(   29) = (   0.2000000  -0.5000000   0.0000000), wk =   0.0190476
        k(   30) = (   0.2000000  -0.5000000   0.1428571), wk =   0.0380952
        k(   31) = (   0.2000000  -0.5000000   0.2857143), wk =   0.0380952
        k(   32) = (   0.2000000  -0.5000000   0.4285714), wk =   0.0380952
        k(   33) = (   0.4000000   0.0000000   0.0000000), wk =   0.0190476
        k(   34) = (   0.4000000   0.0000000   0.1428571), wk =   0.0380952
        k(   35) = (   0.4000000   0.0000000   0.2857143), wk =   0.0380952
        k(   36) = (   0.4000000   0.0000000   0.4285714), wk =   0.0380952
        k(   37) = (   0.4000000   0.1666667   0.0000000), wk =   0.0380952
        k(   38) = (   0.4000000   0.1666667   0.1428571), wk =   0.0761905
        k(   39) = (   0.4000000   0.1666667   0.2857143), wk =   0.0761905
        k(   40) = (   0.4000000   0.1666667   0.4285714), wk =   0.0761905
        k(   41) = (   0.4000000   0.3333333   0.0000000), wk =   0.0380952
        k(   42) = (   0.4000000   0.3333333   0.1428571), wk =   0.0761905
        k(   43) = (   0.4000000   0.3333333   0.2857143), wk =   0.0761905
        k(   44) = (   0.4000000   0.3333333   0.4285714), wk =   0.0761905
        k(   45) = (   0.4000000  -0.5000000   0.0000000), wk =   0.0190476
        k(   46) = (   0.4000000  -0.5000000   0.1428571), wk =   0.0380952
        k(   47) = (   0.4000000  -0.5000000   0.2857143), wk =   0.0380952
        k(   48) = (   0.4000000  -0.5000000   0.4285714), wk =   0.0380952

     Largest allocated arrays     est. size (Mb)     dimensions
     Largest temporary arrays     est. size (Mb)     dimensions

     Initial potential from superposition of free atoms

     Starting from uniform charge
     Starting wfc are    0 randomized atomic wfcs

     Self-consistent Calculation

     iteration #  1     ecut=    40.00 Ry     beta=0.70
     CG style diagonalization
     c_bands:  1 eigenvalues not converged
     c_bands:  2 eigenvalues not converged
     c_bands:  1 eigenvalues not converged
     c_bands:  1 eigenvalues not converged
     c_bands:  1 eigenvalues not converged
     c_bands:  1 eigenvalues not converged
     c_bands:  1 eigenvalues not converged
     c_bands:  1 eigenvalues not converged
     c_bands:  1 eigenvalues not converged
     c_bands:  1 eigenvalues not converged
     c_bands:  1 eigenvalues not converged
     c_bands:  1 eigenvalues not converged
     c_bands:  1 eigenvalues not converged
     c_bands:  2 eigenvalues not converged
     c_bands:  1 eigenvalues not converged
     c_bands:  1 eigenvalues not converged
     ethr =  1.00E-02,  avg # of iterations = 18.8

     total energy              =   -2091.91907807 Ry
     Harris-Foulkes estimate   =   -3247.81091635 Ry
     estimated scf accuracy    <    1414.55050477 Ry

[...]

     iteration #  4     ecut=    40.00 Ry     beta=0.70
     CG style diagonalization
     ethr =  1.00E-02,  avg # of iterations =  4.2

[...]

     End of self-consistent calculation

          k = 0.0000 0.0000 0.0000 (  2601 PWs)   bands (ev):

   -74.5360 -74.5360 -74.3037 -74.1398 -74.1398 -74.1398 -34.3739 -34.3739
   -34.3187 -33.3632 -33.3632 -33.3632 -33.2020 -33.2020 -33.2020 -33.1403
   -33.1403 -33.1403 -33.1025 -33.1025 -33.1025 -33.0484 -33.0484 -33.0484
    10.8633  10.9735  19.0228  19.0517  19.0517  20.3064  20.3064  20.3064
    20.9040  20.9040  20.9040  22.5388  23.3158  23.3158  23.3820  23.3820
    23.3820  24.4129  24.4129  24.4129  24.9928  25.1205  25.1205  25.1205
    25.3355  25.3355  25.5028  25.5028  25.5028  25.5510  25.5510  25.5510
    28.9178  28.9178  28.9178  29.5207  30.5623  30.5623  30.5623  33.9138
    33.9138  40.6028  40.6028  42.3143  42.3143  42.3143  42.7504  42.7504
    42.7504  43.8783  44.2646  44.2646  44.2646  45.2993  45.2993  45.2993
    49.7177  49.7177  49.7177  52.9887  52.9887  53.8727  53.8727  53.8727
    54.1397  54.1397  54.8817  56.8122  56.8965  56.8966  56.8966  57.8294
    57.8295  57.8296  58.1504  59.2024  59.2025

[...]

     the Fermi energy is    52.0300 ev

!    total energy              =   -2601.59026919 Ry
     Harris-Foulkes estimate   =   -2601.59028271 Ry
     estimated scf accuracy    <       0.00001503 Ry

     The total energy is the sum of the following terms:

     one-electron contribution =    -255.11884476 Ry
     hartree contribution      =     333.17900820 Ry
     xc contribution           =    -222.64960986 Ry
     ewald contribution        =   -2456.77525228 Ry
     smearing contrib. (-TS)   =      -0.22557049 Ry

     convergence has been achieved in  11 iterations

     Forces acting on atoms (Ry/au):

     atom    1 type  1   force =     0.00000000    0.00000000    0.00000000
     atom    2 type  1   force =     0.00000000    0.00000000    0.00000000
     atom    3 type  1   force =     0.00000000    0.00000000    0.00000000
     atom    4 type  1   force =     0.00000000    0.00000000    0.00000000
     atom    5 type  1   force =     0.00000000    0.00000000    0.00000000
     atom    6 type  1   force =     0.00000000    0.00000000    0.00000000
     atom    7 type  2   force =     0.00000000    0.00000000    0.00000000
     atom    8 type  2   force =     0.00000000    0.00000000    0.00000000

[...]
   0.00000000   0.00000000  -0.02151761          0.00      0.00  -3165.35

     number of scf cycles    =   3
     number of bfgs steps    =   2

     enthalpy old            =   -2605.8555401283 Ry
     enthalpy new            =   -2600.7820560630 Ry

     CASE: enthalpy_new > enthalpy_old

     new trust radius        =       0.2075137062 bohr

     trust_radius < trust_radius_min

     resetting bfgs history

     Message from routine bfgs:
     history already reset at previous step: stopping
     new conv_thr            =       0.0000010000 Ry

     new unit-cell volume =   1043.39907 a.u.^3 (   154.61579 Ang^3 )

[...]

ATOMIC_POSITIONS (crystal)
Cr       0.000000000   0.500000000   0.250000000
Cr       0.000000000   0.500000000   0.750000000
Cr       0.500000000   0.750000000   0.000000000
Cr       0.500000000   0.250000000   0.000000000
Cr       0.750000000   0.000000000   0.500000000
Cr       0.250000000   0.000000000   0.500000000
Si       0.500000000   0.500000000   0.500000000
Si       0.000000000   0.000000000   0.000000000

     Writing output data file Prototype-La-cP8-Cr3Si.save
     NEW-OLD atomic charge density approx. for the potential
     NEW k-points:
        k(    1) = (   0.0000000   0.0000000   0.0000000), wk =   0.0095238
        k(    2) = (   0.0000000   0.0000000   0.1202081), wk =   0.0190476
        k(    3) = (   0.0000000   0.0000000   0.2404161), wk =   0.0190476
        k(    4) = (   0.0000000   0.0000000   0.3606242), wk =   0.0190476
        k(    5) = (   0.0000000   0.1402427   0.0000000), wk =   0.0190476
        k(    6) = (   0.0000000   0.1402427   0.1202081), wk =   0.0380952
        k(    7) = (   0.0000000   0.1402427   0.2404161), wk =   0.0380952
        k(    8) = (   0.0000000   0.1402427   0.3606242), wk =   0.0380952
        k(    9) = (   0.0000000   0.2804855   0.0000000), wk =   0.0190476
        k(   10) = (   0.0000000   0.2804855   0.1202081), wk =   0.0380952
        k(   11) = (   0.0000000   0.2804855   0.2404161), wk =   0.0380952
        k(   12) = (   0.0000000   0.2804855   0.3606242), wk =   0.0380952
        k(   13) = (   0.0000000  -0.4207282   0.0000000), wk =   0.0095238
        k(   14) = (   0.0000000  -0.4207282   0.1202081), wk =   0.0190476
        k(   15) = (   0.0000000  -0.4207282   0.2404161), wk =   0.0190476
        k(   16) = (   0.0000000  -0.4207282   0.3606242), wk =   0.0190476
        k(   17) = (   0.1682913   0.0000000   0.0000000), wk =   0.0190476
        k(   18) = (   0.1682913   0.0000000   0.1202081), wk =   0.0380952
        k(   19) = (   0.1682913   0.0000000   0.2404161), wk =   0.0380952
        k(   20) = (   0.1682913   0.0000000   0.3606242), wk =   0.0380952
        k(   21) = (   0.1682913   0.1402427   0.0000000), wk =   0.0380952
        k(   22) = (   0.1682913   0.1402427   0.1202081), wk =   0.0761905
        k(   23) = (   0.1682913   0.1402427   0.2404161), wk =   0.0761905
        k(   24) = (   0.1682913   0.1402427   0.3606242), wk =   0.0761905
        k(   25) = (   0.1682913   0.2804855   0.0000000), wk =   0.0380952
        k(   26) = (   0.1682913   0.2804855   0.1202081), wk =   0.0761905
        k(   27) = (   0.1682913   0.2804855   0.2404161), wk =   0.0761905
        k(   28) = (   0.1682913   0.2804855   0.3606242), wk =   0.0761905
        k(   29) = (   0.1682913  -0.4207282   0.0000000), wk =   0.0190476
        k(   30) = (   0.1682913  -0.4207282   0.1202081), wk =   0.0380952
        k(   31) = (   0.1682913  -0.4207282   0.2404161), wk =   0.0380952
        k(   32) = (   0.1682913  -0.4207282   0.3606242), wk =   0.0380952
        k(   33) = (   0.3365826   0.0000000   0.0000000), wk =   0.0190476
        k(   34) = (   0.3365826   0.0000000   0.1202081), wk =   0.0380952
        k(   35) = (   0.3365826   0.0000000   0.2404161), wk =   0.0380952
        k(   36) = (   0.3365826   0.0000000   0.3606242), wk =   0.0380952
        k(   37) = (   0.3365826   0.1402427   0.0000000), wk =   0.0380952
        k(   38) = (   0.3365826   0.1402427   0.1202081), wk =   0.0761905
        k(   39) = (   0.3365826   0.1402427   0.2404161), wk =   0.0761905
        k(   40) = (   0.3365826   0.1402427   0.3606242), wk =   0.0761905
        k(   41) = (   0.3365826   0.2804855   0.0000000), wk =   0.0380952
        k(   42) = (   0.3365826   0.2804855   0.1202081), wk =   0.0761905
        k(   43) = (   0.3365826   0.2804855   0.2404161), wk =   0.0761905
        k(   44) = (   0.3365826   0.2804855   0.3606242), wk =   0.0761905
        k(   45) = (   0.3365826  -0.4207282   0.0000000), wk =   0.0190476
        k(   46) = (   0.3365826  -0.4207282   0.1202081), wk =   0.0380952
        k(   47) = (   0.3365826  -0.4207282   0.2404161), wk =   0.0380952
        k(   48) = (   0.3365826  -0.4207282   0.3606242), wk =   0.0380952

[...]

          total   stress  (Ry/bohr**3)                   (kbar)     P=-1272.95
  -0.00865335   0.00000000   0.00000000      -1272.95      0.00      0.00
   0.00000000  -0.00865335   0.00000000          0.00  -1272.95      0.00
   0.00000000   0.00000000  -0.00865335          0.00      0.00  -1272.95

     The maximum number of steps has been reached.

     End of BFGS Geometry Optimization
Begin final coordinates
     new unit-cell volume =   1043.39907 a.u.^3 (   154.61579 Ang^3 )

CELL_PARAMETERS (alat=  8.53457320)
   1.188415593   0.000000000   0.000000000
   0.000000000   1.188415593   0.000000000
   0.000000000   0.000000000   1.188415593

ATOMIC_POSITIONS (crystal)
Cr       0.000000000   0.500000000   0.250000000
Cr       0.000000000   0.500000000   0.750000000
Cr       0.500000000   0.750000000   0.000000000
Cr       0.500000000   0.250000000   0.000000000
Cr       0.750000000   0.000000000   0.500000000
Cr       0.250000000   0.000000000   0.500000000
Si       0.500000000   0.500000000   0.500000000
Si       0.000000000   0.000000000   0.000000000
End final coordinates

     A final scf calculation at the relaxed structure.
     The G-vectors are recalculated for the final unit cell
     Results may differ from those at the preceding step.

     bravais-lattice index     =            0
     lattice parameter (alat)  =       8.5346  a.u.
     unit-cell volume          =    1043.3991 (a.u.)^3
     number of atoms/cell      =            8
     number of atomic types    =            2
     number of electrons       =       168.00
     number of Kohn-Sham states=          101
     kinetic-energy cutoff     =      40.0000  Ry
     charge density cutoff     =     160.0000  Ry
     convergence threshold     =      1.0E-06
     mixing beta               =       0.7000
     number of iterations used =            8  plain     mixing
     Exchange-correlation      = SLA-PZ-NOGX-NOGC ( 1 1 0 0 0)
     EXX-fraction              =        0.00

     celldm(1)=   8.534573  celldm(2)=   0.000000  celldm(3)=   0.000000
     celldm(4)=   0.000000  celldm(5)=   0.000000  celldm(6)=   0.000000

     crystal axes: (cart. coord. in units of alat)
               a(1) = (   1.188416   0.000000   0.000000 )
               a(2) = (   0.000000   1.188416   0.000000 )
               a(3) = (   0.000000   0.000000   1.188416 )

     reciprocal axes: (cart. coord. in units 2 pi/alat)
               b(1) = (  0.841456  0.000000  0.000000 )
               b(2) = (  0.000000  0.841456  0.000000 )
               b(3) = (  0.000000  0.000000  0.841456 )

     PseudoPot. # 1 for Yb read from file:
     /home/jld5415/pp.La/Yb.UPF
     MD5 check sum: 3e859b81cc28c53ec6aa3a2e888efcdf
     Pseudo is Norm-conserving, Zval = 24.0
     Generated in analytical, separable form
     Using radial grid of 1269 points,  6 beta functions with:
                l(1) =   0
                l(2) =   0
                l(3) =   1
                l(4) =   1
                l(5) =   2
                l(6) =   3

     PseudoPot. # 2 for Ce read from file:
     /home/jld5415/pp.La/Ce.UPF
     MD5 check sum: 44451aa79a44a00cf2bc029dc19922f6
     Pseudo is Norm-conserving, Zval = 12.0
     Generated in analytical, separable form
     Using radial grid of 1255 points,  6 beta functions with:
                l(1) =   0
                l(2) =   0
                l(3) =   1
                l(4) =   1
                l(5) =   2
                l(6) =   3

     atomic species   valence    mass     pseudopotential
        Cr            24.00    51.99610     Yb( 1.00)
        Si            12.00    28.08550     Ce( 1.00)

     48 Sym. Ops., with inversion, found (24 have fractional translation)

   Cartesian axes

     site n.     atom                  positions (alat units)
         1           Cr  tau(   1) = (   0.0000000   0.5942078   0.2971039  )
         2           Cr  tau(   2) = (   0.0000000   0.5942078   0.8913117  )
         3           Cr  tau(   3) = (   0.5942078   0.8913117   0.0000000  )
         4           Cr  tau(   4) = (   0.5942078   0.2971039   0.0000000  )
         5           Cr  tau(   5) = (   0.8913117   0.0000000   0.5942078  )
         6           Cr  tau(   6) = (   0.2971039   0.0000000   0.5942078  )
         7           Si  tau(   7) = (   0.5942078   0.5942078   0.5942078  )
         8           Si  tau(   8) = (   0.0000000   0.0000000   0.0000000  )

     number of k points=    48  gaussian smearing, width (Ry)=  0.1000
                       cart. coord. in units 2pi/alat
        k(    1) = (   0.0000000   0.0000000   0.0000000), wk =   0.0095238
        k(    2) = (   0.0000000   0.0000000   0.1202081), wk =   0.0190476
        k(    3) = (   0.0000000   0.0000000   0.2404161), wk =   0.0190476
        k(    4) = (   0.0000000   0.0000000   0.3606242), wk =   0.0190476
        k(    5) = (   0.0000000   0.1402427   0.0000000), wk =   0.0190476
        k(    6) = (   0.0000000   0.1402427   0.1202081), wk =   0.0380952
        k(    7) = (   0.0000000   0.1402427   0.2404161), wk =   0.0380952
        k(    8) = (   0.0000000   0.1402427   0.3606242), wk =   0.0380952
        k(    9) = (   0.0000000   0.2804855   0.0000000), wk =   0.0190476
        k(   10) = (   0.0000000   0.2804855   0.1202081), wk =   0.0380952
        k(   11) = (   0.0000000   0.2804855   0.2404161), wk =   0.0380952
        k(   12) = (   0.0000000   0.2804855   0.3606242), wk =   0.0380952
        k(   13) = (   0.0000000  -0.4207282   0.0000000), wk =   0.0095238
        k(   14) = (   0.0000000  -0.4207282   0.1202081), wk =   0.0190476
        k(   15) = (   0.0000000  -0.4207282   0.2404161), wk =   0.0190476
        k(   16) = (   0.0000000  -0.4207282   0.3606242), wk =   0.0190476
        k(   17) = (   0.1682913   0.0000000   0.0000000), wk =   0.0190476
        k(   18) = (   0.1682913   0.0000000   0.1202081), wk =   0.0380952
        k(   19) = (   0.1682913   0.0000000   0.2404161), wk =   0.0380952
        k(   20) = (   0.1682913   0.0000000   0.3606242), wk =   0.0380952
        k(   21) = (   0.1682913   0.1402427   0.0000000), wk =   0.0380952
        k(   22) = (   0.1682913   0.1402427   0.1202081), wk =   0.0761905
        k(   23) = (   0.1682913   0.1402427   0.2404161), wk =   0.0761905
        k(   24) = (   0.1682913   0.1402427   0.3606242), wk =   0.0761905
        k(   25) = (   0.1682913   0.2804855   0.0000000), wk =   0.0380952
        k(   26) = (   0.1682913   0.2804855   0.1202081), wk =   0.0761905
        k(   27) = (   0.1682913   0.2804855   0.2404161), wk =   0.0761905
        k(   28) = (   0.1682913   0.2804855   0.3606242), wk =   0.0761905
        k(   29) = (   0.1682913  -0.4207282   0.0000000), wk =   0.0190476
        k(   30) = (   0.1682913  -0.4207282   0.1202081), wk =   0.0380952
        k(   31) = (   0.1682913  -0.4207282   0.2404161), wk =   0.0380952
        k(   32) = (   0.1682913  -0.4207282   0.3606242), wk =   0.0380952
        k(   33) = (   0.3365826   0.0000000   0.0000000), wk =   0.0190476
        k(   34) = (   0.3365826   0.0000000   0.1202081), wk =   0.0380952
        k(   35) = (   0.3365826   0.0000000   0.2404161), wk =   0.0380952
        k(   36) = (   0.3365826   0.0000000   0.3606242), wk =   0.0380952
        k(   37) = (   0.3365826   0.1402427   0.0000000), wk =   0.0380952
        k(   38) = (   0.3365826   0.1402427   0.1202081), wk =   0.0761905
        k(   39) = (   0.3365826   0.1402427   0.2404161), wk =   0.0761905
        k(   40) = (   0.3365826   0.1402427   0.3606242), wk =   0.0761905
        k(   41) = (   0.3365826   0.2804855   0.0000000), wk =   0.0380952
        k(   42) = (   0.3365826   0.2804855   0.1202081), wk =   0.0761905
        k(   43) = (   0.3365826   0.2804855   0.2404161), wk =   0.0761905
        k(   44) = (   0.3365826   0.2804855   0.3606242), wk =   0.0761905
        k(   45) = (   0.3365826  -0.4207282   0.0000000), wk =   0.0190476
        k(   46) = (   0.3365826  -0.4207282   0.1202081), wk =   0.0380952
        k(   47) = (   0.3365826  -0.4207282   0.2404161), wk =   0.0380952
        k(   48) = (   0.3365826  -0.4207282   0.3606242), wk =   0.0380952

     Largest allocated arrays     est. size (Mb)     dimensions
     Largest temporary arrays     est. size (Mb)     dimensions

     Initial potential from superposition of free atoms

     Starting from uniform charge
     Starting wfc are    0 randomized atomic wfcs

     Writing output data file Prototype-La-cP8-Cr3Si.save

     Self-consistent Calculation

[...]

     iteration # 11     ecut=    40.00 Ry     beta=0.70
     CG style diagonalization
     c_bands:  1 eigenvalues not converged
     c_bands:  1 eigenvalues not converged
     ethr =  3.23E-07,  avg # of iterations =  3.4

[...]

     total energy              =   -2611.17457010 Ry
     Harris-Foulkes estimate   =   -2611.17457093 Ry
     estimated scf accuracy    <       0.00000139 Ry

     iteration # 14     ecut=    40.00 Ry     beta=0.70
     CG style diagonalization
     ethr =  8.26E-10,  avg # of iterations =  3.6

     End of self-consistent calculation

[...]

          k = 0.3366-0.4207 0.3606 (  4472 PWs)   bands (ev):

   -94.3476 -94.3469 -94.3369 -94.3358 -94.3229 -94.3223 -53.3030 -53.2979
   -53.2778 -53.2778 -53.2553 -53.2473 -53.0716 -53.0716 -53.0706 -53.0699
   -53.0694 -53.0687 -53.0675 -53.0667 -53.0660 -53.0648 -53.0628 -53.0626
    -8.0108  -8.0108   3.9968   4.0987   4.3554   4.3578   4.4340   4.4376
     4.4525   4.4569   4.5442   4.5470   4.6025   4.6221   4.6340   4.6607
     4.6833   4.6990   4.8229   4.8235   4.8947   4.9002   4.9306   4.9470
     4.9571   4.9605   5.0483   5.0522   5.0824   5.0833   5.1150   5.1301
     9.2228   9.2233   9.4062   9.4074   9.5667   9.5756  16.6624  16.6667
    17.1231  17.1259  17.5203  17.5389  22.1892  22.1894  25.4800  25.5671
    25.8480  25.8662  26.2355  26.4817  26.7343  27.0062  27.5219  27.6673
    27.9611  27.9935  28.6781  28.8565  29.0482  29.0955  32.0304  32.2414
    32.8699  32.9046  33.4763  33.6046  34.9498  34.9780  35.1189  35.1666
    35.4252  35.4441  36.1755  36.3253  36.4830

     the Fermi energy is    30.5769 ev

!    total energy              =   -2611.17457043 Ry
     Harris-Foulkes estimate   =   -2611.17457051 Ry
     estimated scf accuracy    <       0.00000010 Ry

     The total energy is the sum of the following terms:

     one-electron contribution =    -820.45387827 Ry
     hartree contribution      =     490.17242260 Ry
     xc contribution           =    -213.42096770 Ry
     ewald contribution        =   -2067.26945287 Ry
     smearing contrib. (-TS)   =      -0.20269418 Ry

     convergence has been achieved in  14 iterations

     Forces acting on atoms (Ry/au):

     atom    1 type  1   force =     0.00000000    0.00000000    0.00000000
     atom    2 type  1   force =     0.00000000    0.00000000    0.00000000
     atom    3 type  1   force =     0.00000000    0.00000000    0.00000000
     atom    4 type  1   force =     0.00000000    0.00000000    0.00000000
     atom    5 type  1   force =     0.00000000    0.00000000    0.00000000
     atom    6 type  1   force =     0.00000000    0.00000000    0.00000000
     atom    7 type  2   force =     0.00000000    0.00000000    0.00000000
     atom    8 type  2   force =     0.00000000    0.00000000    0.00000000

     Total force =     0.000000     Total SCF correction =     0.000000

     entering subroutine stress ...

          total   stress  (Ry/bohr**3)                   (kbar)     P=  397.58
   0.00270269   0.00000000   0.00000000        397.58      0.00      0.00
   0.00000000   0.00270269   0.00000000          0.00    397.58      0.00
   0.00000000   0.00000000   0.00270269          0.00      0.00    397.58

     Writing output data file Prototype-La-cP8-Cr3Si.save

     General routines

     Parallel routines

   This run was terminated on:  12:45:32  22Mar2018

   JOB DONE.