     Program PWSCF v.5.0.2 starts on 22Mar2018 at 12: 4:17

     Current dimensions of program PWSCF are:
     Max number of different atomic species (ntypx) = 10
     Max number of k-points (npk) =  40000
     Max angular momentum in pseudopotentials (lmaxx) =  3
     Waiting for input...
     Reading input from standard input

     Subspace diagonalization in iterative solution of the eigenvalue problem:
     a serial algorithm will be used

     bravais-lattice index     =            0
     lattice parameter (alat)  =      12.0168  a.u.
     unit-cell volume          =    1187.3413 (a.u.)^3
     number of atoms/cell      =            8
     number of atomic types    =            2
     number of electrons       =       168.00
     number of Kohn-Sham states=          101
     kinetic-energy cutoff     =      40.0000  Ry
     charge density cutoff     =     160.0000  Ry
     convergence threshold     =      1.0E-04
     mixing beta               =       0.7000
     number of iterations used =            8  plain     mixing
     Exchange-correlation      = SLA-PZ-NOGX-NOGC ( 1 1 0 0 0)
     EXX-fraction              =        0.00
     nstep                     =           50

     celldm(1)=  12.016801  celldm(2)=   0.000000  celldm(3)=   0.000000
     celldm(4)=   0.000000  celldm(5)=   0.000000  celldm(6)=   0.000000

     crystal axes: (cart. coord. in units of alat)
               a(1) = (   1.000000   0.000000   0.000000 )
               a(2) = (  -0.500000   0.866025   0.000000 )
               a(3) = (   0.000000   0.000000   0.790093 )

     reciprocal axes: (cart. coord. in units 2 pi/alat)
               b(1) = (  1.000000  0.577350  0.000000 )
               b(2) = (  0.000000  1.154701  0.000000 )
               b(3) = (  0.000000  0.000000  1.265674 )

     PseudoPot. # 1 for Yb read from file:
     /home/jld5415/pp.La/Yb.UPF
     MD5 check sum: 3e859b81cc28c53ec6aa3a2e888efcdf
     Pseudo is Norm-conserving, Zval = 24.0
     Generated in analytical, separable form
     Using radial grid of 1269 points,  6 beta functions with:
                l(1) =   0
                l(2) =   0
                l(3) =   1
                l(4) =   1
                l(5) =   2
                l(6) =   3

     PseudoPot. # 2 for Ce read from file:
     /home/jld5415/pp.La/Ce.UPF
     MD5 check sum: 44451aa79a44a00cf2bc029dc19922f6
     Pseudo is Norm-conserving, Zval = 12.0
     Generated in analytical, separable form
     Using radial grid of 1255 points,  6 beta functions with:
                l(1) =   0
                l(2) =   0
                l(3) =   1
                l(4) =   1
                l(5) =   2
                l(6) =   3

     atomic species   valence    mass     pseudopotential
        Mg            24.00    24.30500     Yb( 1.00)
        Cd            12.00   112.41100     Ce( 1.00)

     24 Sym. Ops., with inversion, found (12 have fractional translation)

   Cartesian axes

     site n.     atom                  positions (alat units)
         1           Mg  tau(   1) = (   0.2478935   0.7204716   0.1975233  )
         2           Mg  tau(   2) = (   0.7478935   0.1455538   0.5925699  )
         3           Mg  tau(   3) = (   0.2521065   0.1455538   0.5925699  )
         4           Mg  tau(   4) = (  -0.2478935   0.7204716   0.1975233  )
         5           Mg  tau(   5) = (   0.0000000   0.2911075   0.1975233  )
         6           Mg  tau(   6) = (   0.5000000   0.5749179   0.5925699  )
         7           Cd  tau(   7) = (   0.5000005   0.2886748   0.1975233  )
         8           Cd  tau(   8) = (  -0.0000005   0.5773506   0.5925699  )

     number of k points=    64  gaussian smearing, width (Ry)=  0.1000
                       cart. coord. in units 2pi/alat
        k(    1) = (   0.0000000   0.0000000   0.0000000), wk =   0.0095238
        k(    2) = (   0.0000000   0.0000000   0.1808105), wk =   0.0190476
        k(    3) = (   0.0000000   0.0000000   0.3616210), wk =   0.0190476
        k(    4) = (   0.0000000   0.0000000   0.5424315), wk =   0.0190476
        k(    5) = (   0.0000000   0.1924501   0.0000000), wk =   0.0190476
        k(    6) = (   0.0000000   0.1924501   0.1808105), wk =   0.0380952
        k(    7) = (   0.0000000   0.1924501   0.3616210), wk =   0.0380952
        k(    8) = (   0.0000000   0.1924501   0.5424315), wk =   0.0380952
        k(    9) = (   0.0000000   0.3849002   0.0000000), wk =   0.0190476
        k(   10) = (   0.0000000   0.3849002   0.1808105), wk =   0.0380952
        k(   11) = (   0.0000000   0.3849002   0.3616210), wk =   0.0380952
        k(   12) = (   0.0000000   0.3849002   0.5424315), wk =   0.0380952
        k(   13) = (   0.0000000  -0.5773503   0.0000000), wk =   0.0095238
        k(   14) = (   0.0000000  -0.5773503   0.1808105), wk =   0.0190476
        k(   15) = (   0.0000000  -0.5773503   0.3616210), wk =   0.0190476
        k(   16) = (   0.0000000  -0.5773503   0.5424315), wk =   0.0190476
        k(   17) = (   0.2000000   0.1154701   0.0000000), wk =   0.0190476
        k(   18) = (   0.2000000   0.1154701   0.1808105), wk =   0.0380952
        k(   19) = (   0.2000000   0.1154701   0.3616210), wk =   0.0380952
        k(   20) = (   0.2000000   0.1154701   0.5424315), wk =   0.0380952
        k(   21) = (   0.2000000   0.3079201   0.0000000), wk =   0.0190476
        k(   22) = (   0.2000000   0.3079201   0.1808105), wk =   0.0380952
        k(   23) = (   0.2000000   0.3079201   0.3616210), wk =   0.0380952
        k(   24) = (   0.2000000   0.3079201   0.5424315), wk =   0.0380952
        k(   25) = (   0.2000000   0.5003702   0.0000000), wk =   0.0190476
        k(   26) = (   0.2000000   0.5003702   0.1808105), wk =   0.0380952
        k(   27) = (   0.2000000   0.5003702   0.3616210), wk =   0.0380952
        k(   28) = (   0.2000000   0.5003702   0.5424315), wk =   0.0380952
        k(   29) = (   0.2000000  -0.4618802   0.0000000), wk =   0.0190476
        k(   30) = (   0.2000000  -0.4618802   0.1808105), wk =   0.0380952
        k(   31) = (   0.2000000  -0.4618802   0.3616210), wk =   0.0380952
        k(   32) = (   0.2000000  -0.4618802   0.5424315), wk =   0.0380952
        k(   33) = (   0.2000000  -0.2694301   0.0000000), wk =   0.0190476
        k(   34) = (   0.2000000  -0.2694301   0.1808105), wk =   0.0380952
        k(   35) = (   0.2000000  -0.2694301   0.3616210), wk =   0.0380952
        k(   36) = (   0.2000000  -0.2694301   0.5424315), wk =   0.0380952
        k(   37) = (   0.2000000  -0.0769800   0.0000000), wk =   0.0190476
        k(   38) = (   0.2000000  -0.0769800   0.1808105), wk =   0.0380952
        k(   39) = (   0.2000000  -0.0769800   0.3616210), wk =   0.0380952
        k(   40) = (   0.2000000  -0.0769800   0.5424315), wk =   0.0380952
        k(   41) = (   0.4000000   0.2309401   0.0000000), wk =   0.0190476
        k(   42) = (   0.4000000   0.2309401   0.1808105), wk =   0.0380952
        k(   43) = (   0.4000000   0.2309401   0.3616210), wk =   0.0380952
        k(   44) = (   0.4000000   0.2309401   0.5424315), wk =   0.0380952
        k(   45) = (   0.4000000   0.4233902   0.0000000), wk =   0.0190476
        k(   46) = (   0.4000000   0.4233902   0.1808105), wk =   0.0380952
        k(   47) = (   0.4000000   0.4233902   0.3616210), wk =   0.0380952
        k(   48) = (   0.4000000   0.4233902   0.5424315), wk =   0.0380952
        k(   49) = (   0.4000000   0.6158403   0.0000000), wk =   0.0190476
        k(   50) = (   0.4000000   0.6158403   0.1808105), wk =   0.0380952
        k(   51) = (   0.4000000   0.6158403   0.3616210), wk =   0.0380952
        k(   52) = (   0.4000000   0.6158403   0.5424315), wk =   0.0380952
        k(   53) = (   0.4000000  -0.3464102   0.0000000), wk =   0.0190476
        k(   54) = (   0.4000000  -0.3464102   0.1808105), wk =   0.0380952
        k(   55) = (   0.4000000  -0.3464102   0.3616210), wk =   0.0380952
        k(   56) = (   0.4000000  -0.3464102   0.5424315), wk =   0.0380952
        k(   57) = (   0.4000000  -0.1539601   0.0000000), wk =   0.0190476
        k(   58) = (   0.4000000  -0.1539601   0.1808105), wk =   0.0380952
        k(   59) = (   0.4000000  -0.1539601   0.3616210), wk =   0.0380952
        k(   60) = (   0.4000000  -0.1539601   0.5424315), wk =   0.0380952
        k(   61) = (   0.4000000   0.0384900   0.0000000), wk =   0.0190476
        k(   62) = (   0.4000000   0.0384900   0.1808105), wk =   0.0380952
        k(   63) = (   0.4000000   0.0384900   0.3616210), wk =   0.0380952
        k(   64) = (   0.4000000   0.0384900   0.5424315), wk =   0.0380952

     Largest allocated arrays     est. size (Mb)     dimensions
     Largest temporary arrays     est. size (Mb)     dimensions

     Initial potential from superposition of free atoms

     Starting from uniform charge
     Starting wfc are    0 randomized atomic wfcs

     Self-consistent Calculation

     iteration #  1     ecut=    40.00 Ry     beta=0.70
     CG style diagonalization
     c_bands:  4 eigenvalues not converged
     c_bands:  3 eigenvalues not converged
     c_bands:  2 eigenvalues not converged
     c_bands:  4 eigenvalues not converged
     c_bands:  3 eigenvalues not converged
     c_bands:  4 eigenvalues not converged
     c_bands:  4 eigenvalues not converged
     c_bands:  2 eigenvalues not converged
     c_bands:  1 eigenvalues not converged
     c_bands:  4 eigenvalues not converged
     c_bands:  5 eigenvalues not converged
     c_bands:  4 eigenvalues not converged
     c_bands:  3 eigenvalues not converged
     c_bands:  2 eigenvalues not converged
     c_bands:  5 eigenvalues not converged
     c_bands:  2 eigenvalues not converged
     c_bands:  3 eigenvalues not converged
     c_bands:  3 eigenvalues not converged
     c_bands:  3 eigenvalues not converged
     c_bands:  4 eigenvalues not converged
     c_bands:  3 eigenvalues not converged
     c_bands:  4 eigenvalues not converged
     c_bands:  4 eigenvalues not converged
     c_bands:  3 eigenvalues not converged
     c_bands:  2 eigenvalues not converged
     c_bands:  5 eigenvalues not converged
     c_bands:  3 eigenvalues not converged
     c_bands:  3 eigenvalues not converged
     c_bands:  2 eigenvalues not converged
     c_bands:  3 eigenvalues not converged
     c_bands:  3 eigenvalues not converged
     c_bands:  1 eigenvalues not converged
     c_bands:  3 eigenvalues not converged
     c_bands:  2 eigenvalues not converged
     c_bands:  5 eigenvalues not converged
     c_bands:  5 eigenvalues not converged
     c_bands:  2 eigenvalues not converged
     c_bands:  2 eigenvalues not converged
     c_bands:  3 eigenvalues not converged
     c_bands:  1 eigenvalues not converged
     c_bands:  4 eigenvalues not converged
     c_bands:  2 eigenvalues not converged
     c_bands:  3 eigenvalues not converged
     c_bands:  3 eigenvalues not converged
     c_bands:  2 eigenvalues not converged
     c_bands:  5 eigenvalues not converged
     c_bands:  3 eigenvalues not converged
     c_bands:  3 eigenvalues not converged
     c_bands:  2 eigenvalues not converged
     c_bands:  3 eigenvalues not converged
[...]
        k(   14) = (   0.0000000  -0.5831037   0.1788905), wk =   0.0190476
        k(   15) = (   0.0000000  -0.5831037   0.3577809), wk =   0.0190476
        k(   16) = (   0.0000000  -0.5831037   0.5366714), wk =   0.0190476
        k(   17) = (   0.2019930   0.1166207   0.0000000), wk =   0.0190476
        k(   18) = (   0.2019930   0.1166207   0.1788905), wk =   0.0380952
        k(   19) = (   0.2019930   0.1166207   0.3577809), wk =   0.0380952
        k(   20) = (   0.2019930   0.1166207   0.5366714), wk =   0.0380952
        k(   21) = (   0.2019930   0.3109886   0.0000000), wk =   0.0190476
        k(   22) = (   0.2019930   0.3109886   0.1788905), wk =   0.0380952
        k(   23) = (   0.2019930   0.3109886   0.3577809), wk =   0.0380952
        k(   24) = (   0.2019930   0.3109886   0.5366714), wk =   0.0380952
        k(   25) = (   0.2019930   0.5053565   0.0000000), wk =   0.0190476
        k(   26) = (   0.2019930   0.5053565   0.1788905), wk =   0.0380952
        k(   27) = (   0.2019930   0.5053565   0.3577809), wk =   0.0380952
        k(   28) = (   0.2019930   0.5053565   0.5366714), wk =   0.0380952
        k(   29) = (   0.2019930  -0.4664829   0.0000000), wk =   0.0190476
        k(   30) = (   0.2019930  -0.4664829   0.1788905), wk =   0.0380952
        k(   31) = (   0.2019930  -0.4664829   0.3577809), wk =   0.0380952
        k(   32) = (   0.2019930  -0.4664829   0.5366714), wk =   0.0380952
        k(   33) = (   0.2019930  -0.2721151   0.0000000), wk =   0.0190476
        k(   34) = (   0.2019930  -0.2721151   0.1788905), wk =   0.0380952
        k(   35) = (   0.2019930  -0.2721151   0.3577809), wk =   0.0380952
        k(   36) = (   0.2019930  -0.2721151   0.5366714), wk =   0.0380952
        k(   37) = (   0.2019930  -0.0777472   0.0000000), wk =   0.0190476
        k(   38) = (   0.2019930  -0.0777472   0.1788905), wk =   0.0380952
        k(   39) = (   0.2019930  -0.0777472   0.3577809), wk =   0.0380952
        k(   40) = (   0.2019930  -0.0777472   0.5366714), wk =   0.0380952
        k(   41) = (   0.4039861   0.2332415   0.0000000), wk =   0.0190476
        k(   42) = (   0.4039861   0.2332415   0.1788905), wk =   0.0380952
        k(   43) = (   0.4039861   0.2332415   0.3577809), wk =   0.0380952
        k(   44) = (   0.4039861   0.2332415   0.5366714), wk =   0.0380952
        k(   45) = (   0.4039861   0.4276094   0.0000000), wk =   0.0190476
        k(   46) = (   0.4039861   0.4276094   0.1788905), wk =   0.0380952
        k(   47) = (   0.4039861   0.4276094   0.3577809), wk =   0.0380952
        k(   48) = (   0.4039861   0.4276094   0.5366714), wk =   0.0380952
        k(   49) = (   0.4039861   0.6219773   0.0000000), wk =   0.0190476
        k(   50) = (   0.4039861   0.6219773   0.1788905), wk =   0.0380952
        k(   51) = (   0.4039861   0.6219773   0.3577809), wk =   0.0380952
        k(   52) = (   0.4039861   0.6219773   0.5366714), wk =   0.0380952
        k(   53) = (   0.4039861  -0.3498622   0.0000000), wk =   0.0190476
        k(   54) = (   0.4039861  -0.3498622   0.1788905), wk =   0.0380952
        k(   55) = (   0.4039861  -0.3498622   0.3577809), wk =   0.0380952
        k(   56) = (   0.4039861  -0.3498622   0.5366714), wk =   0.0380952
        k(   57) = (   0.4039861  -0.1554943   0.0000000), wk =   0.0190476
        k(   58) = (   0.4039861  -0.1554943   0.1788905), wk =   0.0380952
        k(   59) = (   0.4039861  -0.1554943   0.3577809), wk =   0.0380952
        k(   60) = (   0.4039861  -0.1554943   0.5366714), wk =   0.0380952
        k(   61) = (   0.4039861   0.0388736   0.0000000), wk =   0.0190476
        k(   62) = (   0.4039861   0.0388736   0.1788905), wk =   0.0380952
        k(   63) = (   0.4039861   0.0388736   0.3577809), wk =   0.0380952
        k(   64) = (   0.4039861   0.0388736   0.5366714), wk =   0.0380952

[...]

     The maximum number of steps has been reached.

     End of BFGS Geometry Optimization
Begin final coordinates
     new unit-cell volume =   1176.51975 a.u.^3 (   174.34224 Ang^3 )

CELL_PARAMETERS (alat= 12.01680127)
   0.990133118   0.000000000   0.000000000
  -0.495066559   0.857480433   0.000000000
   0.000000000   0.000000000   0.798573290

ATOMIC_POSITIONS (crystal)
Mg       0.656744377   0.828372189   0.250000000
Mg       0.828372189   0.171627811   0.750000000
Mg       0.343255623   0.171627811   0.750000000
Mg       0.171627811   0.828372189   0.250000000
Mg       0.171627811   0.343255623   0.250000000
Mg       0.828372189   0.656744377   0.750000000
Cd       0.666667000   0.333333000   0.250000000
Cd       0.333333000   0.666667000   0.750000000
End final coordinates

     A final scf calculation at the relaxed structure.
     The G-vectors are recalculated for the final unit cell
     Results may differ from those at the preceding step.

     bravais-lattice index     =            0
     lattice parameter (alat)  =      12.0168  a.u.
     unit-cell volume          =    1176.5198 (a.u.)^3
     number of atoms/cell      =            8
     number of atomic types    =            2
     number of electrons       =       168.00
     number of Kohn-Sham states=          101
     kinetic-energy cutoff     =      40.0000  Ry
     charge density cutoff     =     160.0000  Ry
     convergence threshold     =      3.3E-06
     mixing beta               =       0.7000
     number of iterations used =            8  plain     mixing
     Exchange-correlation      = SLA-PZ-NOGX-NOGC ( 1 1 0 0 0)
     EXX-fraction              =        0.00

     celldm(1)=  12.016801  celldm(2)=   0.000000  celldm(3)=   0.000000
     celldm(4)=   0.000000  celldm(5)=   0.000000  celldm(6)=   0.000000

     crystal axes: (cart. coord. in units of alat)
               a(1) = (   0.990133   0.000000   0.000000 )
               a(2) = (  -0.495067   0.857480   0.000000 )
               a(3) = (   0.000000   0.000000   0.798573 )

     reciprocal axes: (cart. coord. in units 2 pi/alat)
               b(1) = (  1.009965  0.583104  0.000000 )
               b(2) = (  0.000000  1.166207  0.000000 )
               b(3) = (  0.000000  0.000000  1.252233 )

     PseudoPot. # 1 for Yb read from file:
     /home/jld5415/pp.La/Yb.UPF
     MD5 check sum: 3e859b81cc28c53ec6aa3a2e888efcdf
     Pseudo is Norm-conserving, Zval = 24.0
     Generated in analytical, separable form
     Using radial grid of 1269 points,  6 beta functions with:
                l(1) =   0
                l(2) =   0
                l(3) =   1
                l(4) =   1
                l(5) =   2
                l(6) =   3

     PseudoPot. # 2 for Ce read from file:
     /home/jld5415/pp.La/Ce.UPF
     MD5 check sum: 44451aa79a44a00cf2bc029dc19922f6
     Pseudo is Norm-conserving, Zval = 12.0
     Generated in analytical, separable form
     Using radial grid of 1255 points,  6 beta functions with:
                l(1) =   0
                l(2) =   0
                l(3) =   1
                l(4) =   1
                l(5) =   2
                l(6) =   3

     atomic species   valence    mass     pseudopotential
        Mg            24.00    24.30500     Yb( 1.00)
        Cd            12.00   112.41100     Ce( 1.00)

     24 Sym. Ops., with inversion, found (12 have fractional translation)

   Cartesian axes

     site n.     atom                  positions (alat units)
         1           Mg  tau(   1) = (   0.2401650   0.7103129   0.1996433  )
         2           Mg  tau(   2) = (   0.7352315   0.1471675   0.5989300  )
         3           Mg  tau(   3) = (   0.2549016   0.1471675   0.5989300  )
         4           Mg  tau(   4) = (  -0.2401650   0.7103129   0.1996433  )
         5           Mg  tau(   5) = (   0.0000000   0.2943350   0.1996433  )
         6           Mg  tau(   6) = (   0.4950666   0.5631455   0.5989300  )
         7           Cd  tau(   7) = (   0.4950671   0.2858265   0.1996433  )
         8           Cd  tau(   8) = (  -0.0000005   0.5716539   0.5989300  )

     number of k points=    64  gaussian smearing, width (Ry)=  0.1000
                       cart. coord. in units 2pi/alat
        k(    1) = (   0.0000000   0.0000000   0.0000000), wk =   0.0095238
        k(    2) = (   0.0000000   0.0000000   0.1788905), wk =   0.0190476
        k(    3) = (   0.0000000   0.0000000   0.3577809), wk =   0.0190476
        k(    4) = (   0.0000000   0.0000000   0.5366714), wk =   0.0190476
        k(    5) = (   0.0000000   0.1943679   0.0000000), wk =   0.0190476
        k(    6) = (   0.0000000   0.1943679   0.1788905), wk =   0.0380952
        k(    7) = (   0.0000000   0.1943679   0.3577809), wk =   0.0380952
        k(    8) = (   0.0000000   0.1943679   0.5366714), wk =   0.0380952
        k(    9) = (   0.0000000   0.3887358   0.0000000), wk =   0.0190476
        k(   10) = (   0.0000000   0.3887358   0.1788905), wk =   0.0380952
        k(   11) = (   0.0000000   0.3887358   0.3577809), wk =   0.0380952
        k(   12) = (   0.0000000   0.3887358   0.5366714), wk =   0.0380952
        k(   13) = (   0.0000000  -0.5831037   0.0000000), wk =   0.0095238
        k(   14) = (   0.0000000  -0.5831037   0.1788905), wk =   0.0190476
        k(   15) = (   0.0000000  -0.5831037   0.3577809), wk =   0.0190476
        k(   16) = (   0.0000000  -0.5831037   0.5366714), wk =   0.0190476
        k(   17) = (   0.2019930   0.1166207   0.0000000), wk =   0.0190476
        k(   18) = (   0.2019930   0.1166207   0.1788905), wk =   0.0380952
        k(   19) = (   0.2019930   0.1166207   0.3577809), wk =   0.0380952
        k(   20) = (   0.2019930   0.1166207   0.5366714), wk =   0.0380952
        k(   21) = (   0.2019930   0.3109886   0.0000000), wk =   0.0190476
        k(   22) = (   0.2019930   0.3109886   0.1788905), wk =   0.0380952
        k(   23) = (   0.2019930   0.3109886   0.3577809), wk =   0.0380952
        k(   24) = (   0.2019930   0.3109886   0.5366714), wk =   0.0380952
        k(   25) = (   0.2019930   0.5053565   0.0000000), wk =   0.0190476
        k(   26) = (   0.2019930   0.5053565   0.1788905), wk =   0.0380952
        k(   27) = (   0.2019930   0.5053565   0.3577809), wk =   0.0380952
        k(   28) = (   0.2019930   0.5053565   0.5366714), wk =   0.0380952
        k(   29) = (   0.2019930  -0.4664829   0.0000000), wk =   0.0190476
        k(   30) = (   0.2019930  -0.4664829   0.1788905), wk =   0.0380952
        k(   31) = (   0.2019930  -0.4664829   0.3577809), wk =   0.0380952
        k(   32) = (   0.2019930  -0.4664829   0.5366714), wk =   0.0380952
        k(   33) = (   0.2019930  -0.2721151   0.0000000), wk =   0.0190476
        k(   34) = (   0.2019930  -0.2721151   0.1788905), wk =   0.0380952
        k(   35) = (   0.2019930  -0.2721151   0.3577809), wk =   0.0380952
        k(   36) = (   0.2019930  -0.2721151   0.5366714), wk =   0.0380952
        k(   37) = (   0.2019930  -0.0777472   0.0000000), wk =   0.0190476
        k(   38) = (   0.2019930  -0.0777472   0.1788905), wk =   0.0380952
        k(   39) = (   0.2019930  -0.0777472   0.3577809), wk =   0.0380952
        k(   40) = (   0.2019930  -0.0777472   0.5366714), wk =   0.0380952
        k(   41) = (   0.4039861   0.2332415   0.0000000), wk =   0.0190476
        k(   42) = (   0.4039861   0.2332415   0.1788905), wk =   0.0380952
        k(   43) = (   0.4039861   0.2332415   0.3577809), wk =   0.0380952
        k(   44) = (   0.4039861   0.2332415   0.5366714), wk =   0.0380952
        k(   45) = (   0.4039861   0.4276094   0.0000000), wk =   0.0190476
        k(   46) = (   0.4039861   0.4276094   0.1788905), wk =   0.0380952
        k(   47) = (   0.4039861   0.4276094   0.3577809), wk =   0.0380952
        k(   48) = (   0.4039861   0.4276094   0.5366714), wk =   0.0380952
        k(   49) = (   0.4039861   0.6219773   0.0000000), wk =   0.0190476
        k(   50) = (   0.4039861   0.6219773   0.1788905), wk =   0.0380952
        k(   51) = (   0.4039861   0.6219773   0.3577809), wk =   0.0380952
        k(   52) = (   0.4039861   0.6219773   0.5366714), wk =   0.0380952
        k(   53) = (   0.4039861  -0.3498622   0.0000000), wk =   0.0190476
        k(   54) = (   0.4039861  -0.3498622   0.1788905), wk =   0.0380952
        k(   55) = (   0.4039861  -0.3498622   0.3577809), wk =   0.0380952
        k(   56) = (   0.4039861  -0.3498622   0.5366714), wk =   0.0380952
        k(   57) = (   0.4039861  -0.1554943   0.0000000), wk =   0.0190476
        k(   58) = (   0.4039861  -0.1554943   0.1788905), wk =   0.0380952
        k(   59) = (   0.4039861  -0.1554943   0.3577809), wk =   0.0380952
        k(   60) = (   0.4039861  -0.1554943   0.5366714), wk =   0.0380952
        k(   61) = (   0.4039861   0.0388736   0.0000000), wk =   0.0190476
        k(   62) = (   0.4039861   0.0388736   0.1788905), wk =   0.0380952
        k(   63) = (   0.4039861   0.0388736   0.3577809), wk =   0.0380952
        k(   64) = (   0.4039861   0.0388736   0.5366714), wk =   0.0380952

     Largest allocated arrays     est. size (Mb)     dimensions
     Largest temporary arrays     est. size (Mb)     dimensions

     Initial potential from superposition of free atoms

     Starting from uniform charge
     Starting wfc are    0 randomized atomic wfcs

     Writing output data file Prototype-La-hP8-Mg3Cd.save

     Self-consistent Calculation

[...]

     iteration # 12     ecut=    40.00 Ry     beta=0.70
     CG style diagonalization
     c_bands:  1 eigenvalues not converged
     c_bands:  1 eigenvalues not converged
     ethr =  5.28E-07,  avg # of iterations =  4.2

[...]

     total energy              =   -2612.00802217 Ry
     Harris-Foulkes estimate   =   -2612.00803596 Ry
     estimated scf accuracy    <       0.00002661 Ry

     iteration # 14     ecut=    40.00 Ry     beta=0.70
     CG style diagonalization
     ethr =  1.58E-08,  avg # of iterations =  4.0

     End of self-consistent calculation

[...]

          k = 0.4040 0.0389 0.5367 (  5028 PWs)   bands (ev):

   -97.8008 -97.7956 -97.7872 -97.7849 -97.7688 -97.7628 -56.6049 -56.6028
   -56.5910 -56.5891 -56.5879 -56.5870 -56.5812 -56.5792 -56.5749 -56.5716
   -56.5683 -56.5666 -56.5590 -56.5557 -56.5542 -56.5533 -56.5516 -56.5507
   -11.6268 -11.6246   1.0236   1.0307   1.0939   1.1072   1.1596   1.1733
     1.1895   1.2019   1.2578   1.2718   1.3306   1.3385   1.3905   1.3985
     1.4327   1.4373   1.4571   1.5297   1.5379   1.5462   1.5893   1.6183
     1.6236   1.6303   1.6775   1.6933   1.7826   1.7958   1.8358   1.8728
     5.7765   5.7963   6.0997   6.1930   6.3076   6.3387  12.4153  13.2404
    14.0630  14.4429  15.1680  15.5216  18.7879  19.2901  19.4204  19.8269
    21.1419  21.2190  22.4863  22.9827  23.3423  23.4663  24.7420  25.0905
    25.3054  25.6103  26.0618  26.1456  26.6782  26.9373  27.7935  28.2095
    28.7976  28.9693  29.1986  29.4230  29.6135  29.9188  30.6538  30.9421
    31.0728  31.4896  31.6214  32.1569  32.6258

     the Fermi energy is    26.6385 ev

!    total energy              =   -2612.00803056 Ry
     Harris-Foulkes estimate   =   -2612.00803280 Ry
     estimated scf accuracy    <       0.00000260 Ry

     The total energy is the sum of the following terms:

     one-electron contribution =    -933.26974753 Ry
     hartree contribution      =     524.91218147 Ry
     xc contribution           =    -211.92562161 Ry
     ewald contribution        =   -1991.37833723 Ry
     smearing contrib. (-TS)   =      -0.34650565 Ry

     convergence has been achieved in  14 iterations

     Forces acting on atoms (Ry/au):

     atom    1 type  1   force =     0.01156536    0.00667726    0.00000000
     atom    2 type  1   force =     0.01156536   -0.00667726    0.00000000
     atom    3 type  1   force =    -0.01156536   -0.00667726    0.00000000
     atom    4 type  1   force =    -0.01156536    0.00667726    0.00000000
     atom    5 type  1   force =     0.00000000   -0.01335452    0.00000000
     atom    6 type  1   force =     0.00000000    0.01335452    0.00000000
     atom    7 type  2   force =     0.00000000    0.00000000    0.00000000
     atom    8 type  2   force =     0.00000000    0.00000000    0.00000000

     Total force =     0.032712     Total SCF correction =     0.000000

     entering subroutine stress ...

          total   stress  (Ry/bohr**3)                   (kbar)     P=   -7.21
  -0.00015108   0.00000000   0.00000000        -22.23      0.00      0.00
   0.00000000  -0.00015108   0.00000000          0.00    -22.23      0.00
   0.00000000   0.00000000   0.00015514          0.00      0.00     22.82

     Writing output data file Prototype-La-hP8-Mg3Cd.save

     General routines

     Parallel routines

   This run was terminated on:  13:16:38  22Mar2018

   JOB DONE.