     Program PWSCF v.5.0.2 starts on 22Mar2018 at 12: 4:18

     Current dimensions of program PWSCF are:
     Max number of different atomic species (ntypx) = 10
     Max number of k-points (npk) =  40000
     Max angular momentum in pseudopotentials (lmaxx) =  3
     Waiting for input...
     Reading input from standard input

     Subspace diagonalization in iterative solution of the eigenvalue problem:
     a serial algorithm will be used

     bravais-lattice index     =            0
     lattice parameter (alat)  =       8.8008  a.u.
     unit-cell volume          =    1116.9454 (a.u.)^3
     number of atoms/cell      =           16
     number of atomic types    =            2
     number of electrons       =       336.00
     number of Kohn-Sham states=          202
     kinetic-energy cutoff     =      40.0000  Ry
     charge density cutoff     =     160.0000  Ry
     convergence threshold     =      1.0E-04
     mixing beta               =       0.7000
     number of iterations used =            8  plain     mixing
     Exchange-correlation      = SLA-PZ-NOGX-NOGC ( 1 1 0 0 0)
     EXX-fraction              =        0.00
     nstep                     =           50

     celldm(1)=   8.800765  celldm(2)=   0.000000  celldm(3)=   0.000000
     celldm(4)=   0.000000  celldm(5)=   0.000000  celldm(6)=   0.000000

     crystal axes: (cart. coord. in units of alat)
               a(1) = (   1.000000   0.000000   0.000000 )
               a(2) = (   0.000000   1.083771   0.000000 )
               a(3) = (   0.000000   0.000000   1.511935 )

     reciprocal axes: (cart. coord. in units 2 pi/alat)
               b(1) = (  1.000000  0.000000  0.000000 )
               b(2) = (  0.000000  0.922704  0.000000 )
               b(3) = (  0.000000  0.000000  0.661404 )

     PseudoPot. # 1 for Yb read from file:
     /home/jld5415/pp.La/Yb.UPF
     MD5 check sum: 3e859b81cc28c53ec6aa3a2e888efcdf
     Pseudo is Norm-conserving, Zval = 24.0
     Generated in analytical, separable form
     Using radial grid of 1269 points,  6 beta functions with:
                l(1) =   0
                l(2) =   0
                l(3) =   1
                l(4) =   1
                l(5) =   2
                l(6) =   3

     PseudoPot. # 2 for Ce read from file:
     /home/jld5415/pp.La/Ce.UPF
     MD5 check sum: 44451aa79a44a00cf2bc029dc19922f6
     Pseudo is Norm-conserving, Zval = 12.0
     Generated in analytical, separable form
     Using radial grid of 1255 points,  6 beta functions with:
                l(1) =   0
                l(2) =   0
                l(3) =   1
                l(4) =   1
                l(5) =   2
                l(6) =   3

     atomic species   valence    mass     pseudopotential
        Fe            24.00    55.84500     Yb( 1.00)
        C             12.00    12.01070     Ce( 1.00)

      8 Sym. Ops., with inversion, found ( 6 have fractional translation)

   Cartesian axes

     site n.     atom                  positions (alat units)
         1           Fe  tau(   1) = (   0.3472940   0.1827628   1.3947267  )
         2           Fe  tau(   2) = (   0.1527060   0.7246484   0.8731757  )
         3           Fe  tau(   3) = (   0.8472940   0.3591227   0.6387592  )
         4           Fe  tau(   4) = (   0.3396640   0.4879235   0.3779837  )
         5           Fe  tau(   5) = (   0.1527060   0.7246484   1.3947267  )
         6           Fe  tau(   6) = (   0.3472940   0.1827628   0.8731757  )
         7           Fe  tau(   7) = (   0.1603360   1.0298091   0.3779837  )
         8           Fe  tau(   8) = (   0.6527060   0.9010083   0.6387592  )
         9           Fe  tau(   9) = (   0.8472940   0.3591227   0.1172082  )
        10           Fe  tau(  10) = (   0.6603360   0.5958476   1.1339512  )
        11           Fe  tau(  11) = (   0.6527060   0.9010083   0.1172082  )
        12           Fe  tau(  12) = (   0.8396640   0.0539620   1.1339512  )
        13           C   tau(  13) = (   0.0000000   0.0000000   0.0000000  )
        14           C   tau(  14) = (   0.5000000   0.5418856   0.0000000  )
        15           C   tau(  15) = (   0.5000000   0.5418856   0.7559674  )
        16           C   tau(  16) = (   0.0000000   0.0000000   0.7559674  )

     number of k points=    12  gaussian smearing, width (Ry)=  0.1000
                       cart. coord. in units 2pi/alat
        k(    1) = (   0.0000000   0.0000000   0.0000000), wk =   0.0833333
        k(    2) = (   0.0000000   0.0000000   0.1653510), wk =   0.1666667
        k(    3) = (   0.0000000   0.0000000  -0.3307021), wk =   0.0833333
        k(    4) = (   0.0000000   0.3075680   0.0000000), wk =   0.1666667
        k(    5) = (   0.0000000   0.3075680   0.1653510), wk =   0.3333333
        k(    6) = (   0.0000000   0.3075680  -0.3307021), wk =   0.1666667
        k(    7) = (  -0.5000000   0.0000000   0.0000000), wk =   0.0833333
        k(    8) = (  -0.5000000   0.0000000   0.1653510), wk =   0.1666667
        k(    9) = (  -0.5000000   0.0000000  -0.3307021), wk =   0.0833333
        k(   10) = (  -0.5000000   0.3075680   0.0000000), wk =   0.1666667
        k(   11) = (  -0.5000000   0.3075680   0.1653510), wk =   0.3333333
        k(   12) = (  -0.5000000   0.3075680  -0.3307021), wk =   0.1666667

     Largest allocated arrays     est. size (Mb)     dimensions
     Largest temporary arrays     est. size (Mb)     dimensions

     Initial potential from superposition of free atoms

     Starting from uniform charge
     Starting wfc are    0 randomized atomic wfcs

     Self-consistent Calculation

     iteration #  1     ecut=    40.00 Ry     beta=0.70
     CG style diagonalization
     c_bands:  1 eigenvalues not converged
     c_bands:  2 eigenvalues not converged
     c_bands:  1 eigenvalues not converged
     c_bands:  3 eigenvalues not converged
     c_bands:  3 eigenvalues not converged
     c_bands:  3 eigenvalues not converged
     c_bands:  2 eigenvalues not converged
     ethr =  1.00E-02,  avg # of iterations = 21.3

     total energy              =   -4454.24404469 Ry
     Harris-Foulkes estimate   =   -6249.75594812 Ry
     estimated scf accuracy    <    2228.67276274 Ry

[...]

     iteration #  4     ecut=    40.00 Ry     beta=0.70
     CG style diagonalization
     ethr =  1.00E-02,  avg # of iterations =  5.2

[...]

     End of self-consistent calculation

          k = 0.0000 0.0000 0.0000 (  4785 PWs)   bands (ev):

   -70.2782 -70.2713 -70.2562 -70.2427 -70.2330 -70.2192 -70.2066 -70.2038
   -70.0214 -70.0181 -70.0088 -69.9833 -30.5284 -30.4784 -30.3353 -30.3018
   -30.2925 -30.2689 -30.0868 -30.0807 -30.0350 -30.0349 -30.0101 -29.9073
   -29.2672 -29.2576 -29.2521 -29.2428 -29.1555 -29.0924 -29.0788 -29.0764
   -29.0332 -29.0306 -28.9156 -28.8797 -28.8454 -28.8375 -28.8359 -28.7969
   -28.7900 -28.7526 -28.6828 -28.6801 -28.6525 -28.6513 -28.5054 -28.4990
     7.6021   8.2128   8.8236   9.5121  18.8262  18.9390  19.0248  19.4951
    19.8957  20.0403  21.3292  21.3551  21.8534  22.4969  23.0862  23.1938
    24.1704  24.2499  24.6978  24.7954  24.9458  25.1088  25.2696  25.6096
    25.7270  25.7399  25.9261  25.9780  26.0575  26.1630  26.2912  26.3702
    26.4621  26.5004  26.5473  26.6138  26.8200  26.8223  27.0364  27.2500
    27.3600  27.4281  27.6656  27.7066  27.8364  27.8491  27.9436  28.2199
    28.2561  28.3666  28.5341  28.5983  28.7810  28.8267  28.8783  28.9028
    28.9101  28.9417  28.9878  29.7334  29.7855  30.0248  30.2533  30.4155
    30.8188  31.4104  32.3293  32.6923  32.7415  34.3373  35.3667  36.1999
    37.3865  37.4377  38.0061  38.4125  38.4561  38.6079  40.5483  41.4111
    41.4449  41.8575  42.4508  42.5542  43.2651  44.1031  44.1749  45.0333
    46.0162  47.5176  47.5398  47.6740  48.0316  48.6281  49.3728  49.4345
    50.1372  50.8109  51.1968  51.4044  51.4597  51.7589  52.0043  52.1873
    52.3286  52.4379  52.7539  52.7998  53.1045  53.2928  53.4682  53.9655
    54.1417  54.9641  55.0360  55.1898  55.2828  55.4221  56.1043  56.4645
    56.5350  56.5355  57.0414  57.2043  57.7515  58.0942  58.1609  58.3537
    58.4287  59.1652  59.2092  59.6033  59.6100  59.6708  59.8987  59.9838
    60.1106  61.1798  61.1831  61.2231  61.4105  61.4259  61.4294  61.4348
    61.7193  62.0532  62.4436  62.5251  62.8184  62.8716  62.9969  63.5119
    63.7198  63.9543

[...]

          k =-0.5000 0.0000 0.0000 (  4798 PWs)   bands (ev):

[...]

     the Fermi energy is    56.4390 ev

!    total energy              =   -5176.97779116 Ry
     Harris-Foulkes estimate   =   -5176.97785807 Ry
     estimated scf accuracy    <       0.00009057 Ry

     The total energy is the sum of the following terms:

     one-electron contribution =    -392.79838614 Ry
     hartree contribution      =     662.96865727 Ry
     xc contribution           =    -455.93552443 Ry
     ewald contribution        =   -4990.72226122 Ry
     smearing contrib. (-TS)   =      -0.49027666 Ry

     convergence has been achieved in   9 iterations

     Forces acting on atoms (Ry/au):

     atom    1 type  1   force =     0.89993202   -1.04548202   -1.36673564
     atom    2 type  1   force =    -0.89993202   -1.04548202    1.36673564
     atom    3 type  1   force =     0.89993202    1.04548202   -1.36673564
     atom    4 type  1   force =    -1.62732277   -0.65441984    0.00000000
     atom    5 type  1   force =    -0.89993202   -1.04548202   -1.36673564
     atom    6 type  1   force =     0.89993202   -1.04548202    1.36673564
     atom    7 type  1   force =     1.62732277   -0.65441984    0.00000000
     atom    8 type  1   force =    -0.89993202    1.04548202   -1.36673564
     atom    9 type  1   force =     0.89993202    1.04548202    1.36673564
     atom   10 type  1   force =     1.62732277    0.65441984    0.00000000
     atom   11 type  1   force =    -0.89993202    1.04548202    1.36673564
     atom   12 type  1   force =    -1.62732277    0.65441984    0.00000000
     atom   13 type  2   force =     0.00000000    0.00000000    0.00000000
     atom   14 type  2   force =     0.00000000    0.00000000    0.00000000
     atom   15 type  2   force =     0.00000000    0.00000000    0.00000000
     atom   16 type  2   force =     0.00000000    0.00000000    0.00000000

     Total force =     6.517115     Total SCF correction =     0.000000

     entering subroutine stress ...

          total   stress  (Ry/bohr**3)                   (kbar)     P=12067.36
   0.08240915   0.00000000   0.00000000      12122.80      0.00      0.00
   0.00000000   0.08238710   0.00000000          0.00  12119.56      0.00
   0.00000000   0.00000000   0.08130055          0.00      0.00  11959.72

     BFGS Geometry Optimization

     number of scf cycles    =   1
     number of bfgs steps    =   0

     enthalpy new            =   -5176.9777911638 Ry

     new trust radius        =       0.5000000000 bohr
     new conv_thr            =       0.0001000000 Ry

     new unit-cell volume =   1385.49419 a.u.^3 (   205.30905 Ang^3 )

CELL_PARAMETERS (alat=  8.80076499)
   1.074803866   0.000000000   0.000000000
   0.000000000   1.164819720   0.000000000
   0.000000000   0.000000000   1.623511998

ATOMIC_POSITIONS (crystal)
Fe       0.351006769   0.164656146   0.918748595
Fe       0.148993231   0.664656146   0.581251405
Fe       0.851006769   0.335343854   0.418748595
Fe       0.332950301   0.447717809   0.250000000
Fe       0.148993231   0.664656146   0.918748595
Fe       0.351006769   0.164656146   0.581251405
Fe       0.167049699   0.947717809   0.250000000
Fe       0.648993231   0.835343854   0.418748595
Fe       0.851006769   0.335343854   0.081251405
Fe       0.667049699   0.552282191   0.750000000
Fe       0.648993231   0.835343854   0.081251405
Fe       0.832950301   0.052282191   0.750000000
C        0.000000000   0.000000000   0.000000000
C        0.500000000   0.500000000   0.000000000
C        0.500000000   0.500000000   0.500000000
C        0.000000000   0.000000000   0.500000000

     Writing output data file Prototype-La-oP16-Fe3C.save
     NEW-OLD atomic charge density approx. for the potential
     NEW k-points:
        k(    1) = (   0.0000000   0.0000000   0.0000000), wk =   0.0833333
        k(    2) = (   0.0000000   0.0000000   0.1539872), wk =   0.1666667
        k(    3) = (   0.0000000   0.0000000  -0.3079743), wk =   0.0833333
        k(    4) = (   0.0000000   0.2861673   0.0000000), wk =   0.1666667
        k(    5) = (   0.0000000   0.2861673   0.1539872), wk =   0.3333333
        k(    6) = (   0.0000000   0.2861673  -0.3079743), wk =   0.1666667
        k(    7) = (  -0.4652012   0.0000000   0.0000000), wk =   0.0833333
        k(    8) = (  -0.4652012   0.0000000   0.1539872), wk =   0.1666667
        k(    9) = (  -0.4652012   0.0000000  -0.3079743), wk =   0.0833333
        k(   10) = (  -0.4652012   0.2861673   0.0000000), wk =   0.1666667
        k(   11) = (  -0.4652012   0.2861673   0.1539872), wk =   0.3333333
        k(   12) = (  -0.4652012   0.2861673  -0.3079743), wk =   0.1666667

[...]

          total   stress  (Ry/bohr**3)                   (kbar)     P= 5453.78
   0.03763606   0.00000000   0.00000000       5536.45      0.00      0.00
   0.00000000   0.03628089   0.00000000          0.00   5337.10      0.00
   0.00000000   0.00000000   0.03730520          0.00      0.00   5487.78

[...]

     enthalpy old            =   -5176.9777911638 Ry
     enthalpy new            =   -5193.5328641430 Ry

     CASE: enthalpy_new < enthalpy_old

     small trust_radius: resetting bfgs history

     new trust radius        =       7.0044902897 bohr
     new conv_thr            =       0.0001000000 Ry

[...]

          total   stress  (Ry/bohr**3)                   (kbar)     P=-7565.44
  -0.05194763   0.00000000   0.00000000      -7641.76      0.00      0.00
   0.00000000  -0.05081724   0.00000000          0.00  -7475.47      0.00
   0.00000000   0.00000000  -0.05152165          0.00      0.00  -7579.09

     number of scf cycles    =   3
     number of bfgs steps    =   2

     enthalpy old            =   -5193.5328641430 Ry
     enthalpy new            =   -4837.3483554668 Ry

     CASE: enthalpy_new > enthalpy_old

     new trust radius        =       1.4769141606 bohr

     trust_radius < trust_radius_min

     resetting bfgs history

     Message from routine bfgs:
     history already reset at previous step: stopping
     new conv_thr            =       0.0001000000 Ry

     new unit-cell volume =   1591.68946 a.u.^3 (   235.86404 Ang^3 )

[...]

ATOMIC_POSITIONS (crystal)
Fe       0.352508864   0.163046532   0.917367785
Fe       0.147491136   0.663046532   0.582632215
Fe       0.852508864   0.336953468   0.417367785
Fe       0.330286010   0.446656772   0.250000000
Fe       0.147491136   0.663046532   0.917367785
Fe       0.352508864   0.163046532   0.582632215
Fe       0.169713990   0.946656772   0.250000000
Fe       0.647491136   0.836953468   0.417367785
Fe       0.852508864   0.336953468   0.082632215
Fe       0.669713990   0.553343228   0.750000000
Fe       0.647491136   0.836953468   0.082632215
Fe       0.830286010   0.053343228   0.750000000
C        0.000000000   0.000000000   0.000000000
C        0.500000000   0.500000000   0.000000000
C        0.500000000   0.500000000   0.500000000
C        0.000000000   0.000000000   0.500000000

     Writing output data file Prototype-La-oP16-Fe3C.save
     NEW-OLD atomic charge density approx. for the potential
     NEW k-points:
        k(    1) = (   0.0000000   0.0000000   0.0000000), wk =   0.0833333
        k(    2) = (   0.0000000   0.0000000   0.1469482), wk =   0.1666667
        k(    3) = (   0.0000000   0.0000000  -0.2938964), wk =   0.0833333
        k(    4) = (   0.0000000   0.2737502   0.0000000), wk =   0.1666667
        k(    5) = (   0.0000000   0.2737502   0.1469482), wk =   0.3333333
        k(    6) = (   0.0000000   0.2737502  -0.2938964), wk =   0.1666667
        k(    7) = (  -0.4435809   0.0000000   0.0000000), wk =   0.0833333
        k(    8) = (  -0.4435809   0.0000000   0.1469482), wk =   0.1666667
        k(    9) = (  -0.4435809   0.0000000  -0.2938964), wk =   0.0833333
        k(   10) = (  -0.4435809   0.2737502   0.0000000), wk =   0.1666667
        k(   11) = (  -0.4435809   0.2737502   0.1469482), wk =   0.3333333
        k(   12) = (  -0.4435809   0.2737502  -0.2938964), wk =   0.1666667

[...]

     The maximum number of steps has been reached.

     End of BFGS Geometry Optimization
Begin final coordinates
     new unit-cell volume =   1591.68946 a.u.^3 (   235.86404 Ang^3 )

CELL_PARAMETERS (alat=  8.80076499)
   1.127190005   0.000000000   0.000000000
   0.000000000   1.217655012   0.000000000
   0.000000000   0.000000000   1.701279536

ATOMIC_POSITIONS (crystal)
Fe       0.352508864   0.163046532   0.917367785
Fe       0.147491136   0.663046532   0.582632215
Fe       0.852508864   0.336953468   0.417367785
Fe       0.330286010   0.446656772   0.250000000
Fe       0.147491136   0.663046532   0.917367785
Fe       0.352508864   0.163046532   0.582632215
Fe       0.169713990   0.946656772   0.250000000
Fe       0.647491136   0.836953468   0.417367785
Fe       0.852508864   0.336953468   0.082632215
Fe       0.669713990   0.553343228   0.750000000
Fe       0.647491136   0.836953468   0.082632215
Fe       0.830286010   0.053343228   0.750000000
C        0.000000000   0.000000000   0.000000000
C        0.500000000   0.500000000   0.000000000
C        0.500000000   0.500000000   0.500000000
C        0.000000000   0.000000000   0.500000000
End final coordinates

     A final scf calculation at the relaxed structure.
     The G-vectors are recalculated for the final unit cell
     Results may differ from those at the preceding step.

     bravais-lattice index     =            0
     lattice parameter (alat)  =       8.8008  a.u.
     unit-cell volume          =    1591.6895 (a.u.)^3
     number of atoms/cell      =           16
     number of atomic types    =            2
     number of electrons       =       336.00
     number of Kohn-Sham states=          202
     kinetic-energy cutoff     =      40.0000  Ry
     charge density cutoff     =     160.0000  Ry
     convergence threshold     =      1.0E-04
     mixing beta               =       0.7000
     number of iterations used =            8  plain     mixing
     Exchange-correlation      = SLA-PZ-NOGX-NOGC ( 1 1 0 0 0)
     EXX-fraction              =        0.00

     celldm(1)=   8.800765  celldm(2)=   0.000000  celldm(3)=   0.000000
     celldm(4)=   0.000000  celldm(5)=   0.000000  celldm(6)=   0.000000

     crystal axes: (cart. coord. in units of alat)
               a(1) = (   1.127190   0.000000   0.000000 )
               a(2) = (   0.000000   1.217655   0.000000 )
               a(3) = (   0.000000   0.000000   1.701280 )

     reciprocal axes: (cart. coord. in units 2 pi/alat)
               b(1) = (  0.887162  0.000000  0.000000 )
               b(2) = (  0.000000  0.821251  0.000000 )
               b(3) = (  0.000000  0.000000  0.587793 )

     PseudoPot. # 1 for Yb read from file:
     /home/jld5415/pp.La/Yb.UPF
     MD5 check sum: 3e859b81cc28c53ec6aa3a2e888efcdf
     Pseudo is Norm-conserving, Zval = 24.0
     Generated in analytical, separable form
     Using radial grid of 1269 points,  6 beta functions with:
                l(1) =   0
                l(2) =   0
                l(3) =   1
                l(4) =   1
                l(5) =   2
                l(6) =   3

     PseudoPot. # 2 for Ce read from file:
     /home/jld5415/pp.La/Ce.UPF
     MD5 check sum: 44451aa79a44a00cf2bc029dc19922f6
     Pseudo is Norm-conserving, Zval = 12.0
     Generated in analytical, separable form
     Using radial grid of 1255 points,  6 beta functions with:
                l(1) =   0
                l(2) =   0
                l(3) =   1
                l(4) =   1
                l(5) =   2
                l(6) =   3

     atomic species   valence    mass     pseudopotential
        Fe            24.00    55.84500     Yb( 1.00)
        C             12.00    12.01070     Ce( 1.00)

      8 Sym. Ops., with inversion, found ( 6 have fractional translation)

   Cartesian axes

     site n.     atom                  positions (alat units)
         1           Fe  tau(   1) = (   0.3973445   0.1985344   1.5606990  )
         2           Fe  tau(   2) = (   0.1662505   0.8073619   0.9912203  )
         3           Fe  tau(   3) = (   0.9609395   0.4102931   0.7100593  )
         4           Fe  tau(   4) = (   0.3722951   0.5438739   0.4253199  )
         5           Fe  tau(   5) = (   0.1662505   0.8073619   1.5606990  )
         6           Fe  tau(   6) = (   0.3973445   0.1985344   0.9912203  )
         7           Fe  tau(   7) = (   0.1912999   1.1527014   0.4253199  )
         8           Fe  tau(   8) = (   0.7298455   1.0191206   0.7100593  )
         9           Fe  tau(   9) = (   0.9609395   0.4102931   0.1405805  )
        10           Fe  tau(  10) = (   0.7548949   0.6737812   1.2759597  )
        11           Fe  tau(  11) = (   0.7298455   1.0191206   0.1405805  )
        12           Fe  tau(  12) = (   0.9358901   0.0649536   1.2759597  )
        13           C   tau(  13) = (   0.0000000   0.0000000   0.0000000  )
        14           C   tau(  14) = (   0.5635950   0.6088275   0.0000000  )
        15           C   tau(  15) = (   0.5635950   0.6088275   0.8506398  )
        16           C   tau(  16) = (   0.0000000   0.0000000   0.8506398  )

     number of k points=    12  gaussian smearing, width (Ry)=  0.1000
                       cart. coord. in units 2pi/alat
        k(    1) = (   0.0000000   0.0000000   0.0000000), wk =   0.0833333
        k(    2) = (   0.0000000   0.0000000   0.1469482), wk =   0.1666667
        k(    3) = (   0.0000000   0.0000000  -0.2938964), wk =   0.0833333
        k(    4) = (   0.0000000   0.2737502   0.0000000), wk =   0.1666667
        k(    5) = (   0.0000000   0.2737502   0.1469482), wk =   0.3333333
        k(    6) = (   0.0000000   0.2737502  -0.2938964), wk =   0.1666667
        k(    7) = (  -0.4435809   0.0000000   0.0000000), wk =   0.0833333
        k(    8) = (  -0.4435809   0.0000000   0.1469482), wk =   0.1666667
        k(    9) = (  -0.4435809   0.0000000  -0.2938964), wk =   0.0833333
        k(   10) = (  -0.4435809   0.2737502   0.0000000), wk =   0.1666667
        k(   11) = (  -0.4435809   0.2737502   0.1469482), wk =   0.3333333
        k(   12) = (  -0.4435809   0.2737502  -0.2938964), wk =   0.1666667

     Largest allocated arrays     est. size (Mb)     dimensions
     Largest temporary arrays     est. size (Mb)     dimensions

     Initial potential from superposition of free atoms

     Starting from uniform charge
     Starting wfc are    0 randomized atomic wfcs

     Writing output data file Prototype-La-oP16-Fe3C.save

     Self-consistent Calculation

[...]

     iteration #  5     ecut=    40.00 Ry     beta=0.70
     CG style diagonalization
     ethr =  5.61E-03,  avg # of iterations =  3.5

[...]

     total energy              =   -5205.95369205 Ry
     Harris-Foulkes estimate   =   -5205.95384105 Ry
     estimated scf accuracy    <       0.00029642 Ry

     iteration # 11     ecut=    40.00 Ry     beta=0.70
     CG style diagonalization
     c_bands:  1 eigenvalues not converged
     c_bands:  1 eigenvalues not converged
     ethr =  8.82E-08,  avg # of iterations =  4.0

     End of self-consistent calculation

[...]

          k = 0.0000 0.2738-0.2939 (  6780 PWs)   bands (ev):

[...]

          k =-0.4436 0.2738-0.2939 (  6820 PWs)   bands (ev):

   -85.7134 -85.7134 -85.7107 -85.7107 -85.7022 -85.7022 -85.6879 -85.6879
   -85.5686 -85.5686 -85.5469 -85.5469 -44.9291 -44.9291 -44.9217 -44.9217
   -44.9143 -44.9143 -44.9036 -44.9036 -44.7673 -44.7673 -44.7629 -44.7629
   -44.5829 -44.5829 -44.5792 -44.5792 -44.5174 -44.5174 -44.5121 -44.5121
   -44.4551 -44.4551 -44.4501 -44.4501 -44.3815 -44.3815 -44.3748 -44.3748
   -44.3735 -44.3735 -44.3703 -44.3703 -44.2664 -44.2664 -44.2541 -44.2541
    -2.2499  -2.2499  -2.2482  -2.2482   9.2533   9.2533   9.2610   9.2610
     9.6516   9.6516   9.7033   9.7033  10.1848  10.1848  10.2318  10.2318
    11.8436  11.8436  11.8639  11.8639  12.0225  12.0225  12.0717  12.0717
    12.0966  12.0966  12.3691  12.3691  12.4964  12.4964  12.5461  12.5461
    12.5902  12.5902  12.7742  12.7742  12.7932  12.7932  12.9270  12.9270
    13.0043  13.0043  13.0218  13.0218  13.1837  13.1837  13.2570  13.2570
    13.4712  13.4712  13.5028  13.5028  13.6386  13.6386  13.6766  13.6766
    13.7991  13.7991  13.8339  13.8339  14.0092  14.0092  14.0348  14.0348
    16.6850  16.6850  16.7460  16.7460  17.7797  17.7797  18.0709  18.0709
    18.9460  18.9460  18.9653  18.9653  25.0992  25.0992  25.2116  25.2116
    27.2966  27.2966  27.5816  27.5816  28.8130  28.8130  29.3551  29.3551
    30.3965  30.3965  31.5107  31.5107  32.3822  32.3822  32.5304  32.5304
    33.2060  33.2060  34.2042  34.2042  35.0064  35.0064  35.1886  35.1886
    35.8752  35.8752  36.1809  36.1809  36.8295  36.8295  37.0344  37.0344
    37.9727  37.9727  38.1432  38.1432  39.2880  39.2880  39.6291  39.6291
    40.1330  40.1330  40.2727  40.2727  41.1062  41.1062  41.4119  41.4119
    41.8196  41.8196  42.0013  42.0014  43.3753  43.3754  43.4198  43.4199
    44.1732  44.1733  44.7485  44.7485  44.9046  44.9047  45.2074  45.2074
    45.5075  45.5076  45.6653  45.6653  46.2036  46.2040  46.4903  46.4904
    46.9007  46.9469

     the Fermi energy is    39.6982 ev

!    total energy              =   -5205.95378935 Ry
     Harris-Foulkes estimate   =   -5205.95381726 Ry
     estimated scf accuracy    <       0.00003113 Ry

     The total energy is the sum of the following terms:

     one-electron contribution =   -1173.07695639 Ry
     hartree contribution      =     857.90564097 Ry
     xc contribution           =    -439.14139422 Ry
     ewald contribution        =   -4451.11382750 Ry
     smearing contrib. (-TS)   =      -0.52725222 Ry

     convergence has been achieved in  11 iterations

     Forces acting on atoms (Ry/au):

     atom    1 type  1   force =     0.38863497   -0.44157844   -0.51927023
     atom    2 type  1   force =    -0.38863497   -0.44157844    0.51927023
     atom    3 type  1   force =     0.38863497    0.44157844   -0.51927023
     atom    4 type  1   force =    -0.70221268   -0.27816776    0.00000000
     atom    5 type  1   force =    -0.38863497   -0.44157844   -0.51927023
     atom    6 type  1   force =     0.38863497   -0.44157844    0.51927023
     atom    7 type  1   force =     0.70221268   -0.27816776    0.00000000
     atom    8 type  1   force =    -0.38863497    0.44157844   -0.51927023
     atom    9 type  1   force =     0.38863497    0.44157844    0.51927023
     atom   10 type  1   force =     0.70221268    0.27816776    0.00000000
     atom   11 type  1   force =    -0.38863497    0.44157844    0.51927023
     atom   12 type  1   force =    -0.70221268    0.27816776    0.00000000
     atom   13 type  2   force =     0.00000000    0.00000000    0.00000000
     atom   14 type  2   force =     0.00000000    0.00000000    0.00000000
     atom   15 type  2   force =     0.00000000    0.00000000    0.00000000
     atom   16 type  2   force =     0.00000000    0.00000000    0.00000000

     Total force =     2.684638     Total SCF correction =     0.000000

     entering subroutine stress ...

          total   stress  (Ry/bohr**3)                   (kbar)     P= 3678.54
   0.02557857   0.00000000   0.00000000       3762.74      0.00      0.00
   0.00000000   0.02427654   0.00000000          0.00   3571.20      0.00
   0.00000000   0.00000000   0.02516356          0.00      0.00   3701.69

     Writing output data file Prototype-La-oP16-Fe3C.save

     General routines

     Parallel routines

   This run was terminated on:  13:39: 6  22Mar2018

   JOB DONE.