     Program PWSCF v.5.0.2 starts on 22Mar2018 at 22:47:22

     Current dimensions of program PWSCF are:
     Max number of different atomic species (ntypx) = 10
     Max number of k-points (npk) =  40000
     Max angular momentum in pseudopotentials (lmaxx) =  3
     Waiting for input...
     Reading input from standard input

     Subspace diagonalization in iterative solution of the eigenvalue problem:
     a serial algorithm will be used

     bravais-lattice index     =            0
     lattice parameter (alat)  =       8.5346  a.u.
     unit-cell volume          =     621.6493 (a.u.)^3
     number of atoms/cell      =            8
     number of atomic types    =            2
     number of electrons       =       142.00
     number of Kohn-Sham states=           85
     kinetic-energy cutoff     =      40.0000  Ry
     charge density cutoff     =     160.0000  Ry
     convergence threshold     =      1.0E-04
     mixing beta               =       0.7000
     number of iterations used =            8  plain     mixing
     Exchange-correlation      = SLA-PZ-NOGX-NOGC ( 1 1 0 0 0)
     EXX-fraction              =        0.00
     nstep                     =           50

     celldm(1)=   8.534573  celldm(2)=   0.000000  celldm(3)=   0.000000
     celldm(4)=   0.000000  celldm(5)=   0.000000  celldm(6)=   0.000000

     crystal axes: (cart. coord. in units of alat)
               a(1) = (   1.000000   0.000000   0.000000 )
               a(2) = (   0.000000   1.000000   0.000000 )
               a(3) = (   0.000000   0.000000   1.000000 )

     reciprocal axes: (cart. coord. in units 2 pi/alat)
               b(1) = (  1.000000  0.000000  0.000000 )
               b(2) = (  0.000000  1.000000  0.000000 )
               b(3) = (  0.000000  0.000000  1.000000 )

     PseudoPot. # 1 for Gd read from file:
     /home/cwx6513/pp.La/Gd.UPF
     MD5 check sum: 09a8be538722f05520810cb6aac0efd2
     Pseudo is Norm-conserving, Zval = 18.0
     Generated in analytical, separable form
     Using radial grid of 1263 points,  6 beta functions with:
                l(1) =   0
                l(2) =   0
                l(3) =   1
                l(4) =   1
                l(5) =   2
                l(6) =   3

     PseudoPot. # 2 for Eu read from file:
     /home/cwx6513/pp.La/Eu.UPF
     MD5 check sum: 5efdbbfc50c6a10138933a6429836ad2
     Pseudo is Norm-conserving, Zval = 17.0
     Generated in analytical, separable form
     Using radial grid of 1261 points,  6 beta functions with:
                l(1) =   0
                l(2) =   0
                l(3) =   1
                l(4) =   1
                l(5) =   2
                l(6) =   3

     atomic species   valence    mass     pseudopotential
        Cr            18.00    51.99610     Gd( 1.00)
        Si            17.00    28.08550     Eu( 1.00)

     48 Sym. Ops., with inversion, found (24 have fractional translation)

   Cartesian axes

     site n.     atom                  positions (alat units)
         1           Cr  tau(   1) = (   0.0000000   0.5000000   0.2500000  )
         2           Cr  tau(   2) = (   0.0000000   0.5000000   0.7500000  )
         3           Cr  tau(   3) = (   0.5000000   0.7500000   0.0000000  )
         4           Cr  tau(   4) = (   0.5000000   0.2500000   0.0000000  )
         5           Cr  tau(   5) = (   0.7500000   0.0000000   0.5000000  )
         6           Cr  tau(   6) = (   0.2500000   0.0000000   0.5000000  )
         7           Si  tau(   7) = (   0.5000000   0.5000000   0.5000000  )
         8           Si  tau(   8) = (   0.0000000   0.0000000   0.0000000  )

     number of k points=    48  gaussian smearing, width (Ry)=  0.1000
                       cart. coord. in units 2pi/alat
        k(    1) = (   0.0000000   0.0000000   0.0000000), wk =   0.0095238
        k(    2) = (   0.0000000   0.0000000   0.1428571), wk =   0.0190476
        k(    3) = (   0.0000000   0.0000000   0.2857143), wk =   0.0190476
        k(    4) = (   0.0000000   0.0000000   0.4285714), wk =   0.0190476
        k(    5) = (   0.0000000   0.1666667   0.0000000), wk =   0.0190476
        k(    6) = (   0.0000000   0.1666667   0.1428571), wk =   0.0380952
        k(    7) = (   0.0000000   0.1666667   0.2857143), wk =   0.0380952
        k(    8) = (   0.0000000   0.1666667   0.4285714), wk =   0.0380952
        k(    9) = (   0.0000000   0.3333333   0.0000000), wk =   0.0190476
        k(   10) = (   0.0000000   0.3333333   0.1428571), wk =   0.0380952
        k(   11) = (   0.0000000   0.3333333   0.2857143), wk =   0.0380952
        k(   12) = (   0.0000000   0.3333333   0.4285714), wk =   0.0380952
        k(   13) = (   0.0000000  -0.5000000   0.0000000), wk =   0.0095238
        k(   14) = (   0.0000000  -0.5000000   0.1428571), wk =   0.0190476
        k(   15) = (   0.0000000  -0.5000000   0.2857143), wk =   0.0190476
        k(   16) = (   0.0000000  -0.5000000   0.4285714), wk =   0.0190476
        k(   17) = (   0.2000000   0.0000000   0.0000000), wk =   0.0190476
        k(   18) = (   0.2000000   0.0000000   0.1428571), wk =   0.0380952
        k(   19) = (   0.2000000   0.0000000   0.2857143), wk =   0.0380952
        k(   20) = (   0.2000000   0.0000000   0.4285714), wk =   0.0380952
        k(   21) = (   0.2000000   0.1666667   0.0000000), wk =   0.0380952
        k(   22) = (   0.2000000   0.1666667   0.1428571), wk =   0.0761905
        k(   23) = (   0.2000000   0.1666667   0.2857143), wk =   0.0761905
        k(   24) = (   0.2000000   0.1666667   0.4285714), wk =   0.0761905
        k(   25) = (   0.2000000   0.3333333   0.0000000), wk =   0.0380952
        k(   26) = (   0.2000000   0.3333333   0.1428571), wk =   0.0761905
        k(   27) = (   0.2000000   0.3333333   0.2857143), wk =   0.0761905
        k(   28) = (   0.2000000   0.3333333   0.4285714), wk =   0.0761905
        k(   29) = (   0.2000000  -0.5000000   0.0000000), wk =   0.0190476
        k(   30) = (   0.2000000  -0.5000000   0.1428571), wk =   0.0380952
        k(   31) = (   0.2000000  -0.5000000   0.2857143), wk =   0.0380952
        k(   32) = (   0.2000000  -0.5000000   0.4285714), wk =   0.0380952
        k(   33) = (   0.4000000   0.0000000   0.0000000), wk =   0.0190476
        k(   34) = (   0.4000000   0.0000000   0.1428571), wk =   0.0380952
        k(   35) = (   0.4000000   0.0000000   0.2857143), wk =   0.0380952
        k(   36) = (   0.4000000   0.0000000   0.4285714), wk =   0.0380952
        k(   37) = (   0.4000000   0.1666667   0.0000000), wk =   0.0380952
        k(   38) = (   0.4000000   0.1666667   0.1428571), wk =   0.0761905
        k(   39) = (   0.4000000   0.1666667   0.2857143), wk =   0.0761905
        k(   40) = (   0.4000000   0.1666667   0.4285714), wk =   0.0761905
        k(   41) = (   0.4000000   0.3333333   0.0000000), wk =   0.0380952
        k(   42) = (   0.4000000   0.3333333   0.1428571), wk =   0.0761905
        k(   43) = (   0.4000000   0.3333333   0.2857143), wk =   0.0761905
        k(   44) = (   0.4000000   0.3333333   0.4285714), wk =   0.0761905
        k(   45) = (   0.4000000  -0.5000000   0.0000000), wk =   0.0190476
        k(   46) = (   0.4000000  -0.5000000   0.1428571), wk =   0.0380952
        k(   47) = (   0.4000000  -0.5000000   0.2857143), wk =   0.0380952
        k(   48) = (   0.4000000  -0.5000000   0.4285714), wk =   0.0380952

     Largest allocated arrays     est. size (Mb)     dimensions
     Largest temporary arrays     est. size (Mb)     dimensions

     Initial potential from superposition of free atoms

     Starting from uniform charge
     Starting wfc are    0 randomized atomic wfcs

     Self-consistent Calculation

     iteration #  1     ecut=    40.00 Ry     beta=0.70
     CG style diagonalization
     c_bands:  2 eigenvalues not converged
     c_bands:  1 eigenvalues not converged
     c_bands:  2 eigenvalues not converged
     c_bands:  1 eigenvalues not converged
     c_bands:  1 eigenvalues not converged
     c_bands:  2 eigenvalues not converged
     c_bands:  1 eigenvalues not converged
     c_bands:  2 eigenvalues not converged
     c_bands:  1 eigenvalues not converged
     c_bands:  2 eigenvalues not converged
     c_bands:  1 eigenvalues not converged
     c_bands:  1 eigenvalues not converged
     c_bands:  1 eigenvalues not converged
     c_bands:  1 eigenvalues not converged
     c_bands:  2 eigenvalues not converged
     c_bands:  1 eigenvalues not converged
     c_bands:  1 eigenvalues not converged
     c_bands:  1 eigenvalues not converged
     c_bands:  1 eigenvalues not converged
     c_bands:  1 eigenvalues not converged
     c_bands:  2 eigenvalues not converged
     c_bands:  1 eigenvalues not converged
     c_bands:  1 eigenvalues not converged
     c_bands:  1 eigenvalues not converged
     ethr =  1.00E-02,  avg # of iterations = 11.2

     total energy              =   -1482.49742942 Ry
     Harris-Foulkes estimate   =   -1696.60522465 Ry
     estimated scf accuracy    <     287.55326571 Ry

     iteration #  2     ecut=    40.00 Ry     beta=0.70
     CG style diagonalization
     ethr =  1.00E-02,  avg # of iterations =  6.6

[...]

     End of self-consistent calculation

          k = 0.0000 0.0000 0.0000 (  2601 PWs)   bands (ev):

   -26.5760 -26.1673 -26.1673 -25.1780 -25.1780 -25.1780 -19.7515 -19.6420
    -0.6999  -0.6999  -0.1003   1.3749   1.3749   1.3749   2.9296   2.9296
     2.9296   3.1870   3.1870   3.1870   3.6775   3.6775   3.6775   5.3863
     5.3863   5.3863   7.4371   7.4371   7.4371   7.5209   7.5209   7.5209
    31.3465  31.3465  31.6471  31.6471  31.6471  31.7969  33.4776  33.5863
    34.2282  34.2282  34.2282  34.9849  35.0823  35.0823  35.2776  35.2776
    35.2776  37.2539  37.2539  37.9016  37.9016  37.9016  39.8602  39.8602
    39.8602  40.4126  40.4126  40.4126  40.4870  40.4870  40.4870  41.8600
    41.8600  42.3917  42.3917  43.7903  43.7903  43.7903  46.1819  46.1819
    46.1819  49.8025  49.8025  49.8025  51.0806  51.3272  51.3272  51.3273
    53.1183  53.1183  53.1183  53.9959  53.9960

[...]

     the Fermi energy is    45.2292 ev

!    total energy              =   -1552.80290491 Ry
     Harris-Foulkes estimate   =   -1552.80292515 Ry
     estimated scf accuracy    <       0.00002181 Ry

     The total energy is the sum of the following terms:

     one-electron contribution =     212.64926647 Ry
     hartree contribution      =     102.80511743 Ry
     xc contribution           =    -165.33749070 Ry
     ewald contribution        =   -1702.63190694 Ry
     smearing contrib. (-TS)   =      -0.28789116 Ry

     convergence has been achieved in   8 iterations

     Forces acting on atoms (Ry/au):

     atom    1 type  1   force =     0.00000000    0.00000000    0.00000000
     atom    2 type  1   force =     0.00000000    0.00000000    0.00000000
     atom    3 type  1   force =     0.00000000    0.00000000    0.00000000
     atom    4 type  1   force =     0.00000000    0.00000000    0.00000000
     atom    5 type  1   force =     0.00000000    0.00000000    0.00000000
     atom    6 type  1   force =     0.00000000    0.00000000    0.00000000
[...]
        k(   48) = (   0.3635474  -0.4544343   0.3895151), wk =   0.0380952

[...]

     enthalpy old            =   -1552.8029049101 Ry
     enthalpy new            =   -1555.9588634929 Ry

     CASE: enthalpy_new < enthalpy_old

     small trust_radius: resetting bfgs history

     new trust radius        =       0.4939936401 bohr
     new conv_thr            =       0.0000010000 Ry

[...]

     number of scf cycles    =   3
     number of bfgs steps    =   2

     enthalpy old            =   -1555.9588634929 Ry
     enthalpy new            =   -1555.3661780404 Ry

     CASE: enthalpy_new > enthalpy_old

     new trust radius        =       0.1422314010 bohr

     trust_radius < trust_radius_min

     resetting bfgs history

     Message from routine bfgs:
     history already reset at previous step: stopping
     new conv_thr            =       0.0000010000 Ry

     new unit-cell volume =   1040.32211 a.u.^3 (   154.15983 Ang^3 )

[...]

ATOMIC_POSITIONS (crystal)
Cr       0.000000000   0.500000000   0.250000000
Cr       0.000000000   0.500000000   0.750000000
Cr       0.500000000   0.750000000   0.000000000
Cr       0.500000000   0.250000000   0.000000000
Cr       0.750000000   0.000000000   0.500000000
Cr       0.250000000   0.000000000   0.500000000
Si       0.500000000   0.500000000   0.500000000
Si       0.000000000   0.000000000   0.000000000

     Writing output data file Prototype-La-cP8-Cr3Si.save
     NEW-OLD atomic charge density approx. for the potential
     NEW k-points:
        k(    1) = (   0.0000000   0.0000000   0.0000000), wk =   0.0095238
        k(    2) = (   0.0000000   0.0000000   0.1203265), wk =   0.0190476
        k(    3) = (   0.0000000   0.0000000   0.2406529), wk =   0.0190476
        k(    4) = (   0.0000000   0.0000000   0.3609794), wk =   0.0190476
        k(    5) = (   0.0000000   0.1403809   0.0000000), wk =   0.0190476
        k(    6) = (   0.0000000   0.1403809   0.1203265), wk =   0.0380952
        k(    7) = (   0.0000000   0.1403809   0.2406529), wk =   0.0380952
        k(    8) = (   0.0000000   0.1403809   0.3609794), wk =   0.0380952
        k(    9) = (   0.0000000   0.2807618   0.0000000), wk =   0.0190476
        k(   10) = (   0.0000000   0.2807618   0.1203265), wk =   0.0380952
        k(   11) = (   0.0000000   0.2807618   0.2406529), wk =   0.0380952
        k(   12) = (   0.0000000   0.2807618   0.3609794), wk =   0.0380952
        k(   13) = (   0.0000000  -0.4211426   0.0000000), wk =   0.0095238
        k(   14) = (   0.0000000  -0.4211426   0.1203265), wk =   0.0190476
        k(   15) = (   0.0000000  -0.4211426   0.2406529), wk =   0.0190476
        k(   16) = (   0.0000000  -0.4211426   0.3609794), wk =   0.0190476
        k(   17) = (   0.1684571   0.0000000   0.0000000), wk =   0.0190476
        k(   18) = (   0.1684571   0.0000000   0.1203265), wk =   0.0380952
        k(   19) = (   0.1684571   0.0000000   0.2406529), wk =   0.0380952
        k(   20) = (   0.1684571   0.0000000   0.3609794), wk =   0.0380952
        k(   21) = (   0.1684571   0.1403809   0.0000000), wk =   0.0380952
        k(   22) = (   0.1684571   0.1403809   0.1203265), wk =   0.0761905
        k(   23) = (   0.1684571   0.1403809   0.2406529), wk =   0.0761905
        k(   24) = (   0.1684571   0.1403809   0.3609794), wk =   0.0761905
        k(   25) = (   0.1684571   0.2807618   0.0000000), wk =   0.0380952
        k(   26) = (   0.1684571   0.2807618   0.1203265), wk =   0.0761905
        k(   27) = (   0.1684571   0.2807618   0.2406529), wk =   0.0761905
        k(   28) = (   0.1684571   0.2807618   0.3609794), wk =   0.0761905
        k(   29) = (   0.1684571  -0.4211426   0.0000000), wk =   0.0190476
        k(   30) = (   0.1684571  -0.4211426   0.1203265), wk =   0.0380952
        k(   31) = (   0.1684571  -0.4211426   0.2406529), wk =   0.0380952
        k(   32) = (   0.1684571  -0.4211426   0.3609794), wk =   0.0380952
        k(   33) = (   0.3369141   0.0000000   0.0000000), wk =   0.0190476
        k(   34) = (   0.3369141   0.0000000   0.1203265), wk =   0.0380952
        k(   35) = (   0.3369141   0.0000000   0.2406529), wk =   0.0380952
        k(   36) = (   0.3369141   0.0000000   0.3609794), wk =   0.0380952
        k(   37) = (   0.3369141   0.1403809   0.0000000), wk =   0.0380952
        k(   38) = (   0.3369141   0.1403809   0.1203265), wk =   0.0761905
        k(   39) = (   0.3369141   0.1403809   0.2406529), wk =   0.0761905
        k(   40) = (   0.3369141   0.1403809   0.3609794), wk =   0.0761905
        k(   41) = (   0.3369141   0.2807618   0.0000000), wk =   0.0380952
        k(   42) = (   0.3369141   0.2807618   0.1203265), wk =   0.0761905
        k(   43) = (   0.3369141   0.2807618   0.2406529), wk =   0.0761905
        k(   44) = (   0.3369141   0.2807618   0.3609794), wk =   0.0761905
        k(   45) = (   0.3369141  -0.4211426   0.0000000), wk =   0.0190476
        k(   46) = (   0.3369141  -0.4211426   0.1203265), wk =   0.0380952
        k(   47) = (   0.3369141  -0.4211426   0.2406529), wk =   0.0380952
        k(   48) = (   0.3369141  -0.4211426   0.3609794), wk =   0.0380952

[...]

     The maximum number of steps has been reached.

     End of BFGS Geometry Optimization
Begin final coordinates
     new unit-cell volume =   1040.32211 a.u.^3 (   154.15983 Ang^3 )

CELL_PARAMETERS (alat=  8.53457320)
   1.187246236   0.000000000   0.000000000
   0.000000000   1.187246236   0.000000000
   0.000000000   0.000000000   1.187246236

ATOMIC_POSITIONS (crystal)
Cr       0.000000000   0.500000000   0.250000000
Cr       0.000000000   0.500000000   0.750000000
Cr       0.500000000   0.750000000   0.000000000
Cr       0.500000000   0.250000000   0.000000000
Cr       0.750000000   0.000000000   0.500000000
Cr       0.250000000   0.000000000   0.500000000
Si       0.500000000   0.500000000   0.500000000
Si       0.000000000   0.000000000   0.000000000
End final coordinates

     A final scf calculation at the relaxed structure.
     The G-vectors are recalculated for the final unit cell
     Results may differ from those at the preceding step.

     bravais-lattice index     =            0
     lattice parameter (alat)  =       8.5346  a.u.
     unit-cell volume          =    1040.3221 (a.u.)^3
     number of atoms/cell      =            8
     number of atomic types    =            2
     number of electrons       =       142.00
     number of Kohn-Sham states=           85
     kinetic-energy cutoff     =      40.0000  Ry
     charge density cutoff     =     160.0000  Ry
     convergence threshold     =      1.0E-06
     mixing beta               =       0.7000
     number of iterations used =            8  plain     mixing
     Exchange-correlation      = SLA-PZ-NOGX-NOGC ( 1 1 0 0 0)
     EXX-fraction              =        0.00

     celldm(1)=   8.534573  celldm(2)=   0.000000  celldm(3)=   0.000000
     celldm(4)=   0.000000  celldm(5)=   0.000000  celldm(6)=   0.000000

     crystal axes: (cart. coord. in units of alat)
               a(1) = (   1.187246   0.000000   0.000000 )
               a(2) = (   0.000000   1.187246   0.000000 )
               a(3) = (   0.000000   0.000000   1.187246 )

     reciprocal axes: (cart. coord. in units 2 pi/alat)
               b(1) = (  0.842285  0.000000  0.000000 )
               b(2) = (  0.000000  0.842285  0.000000 )
               b(3) = (  0.000000  0.000000  0.842285 )

     PseudoPot. # 1 for Gd read from file:
     /home/cwx6513/pp.La/Gd.UPF
     MD5 check sum: 09a8be538722f05520810cb6aac0efd2
     Pseudo is Norm-conserving, Zval = 18.0
     Generated in analytical, separable form
     Using radial grid of 1263 points,  6 beta functions with:
                l(1) =   0
                l(2) =   0
                l(3) =   1
                l(4) =   1
                l(5) =   2
                l(6) =   3

     PseudoPot. # 2 for Eu read from file:
     /home/cwx6513/pp.La/Eu.UPF
     MD5 check sum: 5efdbbfc50c6a10138933a6429836ad2
     Pseudo is Norm-conserving, Zval = 17.0
     Generated in analytical, separable form
     Using radial grid of 1261 points,  6 beta functions with:
                l(1) =   0
                l(2) =   0
                l(3) =   1
                l(4) =   1
                l(5) =   2
                l(6) =   3

     atomic species   valence    mass     pseudopotential
        Cr            18.00    51.99610     Gd( 1.00)
        Si            17.00    28.08550     Eu( 1.00)

     48 Sym. Ops., with inversion, found (24 have fractional translation)

   Cartesian axes

     site n.     atom                  positions (alat units)
         1           Cr  tau(   1) = (   0.0000000   0.5936231   0.2968116  )
         2           Cr  tau(   2) = (   0.0000000   0.5936231   0.8904347  )
         3           Cr  tau(   3) = (   0.5936231   0.8904347   0.0000000  )
         4           Cr  tau(   4) = (   0.5936231   0.2968116   0.0000000  )
         5           Cr  tau(   5) = (   0.8904347   0.0000000   0.5936231  )
         6           Cr  tau(   6) = (   0.2968116   0.0000000   0.5936231  )
         7           Si  tau(   7) = (   0.5936231   0.5936231   0.5936231  )
         8           Si  tau(   8) = (   0.0000000   0.0000000   0.0000000  )

     number of k points=    48  gaussian smearing, width (Ry)=  0.1000
                       cart. coord. in units 2pi/alat
        k(    1) = (   0.0000000   0.0000000   0.0000000), wk =   0.0095238
        k(    2) = (   0.0000000   0.0000000   0.1203265), wk =   0.0190476
        k(    3) = (   0.0000000   0.0000000   0.2406529), wk =   0.0190476
        k(    4) = (   0.0000000   0.0000000   0.3609794), wk =   0.0190476
        k(    5) = (   0.0000000   0.1403809   0.0000000), wk =   0.0190476
        k(    6) = (   0.0000000   0.1403809   0.1203265), wk =   0.0380952
        k(    7) = (   0.0000000   0.1403809   0.2406529), wk =   0.0380952
        k(    8) = (   0.0000000   0.1403809   0.3609794), wk =   0.0380952
        k(    9) = (   0.0000000   0.2807618   0.0000000), wk =   0.0190476
        k(   10) = (   0.0000000   0.2807618   0.1203265), wk =   0.0380952
        k(   11) = (   0.0000000   0.2807618   0.2406529), wk =   0.0380952
        k(   12) = (   0.0000000   0.2807618   0.3609794), wk =   0.0380952
        k(   13) = (   0.0000000  -0.4211426   0.0000000), wk =   0.0095238
        k(   14) = (   0.0000000  -0.4211426   0.1203265), wk =   0.0190476
        k(   15) = (   0.0000000  -0.4211426   0.2406529), wk =   0.0190476
        k(   16) = (   0.0000000  -0.4211426   0.3609794), wk =   0.0190476
        k(   17) = (   0.1684571   0.0000000   0.0000000), wk =   0.0190476
        k(   18) = (   0.1684571   0.0000000   0.1203265), wk =   0.0380952
        k(   19) = (   0.1684571   0.0000000   0.2406529), wk =   0.0380952
        k(   20) = (   0.1684571   0.0000000   0.3609794), wk =   0.0380952
        k(   21) = (   0.1684571   0.1403809   0.0000000), wk =   0.0380952
        k(   22) = (   0.1684571   0.1403809   0.1203265), wk =   0.0761905
        k(   23) = (   0.1684571   0.1403809   0.2406529), wk =   0.0761905
        k(   24) = (   0.1684571   0.1403809   0.3609794), wk =   0.0761905
        k(   25) = (   0.1684571   0.2807618   0.0000000), wk =   0.0380952
        k(   26) = (   0.1684571   0.2807618   0.1203265), wk =   0.0761905
        k(   27) = (   0.1684571   0.2807618   0.2406529), wk =   0.0761905
        k(   28) = (   0.1684571   0.2807618   0.3609794), wk =   0.0761905
        k(   29) = (   0.1684571  -0.4211426   0.0000000), wk =   0.0190476
        k(   30) = (   0.1684571  -0.4211426   0.1203265), wk =   0.0380952
        k(   31) = (   0.1684571  -0.4211426   0.2406529), wk =   0.0380952
        k(   32) = (   0.1684571  -0.4211426   0.3609794), wk =   0.0380952
        k(   33) = (   0.3369141   0.0000000   0.0000000), wk =   0.0190476
        k(   34) = (   0.3369141   0.0000000   0.1203265), wk =   0.0380952
        k(   35) = (   0.3369141   0.0000000   0.2406529), wk =   0.0380952
        k(   36) = (   0.3369141   0.0000000   0.3609794), wk =   0.0380952
        k(   37) = (   0.3369141   0.1403809   0.0000000), wk =   0.0380952
        k(   38) = (   0.3369141   0.1403809   0.1203265), wk =   0.0761905
        k(   39) = (   0.3369141   0.1403809   0.2406529), wk =   0.0761905
        k(   40) = (   0.3369141   0.1403809   0.3609794), wk =   0.0761905
        k(   41) = (   0.3369141   0.2807618   0.0000000), wk =   0.0380952
        k(   42) = (   0.3369141   0.2807618   0.1203265), wk =   0.0761905
        k(   43) = (   0.3369141   0.2807618   0.2406529), wk =   0.0761905
        k(   44) = (   0.3369141   0.2807618   0.3609794), wk =   0.0761905
        k(   45) = (   0.3369141  -0.4211426   0.0000000), wk =   0.0190476
        k(   46) = (   0.3369141  -0.4211426   0.1203265), wk =   0.0380952
        k(   47) = (   0.3369141  -0.4211426   0.2406529), wk =   0.0380952
        k(   48) = (   0.3369141  -0.4211426   0.3609794), wk =   0.0380952

     Largest allocated arrays     est. size (Mb)     dimensions
     Largest temporary arrays     est. size (Mb)     dimensions

     Initial potential from superposition of free atoms

     Starting from uniform charge
     Starting wfc are    0 randomized atomic wfcs

     Writing output data file Prototype-La-cP8-Cr3Si.save

     Self-consistent Calculation

[...]

     negative rho (up, down):  0.133E-04 0.000E+00

[...]

     iteration #  9     ecut=    40.00 Ry     beta=0.70
     CG style diagonalization
     c_bands:  1 eigenvalues not converged
     c_bands:  1 eigenvalues not converged
     ethr =  3.04E-07,  avg # of iterations =  3.8

[...]

     total energy              =   -1558.37380722 Ry
     Harris-Foulkes estimate   =   -1558.37380756 Ry
     estimated scf accuracy    <       0.00000125 Ry

     iteration # 12     ecut=    40.00 Ry     beta=0.70
     CG style diagonalization
     ethr =  8.80E-10,  avg # of iterations =  3.1

     End of self-consistent calculation

[...]

          k = 0.3369-0.4211 0.3610 (  4458 PWs)   bands (ev):

   -43.9623 -43.9553 -43.9367 -43.9365 -43.9180 -43.9108 -38.5448 -38.5448
   -15.3756 -15.3134 -15.1582 -15.1576 -15.0049 -14.9693 -14.9687 -14.9543
   -14.8613 -14.8492 -14.8293 -14.8193 -14.7959 -14.7904 -14.7691 -14.7666
   -14.7561 -14.7549 -11.2680 -11.2677 -11.2646 -11.2642 -11.2604 -11.2602
    17.8697  17.8744  17.9791  18.0258  18.1331  18.1377  18.5245  18.5356
    18.5916  18.6048  18.8098  18.8124  19.0803  19.1115  19.1870  19.3661
    19.5889  19.6161  19.8749  19.9657  20.3652  20.3914  20.9294  21.0755
    21.1910  21.2175  21.6282  21.6376  21.9388  22.0423  22.9515  22.9631
    23.0887  23.1582  23.4079  23.4370  23.8684  23.9291  24.0645  24.0836
    24.1591  24.3274  25.0714  25.2921  25.4419  25.7482  26.4309  26.5905
    32.9994  33.1515  33.6377  33.9134  34.3623

     the Fermi energy is    24.2369 ev

!    total energy              =   -1558.37380736 Ry
     Harris-Foulkes estimate   =   -1558.37380739 Ry
     estimated scf accuracy    <       0.00000003 Ry

     The total energy is the sum of the following terms:

     one-electron contribution =    -157.00776554 Ry
     hartree contribution      =     190.16100380 Ry
     xc contribution           =    -156.93265003 Ry
     ewald contribution        =   -1434.10175144 Ry
     smearing contrib. (-TS)   =      -0.49264415 Ry

     convergence has been achieved in  12 iterations

     Forces acting on atoms (Ry/au):

     atom    1 type  1   force =     0.00000000    0.00000000    0.00000000
     atom    2 type  1   force =     0.00000000    0.00000000    0.00000000
     atom    3 type  1   force =     0.00000000    0.00000000    0.00000000
     atom    4 type  1   force =     0.00000000    0.00000000    0.00000000
     atom    5 type  1   force =     0.00000000    0.00000000    0.00000000
     atom    6 type  1   force =     0.00000000    0.00000000    0.00000000
     atom    7 type  2   force =     0.00000000    0.00000000    0.00000000
     atom    8 type  2   force =     0.00000000    0.00000000    0.00000000

     Total force =     0.000000     Total SCF correction =     0.000000

     entering subroutine stress ...

          total   stress  (Ry/bohr**3)                   (kbar)     P=  -72.48
  -0.00049272   0.00000000   0.00000000        -72.48      0.00      0.00
   0.00000000  -0.00049272   0.00000000          0.00    -72.48      0.00
   0.00000000   0.00000000  -0.00049272          0.00      0.00    -72.48

     Writing output data file Prototype-La-cP8-Cr3Si.save

     General routines

     Parallel routines

   This run was terminated on:  23:12:35  22Mar2018

   JOB DONE.