     Program PWSCF v.5.0.2 starts on 22Mar2018 at 22:47:22

     Current dimensions of program PWSCF are:
     Max number of different atomic species (ntypx) = 10
     Max number of k-points (npk) =  40000
     Max angular momentum in pseudopotentials (lmaxx) =  3
     Waiting for input...
     Reading input from standard input

     Subspace diagonalization in iterative solution of the eigenvalue problem:
     a serial algorithm will be used

     bravais-lattice index     =            0
     lattice parameter (alat)  =       9.9235  a.u.
     unit-cell volume          =    1361.0366 (a.u.)^3
     number of atoms/cell      =           12
     number of atomic types    =            2
     number of electrons       =       208.00
     number of Kohn-Sham states=          125
     kinetic-energy cutoff     =      40.0000  Ry
     charge density cutoff     =     160.0000  Ry
     convergence threshold     =      1.0E-04
     mixing beta               =       0.7000
     number of iterations used =            8  plain     mixing
     Exchange-correlation      = SLA-PZ-NOGX-NOGC ( 1 1 0 0 0)
     EXX-fraction              =        0.00
     nstep                     =           50

     celldm(1)=   9.923489  celldm(2)=   0.000000  celldm(3)=   0.000000
     celldm(4)=   0.000000  celldm(5)=   0.000000  celldm(6)=   0.000000

     crystal axes: (cart. coord. in units of alat)
               a(1) = (   1.000000   0.000000   0.000000 )
               a(2) = (  -0.500000   0.866025   0.000000 )
               a(3) = (   0.000000   0.000000   1.608222 )

     reciprocal axes: (cart. coord. in units 2 pi/alat)
               b(1) = (  1.000000  0.577350  0.000000 )
               b(2) = (  0.000000  1.154701  0.000000 )
               b(3) = (  0.000000  0.000000  0.621805 )

     PseudoPot. # 1 for Gd read from file:
     /home/cwx6513/pp.La/Gd.UPF
     MD5 check sum: 09a8be538722f05520810cb6aac0efd2
     Pseudo is Norm-conserving, Zval = 18.0
     Generated in analytical, separable form
     Using radial grid of 1263 points,  6 beta functions with:
                l(1) =   0
                l(2) =   0
                l(3) =   1
                l(4) =   1
                l(5) =   2
                l(6) =   3

     PseudoPot. # 2 for Eu read from file:
     /home/cwx6513/pp.La/Eu.UPF
     MD5 check sum: 5efdbbfc50c6a10138933a6429836ad2
     Pseudo is Norm-conserving, Zval = 17.0
     Generated in analytical, separable form
     Using radial grid of 1261 points,  6 beta functions with:
                l(1) =   0
                l(2) =   0
                l(3) =   1
                l(4) =   1
                l(5) =   2
                l(6) =   3

     atomic species   valence    mass     pseudopotential
        Mg            18.00    24.30500     Gd( 1.00)
        Zn            17.00    65.39000     Eu( 1.00)

     24 Sym. Ops., with inversion, found (12 have fractional translation)

   Cartesian axes

     site n.     atom                  positions (alat units)
         1           Mg  tau(   1) = (  -0.0000005   0.5773506   0.1003820  )
         2           Mg  tau(   2) = (   0.5000005   0.2886748   0.9044931  )
         3           Mg  tau(   3) = (   0.5000005   0.2886748   1.5078402  )
         4           Mg  tau(   4) = (  -0.0000005   0.5773506   0.7037291  )
         5           Zn  tau(   5) = (   0.0000000   0.0000000   0.0000000  )
         6           Zn  tau(   6) = (   0.0000000   0.0000000   0.8041111  )
         7           Zn  tau(   7) = (   0.0000000   0.2950739   1.2061667  )
         8           Zn  tau(   8) = (   0.7444585   0.1475370   0.4020556  )
         9           Zn  tau(   9) = (   0.2555415   0.1475370   0.4020556  )
        10           Zn  tau(  10) = (   0.2444585   0.7184884   1.2061667  )
        11           Zn  tau(  11) = (  -0.2444585   0.7184884   1.2061667  )
        12           Zn  tau(  12) = (   0.5000000   0.5709515   0.4020556  )

     number of k points=    12  gaussian smearing, width (Ry)=  0.1000
                       cart. coord. in units 2pi/alat
        k(    1) = (   0.0000000   0.0000000   0.0000000), wk =   0.0833333
        k(    2) = (   0.0000000   0.0000000   0.1554512), wk =   0.1666667
        k(    3) = (   0.0000000   0.0000000  -0.3109023), wk =   0.0833333
        k(    4) = (   0.0000000   0.3849002   0.0000000), wk =   0.1666667
        k(    5) = (   0.0000000   0.3849002   0.1554512), wk =   0.3333333
        k(    6) = (   0.0000000   0.3849002  -0.3109023), wk =   0.1666667
        k(    7) = (  -0.5000000  -0.2886751   0.0000000), wk =   0.0833333
        k(    8) = (  -0.5000000  -0.2886751   0.1554512), wk =   0.1666667
        k(    9) = (  -0.5000000  -0.2886751  -0.3109023), wk =   0.0833333
        k(   10) = (  -0.5000000   0.0962250   0.0000000), wk =   0.1666667
        k(   11) = (  -0.5000000   0.0962250   0.1554512), wk =   0.3333333
        k(   12) = (  -0.5000000   0.0962250  -0.3109023), wk =   0.1666667

     Largest allocated arrays     est. size (Mb)     dimensions
     Largest temporary arrays     est. size (Mb)     dimensions

     Initial potential from superposition of free atoms

     Starting from uniform charge
     Starting wfc are    0 randomized atomic wfcs

     Self-consistent Calculation

     iteration #  1     ecut=    40.00 Ry     beta=0.70
     CG style diagonalization
     c_bands:  4 eigenvalues not converged
     c_bands:  4 eigenvalues not converged
     c_bands:  1 eigenvalues not converged
     c_bands:  5 eigenvalues not converged
     c_bands:  5 eigenvalues not converged
     c_bands:  5 eigenvalues not converged
     c_bands:  4 eigenvalues not converged
     c_bands:  2 eigenvalues not converged
     c_bands:  5 eigenvalues not converged
     c_bands:  5 eigenvalues not converged
     c_bands:  4 eigenvalues not converged
     ethr =  1.00E-02,  avg # of iterations = 12.9

     total energy              =   -2059.45216799 Ry
     Harris-Foulkes estimate   =   -2549.06394109 Ry
     estimated scf accuracy    <     641.89311440 Ry

     iteration #  2     ecut=    40.00 Ry     beta=0.70
     CG style diagonalization
     ethr =  1.00E-02,  avg # of iterations =  8.0

[...]

     End of self-consistent calculation

          k = 0.0000 0.0000 0.0000 (  5769 PWs)   bands (ev):

   -39.5167 -39.5107 -39.4969 -39.4850 -35.1738 -35.0019 -34.7932 -34.6055
   -34.5318 -34.5318 -34.5304 -34.5303 -10.6242 -10.6215 -10.6157 -10.6157
   -10.5604 -10.5604 -10.4878 -10.4570 -10.4564 -10.4563 -10.4276 -10.4276
   -10.1369  -9.6607  -9.0794  -8.3448  -8.3448  -8.2105  -8.2104  -8.1612
    -8.1612  -7.7756  -7.5459  -7.4167  -7.4166  -7.3771  -7.3770  -6.6452
    -6.6312  -6.6311  -6.5795  -6.5712  -6.5040  -6.5040  -6.4116  -6.4115
    18.5559  19.3757  19.4676  20.3360  20.5910  20.5910  21.1870  21.2402
    21.2403  21.2590  21.2590  21.3704  21.8036  21.8037  22.0376  22.1305
    22.1305  22.4089  22.7812  22.7813  23.3442  23.3442  23.4284  24.1989
    24.1989  24.4172  24.4172  24.5494  24.5494  24.5898  24.7645  24.7645
    25.0322  25.0323  25.1391  25.1391  25.3095  25.3095  25.7923  25.8400
    26.0046  26.9167  26.9167  27.2032  27.2590  27.5447  27.6271  27.6271
    27.9740  27.9740  28.3775  28.4841  28.4841  28.4957  28.4957  29.3923
    29.3924  30.3911  30.3911  30.6115  30.6116  32.5112  32.5245  32.5310
    32.5786  32.6039  33.6270  33.6270  34.0684  34.4132  34.4133  35.5126
    36.3160  36.3162  36.4062  36.6842  37.6962

[...]

          k =-0.5000-0.2887 0.0000 (  5800 PWs)   bands (ev):

[...]

     the Fermi energy is    28.8250 ev

!    total energy              =   -2205.51287219 Ry
     Harris-Foulkes estimate   =   -2205.51288268 Ry
     estimated scf accuracy    <       0.00001178 Ry

     The total energy is the sum of the following terms:

     one-electron contribution =     -73.14535885 Ry
     hartree contribution      =     232.13056216 Ry
     xc contribution           =    -228.92988864 Ry
     ewald contribution        =   -2134.88816943 Ry
     smearing contrib. (-TS)   =      -0.68001743 Ry

     convergence has been achieved in  11 iterations

     Forces acting on atoms (Ry/au):

     atom    1 type  1   force =     0.00000000    0.00000000    0.01963429
     atom    2 type  1   force =     0.00000000    0.00000000    0.01963429
     atom    3 type  1   force =     0.00000000    0.00000000   -0.01963429
     atom    4 type  1   force =     0.00000000    0.00000000   -0.01963429
     atom    5 type  2   force =     0.00000000    0.00000000    0.00000000
     atom    6 type  2   force =     0.00000000    0.00000000    0.00000000
     atom    7 type  2   force =     0.00000000    0.04812483    0.00000000
     atom    8 type  2   force =    -0.04167733    0.02406242    0.00000000
     atom    9 type  2   force =     0.04167733    0.02406242    0.00000000
     atom   10 type  2   force =    -0.04167733   -0.02406242    0.00000000
     atom   11 type  2   force =     0.04167733   -0.02406242    0.00000000
     atom   12 type  2   force =     0.00000000   -0.04812483    0.00000000

     Total force =     0.124250     Total SCF correction =     0.000000

     entering subroutine stress ...

          total   stress  (Ry/bohr**3)                   (kbar)     P=  501.57
   0.00341469   0.00000000   0.00000000        502.32      0.00      0.00
   0.00000000   0.00341469   0.00000000          0.00    502.32      0.00
   0.00000000   0.00000000   0.00339940          0.00      0.00    500.07

     BFGS Geometry Optimization

     number of scf cycles    =   1
     number of bfgs steps    =   0

     enthalpy new            =   -2205.5128721871 Ry

     new trust radius        =       0.5000000000 bohr
     new conv_thr            =       0.0001000000 Ry

     new unit-cell volume =   1656.43112 a.u.^3 (   245.45776 Ang^3 )

CELL_PARAMETERS (alat=  9.92348860)
   1.067764947   0.000000000   0.000000000
  -0.533882474   0.924711570   0.000000000
   0.000000000   0.000000000   1.716715401

ATOMIC_POSITIONS (crystal)
Mg       0.333333000   0.666667000   0.063394604
Mg       0.666667000   0.333333000   0.563394604
Mg       0.666667000   0.333333000   0.936605396
Mg       0.333333000   0.666667000   0.436605396
Zn       0.000000000   0.000000000   0.000000000
Zn       0.000000000   0.000000000   0.500000000
Zn       0.172583582   0.345167165   0.750000000
Zn       0.827416418   0.172583582   0.250000000
Zn       0.345167165   0.172583582   0.250000000
Zn       0.654832835   0.827416418   0.750000000
Zn       0.172583582   0.827416418   0.750000000
Zn       0.827416418   0.654832835   0.250000000

     Writing output data file Prototype-La-hP12-MgZn2.save
     NEW-OLD atomic charge density approx. for the potential
     NEW k-points:
        k(    1) = (   0.0000000   0.0000000   0.0000000), wk =   0.0833333
        k(    2) = (   0.0000000   0.0000000   0.1456269), wk =   0.1666667
        k(    3) = (   0.0000000   0.0000000  -0.2912539), wk =   0.0833333
        k(    4) = (   0.0000000   0.3604728   0.0000000), wk =   0.1666667
        k(    5) = (   0.0000000   0.3604728   0.1456269), wk =   0.3333333
        k(    6) = (   0.0000000   0.3604728  -0.2912539), wk =   0.1666667
        k(    7) = (  -0.4682679  -0.2703546   0.0000000), wk =   0.0833333
        k(    8) = (  -0.4682679  -0.2703546   0.1456269), wk =   0.1666667
        k(    9) = (  -0.4682679  -0.2703546  -0.2912539), wk =   0.0833333
        k(   10) = (  -0.4682679   0.0901182   0.0000000), wk =   0.1666667
        k(   11) = (  -0.4682679   0.0901182   0.1456269), wk =   0.3333333
        k(   12) = (  -0.4682679   0.0901182  -0.2912539), wk =   0.1666667

[...]

     enthalpy old            =   -2205.5128721871 Ry
     enthalpy new            =   -2205.3924567597 Ry

     CASE: enthalpy_new > enthalpy_old

     new trust radius        =       0.2293535279 bohr

     trust_radius < trust_radius_min

     resetting bfgs history

     new conv_thr            =       0.0001000000 Ry

[...]

     number of scf cycles    =   3
     number of bfgs steps    =   1

     enthalpy old            =   -2205.5128721871 Ry
     enthalpy new            =   -2205.4255589487 Ry

     CASE: enthalpy_new > enthalpy_old

     new trust radius        =       0.2281519218 bohr

     trust_radius < trust_radius_min

     resetting bfgs history

     Message from routine bfgs:
     history already reset at previous step: stopping
     new conv_thr            =       0.0001000000 Ry

     new unit-cell volume =   1646.58888 a.u.^3 (   243.99930 Ang^3 )

[...]

ATOMIC_POSITIONS (crystal)
Mg       0.333333000   0.666667000   0.063306252
Mg       0.666667000   0.333333000   0.563306252
Mg       0.666667000   0.333333000   0.936693748
Mg       0.333333000   0.666667000   0.436693748
Zn       0.000000000   0.000000000   0.000000000
Zn       0.000000000   0.000000000   0.500000000
Zn       0.172381254   0.344762509   0.750000000
Zn       0.827618746   0.172381254   0.250000000
Zn       0.344762509   0.172381254   0.250000000
Zn       0.655237491   0.827618746   0.750000000
Zn       0.172381254   0.827618746   0.750000000
Zn       0.827618746   0.655237491   0.250000000

     Writing output data file Prototype-La-hP12-MgZn2.save
     NEW-OLD atomic charge density approx. for the potential
     NEW k-points:
        k(    1) = (   0.0000000   0.0000000   0.0000000), wk =   0.0833333
        k(    2) = (   0.0000000   0.0000000   0.1459194), wk =   0.1666667
        k(    3) = (   0.0000000   0.0000000  -0.2918388), wk =   0.0833333
        k(    4) = (   0.0000000   0.3611860   0.0000000), wk =   0.1666667
        k(    5) = (   0.0000000   0.3611860   0.1459194), wk =   0.3333333
        k(    6) = (   0.0000000   0.3611860  -0.2918388), wk =   0.1666667
        k(    7) = (  -0.4691943  -0.2708895   0.0000000), wk =   0.0833333
        k(    8) = (  -0.4691943  -0.2708895   0.1459194), wk =   0.1666667
        k(    9) = (  -0.4691943  -0.2708895  -0.2918388), wk =   0.0833333
        k(   10) = (  -0.4691943   0.0902965   0.0000000), wk =   0.1666667
        k(   11) = (  -0.4691943   0.0902965   0.1459194), wk =   0.3333333
        k(   12) = (  -0.4691943   0.0902965  -0.2918388), wk =   0.1666667

[...]

     Threshold (ethr) on eigenvalues was too large:
     Diagonalizing with lowered threshold

     CG style diagonalization
     ethr =  9.78E-08,  avg # of iterations =  3.0

[...]

     The maximum number of steps has been reached.

     End of BFGS Geometry Optimization
Begin final coordinates
     new unit-cell volume =   1646.58888 a.u.^3 (   243.99930 Ang^3 )

CELL_PARAMETERS (alat=  9.92348860)
   1.065656498   0.000000000   0.000000000
  -0.532828249   0.922885599   0.000000000
   0.000000000   0.000000000   1.713274483

ATOMIC_POSITIONS (crystal)
Mg       0.333333000   0.666667000   0.063306252
Mg       0.666667000   0.333333000   0.563306252
Mg       0.666667000   0.333333000   0.936693748
Mg       0.333333000   0.666667000   0.436693748
Zn       0.000000000   0.000000000   0.000000000
Zn       0.000000000   0.000000000   0.500000000
Zn       0.172381254   0.344762509   0.750000000
Zn       0.827618746   0.172381254   0.250000000
Zn       0.344762509   0.172381254   0.250000000
Zn       0.655237491   0.827618746   0.750000000
Zn       0.172381254   0.827618746   0.750000000
Zn       0.827618746   0.655237491   0.250000000
End final coordinates

     A final scf calculation at the relaxed structure.
     The G-vectors are recalculated for the final unit cell
     Results may differ from those at the preceding step.

     bravais-lattice index     =            0
     lattice parameter (alat)  =       9.9235  a.u.
     unit-cell volume          =    1646.5889 (a.u.)^3
     number of atoms/cell      =           12
     number of atomic types    =            2
     number of electrons       =       208.00
     number of Kohn-Sham states=          125
     kinetic-energy cutoff     =      40.0000  Ry
     charge density cutoff     =     160.0000  Ry
     convergence threshold     =      1.0E-04
     mixing beta               =       0.7000
     number of iterations used =            8  plain     mixing
     Exchange-correlation      = SLA-PZ-NOGX-NOGC ( 1 1 0 0 0)
     EXX-fraction              =        0.00

     celldm(1)=   9.923489  celldm(2)=   0.000000  celldm(3)=   0.000000
     celldm(4)=   0.000000  celldm(5)=   0.000000  celldm(6)=   0.000000

     crystal axes: (cart. coord. in units of alat)
               a(1) = (   1.065656   0.000000   0.000000 )
               a(2) = (  -0.532828   0.922886   0.000000 )
               a(3) = (   0.000000   0.000000   1.713274 )

     reciprocal axes: (cart. coord. in units 2 pi/alat)
               b(1) = (  0.938389  0.541779  0.000000 )
               b(2) = (  0.000000  1.083558  0.000000 )
               b(3) = (  0.000000  0.000000  0.583678 )

     PseudoPot. # 1 for Gd read from file:
     /home/cwx6513/pp.La/Gd.UPF
     MD5 check sum: 09a8be538722f05520810cb6aac0efd2
     Pseudo is Norm-conserving, Zval = 18.0
     Generated in analytical, separable form
     Using radial grid of 1263 points,  6 beta functions with:
                l(1) =   0
                l(2) =   0
                l(3) =   1
                l(4) =   1
                l(5) =   2
                l(6) =   3

     PseudoPot. # 2 for Eu read from file:
     /home/cwx6513/pp.La/Eu.UPF
     MD5 check sum: 5efdbbfc50c6a10138933a6429836ad2
     Pseudo is Norm-conserving, Zval = 17.0
     Generated in analytical, separable form
     Using radial grid of 1261 points,  6 beta functions with:
                l(1) =   0
                l(2) =   0
                l(3) =   1
                l(4) =   1
                l(5) =   2
                l(6) =   3

     atomic species   valence    mass     pseudopotential
        Mg            18.00    24.30500     Gd( 1.00)
        Zn            17.00    65.39000     Eu( 1.00)

     24 Sym. Ops., with inversion, found (12 have fractional translation)

   Cartesian axes

     site n.     atom                  positions (alat units)
         1           Mg  tau(   1) = (  -0.0000005   0.6152574   0.1084610  )
         2           Mg  tau(   2) = (   0.5328288   0.3076282   0.9650982  )
         3           Mg  tau(   3) = (   0.5328288   0.3076282   1.6048135  )
         4           Mg  tau(   4) = (  -0.0000005   0.6152574   0.7481763  )
         5           Zn  tau(   5) = (   0.0000000   0.0000000   0.0000000  )
         6           Zn  tau(   6) = (   0.0000000   0.0000000   0.8566372  )
         7           Zn  tau(   7) = (   0.0000000   0.3181764   1.2849559  )
         8           Zn  tau(   8) = (   0.7901077   0.1590882   0.4283186  )
         9           Zn  tau(   9) = (   0.2755488   0.1590882   0.4283186  )
        10           Zn  tau(  10) = (   0.2572794   0.7637974   1.2849559  )
        11           Zn  tau(  11) = (  -0.2572794   0.7637974   1.2849559  )
        12           Zn  tau(  12) = (   0.5328282   0.6047092   0.4283186  )

     number of k points=    12  gaussian smearing, width (Ry)=  0.1000
                       cart. coord. in units 2pi/alat
        k(    1) = (   0.0000000   0.0000000   0.0000000), wk =   0.0833333
        k(    2) = (   0.0000000   0.0000000   0.1459194), wk =   0.1666667
        k(    3) = (   0.0000000   0.0000000  -0.2918388), wk =   0.0833333
        k(    4) = (   0.0000000   0.3611860   0.0000000), wk =   0.1666667
        k(    5) = (   0.0000000   0.3611860   0.1459194), wk =   0.3333333
        k(    6) = (   0.0000000   0.3611860  -0.2918388), wk =   0.1666667
        k(    7) = (  -0.4691943  -0.2708895   0.0000000), wk =   0.0833333
        k(    8) = (  -0.4691943  -0.2708895   0.1459194), wk =   0.1666667
        k(    9) = (  -0.4691943  -0.2708895  -0.2918388), wk =   0.0833333
        k(   10) = (  -0.4691943   0.0902965   0.0000000), wk =   0.1666667
        k(   11) = (  -0.4691943   0.0902965   0.1459194), wk =   0.3333333
        k(   12) = (  -0.4691943   0.0902965  -0.2918388), wk =   0.1666667

     Largest allocated arrays     est. size (Mb)     dimensions
     Largest temporary arrays     est. size (Mb)     dimensions

     Initial potential from superposition of free atoms

     Starting from uniform charge
     Starting wfc are    0 randomized atomic wfcs

     Writing output data file Prototype-La-hP12-MgZn2.save

     Self-consistent Calculation

[...]

     iteration # 10     ecut=    40.00 Ry     beta=0.70
     CG style diagonalization
     ethr =  1.54E-05,  avg # of iterations =  3.0

     total energy              =   -2206.53076712 Ry
     Harris-Foulkes estimate   =   -2206.53263838 Ry
     estimated scf accuracy    <       0.00498468 Ry

     iteration # 11     ecut=    40.00 Ry     beta=0.70
     CG style diagonalization
     c_bands:  1 eigenvalues not converged
     ethr =  2.40E-06,  avg # of iterations =  3.7

     End of self-consistent calculation

[...]

          k = 0.0000 0.3612-0.2918 (  7022 PWs)   bands (ev):

[...]

          k =-0.4692 0.0903-0.2918 (  7040 PWs)   bands (ev):

   -45.0693 -45.0692 -45.0636 -45.0636 -40.4485 -40.4485 -40.3755 -40.3755
   -40.2453 -40.2453 -40.2407 -40.2407 -16.0574 -16.0573 -16.0292 -16.0292
   -16.0055 -16.0055 -15.9759 -15.9758 -15.9601 -15.9601 -15.9500 -15.9500
   -14.0926 -14.0926 -13.7353 -13.7353 -13.3503 -13.3503 -13.3111 -13.3111
   -13.2362 -13.2362 -13.1606 -13.1606 -12.9278 -12.9278 -12.7970 -12.7969
   -12.6881 -12.6881 -12.6285 -12.6285 -12.5544 -12.5544 -12.5045 -12.5045
    15.9551  15.9551  16.5228  16.5229  16.8468  16.8468  17.0550  17.0550
    17.1978  17.1978  17.2671  17.2671  17.4865  17.4865  17.6853  17.6853
    17.8015  17.8015  18.0078  18.0078  18.2001  18.2001  18.5760  18.5760
    18.6494  18.6494  19.0361  19.0361  19.2435  19.2435  19.4776  19.4776
    19.8602  19.8602  19.9076  19.9076  20.0471  20.0471  20.3702  20.3702
    20.4932  20.4932  20.8281  20.8281  21.1939  21.1938  21.3440  21.3440
    21.5462  21.5462  21.7251  21.7251  22.0082  22.0082  22.1592  22.1592
    22.3689  22.3690  22.5674  22.5674  22.9000  22.9000  23.6948  23.6948
    24.5542  24.5542  26.3406  26.3406  27.7865  27.7865  28.2564  28.2564
    29.2522  29.2522  30.3295  30.3296  31.6081

     the Fermi energy is    22.6535 ev

!    total energy              =   -2206.53172059 Ry
     Harris-Foulkes estimate   =   -2206.53176623 Ry
     estimated scf accuracy    <       0.00004937 Ry

     The total energy is the sum of the following terms:

     one-electron contribution =    -257.16523573 Ry
     hartree contribution      =     281.17349026 Ry
     xc contribution           =    -225.41699156 Ry
     ewald contribution        =   -2004.29057370 Ry
     smearing contrib. (-TS)   =      -0.83240986 Ry

     convergence has been achieved in  11 iterations

     Forces acting on atoms (Ry/au):

     atom    1 type  1   force =     0.00000000    0.00000000    0.00878164
     atom    2 type  1   force =     0.00000000    0.00000000    0.00878164
     atom    3 type  1   force =     0.00000000    0.00000000   -0.00878164
     atom    4 type  1   force =     0.00000000    0.00000000   -0.00878164
     atom    5 type  2   force =     0.00000000    0.00000000    0.00000000
     atom    6 type  2   force =     0.00000000    0.00000000    0.00000000
     atom    7 type  2   force =     0.00000000   -0.01077301    0.00000000
     atom    8 type  2   force =     0.00932970   -0.00538651    0.00000000
     atom    9 type  2   force =    -0.00932970   -0.00538651    0.00000000
     atom   10 type  2   force =     0.00932970    0.00538651    0.00000000
     atom   11 type  2   force =    -0.00932970    0.00538651    0.00000000
     atom   12 type  2   force =     0.00000000    0.01077301    0.00000000

     Total force =     0.031699     Total SCF correction =     0.000000

     entering subroutine stress ...

          total   stress  (Ry/bohr**3)                   (kbar)     P= -187.26
  -0.00123580   0.00000000   0.00000000       -181.79      0.00      0.00
   0.00000000  -0.00123580   0.00000000          0.00   -181.79      0.00
   0.00000000   0.00000000  -0.00134739          0.00      0.00   -198.21

     Writing output data file Prototype-La-hP12-MgZn2.save

     General routines

     Parallel routines

   This run was terminated on:  23:11:45  22Mar2018

   JOB DONE.