     Program PWSCF v.5.0.2 starts on 22Mar2018 at 22:45:55

     Current dimensions of program PWSCF are:
     Max number of different atomic species (ntypx) = 10
     Max number of k-points (npk) =  40000
     Max angular momentum in pseudopotentials (lmaxx) =  3
     Waiting for input...
     Reading input from standard input

     Subspace diagonalization in iterative solution of the eigenvalue problem:
     a serial algorithm will be used

     bravais-lattice index     =            0
     lattice parameter (alat)  =       7.0151  a.u.
     unit-cell volume          =     862.2778 (a.u.)^3
     number of atoms/cell      =           12
     number of atomic types    =            2
     number of electrons       =       232.00
     number of Kohn-Sham states=          139
     kinetic-energy cutoff     =      40.0000  Ry
     charge density cutoff     =     160.0000  Ry
     convergence threshold     =      1.0E-04
     mixing beta               =       0.7000
     number of iterations used =            8  plain     mixing
     Exchange-correlation      = SLA-PZ-NOGX-NOGC ( 1 1 0 0 0)
     EXX-fraction              =        0.00
     nstep                     =           50

     celldm(1)=   7.015105  celldm(2)=   0.000000  celldm(3)=   0.000000
     celldm(4)=   0.000000  celldm(5)=   0.000000  celldm(6)=   0.000000

     crystal axes: (cart. coord. in units of alat)
               a(1) = (   1.000000   0.000000   0.000000 )
               a(2) = (   0.000000   1.315963   0.000000 )
               a(3) = (   0.000000   0.000000   1.898020 )

     reciprocal axes: (cart. coord. in units 2 pi/alat)
               b(1) = (  1.000000  0.000000  0.000000 )
               b(2) = (  0.000000  0.759900  0.000000 )
               b(3) = (  0.000000  0.000000  0.526865 )

     PseudoPot. # 1 for Gd read from file:
     /home/cwx6513/pp.La/Gd.UPF
     MD5 check sum: 09a8be538722f05520810cb6aac0efd2
     Pseudo is Norm-conserving, Zval = 18.0
     Generated in analytical, separable form
     Using radial grid of 1263 points,  6 beta functions with:
                l(1) =   0
                l(2) =   0
                l(3) =   1
                l(4) =   1
                l(5) =   2
                l(6) =   3

     PseudoPot. # 2 for Er read from file:
     /home/cwx6513/pp.La/Er.UPF
     MD5 check sum: e152ae21b84514339d8526f066caf99b
     Pseudo is Norm-conserving, Zval = 22.0
     Generated in analytical, separable form
     Using radial grid of 1267 points,  6 beta functions with:
                l(1) =   0
                l(2) =   0
                l(3) =   1
                l(4) =   1
                l(5) =   2
                l(6) =   3

     atomic species   valence    mass     pseudopotential
        Co            18.00    58.93320     Gd( 1.00)
        Si            22.00    28.08550     Er( 1.00)

      8 Sym. Ops., with inversion, found ( 6 have fractional translation)

   Cartesian axes

     site n.     atom                  positions (alat units)
         1           Co  tau(   1) = (   0.7500000   1.0875135   0.8270358  )
         2           Co  tau(   2) = (   0.2500000   0.2284499   1.0709846  )
         3           Co  tau(   3) = (   0.7500000   0.4295318   0.1219744  )
         4           Co  tau(   4) = (   0.2500000   0.8864316   1.7760460  )
         5           Co  tau(   5) = (   0.2500000   0.7067855   0.5358966  )
         6           Co  tau(   6) = (   0.7500000   0.6091779   1.3621238  )
         7           Co  tau(   7) = (   0.2500000   0.0488038   0.4131136  )
         8           Co  tau(   8) = (   0.7500000   1.2671596   1.4849068  )
         9           Si  tau(   9) = (   0.2500000   0.2669484   1.6960710  )
        10           Si  tau(  10) = (   0.7500000   1.0490149   0.2019494  )
        11           Si  tau(  11) = (   0.2500000   0.9249301   1.1509596  )
        12           Si  tau(  12) = (   0.7500000   0.3910333   0.7470608  )

     number of k points=    12  gaussian smearing, width (Ry)=  0.1000
                       cart. coord. in units 2pi/alat
        k(    1) = (   0.0000000   0.0000000   0.0000000), wk =   0.0833333
        k(    2) = (   0.0000000   0.0000000   0.1317162), wk =   0.1666667
        k(    3) = (   0.0000000   0.0000000  -0.2634324), wk =   0.0833333
        k(    4) = (   0.0000000   0.2532999   0.0000000), wk =   0.1666667
        k(    5) = (   0.0000000   0.2532999   0.1317162), wk =   0.3333333
        k(    6) = (   0.0000000   0.2532999  -0.2634324), wk =   0.1666667
        k(    7) = (  -0.5000000   0.0000000   0.0000000), wk =   0.0833333
        k(    8) = (  -0.5000000   0.0000000   0.1317162), wk =   0.1666667
        k(    9) = (  -0.5000000   0.0000000  -0.2634324), wk =   0.0833333
        k(   10) = (  -0.5000000   0.2532999   0.0000000), wk =   0.1666667
        k(   11) = (  -0.5000000   0.2532999   0.1317162), wk =   0.3333333
        k(   12) = (  -0.5000000   0.2532999  -0.2634324), wk =   0.1666667

     Largest allocated arrays     est. size (Mb)     dimensions
     Largest temporary arrays     est. size (Mb)     dimensions

     Initial potential from superposition of free atoms

     Starting from uniform charge
     Starting wfc are    0 randomized atomic wfcs

     Self-consistent Calculation

     iteration #  1     ecut=    40.00 Ry     beta=0.70
     CG style diagonalization
     c_bands:  2 eigenvalues not converged
     c_bands:  4 eigenvalues not converged
     c_bands:  3 eigenvalues not converged
     c_bands:  1 eigenvalues not converged
     c_bands:  1 eigenvalues not converged
     c_bands:  1 eigenvalues not converged
     c_bands:  1 eigenvalues not converged
     c_bands:  2 eigenvalues not converged
     c_bands:  1 eigenvalues not converged
     c_bands:  2 eigenvalues not converged
     ethr =  1.00E-02,  avg # of iterations = 13.2

     total energy              =   -2204.85160610 Ry
     Harris-Foulkes estimate   =   -3321.51945193 Ry
     estimated scf accuracy    <    1366.31277889 Ry

[...]

     iteration #  4     ecut=    40.00 Ry     beta=0.70
     CG style diagonalization
     ethr =  1.00E-02,  avg # of iterations =  5.0

[...]

     End of self-consistent calculation

          k = 0.0000 0.0000 0.0000 (  3675 PWs)   bands (ev):

   -51.7352 -51.7273 -51.7223 -51.7067 -20.2654 -20.0613 -19.9904 -19.7623
   -19.6315 -19.4591 -19.3678 -19.3495 -14.3128 -14.2905 -14.2558 -14.2183
   -14.1944 -14.1727 -14.0804 -14.0190 -13.9875 -13.9840 -13.9608 -13.8708
     6.6048   7.0323   7.2558   7.3324   7.4998   7.5117   7.7738   7.8949
     8.1626   8.1881   8.4570   8.4658   8.6614   8.7242   8.8931   8.9486
     9.0915   9.1559   9.2601   9.5410   9.6117   9.8933  10.3141  10.4461
    29.5301  29.6260  29.7681  30.1114  30.1259  30.2383  30.3222  30.3236
    30.6859  30.7523  30.8826  31.0000  31.1026  31.3880  31.6059  32.0694
    32.1808  32.2248  32.2719  32.3063  34.6133  35.3616  37.6260  37.6303
    38.0450  38.2642  39.0316  39.3450  39.8790  39.8989  39.9907  40.2080
    40.2100  40.3665  40.9851  41.2686  41.3339  41.4859  41.5423  42.0160
    42.7568  43.3550  43.5322  43.6246  43.9514  44.0902  44.8444  45.3629
    45.6049  45.9304  45.9329  46.2029  46.5203  46.6758  47.4706  47.9688
    48.0068  48.0188  48.0953  48.3665  48.5025  49.6826  49.8149  50.4099
    50.6431  51.9860  53.0656  53.8739  55.0344  55.1620  55.4097  55.8806
    56.5947  56.5984  56.8015  57.2443  57.6861  57.6958  58.0122  58.0832
    58.1174  58.1748  58.3377  58.5387  59.1307  59.3766  59.5786  60.3024
    60.3328  60.3334  60.7207

[...]

          k =-0.5000 0.0000 0.0000 (  3722 PWs)   bands (ev):

[...]

     the Fermi energy is    53.8482 ev

!    total energy              =   -2914.03980722 Ry
     Harris-Foulkes estimate   =   -2914.03985152 Ry
     estimated scf accuracy    <       0.00005141 Ry

     The total energy is the sum of the following terms:

     one-electron contribution =     260.68168372 Ry
     hartree contribution      =     234.93177588 Ry
     xc contribution           =    -288.81261025 Ry
     ewald contribution        =   -3120.66747104 Ry
     smearing contrib. (-TS)   =      -0.17318552 Ry

     convergence has been achieved in  10 iterations

     Forces acting on atoms (Ry/au):

     atom    1 type  1   force =     0.00000000   -0.06964643   -0.02528743
     atom    2 type  1   force =     0.00000000    0.06964643    0.02528743
     atom    3 type  1   force =     0.00000000   -0.06964643    0.02528743
     atom    4 type  1   force =     0.00000000    0.06964643   -0.02528743
     atom    5 type  1   force =     0.00000000    0.12379019   -0.20701771
     atom    6 type  1   force =     0.00000000   -0.12379019    0.20701771
     atom    7 type  1   force =     0.00000000    0.12379019    0.20701771
     atom    8 type  1   force =     0.00000000   -0.12379019   -0.20701771
     atom    9 type  2   force =     0.00000000   -0.17679009    0.03420471
     atom   10 type  2   force =     0.00000000    0.17679009   -0.03420471
     atom   11 type  2   force =     0.00000000   -0.17679009   -0.03420471
     atom   12 type  2   force =     0.00000000    0.17679009    0.03420471

     Total force =     0.619984     Total SCF correction =     0.000000

     entering subroutine stress ...

          total   stress  (Ry/bohr**3)                   (kbar)     P= 7411.30
   0.05321878   0.00000000   0.00000000       7828.75      0.00      0.00
   0.00000000   0.04793538   0.00000000          0.00   7051.54      0.00
   0.00000000   0.00000000   0.04998891          0.00      0.00   7353.62

     BFGS Geometry Optimization

     number of scf cycles    =   1
     number of bfgs steps    =   0

     enthalpy new            =   -2914.0398072205 Ry

     new trust radius        =       0.5000000000 bohr
     new conv_thr            =       0.0001000000 Ry

     new unit-cell volume =   1088.00691 a.u.^3 (   161.22599 Ang^3 )

CELL_PARAMETERS (alat=  7.01510508)
   1.085136619   0.000000000   0.000000000
   0.000000000   1.416877376   0.000000000
   0.000000000   0.000000000   2.049804415

ATOMIC_POSITIONS (crystal)
Co       0.750000000   0.825918239   0.435614471
Co       0.250000000   0.174081761   0.564385529
Co       0.750000000   0.325918239   0.064385529
Co       0.250000000   0.674081761   0.935614471
Co       0.250000000   0.537944064   0.281350090
Co       0.750000000   0.462055936   0.718649910
Co       0.250000000   0.037944064   0.218649910
Co       0.750000000   0.962055936   0.781350090
Si       0.250000000   0.201628562   0.893764385
Si       0.750000000   0.798371438   0.106235615
Si       0.250000000   0.701628562   0.606235615
Si       0.750000000   0.298371438   0.393764385

     Writing output data file Prototype-La-oP12-Co2Si.save
     NEW-OLD atomic charge density approx. for the potential
     NEW k-points:
        k(    1) = (   0.0000000   0.0000000   0.0000000), wk =   0.0833333
        k(    2) = (   0.0000000   0.0000000   0.1219629), wk =   0.1666667
        k(    3) = (   0.0000000   0.0000000  -0.2439257), wk =   0.0833333
        k(    4) = (   0.0000000   0.2352591   0.0000000), wk =   0.1666667
        k(    5) = (   0.0000000   0.2352591   0.1219629), wk =   0.3333333
        k(    6) = (   0.0000000   0.2352591  -0.2439257), wk =   0.1666667
        k(    7) = (  -0.4607715   0.0000000   0.0000000), wk =   0.0833333
        k(    8) = (  -0.4607715   0.0000000   0.1219629), wk =   0.1666667
        k(    9) = (  -0.4607715   0.0000000  -0.2439257), wk =   0.0833333
        k(   10) = (  -0.4607715   0.2352591   0.0000000), wk =   0.1666667
        k(   11) = (  -0.4607715   0.2352591   0.1219629), wk =   0.3333333
        k(   12) = (  -0.4607715   0.2352591  -0.2439257), wk =   0.1666667

[...]

     enthalpy old            =   -2914.0398072205 Ry
     enthalpy new            =   -2920.8141287927 Ry

     CASE: enthalpy_new < enthalpy_old

     small trust_radius: resetting bfgs history

     new trust radius        =       2.5153486793 bohr
     new conv_thr            =       0.0001000000 Ry

[...]

          total   stress  (Ry/bohr**3)                   (kbar)     P=-2396.03
  -0.01729944   0.00000000   0.00000000      -2544.84      0.00      0.00
   0.00000000  -0.01541697   0.00000000          0.00  -2267.91      0.00
   0.00000000   0.00000000  -0.01614718          0.00      0.00  -2375.33

     number of scf cycles    =   3
     number of bfgs steps    =   2

     enthalpy old            =   -2920.8141287927 Ry
     enthalpy new            =   -2904.5453999163 Ry

     CASE: enthalpy_new > enthalpy_old

     new trust radius        =       0.7391210893 bohr

     trust_radius < trust_radius_min

     resetting bfgs history

     Message from routine bfgs:
     history already reset at previous step: stopping
     new conv_thr            =       0.0001000000 Ry

     new unit-cell volume =   1297.57981 a.u.^3 (   192.28149 Ang^3 )

[...]

ATOMIC_POSITIONS (crystal)
Co       0.750000000   0.825785229   0.435548957
Co       0.250000000   0.174214771   0.564451043
Co       0.750000000   0.325785229   0.064451043
Co       0.250000000   0.674214771   0.935548957
Co       0.250000000   0.538821365   0.280195617
Co       0.750000000   0.461178635   0.719804383
Co       0.250000000   0.038821365   0.219804383
Co       0.750000000   0.961178635   0.780195617
Si       0.250000000   0.200620241   0.893858753
Si       0.750000000   0.799379759   0.106141247
Si       0.250000000   0.700620241   0.606141247
Si       0.750000000   0.299379759   0.393858753

     Writing output data file Prototype-La-oP12-Co2Si.save
     NEW-OLD atomic charge density approx. for the potential
     NEW k-points:
        k(    1) = (   0.0000000   0.0000000   0.0000000), wk =   0.0833333
        k(    2) = (   0.0000000   0.0000000   0.1150398), wk =   0.1666667
        k(    3) = (   0.0000000   0.0000000  -0.2300795), wk =   0.0833333
        k(    4) = (   0.0000000   0.2229414   0.0000000), wk =   0.1666667
        k(    5) = (   0.0000000   0.2229414   0.1150398), wk =   0.3333333
        k(    6) = (   0.0000000   0.2229414  -0.2300795), wk =   0.1666667
        k(    7) = (  -0.4322335   0.0000000   0.0000000), wk =   0.0833333
        k(    8) = (  -0.4322335   0.0000000   0.1150398), wk =   0.1666667
        k(    9) = (  -0.4322335   0.0000000  -0.2300795), wk =   0.0833333
        k(   10) = (  -0.4322335   0.2229414   0.0000000), wk =   0.1666667
        k(   11) = (  -0.4322335   0.2229414   0.1150398), wk =   0.3333333
        k(   12) = (  -0.4322335   0.2229414  -0.2300795), wk =   0.1666667

[...]

     The maximum number of steps has been reached.

     End of BFGS Geometry Optimization
Begin final coordinates
     new unit-cell volume =   1297.57981 a.u.^3 (   192.28149 Ang^3 )

CELL_PARAMETERS (alat=  7.01510508)
   1.156782211   0.000000000   0.000000000
   0.000000000   1.495160894   0.000000000
   0.000000000   0.000000000   2.173161513

ATOMIC_POSITIONS (crystal)
Co       0.750000000   0.825785229   0.435548957
Co       0.250000000   0.174214771   0.564451043
Co       0.750000000   0.325785229   0.064451043
Co       0.250000000   0.674214771   0.935548957
Co       0.250000000   0.538821365   0.280195617
Co       0.750000000   0.461178635   0.719804383
Co       0.250000000   0.038821365   0.219804383
Co       0.750000000   0.961178635   0.780195617
Si       0.250000000   0.200620241   0.893858753
Si       0.750000000   0.799379759   0.106141247
Si       0.250000000   0.700620241   0.606141247
Si       0.750000000   0.299379759   0.393858753
End final coordinates

     A final scf calculation at the relaxed structure.
     The G-vectors are recalculated for the final unit cell
     Results may differ from those at the preceding step.

     bravais-lattice index     =            0
     lattice parameter (alat)  =       7.0151  a.u.
     unit-cell volume          =    1297.5798 (a.u.)^3
     number of atoms/cell      =           12
     number of atomic types    =            2
     number of electrons       =       232.00
     number of Kohn-Sham states=          139
     kinetic-energy cutoff     =      40.0000  Ry
     charge density cutoff     =     160.0000  Ry
     convergence threshold     =      1.0E-04
     mixing beta               =       0.7000
     number of iterations used =            8  plain     mixing
     Exchange-correlation      = SLA-PZ-NOGX-NOGC ( 1 1 0 0 0)
     EXX-fraction              =        0.00

     celldm(1)=   7.015105  celldm(2)=   0.000000  celldm(3)=   0.000000
     celldm(4)=   0.000000  celldm(5)=   0.000000  celldm(6)=   0.000000

     crystal axes: (cart. coord. in units of alat)
               a(1) = (   1.156782   0.000000   0.000000 )
               a(2) = (   0.000000   1.495161   0.000000 )
               a(3) = (   0.000000   0.000000   2.173162 )

     reciprocal axes: (cart. coord. in units 2 pi/alat)
               b(1) = (  0.864467  0.000000  0.000000 )
               b(2) = (  0.000000  0.668824  0.000000 )
               b(3) = (  0.000000  0.000000  0.460159 )

     PseudoPot. # 1 for Gd read from file:
     /home/cwx6513/pp.La/Gd.UPF
     MD5 check sum: 09a8be538722f05520810cb6aac0efd2
     Pseudo is Norm-conserving, Zval = 18.0
     Generated in analytical, separable form
     Using radial grid of 1263 points,  6 beta functions with:
                l(1) =   0
                l(2) =   0
                l(3) =   1
                l(4) =   1
                l(5) =   2
                l(6) =   3

     PseudoPot. # 2 for Er read from file:
     /home/cwx6513/pp.La/Er.UPF
     MD5 check sum: e152ae21b84514339d8526f066caf99b
     Pseudo is Norm-conserving, Zval = 22.0
     Generated in analytical, separable form
     Using radial grid of 1267 points,  6 beta functions with:
                l(1) =   0
                l(2) =   0
                l(3) =   1
                l(4) =   1
                l(5) =   2
                l(6) =   3

     atomic species   valence    mass     pseudopotential
        Co            18.00    58.93320     Gd( 1.00)
        Si            22.00    28.08550     Er( 1.00)

      8 Sym. Ops., with inversion, found ( 6 have fractional translation)

   Cartesian axes

     site n.     atom                  positions (alat units)
         1           Co  tau(   1) = (   0.8675867   1.2346818   0.9465182  )
         2           Co  tau(   2) = (   0.2891956   0.2604791   1.2266433  )
         3           Co  tau(   3) = (   0.8675867   0.4871013   0.1400625  )
         4           Co  tau(   4) = (   0.2891956   1.0080596   2.0330990  )
         5           Co  tau(   5) = (   0.2891956   0.8056246   0.6089103  )
         6           Co  tau(   6) = (   0.8675867   0.6895363   1.5642512  )
         7           Co  tau(   7) = (   0.2891956   0.0580442   0.4776704  )
         8           Co  tau(   8) = (   0.8675867   1.4371167   1.6954911  )
         9           Si  tau(   9) = (   0.2891956   0.2999595   1.9424994  )
        10           Si  tau(  10) = (   0.8675867   1.1952014   0.2306621  )
        11           Si  tau(  11) = (   0.2891956   1.0475400   1.3172428  )
        12           Si  tau(  12) = (   0.8675867   0.4476209   0.8559187  )

     number of k points=    12  gaussian smearing, width (Ry)=  0.1000
                       cart. coord. in units 2pi/alat
        k(    1) = (   0.0000000   0.0000000   0.0000000), wk =   0.0833333
        k(    2) = (   0.0000000   0.0000000   0.1150398), wk =   0.1666667
        k(    3) = (   0.0000000   0.0000000  -0.2300795), wk =   0.0833333
        k(    4) = (   0.0000000   0.2229414   0.0000000), wk =   0.1666667
        k(    5) = (   0.0000000   0.2229414   0.1150398), wk =   0.3333333
        k(    6) = (   0.0000000   0.2229414  -0.2300795), wk =   0.1666667
        k(    7) = (  -0.4322335   0.0000000   0.0000000), wk =   0.0833333
        k(    8) = (  -0.4322335   0.0000000   0.1150398), wk =   0.1666667
        k(    9) = (  -0.4322335   0.0000000  -0.2300795), wk =   0.0833333
        k(   10) = (  -0.4322335   0.2229414   0.0000000), wk =   0.1666667
        k(   11) = (  -0.4322335   0.2229414   0.1150398), wk =   0.3333333
        k(   12) = (  -0.4322335   0.2229414  -0.2300795), wk =   0.1666667

     Largest allocated arrays     est. size (Mb)     dimensions
     Largest temporary arrays     est. size (Mb)     dimensions

     Initial potential from superposition of free atoms

     Starting from uniform charge
     Starting wfc are    0 randomized atomic wfcs

     Writing output data file Prototype-La-oP12-Co2Si.save

     Self-consistent Calculation

[...]

     iteration # 10     ecut=    40.00 Ry     beta=0.70
     CG style diagonalization
     c_bands:  1 eigenvalues not converged
     c_bands:  1 eigenvalues not converged
     ethr =  1.33E-06,  avg # of iterations =  3.5

     total energy              =   -2926.37521349 Ry
     Harris-Foulkes estimate   =   -2926.37535313 Ry
     estimated scf accuracy    <       0.00024159 Ry

     iteration # 11     ecut=    40.00 Ry     beta=0.70
     CG style diagonalization
     ethr =  1.04E-07,  avg # of iterations =  3.7

     End of self-consistent calculation

[...]

          k = 0.0000 0.2229-0.2301 (  5530 PWs)   bands (ev):

[...]

          k =-0.4322 0.2229-0.2301 (  5540 PWs)   bands (ev):

   -68.7763 -68.7763 -68.7763 -68.7763 -36.2936 -36.2936 -36.2928 -36.2928
   -36.1123 -36.1123 -36.0674 -36.0674 -30.8132 -30.8132 -30.8111 -30.8111
   -30.8021 -30.8021 -30.7972 -30.7972 -30.7697 -30.7697 -30.7686 -30.7686
    -7.8112  -7.8112  -7.7120  -7.7120  -7.6949  -7.6949  -7.6619  -7.6619
    -7.5622  -7.5622  -7.4236  -7.4236  -7.3124  -7.3124  -7.1916  -7.1916
    -7.1655  -7.1655  -7.1214  -7.1214  -7.0294  -7.0294  -6.9241  -6.9241
    15.4425  15.4425  15.4638  15.4638  15.5209  15.5209  15.6200  15.6200
    15.6521  15.6521  15.6631  15.6631  15.7383  15.7383  15.7556  15.7556
    15.9860  15.9860  16.0734  16.0734  21.8950  21.8950  22.1064  22.1064
    24.1166  24.1166  24.6952  24.6952  25.0357  25.0357  25.4843  25.4843
    25.5513  25.5513  26.0095  26.0095  26.0542  26.0542  26.3160  26.3160
    26.4580  26.4580  26.8980  26.8980  27.2478  27.2478  27.8072  27.8072
    27.9104  27.9104  28.1667  28.1667  28.7005  28.7006  29.2283  29.2283
    29.2604  29.2604  29.6162  29.6162  29.8497  29.8497  30.3879  30.3879
    31.7358  31.7358  32.2283  32.2283  33.4297  33.4297  36.0681  36.0681
    37.1479  37.1479  37.2023  37.2023  38.5035  38.5035  39.2222  39.2222
    39.8313  39.8314  40.2967  40.2967  40.7314  40.7315  41.7630  41.7632
    41.8347  41.8349  42.2582

     the Fermi energy is    33.6290 ev

!    total energy              =   -2926.37528775 Ry
     Harris-Foulkes estimate   =   -2926.37530009 Ry
     estimated scf accuracy    <       0.00001251 Ry

     The total energy is the sum of the following terms:

     one-electron contribution =    -288.23939802 Ry
     hartree contribution      =     363.34845964 Ry
     xc contribution           =    -276.92371991 Ry
     ewald contribution        =   -2724.37599995 Ry
     smearing contrib. (-TS)   =      -0.18462951 Ry

     convergence has been achieved in  11 iterations

     Forces acting on atoms (Ry/au):

     atom    1 type  1   force =     0.00000000   -0.03051173   -0.00634623
     atom    2 type  1   force =     0.00000000    0.03051173    0.00634623
     atom    3 type  1   force =     0.00000000   -0.03051173    0.00634623
     atom    4 type  1   force =     0.00000000    0.03051173   -0.00634623
     atom    5 type  1   force =     0.00000000    0.03213472   -0.05338197
     atom    6 type  1   force =     0.00000000   -0.03213472    0.05338197
     atom    7 type  1   force =     0.00000000    0.03213472    0.05338197
     atom    8 type  1   force =     0.00000000   -0.03213472   -0.05338197
     atom    9 type  2   force =     0.00000000   -0.06013732    0.00346694
     atom   10 type  2   force =     0.00000000    0.06013732   -0.00346694
     atom   11 type  2   force =     0.00000000   -0.06013732   -0.00346694
     atom   12 type  2   force =     0.00000000    0.06013732    0.00346694

     Total force =     0.184196     Total SCF correction =     0.000000

     entering subroutine stress ...

          total   stress  (Ry/bohr**3)                   (kbar)     P=  864.95
   0.00616027   0.00000000   0.00000000        906.21      0.00      0.00
   0.00000000   0.00562748   0.00000000          0.00    827.83      0.00
   0.00000000   0.00000000   0.00585162          0.00      0.00    860.80

     Writing output data file Prototype-La-oP12-Co2Si.save

     General routines

     Parallel routines

   This run was terminated on:  23: 6:16  22Mar2018

   JOB DONE.