     Program PWSCF v.5.0.2 starts on 22Mar2018 at 17:34:59

     Current dimensions of program PWSCF are:
     Max number of different atomic species (ntypx) = 10
     Max number of k-points (npk) =  40000
     Max angular momentum in pseudopotentials (lmaxx) =  3
     Waiting for input...
     Reading input from standard input

     Subspace diagonalization in iterative solution of the eigenvalue problem:
     a serial algorithm will be used

     bravais-lattice index     =            0
     lattice parameter (alat)  =       9.9235  a.u.
     unit-cell volume          =    1361.0366 (a.u.)^3
     number of atoms/cell      =           12
     number of atomic types    =            2
     number of electrons       =       208.00
     number of Kohn-Sham states=          125
     kinetic-energy cutoff     =      40.0000  Ry
     charge density cutoff     =     160.0000  Ry
     convergence threshold     =      1.0E-04
     mixing beta               =       0.7000
     number of iterations used =            8  plain     mixing
     Exchange-correlation      = SLA-PZ-NOGX-NOGC ( 1 1 0 0 0)
     EXX-fraction              =        0.00
     nstep                     =           50

     celldm(1)=   9.923489  celldm(2)=   0.000000  celldm(3)=   0.000000
     celldm(4)=   0.000000  celldm(5)=   0.000000  celldm(6)=   0.000000

     crystal axes: (cart. coord. in units of alat)
               a(1) = (   1.000000   0.000000   0.000000 )
               a(2) = (  -0.500000   0.866025   0.000000 )
               a(3) = (   0.000000   0.000000   1.608222 )

     reciprocal axes: (cart. coord. in units 2 pi/alat)
               b(1) = (  1.000000  0.577350  0.000000 )
               b(2) = (  0.000000  1.154701  0.000000 )
               b(3) = (  0.000000  0.000000  0.621805 )

     PseudoPot. # 1 for Nd read from file:
     /home/cwx6513/pp.La/Nd.UPF
     MD5 check sum: c66c5b6abe7b5840ced9b1e244e3bed6
     Pseudo is Norm-conserving, Zval = 14.0
     Generated in analytical, separable form
     Using radial grid of 1257 points,  6 beta functions with:
                l(1) =   0
                l(2) =   0
                l(3) =   1
                l(4) =   1
                l(5) =   2
                l(6) =   3

     PseudoPot. # 2 for Tb read from file:
     /home/cwx6513/pp.La/Tb.UPF
     MD5 check sum: 3d6088a3f0cf7fd2e110c43f7f8e95c2
     Pseudo is Norm-conserving, Zval = 19.0
     Generated in analytical, separable form
     Using radial grid of 1263 points,  6 beta functions with:
                l(1) =   0
                l(2) =   0
                l(3) =   1
                l(4) =   1
                l(5) =   2
                l(6) =   3

     atomic species   valence    mass     pseudopotential
        Mg            14.00    24.30500     Nd( 1.00)
        Zn            19.00    65.39000     Tb( 1.00)

     24 Sym. Ops., with inversion, found (12 have fractional translation)

   Cartesian axes

     site n.     atom                  positions (alat units)
         1           Mg  tau(   1) = (  -0.0000005   0.5773506   0.1003820  )
         2           Mg  tau(   2) = (   0.5000005   0.2886748   0.9044931  )
         3           Mg  tau(   3) = (   0.5000005   0.2886748   1.5078402  )
         4           Mg  tau(   4) = (  -0.0000005   0.5773506   0.7037291  )
         5           Zn  tau(   5) = (   0.0000000   0.0000000   0.0000000  )
         6           Zn  tau(   6) = (   0.0000000   0.0000000   0.8041111  )
         7           Zn  tau(   7) = (   0.0000000   0.2950739   1.2061667  )
         8           Zn  tau(   8) = (   0.7444585   0.1475370   0.4020556  )
         9           Zn  tau(   9) = (   0.2555415   0.1475370   0.4020556  )
        10           Zn  tau(  10) = (   0.2444585   0.7184884   1.2061667  )
        11           Zn  tau(  11) = (  -0.2444585   0.7184884   1.2061667  )
        12           Zn  tau(  12) = (   0.5000000   0.5709515   0.4020556  )

     number of k points=    12  gaussian smearing, width (Ry)=  0.1000
                       cart. coord. in units 2pi/alat
        k(    1) = (   0.0000000   0.0000000   0.0000000), wk =   0.0833333
        k(    2) = (   0.0000000   0.0000000   0.1554512), wk =   0.1666667
        k(    3) = (   0.0000000   0.0000000  -0.3109023), wk =   0.0833333
        k(    4) = (   0.0000000   0.3849002   0.0000000), wk =   0.1666667
        k(    5) = (   0.0000000   0.3849002   0.1554512), wk =   0.3333333
        k(    6) = (   0.0000000   0.3849002  -0.3109023), wk =   0.1666667
        k(    7) = (  -0.5000000  -0.2886751   0.0000000), wk =   0.0833333
        k(    8) = (  -0.5000000  -0.2886751   0.1554512), wk =   0.1666667
        k(    9) = (  -0.5000000  -0.2886751  -0.3109023), wk =   0.0833333
        k(   10) = (  -0.5000000   0.0962250   0.0000000), wk =   0.1666667
        k(   11) = (  -0.5000000   0.0962250   0.1554512), wk =   0.3333333
        k(   12) = (  -0.5000000   0.0962250  -0.3109023), wk =   0.1666667

     Largest allocated arrays     est. size (Mb)     dimensions
     Largest temporary arrays     est. size (Mb)     dimensions

     Initial potential from superposition of free atoms

     Starting from uniform charge
     Starting wfc are    0 randomized atomic wfcs

     Self-consistent Calculation

     iteration #  1     ecut=    40.00 Ry     beta=0.70
     CG style diagonalization
     c_bands:  1 eigenvalues not converged
     c_bands:  1 eigenvalues not converged
     c_bands:  2 eigenvalues not converged
     c_bands:  1 eigenvalues not converged
     ethr =  1.00E-02,  avg # of iterations = 19.6

     total energy              =   -1444.96844437 Ry
     Harris-Foulkes estimate   =   -2896.39119689 Ry
     estimated scf accuracy    <    1754.98832120 Ry

     iteration #  2     ecut=    40.00 Ry     beta=0.70
     CG style diagonalization
     ethr =  1.00E-02,  avg # of iterations = 19.5

[...]

     End of self-consistent calculation

          k = 0.0000 0.0000 0.0000 (  5769 PWs)   bands (ev):

   -46.7500 -46.7017 -46.4673 -46.4673 -46.4639 -46.4638 -46.4545 -46.3878
   -18.2412 -18.2042 -18.0998 -18.0387 -16.6973 -16.4050 -15.9010 -15.5207
   -15.5206 -15.4576 -15.4576 -15.3199 -15.3199 -15.0864 -14.9128 -14.8811
   -14.8810 -14.8008 -14.8008 -14.4044 -14.3881 -14.3775 -14.3775 -14.3578
   -14.3485 -14.3484 -14.2951 -14.2951   3.0940   3.0946   3.1122   3.1123
     3.1358   3.1358   3.6581   3.6839   3.6858   3.6858   3.7299   3.7299
    16.7638  17.5144  17.9446  18.9060  18.9060  19.3374  19.3374  19.6245
    19.7446  19.7446  20.1777  20.1778  20.2388  20.5817  20.9767  20.9978
    20.9978  21.8967  21.8967  22.4986  22.5256  22.5256  23.0405  23.0405
    23.0909  23.4443  24.2523  24.2523  24.2722  24.2722  24.2779  24.2779
    24.2963  24.4825  24.7150  24.7150  25.0563  25.6727  25.6727  26.4600
    26.4601  26.7299  26.7299  26.7919  26.9252  26.9252  27.8293  27.8293
    28.0467  28.2690  28.2738  28.3898  28.4094  28.4094  29.3919  29.3919
    29.5291  29.5291  31.5405  31.6503  31.7411  31.7411  31.7608  31.9974
    31.9974  34.7214  34.7217  35.7131  36.1346  36.4538  36.6888  36.8255
    36.8259  36.8699  36.8876  36.8876  37.1073

[...]

          k =-0.5000-0.2887 0.0000 (  5800 PWs)   bands (ev):

[...]

     the Fermi energy is    29.8125 ev

!    total energy              =   -2275.07514776 Ry
     Harris-Foulkes estimate   =   -2275.07519985 Ry
     estimated scf accuracy    <       0.00007196 Ry

     The total energy is the sum of the following terms:

     one-electron contribution =    -225.60022096 Ry
     hartree contribution      =     306.01726250 Ry
     xc contribution           =    -232.04293997 Ry
     ewald contribution        =   -2122.96912388 Ry
     smearing contrib. (-TS)   =      -0.48012546 Ry

     convergence has been achieved in  10 iterations

     Forces acting on atoms (Ry/au):

     atom    1 type  1   force =     0.00000000    0.00000000    0.01403570
     atom    2 type  1   force =     0.00000000    0.00000000    0.01403570
     atom    3 type  1   force =     0.00000000    0.00000000   -0.01403570
     atom    4 type  1   force =     0.00000000    0.00000000   -0.01403570
     atom    5 type  2   force =     0.00000000    0.00000000    0.00000000
     atom    6 type  2   force =     0.00000000    0.00000000    0.00000000
     atom    7 type  2   force =     0.00000000    0.06983522    0.00000000
     atom    8 type  2   force =    -0.06047908    0.03491761    0.00000000
     atom    9 type  2   force =     0.06047908    0.03491761    0.00000000
     atom   10 type  2   force =    -0.06047908   -0.03491761    0.00000000
     atom   11 type  2   force =     0.06047908   -0.03491761    0.00000000
     atom   12 type  2   force =     0.00000000   -0.06983522    0.00000000

     Total force =     0.173349     Total SCF correction =     0.000000

     entering subroutine stress ...

          total   stress  (Ry/bohr**3)                   (kbar)     P=  616.76
   0.00412244   0.00000000   0.00000000        606.43      0.00      0.00
   0.00000000   0.00412244   0.00000000          0.00    606.43      0.00
   0.00000000   0.00000000   0.00433307          0.00      0.00    637.42

     BFGS Geometry Optimization

     number of scf cycles    =   1
     number of bfgs steps    =   0

     enthalpy new            =   -2275.0751477632 Ry

     new trust radius        =       0.5000000000 bohr
     new conv_thr            =       0.0001000000 Ry

     new unit-cell volume =   1646.69416 a.u.^3 (   244.01490 Ang^3 )

CELL_PARAMETERS (alat=  9.92348860)
   1.064470755   0.000000000   0.000000000
  -0.532235377   0.921858715   0.000000000
   0.000000000   0.000000000   1.717203317

ATOMIC_POSITIONS (crystal)
Mg       0.333333000   0.666667000   0.062968164
Mg       0.666667000   0.333333000   0.562968164
Mg       0.666667000   0.333333000   0.937031836
Mg       0.333333000   0.666667000   0.437031836
Zn       0.000000000   0.000000000   0.000000000
Zn       0.000000000   0.000000000   0.500000000
Zn       0.172902666   0.345805331   0.750000000
Zn       0.827097334   0.172902666   0.250000000
Zn       0.345805331   0.172902666   0.250000000
Zn       0.654194669   0.827097334   0.750000000
Zn       0.172902666   0.827097334   0.750000000
Zn       0.827097334   0.654194669   0.250000000

     Writing output data file Prototype-La-hP12-MgZn2.save
     NEW-OLD atomic charge density approx. for the potential
     NEW k-points:
        k(    1) = (   0.0000000   0.0000000   0.0000000), wk =   0.0833333
        k(    2) = (   0.0000000   0.0000000   0.1455856), wk =   0.1666667
        k(    3) = (   0.0000000   0.0000000  -0.2911711), wk =   0.0833333
        k(    4) = (   0.0000000   0.3615883   0.0000000), wk =   0.1666667
        k(    5) = (   0.0000000   0.3615883   0.1455856), wk =   0.3333333
        k(    6) = (   0.0000000   0.3615883  -0.2911711), wk =   0.1666667
        k(    7) = (  -0.4697170  -0.2711912   0.0000000), wk =   0.0833333
        k(    8) = (  -0.4697170  -0.2711912   0.1455856), wk =   0.1666667
        k(    9) = (  -0.4697170  -0.2711912  -0.2911711), wk =   0.0833333
        k(   10) = (  -0.4697170   0.0903971   0.0000000), wk =   0.1666667
        k(   11) = (  -0.4697170   0.0903971   0.1455856), wk =   0.3333333
        k(   12) = (  -0.4697170   0.0903971  -0.2911711), wk =   0.1666667

[...]

     enthalpy old            =   -2275.0751477632 Ry
     enthalpy new            =   -2275.1068827525 Ry

     CASE: enthalpy_new < enthalpy_old

     small trust_radius: resetting bfgs history

     new trust radius        =       0.6347238711 bohr
     new conv_thr            =       0.0000540545 Ry

[...]

     number of scf cycles    =   3
     number of bfgs steps    =   2

     enthalpy old            =   -2275.1068827526 Ry
     enthalpy new            =   -2274.7739184930 Ry

     CASE: enthalpy_new > enthalpy_old

     new trust radius        =       0.2360797220 bohr

     trust_radius < trust_radius_min

     resetting bfgs history

     Message from routine bfgs:
     history already reset at previous step: stopping
     new conv_thr            =       0.0000540545 Ry

     new unit-cell volume =   1362.33135 a.u.^3 (   201.87668 Ang^3 )

[...]

ATOMIC_POSITIONS (crystal)
Mg       0.333333000   0.666667000   0.063231189
Mg       0.666667000   0.333333000   0.563231189
Mg       0.666667000   0.333333000   0.936768811
Mg       0.333333000   0.666667000   0.436768811
Zn       0.000000000   0.000000000   0.000000000
Zn       0.000000000   0.000000000   0.500000000
Zn       0.170288741   0.340577481   0.750000000
Zn       0.829711259   0.170288741   0.250000000
Zn       0.340577481   0.170288741   0.250000000
Zn       0.659422519   0.829711259   0.750000000
Zn       0.170288741   0.829711259   0.750000000
Zn       0.829711259   0.659422519   0.250000000

     Writing output data file Prototype-La-hP12-MgZn2.save
     NEW-OLD atomic charge density approx. for the potential
     NEW k-points:
        k(    1) = (   0.0000000   0.0000000   0.0000000), wk =   0.0833333
        k(    2) = (   0.0000000   0.0000000   0.1555040), wk =   0.1666667
        k(    3) = (   0.0000000   0.0000000  -0.3110080), wk =   0.0833333
        k(    4) = (   0.0000000   0.3846519   0.0000000), wk =   0.1666667
        k(    5) = (   0.0000000   0.3846519   0.1555040), wk =   0.3333333
        k(    6) = (   0.0000000   0.3846519  -0.3110080), wk =   0.1666667
        k(    7) = (  -0.4996774  -0.2884889   0.0000000), wk =   0.0833333
        k(    8) = (  -0.4996774  -0.2884889   0.1555040), wk =   0.1666667
        k(    9) = (  -0.4996774  -0.2884889  -0.3110080), wk =   0.0833333
        k(   10) = (  -0.4996774   0.0961630   0.0000000), wk =   0.1666667
        k(   11) = (  -0.4996774   0.0961630   0.1555040), wk =   0.3333333
        k(   12) = (  -0.4996774   0.0961630  -0.3110080), wk =   0.1666667

[...]

     The maximum number of steps has been reached.

     End of BFGS Geometry Optimization
Begin final coordinates
     new unit-cell volume =   1362.33135 a.u.^3 (   201.87668 Ang^3 )

CELL_PARAMETERS (alat=  9.92348860)
   1.000645541   0.000000000   0.000000000
  -0.500322771   0.866584459   0.000000000
   0.000000000   0.000000000   1.607675761

ATOMIC_POSITIONS (crystal)
Mg       0.333333000   0.666667000   0.063231189
Mg       0.666667000   0.333333000   0.563231189
Mg       0.666667000   0.333333000   0.936768811
Mg       0.333333000   0.666667000   0.436768811
Zn       0.000000000   0.000000000   0.000000000
Zn       0.000000000   0.000000000   0.500000000
Zn       0.170288741   0.340577481   0.750000000
Zn       0.829711259   0.170288741   0.250000000
Zn       0.340577481   0.170288741   0.250000000
Zn       0.659422519   0.829711259   0.750000000
Zn       0.170288741   0.829711259   0.750000000
Zn       0.829711259   0.659422519   0.250000000
End final coordinates

     A final scf calculation at the relaxed structure.
     The G-vectors are recalculated for the final unit cell
     Results may differ from those at the preceding step.

     bravais-lattice index     =            0
     lattice parameter (alat)  =       9.9235  a.u.
     unit-cell volume          =    1362.3313 (a.u.)^3
     number of atoms/cell      =           12
     number of atomic types    =            2
     number of electrons       =       208.00
     number of Kohn-Sham states=          125
     kinetic-energy cutoff     =      40.0000  Ry
     charge density cutoff     =     160.0000  Ry
     convergence threshold     =      5.4E-05
     mixing beta               =       0.7000
     number of iterations used =            8  plain     mixing
     Exchange-correlation      = SLA-PZ-NOGX-NOGC ( 1 1 0 0 0)
     EXX-fraction              =        0.00

     celldm(1)=   9.923489  celldm(2)=   0.000000  celldm(3)=   0.000000
     celldm(4)=   0.000000  celldm(5)=   0.000000  celldm(6)=   0.000000

     crystal axes: (cart. coord. in units of alat)
               a(1) = (   1.000646   0.000000   0.000000 )
               a(2) = (  -0.500323   0.866584   0.000000 )
               a(3) = (   0.000000   0.000000   1.607676 )

     reciprocal axes: (cart. coord. in units 2 pi/alat)
               b(1) = (  0.999355  0.576978  0.000000 )
               b(2) = (  0.000000  1.153956  0.000000 )
               b(3) = (  0.000000  0.000000  0.622016 )

     PseudoPot. # 1 for Nd read from file:
     /home/cwx6513/pp.La/Nd.UPF
     MD5 check sum: c66c5b6abe7b5840ced9b1e244e3bed6
     Pseudo is Norm-conserving, Zval = 14.0
     Generated in analytical, separable form
     Using radial grid of 1257 points,  6 beta functions with:
                l(1) =   0
                l(2) =   0
                l(3) =   1
                l(4) =   1
                l(5) =   2
                l(6) =   3

     PseudoPot. # 2 for Tb read from file:
     /home/cwx6513/pp.La/Tb.UPF
     MD5 check sum: 3d6088a3f0cf7fd2e110c43f7f8e95c2
     Pseudo is Norm-conserving, Zval = 19.0
     Generated in analytical, separable form
     Using radial grid of 1263 points,  6 beta functions with:
                l(1) =   0
                l(2) =   0
                l(3) =   1
                l(4) =   1
                l(5) =   2
                l(6) =   3

     atomic species   valence    mass     pseudopotential
        Mg            14.00    24.30500     Nd( 1.00)
        Zn            19.00    65.39000     Tb( 1.00)

     24 Sym. Ops., with inversion, found (12 have fractional translation)

   Cartesian axes

     site n.     atom                  positions (alat units)
         1           Mg  tau(   1) = (  -0.0000005   0.5777233   0.1016553  )
         2           Mg  tau(   2) = (   0.5003233   0.2888612   0.9054931  )
         3           Mg  tau(   3) = (   0.5003233   0.2888612   1.5060205  )
         4           Mg  tau(   4) = (  -0.0000005   0.5777233   0.7021826  )
         5           Zn  tau(   5) = (   0.0000000   0.0000000   0.0000000  )
         6           Zn  tau(   6) = (   0.0000000   0.0000000   0.8038379  )
         7           Zn  tau(   7) = (   0.0000000   0.2951392   1.2057568  )
         8           Zn  tau(   8) = (   0.7450475   0.1475696   0.4019189  )
         9           Zn  tau(   9) = (   0.2555980   0.1475696   0.4019189  )
        10           Zn  tau(  10) = (   0.2447248   0.7190149   1.2057568  )
        11           Zn  tau(  11) = (  -0.2447248   0.7190149   1.2057568  )
        12           Zn  tau(  12) = (   0.5003228   0.5714453   0.4019189  )

     number of k points=    12  gaussian smearing, width (Ry)=  0.1000
                       cart. coord. in units 2pi/alat
        k(    1) = (   0.0000000   0.0000000   0.0000000), wk =   0.0833333
        k(    2) = (   0.0000000   0.0000000   0.1555040), wk =   0.1666667
        k(    3) = (   0.0000000   0.0000000  -0.3110080), wk =   0.0833333
        k(    4) = (   0.0000000   0.3846519   0.0000000), wk =   0.1666667
        k(    5) = (   0.0000000   0.3846519   0.1555040), wk =   0.3333333
        k(    6) = (   0.0000000   0.3846519  -0.3110080), wk =   0.1666667
        k(    7) = (  -0.4996774  -0.2884889   0.0000000), wk =   0.0833333
        k(    8) = (  -0.4996774  -0.2884889   0.1555040), wk =   0.1666667
        k(    9) = (  -0.4996774  -0.2884889  -0.3110080), wk =   0.0833333
        k(   10) = (  -0.4996774   0.0961630   0.0000000), wk =   0.1666667
        k(   11) = (  -0.4996774   0.0961630   0.1555040), wk =   0.3333333
        k(   12) = (  -0.4996774   0.0961630  -0.3110080), wk =   0.1666667

     Largest allocated arrays     est. size (Mb)     dimensions
     Largest temporary arrays     est. size (Mb)     dimensions

     Initial potential from superposition of free atoms

     Starting from uniform charge
     Starting wfc are    0 randomized atomic wfcs

     Writing output data file Prototype-La-hP12-MgZn2.save

     Self-consistent Calculation

[...]

     iteration #  9     ecut=    40.00 Ry     beta=0.70
     CG style diagonalization
     c_bands:  1 eigenvalues not converged
     ethr =  5.57E-06,  avg # of iterations =  3.7

[...]

     total energy              =   -2275.08398971 Ry
     Harris-Foulkes estimate   =   -2275.08403138 Ry
     estimated scf accuracy    <       0.00007648 Ry

     iteration # 11     ecut=    40.00 Ry     beta=0.70
     CG style diagonalization
     ethr =  3.68E-08,  avg # of iterations =  4.1

     End of self-consistent calculation

[...]

          k = 0.0000 0.3847-0.3110 (  5820 PWs)   bands (ev):

[...]

          k =-0.4997 0.0962-0.3110 (  5832 PWs)   bands (ev):

   -46.6903 -46.6903 -46.6067 -46.6067 -46.5064 -46.5063 -46.4367 -46.4367
   -18.2327 -18.2326 -18.1448 -18.1447 -16.1694 -16.1694 -15.7358 -15.7358
   -15.3735 -15.3735 -15.3079 -15.3079 -15.2138 -15.2138 -15.1249 -15.1249
   -14.9761 -14.9761 -14.7771 -14.7771 -14.6210 -14.6210 -14.5350 -14.5350
   -14.4531 -14.4531 -14.4190 -14.4190   3.0159   3.0160   3.0374   3.0375
     3.2322   3.2323   3.5072   3.5073   3.7184   3.7184   3.7305   3.7306
    18.3893  18.3893  19.3433  19.3433  19.7357  19.7357  20.0209  20.0209
    20.2379  20.2379  20.4579  20.4579  21.0001  21.0001  21.0894  21.0894
    21.5354  21.5354  21.7330  21.7331  22.0220  22.0220  22.4361  22.4361
    22.7312  22.7312  23.0145  23.0145  23.3819  23.3820  23.7767  23.7767
    24.0417  24.0417  24.2042  24.2042  24.3610  24.3610  24.9387  24.9387
    25.5210  25.5211  26.3807  26.3807  27.2539  27.2539  27.7393  27.7394
    28.1110  28.1110  28.4980  28.4980  28.7781  28.7781  29.4503  29.4503
    30.0809  30.0809  30.8563  30.8563  31.1707  31.1707  31.4020  31.4020
    32.3313  32.3314  33.2674  33.2674  35.3042  35.3042  36.7117  36.7117
    37.2860  37.2860  37.5273  37.5275  38.6773

     the Fermi energy is    29.7788 ev

!    total energy              =   -2275.08400809 Ry
     Harris-Foulkes estimate   =   -2275.08402299 Ry
     estimated scf accuracy    <       0.00001693 Ry

     The total energy is the sum of the following terms:

     one-electron contribution =    -226.71880001 Ry
     hartree contribution      =     306.39434854 Ry
     xc contribution           =    -232.03059544 Ry
     ewald contribution        =   -2122.24793268 Ry
     smearing contrib. (-TS)   =      -0.48102850 Ry

     convergence has been achieved in  11 iterations

     Forces acting on atoms (Ry/au):

     atom    1 type  1   force =     0.00000000    0.00000000   -0.00907916
     atom    2 type  1   force =     0.00000000    0.00000000   -0.00907916
     atom    3 type  1   force =     0.00000000    0.00000000    0.00907916
     atom    4 type  1   force =     0.00000000    0.00000000    0.00907916
     atom    5 type  2   force =     0.00000000    0.00000000    0.00000000
     atom    6 type  2   force =     0.00000000    0.00000000    0.00000000
     atom    7 type  2   force =     0.00000000    0.06733461    0.00000000
     atom    8 type  2   force =    -0.05831348    0.03366730    0.00000000
     atom    9 type  2   force =     0.05831348    0.03366730    0.00000000
     atom   10 type  2   force =    -0.05831348   -0.03366730    0.00000000
     atom   11 type  2   force =     0.05831348   -0.03366730    0.00000000
     atom   12 type  2   force =     0.00000000   -0.06733461    0.00000000

     Total force =     0.165932     Total SCF correction =     0.000000

     entering subroutine stress ...

          total   stress  (Ry/bohr**3)                   (kbar)     P=  617.13
   0.00412588   0.00000000   0.00000000        606.94      0.00      0.00
   0.00000000   0.00412588   0.00000000          0.00    606.94      0.00
   0.00000000   0.00000000   0.00433383          0.00      0.00    637.53

     Writing output data file Prototype-La-hP12-MgZn2.save

     General routines

     Parallel routines

   This run was terminated on:  18: 3:20  22Mar2018

   JOB DONE.