     Program PWSCF v.5.0.2 starts on 22Mar2018 at  0:35:21

     Current dimensions of program PWSCF are:
     Max number of different atomic species (ntypx) = 10
     Max number of k-points (npk) =  40000
     Max angular momentum in pseudopotentials (lmaxx) =  3
     Waiting for input...
     Reading input from standard input

     Subspace diagonalization in iterative solution of the eigenvalue problem:
     a serial algorithm will be used

     bravais-lattice index     =            0
     lattice parameter (alat)  =      12.8532  a.u.
     unit-cell volume          =    1390.2597 (a.u.)^3
     number of atoms/cell      =            6
     number of atomic types    =            2
     number of electrons       =        96.00
     number of Kohn-Sham states=           58
     kinetic-energy cutoff     =      40.0000  Ry
     charge density cutoff     =     160.0000  Ry
     convergence threshold     =      1.0E-04
     mixing beta               =       0.7000
     number of iterations used =            8  plain     mixing
     Exchange-correlation      = SLA-PZ-NOGX-NOGC ( 1 1 0 0 0)
     EXX-fraction              =        0.00
     nstep                     =           50

     celldm(1)=  12.853229  celldm(2)=   0.000000  celldm(3)=   0.000000
     celldm(4)=   0.000000  celldm(5)=   0.000000  celldm(6)=   0.000000

     crystal axes: (cart. coord. in units of alat)
               a(1) = (   1.000000   0.000000   0.000000 )
               a(2) = (  -0.036574   0.999331   0.000000 )
               a(3) = (  -0.266883  -0.706777   0.655164 )

     reciprocal axes: (cart. coord. in units 2 pi/alat)
               b(1) = (  1.000000  0.036598  0.446834 )
               b(2) = (  0.000000  1.000669  1.079502 )
               b(3) = (  0.000000  0.000000  1.526336 )

     PseudoPot. # 1 for Ce read from file:
     /home/jld5415/pp.La/Ce.UPF
     MD5 check sum: 44451aa79a44a00cf2bc029dc19922f6
     Pseudo is Norm-conserving, Zval = 12.0
     Generated in analytical, separable form
     Using radial grid of 1255 points,  6 beta functions with:
                l(1) =   0
                l(2) =   0
                l(3) =   1
                l(4) =   1
                l(5) =   2
                l(6) =   3

     PseudoPot. # 2 for Gd read from file:
     /home/jld5415/pp.La/Gd.UPF
     MD5 check sum: 09a8be538722f05520810cb6aac0efd2
     Pseudo is Norm-conserving, Zval = 18.0
     Generated in analytical, separable form
     Using radial grid of 1263 points,  6 beta functions with:
                l(1) =   0
                l(2) =   0
                l(3) =   1
                l(4) =   1
                l(5) =   2
                l(6) =   3

     atomic species   valence    mass     pseudopotential
        K             12.00    39.09830     Ce( 1.00)
        Hg            18.00   200.59000     Gd( 1.00)

      2 Sym. Ops., with inversion, found

   Cartesian axes

     site n.     atom                  positions (alat units)
         1           K   tau(   1) = (  -0.0340766   0.4201429   0.4913727  )
         2           K   tau(   2) = (   0.7306201  -0.1275892   0.1637909  )
         3           Hg  tau(   3) = (   0.2308977  -0.0548727   0.3630373  )
         4           Hg  tau(   4) = (   0.4656458   0.3474265   0.2921263  )
         5           Hg  tau(   5) = (   0.5181090  -0.3317640   0.6197082  )
         6           Hg  tau(   6) = (   0.1784345   0.6243178   0.0354555  )

     number of k points=   253  gaussian smearing, width (Ry)=  0.1000

     Number of k-points >= 100: set verbosity='high' to print them.

     Largest allocated arrays     est. size (Mb)     dimensions
     Largest temporary arrays     est. size (Mb)     dimensions

     Initial potential from superposition of free atoms

     Starting from uniform charge
     Starting wfc are    0 randomized atomic wfcs

     Self-consistent Calculation

     iteration #  1     ecut=    40.00 Ry     beta=0.70
     CG style diagonalization
     ethr =  1.00E-02,  avg # of iterations = 18.2

     total energy              =    -612.46226068 Ry
     Harris-Foulkes estimate   =   -1347.14755104 Ry
     estimated scf accuracy    <     901.84957860 Ry

     iteration #  2     ecut=    40.00 Ry     beta=0.70
     CG style diagonalization
     c_bands:  5 eigenvalues not converged
     c_bands:  2 eigenvalues not converged
     c_bands:  1 eigenvalues not converged
     c_bands:  4 eigenvalues not converged
     c_bands:  3 eigenvalues not converged
     c_bands:  4 eigenvalues not converged
     c_bands:  4 eigenvalues not converged
     c_bands:  2 eigenvalues not converged
     c_bands:  4 eigenvalues not converged
     c_bands:  4 eigenvalues not converged
     c_bands:  3 eigenvalues not converged
     c_bands:  2 eigenvalues not converged
     c_bands:  3 eigenvalues not converged
     c_bands:  3 eigenvalues not converged
     c_bands:  2 eigenvalues not converged
     c_bands:  3 eigenvalues not converged
     c_bands:  4 eigenvalues not converged
     c_bands:  5 eigenvalues not converged
     c_bands:  3 eigenvalues not converged
     c_bands:  3 eigenvalues not converged
     c_bands:  3 eigenvalues not converged
     c_bands:  3 eigenvalues not converged
     c_bands:  5 eigenvalues not converged
     c_bands:  5 eigenvalues not converged
     c_bands:  3 eigenvalues not converged
     c_bands:  3 eigenvalues not converged
     c_bands:  4 eigenvalues not converged
     c_bands:  4 eigenvalues not converged
     c_bands:  5 eigenvalues not converged
     c_bands:  4 eigenvalues not converged
     c_bands:  4 eigenvalues not converged
     c_bands:  4 eigenvalues not converged
     c_bands:  1 eigenvalues not converged
     c_bands:  4 eigenvalues not converged
     c_bands:  2 eigenvalues not converged
     c_bands:  4 eigenvalues not converged
     c_bands:  3 eigenvalues not converged
     c_bands:  4 eigenvalues not converged
     c_bands:  4 eigenvalues not converged
     c_bands:  3 eigenvalues not converged
     c_bands:  4 eigenvalues not converged
     c_bands:  5 eigenvalues not converged
     c_bands:  3 eigenvalues not converged
     c_bands:  3 eigenvalues not converged
     c_bands:  4 eigenvalues not converged
     c_bands:  4 eigenvalues not converged
     c_bands:  4 eigenvalues not converged
     c_bands:  4 eigenvalues not converged
     c_bands:  5 eigenvalues not converged
     c_bands:  3 eigenvalues not converged
     c_bands:  3 eigenvalues not converged
     c_bands:  4 eigenvalues not converged
     c_bands:  4 eigenvalues not converged
     c_bands:  3 eigenvalues not converged
     c_bands:  5 eigenvalues not converged
     c_bands:  3 eigenvalues not converged
     c_bands:  3 eigenvalues not converged
     c_bands:  4 eigenvalues not converged
     c_bands:  1 eigenvalues not converged
     c_bands:  4 eigenvalues not converged
[...]
     c_bands:  4 eigenvalues not converged
     c_bands:  3 eigenvalues not converged
     c_bands:  4 eigenvalues not converged
     c_bands:  5 eigenvalues not converged
     c_bands:  1 eigenvalues not converged
     c_bands:  4 eigenvalues not converged
     c_bands:  2 eigenvalues not converged
     c_bands:  5 eigenvalues not converged
     c_bands:  4 eigenvalues not converged
     c_bands:  5 eigenvalues not converged
     c_bands:  2 eigenvalues not converged
     c_bands:  2 eigenvalues not converged
     c_bands:  2 eigenvalues not converged
     c_bands:  2 eigenvalues not converged
     c_bands:  3 eigenvalues not converged
     ethr =  1.00E-02,  avg # of iterations = 15.2

[...]

     End of self-consistent calculation

     Number of k-points >= 100: set verbosity='high' to print the bands.

     the Fermi energy is    11.7634 ev

!    total energy              =    -959.92032388 Ry
     Harris-Foulkes estimate   =    -959.92037143 Ry
     estimated scf accuracy    <       0.00005271 Ry

     The total energy is the sum of the following terms:

     one-electron contribution =    -359.43639231 Ry
     hartree contribution      =     213.10147081 Ry
     xc contribution           =     -98.24426025 Ry
     ewald contribution        =    -714.84897338 Ry
     smearing contrib. (-TS)   =      -0.49216875 Ry

     convergence has been achieved in  14 iterations

     Forces acting on atoms (Ry/au):

     atom    1 type  1   force =     0.00443538    0.00589657   -0.00057900
     atom    2 type  1   force =    -0.00443538   -0.00589657    0.00057900
     atom    3 type  2   force =     0.00207425    0.00148695    0.00028648
     atom    4 type  2   force =    -0.00207425   -0.00148695   -0.00028648
     atom    5 type  2   force =     0.00564365    0.00441989    0.00063177
     atom    6 type  2   force =    -0.00564365   -0.00441989   -0.00063177

     Total force =     0.015044     Total SCF correction =     0.000000

     entering subroutine stress ...

          total   stress  (Ry/bohr**3)                   (kbar)     P= -307.00
  -0.00209115  -0.00001928   0.00000429       -307.62     -2.84      0.63
  -0.00001928  -0.00209182  -0.00000471         -2.84   -307.72     -0.69
   0.00000429  -0.00000471  -0.00207783          0.63     -0.69   -305.66

     BFGS Geometry Optimization

     number of scf cycles    =   1
     number of bfgs steps    =   0

     enthalpy new            =    -959.9203238774 Ry

     new trust radius        =       0.3899968566 bohr
     new conv_thr            =       0.0001000000 Ry

     new unit-cell volume =   1183.81142 a.u.^3 (   175.42275 Ang^3 )

CELL_PARAMETERS (alat= 12.85322937)
   0.947721173  -0.000482039   0.000107231
  -0.035143203   0.947088169  -0.000121660
  -0.252519683  -0.669764572   0.621185313

ATOMIC_POSITIONS (crystal)
K        0.201203740   0.951272440   0.749931243
K        0.798796260   0.048727560   0.250068757
Hg       0.391282572   0.337129825   0.554151019
Hg       0.608717428   0.662870175   0.445848981
Hg       0.783347633   0.337387165   0.945958024
Hg       0.216652367   0.662612835   0.054041976

     Writing output data file Prototype-La-oI12-KHg2.save
     NEW-OLD atomic charge density approx. for the potential
     NEW k-points: (use verbosity='high' to print them)

[...]

     enthalpy old            =    -959.9203238774 Ry
     enthalpy new            =    -960.2946235985 Ry

     CASE: enthalpy_new < enthalpy_old

     small trust_radius: resetting bfgs history

[...]

     number of scf cycles    =   3
     number of bfgs steps    =   2

     enthalpy old            =    -960.2946235985 Ry
     enthalpy new            =    -960.4305979236 Ry

     CASE: enthalpy_new < enthalpy_old

     Message from routine bfgs:
     history already reset at previous step: stopping
     small trust_radius: resetting bfgs history

     new trust radius        =       0.1029111598 bohr
     new conv_thr            =       0.0000269132 Ry

     new unit-cell volume =   1009.94713 a.u.^3 (   149.65872 Ang^3 )

[...]

ATOMIC_POSITIONS (crystal)
K        0.201117086   0.951143949   0.749964099
K        0.798882914   0.048856051   0.250035901
Hg       0.390329657   0.339176687   0.551139205
Hg       0.609670343   0.660823313   0.448860795
Hg       0.788258753   0.339334479   0.948928281
Hg       0.211741247   0.660665521   0.051071719

     Writing output data file Prototype-La-oI12-KHg2.save
     NEW-OLD atomic charge density approx. for the potential
     NEW k-points: (use verbosity='high' to print them)

[...]

     The maximum number of steps has been reached.

     End of BFGS Geometry Optimization
Begin final coordinates
     new unit-cell volume =   1009.94713 a.u.^3 (   149.65872 Ang^3 )

CELL_PARAMETERS (alat= 12.85322937)
   0.898064027   0.001828985  -0.003527612
  -0.031017646   0.897399957   0.003584798
  -0.243281776  -0.632956268   0.588631958

ATOMIC_POSITIONS (crystal)
K        0.201117086   0.951143949   0.749964099
K        0.798882914   0.048856051   0.250035901
Hg       0.390329657   0.339176687   0.551139205
Hg       0.609670343   0.660823313   0.448860795
Hg       0.788258753   0.339334479   0.948928281
Hg       0.211741247   0.660665521   0.051071719
End final coordinates

     A final scf calculation at the relaxed structure.
     The G-vectors are recalculated for the final unit cell
     Results may differ from those at the preceding step.

     bravais-lattice index     =            0
     lattice parameter (alat)  =      12.8532  a.u.
     unit-cell volume          =    1009.9471 (a.u.)^3
     number of atoms/cell      =            6
     number of atomic types    =            2
     number of electrons       =        96.00
     number of Kohn-Sham states=           58
     kinetic-energy cutoff     =      40.0000  Ry
     charge density cutoff     =     160.0000  Ry
     convergence threshold     =      2.7E-05
     mixing beta               =       0.7000
     number of iterations used =            8  plain     mixing
     Exchange-correlation      = SLA-PZ-NOGX-NOGC ( 1 1 0 0 0)
     EXX-fraction              =        0.00

     celldm(1)=  12.853229  celldm(2)=   0.000000  celldm(3)=   0.000000
     celldm(4)=   0.000000  celldm(5)=   0.000000  celldm(6)=   0.000000

     crystal axes: (cart. coord. in units of alat)
               a(1) = (   0.898064   0.001829  -0.003528 )
               a(2) = (  -0.031018   0.897400   0.003585 )
               a(3) = (  -0.243282  -0.632956   0.588632 )

     reciprocal axes: (cart. coord. in units 2 pi/alat)
               b(1) = (  1.115397  0.036554  0.500300 )
               b(2) = (  0.002431  1.109644  1.194205 )
               b(3) = (  0.006670 -0.006539  1.694580 )

     PseudoPot. # 1 for Ce read from file:
     /home/jld5415/pp.La/Ce.UPF
     MD5 check sum: 44451aa79a44a00cf2bc029dc19922f6
     Pseudo is Norm-conserving, Zval = 12.0
     Generated in analytical, separable form
     Using radial grid of 1255 points,  6 beta functions with:
                l(1) =   0
                l(2) =   0
                l(3) =   1
                l(4) =   1
                l(5) =   2
                l(6) =   3

     PseudoPot. # 2 for Gd read from file:
     /home/jld5415/pp.La/Gd.UPF
     MD5 check sum: 09a8be538722f05520810cb6aac0efd2
     Pseudo is Norm-conserving, Zval = 18.0
     Generated in analytical, separable form
     Using radial grid of 1263 points,  6 beta functions with:
                l(1) =   0
                l(2) =   0
                l(3) =   1
                l(4) =   1
                l(5) =   2
                l(6) =   3

     atomic species   valence    mass     pseudopotential
        K             12.00    39.09830     Ce( 1.00)
        Hg            18.00   200.59000     Gd( 1.00)

      2 Sym. Ops., with inversion, found

   Cartesian axes

     site n.     atom                  positions (alat units)
         1           K   tau(   1) = (  -0.0313388   0.3792299   0.4441530  )
         2           K   tau(   2) = (   0.6551034  -0.1129572   0.1445361  )
         3           Hg  tau(   3) = (   0.2059384  -0.0437560   0.3242571  )
         4           Hg  tau(   4) = (   0.4178262   0.3100286   0.2644320  )
         5           Hg  tau(   5) = (   0.4665245  -0.2946696   0.5570053  )
         6           Hg  tau(   6) = (   0.1572401   0.5609423   0.0316839  )

     number of k points=   253  gaussian smearing, width (Ry)=  0.1000

     Number of k-points >= 100: set verbosity='high' to print them.

     Largest allocated arrays     est. size (Mb)     dimensions
     Largest temporary arrays     est. size (Mb)     dimensions

     Initial potential from superposition of free atoms

     Starting from uniform charge
     Starting wfc are    0 randomized atomic wfcs

     Writing output data file Prototype-La-oI12-KHg2.save

     Self-consistent Calculation

[...]

     iteration # 12     ecut=    40.00 Ry     beta=0.70
     CG style diagonalization
     c_bands:  1 eigenvalues not converged
     ethr =  4.23E-07,  avg # of iterations =  4.4

[...]

     total energy              =    -960.17690702 Ry
     Harris-Foulkes estimate   =    -960.17694631 Ry
     estimated scf accuracy    <       0.00009182 Ry

     iteration # 14     ecut=    40.00 Ry     beta=0.70
     CG style diagonalization
     ethr =  9.56E-08,  avg # of iterations =  3.9

     End of self-consistent calculation

     Number of k-points >= 100: set verbosity='high' to print the bands.

     the Fermi energy is    18.0236 ev

!    total energy              =    -960.17692689 Ry
     Harris-Foulkes estimate   =    -960.17693640 Ry
     estimated scf accuracy    <       0.00000982 Ry

     The total energy is the sum of the following terms:

     one-electron contribution =    -233.80850450 Ry
     hartree contribution      =     170.88182724 Ry
     xc contribution           =     -99.70378480 Ry
     ewald contribution        =    -797.19022927 Ry
     smearing contrib. (-TS)   =      -0.35623555 Ry

     convergence has been achieved in  14 iterations

     Forces acting on atoms (Ry/au):

     atom    1 type  1   force =    -0.00715587   -0.00721513   -0.00009296
     atom    2 type  1   force =     0.00715587    0.00721513    0.00009296
     atom    3 type  2   force =    -0.02290365    0.03070690   -0.02428856
     atom    4 type  2   force =     0.02290365   -0.03070690    0.02428856
     atom    5 type  2   force =     0.02999820   -0.02239954    0.02394023
     atom    6 type  2   force =    -0.02999820    0.02239954   -0.02394023

     Total force =     0.090945     Total SCF correction =     0.000000

     entering subroutine stress ...

          total   stress  (Ry/bohr**3)                   (kbar)     P= -166.70
  -0.00114260   0.00015196  -0.00013214       -168.08     22.35    -19.44
   0.00015196  -0.00113398   0.00012830         22.35   -166.81     18.87
  -0.00013214   0.00012830  -0.00112300        -19.44     18.87   -165.20

     Writing output data file Prototype-La-oI12-KHg2.save

     General routines

     Parallel routines

   This run was terminated on:   4:18:26  22Mar2018

   JOB DONE.