     Program PWSCF v.5.0.2 starts on 22Mar2018 at  0:35:22

     Current dimensions of program PWSCF are:
     Max number of different atomic species (ntypx) = 10
     Max number of k-points (npk) =  40000
     Max angular momentum in pseudopotentials (lmaxx) =  3
     Waiting for input...
     Reading input from standard input

     Subspace diagonalization in iterative solution of the eigenvalue problem:
     a serial algorithm will be used

     bravais-lattice index     =            0
     lattice parameter (alat)  =      13.3930  a.u.
     unit-cell volume          =    1134.0956 (a.u.)^3
     number of atoms/cell      =            4
     number of atomic types    =            2
     number of electrons       =        60.00
     number of Kohn-Sham states=           36
     kinetic-energy cutoff     =      40.0000  Ry
     charge density cutoff     =     160.0000  Ry
     convergence threshold     =      1.0E-04
     mixing beta               =       0.7000
     number of iterations used =            8  plain     mixing
     Exchange-correlation      = SLA-PZ-NOGX-NOGC ( 1 1 0 0 0)
     EXX-fraction              =        0.00
     nstep                     =           50

     celldm(1)=  13.392972  celldm(2)=   0.000000  celldm(3)=   0.000000
     celldm(4)=   0.000000  celldm(5)=   0.000000  celldm(6)=   0.000000

     crystal axes: (cart. coord. in units of alat)
               a(1) = (   1.000000   0.000000   0.000000 )
               a(2) = (  -0.776311   0.630350   0.000000 )
               a(3) = (   0.000000   0.000000   0.748922 )

     reciprocal axes: (cart. coord. in units 2 pi/alat)
               b(1) = (  1.000000  1.231554  0.000000 )
               b(2) = (  0.000000  1.586419  0.000000 )
               b(3) = (  0.000000  0.000000  1.335252 )

     PseudoPot. # 1 for Ce read from file:
     /home/jld5415/pp.La/Ce.UPF
     MD5 check sum: 44451aa79a44a00cf2bc029dc19922f6
     Pseudo is Norm-conserving, Zval = 12.0
     Generated in analytical, separable form
     Using radial grid of 1255 points,  6 beta functions with:
                l(1) =   0
                l(2) =   0
                l(3) =   1
                l(4) =   1
                l(5) =   2
                l(6) =   3

     PseudoPot. # 2 for Gd read from file:
     /home/jld5415/pp.La/Gd.UPF
     MD5 check sum: 09a8be538722f05520810cb6aac0efd2
     Pseudo is Norm-conserving, Zval = 18.0
     Generated in analytical, separable form
     Using radial grid of 1263 points,  6 beta functions with:
                l(1) =   0
                l(2) =   0
                l(3) =   1
                l(4) =   1
                l(5) =   2
                l(6) =   3

     atomic species   valence    mass     pseudopotential
        Tl            12.00   204.38300     Ce( 1.00)
        I             18.00   126.90400     Gd( 1.00)

      2 Sym. Ops., with inversion, found
          (note:  2 additional sym.ops. were found but ignored
           their fractional translations are incommensurate with FFT grid)

   Cartesian axes

     site n.     atom                  positions (alat units)
         1           Tl  tau(   1) = (  -0.0906317   0.3870269   0.5616917  )
         2           Tl  tau(   2) = (   0.3143210   0.2433234   0.1872306  )
         3           I   tau(   3) = (  -0.5408004   0.5467760   0.5616917  )
         4           I   tau(   4) = (   0.7644896   0.0835744   0.1872306  )

     number of k points=   106  gaussian smearing, width (Ry)=  0.1000

     Number of k-points >= 100: set verbosity='high' to print them.

     Largest allocated arrays     est. size (Mb)     dimensions
     Largest temporary arrays     est. size (Mb)     dimensions

     Initial potential from superposition of free atoms

     Starting from uniform charge
     Starting wfc are    0 randomized atomic wfcs

     Self-consistent Calculation

     iteration #  1     ecut=    40.00 Ry     beta=0.70
     CG style diagonalization
     c_bands:  4 eigenvalues not converged
     c_bands:  4 eigenvalues not converged
     c_bands:  5 eigenvalues not converged
     ethr =  1.00E-02,  avg # of iterations = 18.4

     total energy              =    -185.43015284 Ry
     Harris-Foulkes estimate   =    -791.66625016 Ry
     estimated scf accuracy    <     738.07525936 Ry

[...]

     iteration #  3     ecut=    40.00 Ry     beta=0.70
     CG style diagonalization
     ethr =  1.00E-02,  avg # of iterations = 11.1

[...]

     negative rho (up, down):  0.400E-01 0.000E+00

[...]

     End of self-consistent calculation

     Number of k-points >= 100: set verbosity='high' to print the bands.

     the Fermi energy is     9.0206 ev

!    total energy              =    -557.07305089 Ry
     Harris-Foulkes estimate   =    -557.07305859 Ry
     estimated scf accuracy    <       0.00000886 Ry

     The total energy is the sum of the following terms:

     one-electron contribution =    -223.32524306 Ry
     hartree contribution      =     126.33654158 Ry
     xc contribution           =     -58.60041448 Ry
     ewald contribution        =    -401.12577579 Ry
     smearing contrib. (-TS)   =      -0.35815913 Ry

     convergence has been achieved in  12 iterations

     Forces acting on atoms (Ry/au):

     atom    1 type  1   force =    -0.01462970    0.00524657   -0.00205745
     atom    2 type  1   force =     0.01462970   -0.00524657    0.00205745
     atom    3 type  2   force =    -0.00164643    0.00067934   -0.00484504
     atom    4 type  2   force =     0.00164643   -0.00067934    0.00484504

     Total force =     0.023342     Total SCF correction =     0.000000

     entering subroutine stress ...

          total   stress  (Ry/bohr**3)                   (kbar)     P= -244.63
  -0.00166163   0.00000412   0.00000010       -244.43      0.61      0.01
   0.00000412  -0.00165168   0.00000015          0.61   -242.97      0.02
   0.00000010   0.00000015  -0.00167553          0.01      0.02   -246.48

     BFGS Geometry Optimization

     number of scf cycles    =   1
     number of bfgs steps    =   0

     enthalpy new            =    -557.0730508858 Ry

     new trust radius        =       0.2821290929 bohr
     new conv_thr            =       0.0001000000 Ry

     new unit-cell volume =    998.44872 a.u.^3 (   147.95483 Ang^3 )

CELL_PARAMETERS (alat= 13.39297219)
   0.958459278   0.000102935   0.000002478
  -0.743997356   0.604242020   0.000000469
   0.000001856   0.000002842   0.717551122

ATOMIC_POSITIONS (crystal)
Tl       0.385403108   0.614608465   0.749794876
Tl       0.614596892   0.385391535   0.250205124
I        0.132523537   0.867496469   0.749516959
I        0.867476463   0.132503531   0.250483041

     Writing output data file Prototype-La-oS8-TlI.save
     NEW-OLD atomic charge density approx. for the potential
     NEW k-points: (use verbosity='high' to print them)

[...]

     enthalpy old            =    -557.0730508858 Ry
     enthalpy new            =    -557.2823866783 Ry

     CASE: enthalpy_new < enthalpy_old

     WARNING: bfgs curvature condition failed, Theta= 0.988
     small trust_radius: resetting bfgs history

[...]

     number of scf cycles    =   3
     number of bfgs steps    =   2

     enthalpy old            =    -557.2823866783 Ry
     enthalpy new            =    -557.4179179488 Ry

     CASE: enthalpy_new < enthalpy_old

     Message from routine bfgs:
     history already reset at previous step: stopping
     small trust_radius: resetting bfgs history

     new trust radius        =       0.1686437022 bohr
     new conv_thr            =       0.0000174980 Ry

     new unit-cell volume =    820.51927 a.u.^3 (   121.58841 Ang^3 )

[...]

ATOMIC_POSITIONS (crystal)
Tl       0.384346561   0.615667667   0.749654759
Tl       0.615653439   0.384332333   0.250345241
I        0.131751552   0.868241639   0.748992026
I        0.868248448   0.131758361   0.251007974

     Writing output data file Prototype-La-oS8-TlI.save
     NEW-OLD atomic charge density approx. for the potential
     NEW k-points: (use verbosity='high' to print them)

[...]

     The maximum number of steps has been reached.

     End of BFGS Geometry Optimization
Begin final coordinates
     new unit-cell volume =    820.51927 a.u.^3 (   121.58841 Ang^3 )

CELL_PARAMETERS (alat= 13.39297219)
   0.897587236  -0.000036476  -0.000026966
  -0.696829613   0.565766934   0.000028081
  -0.000020182   0.000008486   0.672613205

ATOMIC_POSITIONS (crystal)
Tl       0.384346561   0.615667667   0.749654759
Tl       0.615653439   0.384332333   0.250345241
I        0.131751552   0.868241639   0.748992026
I        0.868248448   0.131758361   0.251007974
End final coordinates

     A final scf calculation at the relaxed structure.
     The G-vectors are recalculated for the final unit cell
     Results may differ from those at the preceding step.

     bravais-lattice index     =            0
     lattice parameter (alat)  =      13.3930  a.u.
     unit-cell volume          =     820.5193 (a.u.)^3
     number of atoms/cell      =            4
     number of atomic types    =            2
     number of electrons       =        60.00
     number of Kohn-Sham states=           36
     kinetic-energy cutoff     =      40.0000  Ry
     charge density cutoff     =     160.0000  Ry
     convergence threshold     =      1.7E-05
     mixing beta               =       0.7000
     number of iterations used =            8  plain     mixing
     Exchange-correlation      = SLA-PZ-NOGX-NOGC ( 1 1 0 0 0)
     EXX-fraction              =        0.00

     celldm(1)=  13.392972  celldm(2)=   0.000000  celldm(3)=   0.000000
     celldm(4)=   0.000000  celldm(5)=   0.000000  celldm(6)=   0.000000

     crystal axes: (cart. coord. in units of alat)
               a(1) = (   0.897587  -0.000036  -0.000027 )
               a(2) = (  -0.696830   0.565767   0.000028 )
               a(3) = (  -0.000020   0.000008   0.672613 )

     reciprocal axes: (cart. coord. in units 2 pi/alat)
               b(1) = (  1.114154  1.372253  0.000016 )
               b(2) = (  0.000072  1.767601 -0.000022 )
               b(3) = (  0.000045 -0.000019  1.486739 )

     PseudoPot. # 1 for Ce read from file:
     /home/jld5415/pp.La/Ce.UPF
     MD5 check sum: 44451aa79a44a00cf2bc029dc19922f6
     Pseudo is Norm-conserving, Zval = 12.0
     Generated in analytical, separable form
     Using radial grid of 1255 points,  6 beta functions with:
                l(1) =   0
                l(2) =   0
                l(3) =   1
                l(4) =   1
                l(5) =   2
                l(6) =   3

     PseudoPot. # 2 for Gd read from file:
     /home/jld5415/pp.La/Gd.UPF
     MD5 check sum: 09a8be538722f05520810cb6aac0efd2
     Pseudo is Norm-conserving, Zval = 18.0
     Generated in analytical, separable form
     Using radial grid of 1263 points,  6 beta functions with:
                l(1) =   0
                l(2) =   0
                l(3) =   1
                l(4) =   1
                l(5) =   2
                l(6) =   3

     atomic species   valence    mass     pseudopotential
        Tl            12.00   204.38300     Ce( 1.00)
        I             18.00   126.90400     Gd( 1.00)

      2 Sym. Ops., with inversion, found
          (note:  2 additional sym.ops. were found but ignored
           their fractional translations are incommensurate with FFT grid)

   Cartesian axes

     site n.     atom                  positions (alat units)
         1           Tl  tau(   1) = (  -0.0840460   0.3483168   0.5042346  )
         2           Tl  tau(   2) = (   0.2847835   0.2174222   0.1683797  )
         3           I   tau(   3) = (  -0.4867731   0.4912240   0.5038028  )
         4           I   tau(   4) = (   0.6875105   0.0745150   0.1688116  )

     number of k points=   106  gaussian smearing, width (Ry)=  0.1000

     Number of k-points >= 100: set verbosity='high' to print them.

     Largest allocated arrays     est. size (Mb)     dimensions
     Largest temporary arrays     est. size (Mb)     dimensions

     Initial potential from superposition of free atoms

     Starting from uniform charge
     Starting wfc are    0 randomized atomic wfcs

     Writing output data file Prototype-La-oS8-TlI.save

     Self-consistent Calculation

[...]

     negative rho (up, down):  0.453E-03 0.000E+00

[...]

     iteration # 10     ecut=    40.00 Ry     beta=0.70
     CG style diagonalization
     c_bands:  1 eigenvalues not converged
     c_bands:  1 eigenvalues not converged
     c_bands:  1 eigenvalues not converged
     c_bands:  1 eigenvalues not converged
     c_bands:  1 eigenvalues not converged
     c_bands:  1 eigenvalues not converged
     c_bands:  1 eigenvalues not converged
     ethr =  2.00E-06,  avg # of iterations =  4.0

[...]

     total energy              =    -557.34425876 Ry
     Harris-Foulkes estimate   =    -557.34427704 Ry
     estimated scf accuracy    <       0.00005319 Ry

     iteration # 12     ecut=    40.00 Ry     beta=0.70
     CG style diagonalization
     ethr =  8.87E-08,  avg # of iterations =  3.6

     End of self-consistent calculation

     Number of k-points >= 100: set verbosity='high' to print the bands.

     the Fermi energy is    14.1714 ev

!    total energy              =    -557.34426701 Ry
     Harris-Foulkes estimate   =    -557.34426913 Ry
     estimated scf accuracy    <       0.00000252 Ry

     The total energy is the sum of the following terms:

     one-electron contribution =    -152.90874943 Ry
     hartree contribution      =     101.93177636 Ry
     xc contribution           =     -59.38368961 Ry
     ewald contribution        =    -446.71686655 Ry
     smearing contrib. (-TS)   =      -0.26673778 Ry

     convergence has been achieved in  12 iterations

     Forces acting on atoms (Ry/au):

     atom    1 type  1   force =    -0.00117761    0.00044701    0.00101542
     atom    2 type  1   force =     0.00117761   -0.00044701   -0.00101542
     atom    3 type  2   force =    -0.02850987    0.01018611    0.00167640
     atom    4 type  2   force =     0.02850987   -0.01018611   -0.00167640

     Total force =     0.042942     Total SCF correction =     0.000000

     entering subroutine stress ...

          total   stress  (Ry/bohr**3)                   (kbar)     P= -211.24
  -0.00144742  -0.00000981  -0.00000033       -212.92     -1.44     -0.05
  -0.00000981  -0.00147293  -0.00000017         -1.44   -216.67     -0.03
  -0.00000033  -0.00000017  -0.00138768         -0.05     -0.03   -204.13

     Writing output data file Prototype-La-oS8-TlI.save

     General routines

     Parallel routines

   This run was terminated on:   1:24:13  22Mar2018

   JOB DONE.