     Program PWSCF v.5.0.2 starts on 23Mar2018 at  1: 2:34

     Current dimensions of program PWSCF are:
     Max number of different atomic species (ntypx) = 10
     Max number of k-points (npk) =  40000
     Max angular momentum in pseudopotentials (lmaxx) =  3
     Waiting for input...
     Reading input from standard input

     Subspace diagonalization in iterative solution of the eigenvalue problem:
     a serial algorithm will be used

     bravais-lattice index     =            0
     lattice parameter (alat)  =      12.0168  a.u.
     unit-cell volume          =    1187.3413 (a.u.)^3
     number of atoms/cell      =            8
     number of atomic types    =            2
     number of electrons       =       174.00
     number of Kohn-Sham states=          104
     kinetic-energy cutoff     =      40.0000  Ry
     charge density cutoff     =     160.0000  Ry
     convergence threshold     =      1.0E-04
     mixing beta               =       0.7000
     number of iterations used =            8  plain     mixing
     Exchange-correlation      = SLA-PZ-NOGX-NOGC ( 1 1 0 0 0)
     EXX-fraction              =        0.00
     nstep                     =           50

     celldm(1)=  12.016801  celldm(2)=   0.000000  celldm(3)=   0.000000
     celldm(4)=   0.000000  celldm(5)=   0.000000  celldm(6)=   0.000000

     crystal axes: (cart. coord. in units of alat)
               a(1) = (   1.000000   0.000000   0.000000 )
               a(2) = (  -0.500000   0.866025   0.000000 )
               a(3) = (   0.000000   0.000000   0.790093 )

     reciprocal axes: (cart. coord. in units 2 pi/alat)
               b(1) = (  1.000000  0.577350  0.000000 )
               b(2) = (  0.000000  1.154701  0.000000 )
               b(3) = (  0.000000  0.000000  1.265674 )

     PseudoPot. # 1 for Ho read from file:
     /home/cwx6513/pp.La/Ho.UPF
     MD5 check sum: f307ee11bce99f5b724fa279e3790763
     Pseudo is Norm-conserving, Zval = 21.0
     Generated in analytical, separable form
     Using radial grid of 1265 points,  6 beta functions with:
                l(1) =   0
                l(2) =   0
                l(3) =   1
                l(4) =   1
                l(5) =   2
                l(6) =   3

     PseudoPot. # 2 for Yb read from file:
     /home/cwx6513/pp.La/Yb.UPF
     MD5 check sum: 3e859b81cc28c53ec6aa3a2e888efcdf
     Pseudo is Norm-conserving, Zval = 24.0
     Generated in analytical, separable form
     Using radial grid of 1269 points,  6 beta functions with:
                l(1) =   0
                l(2) =   0
                l(3) =   1
                l(4) =   1
                l(5) =   2
                l(6) =   3

     atomic species   valence    mass     pseudopotential
        Mg            21.00    24.30500     Ho( 1.00)
        Cd            24.00   112.41100     Yb( 1.00)

     24 Sym. Ops., with inversion, found (12 have fractional translation)

   Cartesian axes

     site n.     atom                  positions (alat units)
         1           Mg  tau(   1) = (   0.2478935   0.7204716   0.1975233  )
         2           Mg  tau(   2) = (   0.7478935   0.1455538   0.5925699  )
         3           Mg  tau(   3) = (   0.2521065   0.1455538   0.5925699  )
         4           Mg  tau(   4) = (  -0.2478935   0.7204716   0.1975233  )
         5           Mg  tau(   5) = (   0.0000000   0.2911075   0.1975233  )
         6           Mg  tau(   6) = (   0.5000000   0.5749179   0.5925699  )
         7           Cd  tau(   7) = (   0.5000005   0.2886748   0.1975233  )
         8           Cd  tau(   8) = (  -0.0000005   0.5773506   0.5925699  )

     number of k points=    64  gaussian smearing, width (Ry)=  0.1000
                       cart. coord. in units 2pi/alat
        k(    1) = (   0.0000000   0.0000000   0.0000000), wk =   0.0095238
        k(    2) = (   0.0000000   0.0000000   0.1808105), wk =   0.0190476
        k(    3) = (   0.0000000   0.0000000   0.3616210), wk =   0.0190476
        k(    4) = (   0.0000000   0.0000000   0.5424315), wk =   0.0190476
        k(    5) = (   0.0000000   0.1924501   0.0000000), wk =   0.0190476
        k(    6) = (   0.0000000   0.1924501   0.1808105), wk =   0.0380952
        k(    7) = (   0.0000000   0.1924501   0.3616210), wk =   0.0380952
        k(    8) = (   0.0000000   0.1924501   0.5424315), wk =   0.0380952
        k(    9) = (   0.0000000   0.3849002   0.0000000), wk =   0.0190476
        k(   10) = (   0.0000000   0.3849002   0.1808105), wk =   0.0380952
        k(   11) = (   0.0000000   0.3849002   0.3616210), wk =   0.0380952
        k(   12) = (   0.0000000   0.3849002   0.5424315), wk =   0.0380952
        k(   13) = (   0.0000000  -0.5773503   0.0000000), wk =   0.0095238
        k(   14) = (   0.0000000  -0.5773503   0.1808105), wk =   0.0190476
        k(   15) = (   0.0000000  -0.5773503   0.3616210), wk =   0.0190476
        k(   16) = (   0.0000000  -0.5773503   0.5424315), wk =   0.0190476
        k(   17) = (   0.2000000   0.1154701   0.0000000), wk =   0.0190476
        k(   18) = (   0.2000000   0.1154701   0.1808105), wk =   0.0380952
        k(   19) = (   0.2000000   0.1154701   0.3616210), wk =   0.0380952
        k(   20) = (   0.2000000   0.1154701   0.5424315), wk =   0.0380952
        k(   21) = (   0.2000000   0.3079201   0.0000000), wk =   0.0190476
        k(   22) = (   0.2000000   0.3079201   0.1808105), wk =   0.0380952
        k(   23) = (   0.2000000   0.3079201   0.3616210), wk =   0.0380952
        k(   24) = (   0.2000000   0.3079201   0.5424315), wk =   0.0380952
        k(   25) = (   0.2000000   0.5003702   0.0000000), wk =   0.0190476
        k(   26) = (   0.2000000   0.5003702   0.1808105), wk =   0.0380952
        k(   27) = (   0.2000000   0.5003702   0.3616210), wk =   0.0380952
        k(   28) = (   0.2000000   0.5003702   0.5424315), wk =   0.0380952
        k(   29) = (   0.2000000  -0.4618802   0.0000000), wk =   0.0190476
        k(   30) = (   0.2000000  -0.4618802   0.1808105), wk =   0.0380952
        k(   31) = (   0.2000000  -0.4618802   0.3616210), wk =   0.0380952
        k(   32) = (   0.2000000  -0.4618802   0.5424315), wk =   0.0380952
        k(   33) = (   0.2000000  -0.2694301   0.0000000), wk =   0.0190476
        k(   34) = (   0.2000000  -0.2694301   0.1808105), wk =   0.0380952
        k(   35) = (   0.2000000  -0.2694301   0.3616210), wk =   0.0380952
        k(   36) = (   0.2000000  -0.2694301   0.5424315), wk =   0.0380952
        k(   37) = (   0.2000000  -0.0769800   0.0000000), wk =   0.0190476
        k(   38) = (   0.2000000  -0.0769800   0.1808105), wk =   0.0380952
        k(   39) = (   0.2000000  -0.0769800   0.3616210), wk =   0.0380952
        k(   40) = (   0.2000000  -0.0769800   0.5424315), wk =   0.0380952
        k(   41) = (   0.4000000   0.2309401   0.0000000), wk =   0.0190476
        k(   42) = (   0.4000000   0.2309401   0.1808105), wk =   0.0380952
        k(   43) = (   0.4000000   0.2309401   0.3616210), wk =   0.0380952
        k(   44) = (   0.4000000   0.2309401   0.5424315), wk =   0.0380952
        k(   45) = (   0.4000000   0.4233902   0.0000000), wk =   0.0190476
        k(   46) = (   0.4000000   0.4233902   0.1808105), wk =   0.0380952
        k(   47) = (   0.4000000   0.4233902   0.3616210), wk =   0.0380952
        k(   48) = (   0.4000000   0.4233902   0.5424315), wk =   0.0380952
        k(   49) = (   0.4000000   0.6158403   0.0000000), wk =   0.0190476
        k(   50) = (   0.4000000   0.6158403   0.1808105), wk =   0.0380952
        k(   51) = (   0.4000000   0.6158403   0.3616210), wk =   0.0380952
        k(   52) = (   0.4000000   0.6158403   0.5424315), wk =   0.0380952
        k(   53) = (   0.4000000  -0.3464102   0.0000000), wk =   0.0190476
        k(   54) = (   0.4000000  -0.3464102   0.1808105), wk =   0.0380952
        k(   55) = (   0.4000000  -0.3464102   0.3616210), wk =   0.0380952
        k(   56) = (   0.4000000  -0.3464102   0.5424315), wk =   0.0380952
        k(   57) = (   0.4000000  -0.1539601   0.0000000), wk =   0.0190476
        k(   58) = (   0.4000000  -0.1539601   0.1808105), wk =   0.0380952
        k(   59) = (   0.4000000  -0.1539601   0.3616210), wk =   0.0380952
        k(   60) = (   0.4000000  -0.1539601   0.5424315), wk =   0.0380952
        k(   61) = (   0.4000000   0.0384900   0.0000000), wk =   0.0190476
        k(   62) = (   0.4000000   0.0384900   0.1808105), wk =   0.0380952
        k(   63) = (   0.4000000   0.0384900   0.3616210), wk =   0.0380952
        k(   64) = (   0.4000000   0.0384900   0.5424315), wk =   0.0380952

     Largest allocated arrays     est. size (Mb)     dimensions
     Largest temporary arrays     est. size (Mb)     dimensions

     Initial potential from superposition of free atoms

     Starting from uniform charge
     Starting wfc are    0 randomized atomic wfcs

     Self-consistent Calculation

     iteration #  1     ecut=    40.00 Ry     beta=0.70
     CG style diagonalization
     ethr =  1.00E-02,  avg # of iterations = 17.1

     total energy              =   -2151.26030930 Ry
     Harris-Foulkes estimate   =   -3337.78244680 Ry
     estimated scf accuracy    <    1468.91881454 Ry

     iteration #  2     ecut=    40.00 Ry     beta=0.70
     CG style diagonalization
     c_bands:  1 eigenvalues not converged
     c_bands:  1 eigenvalues not converged
     c_bands:  1 eigenvalues not converged
     ethr =  1.00E-02,  avg # of iterations =  9.0

[...]

     End of self-consistent calculation

          k = 0.0000 0.0000 0.0000 (  5047 PWs)   bands (ev):

   -98.6393 -98.6279 -66.3869 -66.3855 -66.3854 -66.3687 -66.3686 -66.3639
   -57.4603 -57.4575 -57.4317 -57.4317 -57.4268 -57.4268 -30.6646 -30.6182
   -30.5978 -30.5937 -30.5936 -30.5718 -30.5717 -30.5717 -30.5716 -30.5394
   -30.5009 -30.5008 -30.4632 -30.4631 -30.4591 -30.4567 -30.4567 -30.4547
     0.5601   0.5686   0.5817   0.5817   0.6078   0.6078   0.6089   0.6089
     0.6183   0.6183  10.7504  10.9915  11.9163  12.0579  12.1512  12.1513
    12.3204  12.5271  12.5271  12.6146  12.6147  12.6885  13.0221  13.0222
    13.1424  13.3564  13.3639  13.3640  13.6021  13.6022  13.7567  13.7568
    13.9744  13.9745  14.1184  14.1184  14.2079  14.2080  14.4861  14.6628
    14.6820  16.3534  18.2463  18.3754  18.3755  18.8795  19.4212  19.4213
    20.9775  22.7989  23.4502  23.5133  23.5135  25.2500  26.0130  26.0132
    26.1607  26.1608  27.3240  27.3240  28.2750  28.3495  28.7467  28.7468
    31.0568  31.4026  31.5626  31.5627  31.5671  31.5672  32.6772  32.8491

[...]

     the Fermi energy is    25.9470 ev

!    total energy              =   -2580.40243846 Ry
     Harris-Foulkes estimate   =   -2580.40244259 Ry
     estimated scf accuracy    <       0.00000465 Ry

     The total energy is the sum of the following terms:

     one-electron contribution =    -760.70426157 Ry
     hartree contribution      =     466.57694026 Ry
     xc contribution           =    -218.99539853 Ry
     ewald contribution        =   -2067.05598332 Ry
     smearing contrib. (-TS)   =      -0.22373530 Ry

     convergence has been achieved in  11 iterations

     Forces acting on atoms (Ry/au):
[...]
        k(   14) = (   0.0000000  -0.5773467   0.1780474), wk =   0.0190476
        k(   15) = (   0.0000000  -0.5773467   0.3560948), wk =   0.0190476
        k(   16) = (   0.0000000  -0.5773467   0.5341422), wk =   0.0190476
        k(   17) = (   0.1999988   0.1154693   0.0000000), wk =   0.0190476
        k(   18) = (   0.1999988   0.1154693   0.1780474), wk =   0.0380952
        k(   19) = (   0.1999988   0.1154693   0.3560948), wk =   0.0380952
        k(   20) = (   0.1999988   0.1154693   0.5341422), wk =   0.0380952
        k(   21) = (   0.1999988   0.3079183   0.0000000), wk =   0.0190476
        k(   22) = (   0.1999988   0.3079183   0.1780474), wk =   0.0380952
        k(   23) = (   0.1999988   0.3079183   0.3560948), wk =   0.0380952
        k(   24) = (   0.1999988   0.3079183   0.5341422), wk =   0.0380952
        k(   25) = (   0.1999988   0.5003672   0.0000000), wk =   0.0190476
        k(   26) = (   0.1999988   0.5003672   0.1780474), wk =   0.0380952
        k(   27) = (   0.1999988   0.5003672   0.3560948), wk =   0.0380952
        k(   28) = (   0.1999988   0.5003672   0.5341422), wk =   0.0380952
        k(   29) = (   0.1999988  -0.4618774   0.0000000), wk =   0.0190476
        k(   30) = (   0.1999988  -0.4618774   0.1780474), wk =   0.0380952
        k(   31) = (   0.1999988  -0.4618774   0.3560948), wk =   0.0380952
        k(   32) = (   0.1999988  -0.4618774   0.5341422), wk =   0.0380952
        k(   33) = (   0.1999988  -0.2694285   0.0000000), wk =   0.0190476
        k(   34) = (   0.1999988  -0.2694285   0.1780474), wk =   0.0380952
        k(   35) = (   0.1999988  -0.2694285   0.3560948), wk =   0.0380952
        k(   36) = (   0.1999988  -0.2694285   0.5341422), wk =   0.0380952
        k(   37) = (   0.1999988  -0.0769796   0.0000000), wk =   0.0190476
        k(   38) = (   0.1999988  -0.0769796   0.1780474), wk =   0.0380952
        k(   39) = (   0.1999988  -0.0769796   0.3560948), wk =   0.0380952
        k(   40) = (   0.1999988  -0.0769796   0.5341422), wk =   0.0380952
        k(   41) = (   0.3999975   0.2309387   0.0000000), wk =   0.0190476
        k(   42) = (   0.3999975   0.2309387   0.1780474), wk =   0.0380952
        k(   43) = (   0.3999975   0.2309387   0.3560948), wk =   0.0380952
        k(   44) = (   0.3999975   0.2309387   0.5341422), wk =   0.0380952
        k(   45) = (   0.3999975   0.4233876   0.0000000), wk =   0.0190476
        k(   46) = (   0.3999975   0.4233876   0.1780474), wk =   0.0380952
        k(   47) = (   0.3999975   0.4233876   0.3560948), wk =   0.0380952
        k(   48) = (   0.3999975   0.4233876   0.5341422), wk =   0.0380952
        k(   49) = (   0.3999975   0.6158365   0.0000000), wk =   0.0190476
        k(   50) = (   0.3999975   0.6158365   0.1780474), wk =   0.0380952
        k(   51) = (   0.3999975   0.6158365   0.3560948), wk =   0.0380952
        k(   52) = (   0.3999975   0.6158365   0.5341422), wk =   0.0380952
        k(   53) = (   0.3999975  -0.3464080   0.0000000), wk =   0.0190476
        k(   54) = (   0.3999975  -0.3464080   0.1780474), wk =   0.0380952
        k(   55) = (   0.3999975  -0.3464080   0.3560948), wk =   0.0380952
        k(   56) = (   0.3999975  -0.3464080   0.5341422), wk =   0.0380952
        k(   57) = (   0.3999975  -0.1539591   0.0000000), wk =   0.0190476
        k(   58) = (   0.3999975  -0.1539591   0.1780474), wk =   0.0380952
        k(   59) = (   0.3999975  -0.1539591   0.3560948), wk =   0.0380952
        k(   60) = (   0.3999975  -0.1539591   0.5341422), wk =   0.0380952
        k(   61) = (   0.3999975   0.0384898   0.0000000), wk =   0.0190476
        k(   62) = (   0.3999975   0.0384898   0.1780474), wk =   0.0380952
        k(   63) = (   0.3999975   0.0384898   0.3560948), wk =   0.0380952
        k(   64) = (   0.3999975   0.0384898   0.5341422), wk =   0.0380952

[...]

     The maximum number of steps has been reached.

     End of BFGS Geometry Optimization
Begin final coordinates
     new unit-cell volume =   1205.78231 a.u.^3 (   178.67850 Ang^3 )

CELL_PARAMETERS (alat= 12.01680127)
   1.000006142   0.000000000   0.000000000
  -0.500003071   0.866030723   0.000000000
   0.000000000   0.000000000   0.802354523

ATOMIC_POSITIONS (crystal)
Mg       0.668957927   0.834478964   0.250000000
Mg       0.834478964   0.165521036   0.750000000
Mg       0.331042073   0.165521036   0.750000000
Mg       0.165521036   0.834478964   0.250000000
Mg       0.165521036   0.331042073   0.250000000
Mg       0.834478964   0.668957927   0.750000000
Cd       0.666667000   0.333333000   0.250000000
Cd       0.333333000   0.666667000   0.750000000
End final coordinates

     A final scf calculation at the relaxed structure.
     The G-vectors are recalculated for the final unit cell
     Results may differ from those at the preceding step.

     bravais-lattice index     =            0
     lattice parameter (alat)  =      12.0168  a.u.
     unit-cell volume          =    1205.7823 (a.u.)^3
     number of atoms/cell      =            8
     number of atomic types    =            2
     number of electrons       =       174.00
     number of Kohn-Sham states=          104
     kinetic-energy cutoff     =      40.0000  Ry
     charge density cutoff     =     160.0000  Ry
     convergence threshold     =      2.5E-05
     mixing beta               =       0.7000
     number of iterations used =            8  plain     mixing
     Exchange-correlation      = SLA-PZ-NOGX-NOGC ( 1 1 0 0 0)
     EXX-fraction              =        0.00

     celldm(1)=  12.016801  celldm(2)=   0.000000  celldm(3)=   0.000000
     celldm(4)=   0.000000  celldm(5)=   0.000000  celldm(6)=   0.000000

     crystal axes: (cart. coord. in units of alat)
               a(1) = (   1.000006   0.000000   0.000000 )
               a(2) = (  -0.500003   0.866031   0.000000 )
               a(3) = (   0.000000   0.000000   0.802355 )

     reciprocal axes: (cart. coord. in units 2 pi/alat)
               b(1) = (  0.999994  0.577347  0.000000 )
               b(2) = (  0.000000  1.154693  0.000000 )
               b(3) = (  0.000000  0.000000  1.246332 )

     PseudoPot. # 1 for Ho read from file:
     /home/cwx6513/pp.La/Ho.UPF
     MD5 check sum: f307ee11bce99f5b724fa279e3790763
     Pseudo is Norm-conserving, Zval = 21.0
     Generated in analytical, separable form
     Using radial grid of 1265 points,  6 beta functions with:
                l(1) =   0
                l(2) =   0
                l(3) =   1
                l(4) =   1
                l(5) =   2
                l(6) =   3

     PseudoPot. # 2 for Yb read from file:
     /home/cwx6513/pp.La/Yb.UPF
     MD5 check sum: 3e859b81cc28c53ec6aa3a2e888efcdf
     Pseudo is Norm-conserving, Zval = 24.0
     Generated in analytical, separable form
     Using radial grid of 1269 points,  6 beta functions with:
                l(1) =   0
                l(2) =   0
                l(3) =   1
                l(4) =   1
                l(5) =   2
                l(6) =   3

     atomic species   valence    mass     pseudopotential
        Mg            21.00    24.30500     Ho( 1.00)
        Cd            24.00   112.41100     Yb( 1.00)

     24 Sym. Ops., with inversion, found (12 have fractional translation)

   Cartesian axes

     site n.     atom                  positions (alat units)
         1           Mg  tau(   1) = (   0.2517200   0.7226844   0.2005886  )
         2           Mg  tau(   2) = (   0.7517231   0.1433463   0.6017659  )
         3           Mg  tau(   3) = (   0.2482831   0.1433463   0.6017659  )
         4           Mg  tau(   4) = (  -0.2517200   0.7226844   0.2005886  )
         5           Mg  tau(   5) = (   0.0000000   0.2866926   0.2005886  )
         6           Mg  tau(   6) = (   0.5000031   0.5793381   0.6017659  )
         7           Cd  tau(   7) = (   0.5000036   0.2886766   0.2005886  )
         8           Cd  tau(   8) = (  -0.0000005   0.5773541   0.6017659  )

     number of k points=    64  gaussian smearing, width (Ry)=  0.1000
                       cart. coord. in units 2pi/alat
        k(    1) = (   0.0000000   0.0000000   0.0000000), wk =   0.0095238
        k(    2) = (   0.0000000   0.0000000   0.1780474), wk =   0.0190476
        k(    3) = (   0.0000000   0.0000000   0.3560948), wk =   0.0190476
        k(    4) = (   0.0000000   0.0000000   0.5341422), wk =   0.0190476
        k(    5) = (   0.0000000   0.1924489   0.0000000), wk =   0.0190476
        k(    6) = (   0.0000000   0.1924489   0.1780474), wk =   0.0380952
        k(    7) = (   0.0000000   0.1924489   0.3560948), wk =   0.0380952
        k(    8) = (   0.0000000   0.1924489   0.5341422), wk =   0.0380952
        k(    9) = (   0.0000000   0.3848978   0.0000000), wk =   0.0190476
        k(   10) = (   0.0000000   0.3848978   0.1780474), wk =   0.0380952
        k(   11) = (   0.0000000   0.3848978   0.3560948), wk =   0.0380952
        k(   12) = (   0.0000000   0.3848978   0.5341422), wk =   0.0380952
        k(   13) = (   0.0000000  -0.5773467   0.0000000), wk =   0.0095238
        k(   14) = (   0.0000000  -0.5773467   0.1780474), wk =   0.0190476
        k(   15) = (   0.0000000  -0.5773467   0.3560948), wk =   0.0190476
        k(   16) = (   0.0000000  -0.5773467   0.5341422), wk =   0.0190476
        k(   17) = (   0.1999988   0.1154693   0.0000000), wk =   0.0190476
        k(   18) = (   0.1999988   0.1154693   0.1780474), wk =   0.0380952
        k(   19) = (   0.1999988   0.1154693   0.3560948), wk =   0.0380952
        k(   20) = (   0.1999988   0.1154693   0.5341422), wk =   0.0380952
        k(   21) = (   0.1999988   0.3079183   0.0000000), wk =   0.0190476
        k(   22) = (   0.1999988   0.3079183   0.1780474), wk =   0.0380952
        k(   23) = (   0.1999988   0.3079183   0.3560948), wk =   0.0380952
        k(   24) = (   0.1999988   0.3079183   0.5341422), wk =   0.0380952
        k(   25) = (   0.1999988   0.5003672   0.0000000), wk =   0.0190476
        k(   26) = (   0.1999988   0.5003672   0.1780474), wk =   0.0380952
        k(   27) = (   0.1999988   0.5003672   0.3560948), wk =   0.0380952
        k(   28) = (   0.1999988   0.5003672   0.5341422), wk =   0.0380952
        k(   29) = (   0.1999988  -0.4618774   0.0000000), wk =   0.0190476
        k(   30) = (   0.1999988  -0.4618774   0.1780474), wk =   0.0380952
        k(   31) = (   0.1999988  -0.4618774   0.3560948), wk =   0.0380952
        k(   32) = (   0.1999988  -0.4618774   0.5341422), wk =   0.0380952
        k(   33) = (   0.1999988  -0.2694285   0.0000000), wk =   0.0190476
        k(   34) = (   0.1999988  -0.2694285   0.1780474), wk =   0.0380952
        k(   35) = (   0.1999988  -0.2694285   0.3560948), wk =   0.0380952
        k(   36) = (   0.1999988  -0.2694285   0.5341422), wk =   0.0380952
        k(   37) = (   0.1999988  -0.0769796   0.0000000), wk =   0.0190476
        k(   38) = (   0.1999988  -0.0769796   0.1780474), wk =   0.0380952
        k(   39) = (   0.1999988  -0.0769796   0.3560948), wk =   0.0380952
        k(   40) = (   0.1999988  -0.0769796   0.5341422), wk =   0.0380952
        k(   41) = (   0.3999975   0.2309387   0.0000000), wk =   0.0190476
        k(   42) = (   0.3999975   0.2309387   0.1780474), wk =   0.0380952
        k(   43) = (   0.3999975   0.2309387   0.3560948), wk =   0.0380952
        k(   44) = (   0.3999975   0.2309387   0.5341422), wk =   0.0380952
        k(   45) = (   0.3999975   0.4233876   0.0000000), wk =   0.0190476
        k(   46) = (   0.3999975   0.4233876   0.1780474), wk =   0.0380952
        k(   47) = (   0.3999975   0.4233876   0.3560948), wk =   0.0380952
        k(   48) = (   0.3999975   0.4233876   0.5341422), wk =   0.0380952
        k(   49) = (   0.3999975   0.6158365   0.0000000), wk =   0.0190476
        k(   50) = (   0.3999975   0.6158365   0.1780474), wk =   0.0380952
        k(   51) = (   0.3999975   0.6158365   0.3560948), wk =   0.0380952
        k(   52) = (   0.3999975   0.6158365   0.5341422), wk =   0.0380952
        k(   53) = (   0.3999975  -0.3464080   0.0000000), wk =   0.0190476
        k(   54) = (   0.3999975  -0.3464080   0.1780474), wk =   0.0380952
        k(   55) = (   0.3999975  -0.3464080   0.3560948), wk =   0.0380952
        k(   56) = (   0.3999975  -0.3464080   0.5341422), wk =   0.0380952
        k(   57) = (   0.3999975  -0.1539591   0.0000000), wk =   0.0190476
        k(   58) = (   0.3999975  -0.1539591   0.1780474), wk =   0.0380952
        k(   59) = (   0.3999975  -0.1539591   0.3560948), wk =   0.0380952
        k(   60) = (   0.3999975  -0.1539591   0.5341422), wk =   0.0380952
        k(   61) = (   0.3999975   0.0384898   0.0000000), wk =   0.0190476
        k(   62) = (   0.3999975   0.0384898   0.1780474), wk =   0.0380952
        k(   63) = (   0.3999975   0.0384898   0.3560948), wk =   0.0380952
        k(   64) = (   0.3999975   0.0384898   0.5341422), wk =   0.0380952

     Largest allocated arrays     est. size (Mb)     dimensions
     Largest temporary arrays     est. size (Mb)     dimensions

     Initial potential from superposition of free atoms

     Starting from uniform charge
     Starting wfc are    0 randomized atomic wfcs

     Writing output data file Prototype-La-hP8-Mg3Cd.save

     Self-consistent Calculation

[...]

     iteration # 10     ecut=    40.00 Ry     beta=0.70
     CG style diagonalization
     c_bands:  1 eigenvalues not converged
     ethr =  1.92E-07,  avg # of iterations =  4.1

     total energy              =   -2580.50167826 Ry
     Harris-Foulkes estimate   =   -2580.50171905 Ry
     estimated scf accuracy    <       0.00007172 Ry

     iteration # 11     ecut=    40.00 Ry     beta=0.70
     CG style diagonalization
     ethr =  4.12E-08,  avg # of iterations =  3.5

     End of self-consistent calculation

[...]

          k = 0.4000 0.0385 0.5341 (  5153 PWs)   bands (ev):

   -99.0636 -99.0491 -66.8190 -66.8143 -66.8103 -66.8069 -66.8039 -66.7992
   -57.8494 -57.8457 -57.8391 -57.8382 -57.8370 -57.8352 -31.0481 -31.0404
   -31.0319 -31.0269 -31.0165 -31.0140 -30.9649 -30.9640 -30.9567 -30.9410
   -30.9362 -30.9303 -30.9280 -30.9211 -30.9170 -30.9077 -30.9031 -30.8964
     0.2059   0.2069   0.2145   0.2170   0.2186   0.2197   0.2301   0.2304
     0.2357   0.2361  10.9927  11.0945  11.8874  11.9164  12.1007  12.1280
    12.1477  12.1595  12.2067  12.2508  12.3870  12.4902  12.5240  12.5635
    12.7683  12.8206  12.8553  12.9859  13.1010  13.1964  13.2060  13.2319
    13.4059  13.4401  13.4566  13.4701  13.7424  13.7821  13.8400  13.9721
    14.1156  14.3837  16.1555  16.4786  17.2511  17.9671  19.5912  20.1971
    20.9665  21.6204  23.4748  23.9288  24.3272  25.1483  25.4937  25.9266
    26.7089  27.3862  27.7978  28.5005  28.8724  29.2275  29.3757  29.6804
    30.1981  30.5342  30.6286  30.8641  30.9701  31.1759  31.3177  31.3540

     the Fermi energy is    25.4679 ev

!    total energy              =   -2580.50169592 Ry
     Harris-Foulkes estimate   =   -2580.50169794 Ry
     estimated scf accuracy    <       0.00000242 Ry

     The total energy is the sum of the following terms:

     one-electron contribution =    -774.83161963 Ry
     hartree contribution      =     470.91202448 Ry
     xc contribution           =    -218.83772980 Ry
     ewald contribution        =   -2057.52080419 Ry
     smearing contrib. (-TS)   =      -0.22356678 Ry

     convergence has been achieved in  11 iterations

     Forces acting on atoms (Ry/au):

     atom    1 type  1   force =     0.00442610    0.00255541    0.00000000
     atom    2 type  1   force =     0.00442610   -0.00255541    0.00000000
     atom    3 type  1   force =    -0.00442610   -0.00255541    0.00000000
     atom    4 type  1   force =    -0.00442610    0.00255541    0.00000000
     atom    5 type  1   force =     0.00000000   -0.00511082    0.00000000
     atom    6 type  1   force =     0.00000000    0.00511082    0.00000000
     atom    7 type  2   force =     0.00000000    0.00000000    0.00000000
     atom    8 type  2   force =     0.00000000    0.00000000    0.00000000

     Total force =     0.012519     Total SCF correction =     0.000000

     entering subroutine stress ...

          total   stress  (Ry/bohr**3)                   (kbar)     P= -159.04
  -0.00114829   0.00000000   0.00000000       -168.92      0.00      0.00
   0.00000000  -0.00114829   0.00000000          0.00   -168.92      0.00
   0.00000000   0.00000000  -0.00094691          0.00      0.00   -139.30

     Writing output data file Prototype-La-hP8-Mg3Cd.save

     General routines

     Parallel routines

   This run was terminated on:   1:59:40  23Mar2018

   JOB DONE.