     Program PWSCF v.5.0.2 starts on 23Mar2018 at  1: 2:33

     Current dimensions of program PWSCF are:
     Max number of different atomic species (ntypx) = 10
     Max number of k-points (npk) =  40000
     Max angular momentum in pseudopotentials (lmaxx) =  3
     Waiting for input...
     Reading input from standard input

     Subspace diagonalization in iterative solution of the eigenvalue problem:
     a serial algorithm will be used

     bravais-lattice index     =            0
     lattice parameter (alat)  =       9.9235  a.u.
     unit-cell volume          =    1361.0366 (a.u.)^3
     number of atoms/cell      =           12
     number of atomic types    =            2
     number of electrons       =       276.00
     number of Kohn-Sham states=          166
     kinetic-energy cutoff     =      40.0000  Ry
     charge density cutoff     =     160.0000  Ry
     convergence threshold     =      1.0E-04
     mixing beta               =       0.7000
     number of iterations used =            8  plain     mixing
     Exchange-correlation      = SLA-PZ-NOGX-NOGC ( 1 1 0 0 0)
     EXX-fraction              =        0.00
     nstep                     =           50

     celldm(1)=   9.923489  celldm(2)=   0.000000  celldm(3)=   0.000000
     celldm(4)=   0.000000  celldm(5)=   0.000000  celldm(6)=   0.000000

     crystal axes: (cart. coord. in units of alat)
               a(1) = (   1.000000   0.000000   0.000000 )
               a(2) = (  -0.500000   0.866025   0.000000 )
               a(3) = (   0.000000   0.000000   1.608222 )

     reciprocal axes: (cart. coord. in units 2 pi/alat)
               b(1) = (  1.000000  0.577350  0.000000 )
               b(2) = (  0.000000  1.154701  0.000000 )
               b(3) = (  0.000000  0.000000  0.621805 )

     PseudoPot. # 1 for Ho read from file:
     /home/cwx6513/pp.La/Ho.UPF
     MD5 check sum: f307ee11bce99f5b724fa279e3790763
     Pseudo is Norm-conserving, Zval = 21.0
     Generated in analytical, separable form
     Using radial grid of 1265 points,  6 beta functions with:
                l(1) =   0
                l(2) =   0
                l(3) =   1
                l(4) =   1
                l(5) =   2
                l(6) =   3

     PseudoPot. # 2 for Yb read from file:
     /home/cwx6513/pp.La/Yb.UPF
     MD5 check sum: 3e859b81cc28c53ec6aa3a2e888efcdf
     Pseudo is Norm-conserving, Zval = 24.0
     Generated in analytical, separable form
     Using radial grid of 1269 points,  6 beta functions with:
                l(1) =   0
                l(2) =   0
                l(3) =   1
                l(4) =   1
                l(5) =   2
                l(6) =   3

     atomic species   valence    mass     pseudopotential
        Mg            21.00    24.30500     Ho( 1.00)
        Zn            24.00    65.39000     Yb( 1.00)

     24 Sym. Ops., with inversion, found (12 have fractional translation)

   Cartesian axes

     site n.     atom                  positions (alat units)
         1           Mg  tau(   1) = (  -0.0000005   0.5773506   0.1003820  )
         2           Mg  tau(   2) = (   0.5000005   0.2886748   0.9044931  )
         3           Mg  tau(   3) = (   0.5000005   0.2886748   1.5078402  )
         4           Mg  tau(   4) = (  -0.0000005   0.5773506   0.7037291  )
         5           Zn  tau(   5) = (   0.0000000   0.0000000   0.0000000  )
         6           Zn  tau(   6) = (   0.0000000   0.0000000   0.8041111  )
         7           Zn  tau(   7) = (   0.0000000   0.2950739   1.2061667  )
         8           Zn  tau(   8) = (   0.7444585   0.1475370   0.4020556  )
         9           Zn  tau(   9) = (   0.2555415   0.1475370   0.4020556  )
        10           Zn  tau(  10) = (   0.2444585   0.7184884   1.2061667  )
        11           Zn  tau(  11) = (  -0.2444585   0.7184884   1.2061667  )
        12           Zn  tau(  12) = (   0.5000000   0.5709515   0.4020556  )

     number of k points=    12  gaussian smearing, width (Ry)=  0.1000
                       cart. coord. in units 2pi/alat
        k(    1) = (   0.0000000   0.0000000   0.0000000), wk =   0.0833333
        k(    2) = (   0.0000000   0.0000000   0.1554512), wk =   0.1666667
        k(    3) = (   0.0000000   0.0000000  -0.3109023), wk =   0.0833333
        k(    4) = (   0.0000000   0.3849002   0.0000000), wk =   0.1666667
        k(    5) = (   0.0000000   0.3849002   0.1554512), wk =   0.3333333
        k(    6) = (   0.0000000   0.3849002  -0.3109023), wk =   0.1666667
        k(    7) = (  -0.5000000  -0.2886751   0.0000000), wk =   0.0833333
        k(    8) = (  -0.5000000  -0.2886751   0.1554512), wk =   0.1666667
        k(    9) = (  -0.5000000  -0.2886751  -0.3109023), wk =   0.0833333
        k(   10) = (  -0.5000000   0.0962250   0.0000000), wk =   0.1666667
        k(   11) = (  -0.5000000   0.0962250   0.1554512), wk =   0.3333333
        k(   12) = (  -0.5000000   0.0962250  -0.3109023), wk =   0.1666667

     Largest allocated arrays     est. size (Mb)     dimensions
     Largest temporary arrays     est. size (Mb)     dimensions

     Initial potential from superposition of free atoms

     Starting from uniform charge
     Starting wfc are    0 randomized atomic wfcs

     Self-consistent Calculation

     iteration #  1     ecut=    40.00 Ry     beta=0.70
     CG style diagonalization
     ethr =  1.00E-02,  avg # of iterations = 20.6

     total energy              =   -3359.65368142 Ry
     Harris-Foulkes estimate   =   -5731.54943368 Ry
     estimated scf accuracy    <    2869.03719507 Ry

[...]

     iteration #  3     ecut=    40.00 Ry     beta=0.70
     CG style diagonalization
     c_bands:  2 eigenvalues not converged
     c_bands:  5 eigenvalues not converged
     c_bands:  5 eigenvalues not converged
     c_bands:  3 eigenvalues not converged
     c_bands:  2 eigenvalues not converged
     c_bands:  3 eigenvalues not converged
     c_bands:  2 eigenvalues not converged
     c_bands:  1 eigenvalues not converged
     ethr =  1.00E-02,  avg # of iterations = 14.6

[...]

     End of self-consistent calculation

          k = 0.0000 0.0000 0.0000 (  5769 PWs)   bands (ev):

   -88.8784 -88.8594 -88.8241 -88.8240 -88.8193 -88.8000 -88.7999 -88.7246
   -56.0243 -56.0195 -56.0116 -55.9960 -48.1310 -48.0490 -47.9806 -47.8618
   -47.8185 -47.8184 -47.8026 -47.8026 -47.7670 -47.7670 -47.6896 -47.6885
   -47.6884 -47.6628 -47.6627 -47.6176 -47.6109 -47.6109 -47.5931 -47.5931
   -47.5898 -47.5897 -47.5457 -47.5379 -20.2786 -20.2659 -20.2659 -20.2642
   -20.2433 -20.2433 -20.2110 -20.1909 -20.1909 -20.1840 -20.1838 -20.1838
     7.0418   7.3812   7.5967   8.1181   8.1181   8.2036   8.2037   8.3815
     8.3815   8.5365   8.6921   8.6922   9.1707   9.4667   9.5165   9.5165
     9.5731   9.5731   9.9249  10.0554  10.0554  10.3174  10.3175  10.4123
    10.4361  10.4361  10.5128  10.5128  10.5182  10.5290  10.6489  10.6489
    10.7783  10.7783  11.1774  11.1775  11.3985  11.3986  11.7427  11.7435
    15.5533  17.0738  19.3145  21.3644  21.8292  21.8292  22.0505  22.2615
    22.2615  22.4376  22.4376  22.5489  22.5490  22.6541  22.8350  22.8351
    23.2807  23.2808  23.8888  23.8888  23.8925  23.9493  23.9493  23.9587
    23.9682  26.6131  26.6132  26.7141  26.9083  26.9084  28.0220  28.0221
    28.8876  28.8876  28.9249  29.3907  29.3908  29.4850  30.5214  31.0892
    32.1740  32.7457  32.7458  34.8870  34.8871  35.0693  35.6235  35.7252
    35.7252  36.3943  36.6008  36.9529  36.9530  37.3551  37.3552  37.4588
    37.4589  37.8070  38.7619  39.6250  39.8925  39.8925  39.8926  39.9905
    40.0331  40.1035  40.4851  40.4851  41.4559  42.0030  42.0031  42.5483
    42.5484  44.0019  44.2615  44.6278  44.6530  44.6551

[...]

          k =-0.5000-0.2887 0.0000 (  5800 PWs)   bands (ev):

[...]

     the Fermi energy is    36.5962 ev

!    total energy              =   -4444.96302458 Ry
     Harris-Foulkes estimate   =   -4444.96305378 Ry
     estimated scf accuracy    <       0.00003172 Ry

     The total energy is the sum of the following terms:

     one-electron contribution =   -1076.59669115 Ry
     hartree contribution      =     733.55378048 Ry
     xc contribution           =    -364.34755972 Ry
     ewald contribution        =   -3737.10626105 Ry
     smearing contrib. (-TS)   =      -0.46629313 Ry

     convergence has been achieved in  11 iterations

     Forces acting on atoms (Ry/au):

     atom    1 type  1   force =     0.00000000    0.00000000    0.02443126
     atom    2 type  1   force =     0.00000000    0.00000000    0.02443126
     atom    3 type  1   force =     0.00000000    0.00000000   -0.02443126
     atom    4 type  1   force =     0.00000000    0.00000000   -0.02443126
     atom    5 type  2   force =     0.00000000    0.00000000    0.00000000
     atom    6 type  2   force =     0.00000000    0.00000000    0.00000000
     atom    7 type  2   force =     0.00000000    0.09199107    0.00000000
     atom    8 type  2   force =    -0.07966661    0.04599554    0.00000000
     atom    9 type  2   force =     0.07966661    0.04599554    0.00000000
     atom   10 type  2   force =    -0.07966661   -0.04599554    0.00000000
     atom   11 type  2   force =     0.07966661   -0.04599554    0.00000000
     atom   12 type  2   force =     0.00000000   -0.09199107    0.00000000

     Total force =     0.230568     Total SCF correction =     0.000000

     entering subroutine stress ...

          total   stress  (Ry/bohr**3)                   (kbar)     P= 1419.67
   0.00961557   0.00000000   0.00000000       1414.50      0.00      0.00
   0.00000000   0.00961557   0.00000000          0.00   1414.50      0.00
   0.00000000   0.00000000   0.00972096          0.00      0.00   1430.00

     BFGS Geometry Optimization

     number of scf cycles    =   1
     number of bfgs steps    =   0

     enthalpy new            =   -4444.9630245828 Ry

     new trust radius        =       0.5000000000 bohr
     new conv_thr            =       0.0001000000 Ry

     new unit-cell volume =   1654.62269 a.u.^3 (   245.18978 Ang^3 )

CELL_PARAMETERS (alat=  9.92348860)
   1.067030295   0.000000000   0.000000000
  -0.533515148   0.924075342   0.000000000
   0.000000000   0.000000000   1.717203317

ATOMIC_POSITIONS (crystal)
Mg       0.333333000   0.666667000   0.062844866
Mg       0.666667000   0.333333000   0.562844866
Mg       0.666667000   0.333333000   0.937155134
Mg       0.333333000   0.666667000   0.437155134
Zn       0.000000000   0.000000000   0.000000000
Zn       0.000000000   0.000000000   0.500000000
Zn       0.171853371   0.343706741   0.750000000
Zn       0.828146629   0.171853371   0.250000000
Zn       0.343706741   0.171853371   0.250000000
Zn       0.656293259   0.828146629   0.750000000
Zn       0.171853371   0.828146629   0.750000000
Zn       0.828146629   0.656293259   0.250000000

     Writing output data file Prototype-La-hP12-MgZn2.save
     NEW-OLD atomic charge density approx. for the potential
     NEW k-points:
        k(    1) = (   0.0000000   0.0000000   0.0000000), wk =   0.0833333
        k(    2) = (   0.0000000   0.0000000   0.1455856), wk =   0.1666667
        k(    3) = (   0.0000000   0.0000000  -0.2911711), wk =   0.0833333
        k(    4) = (   0.0000000   0.3607209   0.0000000), wk =   0.1666667
        k(    5) = (   0.0000000   0.3607209   0.1455856), wk =   0.3333333
        k(    6) = (   0.0000000   0.3607209  -0.2911711), wk =   0.1666667
        k(    7) = (  -0.4685903  -0.2705407   0.0000000), wk =   0.0833333
        k(    8) = (  -0.4685903  -0.2705407   0.1455856), wk =   0.1666667
        k(    9) = (  -0.4685903  -0.2705407  -0.2911711), wk =   0.0833333
        k(   10) = (  -0.4685903   0.0901802   0.0000000), wk =   0.1666667
        k(   11) = (  -0.4685903   0.0901802   0.1455856), wk =   0.3333333
        k(   12) = (  -0.4685903   0.0901802  -0.2911711), wk =   0.1666667

[...]

     number of scf cycles    =   3
     number of bfgs steps    =   2

     enthalpy old            =   -4444.9630514803 Ry
     enthalpy new            =   -4446.0747253788 Ry

     CASE: enthalpy_new < enthalpy_old

     Message from routine bfgs:
     history already reset at previous step: stopping
     small trust_radius: resetting bfgs history

     new trust radius        =       0.2320798288 bohr
     new conv_thr            =       0.0000151299 Ry

     new unit-cell volume =   1528.31464 a.u.^3 (   226.47286 Ang^3 )

[...]

ATOMIC_POSITIONS (crystal)
Mg       0.333333000   0.666667000   0.062999990
Mg       0.666667000   0.333333000   0.562999990
Mg       0.666667000   0.333333000   0.937000010
Mg       0.333333000   0.666667000   0.437000010
Zn       0.000000000   0.000000000   0.000000000
Zn       0.000000000   0.000000000   0.500000000
Zn       0.172678333   0.345356666   0.750000000
Zn       0.827321667   0.172678333   0.250000000
Zn       0.345356666   0.172678333   0.250000000
Zn       0.654643334   0.827321667   0.750000000
Zn       0.172678333   0.827321667   0.750000000
Zn       0.827321667   0.654643334   0.250000000

     Writing output data file Prototype-La-hP12-MgZn2.save
     NEW-OLD atomic charge density approx. for the potential
     NEW k-points:
        k(    1) = (   0.0000000   0.0000000   0.0000000), wk =   0.0833333
        k(    2) = (   0.0000000   0.0000000   0.1498606), wk =   0.1666667
        k(    3) = (   0.0000000   0.0000000  -0.2997213), wk =   0.0833333
        k(    4) = (   0.0000000   0.3699387   0.0000000), wk =   0.1666667
        k(    5) = (   0.0000000   0.3699387   0.1498606), wk =   0.3333333
        k(    6) = (   0.0000000   0.3699387  -0.2997213), wk =   0.1666667
        k(    7) = (  -0.4805645  -0.2774540   0.0000000), wk =   0.0833333
        k(    8) = (  -0.4805645  -0.2774540   0.1498606), wk =   0.1666667
        k(    9) = (  -0.4805645  -0.2774540  -0.2997213), wk =   0.0833333
        k(   10) = (  -0.4805645   0.0924847   0.0000000), wk =   0.1666667
        k(   11) = (  -0.4805645   0.0924847   0.1498606), wk =   0.3333333
        k(   12) = (  -0.4805645   0.0924847  -0.2997213), wk =   0.1666667

[...]

     The maximum number of steps has been reached.

     End of BFGS Geometry Optimization
Begin final coordinates
     new unit-cell volume =   1528.31464 a.u.^3 (   226.47286 Ang^3 )

CELL_PARAMETERS (alat=  9.92348860)
   1.040443038   0.000000000   0.000000000
  -0.520221519   0.901050102   0.000000000
   0.000000000   0.000000000   1.668216454

ATOMIC_POSITIONS (crystal)
Mg       0.333333000   0.666667000   0.062999990
Mg       0.666667000   0.333333000   0.562999990
Mg       0.666667000   0.333333000   0.937000010
Mg       0.333333000   0.666667000   0.437000010
Zn       0.000000000   0.000000000   0.000000000
Zn       0.000000000   0.000000000   0.500000000
Zn       0.172678333   0.345356666   0.750000000
Zn       0.827321667   0.172678333   0.250000000
Zn       0.345356666   0.172678333   0.250000000
Zn       0.654643334   0.827321667   0.750000000
Zn       0.172678333   0.827321667   0.750000000
Zn       0.827321667   0.654643334   0.250000000
End final coordinates

     A final scf calculation at the relaxed structure.
     The G-vectors are recalculated for the final unit cell
     Results may differ from those at the preceding step.

     bravais-lattice index     =            0
     lattice parameter (alat)  =       9.9235  a.u.
     unit-cell volume          =    1528.3146 (a.u.)^3
     number of atoms/cell      =           12
     number of atomic types    =            2
     number of electrons       =       276.00
     number of Kohn-Sham states=          166
     kinetic-energy cutoff     =      40.0000  Ry
     charge density cutoff     =     160.0000  Ry
     convergence threshold     =      1.5E-05
     mixing beta               =       0.7000
     number of iterations used =            8  plain     mixing
     Exchange-correlation      = SLA-PZ-NOGX-NOGC ( 1 1 0 0 0)
     EXX-fraction              =        0.00

     celldm(1)=   9.923489  celldm(2)=   0.000000  celldm(3)=   0.000000
     celldm(4)=   0.000000  celldm(5)=   0.000000  celldm(6)=   0.000000

     crystal axes: (cart. coord. in units of alat)
               a(1) = (   1.040443   0.000000   0.000000 )
               a(2) = (  -0.520222   0.901050   0.000000 )
               a(3) = (   0.000000   0.000000   1.668216 )

     reciprocal axes: (cart. coord. in units 2 pi/alat)
               b(1) = (  0.961129  0.554908  0.000000 )
               b(2) = (  0.000000  1.109816  0.000000 )
               b(3) = (  0.000000  0.000000  0.599443 )

     PseudoPot. # 1 for Ho read from file:
     /home/cwx6513/pp.La/Ho.UPF
     MD5 check sum: f307ee11bce99f5b724fa279e3790763
     Pseudo is Norm-conserving, Zval = 21.0
     Generated in analytical, separable form
     Using radial grid of 1265 points,  6 beta functions with:
                l(1) =   0
                l(2) =   0
                l(3) =   1
                l(4) =   1
                l(5) =   2
                l(6) =   3

     PseudoPot. # 2 for Yb read from file:
     /home/cwx6513/pp.La/Yb.UPF
     MD5 check sum: 3e859b81cc28c53ec6aa3a2e888efcdf
     Pseudo is Norm-conserving, Zval = 24.0
     Generated in analytical, separable form
     Using radial grid of 1269 points,  6 beta functions with:
                l(1) =   0
                l(2) =   0
                l(3) =   1
                l(4) =   1
                l(5) =   2
                l(6) =   3

     atomic species   valence    mass     pseudopotential
        Mg            21.00    24.30500     Ho( 1.00)
        Zn            24.00    65.39000     Yb( 1.00)

     24 Sym. Ops., with inversion, found (12 have fractional translation)

   Cartesian axes

     site n.     atom                  positions (alat units)
         1           Mg  tau(   1) = (  -0.0000005   0.6007004   0.1050976  )
         2           Mg  tau(   2) = (   0.5202220   0.3003497   0.9392058  )
         3           Mg  tau(   3) = (   0.5202220   0.3003497   1.5631188  )
         4           Mg  tau(   4) = (  -0.0000005   0.6007004   0.7290106  )
         5           Zn  tau(   5) = (   0.0000000   0.0000000   0.0000000  )
         6           Zn  tau(   6) = (   0.0000000   0.0000000   0.8341082  )
         7           Zn  tau(   7) = (   0.0000000   0.3111837   1.2511623  )
         8           Zn  tau(   8) = (   0.7709501   0.1555918   0.4170541  )
         9           Zn  tau(   9) = (   0.2694930   0.1555918   0.4170541  )
        10           Zn  tau(  10) = (   0.2507286   0.7454583   1.2511623  )
        11           Zn  tau(  11) = (  -0.2507286   0.7454583   1.2511623  )
        12           Zn  tau(  12) = (   0.5202215   0.5898664   0.4170541  )

     number of k points=    12  gaussian smearing, width (Ry)=  0.1000
                       cart. coord. in units 2pi/alat
        k(    1) = (   0.0000000   0.0000000   0.0000000), wk =   0.0833333
        k(    2) = (   0.0000000   0.0000000   0.1498606), wk =   0.1666667
        k(    3) = (   0.0000000   0.0000000  -0.2997213), wk =   0.0833333
        k(    4) = (   0.0000000   0.3699387   0.0000000), wk =   0.1666667
        k(    5) = (   0.0000000   0.3699387   0.1498606), wk =   0.3333333
        k(    6) = (   0.0000000   0.3699387  -0.2997213), wk =   0.1666667
        k(    7) = (  -0.4805645  -0.2774540   0.0000000), wk =   0.0833333
        k(    8) = (  -0.4805645  -0.2774540   0.1498606), wk =   0.1666667
        k(    9) = (  -0.4805645  -0.2774540  -0.2997213), wk =   0.0833333
        k(   10) = (  -0.4805645   0.0924847   0.0000000), wk =   0.1666667
        k(   11) = (  -0.4805645   0.0924847   0.1498606), wk =   0.3333333
        k(   12) = (  -0.4805645   0.0924847  -0.2997213), wk =   0.1666667

     Largest allocated arrays     est. size (Mb)     dimensions
     Largest temporary arrays     est. size (Mb)     dimensions

     Initial potential from superposition of free atoms

     Starting from uniform charge
     Starting wfc are    0 randomized atomic wfcs

     Writing output data file Prototype-La-hP12-MgZn2.save

     Self-consistent Calculation

[...]

     iteration # 10     ecut=    40.00 Ry     beta=0.70
     CG style diagonalization
     c_bands:  1 eigenvalues not converged
     ethr =  1.40E-07,  avg # of iterations =  3.9

     total energy              =   -4447.48492368 Ry
     Harris-Foulkes estimate   =   -4447.48495350 Ry
     estimated scf accuracy    <       0.00005874 Ry

     iteration # 11     ecut=    40.00 Ry     beta=0.70
     CG style diagonalization
     ethr =  2.13E-08,  avg # of iterations =  3.5

     End of self-consistent calculation

[...]

          k = 0.0000 0.3699-0.2997 (  6542 PWs)   bands (ev):

[...]

          k =-0.4806 0.0925-0.2997 (  6526 PWs)   bands (ev):

   -92.8936 -92.8936 -92.8876 -92.8875 -92.8706 -92.8705 -92.8476 -92.8476
   -60.0079 -60.0079 -60.0052 -60.0052 -51.9287 -51.9287 -51.8767 -51.8767
   -51.7948 -51.7948 -51.7842 -51.7842 -51.7192 -51.7192 -51.7122 -51.7121
   -51.6715 -51.6715 -51.6702 -51.6702 -51.6524 -51.6524 -51.6490 -51.6490
   -51.6435 -51.6435 -51.6184 -51.6184 -24.2070 -24.2069 -24.1890 -24.1890
   -24.1805 -24.1804 -24.1735 -24.1735 -24.1680 -24.1680 -24.1645 -24.1644
     4.5634   4.5635   4.8298   4.8298   4.9787   4.9787   5.0878   5.0878
     5.1511   5.1511   5.4697   5.4697   5.6967   5.6967   5.8303   5.8303
     5.9316   5.9316   5.9782   5.9782   6.1287   6.1288   6.1740   6.1740
     6.2840   6.2840   6.4202   6.4202   6.4827   6.4827   6.5997   6.5997
     6.6153   6.6153   6.6877   6.6877   6.7974   6.7974   7.0776   7.0776
    14.1447  14.1447  15.6888  15.6888  18.2154  18.2154  18.4519  18.4519
    19.0435  19.0435  19.1453  19.1453  19.2189  19.2189  19.4072  19.4072
    19.6351  19.6352  19.7959  19.7959  19.9035  19.9035  20.1247  20.1247
    20.4129  20.4129  20.8362  20.8363  23.0686  23.0686  23.7468  23.7468
    25.1886  25.1886  26.1583  26.1583  28.0390  28.0391  28.3670  28.3670
    28.8990  28.8990  30.0361  30.0361  30.7217  30.7217  31.3823  31.3823
    32.1601  32.1601  32.5663  32.5663  33.3322  33.3322  33.6546  33.6546
    34.1671  34.1671  34.4735  34.4735  34.9412  34.9413  35.5947  35.5947
    36.5149  36.5149  37.0017  37.0017  37.2188  37.2188  37.7064  37.7064
    38.5073  38.5074  38.9883  38.9883  39.4427  39.4429

     the Fermi energy is    32.2389 ev

!    total energy              =   -4447.48493088 Ry
     Harris-Foulkes estimate   =   -4447.48494160 Ry
     estimated scf accuracy    <       0.00001253 Ry

     The total energy is the sum of the following terms:

     one-electron contribution =   -1283.15830697 Ry
     hartree contribution      =     795.62828089 Ry
     xc contribution           =    -361.81170511 Ry
     ewald contribution        =   -3597.69905343 Ry
     smearing contrib. (-TS)   =      -0.44414625 Ry

     convergence has been achieved in  11 iterations

     Forces acting on atoms (Ry/au):

     atom    1 type  1   force =     0.00000000    0.00000000    0.02992655
     atom    2 type  1   force =     0.00000000    0.00000000    0.02992655
     atom    3 type  1   force =     0.00000000    0.00000000   -0.02992655
     atom    4 type  1   force =     0.00000000    0.00000000   -0.02992655
     atom    5 type  2   force =     0.00000000    0.00000000    0.00000000
     atom    6 type  2   force =     0.00000000    0.00000000    0.00000000
     atom    7 type  2   force =     0.00000000   -0.04532882    0.00000000
     atom    8 type  2   force =     0.03925591   -0.02266441    0.00000000
     atom    9 type  2   force =    -0.03925591   -0.02266441    0.00000000
     atom   10 type  2   force =     0.03925591    0.02266441    0.00000000
     atom   11 type  2   force =    -0.03925591    0.02266441    0.00000000
     atom   12 type  2   force =     0.00000000    0.04532882    0.00000000

     Total force =     0.126137     Total SCF correction =     0.000000

     entering subroutine stress ...

          total   stress  (Ry/bohr**3)                   (kbar)     P=  672.97
   0.00464665   0.00000000   0.00000000        683.55      0.00      0.00
   0.00000000   0.00464665   0.00000000          0.00    683.55      0.00
   0.00000000   0.00000000   0.00443091          0.00      0.00    651.81

     Writing output data file Prototype-La-hP12-MgZn2.save

     General routines

     Parallel routines

   This run was terminated on:   1:32:55  23Mar2018

   JOB DONE.