     Program PWSCF v.5.0.2 starts on 22Mar2018 at 16: 5:46

     Current dimensions of program PWSCF are:
     Max number of different atomic species (ntypx) = 10
     Max number of k-points (npk) =  40000
     Max angular momentum in pseudopotentials (lmaxx) =  3
     Waiting for input...
     Reading input from standard input

     Subspace diagonalization in iterative solution of the eigenvalue problem:
     a serial algorithm will be used

     bravais-lattice index     =            0
     lattice parameter (alat)  =      12.0168  a.u.
     unit-cell volume          =    1187.3413 (a.u.)^3
     number of atoms/cell      =            8
     number of atomic types    =            2
     number of electrons       =       172.00
     number of Kohn-Sham states=          103
     kinetic-energy cutoff     =      40.0000  Ry
     charge density cutoff     =     160.0000  Ry
     convergence threshold     =      1.0E-04
     mixing beta               =       0.7000
     number of iterations used =            8  plain     mixing
     Exchange-correlation      = SLA-PZ-NOGX-NOGC ( 1 1 0 0 0)
     EXX-fraction              =        0.00
     nstep                     =           50

     celldm(1)=  12.016801  celldm(2)=   0.000000  celldm(3)=   0.000000
     celldm(4)=   0.000000  celldm(5)=   0.000000  celldm(6)=   0.000000

     crystal axes: (cart. coord. in units of alat)
               a(1) = (   1.000000   0.000000   0.000000 )
               a(2) = (  -0.500000   0.866025   0.000000 )
               a(3) = (   0.000000   0.000000   0.790093 )

     reciprocal axes: (cart. coord. in units 2 pi/alat)
               b(1) = (  1.000000  0.577350  0.000000 )
               b(2) = (  0.000000  1.154701  0.000000 )
               b(3) = (  0.000000  0.000000  1.265674 )

     PseudoPot. # 1 for Tm read from file:
     /home/cwx6513/pp.La/Tm.UPF
     MD5 check sum: 245516e0878b5372ceeb9443ded2c4e1
     Pseudo is Norm-conserving, Zval = 23.0
     Generated in analytical, separable form
     Using radial grid of 1269 points,  6 beta functions with:
                l(1) =   0
                l(2) =   0
                l(3) =   1
                l(4) =   1
                l(5) =   2
                l(6) =   3

     PseudoPot. # 2 for Eu read from file:
     /home/cwx6513/pp.La/Eu.UPF
     MD5 check sum: 5efdbbfc50c6a10138933a6429836ad2
     Pseudo is Norm-conserving, Zval = 17.0
     Generated in analytical, separable form
     Using radial grid of 1261 points,  6 beta functions with:
                l(1) =   0
                l(2) =   0
                l(3) =   1
                l(4) =   1
                l(5) =   2
                l(6) =   3

     atomic species   valence    mass     pseudopotential
        Mg            23.00    24.30500     Tm( 1.00)
        Cd            17.00   112.41100     Eu( 1.00)

     24 Sym. Ops., with inversion, found (12 have fractional translation)

   Cartesian axes

     site n.     atom                  positions (alat units)
         1           Mg  tau(   1) = (   0.2478935   0.7204716   0.1975233  )
         2           Mg  tau(   2) = (   0.7478935   0.1455538   0.5925699  )
         3           Mg  tau(   3) = (   0.2521065   0.1455538   0.5925699  )
         4           Mg  tau(   4) = (  -0.2478935   0.7204716   0.1975233  )
         5           Mg  tau(   5) = (   0.0000000   0.2911075   0.1975233  )
         6           Mg  tau(   6) = (   0.5000000   0.5749179   0.5925699  )
         7           Cd  tau(   7) = (   0.5000005   0.2886748   0.1975233  )
         8           Cd  tau(   8) = (  -0.0000005   0.5773506   0.5925699  )

     number of k points=    64  gaussian smearing, width (Ry)=  0.1000
                       cart. coord. in units 2pi/alat
        k(    1) = (   0.0000000   0.0000000   0.0000000), wk =   0.0095238
        k(    2) = (   0.0000000   0.0000000   0.1808105), wk =   0.0190476
        k(    3) = (   0.0000000   0.0000000   0.3616210), wk =   0.0190476
        k(    4) = (   0.0000000   0.0000000   0.5424315), wk =   0.0190476
        k(    5) = (   0.0000000   0.1924501   0.0000000), wk =   0.0190476
        k(    6) = (   0.0000000   0.1924501   0.1808105), wk =   0.0380952
        k(    7) = (   0.0000000   0.1924501   0.3616210), wk =   0.0380952
        k(    8) = (   0.0000000   0.1924501   0.5424315), wk =   0.0380952
        k(    9) = (   0.0000000   0.3849002   0.0000000), wk =   0.0190476
        k(   10) = (   0.0000000   0.3849002   0.1808105), wk =   0.0380952
        k(   11) = (   0.0000000   0.3849002   0.3616210), wk =   0.0380952
        k(   12) = (   0.0000000   0.3849002   0.5424315), wk =   0.0380952
        k(   13) = (   0.0000000  -0.5773503   0.0000000), wk =   0.0095238
        k(   14) = (   0.0000000  -0.5773503   0.1808105), wk =   0.0190476
        k(   15) = (   0.0000000  -0.5773503   0.3616210), wk =   0.0190476
        k(   16) = (   0.0000000  -0.5773503   0.5424315), wk =   0.0190476
        k(   17) = (   0.2000000   0.1154701   0.0000000), wk =   0.0190476
        k(   18) = (   0.2000000   0.1154701   0.1808105), wk =   0.0380952
        k(   19) = (   0.2000000   0.1154701   0.3616210), wk =   0.0380952
        k(   20) = (   0.2000000   0.1154701   0.5424315), wk =   0.0380952
        k(   21) = (   0.2000000   0.3079201   0.0000000), wk =   0.0190476
        k(   22) = (   0.2000000   0.3079201   0.1808105), wk =   0.0380952
        k(   23) = (   0.2000000   0.3079201   0.3616210), wk =   0.0380952
        k(   24) = (   0.2000000   0.3079201   0.5424315), wk =   0.0380952
        k(   25) = (   0.2000000   0.5003702   0.0000000), wk =   0.0190476
        k(   26) = (   0.2000000   0.5003702   0.1808105), wk =   0.0380952
        k(   27) = (   0.2000000   0.5003702   0.3616210), wk =   0.0380952
        k(   28) = (   0.2000000   0.5003702   0.5424315), wk =   0.0380952
        k(   29) = (   0.2000000  -0.4618802   0.0000000), wk =   0.0190476
        k(   30) = (   0.2000000  -0.4618802   0.1808105), wk =   0.0380952
        k(   31) = (   0.2000000  -0.4618802   0.3616210), wk =   0.0380952
        k(   32) = (   0.2000000  -0.4618802   0.5424315), wk =   0.0380952
        k(   33) = (   0.2000000  -0.2694301   0.0000000), wk =   0.0190476
        k(   34) = (   0.2000000  -0.2694301   0.1808105), wk =   0.0380952
        k(   35) = (   0.2000000  -0.2694301   0.3616210), wk =   0.0380952
        k(   36) = (   0.2000000  -0.2694301   0.5424315), wk =   0.0380952
        k(   37) = (   0.2000000  -0.0769800   0.0000000), wk =   0.0190476
        k(   38) = (   0.2000000  -0.0769800   0.1808105), wk =   0.0380952
        k(   39) = (   0.2000000  -0.0769800   0.3616210), wk =   0.0380952
        k(   40) = (   0.2000000  -0.0769800   0.5424315), wk =   0.0380952
        k(   41) = (   0.4000000   0.2309401   0.0000000), wk =   0.0190476
        k(   42) = (   0.4000000   0.2309401   0.1808105), wk =   0.0380952
        k(   43) = (   0.4000000   0.2309401   0.3616210), wk =   0.0380952
        k(   44) = (   0.4000000   0.2309401   0.5424315), wk =   0.0380952
        k(   45) = (   0.4000000   0.4233902   0.0000000), wk =   0.0190476
        k(   46) = (   0.4000000   0.4233902   0.1808105), wk =   0.0380952
        k(   47) = (   0.4000000   0.4233902   0.3616210), wk =   0.0380952
        k(   48) = (   0.4000000   0.4233902   0.5424315), wk =   0.0380952
        k(   49) = (   0.4000000   0.6158403   0.0000000), wk =   0.0190476
        k(   50) = (   0.4000000   0.6158403   0.1808105), wk =   0.0380952
        k(   51) = (   0.4000000   0.6158403   0.3616210), wk =   0.0380952
        k(   52) = (   0.4000000   0.6158403   0.5424315), wk =   0.0380952
        k(   53) = (   0.4000000  -0.3464102   0.0000000), wk =   0.0190476
        k(   54) = (   0.4000000  -0.3464102   0.1808105), wk =   0.0380952
        k(   55) = (   0.4000000  -0.3464102   0.3616210), wk =   0.0380952
        k(   56) = (   0.4000000  -0.3464102   0.5424315), wk =   0.0380952
        k(   57) = (   0.4000000  -0.1539601   0.0000000), wk =   0.0190476
        k(   58) = (   0.4000000  -0.1539601   0.1808105), wk =   0.0380952
        k(   59) = (   0.4000000  -0.1539601   0.3616210), wk =   0.0380952
        k(   60) = (   0.4000000  -0.1539601   0.5424315), wk =   0.0380952
        k(   61) = (   0.4000000   0.0384900   0.0000000), wk =   0.0190476
        k(   62) = (   0.4000000   0.0384900   0.1808105), wk =   0.0380952
        k(   63) = (   0.4000000   0.0384900   0.3616210), wk =   0.0380952
        k(   64) = (   0.4000000   0.0384900   0.5424315), wk =   0.0380952

     Largest allocated arrays     est. size (Mb)     dimensions
     Largest temporary arrays     est. size (Mb)     dimensions

     Initial potential from superposition of free atoms

     Starting from uniform charge
     Starting wfc are    0 randomized atomic wfcs

     Self-consistent Calculation

     iteration #  1     ecut=    40.00 Ry     beta=0.70
     CG style diagonalization
     ethr =  1.00E-02,  avg # of iterations = 19.5

     total energy              =   -1873.04382421 Ry
     Harris-Foulkes estimate   =   -3362.33554671 Ry
     estimated scf accuracy    <    1819.42588467 Ry

     iteration #  2     ecut=    40.00 Ry     beta=0.70
     CG style diagonalization
     c_bands:  4 eigenvalues not converged
     c_bands:  4 eigenvalues not converged
     c_bands:  4 eigenvalues not converged
     c_bands:  4 eigenvalues not converged
     c_bands:  4 eigenvalues not converged
     c_bands:  3 eigenvalues not converged
     c_bands:  4 eigenvalues not converged
     c_bands:  4 eigenvalues not converged
     c_bands:  2 eigenvalues not converged
     c_bands:  2 eigenvalues not converged
     c_bands:  3 eigenvalues not converged
     c_bands:  2 eigenvalues not converged
     c_bands:  2 eigenvalues not converged
     c_bands:  2 eigenvalues not converged
     c_bands:  4 eigenvalues not converged
     c_bands:  4 eigenvalues not converged
     c_bands:  3 eigenvalues not converged
     c_bands:  3 eigenvalues not converged
     c_bands:  1 eigenvalues not converged
     c_bands:  4 eigenvalues not converged
     c_bands:  4 eigenvalues not converged
     c_bands:  5 eigenvalues not converged
     c_bands:  5 eigenvalues not converged
     c_bands:  4 eigenvalues not converged
     c_bands:  4 eigenvalues not converged
     c_bands:  4 eigenvalues not converged
     c_bands:  4 eigenvalues not converged
     c_bands:  2 eigenvalues not converged
     c_bands:  4 eigenvalues not converged
     c_bands:  2 eigenvalues not converged
     c_bands:  1 eigenvalues not converged
     c_bands:  2 eigenvalues not converged
     c_bands:  2 eigenvalues not converged
     c_bands:  3 eigenvalues not converged
     c_bands:  5 eigenvalues not converged
     c_bands:  2 eigenvalues not converged
     c_bands:  4 eigenvalues not converged
     ethr =  1.00E-02,  avg # of iterations = 16.1

[...]

     End of self-consistent calculation

          k = 0.0000 0.0000 0.0000 (  5047 PWs)   bands (ev):

   -85.7531 -85.7531 -85.7501 -85.7119 -85.7119 -85.6884 -44.4652 -44.4309
[...]
        k(   15) = (   0.0000000  -0.6132149   0.3820605), wk =   0.0190476
        k(   16) = (   0.0000000  -0.6132149   0.5730907), wk =   0.0190476
        k(   17) = (   0.2124239   0.1226430   0.0000000), wk =   0.0190476
        k(   18) = (   0.2124239   0.1226430   0.1910302), wk =   0.0380952
        k(   19) = (   0.2124239   0.1226430   0.3820605), wk =   0.0380952
        k(   20) = (   0.2124239   0.1226430   0.5730907), wk =   0.0380952
        k(   21) = (   0.2124239   0.3270479   0.0000000), wk =   0.0190476
        k(   22) = (   0.2124239   0.3270479   0.1910302), wk =   0.0380952
        k(   23) = (   0.2124239   0.3270479   0.3820605), wk =   0.0380952
        k(   24) = (   0.2124239   0.3270479   0.5730907), wk =   0.0380952
        k(   25) = (   0.2124239   0.5314529   0.0000000), wk =   0.0190476
        k(   26) = (   0.2124239   0.5314529   0.1910302), wk =   0.0380952
        k(   27) = (   0.2124239   0.5314529   0.3820605), wk =   0.0380952
        k(   28) = (   0.2124239   0.5314529   0.5730907), wk =   0.0380952
        k(   29) = (   0.2124239  -0.4905719   0.0000000), wk =   0.0190476
        k(   30) = (   0.2124239  -0.4905719   0.1910302), wk =   0.0380952
        k(   31) = (   0.2124239  -0.4905719   0.3820605), wk =   0.0380952
        k(   32) = (   0.2124239  -0.4905719   0.5730907), wk =   0.0380952
        k(   33) = (   0.2124239  -0.2861670   0.0000000), wk =   0.0190476
        k(   34) = (   0.2124239  -0.2861670   0.1910302), wk =   0.0380952
        k(   35) = (   0.2124239  -0.2861670   0.3820605), wk =   0.0380952
        k(   36) = (   0.2124239  -0.2861670   0.5730907), wk =   0.0380952
        k(   37) = (   0.2124239  -0.0817620   0.0000000), wk =   0.0190476
        k(   38) = (   0.2124239  -0.0817620   0.1910302), wk =   0.0380952
        k(   39) = (   0.2124239  -0.0817620   0.3820605), wk =   0.0380952
        k(   40) = (   0.2124239  -0.0817620   0.5730907), wk =   0.0380952
        k(   41) = (   0.4248477   0.2452860   0.0000000), wk =   0.0190476
        k(   42) = (   0.4248477   0.2452860   0.1910302), wk =   0.0380952
        k(   43) = (   0.4248477   0.2452860   0.3820605), wk =   0.0380952
        k(   44) = (   0.4248477   0.2452860   0.5730907), wk =   0.0380952
        k(   45) = (   0.4248477   0.4496909   0.0000000), wk =   0.0190476
        k(   46) = (   0.4248477   0.4496909   0.1910302), wk =   0.0380952
        k(   47) = (   0.4248477   0.4496909   0.3820605), wk =   0.0380952
        k(   48) = (   0.4248477   0.4496909   0.5730907), wk =   0.0380952
        k(   49) = (   0.4248477   0.6540959   0.0000000), wk =   0.0190476
        k(   50) = (   0.4248477   0.6540959   0.1910302), wk =   0.0380952
        k(   51) = (   0.4248477   0.6540959   0.3820605), wk =   0.0380952
        k(   52) = (   0.4248477   0.6540959   0.5730907), wk =   0.0380952
        k(   53) = (   0.4248477  -0.3679289   0.0000000), wk =   0.0190476
        k(   54) = (   0.4248477  -0.3679289   0.1910302), wk =   0.0380952
        k(   55) = (   0.4248477  -0.3679289   0.3820605), wk =   0.0380952
        k(   56) = (   0.4248477  -0.3679289   0.5730907), wk =   0.0380952
        k(   57) = (   0.4248477  -0.1635240   0.0000000), wk =   0.0190476
        k(   58) = (   0.4248477  -0.1635240   0.1910302), wk =   0.0380952
        k(   59) = (   0.4248477  -0.1635240   0.3820605), wk =   0.0380952
        k(   60) = (   0.4248477  -0.1635240   0.5730907), wk =   0.0380952
        k(   61) = (   0.4248477   0.0408810   0.0000000), wk =   0.0190476
        k(   62) = (   0.4248477   0.0408810   0.1910302), wk =   0.0380952
        k(   63) = (   0.4248477   0.0408810   0.3820605), wk =   0.0380952
        k(   64) = (   0.4248477   0.0408810   0.5730907), wk =   0.0380952

[...]

     The maximum number of steps has been reached.

     End of BFGS Geometry Optimization
Begin final coordinates
     new unit-cell volume =    996.20894 a.u.^3 (   147.62293 Ang^3 )

CELL_PARAMETERS (alat= 12.01680127)
   0.941513761   0.000000000   0.000000000
  -0.470756880   0.815374835   0.000000000
   0.000000000   0.000000000   0.747824729

ATOMIC_POSITIONS (crystal)
Mg       0.655781965   0.827890983   0.250000000
Mg       0.827890983   0.172109017   0.750000000
Mg       0.344218035   0.172109017   0.750000000
Mg       0.172109017   0.827890983   0.250000000
Mg       0.172109017   0.344218035   0.250000000
Mg       0.827890983   0.655781965   0.750000000
Cd       0.666667000   0.333333000   0.250000000
Cd       0.333333000   0.666667000   0.750000000
End final coordinates

     A final scf calculation at the relaxed structure.
     The G-vectors are recalculated for the final unit cell
     Results may differ from those at the preceding step.

     bravais-lattice index     =            0
     lattice parameter (alat)  =      12.0168  a.u.
     unit-cell volume          =     996.2089 (a.u.)^3
     number of atoms/cell      =            8
     number of atomic types    =            2
     number of electrons       =       172.00
     number of Kohn-Sham states=          103
     kinetic-energy cutoff     =      40.0000  Ry
     charge density cutoff     =     160.0000  Ry
     convergence threshold     =      1.0E-04
     mixing beta               =       0.7000
     number of iterations used =            8  plain     mixing
     Exchange-correlation      = SLA-PZ-NOGX-NOGC ( 1 1 0 0 0)
     EXX-fraction              =        0.00

     celldm(1)=  12.016801  celldm(2)=   0.000000  celldm(3)=   0.000000
     celldm(4)=   0.000000  celldm(5)=   0.000000  celldm(6)=   0.000000

     crystal axes: (cart. coord. in units of alat)
               a(1) = (   0.941514   0.000000   0.000000 )
               a(2) = (  -0.470757   0.815375   0.000000 )
               a(3) = (   0.000000   0.000000   0.747825 )

     reciprocal axes: (cart. coord. in units 2 pi/alat)
               b(1) = (  1.062119  0.613215  0.000000 )
               b(2) = (  0.000000  1.226430  0.000000 )
               b(3) = (  0.000000  0.000000  1.337212 )

     PseudoPot. # 1 for Tm read from file:
     /home/cwx6513/pp.La/Tm.UPF
     MD5 check sum: 245516e0878b5372ceeb9443ded2c4e1
     Pseudo is Norm-conserving, Zval = 23.0
     Generated in analytical, separable form
     Using radial grid of 1269 points,  6 beta functions with:
                l(1) =   0
                l(2) =   0
                l(3) =   1
                l(4) =   1
                l(5) =   2
                l(6) =   3

     PseudoPot. # 2 for Eu read from file:
     /home/cwx6513/pp.La/Eu.UPF
     MD5 check sum: 5efdbbfc50c6a10138933a6429836ad2
     Pseudo is Norm-conserving, Zval = 17.0
     Generated in analytical, separable form
     Using radial grid of 1261 points,  6 beta functions with:
                l(1) =   0
                l(2) =   0
                l(3) =   1
                l(4) =   1
                l(5) =   2
                l(6) =   3

     atomic species   valence    mass     pseudopotential
        Mg            23.00    24.30500     Tm( 1.00)
        Cd            17.00   112.41100     Eu( 1.00)

     24 Sym. Ops., with inversion, found (12 have fractional translation)

   Cartesian axes

     site n.     atom                  positions (alat units)
         1           Mg  tau(   1) = (   0.2276924   0.6750415   0.1869562  )
         2           Mg  tau(   2) = (   0.6984492   0.1403334   0.5608685  )
         3           Mg  tau(   3) = (   0.2430645   0.1403334   0.5608685  )
         4           Mg  tau(   4) = (  -0.2276924   0.6750415   0.1869562  )
         5           Mg  tau(   5) = (   0.0000000   0.2806667   0.1869562  )
         6           Mg  tau(   6) = (   0.4707569   0.5347081   0.5608685  )
         7           Cd  tau(   7) = (   0.4707574   0.2717913   0.1869562  )
         8           Cd  tau(   8) = (  -0.0000005   0.5435835   0.5608685  )

     number of k points=    64  gaussian smearing, width (Ry)=  0.1000
                       cart. coord. in units 2pi/alat
        k(    1) = (   0.0000000   0.0000000   0.0000000), wk =   0.0095238
        k(    2) = (   0.0000000   0.0000000   0.1910302), wk =   0.0190476
        k(    3) = (   0.0000000   0.0000000   0.3820605), wk =   0.0190476
        k(    4) = (   0.0000000   0.0000000   0.5730907), wk =   0.0190476
        k(    5) = (   0.0000000   0.2044050   0.0000000), wk =   0.0190476
        k(    6) = (   0.0000000   0.2044050   0.1910302), wk =   0.0380952
        k(    7) = (   0.0000000   0.2044050   0.3820605), wk =   0.0380952
        k(    8) = (   0.0000000   0.2044050   0.5730907), wk =   0.0380952
        k(    9) = (   0.0000000   0.4088099   0.0000000), wk =   0.0190476
        k(   10) = (   0.0000000   0.4088099   0.1910302), wk =   0.0380952
        k(   11) = (   0.0000000   0.4088099   0.3820605), wk =   0.0380952
        k(   12) = (   0.0000000   0.4088099   0.5730907), wk =   0.0380952
        k(   13) = (   0.0000000  -0.6132149   0.0000000), wk =   0.0095238
        k(   14) = (   0.0000000  -0.6132149   0.1910302), wk =   0.0190476
        k(   15) = (   0.0000000  -0.6132149   0.3820605), wk =   0.0190476
        k(   16) = (   0.0000000  -0.6132149   0.5730907), wk =   0.0190476
        k(   17) = (   0.2124239   0.1226430   0.0000000), wk =   0.0190476
        k(   18) = (   0.2124239   0.1226430   0.1910302), wk =   0.0380952
        k(   19) = (   0.2124239   0.1226430   0.3820605), wk =   0.0380952
        k(   20) = (   0.2124239   0.1226430   0.5730907), wk =   0.0380952
        k(   21) = (   0.2124239   0.3270479   0.0000000), wk =   0.0190476
        k(   22) = (   0.2124239   0.3270479   0.1910302), wk =   0.0380952
        k(   23) = (   0.2124239   0.3270479   0.3820605), wk =   0.0380952
        k(   24) = (   0.2124239   0.3270479   0.5730907), wk =   0.0380952
        k(   25) = (   0.2124239   0.5314529   0.0000000), wk =   0.0190476
        k(   26) = (   0.2124239   0.5314529   0.1910302), wk =   0.0380952
        k(   27) = (   0.2124239   0.5314529   0.3820605), wk =   0.0380952
        k(   28) = (   0.2124239   0.5314529   0.5730907), wk =   0.0380952
        k(   29) = (   0.2124239  -0.4905719   0.0000000), wk =   0.0190476
        k(   30) = (   0.2124239  -0.4905719   0.1910302), wk =   0.0380952
        k(   31) = (   0.2124239  -0.4905719   0.3820605), wk =   0.0380952
        k(   32) = (   0.2124239  -0.4905719   0.5730907), wk =   0.0380952
        k(   33) = (   0.2124239  -0.2861670   0.0000000), wk =   0.0190476
        k(   34) = (   0.2124239  -0.2861670   0.1910302), wk =   0.0380952
        k(   35) = (   0.2124239  -0.2861670   0.3820605), wk =   0.0380952
        k(   36) = (   0.2124239  -0.2861670   0.5730907), wk =   0.0380952
        k(   37) = (   0.2124239  -0.0817620   0.0000000), wk =   0.0190476
        k(   38) = (   0.2124239  -0.0817620   0.1910302), wk =   0.0380952
        k(   39) = (   0.2124239  -0.0817620   0.3820605), wk =   0.0380952
        k(   40) = (   0.2124239  -0.0817620   0.5730907), wk =   0.0380952
        k(   41) = (   0.4248477   0.2452860   0.0000000), wk =   0.0190476
        k(   42) = (   0.4248477   0.2452860   0.1910302), wk =   0.0380952
        k(   43) = (   0.4248477   0.2452860   0.3820605), wk =   0.0380952
        k(   44) = (   0.4248477   0.2452860   0.5730907), wk =   0.0380952
        k(   45) = (   0.4248477   0.4496909   0.0000000), wk =   0.0190476
        k(   46) = (   0.4248477   0.4496909   0.1910302), wk =   0.0380952
        k(   47) = (   0.4248477   0.4496909   0.3820605), wk =   0.0380952
        k(   48) = (   0.4248477   0.4496909   0.5730907), wk =   0.0380952
        k(   49) = (   0.4248477   0.6540959   0.0000000), wk =   0.0190476
        k(   50) = (   0.4248477   0.6540959   0.1910302), wk =   0.0380952
        k(   51) = (   0.4248477   0.6540959   0.3820605), wk =   0.0380952
        k(   52) = (   0.4248477   0.6540959   0.5730907), wk =   0.0380952
        k(   53) = (   0.4248477  -0.3679289   0.0000000), wk =   0.0190476
        k(   54) = (   0.4248477  -0.3679289   0.1910302), wk =   0.0380952
        k(   55) = (   0.4248477  -0.3679289   0.3820605), wk =   0.0380952
        k(   56) = (   0.4248477  -0.3679289   0.5730907), wk =   0.0380952
        k(   57) = (   0.4248477  -0.1635240   0.0000000), wk =   0.0190476
        k(   58) = (   0.4248477  -0.1635240   0.1910302), wk =   0.0380952
        k(   59) = (   0.4248477  -0.1635240   0.3820605), wk =   0.0380952
        k(   60) = (   0.4248477  -0.1635240   0.5730907), wk =   0.0380952
        k(   61) = (   0.4248477   0.0408810   0.0000000), wk =   0.0190476
        k(   62) = (   0.4248477   0.0408810   0.1910302), wk =   0.0380952
        k(   63) = (   0.4248477   0.0408810   0.3820605), wk =   0.0380952
        k(   64) = (   0.4248477   0.0408810   0.5730907), wk =   0.0380952

     Largest allocated arrays     est. size (Mb)     dimensions
     Largest temporary arrays     est. size (Mb)     dimensions

     Initial potential from superposition of free atoms

     Starting from uniform charge
     Starting wfc are    0 randomized atomic wfcs

     Writing output data file Prototype-La-hP8-Mg3Cd.save

     Self-consistent Calculation

[...]

     iteration # 10     ecut=    40.00 Ry     beta=0.70
     CG style diagonalization
     c_bands:  1 eigenvalues not converged
     c_bands:  1 eigenvalues not converged
     c_bands:  1 eigenvalues not converged
     ethr =  6.92E-07,  avg # of iterations =  3.5

     total energy              =   -2553.40130616 Ry
     Harris-Foulkes estimate   =   -2553.40141138 Ry
     estimated scf accuracy    <       0.00018037 Ry

     iteration # 11     ecut=    40.00 Ry     beta=0.70
     CG style diagonalization
     ethr =  1.05E-07,  avg # of iterations =  3.6

     End of self-consistent calculation

[...]

          k = 0.4248 0.0409 0.5731 (  4262 PWs)   bands (ev):

   -80.2994 -80.2871 -80.2831 -80.2787 -80.2721 -80.2637 -39.0404 -39.0379
   -39.0170 -39.0135 -38.9999 -38.9951 -38.9847 -38.9789 -38.9708 -38.9643
   -38.9596 -38.9560 -38.9488 -38.9441 -38.9409 -38.9366 -38.9304 -38.9275
   -31.9115 -31.9111  -4.9842  -4.9796  -4.8547  -4.8530  -4.8492  -4.8460
     9.0305   9.0550   9.1736   9.2163   9.3127   9.3213   9.3993   9.4735
     9.4950   9.5071   9.6173   9.6404   9.7671   9.9013   9.9253   9.9615
     9.9790  10.0741  10.1069  10.1341  10.2122  10.2733  10.2776  10.3043
    10.3804  10.3954  10.6028  10.6236  10.7020  10.7799  17.0003  18.1257
    19.2824  19.7837  20.7950  21.2176  23.6819  24.1816  24.3222  24.7115
    25.7880  26.1639  26.3252  26.6353  27.2669  27.4907  28.1782  28.3091
    28.6809  29.1382  30.4837  31.0875  31.6519  31.8046  32.7257  33.4302
    33.9512  34.3922  34.6217  35.0081  35.5490  35.8125  35.9225  35.9827
    36.5538  36.8157  37.0339  37.3735  37.4660  37.8266  38.4396

     the Fermi energy is    31.9462 ev

!    total energy              =   -2553.40135014 Ry
     Harris-Foulkes estimate   =   -2553.40136015 Ry
     estimated scf accuracy    <       0.00001193 Ry

     The total energy is the sum of the following terms:

     one-electron contribution =    -593.72888721 Ry
     hartree contribution      =     412.92839243 Ry
     xc contribution           =    -217.97074798 Ry
     ewald contribution        =   -2154.39106236 Ry
     smearing contrib. (-TS)   =      -0.23904503 Ry

     convergence has been achieved in  11 iterations

     Forces acting on atoms (Ry/au):

     atom    1 type  1   force =     0.04502115    0.02599297    0.00000000
     atom    2 type  1   force =     0.04502115   -0.02599297    0.00000000
     atom    3 type  1   force =    -0.04502115   -0.02599297    0.00000000
     atom    4 type  1   force =    -0.04502115    0.02599297    0.00000000
     atom    5 type  1   force =     0.00000000   -0.05198595    0.00000000
     atom    6 type  1   force =     0.00000000    0.05198595    0.00000000
     atom    7 type  2   force =     0.00000000    0.00000000    0.00000000
     atom    8 type  2   force =     0.00000000    0.00000000    0.00000000

     Total force =     0.127339     Total SCF correction =     0.000000

     entering subroutine stress ...

          total   stress  (Ry/bohr**3)                   (kbar)     P=  284.99
   0.00192398   0.00000000   0.00000000        283.03      0.00      0.00
   0.00000000   0.00192398   0.00000000          0.00    283.03      0.00
   0.00000000   0.00000000   0.00196410          0.00      0.00    288.93

     Writing output data file Prototype-La-hP8-Mg3Cd.save

     General routines

     Parallel routines

   This run was terminated on:  17: 8:47  22Mar2018

   JOB DONE.