     Program PWSCF v.5.0.2 starts on 22Mar2018 at 16: 5:46

     Current dimensions of program PWSCF are:
     Max number of different atomic species (ntypx) = 10
     Max number of k-points (npk) =  40000
     Max angular momentum in pseudopotentials (lmaxx) =  3
     Waiting for input...
     Reading input from standard input

     Subspace diagonalization in iterative solution of the eigenvalue problem:
     a serial algorithm will be used

     bravais-lattice index     =            0
     lattice parameter (alat)  =       7.0151  a.u.
     unit-cell volume          =     862.2778 (a.u.)^3
     number of atoms/cell      =           12
     number of atomic types    =            2
     number of electrons       =       252.00
     number of Kohn-Sham states=          151
     kinetic-energy cutoff     =      40.0000  Ry
     charge density cutoff     =     160.0000  Ry
     convergence threshold     =      1.0E-04
     mixing beta               =       0.7000
     number of iterations used =            8  plain     mixing
     Exchange-correlation      = SLA-PZ-NOGX-NOGC ( 1 1 0 0 0)
     EXX-fraction              =        0.00
     nstep                     =           50

     celldm(1)=   7.015105  celldm(2)=   0.000000  celldm(3)=   0.000000
     celldm(4)=   0.000000  celldm(5)=   0.000000  celldm(6)=   0.000000

     crystal axes: (cart. coord. in units of alat)
               a(1) = (   1.000000   0.000000   0.000000 )
               a(2) = (   0.000000   1.315963   0.000000 )
               a(3) = (   0.000000   0.000000   1.898020 )

     reciprocal axes: (cart. coord. in units 2 pi/alat)
               b(1) = (  1.000000  0.000000  0.000000 )
               b(2) = (  0.000000  0.759900  0.000000 )
               b(3) = (  0.000000  0.000000  0.526865 )

     PseudoPot. # 1 for Tm read from file:
     /home/cwx6513/pp.La/Tm.UPF
     MD5 check sum: 245516e0878b5372ceeb9443ded2c4e1
     Pseudo is Norm-conserving, Zval = 23.0
     Generated in analytical, separable form
     Using radial grid of 1269 points,  6 beta functions with:
                l(1) =   0
                l(2) =   0
                l(3) =   1
                l(4) =   1
                l(5) =   2
                l(6) =   3

     PseudoPot. # 2 for Eu read from file:
     /home/cwx6513/pp.La/Eu.UPF
     MD5 check sum: 5efdbbfc50c6a10138933a6429836ad2
     Pseudo is Norm-conserving, Zval = 17.0
     Generated in analytical, separable form
     Using radial grid of 1261 points,  6 beta functions with:
                l(1) =   0
                l(2) =   0
                l(3) =   1
                l(4) =   1
                l(5) =   2
                l(6) =   3

     atomic species   valence    mass     pseudopotential
        Co            23.00    58.93320     Tm( 1.00)
        Si            17.00    28.08550     Eu( 1.00)

      8 Sym. Ops., with inversion, found ( 6 have fractional translation)

   Cartesian axes

     site n.     atom                  positions (alat units)
         1           Co  tau(   1) = (   0.7500000   1.0875135   0.8270358  )
         2           Co  tau(   2) = (   0.2500000   0.2284499   1.0709846  )
         3           Co  tau(   3) = (   0.7500000   0.4295318   0.1219744  )
         4           Co  tau(   4) = (   0.2500000   0.8864316   1.7760460  )
         5           Co  tau(   5) = (   0.2500000   0.7067855   0.5358966  )
         6           Co  tau(   6) = (   0.7500000   0.6091779   1.3621238  )
         7           Co  tau(   7) = (   0.2500000   0.0488038   0.4131136  )
         8           Co  tau(   8) = (   0.7500000   1.2671596   1.4849068  )
         9           Si  tau(   9) = (   0.2500000   0.2669484   1.6960710  )
        10           Si  tau(  10) = (   0.7500000   1.0490149   0.2019494  )
        11           Si  tau(  11) = (   0.2500000   0.9249301   1.1509596  )
        12           Si  tau(  12) = (   0.7500000   0.3910333   0.7470608  )

     number of k points=    12  gaussian smearing, width (Ry)=  0.1000
                       cart. coord. in units 2pi/alat
        k(    1) = (   0.0000000   0.0000000   0.0000000), wk =   0.0833333
        k(    2) = (   0.0000000   0.0000000   0.1317162), wk =   0.1666667
        k(    3) = (   0.0000000   0.0000000  -0.2634324), wk =   0.0833333
        k(    4) = (   0.0000000   0.2532999   0.0000000), wk =   0.1666667
        k(    5) = (   0.0000000   0.2532999   0.1317162), wk =   0.3333333
        k(    6) = (   0.0000000   0.2532999  -0.2634324), wk =   0.1666667
        k(    7) = (  -0.5000000   0.0000000   0.0000000), wk =   0.0833333
        k(    8) = (  -0.5000000   0.0000000   0.1317162), wk =   0.1666667
        k(    9) = (  -0.5000000   0.0000000  -0.2634324), wk =   0.0833333
        k(   10) = (  -0.5000000   0.2532999   0.0000000), wk =   0.1666667
        k(   11) = (  -0.5000000   0.2532999   0.1317162), wk =   0.3333333
        k(   12) = (  -0.5000000   0.2532999  -0.2634324), wk =   0.1666667

     Largest allocated arrays     est. size (Mb)     dimensions
     Largest temporary arrays     est. size (Mb)     dimensions

     Initial potential from superposition of free atoms

     Starting from uniform charge
     Starting wfc are    0 randomized atomic wfcs

     Self-consistent Calculation

     iteration #  1     ecut=    40.00 Ry     beta=0.70
     CG style diagonalization
     c_bands:  4 eigenvalues not converged
     c_bands:  3 eigenvalues not converged
     c_bands:  1 eigenvalues not converged
     c_bands:  3 eigenvalues not converged
     c_bands:  2 eigenvalues not converged
     c_bands:  2 eigenvalues not converged
     c_bands:  3 eigenvalues not converged
     c_bands:  1 eigenvalues not converged
     c_bands:  1 eigenvalues not converged
     c_bands:  1 eigenvalues not converged
     ethr =  1.00E-02,  avg # of iterations = 13.2

     total energy              =   -3019.46811355 Ry
     Harris-Foulkes estimate   =   -4221.25440242 Ry
     estimated scf accuracy    <    1495.84161293 Ry

[...]

     iteration #  3     ecut=    40.00 Ry     beta=0.70
     CG style diagonalization
     ethr =  1.00E-02,  avg # of iterations =  9.8

[...]

     End of self-consistent calculation

          k = 0.0000 0.0000 0.0000 (  3675 PWs)   bands (ev):

   -58.0605 -58.0561 -58.0161 -57.9900 -57.9769 -57.9661 -57.9388 -57.9210
   -17.7072 -17.5518 -17.4600 -17.3818 -17.3445 -17.2859 -17.2723 -17.1674
   -17.1404 -17.0871 -17.0493 -17.0473 -17.0259 -16.9539 -16.9449 -16.9261
   -16.9083 -16.8481 -16.8235 -16.8138 -16.8018 -16.6685 -16.6258 -16.5875
   -11.9287 -11.7642 -11.7312 -11.7292  13.4831  13.7570  13.8115  13.8162
    13.8846  13.9014  13.9797  14.0467  14.3026  14.5735  14.6225  14.9368
    27.6765  27.9114  27.9365  27.9420  28.1148  28.3362  28.3571  28.5637
    29.0520  29.2451  29.2827  29.4824  29.6732  30.0096  30.1254  30.6056
    30.6665  30.7577  30.7782  30.7864  30.8181  31.0048  31.2253  31.2448
    31.3710  31.4613  31.5797  31.6085  31.9258  32.2071  32.2685  32.3723
    32.4009  32.5583  32.8487  33.0725  33.1931  33.2239  33.4937  33.5548
    33.6633  37.8301  37.8585  38.1945  41.6286  42.2323  42.4308  42.9598
    43.1192  44.1345  44.2647  44.6926  44.9655  45.3774  45.4419  45.7973
    45.8851  46.6907  47.1341  47.3411  48.0443  48.1538  48.2386  48.2628
    48.6768  49.7911  50.2768  51.2702  51.9473  52.8137  53.1495  54.4994
    55.0503  55.7431  55.9175  56.0563  56.6432  56.7686  57.1407  57.3679
    57.6147  57.6921  57.7976  58.2815  58.5243  58.6285  58.8326  58.8819
    58.9119  59.3359  59.4866  59.5983  59.6521  59.7905  60.0085  60.2392
    60.4410  60.6371  60.7293  62.1790  62.3317  62.4456  63.0649

[...]

          k =-0.5000 0.0000 0.0000 (  3722 PWs)   bands (ev):

[...]

     the Fermi energy is    56.5650 ev

!    total energy              =   -3621.36588559 Ry
     Harris-Foulkes estimate   =   -3621.36589245 Ry
     estimated scf accuracy    <       0.00000466 Ry

     The total energy is the sum of the following terms:

     one-electron contribution =      68.61680950 Ry
     hartree contribution      =     349.47381339 Ry
     xc contribution           =    -330.49322134 Ry
     ewald contribution        =   -3708.54486360 Ry
     smearing contrib. (-TS)   =      -0.41842353 Ry

     convergence has been achieved in  11 iterations

     Forces acting on atoms (Ry/au):

     atom    1 type  1   force =     0.00000000   -0.09743577   -0.10271112
     atom    2 type  1   force =     0.00000000    0.09743577    0.10271112
     atom    3 type  1   force =     0.00000000   -0.09743577    0.10271112
     atom    4 type  1   force =     0.00000000    0.09743577   -0.10271112
     atom    5 type  1   force =     0.00000000    0.12040625   -0.08804766
     atom    6 type  1   force =     0.00000000   -0.12040625    0.08804766
     atom    7 type  1   force =     0.00000000    0.12040625    0.08804766
     atom    8 type  1   force =     0.00000000   -0.12040625   -0.08804766
     atom    9 type  2   force =     0.00000000   -0.21481698    0.03891032
     atom   10 type  2   force =     0.00000000    0.21481698   -0.03891032
     atom   11 type  2   force =     0.00000000   -0.21481698   -0.03891032
     atom   12 type  2   force =     0.00000000    0.21481698    0.03891032

     Total force =     0.599846     Total SCF correction =     0.000000

     entering subroutine stress ...

          total   stress  (Ry/bohr**3)                   (kbar)     P= 7264.27
   0.05092204   0.00000000   0.00000000       7490.89      0.00      0.00
   0.00000000   0.04787162   0.00000000          0.00   7042.16      0.00
   0.00000000   0.00000000   0.04935095          0.00      0.00   7259.77

     BFGS Geometry Optimization

     number of scf cycles    =   1
     number of bfgs steps    =   0

     enthalpy new            =   -3621.3658855879 Ry

     new trust radius        =       0.5000000000 bohr
     new conv_thr            =       0.0001000000 Ry

     new unit-cell volume =   1093.96141 a.u.^3 (   162.10835 Ang^3 )

CELL_PARAMETERS (alat=  7.01510508)
   1.085136619   0.000000000   0.000000000
   0.000000000   1.421288647   0.000000000
   0.000000000   0.000000000   2.054625879

ATOMIC_POSITIONS (crystal)
Co       0.750000000   0.825695152   0.435220115
Co       0.250000000   0.174304848   0.564779885
Co       0.750000000   0.325695152   0.064779885
Co       0.250000000   0.674304848   0.935220115
Co       0.250000000   0.537958251   0.281902765
Co       0.750000000   0.462041749   0.718097235
Co       0.250000000   0.037958251   0.218097235
Co       0.750000000   0.962041749   0.781902765
Si       0.250000000   0.201297815   0.893795434
Si       0.750000000   0.798702185   0.106204566
Si       0.250000000   0.701297815   0.606204566
Si       0.750000000   0.298702185   0.393795434

     Writing output data file Prototype-La-oP12-Co2Si.save
     NEW-OLD atomic charge density approx. for the potential
     NEW k-points:
        k(    1) = (   0.0000000   0.0000000   0.0000000), wk =   0.0833333
        k(    2) = (   0.0000000   0.0000000   0.1216767), wk =   0.1666667
        k(    3) = (   0.0000000   0.0000000  -0.2433533), wk =   0.0833333
        k(    4) = (   0.0000000   0.2345289   0.0000000), wk =   0.1666667
        k(    5) = (   0.0000000   0.2345289   0.1216767), wk =   0.3333333
        k(    6) = (   0.0000000   0.2345289  -0.2433533), wk =   0.1666667
        k(    7) = (  -0.4607715   0.0000000   0.0000000), wk =   0.0833333
        k(    8) = (  -0.4607715   0.0000000   0.1216767), wk =   0.1666667
        k(    9) = (  -0.4607715   0.0000000  -0.2433533), wk =   0.0833333
        k(   10) = (  -0.4607715   0.2345289   0.0000000), wk =   0.1666667
        k(   11) = (  -0.4607715   0.2345289   0.1216767), wk =   0.3333333
        k(   12) = (  -0.4607715   0.2345289  -0.2433533), wk =   0.1666667

[...]

     enthalpy old            =   -3621.3658855879 Ry
     enthalpy new            =   -3628.2316662503 Ry

     CASE: enthalpy_new < enthalpy_old

     small trust_radius: resetting bfgs history

     new trust radius        =       2.3553056512 bohr
     new conv_thr            =       0.0001000000 Ry

[...]

          total   stress  (Ry/bohr**3)                   (kbar)     P=-4156.95
  -0.02918967   0.00000000   0.00000000      -4293.95      0.00      0.00
   0.00000000  -0.02761322   0.00000000          0.00  -4062.04      0.00
   0.00000000   0.00000000  -0.02797218          0.00      0.00  -4114.85

     number of scf cycles    =   3
     number of bfgs steps    =   2

     enthalpy old            =   -3628.2316662503 Ry
     enthalpy new            =   -3601.9124219445 Ry

     CASE: enthalpy_new > enthalpy_old

     new trust radius        =       0.5095262909 bohr

     trust_radius < trust_radius_min

     resetting bfgs history

     Message from routine bfgs:
     history already reset at previous step: stopping
     new conv_thr            =       0.0001000000 Ry

     new unit-cell volume =   1313.56866 a.u.^3 (   194.65079 Ang^3 )

[...]

ATOMIC_POSITIONS (crystal)
Co       0.750000000   0.825028892   0.434841923
Co       0.250000000   0.174971108   0.565158077
Co       0.750000000   0.325028892   0.065158077
Co       0.250000000   0.674971108   0.934841923
Co       0.250000000   0.538515359   0.281871171
Co       0.750000000   0.461484641   0.718128829
Co       0.250000000   0.038515359   0.218128829
Co       0.750000000   0.961484641   0.781871171
Si       0.250000000   0.199596665   0.894466459
Si       0.750000000   0.800403335   0.105533541
Si       0.250000000   0.699596665   0.605533541
Si       0.750000000   0.300403335   0.394466459

     Writing output data file Prototype-La-oP12-Co2Si.save
     NEW-OLD atomic charge density approx. for the potential
     NEW k-points:
        k(    1) = (   0.0000000   0.0000000   0.0000000), wk =   0.0833333
        k(    2) = (   0.0000000   0.0000000   0.1145769), wk =   0.1666667
        k(    3) = (   0.0000000   0.0000000  -0.2291538), wk =   0.0833333
        k(    4) = (   0.0000000   0.2210357   0.0000000), wk =   0.1666667
        k(    5) = (   0.0000000   0.2210357   0.1145769), wk =   0.3333333
        k(    6) = (   0.0000000   0.2210357  -0.2291538), wk =   0.1666667
        k(    7) = (  -0.4323933   0.0000000   0.0000000), wk =   0.0833333
        k(    8) = (  -0.4323933   0.0000000   0.1145769), wk =   0.1666667
        k(    9) = (  -0.4323933   0.0000000  -0.2291538), wk =   0.0833333
        k(   10) = (  -0.4323933   0.2210357   0.0000000), wk =   0.1666667
        k(   11) = (  -0.4323933   0.2210357   0.1145769), wk =   0.3333333
        k(   12) = (  -0.4323933   0.2210357  -0.2291538), wk =   0.1666667

[...]

     The maximum number of steps has been reached.

     End of BFGS Geometry Optimization
Begin final coordinates
     new unit-cell volume =   1313.56866 a.u.^3 (   194.65079 Ang^3 )

CELL_PARAMETERS (alat=  7.01510508)
   1.156354652   0.000000000   0.000000000
   0.000000000   1.508051949   0.000000000
   0.000000000   0.000000000   2.181940394

ATOMIC_POSITIONS (crystal)
Co       0.750000000   0.825028892   0.434841923
Co       0.250000000   0.174971108   0.565158077
Co       0.750000000   0.325028892   0.065158077
Co       0.250000000   0.674971108   0.934841923
Co       0.250000000   0.538515359   0.281871171
Co       0.750000000   0.461484641   0.718128829
Co       0.250000000   0.038515359   0.218128829
Co       0.750000000   0.961484641   0.781871171
Si       0.250000000   0.199596665   0.894466459
Si       0.750000000   0.800403335   0.105533541
Si       0.250000000   0.699596665   0.605533541
Si       0.750000000   0.300403335   0.394466459
End final coordinates

     A final scf calculation at the relaxed structure.
     The G-vectors are recalculated for the final unit cell
     Results may differ from those at the preceding step.

     bravais-lattice index     =            0
     lattice parameter (alat)  =       7.0151  a.u.
     unit-cell volume          =    1313.5687 (a.u.)^3
     number of atoms/cell      =           12
     number of atomic types    =            2
     number of electrons       =       252.00
     number of Kohn-Sham states=          151
     kinetic-energy cutoff     =      40.0000  Ry
     charge density cutoff     =     160.0000  Ry
     convergence threshold     =      1.0E-04
     mixing beta               =       0.7000
     number of iterations used =            8  plain     mixing
     Exchange-correlation      = SLA-PZ-NOGX-NOGC ( 1 1 0 0 0)
     EXX-fraction              =        0.00

     celldm(1)=   7.015105  celldm(2)=   0.000000  celldm(3)=   0.000000
     celldm(4)=   0.000000  celldm(5)=   0.000000  celldm(6)=   0.000000

     crystal axes: (cart. coord. in units of alat)
               a(1) = (   1.156355   0.000000   0.000000 )
               a(2) = (   0.000000   1.508052   0.000000 )
               a(3) = (   0.000000   0.000000   2.181940 )

     reciprocal axes: (cart. coord. in units 2 pi/alat)
               b(1) = (  0.864787  0.000000  0.000000 )
               b(2) = (  0.000000  0.663107  0.000000 )
               b(3) = (  0.000000  0.000000  0.458308 )

     PseudoPot. # 1 for Tm read from file:
     /home/cwx6513/pp.La/Tm.UPF
     MD5 check sum: 245516e0878b5372ceeb9443ded2c4e1
     Pseudo is Norm-conserving, Zval = 23.0
     Generated in analytical, separable form
     Using radial grid of 1269 points,  6 beta functions with:
                l(1) =   0
                l(2) =   0
                l(3) =   1
                l(4) =   1
                l(5) =   2
                l(6) =   3

     PseudoPot. # 2 for Eu read from file:
     /home/cwx6513/pp.La/Eu.UPF
     MD5 check sum: 5efdbbfc50c6a10138933a6429836ad2
     Pseudo is Norm-conserving, Zval = 17.0
     Generated in analytical, separable form
     Using radial grid of 1261 points,  6 beta functions with:
                l(1) =   0
                l(2) =   0
                l(3) =   1
                l(4) =   1
                l(5) =   2
                l(6) =   3

     atomic species   valence    mass     pseudopotential
        Co            23.00    58.93320     Tm( 1.00)
        Si            17.00    28.08550     Eu( 1.00)

      8 Sym. Ops., with inversion, found ( 6 have fractional translation)

   Cartesian axes

     site n.     atom                  positions (alat units)
         1           Co  tau(   1) = (   0.8672660   1.2441864   0.9487992  )
         2           Co  tau(   2) = (   0.2890887   0.2638655   1.2331412  )
         3           Co  tau(   3) = (   0.8672660   0.4901605   0.1421710  )
         4           Co  tau(   4) = (   0.2890887   1.0178915   2.0397694  )
         5           Co  tau(   5) = (   0.2890887   0.8121091   0.6150261  )
         6           Co  tau(   6) = (   0.8672660   0.6959428   1.5669143  )
         7           Co  tau(   7) = (   0.2890887   0.0580832   0.4759441  )
         8           Co  tau(   8) = (   0.8672660   1.4499688   1.7059963  )
         9           Si  tau(   9) = (   0.2890887   0.3010021   1.9516725  )
        10           Si  tau(  10) = (   0.8672660   1.2070498   0.2302679  )
        11           Si  tau(  11) = (   0.2890887   1.0550281   1.3212381  )
        12           Si  tau(  12) = (   0.8672660   0.4530238   0.8607023  )

     number of k points=    12  gaussian smearing, width (Ry)=  0.1000
                       cart. coord. in units 2pi/alat
        k(    1) = (   0.0000000   0.0000000   0.0000000), wk =   0.0833333
        k(    2) = (   0.0000000   0.0000000   0.1145769), wk =   0.1666667
        k(    3) = (   0.0000000   0.0000000  -0.2291538), wk =   0.0833333
        k(    4) = (   0.0000000   0.2210357   0.0000000), wk =   0.1666667
        k(    5) = (   0.0000000   0.2210357   0.1145769), wk =   0.3333333
        k(    6) = (   0.0000000   0.2210357  -0.2291538), wk =   0.1666667
        k(    7) = (  -0.4323933   0.0000000   0.0000000), wk =   0.0833333
        k(    8) = (  -0.4323933   0.0000000   0.1145769), wk =   0.1666667
        k(    9) = (  -0.4323933   0.0000000  -0.2291538), wk =   0.0833333
        k(   10) = (  -0.4323933   0.2210357   0.0000000), wk =   0.1666667
        k(   11) = (  -0.4323933   0.2210357   0.1145769), wk =   0.3333333
        k(   12) = (  -0.4323933   0.2210357  -0.2291538), wk =   0.1666667

     Largest allocated arrays     est. size (Mb)     dimensions
     Largest temporary arrays     est. size (Mb)     dimensions

     Initial potential from superposition of free atoms

     Starting from uniform charge
     Starting wfc are    0 randomized atomic wfcs

     Writing output data file Prototype-La-oP12-Co2Si.save

     Self-consistent Calculation

[...]

     iteration #  9     ecut=    40.00 Ry     beta=0.70
     CG style diagonalization
     c_bands:  1 eigenvalues not converged
     c_bands:  1 eigenvalues not converged
     c_bands:  1 eigenvalues not converged
     ethr =  2.20E-06,  avg # of iterations =  4.4

     total energy              =   -3636.27711077 Ry
     Harris-Foulkes estimate   =   -3636.27749090 Ry
     estimated scf accuracy    <       0.00068947 Ry

     iteration # 10     ecut=    40.00 Ry     beta=0.70
     CG style diagonalization
     ethr =  2.74E-07,  avg # of iterations =  3.9

     End of self-consistent calculation

[...]

          k = 0.0000 0.2210-0.2292 (  5582 PWs)   bands (ev):

[...]

          k =-0.4324 0.2210-0.2292 (  5600 PWs)   bands (ev):

   -76.2959 -76.2959 -76.2898 -76.2898 -76.2531 -76.2531 -76.2456 -76.2456
   -35.0976 -35.0976 -35.0587 -35.0587 -35.0538 -35.0538 -35.0456 -35.0456
   -35.0301 -35.0301 -35.0118 -35.0118 -35.0051 -35.0051 -34.9920 -34.9920
   -34.9630 -34.9630 -34.9613 -34.9613 -34.9528 -34.9528 -34.9526 -34.9526
   -28.4447 -28.4447 -28.4440 -28.4440  -1.7836  -1.7836  -1.7631  -1.7631
    -1.6741  -1.6741  -1.6645  -1.6645  -1.4251  -1.4251  -1.4093  -1.4093
    12.7980  12.7980  13.0698  13.0698  13.0880  13.0880  13.2110  13.2110
    13.2120  13.2120  13.3094  13.3094  13.4121  13.4121  13.5626  13.5626
    13.6026  13.6026  13.7022  13.7022  13.7495  13.7495  13.8468  13.8468
    13.9218  13.9218  13.9551  13.9551  13.9618  13.9618  14.0760  14.0760
    14.1573  14.1573  14.3598  14.3598  14.4225  14.4225  14.5792  14.5792
    21.6460  21.6460  22.3696  22.3696  23.4214  23.4214  23.9728  23.9728
    27.2609  27.2609  27.5899  27.5899  27.9213  27.9213  28.2194  28.2194
    29.1063  29.1063  29.4110  29.4110  29.7292  29.7292  30.0967  30.0967
    30.4836  30.4836  31.2487  31.2487  32.4171  32.4171  33.4582  33.4582
    34.2113  34.2113  35.1620  35.1620  35.7131  35.7131  36.6886  36.6886
    38.5031  38.5031  38.5923  38.5923  39.8481  39.8482  39.9576  39.9576
    40.2580  40.2581  40.4976  40.4976  41.1584  41.1585  41.5601  41.5602
    42.0607  42.0609  42.2307  42.2308  42.7155  42.7201  42.7219

     the Fermi energy is    36.3334 ev

!    total energy              =   -3636.27733435 Ry
     Harris-Foulkes estimate   =   -3636.27739529 Ry
     estimated scf accuracy    <       0.00007077 Ry

     The total energy is the sum of the following terms:

     one-electron contribution =    -616.88475816 Ry
     hartree contribution      =     522.72585011 Ry
     xc contribution           =    -317.98595080 Ry
     ewald contribution        =   -3223.79363791 Ry
     smearing contrib. (-TS)   =      -0.33883758 Ry

     convergence has been achieved in  10 iterations

     Forces acting on atoms (Ry/au):

     atom    1 type  1   force =     0.00000000   -0.02873611   -0.00739961
     atom    2 type  1   force =     0.00000000    0.02873611    0.00739961
     atom    3 type  1   force =     0.00000000   -0.02873611    0.00739961
     atom    4 type  1   force =     0.00000000    0.02873611   -0.00739961
     atom    5 type  1   force =     0.00000000    0.01822418    0.02663934
     atom    6 type  1   force =     0.00000000   -0.01822418   -0.02663934
     atom    7 type  1   force =     0.00000000    0.01822418   -0.02663934
     atom    8 type  1   force =     0.00000000   -0.01822418    0.02663934
     atom    9 type  2   force =     0.00000000   -0.06798034    0.07691789
     atom   10 type  2   force =     0.00000000    0.06798034   -0.07691789
     atom   11 type  2   force =     0.00000000   -0.06798034   -0.07691789
     atom   12 type  2   force =     0.00000000    0.06798034    0.07691789

     Total force =     0.223249     Total SCF correction =     0.000000

     entering subroutine stress ...

          total   stress  (Ry/bohr**3)                   (kbar)     P= 1023.28
   0.00729370   0.00000000   0.00000000       1072.94      0.00      0.00
   0.00000000   0.00677143   0.00000000          0.00    996.11      0.00
   0.00000000   0.00000000   0.00680314          0.00      0.00   1000.78

     Writing output data file Prototype-La-oP12-Co2Si.save

     General routines

     Parallel routines

   This run was terminated on:  16:31:20  22Mar2018

   JOB DONE.