     Program PWSCF v.5.0.2 starts on 23Mar2018 at  2:16:46

     Current dimensions of program PWSCF are:
     Max number of different atomic species (ntypx) = 10
     Max number of k-points (npk) =  40000
     Max angular momentum in pseudopotentials (lmaxx) =  3
     Waiting for input...
     Reading input from standard input

     Subspace diagonalization in iterative solution of the eigenvalue problem:
     a serial algorithm will be used

     bravais-lattice index     =            0
     lattice parameter (alat)  =       8.5346  a.u.
     unit-cell volume          =     621.6493 (a.u.)^3
     number of atoms/cell      =            8
     number of atomic types    =            2
     number of electrons       =       164.00
     number of Kohn-Sham states=           98
     kinetic-energy cutoff     =      40.0000  Ry
     charge density cutoff     =     160.0000  Ry
     convergence threshold     =      1.0E-04
     mixing beta               =       0.7000
     number of iterations used =            8  plain     mixing
     Exchange-correlation      = SLA-PZ-NOGX-NOGC ( 1 1 0 0 0)
     EXX-fraction              =        0.00
     nstep                     =           50

     celldm(1)=   8.534573  celldm(2)=   0.000000  celldm(3)=   0.000000
     celldm(4)=   0.000000  celldm(5)=   0.000000  celldm(6)=   0.000000

     crystal axes: (cart. coord. in units of alat)
               a(1) = (   1.000000   0.000000   0.000000 )
               a(2) = (   0.000000   1.000000   0.000000 )
               a(3) = (   0.000000   0.000000   1.000000 )

     reciprocal axes: (cart. coord. in units 2 pi/alat)
               b(1) = (  1.000000  0.000000  0.000000 )
               b(2) = (  0.000000  1.000000  0.000000 )
               b(3) = (  0.000000  0.000000  1.000000 )

     PseudoPot. # 1 for Dy read from file:
     /home/cwx6513/pp.La/Dy.UPF
     MD5 check sum: 9597327bec62616a94a14d07f3fd9936
     Pseudo is Norm-conserving, Zval = 20.0
     Generated in analytical, separable form
     Using radial grid of 1265 points,  6 beta functions with:
                l(1) =   0
                l(2) =   0
                l(3) =   1
                l(4) =   1
                l(5) =   2
                l(6) =   3

     PseudoPot. # 2 for Er read from file:
     /home/cwx6513/pp.La/Er.UPF
     MD5 check sum: e152ae21b84514339d8526f066caf99b
     Pseudo is Norm-conserving, Zval = 22.0
     Generated in analytical, separable form
     Using radial grid of 1267 points,  6 beta functions with:
                l(1) =   0
                l(2) =   0
                l(3) =   1
                l(4) =   1
                l(5) =   2
                l(6) =   3

     atomic species   valence    mass     pseudopotential
        Cr            20.00    51.99610     Dy( 1.00)
        Si            22.00    28.08550     Er( 1.00)

     48 Sym. Ops., with inversion, found (24 have fractional translation)

   Cartesian axes

     site n.     atom                  positions (alat units)
         1           Cr  tau(   1) = (   0.0000000   0.5000000   0.2500000  )
         2           Cr  tau(   2) = (   0.0000000   0.5000000   0.7500000  )
         3           Cr  tau(   3) = (   0.5000000   0.7500000   0.0000000  )
         4           Cr  tau(   4) = (   0.5000000   0.2500000   0.0000000  )
         5           Cr  tau(   5) = (   0.7500000   0.0000000   0.5000000  )
         6           Cr  tau(   6) = (   0.2500000   0.0000000   0.5000000  )
         7           Si  tau(   7) = (   0.5000000   0.5000000   0.5000000  )
         8           Si  tau(   8) = (   0.0000000   0.0000000   0.0000000  )

     number of k points=    48  gaussian smearing, width (Ry)=  0.1000
                       cart. coord. in units 2pi/alat
        k(    1) = (   0.0000000   0.0000000   0.0000000), wk =   0.0095238
        k(    2) = (   0.0000000   0.0000000   0.1428571), wk =   0.0190476
        k(    3) = (   0.0000000   0.0000000   0.2857143), wk =   0.0190476
        k(    4) = (   0.0000000   0.0000000   0.4285714), wk =   0.0190476
        k(    5) = (   0.0000000   0.1666667   0.0000000), wk =   0.0190476
        k(    6) = (   0.0000000   0.1666667   0.1428571), wk =   0.0380952
        k(    7) = (   0.0000000   0.1666667   0.2857143), wk =   0.0380952
        k(    8) = (   0.0000000   0.1666667   0.4285714), wk =   0.0380952
        k(    9) = (   0.0000000   0.3333333   0.0000000), wk =   0.0190476
        k(   10) = (   0.0000000   0.3333333   0.1428571), wk =   0.0380952
        k(   11) = (   0.0000000   0.3333333   0.2857143), wk =   0.0380952
        k(   12) = (   0.0000000   0.3333333   0.4285714), wk =   0.0380952
        k(   13) = (   0.0000000  -0.5000000   0.0000000), wk =   0.0095238
        k(   14) = (   0.0000000  -0.5000000   0.1428571), wk =   0.0190476
        k(   15) = (   0.0000000  -0.5000000   0.2857143), wk =   0.0190476
        k(   16) = (   0.0000000  -0.5000000   0.4285714), wk =   0.0190476
        k(   17) = (   0.2000000   0.0000000   0.0000000), wk =   0.0190476
        k(   18) = (   0.2000000   0.0000000   0.1428571), wk =   0.0380952
        k(   19) = (   0.2000000   0.0000000   0.2857143), wk =   0.0380952
        k(   20) = (   0.2000000   0.0000000   0.4285714), wk =   0.0380952
        k(   21) = (   0.2000000   0.1666667   0.0000000), wk =   0.0380952
        k(   22) = (   0.2000000   0.1666667   0.1428571), wk =   0.0761905
        k(   23) = (   0.2000000   0.1666667   0.2857143), wk =   0.0761905
        k(   24) = (   0.2000000   0.1666667   0.4285714), wk =   0.0761905
        k(   25) = (   0.2000000   0.3333333   0.0000000), wk =   0.0380952
        k(   26) = (   0.2000000   0.3333333   0.1428571), wk =   0.0761905
        k(   27) = (   0.2000000   0.3333333   0.2857143), wk =   0.0761905
        k(   28) = (   0.2000000   0.3333333   0.4285714), wk =   0.0761905
        k(   29) = (   0.2000000  -0.5000000   0.0000000), wk =   0.0190476
        k(   30) = (   0.2000000  -0.5000000   0.1428571), wk =   0.0380952
        k(   31) = (   0.2000000  -0.5000000   0.2857143), wk =   0.0380952
        k(   32) = (   0.2000000  -0.5000000   0.4285714), wk =   0.0380952
        k(   33) = (   0.4000000   0.0000000   0.0000000), wk =   0.0190476
        k(   34) = (   0.4000000   0.0000000   0.1428571), wk =   0.0380952
        k(   35) = (   0.4000000   0.0000000   0.2857143), wk =   0.0380952
        k(   36) = (   0.4000000   0.0000000   0.4285714), wk =   0.0380952
        k(   37) = (   0.4000000   0.1666667   0.0000000), wk =   0.0380952
        k(   38) = (   0.4000000   0.1666667   0.1428571), wk =   0.0761905
        k(   39) = (   0.4000000   0.1666667   0.2857143), wk =   0.0761905
        k(   40) = (   0.4000000   0.1666667   0.4285714), wk =   0.0761905
        k(   41) = (   0.4000000   0.3333333   0.0000000), wk =   0.0380952
        k(   42) = (   0.4000000   0.3333333   0.1428571), wk =   0.0761905
        k(   43) = (   0.4000000   0.3333333   0.2857143), wk =   0.0761905
        k(   44) = (   0.4000000   0.3333333   0.4285714), wk =   0.0761905
        k(   45) = (   0.4000000  -0.5000000   0.0000000), wk =   0.0190476
        k(   46) = (   0.4000000  -0.5000000   0.1428571), wk =   0.0380952
        k(   47) = (   0.4000000  -0.5000000   0.2857143), wk =   0.0380952
        k(   48) = (   0.4000000  -0.5000000   0.4285714), wk =   0.0380952

     Largest allocated arrays     est. size (Mb)     dimensions
     Largest temporary arrays     est. size (Mb)     dimensions

     Initial potential from superposition of free atoms

     Starting from uniform charge
     Starting wfc are    0 randomized atomic wfcs

     Self-consistent Calculation

     iteration #  1     ecut=    40.00 Ry     beta=0.70
     CG style diagonalization
     c_bands:  1 eigenvalues not converged
     c_bands:  1 eigenvalues not converged
     c_bands:  1 eigenvalues not converged
     c_bands:  1 eigenvalues not converged
     c_bands:  1 eigenvalues not converged
     c_bands:  1 eigenvalues not converged
     c_bands:  1 eigenvalues not converged
     c_bands:  1 eigenvalues not converged
     c_bands:  1 eigenvalues not converged
     c_bands:  1 eigenvalues not converged
     c_bands:  3 eigenvalues not converged
     c_bands:  1 eigenvalues not converged
     c_bands:  1 eigenvalues not converged
     c_bands:  2 eigenvalues not converged
     c_bands:  1 eigenvalues not converged
     c_bands:  2 eigenvalues not converged
     c_bands:  1 eigenvalues not converged
     c_bands:  2 eigenvalues not converged
     c_bands:  1 eigenvalues not converged
     c_bands:  3 eigenvalues not converged
     c_bands:  1 eigenvalues not converged
     c_bands:  1 eigenvalues not converged
     c_bands:  1 eigenvalues not converged
     ethr =  1.00E-02,  avg # of iterations = 12.0

     total energy              =   -1993.96423401 Ry
     Harris-Foulkes estimate   =   -2520.27619065 Ry
     estimated scf accuracy    <     672.77244330 Ry

[...]

     iteration #  3     ecut=    40.00 Ry     beta=0.70
     CG style diagonalization
     ethr =  1.00E-02,  avg # of iterations =  7.8

[...]

     End of self-consistent calculation

          k = 0.0000 0.0000 0.0000 (  2601 PWs)   bands (ev):

   -53.6462 -53.5983 -36.9022 -36.7945 -36.7945 -36.1584 -36.1584 -36.1584
   -15.9629 -15.9629 -15.9629 -15.9262 -15.9262 -15.9262  -6.3394  -6.3394
    -6.0260  -4.2905  -4.2905  -4.2905  -3.5011  -3.5011  -3.5011  -3.4642
    -3.4642  -3.4642  -3.2472  -3.2472  -3.2472  -2.1918  -2.1918  -2.1918
    28.0956  28.0956  29.1579  29.1579  29.1579  29.3506  29.3506  29.8069
    29.8069  29.8069  30.2237  30.8979  30.9322  30.9322  30.9322  31.7501
    31.9316  31.9316  33.0415  33.0415  33.0415  33.2476  36.3814  36.3814
    36.3814  36.7202  36.7202  37.9218  37.9218  37.9218  38.0369  38.0369
    38.0369  40.0596  40.0596  40.8921  40.8921  40.8921  41.3450  41.3450
    41.3450  46.2809  46.2809  46.2809  47.8586  47.8586  48.5446  48.8192
    52.1733  52.1733  52.1733  53.3000  53.3000  53.3000  53.9047  53.9047
    53.9047  54.6610  54.6611  54.6611  54.9874  54.9875  54.9876  55.1582
    55.1585  56.8452

[...]

     the Fermi energy is    52.0011 ev

!    total energy              =   -2212.34781286 Ry
     Harris-Foulkes estimate   =   -2212.34781490 Ry
     estimated scf accuracy    <       0.00000373 Ry

     The total energy is the sum of the following terms:

     one-electron contribution =      66.15687264 Ry
     hartree contribution      =     202.64169275 Ry
     xc contribution           =    -208.50120616 Ry
     ewald contribution        =   -2272.42563773 Ry
     smearing contrib. (-TS)   =      -0.21953437 Ry

     convergence has been achieved in   8 iterations

     Forces acting on atoms (Ry/au):

     atom    1 type  1   force =     0.00000000    0.00000000    0.00000000
     atom    2 type  1   force =     0.00000000    0.00000000    0.00000000
     atom    3 type  1   force =     0.00000000    0.00000000    0.00000000
     atom    4 type  1   force =     0.00000000    0.00000000    0.00000000
     atom    5 type  1   force =     0.00000000    0.00000000    0.00000000
[...]
     new conv_thr            =       0.0000010000 Ry

[...]

          total   stress  (Ry/bohr**3)                   (kbar)     P=-1706.69
  -0.01160188   0.00000000   0.00000000      -1706.69      0.00      0.00
   0.00000000  -0.01160188   0.00000000          0.00  -1706.69      0.00
   0.00000000   0.00000000  -0.01160188          0.00      0.00  -1706.69

     number of scf cycles    =   3
     number of bfgs steps    =   2

     enthalpy old            =   -2216.5106520501 Ry
     enthalpy new            =   -2213.8947439694 Ry

     CASE: enthalpy_new > enthalpy_old

     new trust radius        =       0.2625804300 bohr

     trust_radius < trust_radius_min

     resetting bfgs history

     Message from routine bfgs:
     history already reset at previous step: stopping
     new conv_thr            =       0.0000010000 Ry

     new unit-cell volume =   1044.43482 a.u.^3 (   154.76927 Ang^3 )

[...]

ATOMIC_POSITIONS (crystal)
Cr       0.000000000   0.500000000   0.250000000
Cr       0.000000000   0.500000000   0.750000000
Cr       0.500000000   0.750000000   0.000000000
Cr       0.500000000   0.250000000   0.000000000
Cr       0.750000000   0.000000000   0.500000000
Cr       0.250000000   0.000000000   0.500000000
Si       0.500000000   0.500000000   0.500000000
Si       0.000000000   0.000000000   0.000000000

     Writing output data file Prototype-La-cP8-Cr3Si.save
     NEW-OLD atomic charge density approx. for the potential
     NEW k-points:
        k(    1) = (   0.0000000   0.0000000   0.0000000), wk =   0.0095238
        k(    2) = (   0.0000000   0.0000000   0.1201683), wk =   0.0190476
        k(    3) = (   0.0000000   0.0000000   0.2403366), wk =   0.0190476
        k(    4) = (   0.0000000   0.0000000   0.3605050), wk =   0.0190476
        k(    5) = (   0.0000000   0.1401964   0.0000000), wk =   0.0190476
        k(    6) = (   0.0000000   0.1401964   0.1201683), wk =   0.0380952
        k(    7) = (   0.0000000   0.1401964   0.2403366), wk =   0.0380952
        k(    8) = (   0.0000000   0.1401964   0.3605050), wk =   0.0380952
        k(    9) = (   0.0000000   0.2803927   0.0000000), wk =   0.0190476
        k(   10) = (   0.0000000   0.2803927   0.1201683), wk =   0.0380952
        k(   11) = (   0.0000000   0.2803927   0.2403366), wk =   0.0380952
        k(   12) = (   0.0000000   0.2803927   0.3605050), wk =   0.0380952
        k(   13) = (   0.0000000  -0.4205891   0.0000000), wk =   0.0095238
        k(   14) = (   0.0000000  -0.4205891   0.1201683), wk =   0.0190476
        k(   15) = (   0.0000000  -0.4205891   0.2403366), wk =   0.0190476
        k(   16) = (   0.0000000  -0.4205891   0.3605050), wk =   0.0190476
        k(   17) = (   0.1682356   0.0000000   0.0000000), wk =   0.0190476
        k(   18) = (   0.1682356   0.0000000   0.1201683), wk =   0.0380952
        k(   19) = (   0.1682356   0.0000000   0.2403366), wk =   0.0380952
        k(   20) = (   0.1682356   0.0000000   0.3605050), wk =   0.0380952
        k(   21) = (   0.1682356   0.1401964   0.0000000), wk =   0.0380952
        k(   22) = (   0.1682356   0.1401964   0.1201683), wk =   0.0761905
        k(   23) = (   0.1682356   0.1401964   0.2403366), wk =   0.0761905
        k(   24) = (   0.1682356   0.1401964   0.3605050), wk =   0.0761905
        k(   25) = (   0.1682356   0.2803927   0.0000000), wk =   0.0380952
        k(   26) = (   0.1682356   0.2803927   0.1201683), wk =   0.0761905
        k(   27) = (   0.1682356   0.2803927   0.2403366), wk =   0.0761905
        k(   28) = (   0.1682356   0.2803927   0.3605050), wk =   0.0761905
        k(   29) = (   0.1682356  -0.4205891   0.0000000), wk =   0.0190476
        k(   30) = (   0.1682356  -0.4205891   0.1201683), wk =   0.0380952
        k(   31) = (   0.1682356  -0.4205891   0.2403366), wk =   0.0380952
        k(   32) = (   0.1682356  -0.4205891   0.3605050), wk =   0.0380952
        k(   33) = (   0.3364713   0.0000000   0.0000000), wk =   0.0190476
        k(   34) = (   0.3364713   0.0000000   0.1201683), wk =   0.0380952
        k(   35) = (   0.3364713   0.0000000   0.2403366), wk =   0.0380952
        k(   36) = (   0.3364713   0.0000000   0.3605050), wk =   0.0380952
        k(   37) = (   0.3364713   0.1401964   0.0000000), wk =   0.0380952
        k(   38) = (   0.3364713   0.1401964   0.1201683), wk =   0.0761905
        k(   39) = (   0.3364713   0.1401964   0.2403366), wk =   0.0761905
        k(   40) = (   0.3364713   0.1401964   0.3605050), wk =   0.0761905
        k(   41) = (   0.3364713   0.2803927   0.0000000), wk =   0.0380952
        k(   42) = (   0.3364713   0.2803927   0.1201683), wk =   0.0761905
        k(   43) = (   0.3364713   0.2803927   0.2403366), wk =   0.0761905
        k(   44) = (   0.3364713   0.2803927   0.3605050), wk =   0.0761905
        k(   45) = (   0.3364713  -0.4205891   0.0000000), wk =   0.0190476
        k(   46) = (   0.3364713  -0.4205891   0.1201683), wk =   0.0380952
        k(   47) = (   0.3364713  -0.4205891   0.2403366), wk =   0.0380952
        k(   48) = (   0.3364713  -0.4205891   0.3605050), wk =   0.0380952

[...]

     The maximum number of steps has been reached.

     End of BFGS Geometry Optimization
Begin final coordinates
     new unit-cell volume =   1044.43482 a.u.^3 (   154.76927 Ang^3 )

CELL_PARAMETERS (alat=  8.53457320)
   1.188808696   0.000000000   0.000000000
   0.000000000   1.188808696   0.000000000
   0.000000000   0.000000000   1.188808696

ATOMIC_POSITIONS (crystal)
Cr       0.000000000   0.500000000   0.250000000
Cr       0.000000000   0.500000000   0.750000000
Cr       0.500000000   0.750000000   0.000000000
Cr       0.500000000   0.250000000   0.000000000
Cr       0.750000000   0.000000000   0.500000000
Cr       0.250000000   0.000000000   0.500000000
Si       0.500000000   0.500000000   0.500000000
Si       0.000000000   0.000000000   0.000000000
End final coordinates

     A final scf calculation at the relaxed structure.
     The G-vectors are recalculated for the final unit cell
     Results may differ from those at the preceding step.

     bravais-lattice index     =            0
     lattice parameter (alat)  =       8.5346  a.u.
     unit-cell volume          =    1044.4348 (a.u.)^3
     number of atoms/cell      =            8
     number of atomic types    =            2
     number of electrons       =       164.00
     number of Kohn-Sham states=           98
     kinetic-energy cutoff     =      40.0000  Ry
     charge density cutoff     =     160.0000  Ry
     convergence threshold     =      1.0E-06
     mixing beta               =       0.7000
     number of iterations used =            8  plain     mixing
     Exchange-correlation      = SLA-PZ-NOGX-NOGC ( 1 1 0 0 0)
     EXX-fraction              =        0.00

     celldm(1)=   8.534573  celldm(2)=   0.000000  celldm(3)=   0.000000
     celldm(4)=   0.000000  celldm(5)=   0.000000  celldm(6)=   0.000000

     crystal axes: (cart. coord. in units of alat)
               a(1) = (   1.188809   0.000000   0.000000 )
               a(2) = (   0.000000   1.188809   0.000000 )
               a(3) = (   0.000000   0.000000   1.188809 )

     reciprocal axes: (cart. coord. in units 2 pi/alat)
               b(1) = (  0.841178  0.000000  0.000000 )
               b(2) = (  0.000000  0.841178  0.000000 )
               b(3) = (  0.000000  0.000000  0.841178 )

     PseudoPot. # 1 for Dy read from file:
     /home/cwx6513/pp.La/Dy.UPF
     MD5 check sum: 9597327bec62616a94a14d07f3fd9936
     Pseudo is Norm-conserving, Zval = 20.0
     Generated in analytical, separable form
     Using radial grid of 1265 points,  6 beta functions with:
                l(1) =   0
                l(2) =   0
                l(3) =   1
                l(4) =   1
                l(5) =   2
                l(6) =   3

     PseudoPot. # 2 for Er read from file:
     /home/cwx6513/pp.La/Er.UPF
     MD5 check sum: e152ae21b84514339d8526f066caf99b
     Pseudo is Norm-conserving, Zval = 22.0
     Generated in analytical, separable form
     Using radial grid of 1267 points,  6 beta functions with:
                l(1) =   0
                l(2) =   0
                l(3) =   1
                l(4) =   1
                l(5) =   2
                l(6) =   3

     atomic species   valence    mass     pseudopotential
        Cr            20.00    51.99610     Dy( 1.00)
        Si            22.00    28.08550     Er( 1.00)

     48 Sym. Ops., with inversion, found (24 have fractional translation)

   Cartesian axes

     site n.     atom                  positions (alat units)
         1           Cr  tau(   1) = (   0.0000000   0.5944043   0.2972022  )
         2           Cr  tau(   2) = (   0.0000000   0.5944043   0.8916065  )
         3           Cr  tau(   3) = (   0.5944043   0.8916065   0.0000000  )
         4           Cr  tau(   4) = (   0.5944043   0.2972022   0.0000000  )
         5           Cr  tau(   5) = (   0.8916065   0.0000000   0.5944043  )
         6           Cr  tau(   6) = (   0.2972022   0.0000000   0.5944043  )
         7           Si  tau(   7) = (   0.5944043   0.5944043   0.5944043  )
         8           Si  tau(   8) = (   0.0000000   0.0000000   0.0000000  )

     number of k points=    48  gaussian smearing, width (Ry)=  0.1000
                       cart. coord. in units 2pi/alat
        k(    1) = (   0.0000000   0.0000000   0.0000000), wk =   0.0095238
        k(    2) = (   0.0000000   0.0000000   0.1201683), wk =   0.0190476
        k(    3) = (   0.0000000   0.0000000   0.2403366), wk =   0.0190476
        k(    4) = (   0.0000000   0.0000000   0.3605050), wk =   0.0190476
        k(    5) = (   0.0000000   0.1401964   0.0000000), wk =   0.0190476
        k(    6) = (   0.0000000   0.1401964   0.1201683), wk =   0.0380952
        k(    7) = (   0.0000000   0.1401964   0.2403366), wk =   0.0380952
        k(    8) = (   0.0000000   0.1401964   0.3605050), wk =   0.0380952
        k(    9) = (   0.0000000   0.2803927   0.0000000), wk =   0.0190476
        k(   10) = (   0.0000000   0.2803927   0.1201683), wk =   0.0380952
        k(   11) = (   0.0000000   0.2803927   0.2403366), wk =   0.0380952
        k(   12) = (   0.0000000   0.2803927   0.3605050), wk =   0.0380952
        k(   13) = (   0.0000000  -0.4205891   0.0000000), wk =   0.0095238
        k(   14) = (   0.0000000  -0.4205891   0.1201683), wk =   0.0190476
        k(   15) = (   0.0000000  -0.4205891   0.2403366), wk =   0.0190476
        k(   16) = (   0.0000000  -0.4205891   0.3605050), wk =   0.0190476
        k(   17) = (   0.1682356   0.0000000   0.0000000), wk =   0.0190476
        k(   18) = (   0.1682356   0.0000000   0.1201683), wk =   0.0380952
        k(   19) = (   0.1682356   0.0000000   0.2403366), wk =   0.0380952
        k(   20) = (   0.1682356   0.0000000   0.3605050), wk =   0.0380952
        k(   21) = (   0.1682356   0.1401964   0.0000000), wk =   0.0380952
        k(   22) = (   0.1682356   0.1401964   0.1201683), wk =   0.0761905
        k(   23) = (   0.1682356   0.1401964   0.2403366), wk =   0.0761905
        k(   24) = (   0.1682356   0.1401964   0.3605050), wk =   0.0761905
        k(   25) = (   0.1682356   0.2803927   0.0000000), wk =   0.0380952
        k(   26) = (   0.1682356   0.2803927   0.1201683), wk =   0.0761905
        k(   27) = (   0.1682356   0.2803927   0.2403366), wk =   0.0761905
        k(   28) = (   0.1682356   0.2803927   0.3605050), wk =   0.0761905
        k(   29) = (   0.1682356  -0.4205891   0.0000000), wk =   0.0190476
        k(   30) = (   0.1682356  -0.4205891   0.1201683), wk =   0.0380952
        k(   31) = (   0.1682356  -0.4205891   0.2403366), wk =   0.0380952
        k(   32) = (   0.1682356  -0.4205891   0.3605050), wk =   0.0380952
        k(   33) = (   0.3364713   0.0000000   0.0000000), wk =   0.0190476
        k(   34) = (   0.3364713   0.0000000   0.1201683), wk =   0.0380952
        k(   35) = (   0.3364713   0.0000000   0.2403366), wk =   0.0380952
        k(   36) = (   0.3364713   0.0000000   0.3605050), wk =   0.0380952
        k(   37) = (   0.3364713   0.1401964   0.0000000), wk =   0.0380952
        k(   38) = (   0.3364713   0.1401964   0.1201683), wk =   0.0761905
        k(   39) = (   0.3364713   0.1401964   0.2403366), wk =   0.0761905
        k(   40) = (   0.3364713   0.1401964   0.3605050), wk =   0.0761905
        k(   41) = (   0.3364713   0.2803927   0.0000000), wk =   0.0380952
        k(   42) = (   0.3364713   0.2803927   0.1201683), wk =   0.0761905
        k(   43) = (   0.3364713   0.2803927   0.2403366), wk =   0.0761905
        k(   44) = (   0.3364713   0.2803927   0.3605050), wk =   0.0761905
        k(   45) = (   0.3364713  -0.4205891   0.0000000), wk =   0.0190476
        k(   46) = (   0.3364713  -0.4205891   0.1201683), wk =   0.0380952
        k(   47) = (   0.3364713  -0.4205891   0.2403366), wk =   0.0380952
        k(   48) = (   0.3364713  -0.4205891   0.3605050), wk =   0.0380952

     Largest allocated arrays     est. size (Mb)     dimensions
     Largest temporary arrays     est. size (Mb)     dimensions

     Initial potential from superposition of free atoms

     Starting from uniform charge
     Starting wfc are    0 randomized atomic wfcs

     Writing output data file Prototype-La-cP8-Cr3Si.save

     Self-consistent Calculation

[...]

     iteration # 10     ecut=    40.00 Ry     beta=0.70
     CG style diagonalization
     c_bands:  2 eigenvalues not converged
     c_bands:  1 eigenvalues not converged
     ethr =  1.73E-07,  avg # of iterations =  4.7

     total energy              =   -2221.11233293 Ry
     Harris-Foulkes estimate   =   -2221.11242490 Ry
     estimated scf accuracy    <       0.00015327 Ry

     iteration # 11     ecut=    40.00 Ry     beta=0.70
     CG style diagonalization
     ethr =  9.35E-08,  avg # of iterations =  3.5

     End of self-consistent calculation

[...]

          k = 0.3365-0.4206 0.3605 (  4478 PWs)   bands (ev):

   -73.5273 -73.5273 -55.4852 -55.4800 -55.4733 -55.4733 -55.4661 -55.4614
   -35.4929 -35.4929 -35.4869 -35.4867 -35.4842 -35.4841 -22.6772 -22.6454
   -22.5549 -22.5539 -22.4607 -22.4371 -22.4370 -22.4290 -22.3925 -22.3855
   -22.3783 -22.3718 -22.3642 -22.3585 -22.3544 -22.3474 -22.3436 -22.3423
    11.1315  11.1317  11.1385  11.1387  11.1621  11.1705  11.1859  11.1891
    11.1984  11.1998  16.3136  16.3144  17.3399  17.4150  17.4560  17.5383
    17.6170  17.6463  17.8357  17.8615  17.9159  17.9159  18.0591  18.0815
    18.1502  18.1798  18.3743  18.3858  18.6288  18.6510  18.7718  18.7759
    18.9546  19.1100  19.4689  19.5353  19.6200  19.6417  19.6446  19.6668
    21.0488  21.0610  21.8156  22.0019  22.1607  22.3703  23.1594  23.2150
    30.8346  30.8417  31.8219  32.1152  32.2534  32.5324  33.1933  33.3484
    33.4640  33.5071  33.9755  34.0407  34.2147  34.2382  34.5166  34.5928
    34.7980  34.9664

     the Fermi energy is    28.7079 ev

!    total energy              =   -2221.11237133 Ry
     Harris-Foulkes estimate   =   -2221.11237198 Ry
     estimated scf accuracy    <       0.00000074 Ry

     The total energy is the sum of the following terms:

     one-electron contribution =    -452.50819629 Ry
     hartree contribution      =     343.48854680 Ry
     xc contribution           =    -200.38944066 Ry
     ewald contribution        =   -1911.51498600 Ry
     smearing contrib. (-TS)   =      -0.18829518 Ry

     convergence has been achieved in  11 iterations

     Forces acting on atoms (Ry/au):

     atom    1 type  1   force =     0.00000000    0.00000000    0.00000000
     atom    2 type  1   force =     0.00000000    0.00000000    0.00000000
     atom    3 type  1   force =     0.00000000    0.00000000    0.00000000
     atom    4 type  1   force =     0.00000000    0.00000000    0.00000000
     atom    5 type  1   force =     0.00000000    0.00000000    0.00000000
     atom    6 type  1   force =     0.00000000    0.00000000    0.00000000
     atom    7 type  2   force =     0.00000000    0.00000000    0.00000000
     atom    8 type  2   force =     0.00000000    0.00000000    0.00000000

     Total force =     0.000000     Total SCF correction =     0.000000

     entering subroutine stress ...

          total   stress  (Ry/bohr**3)                   (kbar)     P=  218.75
   0.00148703   0.00000000   0.00000000        218.75      0.00      0.00
   0.00000000   0.00148703   0.00000000          0.00    218.75      0.00
   0.00000000   0.00000000   0.00148703          0.00      0.00    218.75

     Writing output data file Prototype-La-cP8-Cr3Si.save

     General routines

     Parallel routines

   This run was terminated on:   2:44:24  23Mar2018

   JOB DONE.