     Program PWSCF v.5.0.2 starts on 23Mar2018 at  2:16:46

     Current dimensions of program PWSCF are:
     Max number of different atomic species (ntypx) = 10
     Max number of k-points (npk) =  40000
     Max angular momentum in pseudopotentials (lmaxx) =  3
     Waiting for input...
     Reading input from standard input

     Subspace diagonalization in iterative solution of the eigenvalue problem:
     a serial algorithm will be used

     bravais-lattice index     =            0
     lattice parameter (alat)  =       9.9235  a.u.
     unit-cell volume          =    1361.0366 (a.u.)^3
     number of atoms/cell      =           12
     number of atomic types    =            2
     number of electrons       =       256.00
     number of Kohn-Sham states=          154
     kinetic-energy cutoff     =      40.0000  Ry
     charge density cutoff     =     160.0000  Ry
     convergence threshold     =      1.0E-04
     mixing beta               =       0.7000
     number of iterations used =            8  plain     mixing
     Exchange-correlation      = SLA-PZ-NOGX-NOGC ( 1 1 0 0 0)
     EXX-fraction              =        0.00
     nstep                     =           50

     celldm(1)=   9.923489  celldm(2)=   0.000000  celldm(3)=   0.000000
     celldm(4)=   0.000000  celldm(5)=   0.000000  celldm(6)=   0.000000

     crystal axes: (cart. coord. in units of alat)
               a(1) = (   1.000000   0.000000   0.000000 )
               a(2) = (  -0.500000   0.866025   0.000000 )
               a(3) = (   0.000000   0.000000   1.608222 )

     reciprocal axes: (cart. coord. in units 2 pi/alat)
               b(1) = (  1.000000  0.577350  0.000000 )
               b(2) = (  0.000000  1.154701  0.000000 )
               b(3) = (  0.000000  0.000000  0.621805 )

     PseudoPot. # 1 for Dy read from file:
     /home/cwx6513/pp.La/Dy.UPF
     MD5 check sum: 9597327bec62616a94a14d07f3fd9936
     Pseudo is Norm-conserving, Zval = 20.0
     Generated in analytical, separable form
     Using radial grid of 1265 points,  6 beta functions with:
                l(1) =   0
                l(2) =   0
                l(3) =   1
                l(4) =   1
                l(5) =   2
                l(6) =   3

     PseudoPot. # 2 for Er read from file:
     /home/cwx6513/pp.La/Er.UPF
     MD5 check sum: e152ae21b84514339d8526f066caf99b
     Pseudo is Norm-conserving, Zval = 22.0
     Generated in analytical, separable form
     Using radial grid of 1267 points,  6 beta functions with:
                l(1) =   0
                l(2) =   0
                l(3) =   1
                l(4) =   1
                l(5) =   2
                l(6) =   3

     atomic species   valence    mass     pseudopotential
        Mg            20.00    24.30500     Dy( 1.00)
        Zn            22.00    65.39000     Er( 1.00)

     24 Sym. Ops., with inversion, found (12 have fractional translation)

   Cartesian axes

     site n.     atom                  positions (alat units)
         1           Mg  tau(   1) = (  -0.0000005   0.5773506   0.1003820  )
         2           Mg  tau(   2) = (   0.5000005   0.2886748   0.9044931  )
         3           Mg  tau(   3) = (   0.5000005   0.2886748   1.5078402  )
         4           Mg  tau(   4) = (  -0.0000005   0.5773506   0.7037291  )
         5           Zn  tau(   5) = (   0.0000000   0.0000000   0.0000000  )
         6           Zn  tau(   6) = (   0.0000000   0.0000000   0.8041111  )
         7           Zn  tau(   7) = (   0.0000000   0.2950739   1.2061667  )
         8           Zn  tau(   8) = (   0.7444585   0.1475370   0.4020556  )
         9           Zn  tau(   9) = (   0.2555415   0.1475370   0.4020556  )
        10           Zn  tau(  10) = (   0.2444585   0.7184884   1.2061667  )
        11           Zn  tau(  11) = (  -0.2444585   0.7184884   1.2061667  )
        12           Zn  tau(  12) = (   0.5000000   0.5709515   0.4020556  )

     number of k points=    12  gaussian smearing, width (Ry)=  0.1000
                       cart. coord. in units 2pi/alat
        k(    1) = (   0.0000000   0.0000000   0.0000000), wk =   0.0833333
        k(    2) = (   0.0000000   0.0000000   0.1554512), wk =   0.1666667
        k(    3) = (   0.0000000   0.0000000  -0.3109023), wk =   0.0833333
        k(    4) = (   0.0000000   0.3849002   0.0000000), wk =   0.1666667
        k(    5) = (   0.0000000   0.3849002   0.1554512), wk =   0.3333333
        k(    6) = (   0.0000000   0.3849002  -0.3109023), wk =   0.1666667
        k(    7) = (  -0.5000000  -0.2886751   0.0000000), wk =   0.0833333
        k(    8) = (  -0.5000000  -0.2886751   0.1554512), wk =   0.1666667
        k(    9) = (  -0.5000000  -0.2886751  -0.3109023), wk =   0.0833333
        k(   10) = (  -0.5000000   0.0962250   0.0000000), wk =   0.1666667
        k(   11) = (  -0.5000000   0.0962250   0.1554512), wk =   0.3333333
        k(   12) = (  -0.5000000   0.0962250  -0.3109023), wk =   0.1666667

     Largest allocated arrays     est. size (Mb)     dimensions
     Largest temporary arrays     est. size (Mb)     dimensions

     Initial potential from superposition of free atoms

     Starting from uniform charge
     Starting wfc are    0 randomized atomic wfcs

     Self-consistent Calculation

     iteration #  1     ecut=    40.00 Ry     beta=0.70
     CG style diagonalization
     c_bands:  1 eigenvalues not converged
     c_bands:  1 eigenvalues not converged
     ethr =  1.00E-02,  avg # of iterations = 20.6

     total energy              =   -2803.62561210 Ry
     Harris-Foulkes estimate   =   -4607.49575119 Ry
     estimated scf accuracy    <    2201.59139172 Ry

     iteration #  2     ecut=    40.00 Ry     beta=0.70
     CG style diagonalization
     ethr =  1.00E-02,  avg # of iterations = 18.9

[...]

     End of self-consistent calculation

          k = 0.0000 0.0000 0.0000 (  5769 PWs)   bands (ev):

   -68.4050 -68.3882 -68.3429 -68.3429 -68.3303 -68.3302 -68.3223 -68.2788
   -49.0952 -49.0947 -49.0839 -49.0820 -31.3085 -31.1621 -30.8725 -30.6586
   -30.6586 -30.6337 -30.6337 -30.5408 -30.5108 -30.5108 -30.4213 -30.3415
   -30.3414 -30.2761 -30.2760 -30.2094 -30.2094 -30.1689 -30.1555 -30.1555
   -30.1172 -30.1014 -30.0924 -30.0923 -16.1412 -16.1325 -16.1203 -16.1202
   -16.1012 -16.1012 -16.0573 -16.0343 -16.0253 -16.0253 -16.0226 -16.0226
    11.8106  12.3420  12.7383  13.5430  13.5430  13.7229  13.7230  14.0221
    14.0242  14.0242  14.4312  14.4312  15.0306  15.2457  15.3794  15.3794
    15.5924  15.5924  16.0652  16.3888  16.3888  16.6710  16.6711  16.8081
    17.0435  17.0436  17.0989  17.1320  17.1399  17.1399  17.2073  17.2073
    17.2442  17.2442  17.5444  18.1043  18.1043  18.4833  18.4834  19.0053
    19.0063  19.5495  21.1058  23.2759  23.4558  23.4558  23.5448  23.5449
    23.8941  23.8941  23.9496  24.1666  24.1666  24.1677  24.1678  24.2016
    24.8073  24.8074  25.5986  25.5986  25.7168  25.7194  25.7194  26.5410
    26.6217  29.1823  29.1824  29.5202  29.7382  29.7383  31.9070  31.9070
    31.9252  31.9644  31.9645  31.9781  32.1264  32.1264  32.3887  32.6412
    32.8445  34.4448  34.4449  35.8180  37.0542  37.0542  37.5013  37.5819
    37.7327  37.7328  38.2165  38.2165  38.4116  38.5023  38.6042  38.6042
    38.6642  38.6642  38.9504  39.9580  40.0389  40.2254  40.2256  40.9356
    41.2159  41.7936

[...]

          k =-0.5000-0.2887 0.0000 (  5800 PWs)   bands (ev):

[...]

     the Fermi energy is    35.2451 ev

!    total energy              =   -3671.19686189 Ry
     Harris-Foulkes estimate   =   -3671.19688534 Ry
     estimated scf accuracy    <       0.00002883 Ry

     The total energy is the sum of the following terms:

     one-electron contribution =    -690.33688045 Ry
     hartree contribution      =     560.31221838 Ry
     xc contribution           =    -323.74239010 Ry
     ewald contribution        =   -3217.10658878 Ry
     smearing contrib. (-TS)   =      -0.32322094 Ry

     convergence has been achieved in  10 iterations

     Forces acting on atoms (Ry/au):

     atom    1 type  1   force =     0.00000000    0.00000000    0.01265880
     atom    2 type  1   force =     0.00000000    0.00000000    0.01265880
     atom    3 type  1   force =     0.00000000    0.00000000   -0.01265880
     atom    4 type  1   force =     0.00000000    0.00000000   -0.01265880
     atom    5 type  2   force =     0.00000000    0.00000000    0.00000000
     atom    6 type  2   force =     0.00000000    0.00000000    0.00000000
     atom    7 type  2   force =     0.00000000    0.14688338    0.00000000
     atom    8 type  2   force =    -0.12720474    0.07344169    0.00000000
     atom    9 type  2   force =     0.12720474    0.07344169    0.00000000
     atom   10 type  2   force =    -0.12720474   -0.07344169    0.00000000
     atom   11 type  2   force =     0.12720474   -0.07344169    0.00000000
     atom   12 type  2   force =     0.00000000   -0.14688338    0.00000000

     Total force =     0.360679     Total SCF correction =     0.000000

     entering subroutine stress ...

          total   stress  (Ry/bohr**3)                   (kbar)     P= 1253.12
   0.00851597   0.00000000   0.00000000       1252.74      0.00      0.00
   0.00000000   0.00851597   0.00000000          0.00   1252.74      0.00
   0.00000000   0.00000000   0.00852366          0.00      0.00   1253.87

     BFGS Geometry Optimization

     number of scf cycles    =   1
     number of bfgs steps    =   0

     enthalpy new            =   -3671.1968618890 Ry

     new trust radius        =       0.5000000000 bohr
     new conv_thr            =       0.0001000000 Ry

     new unit-cell volume =   1656.71206 a.u.^3 (   245.49939 Ang^3 )

CELL_PARAMETERS (alat=  9.92348860)
   1.067703776   0.000000000   0.000000000
  -0.533851888   0.924658593   0.000000000
   0.000000000   0.000000000   1.717203317

ATOMIC_POSITIONS (crystal)
Mg       0.333333000   0.666667000   0.062670244
Mg       0.666667000   0.333333000   0.562670244
Mg       0.666667000   0.333333000   0.937329756
Mg       0.333333000   0.666667000   0.437329756
Zn       0.000000000   0.000000000   0.000000000
Zn       0.000000000   0.000000000   0.500000000
Zn       0.173078607   0.346157214   0.750000000
Zn       0.826921393   0.173078607   0.250000000
Zn       0.346157214   0.173078607   0.250000000
Zn       0.653842786   0.826921393   0.750000000
Zn       0.173078607   0.826921393   0.750000000
Zn       0.826921393   0.653842786   0.250000000

     Writing output data file Prototype-La-hP12-MgZn2.save
     NEW-OLD atomic charge density approx. for the potential
     NEW k-points:
        k(    1) = (   0.0000000   0.0000000   0.0000000), wk =   0.0833333
        k(    2) = (   0.0000000   0.0000000   0.1455856), wk =   0.1666667
        k(    3) = (   0.0000000   0.0000000  -0.2911711), wk =   0.0833333
        k(    4) = (   0.0000000   0.3604934   0.0000000), wk =   0.1666667
        k(    5) = (   0.0000000   0.3604934   0.1455856), wk =   0.3333333
        k(    6) = (   0.0000000   0.3604934  -0.2911711), wk =   0.1666667
        k(    7) = (  -0.4682947  -0.2703701   0.0000000), wk =   0.0833333
        k(    8) = (  -0.4682947  -0.2703701   0.1455856), wk =   0.1666667
        k(    9) = (  -0.4682947  -0.2703701  -0.2911711), wk =   0.0833333
        k(   10) = (  -0.4682947   0.0901234   0.0000000), wk =   0.1666667
        k(   11) = (  -0.4682947   0.0901234   0.1455856), wk =   0.3333333
        k(   12) = (  -0.4682947   0.0901234  -0.2911711), wk =   0.1666667

[...]

     enthalpy old            =   -3671.1968618890 Ry
     enthalpy new            =   -3672.0740835823 Ry

     CASE: enthalpy_new < enthalpy_old

     small trust_radius: resetting bfgs history

     new trust radius        =       0.3206635602 bohr
     new conv_thr            =       0.0000229424 Ry

[...]

     number of scf cycles    =   3
     number of bfgs steps    =   2

     enthalpy old            =   -3672.0740835823 Ry
     enthalpy new            =   -3671.9441029986 Ry

     CASE: enthalpy_new > enthalpy_old

     new trust radius        =       0.1045681421 bohr

     trust_radius < trust_radius_min

     resetting bfgs history

     Message from routine bfgs:
     history already reset at previous step: stopping
     new conv_thr            =       0.0000229424 Ry

     new unit-cell volume =   1480.82453 a.u.^3 (   219.43555 Ang^3 )

[...]

ATOMIC_POSITIONS (crystal)
Mg       0.333333000   0.666667000   0.064129259
Mg       0.666667000   0.333333000   0.564129259
Mg       0.666667000   0.333333000   0.935870741
Mg       0.333333000   0.666667000   0.435870741
Zn       0.000000000   0.000000000   0.000000000
Zn       0.000000000   0.000000000   0.500000000
Zn       0.172498939   0.344997877   0.750000000
Zn       0.827501061   0.172498939   0.250000000
Zn       0.344997877   0.172498939   0.250000000
Zn       0.655002123   0.827501061   0.750000000
Zn       0.172498939   0.827501061   0.750000000
Zn       0.827501061   0.655002123   0.250000000

     Writing output data file Prototype-La-hP12-MgZn2.save
     NEW-OLD atomic charge density approx. for the potential
     NEW k-points:
        k(    1) = (   0.0000000   0.0000000   0.0000000), wk =   0.0833333
        k(    2) = (   0.0000000   0.0000000   0.1517313), wk =   0.1666667
        k(    3) = (   0.0000000   0.0000000  -0.3034625), wk =   0.0833333
        k(    4) = (   0.0000000   0.3735001   0.0000000), wk =   0.1666667
        k(    5) = (   0.0000000   0.3735001   0.1517313), wk =   0.3333333
        k(    6) = (   0.0000000   0.3735001  -0.3034625), wk =   0.1666667
        k(    7) = (  -0.4851908  -0.2801250   0.0000000), wk =   0.0833333
        k(    8) = (  -0.4851908  -0.2801250   0.1517313), wk =   0.1666667
        k(    9) = (  -0.4851908  -0.2801250  -0.3034625), wk =   0.0833333
        k(   10) = (  -0.4851908   0.0933750   0.0000000), wk =   0.1666667
        k(   11) = (  -0.4851908   0.0933750   0.1517313), wk =   0.3333333
        k(   12) = (  -0.4851908   0.0933750  -0.3034625), wk =   0.1666667

[...]

     The maximum number of steps has been reached.

     End of BFGS Geometry Optimization
Begin final coordinates
     new unit-cell volume =   1480.82453 a.u.^3 (   219.43555 Ang^3 )

CELL_PARAMETERS (alat=  9.92348860)
   1.030522397   0.000000000   0.000000000
  -0.515261198   0.892458575   0.000000000
   0.000000000   0.000000000   1.647650038

ATOMIC_POSITIONS (crystal)
Mg       0.333333000   0.666667000   0.064129259
Mg       0.666667000   0.333333000   0.564129259
Mg       0.666667000   0.333333000   0.935870741
Mg       0.333333000   0.666667000   0.435870741
Zn       0.000000000   0.000000000   0.000000000
Zn       0.000000000   0.000000000   0.500000000
Zn       0.172498939   0.344997877   0.750000000
Zn       0.827501061   0.172498939   0.250000000
Zn       0.344997877   0.172498939   0.250000000
Zn       0.655002123   0.827501061   0.750000000
Zn       0.172498939   0.827501061   0.750000000
Zn       0.827501061   0.655002123   0.250000000
End final coordinates

     A final scf calculation at the relaxed structure.
     The G-vectors are recalculated for the final unit cell
     Results may differ from those at the preceding step.

     bravais-lattice index     =            0
     lattice parameter (alat)  =       9.9235  a.u.
     unit-cell volume          =    1480.8245 (a.u.)^3
     number of atoms/cell      =           12
     number of atomic types    =            2
     number of electrons       =       256.00
     number of Kohn-Sham states=          154
     kinetic-energy cutoff     =      40.0000  Ry
     charge density cutoff     =     160.0000  Ry
     convergence threshold     =      2.3E-05
     mixing beta               =       0.7000
     number of iterations used =            8  plain     mixing
     Exchange-correlation      = SLA-PZ-NOGX-NOGC ( 1 1 0 0 0)
     EXX-fraction              =        0.00

     celldm(1)=   9.923489  celldm(2)=   0.000000  celldm(3)=   0.000000
     celldm(4)=   0.000000  celldm(5)=   0.000000  celldm(6)=   0.000000

     crystal axes: (cart. coord. in units of alat)
               a(1) = (   1.030522   0.000000   0.000000 )
               a(2) = (  -0.515261   0.892459   0.000000 )
               a(3) = (   0.000000   0.000000   1.647650 )

     reciprocal axes: (cart. coord. in units 2 pi/alat)
               b(1) = (  0.970382  0.560250  0.000000 )
               b(2) = (  0.000000  1.120500  0.000000 )
               b(3) = (  0.000000  0.000000  0.606925 )

     PseudoPot. # 1 for Dy read from file:
     /home/cwx6513/pp.La/Dy.UPF
     MD5 check sum: 9597327bec62616a94a14d07f3fd9936
     Pseudo is Norm-conserving, Zval = 20.0
     Generated in analytical, separable form
     Using radial grid of 1265 points,  6 beta functions with:
                l(1) =   0
                l(2) =   0
                l(3) =   1
                l(4) =   1
                l(5) =   2
                l(6) =   3

     PseudoPot. # 2 for Er read from file:
     /home/cwx6513/pp.La/Er.UPF
     MD5 check sum: e152ae21b84514339d8526f066caf99b
     Pseudo is Norm-conserving, Zval = 22.0
     Generated in analytical, separable form
     Using radial grid of 1267 points,  6 beta functions with:
                l(1) =   0
                l(2) =   0
                l(3) =   1
                l(4) =   1
                l(5) =   2
                l(6) =   3

     atomic species   valence    mass     pseudopotential
        Mg            20.00    24.30500     Dy( 1.00)
        Zn            22.00    65.39000     Er( 1.00)

     24 Sym. Ops., with inversion, found (12 have fractional translation)

   Cartesian axes

     site n.     atom                  positions (alat units)
         1           Mg  tau(   1) = (  -0.0000005   0.5949727   0.1056626  )
         2           Mg  tau(   2) = (   0.5152617   0.2974859   0.9294876  )
         3           Mg  tau(   3) = (   0.5152617   0.2974859   1.5419875  )
         4           Mg  tau(   4) = (  -0.0000005   0.5949727   0.7181624  )
         5           Zn  tau(   5) = (   0.0000000   0.0000000   0.0000000  )
         6           Zn  tau(   6) = (   0.0000000   0.0000000   0.8238250  )
         7           Zn  tau(   7) = (   0.0000000   0.3078963   1.2357375  )
         8           Zn  tau(   8) = (   0.7638764   0.1539482   0.4119125  )
         9           Zn  tau(   9) = (   0.2666460   0.1539482   0.4119125  )
        10           Zn  tau(  10) = (   0.2486152   0.7385104   1.2357375  )
        11           Zn  tau(  11) = (  -0.2486152   0.7385104   1.2357375  )
        12           Zn  tau(  12) = (   0.5152612   0.5845623   0.4119125  )

     number of k points=    12  gaussian smearing, width (Ry)=  0.1000
                       cart. coord. in units 2pi/alat
        k(    1) = (   0.0000000   0.0000000   0.0000000), wk =   0.0833333
        k(    2) = (   0.0000000   0.0000000   0.1517313), wk =   0.1666667
        k(    3) = (   0.0000000   0.0000000  -0.3034625), wk =   0.0833333
        k(    4) = (   0.0000000   0.3735001   0.0000000), wk =   0.1666667
        k(    5) = (   0.0000000   0.3735001   0.1517313), wk =   0.3333333
        k(    6) = (   0.0000000   0.3735001  -0.3034625), wk =   0.1666667
        k(    7) = (  -0.4851908  -0.2801250   0.0000000), wk =   0.0833333
        k(    8) = (  -0.4851908  -0.2801250   0.1517313), wk =   0.1666667
        k(    9) = (  -0.4851908  -0.2801250  -0.3034625), wk =   0.0833333
        k(   10) = (  -0.4851908   0.0933750   0.0000000), wk =   0.1666667
        k(   11) = (  -0.4851908   0.0933750   0.1517313), wk =   0.3333333
        k(   12) = (  -0.4851908   0.0933750  -0.3034625), wk =   0.1666667

     Largest allocated arrays     est. size (Mb)     dimensions
     Largest temporary arrays     est. size (Mb)     dimensions

     Initial potential from superposition of free atoms

     Starting from uniform charge
     Starting wfc are    0 randomized atomic wfcs

     Writing output data file Prototype-La-hP12-MgZn2.save

     Self-consistent Calculation

[...]

     iteration #  9     ecut=    40.00 Ry     beta=0.70
     CG style diagonalization
     c_bands:  1 eigenvalues not converged
     c_bands:  1 eigenvalues not converged
     ethr =  2.57E-06,  avg # of iterations =  4.1

[...]

     total energy              =   -3672.86928288 Ry
     Harris-Foulkes estimate   =   -3672.86932180 Ry
     estimated scf accuracy    <       0.00006768 Ry

     iteration # 11     ecut=    40.00 Ry     beta=0.70
     CG style diagonalization
     ethr =  2.64E-08,  avg # of iterations =  3.9

     End of self-consistent calculation

[...]

          k = 0.0000 0.3735-0.3035 (  6324 PWs)   bands (ev):

[...]

          k =-0.4852 0.0934-0.3035 (  6328 PWs)   bands (ev):

   -71.1695 -71.1695 -71.1538 -71.1538 -71.1255 -71.1254 -71.0244 -71.0244
   -51.8876 -51.8876 -51.8823 -51.8823 -33.6323 -33.6323 -33.4633 -33.4633
   -33.2859 -33.2859 -33.2671 -33.2671 -33.1833 -33.1833 -33.1501 -33.1501
   -33.1125 -33.1125 -33.0662 -33.0662 -32.9929 -32.9929 -32.9717 -32.9717
   -32.9137 -32.9137 -32.9024 -32.9024 -18.8888 -18.8888 -18.8578 -18.8578
   -18.8467 -18.8467 -18.8249 -18.8249 -18.8105 -18.8105 -18.8040 -18.8040
    10.9483  10.9483  11.5210  11.5211  11.7539  11.7539  11.9741  11.9741
    12.0502  12.0502  12.5731  12.5731  12.7106  12.7106  12.9402  12.9402
    13.1684  13.1684  13.2341  13.2341  13.4778  13.4778  13.6032  13.6032
    13.8125  13.8125  14.1115  14.1115  14.2009  14.2009  14.4005  14.4005
    14.4298  14.4298  14.5056  14.5056  14.7193  14.7193  15.2773  15.2773
    17.2377  17.2377  18.7944  18.7944  20.7789  20.7789  21.1247  21.1247
    21.4841  21.4841  21.6359  21.6359  21.7023  21.7024  22.0486  22.0487
    22.3850  22.3850  22.6093  22.6093  22.7232  22.7232  23.0221  23.0221
    23.5139  23.5139  24.4935  24.4935  26.6368  26.6368  27.0952  27.0953
    28.6918  28.6918  29.5931  29.5931  31.6225  31.6225  32.1590  32.1590
    32.8204  32.8204  33.7879  33.7879  34.2630  34.2630  34.4667  34.4667
    35.1310  35.1310  35.3619  35.3619  35.8089  35.8089  36.1148  36.1148
    36.6967  36.6967  37.1292  37.1292  37.4370  37.4371  38.1624  38.1625
    38.6481  38.6482

     the Fermi energy is    31.9532 ev

!    total energy              =   -3672.86930110 Ry
     Harris-Foulkes estimate   =   -3672.86930316 Ry
     estimated scf accuracy    <       0.00000256 Ry

     The total energy is the sum of the following terms:

     one-electron contribution =    -818.86833536 Ry
     hartree contribution      =     598.06151321 Ry
     xc contribution           =    -322.07107208 Ry
     ewald contribution        =   -3129.66644662 Ry
     smearing contrib. (-TS)   =      -0.32496024 Ry

     convergence has been achieved in  11 iterations

     Forces acting on atoms (Ry/au):

     atom    1 type  1   force =     0.00000000    0.00000000    0.01794734
     atom    2 type  1   force =     0.00000000    0.00000000    0.01794734
     atom    3 type  1   force =     0.00000000    0.00000000   -0.01794734
     atom    4 type  1   force =     0.00000000    0.00000000   -0.01794734
     atom    5 type  2   force =     0.00000000    0.00000000    0.00000000
     atom    6 type  2   force =     0.00000000    0.00000000    0.00000000
     atom    7 type  2   force =     0.00000000    0.02608895    0.00000000
     atom    8 type  2   force =    -0.02259369    0.01304447    0.00000000
     atom    9 type  2   force =     0.02259369    0.01304447    0.00000000
     atom   10 type  2   force =    -0.02259369   -0.01304447    0.00000000
     atom   11 type  2   force =     0.02259369   -0.01304447    0.00000000
     atom   12 type  2   force =     0.00000000   -0.02608895    0.00000000

     Total force =     0.073295     Total SCF correction =     0.000000

     entering subroutine stress ...

          total   stress  (Ry/bohr**3)                   (kbar)     P=  708.00
   0.00488186   0.00000000   0.00000000        718.15      0.00      0.00
   0.00000000   0.00488186   0.00000000          0.00    718.15      0.00
   0.00000000   0.00000000   0.00467492          0.00      0.00    687.70

     Writing output data file Prototype-La-hP12-MgZn2.save

     General routines

     Parallel routines

   This run was terminated on:   2:47:28  23Mar2018

   JOB DONE.