     Program PWSCF v.5.0.2 starts on 23Mar2018 at  2:16:47

     Current dimensions of program PWSCF are:
     Max number of different atomic species (ntypx) = 10
     Max number of k-points (npk) =  40000
     Max angular momentum in pseudopotentials (lmaxx) =  3
     Waiting for input...
     Reading input from standard input

     Subspace diagonalization in iterative solution of the eigenvalue problem:
     a serial algorithm will be used

     bravais-lattice index     =            0
     lattice parameter (alat)  =       7.0151  a.u.
     unit-cell volume          =     862.2778 (a.u.)^3
     number of atoms/cell      =           12
     number of atomic types    =            2
     number of electrons       =       248.00
     number of Kohn-Sham states=          149
     kinetic-energy cutoff     =      40.0000  Ry
     charge density cutoff     =     160.0000  Ry
     convergence threshold     =      1.0E-04
     mixing beta               =       0.7000
     number of iterations used =            8  plain     mixing
     Exchange-correlation      = SLA-PZ-NOGX-NOGC ( 1 1 0 0 0)
     EXX-fraction              =        0.00
     nstep                     =           50

     celldm(1)=   7.015105  celldm(2)=   0.000000  celldm(3)=   0.000000
     celldm(4)=   0.000000  celldm(5)=   0.000000  celldm(6)=   0.000000

     crystal axes: (cart. coord. in units of alat)
               a(1) = (   1.000000   0.000000   0.000000 )
               a(2) = (   0.000000   1.315963   0.000000 )
               a(3) = (   0.000000   0.000000   1.898020 )

     reciprocal axes: (cart. coord. in units 2 pi/alat)
               b(1) = (  1.000000  0.000000  0.000000 )
               b(2) = (  0.000000  0.759900  0.000000 )
               b(3) = (  0.000000  0.000000  0.526865 )

     PseudoPot. # 1 for Dy read from file:
     /home/cwx6513/pp.La/Dy.UPF
     MD5 check sum: 9597327bec62616a94a14d07f3fd9936
     Pseudo is Norm-conserving, Zval = 20.0
     Generated in analytical, separable form
     Using radial grid of 1265 points,  6 beta functions with:
                l(1) =   0
                l(2) =   0
                l(3) =   1
                l(4) =   1
                l(5) =   2
                l(6) =   3

     PseudoPot. # 2 for Er read from file:
     /home/cwx6513/pp.La/Er.UPF
     MD5 check sum: e152ae21b84514339d8526f066caf99b
     Pseudo is Norm-conserving, Zval = 22.0
     Generated in analytical, separable form
     Using radial grid of 1267 points,  6 beta functions with:
                l(1) =   0
                l(2) =   0
                l(3) =   1
                l(4) =   1
                l(5) =   2
                l(6) =   3

     atomic species   valence    mass     pseudopotential
        Co            20.00    58.93320     Dy( 1.00)
        Si            22.00    28.08550     Er( 1.00)

      8 Sym. Ops., with inversion, found ( 6 have fractional translation)

   Cartesian axes

     site n.     atom                  positions (alat units)
         1           Co  tau(   1) = (   0.7500000   1.0875135   0.8270358  )
         2           Co  tau(   2) = (   0.2500000   0.2284499   1.0709846  )
         3           Co  tau(   3) = (   0.7500000   0.4295318   0.1219744  )
         4           Co  tau(   4) = (   0.2500000   0.8864316   1.7760460  )
         5           Co  tau(   5) = (   0.2500000   0.7067855   0.5358966  )
         6           Co  tau(   6) = (   0.7500000   0.6091779   1.3621238  )
         7           Co  tau(   7) = (   0.2500000   0.0488038   0.4131136  )
         8           Co  tau(   8) = (   0.7500000   1.2671596   1.4849068  )
         9           Si  tau(   9) = (   0.2500000   0.2669484   1.6960710  )
        10           Si  tau(  10) = (   0.7500000   1.0490149   0.2019494  )
        11           Si  tau(  11) = (   0.2500000   0.9249301   1.1509596  )
        12           Si  tau(  12) = (   0.7500000   0.3910333   0.7470608  )

     number of k points=    12  gaussian smearing, width (Ry)=  0.1000
                       cart. coord. in units 2pi/alat
        k(    1) = (   0.0000000   0.0000000   0.0000000), wk =   0.0833333
        k(    2) = (   0.0000000   0.0000000   0.1317162), wk =   0.1666667
        k(    3) = (   0.0000000   0.0000000  -0.2634324), wk =   0.0833333
        k(    4) = (   0.0000000   0.2532999   0.0000000), wk =   0.1666667
        k(    5) = (   0.0000000   0.2532999   0.1317162), wk =   0.3333333
        k(    6) = (   0.0000000   0.2532999  -0.2634324), wk =   0.1666667
        k(    7) = (  -0.5000000   0.0000000   0.0000000), wk =   0.0833333
        k(    8) = (  -0.5000000   0.0000000   0.1317162), wk =   0.1666667
        k(    9) = (  -0.5000000   0.0000000  -0.2634324), wk =   0.0833333
        k(   10) = (  -0.5000000   0.2532999   0.0000000), wk =   0.1666667
        k(   11) = (  -0.5000000   0.2532999   0.1317162), wk =   0.3333333
        k(   12) = (  -0.5000000   0.2532999  -0.2634324), wk =   0.1666667

     Largest allocated arrays     est. size (Mb)     dimensions
     Largest temporary arrays     est. size (Mb)     dimensions

     Initial potential from superposition of free atoms

     Starting from uniform charge
     Starting wfc are    0 randomized atomic wfcs

     Self-consistent Calculation

     iteration #  1     ecut=    40.00 Ry     beta=0.70
     CG style diagonalization
     c_bands:  5 eigenvalues not converged
     c_bands:  4 eigenvalues not converged
     c_bands:  4 eigenvalues not converged
     c_bands:  4 eigenvalues not converged
     c_bands:  1 eigenvalues not converged
     c_bands:  2 eigenvalues not converged
     c_bands:  3 eigenvalues not converged
     c_bands:  5 eigenvalues not converged
     ethr =  1.00E-02,  avg # of iterations = 14.4

     total energy              =   -3086.64401490 Ry
     Harris-Foulkes estimate   =   -3816.77745006 Ry
     estimated scf accuracy    <     939.26464988 Ry

[...]

     iteration #  3     ecut=    40.00 Ry     beta=0.70
     CG style diagonalization
     ethr =  1.00E-02,  avg # of iterations =  6.4

[...]

     End of self-consistent calculation

          k = 0.0000 0.0000 0.0000 (  3675 PWs)   bands (ev):

   -49.8747 -49.8697 -49.8615 -49.8467 -32.9493 -32.8289 -32.7885 -32.7453
   -32.6537 -32.5425 -32.4538 -32.4494 -12.5727 -12.5223 -12.4914 -12.4462
   -12.4159 -12.4144 -12.3437 -12.3236 -12.1524 -12.1326 -12.0701 -12.0143
    -1.2752  -0.9934  -0.8696  -0.7646  -0.6972  -0.6195  -0.5556  -0.4679
    -0.2833  -0.2291  -0.1390  -0.1232   0.0224   0.0444   0.1513   0.1737
     0.2123   0.2951   0.3629   0.5056   0.5493   0.7398   0.9403   1.0163
    30.3680  30.5219  30.5636  30.7705  31.0743  31.1687  31.1719  31.1783
    31.5514  31.6374  31.6621  31.7687  31.9994  32.2864  32.4728  33.1337
    33.1606  33.3975  33.4289  33.5081  33.6716  35.0297  36.1596  36.4741
    36.5278  36.7554  36.7607  37.2103  37.8259  37.8459  37.9681  38.1583
    38.2757  38.4004  38.7950  38.8543  39.3729  39.7388  39.9724  40.0598
    40.2404  40.3841  40.4604  41.0194  41.3807  41.5286  41.8471  42.1634
    42.8057  42.8860  43.1633  43.1736  43.6303  43.8261  43.9075  44.3643
    44.4062  44.4113  44.6184  44.6408  44.7964  45.5023  45.8285  47.9830
    48.8599  49.1520  49.7040  50.2178  53.2180  53.3040  54.5596  54.8236
    56.0756  56.2119  56.6620  56.9045  56.9368  57.1346  57.1487  57.3545
    57.4374  57.8626  57.9418  58.1093  58.1572  58.3471  58.9157  59.4918
    59.4923  59.6911  59.9854  60.0629  60.0867  60.1497  60.3967  60.6739
    60.8175  61.2404  61.7842  61.8500  62.0788

[...]

          k =-0.5000 0.0000 0.0000 (  3722 PWs)   bands (ev):

[...]

     the Fermi energy is    56.5961 ev

!    total energy              =   -3382.59588373 Ry
     Harris-Foulkes estimate   =   -3382.59596317 Ry
     estimated scf accuracy    <       0.00009345 Ry

     The total energy is the sum of the following terms:

     one-electron contribution =     203.12755446 Ry
     hartree contribution      =     288.07520299 Ry
     xc contribution           =    -319.43584823 Ry
     ewald contribution        =   -3553.88606499 Ry
     smearing contrib. (-TS)   =      -0.47672795 Ry

     convergence has been achieved in   9 iterations

     Forces acting on atoms (Ry/au):

     atom    1 type  1   force =     0.00000000   -0.07072673   -0.11993682
     atom    2 type  1   force =     0.00000000    0.07072673    0.11993682
     atom    3 type  1   force =     0.00000000   -0.07072673    0.11993682
     atom    4 type  1   force =     0.00000000    0.07072673   -0.11993682
     atom    5 type  1   force =     0.00000000    0.14287528   -0.28184086
     atom    6 type  1   force =     0.00000000   -0.14287528    0.28184086
     atom    7 type  1   force =     0.00000000    0.14287528    0.28184086
     atom    8 type  1   force =     0.00000000   -0.14287528   -0.28184086
     atom    9 type  2   force =     0.00000000   -0.20399621   -0.02961580
     atom   10 type  2   force =     0.00000000    0.20399621    0.02961580
     atom   11 type  2   force =     0.00000000   -0.20399621    0.02961580
     atom   12 type  2   force =     0.00000000    0.20399621   -0.02961580

     Total force =     0.804304     Total SCF correction =     0.000000

     entering subroutine stress ...

          total   stress  (Ry/bohr**3)                   (kbar)     P= 7489.42
   0.05292979   0.00000000   0.00000000       7786.24      0.00      0.00
   0.00000000   0.04865347   0.00000000          0.00   7157.17      0.00
   0.00000000   0.00000000   0.05115296          0.00      0.00   7524.86

     BFGS Geometry Optimization

     number of scf cycles    =   1
     number of bfgs steps    =   0

     enthalpy new            =   -3382.5958837308 Ry

     new trust radius        =       0.5000000000 bohr
     new conv_thr            =       0.0001000000 Ry

     new unit-cell volume =   1091.92676 a.u.^3 (   161.80685 Ang^3 )

CELL_PARAMETERS (alat=  7.01510508)
   1.085136619   0.000000000   0.000000000
   0.000000000   1.418948352   0.000000000
   0.000000000   0.000000000   2.054186918

ATOMIC_POSITIONS (crystal)
Co       0.750000000   0.825908074   0.435156446
Co       0.250000000   0.174091926   0.564843554
Co       0.750000000   0.325908074   0.064843554
Co       0.250000000   0.674091926   0.935156446
Co       0.250000000   0.538081762   0.280983100
Co       0.750000000   0.461918238   0.719016900
Co       0.250000000   0.038081762   0.219016900
Co       0.750000000   0.961918238   0.780983100
Si       0.250000000   0.201432260   0.893456892
Si       0.750000000   0.798567740   0.106543108
Si       0.250000000   0.701432260   0.606543108
Si       0.750000000   0.298567740   0.393456892

     Writing output data file Prototype-La-oP12-Co2Si.save
     NEW-OLD atomic charge density approx. for the potential
     NEW k-points:
        k(    1) = (   0.0000000   0.0000000   0.0000000), wk =   0.0833333
        k(    2) = (   0.0000000   0.0000000   0.1217027), wk =   0.1666667
        k(    3) = (   0.0000000   0.0000000  -0.2434053), wk =   0.0833333
        k(    4) = (   0.0000000   0.2349158   0.0000000), wk =   0.1666667
        k(    5) = (   0.0000000   0.2349158   0.1217027), wk =   0.3333333
        k(    6) = (   0.0000000   0.2349158  -0.2434053), wk =   0.1666667
        k(    7) = (  -0.4607715   0.0000000   0.0000000), wk =   0.0833333
        k(    8) = (  -0.4607715   0.0000000   0.1217027), wk =   0.1666667
        k(    9) = (  -0.4607715   0.0000000  -0.2434053), wk =   0.0833333
        k(   10) = (  -0.4607715   0.2349158   0.0000000), wk =   0.1666667
        k(   11) = (  -0.4607715   0.2349158   0.1217027), wk =   0.3333333
        k(   12) = (  -0.4607715   0.2349158  -0.2434053), wk =   0.1666667

[...]

     enthalpy old            =   -3382.5958837308 Ry
     enthalpy new            =   -3390.0400005769 Ry

     CASE: enthalpy_new < enthalpy_old

     small trust_radius: resetting bfgs history

     new trust radius        =       3.0756341143 bohr
     new conv_thr            =       0.0001000000 Ry

[...]

          total   stress  (Ry/bohr**3)                   (kbar)     P=-3289.60
  -0.02404909   0.00000000   0.00000000      -3537.74      0.00      0.00
   0.00000000  -0.02075042   0.00000000          0.00  -3052.49      0.00
   0.00000000   0.00000000  -0.02228721          0.00      0.00  -3278.56

     number of scf cycles    =   3
     number of bfgs steps    =   2

     enthalpy old            =   -3390.0400005769 Ry
     enthalpy new            =   -3363.2331974541 Ry

     CASE: enthalpy_new > enthalpy_old

     new trust radius        =       0.8706273272 bohr

     trust_radius < trust_radius_min

     resetting bfgs history

     Message from routine bfgs:
     history already reset at previous step: stopping
     new conv_thr            =       0.0001000000 Ry

     new unit-cell volume =   1292.78852 a.u.^3 (   191.57149 Ang^3 )

[...]

ATOMIC_POSITIONS (crystal)
Co       0.750000000   0.825900641   0.435017746
Co       0.250000000   0.174099359   0.564982254
Co       0.750000000   0.325900641   0.064982254
Co       0.250000000   0.674099359   0.935017746
Co       0.250000000   0.538957481   0.279878906
Co       0.750000000   0.461042519   0.720121094
Co       0.250000000   0.038957481   0.220121094
Co       0.750000000   0.961042519   0.779878906
Si       0.250000000   0.200613155   0.893668819
Si       0.750000000   0.799386845   0.106331181
Si       0.250000000   0.700613155   0.606331181
Si       0.750000000   0.299386845   0.393668819

     Writing output data file Prototype-La-oP12-Co2Si.save
     NEW-OLD atomic charge density approx. for the potential
     NEW k-points:
        k(    1) = (   0.0000000   0.0000000   0.0000000), wk =   0.0833333
        k(    2) = (   0.0000000   0.0000000   0.1150610), wk =   0.1666667
        k(    3) = (   0.0000000   0.0000000  -0.2301221), wk =   0.0833333
        k(    4) = (   0.0000000   0.2234120   0.0000000), wk =   0.1666667
        k(    5) = (   0.0000000   0.2234120   0.1150610), wk =   0.3333333
        k(    6) = (   0.0000000   0.2234120  -0.2301221), wk =   0.1666667
        k(    7) = (  -0.4328417   0.0000000   0.0000000), wk =   0.0833333
        k(    8) = (  -0.4328417   0.0000000   0.1150610), wk =   0.1666667
        k(    9) = (  -0.4328417   0.0000000  -0.2301221), wk =   0.0833333
        k(   10) = (  -0.4328417   0.2234120   0.0000000), wk =   0.1666667
        k(   11) = (  -0.4328417   0.2234120   0.1150610), wk =   0.3333333
        k(   12) = (  -0.4328417   0.2234120  -0.2301221), wk =   0.1666667

[...]

     The maximum number of steps has been reached.

     End of BFGS Geometry Optimization
Begin final coordinates
     new unit-cell volume =   1292.78852 a.u.^3 (   191.57149 Ang^3 )

CELL_PARAMETERS (alat=  7.01510508)
   1.155156613   0.000000000   0.000000000
   0.000000000   1.492011986   0.000000000
   0.000000000   0.000000000   2.172760034

ATOMIC_POSITIONS (crystal)
Co       0.750000000   0.825900641   0.435017746
Co       0.250000000   0.174099359   0.564982254
Co       0.750000000   0.325900641   0.064982254
Co       0.250000000   0.674099359   0.935017746
Co       0.250000000   0.538957481   0.279878906
Co       0.750000000   0.461042519   0.720121094
Co       0.250000000   0.038957481   0.220121094
Co       0.750000000   0.961042519   0.779878906
Si       0.250000000   0.200613155   0.893668819
Si       0.750000000   0.799386845   0.106331181
Si       0.250000000   0.700613155   0.606331181
Si       0.750000000   0.299386845   0.393668819
End final coordinates

     A final scf calculation at the relaxed structure.
     The G-vectors are recalculated for the final unit cell
     Results may differ from those at the preceding step.

     bravais-lattice index     =            0
     lattice parameter (alat)  =       7.0151  a.u.
     unit-cell volume          =    1292.7885 (a.u.)^3
     number of atoms/cell      =           12
     number of atomic types    =            2
     number of electrons       =       248.00
     number of Kohn-Sham states=          149
     kinetic-energy cutoff     =      40.0000  Ry
     charge density cutoff     =     160.0000  Ry
     convergence threshold     =      1.0E-04
     mixing beta               =       0.7000
     number of iterations used =            8  plain     mixing
     Exchange-correlation      = SLA-PZ-NOGX-NOGC ( 1 1 0 0 0)
     EXX-fraction              =        0.00

     celldm(1)=   7.015105  celldm(2)=   0.000000  celldm(3)=   0.000000
     celldm(4)=   0.000000  celldm(5)=   0.000000  celldm(6)=   0.000000

     crystal axes: (cart. coord. in units of alat)
               a(1) = (   1.155157   0.000000   0.000000 )
               a(2) = (   0.000000   1.492012   0.000000 )
               a(3) = (   0.000000   0.000000   2.172760 )

     reciprocal axes: (cart. coord. in units 2 pi/alat)
               b(1) = (  0.865683  0.000000  0.000000 )
               b(2) = (  0.000000  0.670236  0.000000 )
               b(3) = (  0.000000  0.000000  0.460244 )

     PseudoPot. # 1 for Dy read from file:
     /home/cwx6513/pp.La/Dy.UPF
     MD5 check sum: 9597327bec62616a94a14d07f3fd9936
     Pseudo is Norm-conserving, Zval = 20.0
     Generated in analytical, separable form
     Using radial grid of 1265 points,  6 beta functions with:
                l(1) =   0
                l(2) =   0
                l(3) =   1
                l(4) =   1
                l(5) =   2
                l(6) =   3

     PseudoPot. # 2 for Er read from file:
     /home/cwx6513/pp.La/Er.UPF
     MD5 check sum: e152ae21b84514339d8526f066caf99b
     Pseudo is Norm-conserving, Zval = 22.0
     Generated in analytical, separable form
     Using radial grid of 1267 points,  6 beta functions with:
                l(1) =   0
                l(2) =   0
                l(3) =   1
                l(4) =   1
                l(5) =   2
                l(6) =   3

     atomic species   valence    mass     pseudopotential
        Co            20.00    58.93320     Dy( 1.00)
        Si            22.00    28.08550     Er( 1.00)

      8 Sym. Ops., with inversion, found ( 6 have fractional translation)

   Cartesian axes

     site n.     atom                  positions (alat units)
         1           Co  tau(   1) = (   0.8663675   1.2322537   0.9451892  )
         2           Co  tau(   2) = (   0.2887892   0.2597583   1.2275709  )
         3           Co  tau(   3) = (   0.8663675   0.4862477   0.1411908  )
         4           Co  tau(   4) = (   0.2887892   1.0057643   2.0315692  )
         5           Co  tau(   5) = (   0.2887892   0.8041310   0.6081097  )
         6           Co  tau(   6) = (   0.8663675   0.6878810   1.5646503  )
         7           Co  tau(   7) = (   0.2887892   0.0581250   0.4782703  )
         8           Co  tau(   8) = (   0.8663675   1.4338870   1.6944897  )
         9           Si  tau(   9) = (   0.2887892   0.2993172   1.9417279  )
        10           Si  tau(  10) = (   0.8663675   1.1926948   0.2310321  )
        11           Si  tau(  11) = (   0.2887892   1.0453232   1.3174122  )
        12           Si  tau(  12) = (   0.8663675   0.4466888   0.8553479  )

     number of k points=    12  gaussian smearing, width (Ry)=  0.1000
                       cart. coord. in units 2pi/alat
        k(    1) = (   0.0000000   0.0000000   0.0000000), wk =   0.0833333
        k(    2) = (   0.0000000   0.0000000   0.1150610), wk =   0.1666667
        k(    3) = (   0.0000000   0.0000000  -0.2301221), wk =   0.0833333
        k(    4) = (   0.0000000   0.2234120   0.0000000), wk =   0.1666667
        k(    5) = (   0.0000000   0.2234120   0.1150610), wk =   0.3333333
        k(    6) = (   0.0000000   0.2234120  -0.2301221), wk =   0.1666667
        k(    7) = (  -0.4328417   0.0000000   0.0000000), wk =   0.0833333
        k(    8) = (  -0.4328417   0.0000000   0.1150610), wk =   0.1666667
        k(    9) = (  -0.4328417   0.0000000  -0.2301221), wk =   0.0833333
        k(   10) = (  -0.4328417   0.2234120   0.0000000), wk =   0.1666667
        k(   11) = (  -0.4328417   0.2234120   0.1150610), wk =   0.3333333
        k(   12) = (  -0.4328417   0.2234120  -0.2301221), wk =   0.1666667

     Largest allocated arrays     est. size (Mb)     dimensions
     Largest temporary arrays     est. size (Mb)     dimensions

     Initial potential from superposition of free atoms

     Starting from uniform charge
     Starting wfc are    0 randomized atomic wfcs

     Writing output data file Prototype-La-oP12-Co2Si.save

     Self-consistent Calculation

[...]

     iteration #  9     ecut=    40.00 Ry     beta=0.70
     CG style diagonalization
     c_bands:  1 eigenvalues not converged
     c_bands:  1 eigenvalues not converged
     ethr =  2.49E-06,  avg # of iterations =  3.8

     total energy              =   -3397.19035501 Ry
     Harris-Foulkes estimate   =   -3397.19070871 Ry
     estimated scf accuracy    <       0.00055602 Ry

     iteration # 10     ecut=    40.00 Ry     beta=0.70
     CG style diagonalization
     ethr =  2.24E-07,  avg # of iterations =  4.0

     End of self-consistent calculation

[...]

          k = 0.0000 0.2234-0.2301 (  5506 PWs)   bands (ev):

[...]

          k =-0.4328 0.2234-0.2301 (  5536 PWs)   bands (ev):

   -66.9409 -66.9409 -66.9381 -66.9381 -49.2242 -49.2242 -49.2185 -49.2185
   -49.0045 -49.0045 -48.9837 -48.9837 -29.0482 -29.0482 -29.0469 -29.0469
   -29.0319 -29.0319 -29.0263 -29.0263 -28.9276 -28.9276 -28.9270 -28.9270
   -16.4125 -16.4125 -16.3733 -16.3733 -16.3532 -16.3532 -16.3391 -16.3391
   -16.2543 -16.2543 -16.2281 -16.2281 -16.1316 -16.1316 -16.0336 -16.0336
   -16.0234 -16.0234 -15.9927 -15.9927 -15.9405 -15.9405 -15.8873 -15.8873
    16.7721  16.7721  16.8351  16.8351  16.9685  16.9685  17.0535  17.0535
    17.1027  17.1027  17.1286  17.1286  17.2179  17.2179  17.2375  17.2375
    17.5396  17.5396  17.6574  17.6574  21.2721  21.2721  21.6155  21.6155
    22.5882  22.5882  22.8923  22.8923  23.0259  23.0259  23.1225  23.1225
    23.2035  23.2035  23.6804  23.6804  23.7215  23.7215  24.0837  24.0837
    24.1388  24.1388  24.5676  24.5676  24.6636  24.6636  24.9746  24.9746
    25.0166  25.0166  25.3258  25.3258  25.5761  25.5761  26.0450  26.0450
    26.3360  26.3360  26.7147  26.7147  26.9717  26.9717  27.2033  27.2033
    28.9054  28.9054  29.1629  29.1629  31.1663  31.1663  33.9330  33.9330
    35.1333  35.1333  35.2364  35.2364  36.8780  36.8780  37.7322  37.7322
    39.4360  39.4360  40.5340  40.5340  40.9560  40.9560  41.2358  41.2359
    41.4689  41.4689  41.7412  41.7413  42.0032  42.0032  42.1708  42.1709
    42.7680  42.7683  43.0902  43.0905  43.1890

     the Fermi energy is    36.4566 ev

!    total energy              =   -3397.19055070 Ry
     Harris-Foulkes estimate   =   -3397.19059049 Ry
     estimated scf accuracy    <       0.00005121 Ry

     The total energy is the sum of the following terms:

     one-electron contribution =    -429.80802007 Ry
     hartree contribution      =     447.50164645 Ry
     xc contribution           =    -308.16862328 Ry
     ewald contribution        =   -3106.35316050 Ry
     smearing contrib. (-TS)   =      -0.36239330 Ry

     convergence has been achieved in  10 iterations

     Forces acting on atoms (Ry/au):

     atom    1 type  1   force =     0.00000000   -0.02130533   -0.00341881
     atom    2 type  1   force =     0.00000000    0.02130533    0.00341881
     atom    3 type  1   force =     0.00000000   -0.02130533    0.00341881
     atom    4 type  1   force =     0.00000000    0.02130533   -0.00341881
     atom    5 type  1   force =     0.00000000    0.05522280   -0.09252829
     atom    6 type  1   force =     0.00000000   -0.05522280    0.09252829
     atom    7 type  1   force =     0.00000000    0.05522280    0.09252829
     atom    8 type  1   force =     0.00000000   -0.05522280   -0.09252829
     atom    9 type  2   force =     0.00000000   -0.07166000    0.02720814
     atom   10 type  2   force =     0.00000000    0.07166000   -0.02720814
     atom   11 type  2   force =     0.00000000   -0.07166000   -0.02720814
     atom   12 type  2   force =     0.00000000    0.07166000    0.02720814

     Total force =     0.267971     Total SCF correction =     0.000000

     entering subroutine stress ...

          total   stress  (Ry/bohr**3)                   (kbar)     P= 1349.19
   0.01006483   0.00000000   0.00000000       1480.59      0.00      0.00
   0.00000000   0.00845787   0.00000000          0.00   1244.20      0.00
   0.00000000   0.00000000   0.00899218          0.00      0.00   1322.80

     Writing output data file Prototype-La-oP12-Co2Si.save

     General routines

     Parallel routines

   This run was terminated on:   2:42:54  23Mar2018

   JOB DONE.