     Program PWSCF v.5.0.2 starts on 22Mar2018 at 18:45:34

     Current dimensions of program PWSCF are:
     Max number of different atomic species (ntypx) = 10
     Max number of k-points (npk) =  40000
     Max angular momentum in pseudopotentials (lmaxx) =  3
     Waiting for input...
     Reading input from standard input

     Subspace diagonalization in iterative solution of the eigenvalue problem:
     a serial algorithm will be used

     bravais-lattice index     =            0
     lattice parameter (alat)  =      12.0168  a.u.
     unit-cell volume          =    1187.3413 (a.u.)^3
     number of atoms/cell      =            8
     number of atomic types    =            2
     number of electrons       =       124.00
     number of Kohn-Sham states=           74
     kinetic-energy cutoff     =      40.0000  Ry
     charge density cutoff     =     160.0000  Ry
     convergence threshold     =      1.0E-04
     mixing beta               =       0.7000
     number of iterations used =            8  plain     mixing
     Exchange-correlation      = SLA-PZ-NOGX-NOGC ( 1 1 0 0 0)
     EXX-fraction              =        0.00
     nstep                     =           50

     celldm(1)=  12.016801  celldm(2)=   0.000000  celldm(3)=   0.000000
     celldm(4)=   0.000000  celldm(5)=   0.000000  celldm(6)=   0.000000

     crystal axes: (cart. coord. in units of alat)
               a(1) = (   1.000000   0.000000   0.000000 )
               a(2) = (  -0.500000   0.866025   0.000000 )
               a(3) = (   0.000000   0.000000   0.790093 )

     reciprocal axes: (cart. coord. in units 2 pi/alat)
               b(1) = (  1.000000  0.577350  0.000000 )
               b(2) = (  0.000000  1.154701  0.000000 )
               b(3) = (  0.000000  0.000000  1.265674 )

     PseudoPot. # 1 for Sm read from file:
     /home/cwx6513/pp.La/Sm.UPF
     MD5 check sum: 5079e8b144a06bfcdbc14fb02b96ab09
     Pseudo is Norm-conserving, Zval = 16.0
     Generated in analytical, separable form
     Using radial grid of 1259 points,  6 beta functions with:
                l(1) =   0
                l(2) =   0
                l(3) =   1
                l(4) =   1
                l(5) =   2
                l(6) =   3

     PseudoPot. # 2 for Nd read from file:
     /home/cwx6513/pp.La/Nd.UPF
     MD5 check sum: c66c5b6abe7b5840ced9b1e244e3bed6
     Pseudo is Norm-conserving, Zval = 14.0
     Generated in analytical, separable form
     Using radial grid of 1257 points,  6 beta functions with:
                l(1) =   0
                l(2) =   0
                l(3) =   1
                l(4) =   1
                l(5) =   2
                l(6) =   3

     atomic species   valence    mass     pseudopotential
        Mg            16.00    24.30500     Sm( 1.00)
        Cd            14.00   112.41100     Nd( 1.00)

     24 Sym. Ops., with inversion, found (12 have fractional translation)

   Cartesian axes

     site n.     atom                  positions (alat units)
         1           Mg  tau(   1) = (   0.2478935   0.7204716   0.1975233  )
         2           Mg  tau(   2) = (   0.7478935   0.1455538   0.5925699  )
         3           Mg  tau(   3) = (   0.2521065   0.1455538   0.5925699  )
         4           Mg  tau(   4) = (  -0.2478935   0.7204716   0.1975233  )
         5           Mg  tau(   5) = (   0.0000000   0.2911075   0.1975233  )
         6           Mg  tau(   6) = (   0.5000000   0.5749179   0.5925699  )
         7           Cd  tau(   7) = (   0.5000005   0.2886748   0.1975233  )
         8           Cd  tau(   8) = (  -0.0000005   0.5773506   0.5925699  )

     number of k points=    64  gaussian smearing, width (Ry)=  0.1000
                       cart. coord. in units 2pi/alat
        k(    1) = (   0.0000000   0.0000000   0.0000000), wk =   0.0095238
        k(    2) = (   0.0000000   0.0000000   0.1808105), wk =   0.0190476
        k(    3) = (   0.0000000   0.0000000   0.3616210), wk =   0.0190476
        k(    4) = (   0.0000000   0.0000000   0.5424315), wk =   0.0190476
        k(    5) = (   0.0000000   0.1924501   0.0000000), wk =   0.0190476
        k(    6) = (   0.0000000   0.1924501   0.1808105), wk =   0.0380952
        k(    7) = (   0.0000000   0.1924501   0.3616210), wk =   0.0380952
        k(    8) = (   0.0000000   0.1924501   0.5424315), wk =   0.0380952
        k(    9) = (   0.0000000   0.3849002   0.0000000), wk =   0.0190476
        k(   10) = (   0.0000000   0.3849002   0.1808105), wk =   0.0380952
        k(   11) = (   0.0000000   0.3849002   0.3616210), wk =   0.0380952
        k(   12) = (   0.0000000   0.3849002   0.5424315), wk =   0.0380952
        k(   13) = (   0.0000000  -0.5773503   0.0000000), wk =   0.0095238
        k(   14) = (   0.0000000  -0.5773503   0.1808105), wk =   0.0190476
        k(   15) = (   0.0000000  -0.5773503   0.3616210), wk =   0.0190476
        k(   16) = (   0.0000000  -0.5773503   0.5424315), wk =   0.0190476
        k(   17) = (   0.2000000   0.1154701   0.0000000), wk =   0.0190476
        k(   18) = (   0.2000000   0.1154701   0.1808105), wk =   0.0380952
        k(   19) = (   0.2000000   0.1154701   0.3616210), wk =   0.0380952
        k(   20) = (   0.2000000   0.1154701   0.5424315), wk =   0.0380952
        k(   21) = (   0.2000000   0.3079201   0.0000000), wk =   0.0190476
        k(   22) = (   0.2000000   0.3079201   0.1808105), wk =   0.0380952
        k(   23) = (   0.2000000   0.3079201   0.3616210), wk =   0.0380952
        k(   24) = (   0.2000000   0.3079201   0.5424315), wk =   0.0380952
        k(   25) = (   0.2000000   0.5003702   0.0000000), wk =   0.0190476
        k(   26) = (   0.2000000   0.5003702   0.1808105), wk =   0.0380952
        k(   27) = (   0.2000000   0.5003702   0.3616210), wk =   0.0380952
        k(   28) = (   0.2000000   0.5003702   0.5424315), wk =   0.0380952
        k(   29) = (   0.2000000  -0.4618802   0.0000000), wk =   0.0190476
        k(   30) = (   0.2000000  -0.4618802   0.1808105), wk =   0.0380952
        k(   31) = (   0.2000000  -0.4618802   0.3616210), wk =   0.0380952
        k(   32) = (   0.2000000  -0.4618802   0.5424315), wk =   0.0380952
        k(   33) = (   0.2000000  -0.2694301   0.0000000), wk =   0.0190476
        k(   34) = (   0.2000000  -0.2694301   0.1808105), wk =   0.0380952
        k(   35) = (   0.2000000  -0.2694301   0.3616210), wk =   0.0380952
        k(   36) = (   0.2000000  -0.2694301   0.5424315), wk =   0.0380952
        k(   37) = (   0.2000000  -0.0769800   0.0000000), wk =   0.0190476
        k(   38) = (   0.2000000  -0.0769800   0.1808105), wk =   0.0380952
        k(   39) = (   0.2000000  -0.0769800   0.3616210), wk =   0.0380952
        k(   40) = (   0.2000000  -0.0769800   0.5424315), wk =   0.0380952
        k(   41) = (   0.4000000   0.2309401   0.0000000), wk =   0.0190476
        k(   42) = (   0.4000000   0.2309401   0.1808105), wk =   0.0380952
        k(   43) = (   0.4000000   0.2309401   0.3616210), wk =   0.0380952
        k(   44) = (   0.4000000   0.2309401   0.5424315), wk =   0.0380952
        k(   45) = (   0.4000000   0.4233902   0.0000000), wk =   0.0190476
        k(   46) = (   0.4000000   0.4233902   0.1808105), wk =   0.0380952
        k(   47) = (   0.4000000   0.4233902   0.3616210), wk =   0.0380952
        k(   48) = (   0.4000000   0.4233902   0.5424315), wk =   0.0380952
        k(   49) = (   0.4000000   0.6158403   0.0000000), wk =   0.0190476
        k(   50) = (   0.4000000   0.6158403   0.1808105), wk =   0.0380952
        k(   51) = (   0.4000000   0.6158403   0.3616210), wk =   0.0380952
        k(   52) = (   0.4000000   0.6158403   0.5424315), wk =   0.0380952
        k(   53) = (   0.4000000  -0.3464102   0.0000000), wk =   0.0190476
        k(   54) = (   0.4000000  -0.3464102   0.1808105), wk =   0.0380952
        k(   55) = (   0.4000000  -0.3464102   0.3616210), wk =   0.0380952
        k(   56) = (   0.4000000  -0.3464102   0.5424315), wk =   0.0380952
        k(   57) = (   0.4000000  -0.1539601   0.0000000), wk =   0.0190476
        k(   58) = (   0.4000000  -0.1539601   0.1808105), wk =   0.0380952
        k(   59) = (   0.4000000  -0.1539601   0.3616210), wk =   0.0380952
        k(   60) = (   0.4000000  -0.1539601   0.5424315), wk =   0.0380952
        k(   61) = (   0.4000000   0.0384900   0.0000000), wk =   0.0190476
        k(   62) = (   0.4000000   0.0384900   0.1808105), wk =   0.0380952
        k(   63) = (   0.4000000   0.0384900   0.3616210), wk =   0.0380952
        k(   64) = (   0.4000000   0.0384900   0.5424315), wk =   0.0380952

     Largest allocated arrays     est. size (Mb)     dimensions
     Largest temporary arrays     est. size (Mb)     dimensions

     Initial potential from superposition of free atoms

     Starting from uniform charge
     Starting wfc are    0 randomized atomic wfcs

     Self-consistent Calculation

     iteration #  1     ecut=    40.00 Ry     beta=0.70
     CG style diagonalization
     c_bands:  1 eigenvalues not converged
     c_bands:  2 eigenvalues not converged
     c_bands:  2 eigenvalues not converged
     c_bands:  2 eigenvalues not converged
     c_bands:  2 eigenvalues not converged
     c_bands:  5 eigenvalues not converged
     c_bands:  5 eigenvalues not converged
     c_bands:  3 eigenvalues not converged
     c_bands:  1 eigenvalues not converged
     c_bands:  3 eigenvalues not converged
     c_bands:  4 eigenvalues not converged
     c_bands:  1 eigenvalues not converged
     c_bands:  4 eigenvalues not converged
     c_bands:  2 eigenvalues not converged
     c_bands:  3 eigenvalues not converged
     c_bands:  2 eigenvalues not converged
     c_bands:  1 eigenvalues not converged
     c_bands:  4 eigenvalues not converged
     c_bands:  3 eigenvalues not converged
     c_bands:  2 eigenvalues not converged
     c_bands:  5 eigenvalues not converged
     c_bands:  4 eigenvalues not converged
     c_bands:  2 eigenvalues not converged
     c_bands:  3 eigenvalues not converged
     c_bands:  2 eigenvalues not converged
     c_bands:  5 eigenvalues not converged
     c_bands:  2 eigenvalues not converged
     c_bands:  5 eigenvalues not converged
     c_bands:  3 eigenvalues not converged
     c_bands:  4 eigenvalues not converged
     c_bands:  4 eigenvalues not converged
     c_bands:  4 eigenvalues not converged
     c_bands:  1 eigenvalues not converged
     c_bands:  5 eigenvalues not converged
     ethr =  1.00E-02,  avg # of iterations = 12.3

     total energy              =   -1020.03731563 Ry
     Harris-Foulkes estimate   =   -1328.48277885 Ry
     estimated scf accuracy    <     404.75491236 Ry

[...]

     iteration #  4     ecut=    40.00 Ry     beta=0.70
     CG style diagonalization
     ethr =  1.00E-02,  avg # of iterations =  6.2

[...]

     End of self-consistent calculation

          k = 0.0000 0.0000 0.0000 (  5047 PWs)   bands (ev):

   -36.6008 -36.5053 -36.5053 -36.4886 -36.4507 -36.4506 -27.3088 -27.3086
   -12.0742 -12.0726 -11.8909 -11.8243 -11.8242 -11.7745 -11.7744 -11.7520
   -11.7519 -11.5641 -11.4053 -11.4052 -11.3027 -11.3027 -11.3024 -11.2888
[...]
        k(   14) = (   0.0000000  -0.6004116   0.1869075), wk =   0.0190476
        k(   15) = (   0.0000000  -0.6004116   0.3738150), wk =   0.0190476
        k(   16) = (   0.0000000  -0.6004116   0.5607225), wk =   0.0190476
        k(   17) = (   0.2079887   0.1200823   0.0000000), wk =   0.0190476
        k(   18) = (   0.2079887   0.1200823   0.1869075), wk =   0.0380952
        k(   19) = (   0.2079887   0.1200823   0.3738150), wk =   0.0380952
        k(   20) = (   0.2079887   0.1200823   0.5607225), wk =   0.0380952
        k(   21) = (   0.2079887   0.3202195   0.0000000), wk =   0.0190476
        k(   22) = (   0.2079887   0.3202195   0.1869075), wk =   0.0380952
        k(   23) = (   0.2079887   0.3202195   0.3738150), wk =   0.0380952
        k(   24) = (   0.2079887   0.3202195   0.5607225), wk =   0.0380952
        k(   25) = (   0.2079887   0.5203567   0.0000000), wk =   0.0190476
        k(   26) = (   0.2079887   0.5203567   0.1869075), wk =   0.0380952
        k(   27) = (   0.2079887   0.5203567   0.3738150), wk =   0.0380952
        k(   28) = (   0.2079887   0.5203567   0.5607225), wk =   0.0380952
        k(   29) = (   0.2079887  -0.4803293   0.0000000), wk =   0.0190476
        k(   30) = (   0.2079887  -0.4803293   0.1869075), wk =   0.0380952
        k(   31) = (   0.2079887  -0.4803293   0.3738150), wk =   0.0380952
        k(   32) = (   0.2079887  -0.4803293   0.5607225), wk =   0.0380952
        k(   33) = (   0.2079887  -0.2801921   0.0000000), wk =   0.0190476
        k(   34) = (   0.2079887  -0.2801921   0.1869075), wk =   0.0380952
        k(   35) = (   0.2079887  -0.2801921   0.3738150), wk =   0.0380952
        k(   36) = (   0.2079887  -0.2801921   0.5607225), wk =   0.0380952
        k(   37) = (   0.2079887  -0.0800549   0.0000000), wk =   0.0190476
        k(   38) = (   0.2079887  -0.0800549   0.1869075), wk =   0.0380952
        k(   39) = (   0.2079887  -0.0800549   0.3738150), wk =   0.0380952
        k(   40) = (   0.2079887  -0.0800549   0.5607225), wk =   0.0380952
        k(   41) = (   0.4159774   0.2401646   0.0000000), wk =   0.0190476
        k(   42) = (   0.4159774   0.2401646   0.1869075), wk =   0.0380952
        k(   43) = (   0.4159774   0.2401646   0.3738150), wk =   0.0380952
        k(   44) = (   0.4159774   0.2401646   0.5607225), wk =   0.0380952
        k(   45) = (   0.4159774   0.4403018   0.0000000), wk =   0.0190476
        k(   46) = (   0.4159774   0.4403018   0.1869075), wk =   0.0380952
        k(   47) = (   0.4159774   0.4403018   0.3738150), wk =   0.0380952
        k(   48) = (   0.4159774   0.4403018   0.5607225), wk =   0.0380952
        k(   49) = (   0.4159774   0.6404390   0.0000000), wk =   0.0190476
        k(   50) = (   0.4159774   0.6404390   0.1869075), wk =   0.0380952
        k(   51) = (   0.4159774   0.6404390   0.3738150), wk =   0.0380952
        k(   52) = (   0.4159774   0.6404390   0.5607225), wk =   0.0380952
        k(   53) = (   0.4159774  -0.3602470   0.0000000), wk =   0.0190476
        k(   54) = (   0.4159774  -0.3602470   0.1869075), wk =   0.0380952
        k(   55) = (   0.4159774  -0.3602470   0.3738150), wk =   0.0380952
        k(   56) = (   0.4159774  -0.3602470   0.5607225), wk =   0.0380952
        k(   57) = (   0.4159774  -0.1601098   0.0000000), wk =   0.0190476
        k(   58) = (   0.4159774  -0.1601098   0.1869075), wk =   0.0380952
        k(   59) = (   0.4159774  -0.1601098   0.3738150), wk =   0.0380952
        k(   60) = (   0.4159774  -0.1601098   0.5607225), wk =   0.0380952
        k(   61) = (   0.4159774   0.0400274   0.0000000), wk =   0.0190476
        k(   62) = (   0.4159774   0.0400274   0.1869075), wk =   0.0380952
        k(   63) = (   0.4159774   0.0400274   0.3738150), wk =   0.0380952
        k(   64) = (   0.4159774   0.0400274   0.5607225), wk =   0.0380952

[...]

     The maximum number of steps has been reached.

     End of BFGS Geometry Optimization
Begin final coordinates
     new unit-cell volume =   1062.06988 a.u.^3 (   157.38252 Ang^3 )

CELL_PARAMETERS (alat= 12.01680127)
   0.961590813   0.000000000   0.000000000
  -0.480795407   0.832762072   0.000000000
   0.000000000   0.000000000   0.764319978

ATOMIC_POSITIONS (crystal)
Mg       0.664722892   0.832361446   0.250000000
Mg       0.832361446   0.167638554   0.750000000
Mg       0.335277108   0.167638554   0.750000000
Mg       0.167638554   0.832361446   0.250000000
Mg       0.167638554   0.335277108   0.250000000
Mg       0.832361446   0.664722892   0.750000000
Cd       0.666667000   0.333333000   0.250000000
Cd       0.333333000   0.666667000   0.750000000
End final coordinates

     A final scf calculation at the relaxed structure.
     The G-vectors are recalculated for the final unit cell
     Results may differ from those at the preceding step.

     bravais-lattice index     =            0
     lattice parameter (alat)  =      12.0168  a.u.
     unit-cell volume          =    1062.0699 (a.u.)^3
     number of atoms/cell      =            8
     number of atomic types    =            2
     number of electrons       =       124.00
     number of Kohn-Sham states=           74
     kinetic-energy cutoff     =      40.0000  Ry
     charge density cutoff     =     160.0000  Ry
     convergence threshold     =      2.0E-05
     mixing beta               =       0.7000
     number of iterations used =            8  plain     mixing
     Exchange-correlation      = SLA-PZ-NOGX-NOGC ( 1 1 0 0 0)
     EXX-fraction              =        0.00

     celldm(1)=  12.016801  celldm(2)=   0.000000  celldm(3)=   0.000000
     celldm(4)=   0.000000  celldm(5)=   0.000000  celldm(6)=   0.000000

     crystal axes: (cart. coord. in units of alat)
               a(1) = (   0.961591   0.000000   0.000000 )
               a(2) = (  -0.480795   0.832762   0.000000 )
               a(3) = (   0.000000   0.000000   0.764320 )

     reciprocal axes: (cart. coord. in units 2 pi/alat)
               b(1) = (  1.039943  0.600412  0.000000 )
               b(2) = (  0.000000  1.200823  0.000000 )
               b(3) = (  0.000000  0.000000  1.308353 )

     PseudoPot. # 1 for Sm read from file:
     /home/cwx6513/pp.La/Sm.UPF
     MD5 check sum: 5079e8b144a06bfcdbc14fb02b96ab09
     Pseudo is Norm-conserving, Zval = 16.0
     Generated in analytical, separable form
     Using radial grid of 1259 points,  6 beta functions with:
                l(1) =   0
                l(2) =   0
                l(3) =   1
                l(4) =   1
                l(5) =   2
                l(6) =   3

     PseudoPot. # 2 for Nd read from file:
     /home/cwx6513/pp.La/Nd.UPF
     MD5 check sum: c66c5b6abe7b5840ced9b1e244e3bed6
     Pseudo is Norm-conserving, Zval = 14.0
     Generated in analytical, separable form
     Using radial grid of 1257 points,  6 beta functions with:
                l(1) =   0
                l(2) =   0
                l(3) =   1
                l(4) =   1
                l(5) =   2
                l(6) =   3

     atomic species   valence    mass     pseudopotential
        Mg            16.00    24.30500     Sm( 1.00)
        Cd            14.00   112.41100     Nd( 1.00)

     24 Sym. Ops., with inversion, found (12 have fractional translation)

   Cartesian axes

     site n.     atom                  positions (alat units)
         1           Mg  tau(   1) = (   0.2389959   0.6931590   0.1910800  )
         2           Mg  tau(   2) = (   0.7197913   0.1396030   0.5732400  )
         3           Mg  tau(   3) = (   0.2417995   0.1396030   0.5732400  )
         4           Mg  tau(   4) = (  -0.2389959   0.6931590   0.1910800  )
         5           Mg  tau(   5) = (   0.0000000   0.2792061   0.1910800  )
         6           Mg  tau(   6) = (   0.4807954   0.5535560   0.5732400  )
         7           Cd  tau(   7) = (   0.4807959   0.2775871   0.1910800  )
         8           Cd  tau(   8) = (  -0.0000005   0.5551750   0.5732400  )

     number of k points=    64  gaussian smearing, width (Ry)=  0.1000
                       cart. coord. in units 2pi/alat
        k(    1) = (   0.0000000   0.0000000   0.0000000), wk =   0.0095238
        k(    2) = (   0.0000000   0.0000000   0.1869075), wk =   0.0190476
        k(    3) = (   0.0000000   0.0000000   0.3738150), wk =   0.0190476
        k(    4) = (   0.0000000   0.0000000   0.5607225), wk =   0.0190476
        k(    5) = (   0.0000000   0.2001372   0.0000000), wk =   0.0190476
        k(    6) = (   0.0000000   0.2001372   0.1869075), wk =   0.0380952
        k(    7) = (   0.0000000   0.2001372   0.3738150), wk =   0.0380952
        k(    8) = (   0.0000000   0.2001372   0.5607225), wk =   0.0380952
        k(    9) = (   0.0000000   0.4002744   0.0000000), wk =   0.0190476
        k(   10) = (   0.0000000   0.4002744   0.1869075), wk =   0.0380952
        k(   11) = (   0.0000000   0.4002744   0.3738150), wk =   0.0380952
        k(   12) = (   0.0000000   0.4002744   0.5607225), wk =   0.0380952
        k(   13) = (   0.0000000  -0.6004116   0.0000000), wk =   0.0095238
        k(   14) = (   0.0000000  -0.6004116   0.1869075), wk =   0.0190476
        k(   15) = (   0.0000000  -0.6004116   0.3738150), wk =   0.0190476
        k(   16) = (   0.0000000  -0.6004116   0.5607225), wk =   0.0190476
        k(   17) = (   0.2079887   0.1200823   0.0000000), wk =   0.0190476
        k(   18) = (   0.2079887   0.1200823   0.1869075), wk =   0.0380952
        k(   19) = (   0.2079887   0.1200823   0.3738150), wk =   0.0380952
        k(   20) = (   0.2079887   0.1200823   0.5607225), wk =   0.0380952
        k(   21) = (   0.2079887   0.3202195   0.0000000), wk =   0.0190476
        k(   22) = (   0.2079887   0.3202195   0.1869075), wk =   0.0380952
        k(   23) = (   0.2079887   0.3202195   0.3738150), wk =   0.0380952
        k(   24) = (   0.2079887   0.3202195   0.5607225), wk =   0.0380952
        k(   25) = (   0.2079887   0.5203567   0.0000000), wk =   0.0190476
        k(   26) = (   0.2079887   0.5203567   0.1869075), wk =   0.0380952
        k(   27) = (   0.2079887   0.5203567   0.3738150), wk =   0.0380952
        k(   28) = (   0.2079887   0.5203567   0.5607225), wk =   0.0380952
        k(   29) = (   0.2079887  -0.4803293   0.0000000), wk =   0.0190476
        k(   30) = (   0.2079887  -0.4803293   0.1869075), wk =   0.0380952
        k(   31) = (   0.2079887  -0.4803293   0.3738150), wk =   0.0380952
        k(   32) = (   0.2079887  -0.4803293   0.5607225), wk =   0.0380952
        k(   33) = (   0.2079887  -0.2801921   0.0000000), wk =   0.0190476
        k(   34) = (   0.2079887  -0.2801921   0.1869075), wk =   0.0380952
        k(   35) = (   0.2079887  -0.2801921   0.3738150), wk =   0.0380952
        k(   36) = (   0.2079887  -0.2801921   0.5607225), wk =   0.0380952
        k(   37) = (   0.2079887  -0.0800549   0.0000000), wk =   0.0190476
        k(   38) = (   0.2079887  -0.0800549   0.1869075), wk =   0.0380952
        k(   39) = (   0.2079887  -0.0800549   0.3738150), wk =   0.0380952
        k(   40) = (   0.2079887  -0.0800549   0.5607225), wk =   0.0380952
        k(   41) = (   0.4159774   0.2401646   0.0000000), wk =   0.0190476
        k(   42) = (   0.4159774   0.2401646   0.1869075), wk =   0.0380952
        k(   43) = (   0.4159774   0.2401646   0.3738150), wk =   0.0380952
        k(   44) = (   0.4159774   0.2401646   0.5607225), wk =   0.0380952
        k(   45) = (   0.4159774   0.4403018   0.0000000), wk =   0.0190476
        k(   46) = (   0.4159774   0.4403018   0.1869075), wk =   0.0380952
        k(   47) = (   0.4159774   0.4403018   0.3738150), wk =   0.0380952
        k(   48) = (   0.4159774   0.4403018   0.5607225), wk =   0.0380952
        k(   49) = (   0.4159774   0.6404390   0.0000000), wk =   0.0190476
        k(   50) = (   0.4159774   0.6404390   0.1869075), wk =   0.0380952
        k(   51) = (   0.4159774   0.6404390   0.3738150), wk =   0.0380952
        k(   52) = (   0.4159774   0.6404390   0.5607225), wk =   0.0380952
        k(   53) = (   0.4159774  -0.3602470   0.0000000), wk =   0.0190476
        k(   54) = (   0.4159774  -0.3602470   0.1869075), wk =   0.0380952
        k(   55) = (   0.4159774  -0.3602470   0.3738150), wk =   0.0380952
        k(   56) = (   0.4159774  -0.3602470   0.5607225), wk =   0.0380952
        k(   57) = (   0.4159774  -0.1601098   0.0000000), wk =   0.0190476
        k(   58) = (   0.4159774  -0.1601098   0.1869075), wk =   0.0380952
        k(   59) = (   0.4159774  -0.1601098   0.3738150), wk =   0.0380952
        k(   60) = (   0.4159774  -0.1601098   0.5607225), wk =   0.0380952
        k(   61) = (   0.4159774   0.0400274   0.0000000), wk =   0.0190476
        k(   62) = (   0.4159774   0.0400274   0.1869075), wk =   0.0380952
        k(   63) = (   0.4159774   0.0400274   0.3738150), wk =   0.0380952
        k(   64) = (   0.4159774   0.0400274   0.5607225), wk =   0.0380952

     Largest allocated arrays     est. size (Mb)     dimensions
     Largest temporary arrays     est. size (Mb)     dimensions

     Initial potential from superposition of free atoms

     Starting from uniform charge
     Starting wfc are    0 randomized atomic wfcs

     Writing output data file Prototype-La-hP8-Mg3Cd.save

     Self-consistent Calculation

[...]

     negative rho (up, down):  0.227E-06 0.000E+00

[...]

     iteration # 11     ecut=    40.00 Ry     beta=0.70
     CG style diagonalization
     c_bands:  1 eigenvalues not converged
     c_bands:  1 eigenvalues not converged
     c_bands:  1 eigenvalues not converged
     c_bands:  1 eigenvalues not converged
     c_bands:  1 eigenvalues not converged
     c_bands:  1 eigenvalues not converged
     c_bands:  1 eigenvalues not converged
     ethr =  8.37E-07,  avg # of iterations =  4.5

     total energy              =   -1130.69273190 Ry
     Harris-Foulkes estimate   =   -1130.69278113 Ry
     estimated scf accuracy    <       0.00015486 Ry

     iteration # 12     ecut=    40.00 Ry     beta=0.70
     CG style diagonalization
     ethr =  1.25E-07,  avg # of iterations =  3.9

     End of self-consistent calculation

[...]

          k = 0.4160 0.0400 0.5607 (  4533 PWs)   bands (ev):

   -33.6537 -33.6214 -33.5874 -33.5679 -33.5543 -33.5421 -24.1888 -24.1885
    -9.2868  -9.2731  -9.2336  -9.2075  -9.1392  -9.1127  -8.8614  -8.7702
    -8.6863  -8.6688  -8.5805  -8.5210  -8.4609  -8.4434  -8.4144  -8.3649
    -8.3351  -8.3240  -2.4991  -2.4959  -2.4809  -2.4801  -2.4546  -2.4533
    18.1628  18.2482  18.3618  18.5694  18.6519  18.8157  19.1991  19.3167
    19.3596  19.4019  19.5503  19.8353  19.9014  20.0116  20.0920  20.1838
    20.9725  20.9930  21.5816  21.7854  21.8865  21.9562  22.0989  22.1725
    22.3581  22.4785  23.0760  23.2255  23.2586  23.3285  23.6287  23.6885
    24.5290  25.1506  25.4489  25.6778  25.8711  26.0591  26.2131  26.5320
    26.6068  26.8393

     the Fermi energy is    23.8234 ev

!    total energy              =   -1130.69276914 Ry
     Harris-Foulkes estimate   =   -1130.69277197 Ry
     estimated scf accuracy    <       0.00000342 Ry

     The total energy is the sum of the following terms:

     one-electron contribution =     -23.94306377 Ry
     hartree contribution      =     107.95074047 Ry
     xc contribution           =    -124.45408398 Ry
     ewald contribution        =   -1089.77216613 Ry
     smearing contrib. (-TS)   =      -0.47419573 Ry

     convergence has been achieved in  12 iterations

     Forces acting on atoms (Ry/au):

     atom    1 type  1   force =     0.00482454    0.00278545    0.00000000
     atom    2 type  1   force =     0.00482454   -0.00278545    0.00000000
     atom    3 type  1   force =    -0.00482454   -0.00278545    0.00000000
     atom    4 type  1   force =    -0.00482454    0.00278545    0.00000000
     atom    5 type  1   force =     0.00000000   -0.00557090    0.00000000
     atom    6 type  1   force =     0.00000000    0.00557090    0.00000000
     atom    7 type  2   force =     0.00000000    0.00000000    0.00000000
     atom    8 type  2   force =     0.00000000    0.00000000    0.00000000

     Total force =     0.013646     Total SCF correction =     0.000000

     entering subroutine stress ...

          total   stress  (Ry/bohr**3)                   (kbar)     P=  -24.55
  -0.00018862   0.00000000   0.00000000        -27.75      0.00      0.00
   0.00000000  -0.00018862   0.00000000          0.00    -27.75      0.00
   0.00000000   0.00000000  -0.00012333          0.00      0.00    -18.14

     Writing output data file Prototype-La-hP8-Mg3Cd.save

     General routines

     Parallel routines

   This run was terminated on:  19:25: 5  22Mar2018

   JOB DONE.