     Program PWSCF v.5.0.2 starts on 22Mar2018 at 18:43:26

     Current dimensions of program PWSCF are:
     Max number of different atomic species (ntypx) = 10
     Max number of k-points (npk) =  40000
     Max angular momentum in pseudopotentials (lmaxx) =  3
     Waiting for input...
     Reading input from standard input

     Subspace diagonalization in iterative solution of the eigenvalue problem:
     a serial algorithm will be used

     bravais-lattice index     =            0
     lattice parameter (alat)  =       9.9235  a.u.
     unit-cell volume          =    1361.0366 (a.u.)^3
     number of atoms/cell      =           12
     number of atomic types    =            2
     number of electrons       =       176.00
     number of Kohn-Sham states=          106
     kinetic-energy cutoff     =      40.0000  Ry
     charge density cutoff     =     160.0000  Ry
     convergence threshold     =      1.0E-04
     mixing beta               =       0.7000
     number of iterations used =            8  plain     mixing
     Exchange-correlation      = SLA-PZ-NOGX-NOGC ( 1 1 0 0 0)
     EXX-fraction              =        0.00
     nstep                     =           50

     celldm(1)=   9.923489  celldm(2)=   0.000000  celldm(3)=   0.000000
     celldm(4)=   0.000000  celldm(5)=   0.000000  celldm(6)=   0.000000

     crystal axes: (cart. coord. in units of alat)
               a(1) = (   1.000000   0.000000   0.000000 )
               a(2) = (  -0.500000   0.866025   0.000000 )
               a(3) = (   0.000000   0.000000   1.608222 )

     reciprocal axes: (cart. coord. in units 2 pi/alat)
               b(1) = (  1.000000  0.577350  0.000000 )
               b(2) = (  0.000000  1.154701  0.000000 )
               b(3) = (  0.000000  0.000000  0.621805 )

     PseudoPot. # 1 for Sm read from file:
     /home/cwx6513/pp.La/Sm.UPF
     MD5 check sum: 5079e8b144a06bfcdbc14fb02b96ab09
     Pseudo is Norm-conserving, Zval = 16.0
     Generated in analytical, separable form
     Using radial grid of 1259 points,  6 beta functions with:
                l(1) =   0
                l(2) =   0
                l(3) =   1
                l(4) =   1
                l(5) =   2
                l(6) =   3

     PseudoPot. # 2 for Nd read from file:
     /home/cwx6513/pp.La/Nd.UPF
     MD5 check sum: c66c5b6abe7b5840ced9b1e244e3bed6
     Pseudo is Norm-conserving, Zval = 14.0
     Generated in analytical, separable form
     Using radial grid of 1257 points,  6 beta functions with:
                l(1) =   0
                l(2) =   0
                l(3) =   1
                l(4) =   1
                l(5) =   2
                l(6) =   3

     atomic species   valence    mass     pseudopotential
        Mg            16.00    24.30500     Sm( 1.00)
        Zn            14.00    65.39000     Nd( 1.00)

     24 Sym. Ops., with inversion, found (12 have fractional translation)

   Cartesian axes

     site n.     atom                  positions (alat units)
         1           Mg  tau(   1) = (  -0.0000005   0.5773506   0.1003820  )
         2           Mg  tau(   2) = (   0.5000005   0.2886748   0.9044931  )
         3           Mg  tau(   3) = (   0.5000005   0.2886748   1.5078402  )
         4           Mg  tau(   4) = (  -0.0000005   0.5773506   0.7037291  )
         5           Zn  tau(   5) = (   0.0000000   0.0000000   0.0000000  )
         6           Zn  tau(   6) = (   0.0000000   0.0000000   0.8041111  )
         7           Zn  tau(   7) = (   0.0000000   0.2950739   1.2061667  )
         8           Zn  tau(   8) = (   0.7444585   0.1475370   0.4020556  )
         9           Zn  tau(   9) = (   0.2555415   0.1475370   0.4020556  )
        10           Zn  tau(  10) = (   0.2444585   0.7184884   1.2061667  )
        11           Zn  tau(  11) = (  -0.2444585   0.7184884   1.2061667  )
        12           Zn  tau(  12) = (   0.5000000   0.5709515   0.4020556  )

     number of k points=    12  gaussian smearing, width (Ry)=  0.1000
                       cart. coord. in units 2pi/alat
        k(    1) = (   0.0000000   0.0000000   0.0000000), wk =   0.0833333
        k(    2) = (   0.0000000   0.0000000   0.1554512), wk =   0.1666667
        k(    3) = (   0.0000000   0.0000000  -0.3109023), wk =   0.0833333
        k(    4) = (   0.0000000   0.3849002   0.0000000), wk =   0.1666667
        k(    5) = (   0.0000000   0.3849002   0.1554512), wk =   0.3333333
        k(    6) = (   0.0000000   0.3849002  -0.3109023), wk =   0.1666667
        k(    7) = (  -0.5000000  -0.2886751   0.0000000), wk =   0.0833333
        k(    8) = (  -0.5000000  -0.2886751   0.1554512), wk =   0.1666667
        k(    9) = (  -0.5000000  -0.2886751  -0.3109023), wk =   0.0833333
        k(   10) = (  -0.5000000   0.0962250   0.0000000), wk =   0.1666667
        k(   11) = (  -0.5000000   0.0962250   0.1554512), wk =   0.3333333
        k(   12) = (  -0.5000000   0.0962250  -0.3109023), wk =   0.1666667

     Largest allocated arrays     est. size (Mb)     dimensions
     Largest temporary arrays     est. size (Mb)     dimensions

     Initial potential from superposition of free atoms

     Starting from uniform charge
     Starting wfc are    0 randomized atomic wfcs

     Self-consistent Calculation

     iteration #  1     ecut=    40.00 Ry     beta=0.70
     CG style diagonalization
     c_bands:  1 eigenvalues not converged
     c_bands:  1 eigenvalues not converged
     c_bands:  1 eigenvalues not converged
     ethr =  1.00E-02,  avg # of iterations = 11.5

     total energy              =   -1402.87004325 Ry
     Harris-Foulkes estimate   =   -1646.19076812 Ry
     estimated scf accuracy    <     328.94542445 Ry

     iteration #  2     ecut=    40.00 Ry     beta=0.70
     CG style diagonalization
     ethr =  1.00E-02,  avg # of iterations =  6.6

[...]

     End of self-consistent calculation

          k = 0.0000 0.0000 0.0000 (  5769 PWs)   bands (ev):

   -28.8398 -28.8135 -28.7739 -28.7487 -20.8382 -20.5215 -19.6312 -19.2890
   -19.2890 -19.2831 -19.2830 -19.2290  -4.2580  -4.2580  -4.2289  -4.1970
    -4.1653  -4.1652  -3.9922  -3.9662  -3.9662  -3.9149  -3.8995  -3.8995
    -2.6631  -1.8664  -0.8858   0.2246   0.2246   0.4517   0.4517   0.6056
     0.6057   1.2502   2.0269   2.0269   2.1010   2.1011   2.3756   3.6049
     3.6069   3.6679   3.6680   3.6799   4.0142   4.0143   4.1857   4.1857
    19.8137  20.8195  20.8540  22.1605  22.1605  22.6021  22.6766  22.6766
    22.7326  23.0167  23.0511  23.0512  23.2266  23.2266  23.3100  23.3100
    23.3692  23.7412  24.2048  24.2048  24.8817  24.8818  25.3872  25.8008
    25.8008  26.3037  26.3037  26.3572  26.4377  26.4377  26.5347  26.5347
    26.8994  26.8994  27.1897  27.1897  27.6771  27.6771  28.1620  28.7553
    29.4109  29.7810  30.0486  30.0486  30.1860  30.5600  30.5600  30.7248
    31.3134  31.3718  31.3718  31.7815  31.7816  31.9669  31.9670  33.0869
    33.0871  33.3754

[...]

          k =-0.5000-0.2887 0.0000 (  5800 PWs)   bands (ev):

[...]

     the Fermi energy is    28.6591 ev

!    total energy              =   -1488.38755529 Ry
     Harris-Foulkes estimate   =   -1488.38763007 Ry
     estimated scf accuracy    <       0.00008256 Ry

     The total energy is the sum of the following terms:

     one-electron contribution =     110.07798623 Ry
     hartree contribution      =     112.03977549 Ry
     xc contribution           =    -174.65905877 Ry
     ewald contribution        =   -1535.24094560 Ry
     smearing contrib. (-TS)   =      -0.60531264 Ry

     convergence has been achieved in  10 iterations

     Forces acting on atoms (Ry/au):

     atom    1 type  1   force =     0.00000000    0.00000000    0.01099905
     atom    2 type  1   force =     0.00000000    0.00000000    0.01099905
     atom    3 type  1   force =     0.00000000    0.00000000   -0.01099905
     atom    4 type  1   force =     0.00000000    0.00000000   -0.01099905
     atom    5 type  2   force =     0.00000000    0.00000000    0.00000000
     atom    6 type  2   force =     0.00000000    0.00000000    0.00000000
     atom    7 type  2   force =     0.00000000    0.04530273    0.00000000
     atom    8 type  2   force =    -0.03923331    0.02265136    0.00000000
     atom    9 type  2   force =     0.03923331    0.02265136    0.00000000
     atom   10 type  2   force =    -0.03923331   -0.02265136    0.00000000
     atom   11 type  2   force =     0.03923331   -0.02265136    0.00000000
     atom   12 type  2   force =     0.00000000   -0.04530273    0.00000000

     Total force =     0.113128     Total SCF correction =     0.000000

     entering subroutine stress ...

          total   stress  (Ry/bohr**3)                   (kbar)     P=  859.59
   0.00589293   0.00000000   0.00000000        866.88      0.00      0.00
   0.00000000   0.00589293   0.00000000          0.00    866.88      0.00
   0.00000000   0.00000000   0.00574424          0.00      0.00    845.01

     BFGS Geometry Optimization

     number of scf cycles    =   1
     number of bfgs steps    =   0

     enthalpy new            =   -1488.3875552914 Ry

     new trust radius        =       0.5000000000 bohr
     new conv_thr            =       0.0001000000 Ry

     new unit-cell volume =   1654.24869 a.u.^3 (   245.13436 Ang^3 )

CELL_PARAMETERS (alat=  9.92348860)
   1.067764947   0.000000000   0.000000000
  -0.533882474   0.924711570   0.000000000
   0.000000000   0.000000000   1.714453551

ATOMIC_POSITIONS (crystal)
Mg       0.333333000   0.666667000   0.062735014
Mg       0.666667000   0.333333000   0.562735014
Mg       0.666667000   0.333333000   0.937264986
Mg       0.333333000   0.666667000   0.437264986
Zn       0.000000000   0.000000000   0.000000000
Zn       0.000000000   0.000000000   0.500000000
Zn       0.171573364   0.343146727   0.750000000
Zn       0.828426636   0.171573364   0.250000000
Zn       0.343146727   0.171573364   0.250000000
Zn       0.656853273   0.828426636   0.750000000
Zn       0.171573364   0.828426636   0.750000000
Zn       0.828426636   0.656853273   0.250000000

     Writing output data file Prototype-La-hP12-MgZn2.save
     NEW-OLD atomic charge density approx. for the potential
     NEW k-points:
        k(    1) = (   0.0000000   0.0000000   0.0000000), wk =   0.0833333
        k(    2) = (   0.0000000   0.0000000   0.1458191), wk =   0.1666667
        k(    3) = (   0.0000000   0.0000000  -0.2916381), wk =   0.0833333
        k(    4) = (   0.0000000   0.3604728   0.0000000), wk =   0.1666667
        k(    5) = (   0.0000000   0.3604728   0.1458191), wk =   0.3333333
        k(    6) = (   0.0000000   0.3604728  -0.2916381), wk =   0.1666667
        k(    7) = (  -0.4682679  -0.2703546   0.0000000), wk =   0.0833333
        k(    8) = (  -0.4682679  -0.2703546   0.1458191), wk =   0.1666667
        k(    9) = (  -0.4682679  -0.2703546  -0.2916381), wk =   0.0833333
        k(   10) = (  -0.4682679   0.0901182   0.0000000), wk =   0.1666667
        k(   11) = (  -0.4682679   0.0901182   0.1458191), wk =   0.3333333
        k(   12) = (  -0.4682679   0.0901182  -0.2916381), wk =   0.1666667

[...]

     enthalpy old            =   -1488.3875552914 Ry
     enthalpy new            =   -1489.0920254774 Ry

     CASE: enthalpy_new < enthalpy_old

     small trust_radius: resetting bfgs history

[...]

     number of scf cycles    =   3
     number of bfgs steps    =   2

     enthalpy old            =   -1489.0920254774 Ry
     enthalpy new            =   -1489.0958902676 Ry

     CASE: enthalpy_new < enthalpy_old

     Message from routine bfgs:
     history already reset at previous step: stopping
     small trust_radius: resetting bfgs history

     new trust radius        =       0.0360095264 bohr
     new conv_thr            =       0.0000061051 Ry

     new unit-cell volume =   1639.60728 a.u.^3 (   242.96473 Ang^3 )

[...]

ATOMIC_POSITIONS (crystal)
Mg       0.333333000   0.666667000   0.063763680
Mg       0.666667000   0.333333000   0.563763680
Mg       0.666667000   0.333333000   0.936236320
Mg       0.333333000   0.666667000   0.436236320
Zn       0.000000000   0.000000000   0.000000000
Zn       0.000000000   0.000000000   0.500000000
Zn       0.172011543   0.344023086   0.750000000
Zn       0.827988457   0.172011543   0.250000000
Zn       0.344023086   0.172011543   0.250000000
Zn       0.655976914   0.827988457   0.750000000
Zn       0.172011543   0.827988457   0.750000000
Zn       0.827988457   0.655976914   0.250000000

     Writing output data file Prototype-La-hP12-MgZn2.save
     NEW-OLD atomic charge density approx. for the potential
     NEW k-points:
        k(    1) = (   0.0000000   0.0000000   0.0000000), wk =   0.0833333
        k(    2) = (   0.0000000   0.0000000   0.1467662), wk =   0.1666667
        k(    3) = (   0.0000000   0.0000000  -0.2935325), wk =   0.0833333
        k(    4) = (   0.0000000   0.3609084   0.0000000), wk =   0.1666667
        k(    5) = (   0.0000000   0.3609084   0.1467662), wk =   0.3333333
        k(    6) = (   0.0000000   0.3609084  -0.2935325), wk =   0.1666667
        k(    7) = (  -0.4688338  -0.2706813   0.0000000), wk =   0.0833333
        k(    8) = (  -0.4688338  -0.2706813   0.1467662), wk =   0.1666667
        k(    9) = (  -0.4688338  -0.2706813  -0.2935325), wk =   0.0833333
        k(   10) = (  -0.4688338   0.0902271   0.0000000), wk =   0.1666667
        k(   11) = (  -0.4688338   0.0902271   0.1467662), wk =   0.3333333
        k(   12) = (  -0.4688338   0.0902271  -0.2935325), wk =   0.1666667

[...]

     The maximum number of steps has been reached.

     End of BFGS Geometry Optimization
Begin final coordinates
     new unit-cell volume =   1639.60728 a.u.^3 (   242.96473 Ang^3 )

CELL_PARAMETERS (alat=  9.92348860)
   1.066476072   0.000000000   0.000000000
  -0.533238036   0.923595371   0.000000000
   0.000000000   0.000000000   1.703389039

ATOMIC_POSITIONS (crystal)
Mg       0.333333000   0.666667000   0.063763680
Mg       0.666667000   0.333333000   0.563763680
Mg       0.666667000   0.333333000   0.936236320
Mg       0.333333000   0.666667000   0.436236320
Zn       0.000000000   0.000000000   0.000000000
Zn       0.000000000   0.000000000   0.500000000
Zn       0.172011543   0.344023086   0.750000000
Zn       0.827988457   0.172011543   0.250000000
Zn       0.344023086   0.172011543   0.250000000
Zn       0.655976914   0.827988457   0.750000000
Zn       0.172011543   0.827988457   0.750000000
Zn       0.827988457   0.655976914   0.250000000
End final coordinates

     A final scf calculation at the relaxed structure.
     The G-vectors are recalculated for the final unit cell
     Results may differ from those at the preceding step.

     bravais-lattice index     =            0
     lattice parameter (alat)  =       9.9235  a.u.
     unit-cell volume          =    1639.6073 (a.u.)^3
     number of atoms/cell      =           12
     number of atomic types    =            2
     number of electrons       =       176.00
     number of Kohn-Sham states=          106
     kinetic-energy cutoff     =      40.0000  Ry
     charge density cutoff     =     160.0000  Ry
     convergence threshold     =      6.1E-06
     mixing beta               =       0.7000
     number of iterations used =            8  plain     mixing
     Exchange-correlation      = SLA-PZ-NOGX-NOGC ( 1 1 0 0 0)
     EXX-fraction              =        0.00

     celldm(1)=   9.923489  celldm(2)=   0.000000  celldm(3)=   0.000000
     celldm(4)=   0.000000  celldm(5)=   0.000000  celldm(6)=   0.000000

     crystal axes: (cart. coord. in units of alat)
               a(1) = (   1.066476   0.000000   0.000000 )
               a(2) = (  -0.533238   0.923595   0.000000 )
               a(3) = (   0.000000   0.000000   1.703389 )

     reciprocal axes: (cart. coord. in units 2 pi/alat)
               b(1) = (  0.937668  0.541363  0.000000 )
               b(2) = (  0.000000  1.082725  0.000000 )
               b(3) = (  0.000000  0.000000  0.587065 )

     PseudoPot. # 1 for Sm read from file:
     /home/cwx6513/pp.La/Sm.UPF
     MD5 check sum: 5079e8b144a06bfcdbc14fb02b96ab09
     Pseudo is Norm-conserving, Zval = 16.0
     Generated in analytical, separable form
     Using radial grid of 1259 points,  6 beta functions with:
                l(1) =   0
                l(2) =   0
                l(3) =   1
                l(4) =   1
                l(5) =   2
                l(6) =   3

     PseudoPot. # 2 for Nd read from file:
     /home/cwx6513/pp.La/Nd.UPF
     MD5 check sum: c66c5b6abe7b5840ced9b1e244e3bed6
     Pseudo is Norm-conserving, Zval = 14.0
     Generated in analytical, separable form
     Using radial grid of 1257 points,  6 beta functions with:
                l(1) =   0
                l(2) =   0
                l(3) =   1
                l(4) =   1
                l(5) =   2
                l(6) =   3

     atomic species   valence    mass     pseudopotential
        Mg            16.00    24.30500     Sm( 1.00)
        Zn            14.00    65.39000     Nd( 1.00)

     24 Sym. Ops., with inversion, found (12 have fractional translation)

   Cartesian axes

     site n.     atom                  positions (alat units)
         1           Mg  tau(   1) = (  -0.0000005   0.6157306   0.1086144  )
         2           Mg  tau(   2) = (   0.5332386   0.3078648   0.9603089  )
         3           Mg  tau(   3) = (   0.5332386   0.3078648   1.5947747  )
         4           Mg  tau(   4) = (  -0.0000005   0.6157306   0.7430802  )
         5           Zn  tau(   5) = (   0.0000000   0.0000000   0.0000000  )
         6           Zn  tau(   6) = (   0.0000000   0.0000000   0.8516945  )
         7           Zn  tau(   7) = (   0.0000000   0.3177381   1.2775418  )
         8           Zn  tau(   8) = (   0.7913068   0.1588691   0.4258473  )
         9           Zn  tau(   9) = (   0.2751693   0.1588691   0.4258473  )
        10           Zn  tau(  10) = (   0.2580687   0.7647263   1.2775418  )
        11           Zn  tau(  11) = (  -0.2580687   0.7647263   1.2775418  )
        12           Zn  tau(  12) = (   0.5332380   0.6058572   0.4258473  )

     number of k points=    12  gaussian smearing, width (Ry)=  0.1000
                       cart. coord. in units 2pi/alat
        k(    1) = (   0.0000000   0.0000000   0.0000000), wk =   0.0833333
        k(    2) = (   0.0000000   0.0000000   0.1467662), wk =   0.1666667
        k(    3) = (   0.0000000   0.0000000  -0.2935325), wk =   0.0833333
        k(    4) = (   0.0000000   0.3609084   0.0000000), wk =   0.1666667
        k(    5) = (   0.0000000   0.3609084   0.1467662), wk =   0.3333333
        k(    6) = (   0.0000000   0.3609084  -0.2935325), wk =   0.1666667
        k(    7) = (  -0.4688338  -0.2706813   0.0000000), wk =   0.0833333
        k(    8) = (  -0.4688338  -0.2706813   0.1467662), wk =   0.1666667
        k(    9) = (  -0.4688338  -0.2706813  -0.2935325), wk =   0.0833333
        k(   10) = (  -0.4688338   0.0902271   0.0000000), wk =   0.1666667
        k(   11) = (  -0.4688338   0.0902271   0.1467662), wk =   0.3333333
        k(   12) = (  -0.4688338   0.0902271  -0.2935325), wk =   0.1666667

     Largest allocated arrays     est. size (Mb)     dimensions
     Largest temporary arrays     est. size (Mb)     dimensions

     Initial potential from superposition of free atoms

     Starting from uniform charge
     Starting wfc are    0 randomized atomic wfcs

     Writing output data file Prototype-La-hP12-MgZn2.save

     Self-consistent Calculation

[...]

     iteration # 11     ecut=    40.00 Ry     beta=0.70
     CG style diagonalization
     c_bands:  1 eigenvalues not converged
     c_bands:  1 eigenvalues not converged
     ethr =  9.48E-08,  avg # of iterations =  3.7

     total energy              =   -1489.52769531 Ry
     Harris-Foulkes estimate   =   -1489.52770361 Ry
     estimated scf accuracy    <       0.00002441 Ry

     iteration # 12     ecut=    40.00 Ry     beta=0.70
     CG style diagonalization
     ethr =  1.39E-08,  avg # of iterations =  3.9

     End of self-consistent calculation

[...]

          k = 0.0000 0.3609-0.2935 (  6998 PWs)   bands (ev):

[...]

          k =-0.4688 0.0902-0.2935 (  7006 PWs)   bands (ev):

   -34.1732 -34.1732 -34.1585 -34.1585 -25.2985 -25.2985 -25.0769 -25.0769
   -24.7380 -24.7380 -24.6684 -24.6684  -9.4032  -9.4032  -9.3632  -9.3632
    -9.3095  -9.3095  -9.2375  -9.2374  -9.1884  -9.1883  -9.1822  -9.1822
    -5.3063  -5.3063  -4.5842  -4.5842  -4.0246  -4.0246  -3.9537  -3.9537
    -3.8041  -3.8041  -3.6118  -3.6118  -3.1943  -3.1943  -2.8616  -2.8616
    -2.6154  -2.6154  -2.4529  -2.4529  -2.0977  -2.0977  -2.0188  -2.0188
    17.5516  17.5516  17.9143  17.9143  18.3565  18.3565  18.6519  18.6519
    18.7786  18.7786  18.9417  18.9417  19.1454  19.1454  19.3884  19.3884
    19.4533  19.4533  19.7625  19.7625  20.0057  20.0057  20.4066  20.4066
    20.7523  20.7523  20.8446  20.8446  21.2926  21.2926  21.7783  21.7783
    22.0586  22.0586  22.1610  22.1610  22.5551  22.5551  22.9873  22.9873
    23.1005  23.1005  23.2935  23.2935  23.8623  23.8623  24.3063  24.3063
    24.6143  24.6143  24.8303  24.8303  25.0625  25.0625  25.5967  25.5972
    25.9058  25.9070

     the Fermi energy is    23.0653 ev

!    total energy              =   -1489.52770012 Ry
     Harris-Foulkes estimate   =   -1489.52770319 Ry
     estimated scf accuracy    <       0.00000340 Ry

     The total energy is the sum of the following terms:

     one-electron contribution =     -13.73158701 Ry
     hartree contribution      =     139.03638750 Ry
     xc contribution           =    -170.87517537 Ry
     ewald contribution        =   -1443.19949843 Ry
     smearing contrib. (-TS)   =      -0.75782681 Ry

     convergence has been achieved in  12 iterations

     Forces acting on atoms (Ry/au):

     atom    1 type  1   force =     0.00000000    0.00000000    0.00645164
     atom    2 type  1   force =     0.00000000    0.00000000    0.00645164
     atom    3 type  1   force =     0.00000000    0.00000000   -0.00645164
     atom    4 type  1   force =     0.00000000    0.00000000   -0.00645164
     atom    5 type  2   force =     0.00000000    0.00000000    0.00000000
     atom    6 type  2   force =     0.00000000    0.00000000    0.00000000
     atom    7 type  2   force =     0.00000000   -0.00286062    0.00000000
     atom    8 type  2   force =     0.00247737   -0.00143031    0.00000000
     atom    9 type  2   force =    -0.00247737   -0.00143031    0.00000000
     atom   10 type  2   force =     0.00247737    0.00143031    0.00000000
     atom   11 type  2   force =    -0.00247737    0.00143031    0.00000000
     atom   12 type  2   force =     0.00000000    0.00286062    0.00000000

     Total force =     0.014683     Total SCF correction =     0.000000

     entering subroutine stress ...

          total   stress  (Ry/bohr**3)                   (kbar)     P=  123.80
   0.00088295   0.00000000   0.00000000        129.89      0.00      0.00
   0.00000000   0.00088295   0.00000000          0.00    129.89      0.00
   0.00000000   0.00000000   0.00075875          0.00      0.00    111.62

     Writing output data file Prototype-La-hP12-MgZn2.save

     General routines

     Parallel routines

   This run was terminated on:  19: 2:47  22Mar2018

   JOB DONE.