     Program PWSCF v.5.0.2 starts on 22Mar2018 at 18:45:32

     Current dimensions of program PWSCF are:
     Max number of different atomic species (ntypx) = 10
     Max number of k-points (npk) =  40000
     Max angular momentum in pseudopotentials (lmaxx) =  3
     Waiting for input...
     Reading input from standard input

     Subspace diagonalization in iterative solution of the eigenvalue problem:
     a serial algorithm will be used

     bravais-lattice index     =            0
     lattice parameter (alat)  =       8.5346  a.u.
     unit-cell volume          =     621.6493 (a.u.)^3
     number of atoms/cell      =            8
     number of atomic types    =            2
     number of electrons       =       124.00
     number of Kohn-Sham states=           74
     kinetic-energy cutoff     =      40.0000  Ry
     charge density cutoff     =     160.0000  Ry
     convergence threshold     =      1.0E-04
     mixing beta               =       0.7000
     number of iterations used =            8  plain     mixing
     Exchange-correlation      = SLA-PZ-NOGX-NOGC ( 1 1 0 0 0)
     EXX-fraction              =        0.00
     nstep                     =           50

     celldm(1)=   8.534573  celldm(2)=   0.000000  celldm(3)=   0.000000
     celldm(4)=   0.000000  celldm(5)=   0.000000  celldm(6)=   0.000000

     crystal axes: (cart. coord. in units of alat)
               a(1) = (   1.000000   0.000000   0.000000 )
               a(2) = (   0.000000   1.000000   0.000000 )
               a(3) = (   0.000000   0.000000   1.000000 )

     reciprocal axes: (cart. coord. in units 2 pi/alat)
               b(1) = (  1.000000  0.000000  0.000000 )
               b(2) = (  0.000000  1.000000  0.000000 )
               b(3) = (  0.000000  0.000000  1.000000 )

     PseudoPot. # 1 for Sm read from file:
     /home/cwx6513/pp.La/Sm.UPF
     MD5 check sum: 5079e8b144a06bfcdbc14fb02b96ab09
     Pseudo is Norm-conserving, Zval = 16.0
     Generated in analytical, separable form
     Using radial grid of 1259 points,  6 beta functions with:
                l(1) =   0
                l(2) =   0
                l(3) =   1
                l(4) =   1
                l(5) =   2
                l(6) =   3

     PseudoPot. # 2 for Nd read from file:
     /home/cwx6513/pp.La/Nd.UPF
     MD5 check sum: c66c5b6abe7b5840ced9b1e244e3bed6
     Pseudo is Norm-conserving, Zval = 14.0
     Generated in analytical, separable form
     Using radial grid of 1257 points,  6 beta functions with:
                l(1) =   0
                l(2) =   0
                l(3) =   1
                l(4) =   1
                l(5) =   2
                l(6) =   3

     atomic species   valence    mass     pseudopotential
        Cr            16.00    51.99610     Sm( 1.00)
        Si            14.00    28.08550     Nd( 1.00)

     48 Sym. Ops., with inversion, found (24 have fractional translation)

   Cartesian axes

     site n.     atom                  positions (alat units)
         1           Cr  tau(   1) = (   0.0000000   0.5000000   0.2500000  )
         2           Cr  tau(   2) = (   0.0000000   0.5000000   0.7500000  )
         3           Cr  tau(   3) = (   0.5000000   0.7500000   0.0000000  )
         4           Cr  tau(   4) = (   0.5000000   0.2500000   0.0000000  )
         5           Cr  tau(   5) = (   0.7500000   0.0000000   0.5000000  )
         6           Cr  tau(   6) = (   0.2500000   0.0000000   0.5000000  )
         7           Si  tau(   7) = (   0.5000000   0.5000000   0.5000000  )
         8           Si  tau(   8) = (   0.0000000   0.0000000   0.0000000  )

     number of k points=    48  gaussian smearing, width (Ry)=  0.1000
                       cart. coord. in units 2pi/alat
        k(    1) = (   0.0000000   0.0000000   0.0000000), wk =   0.0095238
        k(    2) = (   0.0000000   0.0000000   0.1428571), wk =   0.0190476
        k(    3) = (   0.0000000   0.0000000   0.2857143), wk =   0.0190476
        k(    4) = (   0.0000000   0.0000000   0.4285714), wk =   0.0190476
        k(    5) = (   0.0000000   0.1666667   0.0000000), wk =   0.0190476
        k(    6) = (   0.0000000   0.1666667   0.1428571), wk =   0.0380952
        k(    7) = (   0.0000000   0.1666667   0.2857143), wk =   0.0380952
        k(    8) = (   0.0000000   0.1666667   0.4285714), wk =   0.0380952
        k(    9) = (   0.0000000   0.3333333   0.0000000), wk =   0.0190476
        k(   10) = (   0.0000000   0.3333333   0.1428571), wk =   0.0380952
        k(   11) = (   0.0000000   0.3333333   0.2857143), wk =   0.0380952
        k(   12) = (   0.0000000   0.3333333   0.4285714), wk =   0.0380952
        k(   13) = (   0.0000000  -0.5000000   0.0000000), wk =   0.0095238
        k(   14) = (   0.0000000  -0.5000000   0.1428571), wk =   0.0190476
        k(   15) = (   0.0000000  -0.5000000   0.2857143), wk =   0.0190476
        k(   16) = (   0.0000000  -0.5000000   0.4285714), wk =   0.0190476
        k(   17) = (   0.2000000   0.0000000   0.0000000), wk =   0.0190476
        k(   18) = (   0.2000000   0.0000000   0.1428571), wk =   0.0380952
        k(   19) = (   0.2000000   0.0000000   0.2857143), wk =   0.0380952
        k(   20) = (   0.2000000   0.0000000   0.4285714), wk =   0.0380952
        k(   21) = (   0.2000000   0.1666667   0.0000000), wk =   0.0380952
        k(   22) = (   0.2000000   0.1666667   0.1428571), wk =   0.0761905
        k(   23) = (   0.2000000   0.1666667   0.2857143), wk =   0.0761905
        k(   24) = (   0.2000000   0.1666667   0.4285714), wk =   0.0761905
        k(   25) = (   0.2000000   0.3333333   0.0000000), wk =   0.0380952
        k(   26) = (   0.2000000   0.3333333   0.1428571), wk =   0.0761905
        k(   27) = (   0.2000000   0.3333333   0.2857143), wk =   0.0761905
        k(   28) = (   0.2000000   0.3333333   0.4285714), wk =   0.0761905
        k(   29) = (   0.2000000  -0.5000000   0.0000000), wk =   0.0190476
        k(   30) = (   0.2000000  -0.5000000   0.1428571), wk =   0.0380952
        k(   31) = (   0.2000000  -0.5000000   0.2857143), wk =   0.0380952
        k(   32) = (   0.2000000  -0.5000000   0.4285714), wk =   0.0380952
        k(   33) = (   0.4000000   0.0000000   0.0000000), wk =   0.0190476
        k(   34) = (   0.4000000   0.0000000   0.1428571), wk =   0.0380952
        k(   35) = (   0.4000000   0.0000000   0.2857143), wk =   0.0380952
        k(   36) = (   0.4000000   0.0000000   0.4285714), wk =   0.0380952
        k(   37) = (   0.4000000   0.1666667   0.0000000), wk =   0.0380952
        k(   38) = (   0.4000000   0.1666667   0.1428571), wk =   0.0761905
        k(   39) = (   0.4000000   0.1666667   0.2857143), wk =   0.0761905
        k(   40) = (   0.4000000   0.1666667   0.4285714), wk =   0.0761905
        k(   41) = (   0.4000000   0.3333333   0.0000000), wk =   0.0380952
        k(   42) = (   0.4000000   0.3333333   0.1428571), wk =   0.0761905
        k(   43) = (   0.4000000   0.3333333   0.2857143), wk =   0.0761905
        k(   44) = (   0.4000000   0.3333333   0.4285714), wk =   0.0761905
        k(   45) = (   0.4000000  -0.5000000   0.0000000), wk =   0.0190476
        k(   46) = (   0.4000000  -0.5000000   0.1428571), wk =   0.0380952
        k(   47) = (   0.4000000  -0.5000000   0.2857143), wk =   0.0380952
        k(   48) = (   0.4000000  -0.5000000   0.4285714), wk =   0.0380952

     Largest allocated arrays     est. size (Mb)     dimensions
     Largest temporary arrays     est. size (Mb)     dimensions

     Initial potential from superposition of free atoms

     Starting from uniform charge
     Starting wfc are    0 randomized atomic wfcs

     Self-consistent Calculation

     iteration #  1     ecut=    40.00 Ry     beta=0.70
     CG style diagonalization
     c_bands:  1 eigenvalues not converged
     ethr =  1.00E-02,  avg # of iterations = 10.8

     total energy              =   -1063.70481405 Ry
     Harris-Foulkes estimate   =   -1204.21953273 Ry
     estimated scf accuracy    <     188.39842322 Ry

     iteration #  2     ecut=    40.00 Ry     beta=0.70
     CG style diagonalization
     ethr =  1.00E-02,  avg # of iterations =  7.4

[...]

     End of self-consistent calculation

          k = 0.0000 0.0000 0.0000 (  2601 PWs)   bands (ev):

   -17.0304 -16.1796 -16.1796 -14.5880 -14.5880 -14.5880  -5.4820  -5.0694
     4.0674   4.0674   5.2272   6.4583   6.4583   6.4583   8.9101   8.9101
     8.9101   9.1078   9.1078   9.1078  10.0112  10.0112  10.0112  12.6593
    12.6593  12.6593  16.3173  16.3173  16.3173  16.5413  16.5413  16.5413
    32.4648  32.4648  32.4648  32.7401  32.7401  32.8571  33.7515  35.4954
    35.4954  35.4954  36.3013  36.3013  36.7098  37.5039  37.5828  37.5828
    37.5828  39.5905  39.5905  39.8341  39.8341  39.8341  41.3719  41.3719
    41.3719  42.7447  42.7447  42.7447  42.7833  42.7833  42.7833  44.0847
    44.0847  44.6514  44.6514  45.7804  45.7804  45.7804  49.9962  49.9962
    49.9958  50.0417

[...]

     the Fermi energy is    43.9767 ev

!    total energy              =   -1125.04717136 Ry
     Harris-Foulkes estimate   =   -1125.04718017 Ry
     estimated scf accuracy    <       0.00001211 Ry

     The total energy is the sum of the following terms:

     one-electron contribution =     254.48509872 Ry
     hartree contribution      =      54.57533882 Ry
     xc contribution           =    -133.79286336 Ry
     ewald contribution        =   -1300.01185429 Ry
     smearing contrib. (-TS)   =      -0.30289123 Ry

     convergence has been achieved in   8 iterations

     Forces acting on atoms (Ry/au):

     atom    1 type  1   force =     0.00000000    0.00000000    0.00000000
     atom    2 type  1   force =     0.00000000    0.00000000    0.00000000
     atom    3 type  1   force =     0.00000000    0.00000000    0.00000000
     atom    4 type  1   force =     0.00000000    0.00000000    0.00000000
     atom    5 type  1   force =     0.00000000    0.00000000    0.00000000
     atom    6 type  1   force =     0.00000000    0.00000000    0.00000000
     atom    7 type  2   force =     0.00000000    0.00000000    0.00000000
     atom    8 type  2   force =     0.00000000    0.00000000    0.00000000

     Total force =     0.000000     Total SCF correction =     0.000000

     entering subroutine stress ...

          total   stress  (Ry/bohr**3)                   (kbar)     P= 4841.74
   0.03291351   0.00000000   0.00000000       4841.74      0.00      0.00
   0.00000000   0.03291351   0.00000000          0.00   4841.74      0.00
   0.00000000   0.00000000   0.03291351          0.00      0.00   4841.74

     BFGS Geometry Optimization

     number of scf cycles    =   1
     number of bfgs steps    =   0

     enthalpy new            =   -1125.0471713567 Ry

     new trust radius        =       0.5000000000 bohr
     new conv_thr            =       0.0001000000 Ry

     new unit-cell volume =    828.02266 a.u.^3 (   122.70030 Ang^3 )

CELL_PARAMETERS (alat=  8.53457320)
   1.100269143   0.000000000   0.000000000
   0.000000000   1.100269143   0.000000000
   0.000000000   0.000000000   1.100269143

ATOMIC_POSITIONS (crystal)
[...]
     new conv_thr            =       0.0000010000 Ry

[...]

          total   stress  (Ry/bohr**3)                   (kbar)     P=-1101.46
  -0.00748755   0.00000000   0.00000000      -1101.46      0.00      0.00
   0.00000000  -0.00748755   0.00000000          0.00  -1101.46      0.00
   0.00000000   0.00000000  -0.00748755          0.00      0.00  -1101.46

     number of scf cycles    =   3
     number of bfgs steps    =   2

     enthalpy old            =   -1128.6575303797 Ry
     enthalpy new            =   -1127.2706969917 Ry

     CASE: enthalpy_new > enthalpy_old

     new trust radius        =       0.3376471863 bohr

     trust_radius < trust_radius_min

     resetting bfgs history

     Message from routine bfgs:
     history already reset at previous step: stopping
     new conv_thr            =       0.0000010000 Ry

     new unit-cell volume =   1044.52978 a.u.^3 (   154.78334 Ang^3 )

[...]

ATOMIC_POSITIONS (crystal)
Cr       0.000000000   0.500000000   0.250000000
Cr       0.000000000   0.500000000   0.750000000
Cr       0.500000000   0.750000000   0.000000000
Cr       0.500000000   0.250000000   0.000000000
Cr       0.750000000   0.000000000   0.500000000
Cr       0.250000000   0.000000000   0.500000000
Si       0.500000000   0.500000000   0.500000000
Si       0.000000000   0.000000000   0.000000000

     Writing output data file Prototype-La-cP8-Cr3Si.save
     NEW-OLD atomic charge density approx. for the potential
     NEW k-points:
        k(    1) = (   0.0000000   0.0000000   0.0000000), wk =   0.0095238
        k(    2) = (   0.0000000   0.0000000   0.1201647), wk =   0.0190476
        k(    3) = (   0.0000000   0.0000000   0.2403294), wk =   0.0190476
        k(    4) = (   0.0000000   0.0000000   0.3604940), wk =   0.0190476
        k(    5) = (   0.0000000   0.1401921   0.0000000), wk =   0.0190476
        k(    6) = (   0.0000000   0.1401921   0.1201647), wk =   0.0380952
        k(    7) = (   0.0000000   0.1401921   0.2403294), wk =   0.0380952
        k(    8) = (   0.0000000   0.1401921   0.3604940), wk =   0.0380952
        k(    9) = (   0.0000000   0.2803842   0.0000000), wk =   0.0190476
        k(   10) = (   0.0000000   0.2803842   0.1201647), wk =   0.0380952
        k(   11) = (   0.0000000   0.2803842   0.2403294), wk =   0.0380952
        k(   12) = (   0.0000000   0.2803842   0.3604940), wk =   0.0380952
        k(   13) = (   0.0000000  -0.4205764   0.0000000), wk =   0.0095238
        k(   14) = (   0.0000000  -0.4205764   0.1201647), wk =   0.0190476
        k(   15) = (   0.0000000  -0.4205764   0.2403294), wk =   0.0190476
        k(   16) = (   0.0000000  -0.4205764   0.3604940), wk =   0.0190476
        k(   17) = (   0.1682305   0.0000000   0.0000000), wk =   0.0190476
        k(   18) = (   0.1682305   0.0000000   0.1201647), wk =   0.0380952
        k(   19) = (   0.1682305   0.0000000   0.2403294), wk =   0.0380952
        k(   20) = (   0.1682305   0.0000000   0.3604940), wk =   0.0380952
        k(   21) = (   0.1682305   0.1401921   0.0000000), wk =   0.0380952
        k(   22) = (   0.1682305   0.1401921   0.1201647), wk =   0.0761905
        k(   23) = (   0.1682305   0.1401921   0.2403294), wk =   0.0761905
        k(   24) = (   0.1682305   0.1401921   0.3604940), wk =   0.0761905
        k(   25) = (   0.1682305   0.2803842   0.0000000), wk =   0.0380952
        k(   26) = (   0.1682305   0.2803842   0.1201647), wk =   0.0761905
        k(   27) = (   0.1682305   0.2803842   0.2403294), wk =   0.0761905
        k(   28) = (   0.1682305   0.2803842   0.3604940), wk =   0.0761905
        k(   29) = (   0.1682305  -0.4205764   0.0000000), wk =   0.0190476
        k(   30) = (   0.1682305  -0.4205764   0.1201647), wk =   0.0380952
        k(   31) = (   0.1682305  -0.4205764   0.2403294), wk =   0.0380952
        k(   32) = (   0.1682305  -0.4205764   0.3604940), wk =   0.0380952
        k(   33) = (   0.3364611   0.0000000   0.0000000), wk =   0.0190476
        k(   34) = (   0.3364611   0.0000000   0.1201647), wk =   0.0380952
        k(   35) = (   0.3364611   0.0000000   0.2403294), wk =   0.0380952
        k(   36) = (   0.3364611   0.0000000   0.3604940), wk =   0.0380952
        k(   37) = (   0.3364611   0.1401921   0.0000000), wk =   0.0380952
        k(   38) = (   0.3364611   0.1401921   0.1201647), wk =   0.0761905
        k(   39) = (   0.3364611   0.1401921   0.2403294), wk =   0.0761905
        k(   40) = (   0.3364611   0.1401921   0.3604940), wk =   0.0761905
        k(   41) = (   0.3364611   0.2803842   0.0000000), wk =   0.0380952
        k(   42) = (   0.3364611   0.2803842   0.1201647), wk =   0.0761905
        k(   43) = (   0.3364611   0.2803842   0.2403294), wk =   0.0761905
        k(   44) = (   0.3364611   0.2803842   0.3604940), wk =   0.0761905
        k(   45) = (   0.3364611  -0.4205764   0.0000000), wk =   0.0190476
        k(   46) = (   0.3364611  -0.4205764   0.1201647), wk =   0.0380952
        k(   47) = (   0.3364611  -0.4205764   0.2403294), wk =   0.0380952
        k(   48) = (   0.3364611  -0.4205764   0.3604940), wk =   0.0380952

[...]

     The maximum number of steps has been reached.

     End of BFGS Geometry Optimization
Begin final coordinates
     new unit-cell volume =   1044.52978 a.u.^3 (   154.78334 Ang^3 )

CELL_PARAMETERS (alat=  8.53457320)
   1.188844726   0.000000000   0.000000000
   0.000000000   1.188844726   0.000000000
   0.000000000   0.000000000   1.188844726

ATOMIC_POSITIONS (crystal)
Cr       0.000000000   0.500000000   0.250000000
Cr       0.000000000   0.500000000   0.750000000
Cr       0.500000000   0.750000000   0.000000000
Cr       0.500000000   0.250000000   0.000000000
Cr       0.750000000   0.000000000   0.500000000
Cr       0.250000000   0.000000000   0.500000000
Si       0.500000000   0.500000000   0.500000000
Si       0.000000000   0.000000000   0.000000000
End final coordinates

     A final scf calculation at the relaxed structure.
     The G-vectors are recalculated for the final unit cell
     Results may differ from those at the preceding step.

     bravais-lattice index     =            0
     lattice parameter (alat)  =       8.5346  a.u.
     unit-cell volume          =    1044.5298 (a.u.)^3
     number of atoms/cell      =            8
     number of atomic types    =            2
     number of electrons       =       124.00
     number of Kohn-Sham states=           74
     kinetic-energy cutoff     =      40.0000  Ry
     charge density cutoff     =     160.0000  Ry
     convergence threshold     =      1.0E-06
     mixing beta               =       0.7000
     number of iterations used =            8  plain     mixing
     Exchange-correlation      = SLA-PZ-NOGX-NOGC ( 1 1 0 0 0)
     EXX-fraction              =        0.00

     celldm(1)=   8.534573  celldm(2)=   0.000000  celldm(3)=   0.000000
     celldm(4)=   0.000000  celldm(5)=   0.000000  celldm(6)=   0.000000

     crystal axes: (cart. coord. in units of alat)
               a(1) = (   1.188845   0.000000   0.000000 )
               a(2) = (   0.000000   1.188845   0.000000 )
               a(3) = (   0.000000   0.000000   1.188845 )

     reciprocal axes: (cart. coord. in units 2 pi/alat)
               b(1) = (  0.841153  0.000000  0.000000 )
               b(2) = (  0.000000  0.841153  0.000000 )
               b(3) = (  0.000000  0.000000  0.841153 )

     PseudoPot. # 1 for Sm read from file:
     /home/cwx6513/pp.La/Sm.UPF
     MD5 check sum: 5079e8b144a06bfcdbc14fb02b96ab09
     Pseudo is Norm-conserving, Zval = 16.0
     Generated in analytical, separable form
     Using radial grid of 1259 points,  6 beta functions with:
                l(1) =   0
                l(2) =   0
                l(3) =   1
                l(4) =   1
                l(5) =   2
                l(6) =   3

     PseudoPot. # 2 for Nd read from file:
     /home/cwx6513/pp.La/Nd.UPF
     MD5 check sum: c66c5b6abe7b5840ced9b1e244e3bed6
     Pseudo is Norm-conserving, Zval = 14.0
     Generated in analytical, separable form
     Using radial grid of 1257 points,  6 beta functions with:
                l(1) =   0
                l(2) =   0
                l(3) =   1
                l(4) =   1
                l(5) =   2
                l(6) =   3

     atomic species   valence    mass     pseudopotential
        Cr            16.00    51.99610     Sm( 1.00)
        Si            14.00    28.08550     Nd( 1.00)

     48 Sym. Ops., with inversion, found (24 have fractional translation)

   Cartesian axes

     site n.     atom                  positions (alat units)
         1           Cr  tau(   1) = (   0.0000000   0.5944224   0.2972112  )
         2           Cr  tau(   2) = (   0.0000000   0.5944224   0.8916335  )
         3           Cr  tau(   3) = (   0.5944224   0.8916335   0.0000000  )
         4           Cr  tau(   4) = (   0.5944224   0.2972112   0.0000000  )
         5           Cr  tau(   5) = (   0.8916335   0.0000000   0.5944224  )
         6           Cr  tau(   6) = (   0.2972112   0.0000000   0.5944224  )
         7           Si  tau(   7) = (   0.5944224   0.5944224   0.5944224  )
         8           Si  tau(   8) = (   0.0000000   0.0000000   0.0000000  )

     number of k points=    48  gaussian smearing, width (Ry)=  0.1000
                       cart. coord. in units 2pi/alat
        k(    1) = (   0.0000000   0.0000000   0.0000000), wk =   0.0095238
        k(    2) = (   0.0000000   0.0000000   0.1201647), wk =   0.0190476
        k(    3) = (   0.0000000   0.0000000   0.2403294), wk =   0.0190476
        k(    4) = (   0.0000000   0.0000000   0.3604940), wk =   0.0190476
        k(    5) = (   0.0000000   0.1401921   0.0000000), wk =   0.0190476
        k(    6) = (   0.0000000   0.1401921   0.1201647), wk =   0.0380952
        k(    7) = (   0.0000000   0.1401921   0.2403294), wk =   0.0380952
        k(    8) = (   0.0000000   0.1401921   0.3604940), wk =   0.0380952
        k(    9) = (   0.0000000   0.2803842   0.0000000), wk =   0.0190476
        k(   10) = (   0.0000000   0.2803842   0.1201647), wk =   0.0380952
        k(   11) = (   0.0000000   0.2803842   0.2403294), wk =   0.0380952
        k(   12) = (   0.0000000   0.2803842   0.3604940), wk =   0.0380952
        k(   13) = (   0.0000000  -0.4205764   0.0000000), wk =   0.0095238
        k(   14) = (   0.0000000  -0.4205764   0.1201647), wk =   0.0190476
        k(   15) = (   0.0000000  -0.4205764   0.2403294), wk =   0.0190476
        k(   16) = (   0.0000000  -0.4205764   0.3604940), wk =   0.0190476
        k(   17) = (   0.1682305   0.0000000   0.0000000), wk =   0.0190476
        k(   18) = (   0.1682305   0.0000000   0.1201647), wk =   0.0380952
        k(   19) = (   0.1682305   0.0000000   0.2403294), wk =   0.0380952
        k(   20) = (   0.1682305   0.0000000   0.3604940), wk =   0.0380952
        k(   21) = (   0.1682305   0.1401921   0.0000000), wk =   0.0380952
        k(   22) = (   0.1682305   0.1401921   0.1201647), wk =   0.0761905
        k(   23) = (   0.1682305   0.1401921   0.2403294), wk =   0.0761905
        k(   24) = (   0.1682305   0.1401921   0.3604940), wk =   0.0761905
        k(   25) = (   0.1682305   0.2803842   0.0000000), wk =   0.0380952
        k(   26) = (   0.1682305   0.2803842   0.1201647), wk =   0.0761905
        k(   27) = (   0.1682305   0.2803842   0.2403294), wk =   0.0761905
        k(   28) = (   0.1682305   0.2803842   0.3604940), wk =   0.0761905
        k(   29) = (   0.1682305  -0.4205764   0.0000000), wk =   0.0190476
        k(   30) = (   0.1682305  -0.4205764   0.1201647), wk =   0.0380952
        k(   31) = (   0.1682305  -0.4205764   0.2403294), wk =   0.0380952
        k(   32) = (   0.1682305  -0.4205764   0.3604940), wk =   0.0380952
        k(   33) = (   0.3364611   0.0000000   0.0000000), wk =   0.0190476
        k(   34) = (   0.3364611   0.0000000   0.1201647), wk =   0.0380952
        k(   35) = (   0.3364611   0.0000000   0.2403294), wk =   0.0380952
        k(   36) = (   0.3364611   0.0000000   0.3604940), wk =   0.0380952
        k(   37) = (   0.3364611   0.1401921   0.0000000), wk =   0.0380952
        k(   38) = (   0.3364611   0.1401921   0.1201647), wk =   0.0761905
        k(   39) = (   0.3364611   0.1401921   0.2403294), wk =   0.0761905
        k(   40) = (   0.3364611   0.1401921   0.3604940), wk =   0.0761905
        k(   41) = (   0.3364611   0.2803842   0.0000000), wk =   0.0380952
        k(   42) = (   0.3364611   0.2803842   0.1201647), wk =   0.0761905
        k(   43) = (   0.3364611   0.2803842   0.2403294), wk =   0.0761905
        k(   44) = (   0.3364611   0.2803842   0.3604940), wk =   0.0761905
        k(   45) = (   0.3364611  -0.4205764   0.0000000), wk =   0.0190476
        k(   46) = (   0.3364611  -0.4205764   0.1201647), wk =   0.0380952
        k(   47) = (   0.3364611  -0.4205764   0.2403294), wk =   0.0380952
        k(   48) = (   0.3364611  -0.4205764   0.3604940), wk =   0.0380952

     Largest allocated arrays     est. size (Mb)     dimensions
     Largest temporary arrays     est. size (Mb)     dimensions

     Initial potential from superposition of free atoms

     Starting from uniform charge
     Starting wfc are    0 randomized atomic wfcs

     Writing output data file Prototype-La-cP8-Cr3Si.save

     Self-consistent Calculation

[...]

     iteration # 10     ecut=    40.00 Ry     beta=0.70
     CG style diagonalization
     c_bands:  1 eigenvalues not converged
     c_bands:  1 eigenvalues not converged
     c_bands:  1 eigenvalues not converged
     c_bands:  2 eigenvalues not converged
     c_bands:  1 eigenvalues not converged
     c_bands:  1 eigenvalues not converged
     c_bands:  3 eigenvalues not converged
     ethr =  1.22E-07,  avg # of iterations =  6.6

[...]

     total energy              =   -1130.42364940 Ry
     Harris-Foulkes estimate   =   -1130.42366547 Ry
     estimated scf accuracy    <       0.00005310 Ry

     iteration # 12     ecut=    40.00 Ry     beta=0.70
     CG style diagonalization
     ethr =  4.28E-08,  avg # of iterations =  3.5

     End of self-consistent calculation

[...]

          k = 0.3365-0.4206 0.3605 (  4478 PWs)   bands (ev):

   -33.2024 -33.1891 -33.1512 -33.1510 -33.1140 -33.1002 -23.5701 -23.5701
    -8.9694  -8.8750  -8.6364  -8.6348  -8.5051  -8.5049  -8.4374  -8.3886
    -8.2565  -8.2390  -8.2007  -8.1885  -8.1370  -8.1187  -8.1073  -8.1041
    -8.0930  -8.0914  -1.9122  -1.9096  -1.9034  -1.9027  -1.8997  -1.8990
    18.7935  18.8112  18.9499  19.0046  19.1393  19.1449  19.7034  19.7101
    19.7953  19.8033  20.1012  20.1104  20.2942  20.3069  20.6289  20.7224
    21.1179  21.1254  21.4629  21.6619  22.2128  22.2554  22.8421  22.9400
    23.0366  23.0596  23.5626  23.5747  23.9561  24.1427  25.2458  25.2518
    25.5844  25.6580  25.9280  25.9311  26.5354  26.8178  26.9618  27.0419
    27.2077  27.2142

     the Fermi energy is    24.4351 ev

!    total energy              =   -1130.42366055 Ry
     Harris-Foulkes estimate   =   -1130.42366133 Ry
     estimated scf accuracy    <       0.00000089 Ry

     The total energy is the sum of the following terms:

     one-electron contribution =     -19.63852842 Ry
     hartree contribution      =     108.11171673 Ry
     xc contribution           =    -124.83772705 Ry
     ewald contribution        =   -1093.50853494 Ry
     smearing contrib. (-TS)   =      -0.55058688 Ry

     convergence has been achieved in  12 iterations

     Forces acting on atoms (Ry/au):

     atom    1 type  1   force =     0.00000000    0.00000000    0.00000000
     atom    2 type  1   force =     0.00000000    0.00000000    0.00000000
     atom    3 type  1   force =     0.00000000    0.00000000    0.00000000
     atom    4 type  1   force =     0.00000000    0.00000000    0.00000000
     atom    5 type  1   force =     0.00000000    0.00000000    0.00000000
     atom    6 type  1   force =     0.00000000    0.00000000    0.00000000
     atom    7 type  2   force =     0.00000000    0.00000000    0.00000000
     atom    8 type  2   force =     0.00000000    0.00000000    0.00000000

     Total force =     0.000000     Total SCF correction =     0.000000

     entering subroutine stress ...

          total   stress  (Ry/bohr**3)                   (kbar)     P=  116.70
   0.00079328   0.00000000   0.00000000        116.70      0.00      0.00
   0.00000000   0.00079328   0.00000000          0.00    116.70      0.00
   0.00000000   0.00000000   0.00079328          0.00      0.00    116.70

     Writing output data file Prototype-La-cP8-Cr3Si.save

     General routines

     Parallel routines

   This run was terminated on:  19: 5:47  22Mar2018

   JOB DONE.