     Program PWSCF v.5.0.2 starts on 22Mar2018 at 18:43:55

     Current dimensions of program PWSCF are:
     Max number of different atomic species (ntypx) = 10
     Max number of k-points (npk) =  40000
     Max angular momentum in pseudopotentials (lmaxx) =  3
     Waiting for input...
     Reading input from standard input

     Subspace diagonalization in iterative solution of the eigenvalue problem:
     a serial algorithm will be used

     bravais-lattice index     =            0
     lattice parameter (alat)  =       7.0151  a.u.
     unit-cell volume          =     862.2778 (a.u.)^3
     number of atoms/cell      =           12
     number of atomic types    =            2
     number of electrons       =       212.00
     number of Kohn-Sham states=          127
     kinetic-energy cutoff     =      40.0000  Ry
     charge density cutoff     =     160.0000  Ry
     convergence threshold     =      1.0E-04
     mixing beta               =       0.7000
     number of iterations used =            8  plain     mixing
     Exchange-correlation      = SLA-PZ-NOGX-NOGC ( 1 1 0 0 0)
     EXX-fraction              =        0.00
     nstep                     =           50

     celldm(1)=   7.015105  celldm(2)=   0.000000  celldm(3)=   0.000000
     celldm(4)=   0.000000  celldm(5)=   0.000000  celldm(6)=   0.000000

     crystal axes: (cart. coord. in units of alat)
               a(1) = (   1.000000   0.000000   0.000000 )
               a(2) = (   0.000000   1.315963   0.000000 )
               a(3) = (   0.000000   0.000000   1.898020 )

     reciprocal axes: (cart. coord. in units 2 pi/alat)
               b(1) = (  1.000000  0.000000  0.000000 )
               b(2) = (  0.000000  0.759900  0.000000 )
               b(3) = (  0.000000  0.000000  0.526865 )

     PseudoPot. # 1 for Sm read from file:
     /home/cwx6513/pp.La/Sm.UPF
     MD5 check sum: 5079e8b144a06bfcdbc14fb02b96ab09
     Pseudo is Norm-conserving, Zval = 16.0
     Generated in analytical, separable form
     Using radial grid of 1259 points,  6 beta functions with:
                l(1) =   0
                l(2) =   0
                l(3) =   1
                l(4) =   1
                l(5) =   2
                l(6) =   3

     PseudoPot. # 2 for Ho read from file:
     /home/cwx6513/pp.La/Ho.UPF
     MD5 check sum: f307ee11bce99f5b724fa279e3790763
     Pseudo is Norm-conserving, Zval = 21.0
     Generated in analytical, separable form
     Using radial grid of 1265 points,  6 beta functions with:
                l(1) =   0
                l(2) =   0
                l(3) =   1
                l(4) =   1
                l(5) =   2
                l(6) =   3

     atomic species   valence    mass     pseudopotential
        Co            16.00    58.93320     Sm( 1.00)
        Si            21.00    28.08550     Ho( 1.00)

      8 Sym. Ops., with inversion, found ( 6 have fractional translation)

   Cartesian axes

     site n.     atom                  positions (alat units)
         1           Co  tau(   1) = (   0.7500000   1.0875135   0.8270358  )
         2           Co  tau(   2) = (   0.2500000   0.2284499   1.0709846  )
         3           Co  tau(   3) = (   0.7500000   0.4295318   0.1219744  )
         4           Co  tau(   4) = (   0.2500000   0.8864316   1.7760460  )
         5           Co  tau(   5) = (   0.2500000   0.7067855   0.5358966  )
         6           Co  tau(   6) = (   0.7500000   0.6091779   1.3621238  )
         7           Co  tau(   7) = (   0.2500000   0.0488038   0.4131136  )
         8           Co  tau(   8) = (   0.7500000   1.2671596   1.4849068  )
         9           Si  tau(   9) = (   0.2500000   0.2669484   1.6960710  )
        10           Si  tau(  10) = (   0.7500000   1.0490149   0.2019494  )
        11           Si  tau(  11) = (   0.2500000   0.9249301   1.1509596  )
        12           Si  tau(  12) = (   0.7500000   0.3910333   0.7470608  )

     number of k points=    12  gaussian smearing, width (Ry)=  0.1000
                       cart. coord. in units 2pi/alat
        k(    1) = (   0.0000000   0.0000000   0.0000000), wk =   0.0833333
        k(    2) = (   0.0000000   0.0000000   0.1317162), wk =   0.1666667
        k(    3) = (   0.0000000   0.0000000  -0.2634324), wk =   0.0833333
        k(    4) = (   0.0000000   0.2532999   0.0000000), wk =   0.1666667
        k(    5) = (   0.0000000   0.2532999   0.1317162), wk =   0.3333333
        k(    6) = (   0.0000000   0.2532999  -0.2634324), wk =   0.1666667
        k(    7) = (  -0.5000000   0.0000000   0.0000000), wk =   0.0833333
        k(    8) = (  -0.5000000   0.0000000   0.1317162), wk =   0.1666667
        k(    9) = (  -0.5000000   0.0000000  -0.2634324), wk =   0.0833333
        k(   10) = (  -0.5000000   0.2532999   0.0000000), wk =   0.1666667
        k(   11) = (  -0.5000000   0.2532999   0.1317162), wk =   0.3333333
        k(   12) = (  -0.5000000   0.2532999  -0.2634324), wk =   0.1666667

     Largest allocated arrays     est. size (Mb)     dimensions
     Largest temporary arrays     est. size (Mb)     dimensions

     Initial potential from superposition of free atoms

     Starting from uniform charge
     Starting wfc are    0 randomized atomic wfcs

     Self-consistent Calculation

     iteration #  1     ecut=    40.00 Ry     beta=0.70
     CG style diagonalization
     c_bands:  1 eigenvalues not converged
     c_bands:  1 eigenvalues not converged
     ethr =  1.00E-02,  avg # of iterations = 12.4

     total energy              =   -1675.53599659 Ry
     Harris-Foulkes estimate   =   -2730.10885729 Ry
     estimated scf accuracy    <    1283.86289419 Ry

[...]

     iteration #  4     ecut=    40.00 Ry     beta=0.70
     CG style diagonalization
     ethr =  1.00E-02,  avg # of iterations =  4.3

[...]

     End of self-consistent calculation

          k = 0.0000 0.0000 0.0000 (  3675 PWs)   bands (ev):

   -44.7931 -44.7864 -44.7815 -44.7733 -10.9627 -10.9397 -10.6380 -10.0667
   -10.0348 -10.0048  -9.6918  -9.6516  -9.6047  -9.5591  -9.5163  -9.4740
    -9.4498  -9.2610  -9.2134  -8.5691  -8.5064  -8.4702  -8.3063  -8.2408
    11.3965  12.0232  12.2977  12.6717  12.7304  12.8224  13.3735  13.4337
    13.9544  13.9876  14.0962  14.1581  14.3761  14.6993  15.0712  15.0970
    15.1845  15.2856  15.4389  15.8572  16.1405  16.4599  16.8452  17.1103
    30.6060  30.8149  31.2368  31.4779  31.6379  31.6897  31.7495  31.8286
    32.3324  32.4631  32.7423  32.9624  33.1927  33.3748  34.0272  34.1705
    34.3123  34.3636  34.7036  34.7317  36.4080  36.8864  39.1999  39.2118
    39.4733  39.6942  40.5493  40.5508  41.0696  41.1679  41.3750  41.5985
    41.7511  41.8960  42.6914  43.0850  43.0874  43.0885  43.3561  43.5971
    44.8907  44.9935  45.3556  45.5680  45.6897  46.0373  46.7804  47.3187
    47.8778  48.1698  48.3161  48.4272  48.9133  49.1474  49.1600  50.4339
    50.4496  50.4837  50.4874  50.6264  51.2506  51.8746  52.6214  53.1407
    53.2576  54.4107  55.0217  55.8803  55.9596  56.2745  56.3525  56.5737
    57.0895  57.1126  57.1492  57.2636  58.4177  58.4381  58.4589

[...]

          k =-0.5000 0.0000 0.0000 (  3722 PWs)   bands (ev):

[...]

     the Fermi energy is    50.1952 ev

!    total energy              =   -2374.15697241 Ry
     Harris-Foulkes estimate   =   -2374.15705240 Ry
     estimated scf accuracy    <       0.00008843 Ry

     The total energy is the sum of the following terms:

     one-electron contribution =     320.12938353 Ry
     hartree contribution      =     173.74054276 Ry
     xc contribution           =    -251.35741512 Ry
     ewald contribution        =   -2616.29056182 Ry
     smearing contrib. (-TS)   =      -0.37892176 Ry

     convergence has been achieved in  10 iterations

     Forces acting on atoms (Ry/au):

     atom    1 type  1   force =     0.00000000   -0.01893157   -0.04589202
     atom    2 type  1   force =     0.00000000    0.01893157    0.04589202
     atom    3 type  1   force =     0.00000000   -0.01893157    0.04589202
     atom    4 type  1   force =     0.00000000    0.01893157   -0.04589202
     atom    5 type  1   force =     0.00000000    0.15599245   -0.27540718
     atom    6 type  1   force =     0.00000000   -0.15599245    0.27540718
     atom    7 type  1   force =     0.00000000    0.15599245    0.27540718
     atom    8 type  1   force =     0.00000000   -0.15599245   -0.27540718
     atom    9 type  2   force =     0.00000000   -0.19074285    0.02427981
     atom   10 type  2   force =     0.00000000    0.19074285   -0.02427981
     atom   11 type  2   force =     0.00000000   -0.19074285   -0.02427981
     atom   12 type  2   force =     0.00000000    0.19074285    0.02427981

     Total force =     0.747314     Total SCF correction =     0.000000

     entering subroutine stress ...

          total   stress  (Ry/bohr**3)                   (kbar)     P= 6953.01
   0.05066655   0.00000000   0.00000000       7453.31      0.00      0.00
   0.00000000   0.04381743   0.00000000          0.00   6445.77      0.00
   0.00000000   0.00000000   0.04731282          0.00      0.00   6959.96

     BFGS Geometry Optimization

     number of scf cycles    =   1
     number of bfgs steps    =   0

     enthalpy new            =   -2374.1569724146 Ry

     new trust radius        =       0.5000000000 bohr
     new conv_thr            =       0.0001000000 Ry

     new unit-cell volume =   1084.44754 a.u.^3 (   160.69854 Ang^3 )

CELL_PARAMETERS (alat=  7.01510508)
   1.085136619   0.000000000   0.000000000
   0.000000000   1.412854900   0.000000000
   0.000000000   0.000000000   2.048915385

ATOMIC_POSITIONS (crystal)
Co       0.750000000   0.826263164   0.435504337
Co       0.250000000   0.173736836   0.564495663
Co       0.750000000   0.326263164   0.064495663
Co       0.250000000   0.673736836   0.935504337
Co       0.250000000   0.538221744   0.280954743
Co       0.750000000   0.461778256   0.719045257
Co       0.250000000   0.038221744   0.219045257
Co       0.750000000   0.961778256   0.780954743
Si       0.250000000   0.201465246   0.893722565
Si       0.750000000   0.798534754   0.106277435
Si       0.250000000   0.701465246   0.606277435
Si       0.750000000   0.298534754   0.393722565

     Writing output data file Prototype-La-oP12-Co2Si.save
     NEW-OLD atomic charge density approx. for the potential
     NEW k-points:
        k(    1) = (   0.0000000   0.0000000   0.0000000), wk =   0.0833333
        k(    2) = (   0.0000000   0.0000000   0.1220158), wk =   0.1666667
        k(    3) = (   0.0000000   0.0000000  -0.2440316), wk =   0.0833333
        k(    4) = (   0.0000000   0.2359289   0.0000000), wk =   0.1666667
        k(    5) = (   0.0000000   0.2359289   0.1220158), wk =   0.3333333
        k(    6) = (   0.0000000   0.2359289  -0.2440316), wk =   0.1666667
        k(    7) = (  -0.4607715   0.0000000   0.0000000), wk =   0.0833333
        k(    8) = (  -0.4607715   0.0000000   0.1220158), wk =   0.1666667
        k(    9) = (  -0.4607715   0.0000000  -0.2440316), wk =   0.0833333
        k(   10) = (  -0.4607715   0.2359289   0.0000000), wk =   0.1666667
        k(   11) = (  -0.4607715   0.2359289   0.1220158), wk =   0.3333333
        k(   12) = (  -0.4607715   0.2359289  -0.2440316), wk =   0.1666667

[...]

     enthalpy old            =   -2374.1569724146 Ry
     enthalpy new            =   -2380.6829287700 Ry

     CASE: enthalpy_new < enthalpy_old

     small trust_radius: resetting bfgs history

     new trust radius        =       2.7500712719 bohr
     new conv_thr            =       0.0001000000 Ry

[...]

          total   stress  (Ry/bohr**3)                   (kbar)     P=-1829.11
  -0.01337341   0.00000000   0.00000000      -1967.30      0.00      0.00
   0.00000000  -0.01157258   0.00000000          0.00  -1702.39      0.00
   0.00000000   0.00000000  -0.01235617          0.00      0.00  -1817.66

     number of scf cycles    =   3
     number of bfgs steps    =   2

     enthalpy old            =   -2380.6829287700 Ry
     enthalpy new            =   -2367.4861717864 Ry

     CASE: enthalpy_new > enthalpy_old

     new trust radius        =       0.9414779009 bohr

     trust_radius < trust_radius_min

     resetting bfgs history

     Message from routine bfgs:
     history already reset at previous step: stopping
     new conv_thr            =       0.0001000000 Ry

     new unit-cell volume =   1284.75312 a.u.^3 (   190.38077 Ang^3 )

[...]

ATOMIC_POSITIONS (crystal)
Co       0.750000000   0.825883774   0.435428154
Co       0.250000000   0.174116226   0.564571846
Co       0.750000000   0.325883774   0.064571846
Co       0.250000000   0.674116226   0.935428154
Co       0.250000000   0.539277585   0.279770213
Co       0.750000000   0.460722415   0.720229787
Co       0.250000000   0.039277585   0.220229787
Co       0.750000000   0.960722415   0.779770213
Si       0.250000000   0.200014610   0.893964760
Si       0.750000000   0.799985390   0.106035240
Si       0.250000000   0.700014610   0.606035240
Si       0.750000000   0.299985390   0.393964760

     Writing output data file Prototype-La-oP12-Co2Si.save
     NEW-OLD atomic charge density approx. for the potential
     NEW k-points:
        k(    1) = (   0.0000000   0.0000000   0.0000000), wk =   0.0833333
        k(    2) = (   0.0000000   0.0000000   0.1153542), wk =   0.1666667
        k(    3) = (   0.0000000   0.0000000  -0.2307084), wk =   0.0833333
        k(    4) = (   0.0000000   0.2245718   0.0000000), wk =   0.1666667
        k(    5) = (   0.0000000   0.2245718   0.1153542), wk =   0.3333333
        k(    6) = (   0.0000000   0.2245718  -0.2307084), wk =   0.1666667
        k(    7) = (  -0.4321981   0.0000000   0.0000000), wk =   0.0833333
        k(    8) = (  -0.4321981   0.0000000   0.1153542), wk =   0.1666667
        k(    9) = (  -0.4321981   0.0000000  -0.2307084), wk =   0.0833333
        k(   10) = (  -0.4321981   0.2245718   0.0000000), wk =   0.1666667
        k(   11) = (  -0.4321981   0.2245718   0.1153542), wk =   0.3333333
        k(   12) = (  -0.4321981   0.2245718  -0.2307084), wk =   0.1666667

[...]

     The maximum number of steps has been reached.

     End of BFGS Geometry Optimization
Begin final coordinates
     new unit-cell volume =   1284.75312 a.u.^3 (   190.38077 Ang^3 )

CELL_PARAMETERS (alat=  7.01510508)
   1.156877031   0.000000000   0.000000000
   0.000000000   1.484305958   0.000000000
   0.000000000   0.000000000   2.167237517

ATOMIC_POSITIONS (crystal)
Co       0.750000000   0.825883774   0.435428154
Co       0.250000000   0.174116226   0.564571846
Co       0.750000000   0.325883774   0.064571846
Co       0.250000000   0.674116226   0.935428154
Co       0.250000000   0.539277585   0.279770213
Co       0.750000000   0.460722415   0.720229787
Co       0.250000000   0.039277585   0.220229787
Co       0.750000000   0.960722415   0.779770213
Si       0.250000000   0.200014610   0.893964760
Si       0.750000000   0.799985390   0.106035240
Si       0.250000000   0.700014610   0.606035240
Si       0.750000000   0.299985390   0.393964760
End final coordinates

     A final scf calculation at the relaxed structure.
     The G-vectors are recalculated for the final unit cell
     Results may differ from those at the preceding step.

     bravais-lattice index     =            0
     lattice parameter (alat)  =       7.0151  a.u.
     unit-cell volume          =    1284.7531 (a.u.)^3
     number of atoms/cell      =           12
     number of atomic types    =            2
     number of electrons       =       212.00
     number of Kohn-Sham states=          127
     kinetic-energy cutoff     =      40.0000  Ry
     charge density cutoff     =     160.0000  Ry
     convergence threshold     =      1.0E-04
     mixing beta               =       0.7000
     number of iterations used =            8  plain     mixing
     Exchange-correlation      = SLA-PZ-NOGX-NOGC ( 1 1 0 0 0)
     EXX-fraction              =        0.00

     celldm(1)=   7.015105  celldm(2)=   0.000000  celldm(3)=   0.000000
     celldm(4)=   0.000000  celldm(5)=   0.000000  celldm(6)=   0.000000

     crystal axes: (cart. coord. in units of alat)
               a(1) = (   1.156877   0.000000   0.000000 )
               a(2) = (   0.000000   1.484306   0.000000 )
               a(3) = (   0.000000   0.000000   2.167238 )

     reciprocal axes: (cart. coord. in units 2 pi/alat)
               b(1) = (  0.864396  0.000000  0.000000 )
               b(2) = (  0.000000  0.673716  0.000000 )
               b(3) = (  0.000000  0.000000  0.461417 )

     PseudoPot. # 1 for Sm read from file:
     /home/cwx6513/pp.La/Sm.UPF
     MD5 check sum: 5079e8b144a06bfcdbc14fb02b96ab09
     Pseudo is Norm-conserving, Zval = 16.0
     Generated in analytical, separable form
     Using radial grid of 1259 points,  6 beta functions with:
                l(1) =   0
                l(2) =   0
                l(3) =   1
                l(4) =   1
                l(5) =   2
                l(6) =   3

     PseudoPot. # 2 for Ho read from file:
     /home/cwx6513/pp.La/Ho.UPF
     MD5 check sum: f307ee11bce99f5b724fa279e3790763
     Pseudo is Norm-conserving, Zval = 21.0
     Generated in analytical, separable form
     Using radial grid of 1265 points,  6 beta functions with:
                l(1) =   0
                l(2) =   0
                l(3) =   1
                l(4) =   1
                l(5) =   2
                l(6) =   3

     atomic species   valence    mass     pseudopotential
        Co            16.00    58.93320     Sm( 1.00)
        Si            21.00    28.08550     Ho( 1.00)

      8 Sym. Ops., with inversion, found ( 6 have fractional translation)

   Cartesian axes

     site n.     atom                  positions (alat units)
         1           Co  tau(   1) = (   0.8676578   1.2258642   0.9436762  )
         2           Co  tau(   2) = (   0.2892193   0.2584418   1.2235613  )
         3           Co  tau(   3) = (   0.8676578   0.4837112   0.1399425  )
         4           Co  tau(   4) = (   0.2892193   1.0005947   2.0272950  )
         5           Co  tau(   5) = (   0.2892193   0.8004529   0.6063285  )
         6           Co  tau(   6) = (   0.8676578   0.6838530   1.5609090  )
         7           Co  tau(   7) = (   0.2892193   0.0583000   0.4772903  )
         8           Co  tau(   8) = (   0.8676578   1.4260060   1.6899473  )
         9           Si  tau(   9) = (   0.2892193   0.2968829   1.9374340  )
        10           Si  tau(  10) = (   0.8676578   1.1874231   0.2298036  )
        11           Si  tau(  11) = (   0.2892193   1.0390359   1.3134223  )
        12           Si  tau(  12) = (   0.8676578   0.4452701   0.8538152  )

     number of k points=    12  gaussian smearing, width (Ry)=  0.1000
                       cart. coord. in units 2pi/alat
        k(    1) = (   0.0000000   0.0000000   0.0000000), wk =   0.0833333
        k(    2) = (   0.0000000   0.0000000   0.1153542), wk =   0.1666667
        k(    3) = (   0.0000000   0.0000000  -0.2307084), wk =   0.0833333
        k(    4) = (   0.0000000   0.2245718   0.0000000), wk =   0.1666667
        k(    5) = (   0.0000000   0.2245718   0.1153542), wk =   0.3333333
        k(    6) = (   0.0000000   0.2245718  -0.2307084), wk =   0.1666667
        k(    7) = (  -0.4321981   0.0000000   0.0000000), wk =   0.0833333
        k(    8) = (  -0.4321981   0.0000000   0.1153542), wk =   0.1666667
        k(    9) = (  -0.4321981   0.0000000  -0.2307084), wk =   0.0833333
        k(   10) = (  -0.4321981   0.2245718   0.0000000), wk =   0.1666667
        k(   11) = (  -0.4321981   0.2245718   0.1153542), wk =   0.3333333
        k(   12) = (  -0.4321981   0.2245718  -0.2307084), wk =   0.1666667

     Largest allocated arrays     est. size (Mb)     dimensions
     Largest temporary arrays     est. size (Mb)     dimensions

     Initial potential from superposition of free atoms

     Starting from uniform charge
     Starting wfc are    0 randomized atomic wfcs

     Writing output data file Prototype-La-oP12-Co2Si.save

     Self-consistent Calculation

[...]

     iteration #  7     ecut=    40.00 Ry     beta=0.70
     CG style diagonalization
     ethr =  5.68E-04,  avg # of iterations =  3.9

[...]

     total energy              =   -2385.24792143 Ry
     Harris-Foulkes estimate   =   -2385.24805587 Ry
     estimated scf accuracy    <       0.00025240 Ry

     iteration # 11     ecut=    40.00 Ry     beta=0.70
     CG style diagonalization
     c_bands:  1 eigenvalues not converged
     ethr =  1.19E-07,  avg # of iterations =  3.7

     End of self-consistent calculation

[...]

          k = 0.0000 0.2246-0.2307 (  5480 PWs)   bands (ev):

[...]

          k =-0.4322 0.2246-0.2307 (  5512 PWs)   bands (ev):

   -60.0102 -60.0102 -60.0088 -60.0088 -25.7670 -25.7670 -25.6676 -25.6676
   -25.5730 -25.5730 -25.5496 -25.5496 -24.2740 -24.2740 -24.2713 -24.2713
   -24.2472 -24.2472 -24.2254 -24.2254 -24.1798 -24.1798 -24.1758 -24.1758
    -1.8097  -1.8097  -1.5557  -1.5557  -1.5221  -1.5221  -1.4106  -1.4106
    -1.3816  -1.3816  -0.9757  -0.9757  -0.8147  -0.8147  -0.6906  -0.6906
    -0.5912  -0.5912  -0.5876  -0.5876  -0.4329  -0.4329  -0.3815  -0.3815
    18.6840  18.6840  18.7309  18.7309  18.7619  18.7619  18.9344  18.9344
    19.0386  19.0386  19.0468  19.0468  19.1923  19.1923  19.2074  19.2074
    19.5615  19.5615  19.6819  19.6819  23.4393  23.4393  23.8462  23.8462
    25.5673  25.5673  26.1318  26.1318  26.1413  26.1413  26.6401  26.6401
    26.7049  26.7049  27.3562  27.3562  27.4850  27.4850  27.9808  27.9808
    27.9937  27.9937  28.5364  28.5364  28.8503  28.8503  29.6515  29.6515
    29.7275  29.7275  30.0842  30.0842  30.7449  30.7449  31.4155  31.4155
    31.5202  31.5202  31.8661  31.8661  32.2989  32.2989  32.7009  32.7009
    34.2881  34.2881  34.9107  34.9107  36.0749  36.0749  38.7229  38.7230
    39.5973  39.5974  39.9468  39.9469  40.1232  40.1234  40.3613

     the Fermi energy is    32.0689 ev

!    total energy              =   -2385.24796769 Ry
     Harris-Foulkes estimate   =   -2385.24797275 Ry
     estimated scf accuracy    <       0.00000654 Ry

     The total energy is the sum of the following terms:

     one-electron contribution =    -120.95202270 Ry
     hartree contribution      =     267.73072258 Ry
     xc contribution           =    -239.52159646 Ry
     ewald contribution        =   -2291.93359446 Ry
     smearing contrib. (-TS)   =      -0.57147665 Ry

     convergence has been achieved in  11 iterations

     Forces acting on atoms (Ry/au):

     atom    1 type  1   force =     0.00000000   -0.03028972    0.00082226
     atom    2 type  1   force =     0.00000000    0.03028972   -0.00082226
     atom    3 type  1   force =     0.00000000   -0.03028972   -0.00082226
     atom    4 type  1   force =     0.00000000    0.03028972    0.00082226
     atom    5 type  1   force =     0.00000000    0.05158866   -0.09814229
     atom    6 type  1   force =     0.00000000   -0.05158866    0.09814229
     atom    7 type  1   force =     0.00000000    0.05158866    0.09814229
     atom    8 type  1   force =     0.00000000   -0.05158866   -0.09814229
     atom    9 type  2   force =     0.00000000   -0.08292524    0.00974981
     atom   10 type  2   force =     0.00000000    0.08292524   -0.00974981
     atom   11 type  2   force =     0.00000000   -0.08292524   -0.00974981
     atom   12 type  2   force =     0.00000000    0.08292524    0.00974981

     Total force =     0.284134     Total SCF correction =     0.000000

     entering subroutine stress ...

          total   stress  (Ry/bohr**3)                   (kbar)     P=  991.91
   0.00735982   0.00000000   0.00000000       1082.67      0.00      0.00
   0.00000000   0.00617976   0.00000000          0.00    909.07      0.00
   0.00000000   0.00000000   0.00668896          0.00      0.00    983.98

     Writing output data file Prototype-La-oP12-Co2Si.save

     General routines

     Parallel routines

   This run was terminated on:  18:58:13  22Mar2018

   JOB DONE.