     Program PWSCF v.5.0.2 starts on 22Mar2018 at 12: 7:58

     Current dimensions of program PWSCF are:
     Max number of different atomic species (ntypx) = 10
     Max number of k-points (npk) =  40000
     Max angular momentum in pseudopotentials (lmaxx) =  3
     Waiting for input...
     Reading input from standard input

     Subspace diagonalization in iterative solution of the eigenvalue problem:
     a serial algorithm will be used

     bravais-lattice index     =            0
     lattice parameter (alat)  =       8.8008  a.u.
     unit-cell volume          =    1116.9454 (a.u.)^3
     number of atoms/cell      =           16
     number of atomic types    =            2
     number of electrons       =       352.00
     number of Kohn-Sham states=          211
     kinetic-energy cutoff     =      40.0000  Ry
     charge density cutoff     =     160.0000  Ry
     convergence threshold     =      1.0E-04
     mixing beta               =       0.7000
     number of iterations used =            8  plain     mixing
     Exchange-correlation      = SLA-PZ-NOGX-NOGC ( 1 1 0 0 0)
     EXX-fraction              =        0.00
     nstep                     =           50

     celldm(1)=   8.800765  celldm(2)=   0.000000  celldm(3)=   0.000000
     celldm(4)=   0.000000  celldm(5)=   0.000000  celldm(6)=   0.000000

     crystal axes: (cart. coord. in units of alat)
               a(1) = (   1.000000   0.000000   0.000000 )
               a(2) = (   0.000000   1.083771   0.000000 )
               a(3) = (   0.000000   0.000000   1.511935 )

     reciprocal axes: (cart. coord. in units 2 pi/alat)
               b(1) = (  1.000000  0.000000  0.000000 )
               b(2) = (  0.000000  0.922704  0.000000 )
               b(3) = (  0.000000  0.000000  0.661404 )

     PseudoPot. # 1 for Yb read from file:
     /home/jld5415/pp.La/Yb.UPF
     MD5 check sum: 3e859b81cc28c53ec6aa3a2e888efcdf
     Pseudo is Norm-conserving, Zval = 24.0
     Generated in analytical, separable form
     Using radial grid of 1269 points,  6 beta functions with:
                l(1) =   0
                l(2) =   0
                l(3) =   1
                l(4) =   1
                l(5) =   2
                l(6) =   3

     PseudoPot. # 2 for Sm read from file:
     /home/jld5415/pp.La/Sm.UPF
     MD5 check sum: 5079e8b144a06bfcdbc14fb02b96ab09
     Pseudo is Norm-conserving, Zval = 16.0
     Generated in analytical, separable form
     Using radial grid of 1259 points,  6 beta functions with:
                l(1) =   0
                l(2) =   0
                l(3) =   1
                l(4) =   1
                l(5) =   2
                l(6) =   3

     atomic species   valence    mass     pseudopotential
        Fe            24.00    55.84500     Yb( 1.00)
        C             16.00    12.01070     Sm( 1.00)

      8 Sym. Ops., with inversion, found ( 6 have fractional translation)

   Cartesian axes

     site n.     atom                  positions (alat units)
         1           Fe  tau(   1) = (   0.3472940   0.1827628   1.3947267  )
         2           Fe  tau(   2) = (   0.1527060   0.7246484   0.8731757  )
         3           Fe  tau(   3) = (   0.8472940   0.3591227   0.6387592  )
         4           Fe  tau(   4) = (   0.3396640   0.4879235   0.3779837  )
         5           Fe  tau(   5) = (   0.1527060   0.7246484   1.3947267  )
         6           Fe  tau(   6) = (   0.3472940   0.1827628   0.8731757  )
         7           Fe  tau(   7) = (   0.1603360   1.0298091   0.3779837  )
         8           Fe  tau(   8) = (   0.6527060   0.9010083   0.6387592  )
         9           Fe  tau(   9) = (   0.8472940   0.3591227   0.1172082  )
        10           Fe  tau(  10) = (   0.6603360   0.5958476   1.1339512  )
        11           Fe  tau(  11) = (   0.6527060   0.9010083   0.1172082  )
        12           Fe  tau(  12) = (   0.8396640   0.0539620   1.1339512  )
        13           C   tau(  13) = (   0.0000000   0.0000000   0.0000000  )
        14           C   tau(  14) = (   0.5000000   0.5418856   0.0000000  )
        15           C   tau(  15) = (   0.5000000   0.5418856   0.7559674  )
        16           C   tau(  16) = (   0.0000000   0.0000000   0.7559674  )

     number of k points=    12  gaussian smearing, width (Ry)=  0.1000
                       cart. coord. in units 2pi/alat
        k(    1) = (   0.0000000   0.0000000   0.0000000), wk =   0.0833333
        k(    2) = (   0.0000000   0.0000000   0.1653510), wk =   0.1666667
        k(    3) = (   0.0000000   0.0000000  -0.3307021), wk =   0.0833333
        k(    4) = (   0.0000000   0.3075680   0.0000000), wk =   0.1666667
        k(    5) = (   0.0000000   0.3075680   0.1653510), wk =   0.3333333
        k(    6) = (   0.0000000   0.3075680  -0.3307021), wk =   0.1666667
        k(    7) = (  -0.5000000   0.0000000   0.0000000), wk =   0.0833333
        k(    8) = (  -0.5000000   0.0000000   0.1653510), wk =   0.1666667
        k(    9) = (  -0.5000000   0.0000000  -0.3307021), wk =   0.0833333
        k(   10) = (  -0.5000000   0.3075680   0.0000000), wk =   0.1666667
        k(   11) = (  -0.5000000   0.3075680   0.1653510), wk =   0.3333333
        k(   12) = (  -0.5000000   0.3075680  -0.3307021), wk =   0.1666667

     Largest allocated arrays     est. size (Mb)     dimensions
     Largest temporary arrays     est. size (Mb)     dimensions

     Initial potential from superposition of free atoms

     Starting from uniform charge
     Starting wfc are    0 randomized atomic wfcs

     Self-consistent Calculation

     iteration #  1     ecut=    40.00 Ry     beta=0.70
     CG style diagonalization
     ethr =  1.00E-02,  avg # of iterations = 19.3

     total energy              =   -5140.64895151 Ry
     Harris-Foulkes estimate   =   -6561.65040655 Ry
     estimated scf accuracy    <    1768.71235094 Ry

     iteration #  2     ecut=    40.00 Ry     beta=0.70
     CG style diagonalization
     c_bands:  1 eigenvalues not converged
     c_bands:  1 eigenvalues not converged
     ethr =  1.00E-02,  avg # of iterations =  7.0

[...]

     End of self-consistent calculation

          k = 0.0000 0.0000 0.0000 (  4785 PWs)   bands (ev):

   -68.9458 -68.9395 -68.9208 -68.9118 -68.8983 -68.8874 -68.8722 -68.8698
   -68.6411 -68.6382 -68.6307 -68.6060 -29.6501 -29.5454 -29.2165 -29.1840
   -29.1681 -29.1441 -28.9477 -28.9382 -28.9074 -28.8410 -28.8141 -28.7070
   -27.9754 -27.9316 -27.9157 -27.9052 -27.8075 -27.7765 -27.7501 -27.7033
   -27.6828 -27.6445 -27.5410 -27.5076 -27.4837 -27.4419 -27.4295 -27.4216
   -27.3866 -27.3595 -27.2742 -27.2705 -27.2106 -27.2079 -27.0608 -27.0534
    -8.7560  -8.3676  -7.9150  -7.5223  11.7677  11.8549  12.0127  12.1898
    12.5677  12.5930  13.6571  13.8732  13.9064  14.0958  14.3691  14.4360
    24.4041  24.4157  24.9561  25.1553  25.3529  25.4132  25.7164  26.1482
    26.4698  26.6342  26.6661  26.8419  26.8939  27.0105  27.1595  27.2693
    27.5618  27.6578  27.7150  27.7645  27.7921  27.8514  28.0884  28.2132
    28.4466  28.4598  28.7081  28.7866  28.7943  29.0269  29.0613  29.1808
    29.2952  29.3202  29.5427  29.6466  29.6971  29.8716  29.8775  29.9332
    30.0225  30.0424  30.2118  30.4957  30.5302  30.5923  30.6726  30.7079
    31.0136  31.1035  31.6086  31.6504  31.6560  31.9475  32.0950  32.8462
    33.6900  33.7482  34.0774  34.3327  35.2919  39.0337  39.2159  40.0865
    40.1525  40.1716  41.3282  41.4157  42.3181  42.8946  43.3216  43.8411
    43.9713  44.4476  44.5009  45.2915  45.8871  46.5120  46.5730  47.2476
    47.5645  48.3239  49.5192  49.5285  49.5335  50.0978  50.2847  50.4684
    51.1168  51.2238  51.3523  51.7484  51.8083  52.0080  52.4259  52.5598
    53.2602  53.6656  53.7476  53.9452  54.4189  54.5399  54.7350  54.9075
    55.5143  55.7120  56.2173  57.0054  57.0148  57.2064  57.6218  57.9553
    58.5043  58.5830  58.8902  59.0763  59.4188  59.7238  59.8706  59.9212
    60.1936  60.3860  60.4817  60.7131  60.8047  60.9218  61.1859  61.3873
    61.4270  61.7687  62.2899  62.5130  62.8015  62.9591  62.9882  63.1269
    63.7268  63.7497  63.8760  64.0027  64.0548  64.4698  64.4844  64.7555
    65.3153  65.5956  65.9904

[...]

          k =-0.5000 0.0000 0.0000 (  4798 PWs)   bands (ev):

[...]

     the Fermi energy is    58.2102 ev

!    total energy              =   -5474.73558669 Ry
     Harris-Foulkes estimate   =   -5474.73565527 Ry
     estimated scf accuracy    <       0.00007365 Ry

     The total energy is the sum of the following terms:

     one-electron contribution =    -388.87382310 Ry
     hartree contribution      =     700.32679117 Ry
     xc contribution           =    -481.61444963 Ry
     ewald contribution        =   -5304.07542569 Ry
     smearing contrib. (-TS)   =      -0.49867944 Ry

     convergence has been achieved in  10 iterations

     Forces acting on atoms (Ry/au):

     atom    1 type  1   force =     1.00401344   -1.13869448   -1.46571651
     atom    2 type  1   force =    -1.00401344   -1.13869448    1.46571651
     atom    3 type  1   force =     1.00401344    1.13869448   -1.46571651
     atom    4 type  1   force =    -1.75451379   -0.66014366    0.00000000
     atom    5 type  1   force =    -1.00401344   -1.13869448   -1.46571651
     atom    6 type  1   force =     1.00401344   -1.13869448    1.46571651
     atom    7 type  1   force =     1.75451379   -0.66014366    0.00000000
     atom    8 type  1   force =    -1.00401344    1.13869448   -1.46571651
     atom    9 type  1   force =     1.00401344    1.13869448    1.46571651
     atom   10 type  1   force =     1.75451379    0.66014366    0.00000000
     atom   11 type  1   force =    -1.00401344    1.13869448    1.46571651
     atom   12 type  1   force =    -1.75451379    0.66014366    0.00000000
     atom   13 type  2   force =     0.00000000    0.00000000    0.00000000
     atom   14 type  2   force =     0.00000000    0.00000000    0.00000000
     atom   15 type  2   force =     0.00000000    0.00000000    0.00000000
     atom   16 type  2   force =     0.00000000    0.00000000    0.00000000

     Total force =     7.048431     Total SCF correction =     0.000000

     entering subroutine stress ...

          total   stress  (Ry/bohr**3)                   (kbar)     P=12763.56
   0.08744969   0.00000000   0.00000000      12864.29      0.00      0.00
   0.00000000   0.08663309   0.00000000          0.00  12744.16      0.00
   0.00000000   0.00000000   0.08621193          0.00      0.00  12682.21

     BFGS Geometry Optimization

     number of scf cycles    =   1
     number of bfgs steps    =   0

     enthalpy new            =   -5474.7355866941 Ry

     new trust radius        =       0.5000000000 bohr
     new conv_thr            =       0.0001000000 Ry

     new unit-cell volume =   1384.55187 a.u.^3 (   205.16942 Ang^3 )

CELL_PARAMETERS (alat=  8.80076499)
   1.074803866   0.000000000   0.000000000
   0.000000000   1.164084378   0.000000000
   0.000000000   0.000000000   1.623432655

ATOMIC_POSITIONS (crystal)
Fe       0.351197416   0.164551161   0.918709034
Fe       0.148802584   0.664551161   0.581290966
Fe       0.851197416   0.335448839   0.418709034
Fe       0.332842779   0.447840866   0.250000000
Fe       0.148802584   0.664551161   0.918709034
Fe       0.351197416   0.164551161   0.581290966
Fe       0.167157221   0.947840866   0.250000000
Fe       0.648802584   0.835448839   0.418709034
Fe       0.851197416   0.335448839   0.081290966
Fe       0.667157221   0.552159134   0.750000000
Fe       0.648802584   0.835448839   0.081290966
Fe       0.832842779   0.052159134   0.750000000
C        0.000000000   0.000000000   0.000000000
C        0.500000000   0.500000000   0.000000000
C        0.500000000   0.500000000   0.500000000
C        0.000000000   0.000000000   0.500000000

     Writing output data file Prototype-La-oP16-Fe3C.save
     NEW-OLD atomic charge density approx. for the potential
     NEW k-points:
        k(    1) = (   0.0000000   0.0000000   0.0000000), wk =   0.0833333
        k(    2) = (   0.0000000   0.0000000   0.1539947), wk =   0.1666667
        k(    3) = (   0.0000000   0.0000000  -0.3079894), wk =   0.0833333
        k(    4) = (   0.0000000   0.2863481   0.0000000), wk =   0.1666667
        k(    5) = (   0.0000000   0.2863481   0.1539947), wk =   0.3333333
        k(    6) = (   0.0000000   0.2863481  -0.3079894), wk =   0.1666667
        k(    7) = (  -0.4652012   0.0000000   0.0000000), wk =   0.0833333
        k(    8) = (  -0.4652012   0.0000000   0.1539947), wk =   0.1666667
        k(    9) = (  -0.4652012   0.0000000  -0.3079894), wk =   0.0833333
        k(   10) = (  -0.4652012   0.2863481   0.0000000), wk =   0.1666667
        k(   11) = (  -0.4652012   0.2863481   0.1539947), wk =   0.3333333
        k(   12) = (  -0.4652012   0.2863481  -0.3079894), wk =   0.1666667

[...]

          total   stress  (Ry/bohr**3)                   (kbar)     P= 5815.57
   0.04058429   0.00000000   0.00000000       5970.15      0.00      0.00
   0.00000000   0.03827090   0.00000000          0.00   5629.84      0.00
   0.00000000   0.00000000   0.03974508          0.00      0.00   5846.70

     The maximum number of steps has been reached.

     End of BFGS Geometry Optimization
Begin final coordinates
     new unit-cell volume =   1384.55187 a.u.^3 (   205.16942 Ang^3 )

CELL_PARAMETERS (alat=  8.80076499)
   1.074803866   0.000000000   0.000000000
   0.000000000   1.164084378   0.000000000
   0.000000000   0.000000000   1.623432655

ATOMIC_POSITIONS (crystal)
Fe       0.351197416   0.164551161   0.918709034
Fe       0.148802584   0.664551161   0.581290966
Fe       0.851197416   0.335448839   0.418709034
Fe       0.332842779   0.447840866   0.250000000
Fe       0.148802584   0.664551161   0.918709034
Fe       0.351197416   0.164551161   0.581290966
Fe       0.167157221   0.947840866   0.250000000
Fe       0.648802584   0.835448839   0.418709034
Fe       0.851197416   0.335448839   0.081290966
Fe       0.667157221   0.552159134   0.750000000
Fe       0.648802584   0.835448839   0.081290966
Fe       0.832842779   0.052159134   0.750000000
C        0.000000000   0.000000000   0.000000000
C        0.500000000   0.500000000   0.000000000
C        0.500000000   0.500000000   0.500000000
C        0.000000000   0.000000000   0.500000000
End final coordinates

     A final scf calculation at the relaxed structure.
     The G-vectors are recalculated for the final unit cell
     Results may differ from those at the preceding step.

     bravais-lattice index     =            0
     lattice parameter (alat)  =       8.8008  a.u.
     unit-cell volume          =    1384.5519 (a.u.)^3
     number of atoms/cell      =           16
     number of atomic types    =            2
     number of electrons       =       352.00
     number of Kohn-Sham states=          211
     kinetic-energy cutoff     =      40.0000  Ry
     charge density cutoff     =     160.0000  Ry
     convergence threshold     =      1.0E-04
     mixing beta               =       0.7000
     number of iterations used =            8  plain     mixing
     Exchange-correlation      = SLA-PZ-NOGX-NOGC ( 1 1 0 0 0)
     EXX-fraction              =        0.00

     celldm(1)=   8.800765  celldm(2)=   0.000000  celldm(3)=   0.000000
     celldm(4)=   0.000000  celldm(5)=   0.000000  celldm(6)=   0.000000

     crystal axes: (cart. coord. in units of alat)
               a(1) = (   1.074804   0.000000   0.000000 )
               a(2) = (   0.000000   1.164084   0.000000 )
               a(3) = (   0.000000   0.000000   1.623433 )

     reciprocal axes: (cart. coord. in units 2 pi/alat)
               b(1) = (  0.930402  0.000000  0.000000 )
               b(2) = (  0.000000  0.859044  0.000000 )
               b(3) = (  0.000000  0.000000  0.615979 )

     PseudoPot. # 1 for Yb read from file:
     /home/jld5415/pp.La/Yb.UPF
     MD5 check sum: 3e859b81cc28c53ec6aa3a2e888efcdf
     Pseudo is Norm-conserving, Zval = 24.0
     Generated in analytical, separable form
     Using radial grid of 1269 points,  6 beta functions with:
                l(1) =   0
                l(2) =   0
                l(3) =   1
                l(4) =   1
                l(5) =   2
                l(6) =   3

     PseudoPot. # 2 for Sm read from file:
     /home/jld5415/pp.La/Sm.UPF
     MD5 check sum: 5079e8b144a06bfcdbc14fb02b96ab09
     Pseudo is Norm-conserving, Zval = 16.0
     Generated in analytical, separable form
     Using radial grid of 1259 points,  6 beta functions with:
                l(1) =   0
                l(2) =   0
                l(3) =   1
                l(4) =   1
                l(5) =   2
                l(6) =   3

     atomic species   valence    mass     pseudopotential
        Fe            24.00    55.84500     Yb( 1.00)
        C             16.00    12.01070     Sm( 1.00)

      8 Sym. Ops., with inversion, found ( 6 have fractional translation)

   Cartesian axes

     site n.     atom                  positions (alat units)
         1           Fe  tau(   1) = (   0.3774683   0.1915514   1.4914622  )
         2           Fe  tau(   2) = (   0.1599336   0.7735936   0.9436867  )
         3           Fe  tau(   3) = (   0.9148703   0.3904908   0.6797459  )
         4           Fe  tau(   4) = (   0.3577407   0.5213246   0.4058582  )
         5           Fe  tau(   5) = (   0.1599336   0.7735936   1.4914622  )
         6           Fe  tau(   6) = (   0.3774683   0.1915514   0.9436867  )
         7           Fe  tau(   7) = (   0.1796612   1.1033667   0.4058582  )
         8           Fe  tau(   8) = (   0.6973355   0.9725329   0.6797459  )
         9           Fe  tau(   9) = (   0.9148703   0.3904908   0.1319704  )
        10           Fe  tau(  10) = (   0.7170632   0.6427598   1.2175745  )
        11           Fe  tau(  11) = (   0.6973355   0.9725329   0.1319704  )
        12           Fe  tau(  12) = (   0.8951426   0.0607176   1.2175745  )
        13           C   tau(  13) = (   0.0000000   0.0000000   0.0000000  )
        14           C   tau(  14) = (   0.5374019   0.5820422   0.0000000  )
        15           C   tau(  15) = (   0.5374019   0.5820422   0.8117163  )
        16           C   tau(  16) = (   0.0000000   0.0000000   0.8117163  )

     number of k points=    12  gaussian smearing, width (Ry)=  0.1000
                       cart. coord. in units 2pi/alat
        k(    1) = (   0.0000000   0.0000000   0.0000000), wk =   0.0833333
        k(    2) = (   0.0000000   0.0000000   0.1539947), wk =   0.1666667
        k(    3) = (   0.0000000   0.0000000  -0.3079894), wk =   0.0833333
        k(    4) = (   0.0000000   0.2863481   0.0000000), wk =   0.1666667
        k(    5) = (   0.0000000   0.2863481   0.1539947), wk =   0.3333333
        k(    6) = (   0.0000000   0.2863481  -0.3079894), wk =   0.1666667
        k(    7) = (  -0.4652012   0.0000000   0.0000000), wk =   0.0833333
        k(    8) = (  -0.4652012   0.0000000   0.1539947), wk =   0.1666667
        k(    9) = (  -0.4652012   0.0000000  -0.3079894), wk =   0.0833333
        k(   10) = (  -0.4652012   0.2863481   0.0000000), wk =   0.1666667
        k(   11) = (  -0.4652012   0.2863481   0.1539947), wk =   0.3333333
        k(   12) = (  -0.4652012   0.2863481  -0.3079894), wk =   0.1666667

     Largest allocated arrays     est. size (Mb)     dimensions
     Largest temporary arrays     est. size (Mb)     dimensions

     Initial potential from superposition of free atoms

     Starting from uniform charge
     Starting wfc are    0 randomized atomic wfcs

     Writing output data file Prototype-La-oP16-Fe3C.save

     Self-consistent Calculation

[...]

     iteration #  9     ecut=    40.00 Ry     beta=0.70
     CG style diagonalization
     c_bands:  1 eigenvalues not converged
     c_bands:  1 eigenvalues not converged
     c_bands:  1 eigenvalues not converged
     c_bands:  1 eigenvalues not converged
     ethr =  5.11E-07,  avg # of iterations =  4.0

     total energy              =   -5495.98013065 Ry
     Harris-Foulkes estimate   =   -5495.98036523 Ry
     estimated scf accuracy    <       0.00038867 Ry

     iteration # 10     ecut=    40.00 Ry     beta=0.70
     CG style diagonalization
     ethr =  1.10E-07,  avg # of iterations =  3.7

     End of self-consistent calculation

[...]

          k = 0.0000 0.2863-0.3080 (  5916 PWs)   bands (ev):

[...]

          k =-0.4652 0.2863-0.3080 (  5892 PWs)   bands (ev):

   -78.9939 -78.9939 -78.9931 -78.9931 -78.9740 -78.9740 -78.9456 -78.9456
   -78.6916 -78.6916 -78.6847 -78.6847 -38.5736 -38.5736 -38.5648 -38.5648
   -38.5192 -38.5192 -38.5087 -38.5087 -38.2399 -38.2399 -38.2359 -38.2359
   -37.9260 -37.9260 -37.9248 -37.9248 -37.8348 -37.8348 -37.8303 -37.8303
   -37.7121 -37.7121 -37.7017 -37.7017 -37.5810 -37.5810 -37.5763 -37.5763
   -37.5537 -37.5537 -37.5515 -37.5515 -37.3474 -37.3474 -37.3218 -37.3218
   -16.1204 -16.1204 -16.1200 -16.1200   5.6774   5.6774   5.6775   5.6775
     6.1518   6.1518   6.1532   6.1532   6.4467   6.4467   6.4563   6.4563
    17.2425  17.2425  17.2496  17.2496  17.6044  17.6044  17.6261  17.6261
    17.6973  17.6973  17.9943  17.9943  18.2187  18.2187  18.3857  18.3857
    18.5081  18.5081  18.8301  18.8301  18.9472  18.9472  19.0339  19.0339
    19.2154  19.2154  19.3153  19.3153  19.4469  19.4469  19.5200  19.5200
    19.8145  19.8145  19.8753  19.8753  20.0321  20.0321  20.0605  20.0605
    20.2047  20.2047  20.2990  20.2990  20.4426  20.4426  20.5070  20.5070
    20.8192  20.8192  20.8364  20.8364  21.1101  21.1101  21.1538  21.1538
    21.3436  21.3436  21.4140  21.4140  29.3222  29.3222  29.5171  29.5171
    31.4919  31.4919  31.5919  31.5919  33.0329  33.0329  33.7483  33.7483
    34.4004  34.4004  35.2942  35.2942  35.6651  35.6651  36.0057  36.0057
    37.1452  37.1452  37.7951  37.7951  38.1552  38.1552  38.5870  38.5870
    39.6972  39.6972  40.2528  40.2528  41.4326  41.4326  41.5446  41.5446
    41.9823  41.9823  42.6783  42.6783  44.3709  44.3709  44.7889  44.7889
    46.0505  46.0505  46.2733  46.2733  46.5384  46.5384  46.7259  46.7259
    47.1345  47.1345  47.6856  47.6856  48.6151  48.6151  49.1462  49.1462
    49.6127  49.6127  50.5692  50.5692  50.8555  50.8555  50.9692  50.9693
    51.4611  51.4611  51.6450  51.6450  52.2733  52.2734  52.2835  52.2837
    52.9398  52.9398  53.0129  53.0131  53.5105  53.5108  53.6816  53.6818
    53.9265  53.9267  54.2800

     the Fermi energy is    47.3664 ev

!    total energy              =   -5495.98020486 Ry
     Harris-Foulkes estimate   =   -5495.98028764 Ry
     estimated scf accuracy    <       0.00009363 Ry

     The total energy is the sum of the following terms:

     one-electron contribution =    -883.68538843 Ry
     hartree contribution      =     814.32015708 Ry
     xc contribution           =    -469.97091411 Ry
     ewald contribution        =   -4956.16744853 Ry
     smearing contrib. (-TS)   =      -0.47661086 Ry

     convergence has been achieved in  10 iterations

     Forces acting on atoms (Ry/au):

     atom    1 type  1   force =     0.57303042   -0.64063404   -0.79701447
     atom    2 type  1   force =    -0.57303042   -0.64063404    0.79701447
     atom    3 type  1   force =     0.57303042    0.64063404   -0.79701447
     atom    4 type  1   force =    -1.00281195   -0.40590836    0.00000000
     atom    5 type  1   force =    -0.57303042   -0.64063404   -0.79701447
     atom    6 type  1   force =     0.57303042   -0.64063404    0.79701447
     atom    7 type  1   force =     1.00281195   -0.40590836    0.00000000
     atom    8 type  1   force =    -0.57303042    0.64063404   -0.79701447
     atom    9 type  1   force =     0.57303042    0.64063404    0.79701447
     atom   10 type  1   force =     1.00281195    0.40590836    0.00000000
     atom   11 type  1   force =    -0.57303042    0.64063404    0.79701447
     atom   12 type  1   force =    -1.00281195    0.40590836    0.00000000
     atom   13 type  2   force =     0.00000000    0.00000000    0.00000000
     atom   14 type  2   force =     0.00000000    0.00000000    0.00000000
     atom   15 type  2   force =     0.00000000    0.00000000    0.00000000
     atom   16 type  2   force =     0.00000000    0.00000000    0.00000000

     Total force =     3.958994     Total SCF correction =     0.000000

     entering subroutine stress ...

          total   stress  (Ry/bohr**3)                   (kbar)     P= 6365.83
   0.04421856   0.00000000   0.00000000       6504.77      0.00      0.00
   0.00000000   0.04202703   0.00000000          0.00   6182.39      0.00
   0.00000000   0.00000000   0.04357660          0.00      0.00   6410.34

     Writing output data file Prototype-La-oP16-Fe3C.save

     General routines

     Parallel routines

   This run was terminated on:  13:14: 7  22Mar2018

   JOB DONE.