     Program PWSCF v.5.0.2 starts on 22Mar2018 at 12:13:47

     Current dimensions of program PWSCF are:
     Max number of different atomic species (ntypx) = 10
     Max number of k-points (npk) =  40000
     Max angular momentum in pseudopotentials (lmaxx) =  3
     Waiting for input...
     Reading input from standard input

     Subspace diagonalization in iterative solution of the eigenvalue problem:
     a serial algorithm will be used

     bravais-lattice index     =            0
     lattice parameter (alat)  =      12.0168  a.u.
     unit-cell volume          =    1187.3413 (a.u.)^3
     number of atoms/cell      =            8
     number of atomic types    =            2
     number of electrons       =       176.00
     number of Kohn-Sham states=          106
     kinetic-energy cutoff     =      40.0000  Ry
     charge density cutoff     =     160.0000  Ry
     convergence threshold     =      1.0E-04
     mixing beta               =       0.7000
     number of iterations used =            8  plain     mixing
     Exchange-correlation      = SLA-PZ-NOGX-NOGC ( 1 1 0 0 0)
     EXX-fraction              =        0.00
     nstep                     =           50

     celldm(1)=  12.016801  celldm(2)=   0.000000  celldm(3)=   0.000000
     celldm(4)=   0.000000  celldm(5)=   0.000000  celldm(6)=   0.000000

     crystal axes: (cart. coord. in units of alat)
               a(1) = (   1.000000   0.000000   0.000000 )
               a(2) = (  -0.500000   0.866025   0.000000 )
               a(3) = (   0.000000   0.000000   0.790093 )

     reciprocal axes: (cart. coord. in units 2 pi/alat)
               b(1) = (  1.000000  0.577350  0.000000 )
               b(2) = (  0.000000  1.154701  0.000000 )
               b(3) = (  0.000000  0.000000  1.265674 )

     PseudoPot. # 1 for Yb read from file:
     /home/jld5415/pp.La/Yb.UPF
     MD5 check sum: 3e859b81cc28c53ec6aa3a2e888efcdf
     Pseudo is Norm-conserving, Zval = 24.0
     Generated in analytical, separable form
     Using radial grid of 1269 points,  6 beta functions with:
                l(1) =   0
                l(2) =   0
                l(3) =   1
                l(4) =   1
                l(5) =   2
                l(6) =   3

     PseudoPot. # 2 for Sm read from file:
     /home/jld5415/pp.La/Sm.UPF
     MD5 check sum: 5079e8b144a06bfcdbc14fb02b96ab09
     Pseudo is Norm-conserving, Zval = 16.0
     Generated in analytical, separable form
     Using radial grid of 1259 points,  6 beta functions with:
                l(1) =   0
                l(2) =   0
                l(3) =   1
                l(4) =   1
                l(5) =   2
                l(6) =   3

     atomic species   valence    mass     pseudopotential
        Mg            24.00    24.30500     Yb( 1.00)
        Cd            16.00   112.41100     Sm( 1.00)

     24 Sym. Ops., with inversion, found (12 have fractional translation)

   Cartesian axes

     site n.     atom                  positions (alat units)
         1           Mg  tau(   1) = (   0.2478935   0.7204716   0.1975233  )
         2           Mg  tau(   2) = (   0.7478935   0.1455538   0.5925699  )
         3           Mg  tau(   3) = (   0.2521065   0.1455538   0.5925699  )
         4           Mg  tau(   4) = (  -0.2478935   0.7204716   0.1975233  )
         5           Mg  tau(   5) = (   0.0000000   0.2911075   0.1975233  )
         6           Mg  tau(   6) = (   0.5000000   0.5749179   0.5925699  )
         7           Cd  tau(   7) = (   0.5000005   0.2886748   0.1975233  )
         8           Cd  tau(   8) = (  -0.0000005   0.5773506   0.5925699  )

     number of k points=    64  gaussian smearing, width (Ry)=  0.1000
                       cart. coord. in units 2pi/alat
        k(    1) = (   0.0000000   0.0000000   0.0000000), wk =   0.0095238
        k(    2) = (   0.0000000   0.0000000   0.1808105), wk =   0.0190476
        k(    3) = (   0.0000000   0.0000000   0.3616210), wk =   0.0190476
        k(    4) = (   0.0000000   0.0000000   0.5424315), wk =   0.0190476
        k(    5) = (   0.0000000   0.1924501   0.0000000), wk =   0.0190476
        k(    6) = (   0.0000000   0.1924501   0.1808105), wk =   0.0380952
        k(    7) = (   0.0000000   0.1924501   0.3616210), wk =   0.0380952
        k(    8) = (   0.0000000   0.1924501   0.5424315), wk =   0.0380952
        k(    9) = (   0.0000000   0.3849002   0.0000000), wk =   0.0190476
        k(   10) = (   0.0000000   0.3849002   0.1808105), wk =   0.0380952
        k(   11) = (   0.0000000   0.3849002   0.3616210), wk =   0.0380952
        k(   12) = (   0.0000000   0.3849002   0.5424315), wk =   0.0380952
        k(   13) = (   0.0000000  -0.5773503   0.0000000), wk =   0.0095238
        k(   14) = (   0.0000000  -0.5773503   0.1808105), wk =   0.0190476
        k(   15) = (   0.0000000  -0.5773503   0.3616210), wk =   0.0190476
        k(   16) = (   0.0000000  -0.5773503   0.5424315), wk =   0.0190476
        k(   17) = (   0.2000000   0.1154701   0.0000000), wk =   0.0190476
        k(   18) = (   0.2000000   0.1154701   0.1808105), wk =   0.0380952
        k(   19) = (   0.2000000   0.1154701   0.3616210), wk =   0.0380952
        k(   20) = (   0.2000000   0.1154701   0.5424315), wk =   0.0380952
        k(   21) = (   0.2000000   0.3079201   0.0000000), wk =   0.0190476
        k(   22) = (   0.2000000   0.3079201   0.1808105), wk =   0.0380952
        k(   23) = (   0.2000000   0.3079201   0.3616210), wk =   0.0380952
        k(   24) = (   0.2000000   0.3079201   0.5424315), wk =   0.0380952
        k(   25) = (   0.2000000   0.5003702   0.0000000), wk =   0.0190476
        k(   26) = (   0.2000000   0.5003702   0.1808105), wk =   0.0380952
        k(   27) = (   0.2000000   0.5003702   0.3616210), wk =   0.0380952
        k(   28) = (   0.2000000   0.5003702   0.5424315), wk =   0.0380952
        k(   29) = (   0.2000000  -0.4618802   0.0000000), wk =   0.0190476
        k(   30) = (   0.2000000  -0.4618802   0.1808105), wk =   0.0380952
        k(   31) = (   0.2000000  -0.4618802   0.3616210), wk =   0.0380952
        k(   32) = (   0.2000000  -0.4618802   0.5424315), wk =   0.0380952
        k(   33) = (   0.2000000  -0.2694301   0.0000000), wk =   0.0190476
        k(   34) = (   0.2000000  -0.2694301   0.1808105), wk =   0.0380952
        k(   35) = (   0.2000000  -0.2694301   0.3616210), wk =   0.0380952
        k(   36) = (   0.2000000  -0.2694301   0.5424315), wk =   0.0380952
        k(   37) = (   0.2000000  -0.0769800   0.0000000), wk =   0.0190476
        k(   38) = (   0.2000000  -0.0769800   0.1808105), wk =   0.0380952
        k(   39) = (   0.2000000  -0.0769800   0.3616210), wk =   0.0380952
        k(   40) = (   0.2000000  -0.0769800   0.5424315), wk =   0.0380952
        k(   41) = (   0.4000000   0.2309401   0.0000000), wk =   0.0190476
        k(   42) = (   0.4000000   0.2309401   0.1808105), wk =   0.0380952
        k(   43) = (   0.4000000   0.2309401   0.3616210), wk =   0.0380952
        k(   44) = (   0.4000000   0.2309401   0.5424315), wk =   0.0380952
        k(   45) = (   0.4000000   0.4233902   0.0000000), wk =   0.0190476
        k(   46) = (   0.4000000   0.4233902   0.1808105), wk =   0.0380952
        k(   47) = (   0.4000000   0.4233902   0.3616210), wk =   0.0380952
        k(   48) = (   0.4000000   0.4233902   0.5424315), wk =   0.0380952
        k(   49) = (   0.4000000   0.6158403   0.0000000), wk =   0.0190476
        k(   50) = (   0.4000000   0.6158403   0.1808105), wk =   0.0380952
        k(   51) = (   0.4000000   0.6158403   0.3616210), wk =   0.0380952
        k(   52) = (   0.4000000   0.6158403   0.5424315), wk =   0.0380952
        k(   53) = (   0.4000000  -0.3464102   0.0000000), wk =   0.0190476
        k(   54) = (   0.4000000  -0.3464102   0.1808105), wk =   0.0380952
        k(   55) = (   0.4000000  -0.3464102   0.3616210), wk =   0.0380952
        k(   56) = (   0.4000000  -0.3464102   0.5424315), wk =   0.0380952
        k(   57) = (   0.4000000  -0.1539601   0.0000000), wk =   0.0190476
        k(   58) = (   0.4000000  -0.1539601   0.1808105), wk =   0.0380952
        k(   59) = (   0.4000000  -0.1539601   0.3616210), wk =   0.0380952
        k(   60) = (   0.4000000  -0.1539601   0.5424315), wk =   0.0380952
        k(   61) = (   0.4000000   0.0384900   0.0000000), wk =   0.0190476
        k(   62) = (   0.4000000   0.0384900   0.1808105), wk =   0.0380952
        k(   63) = (   0.4000000   0.0384900   0.3616210), wk =   0.0380952
        k(   64) = (   0.4000000   0.0384900   0.5424315), wk =   0.0380952

     Largest allocated arrays     est. size (Mb)     dimensions
     Largest temporary arrays     est. size (Mb)     dimensions

     Initial potential from superposition of free atoms

     Starting from uniform charge
     Starting wfc are    0 randomized atomic wfcs

     Self-consistent Calculation

     iteration #  1     ecut=    40.00 Ry     beta=0.70
     CG style diagonalization
     ethr =  1.00E-02,  avg # of iterations = 19.4

     total energy              =   -1987.84484737 Ry
     Harris-Foulkes estimate   =   -3717.53811604 Ry
     estimated scf accuracy    <    2099.77744699 Ry

     iteration #  2     ecut=    40.00 Ry     beta=0.70
     CG style diagonalization
     c_bands:  4 eigenvalues not converged
     c_bands:  3 eigenvalues not converged
     c_bands:  4 eigenvalues not converged
     c_bands:  4 eigenvalues not converged
     c_bands:  3 eigenvalues not converged
     c_bands:  5 eigenvalues not converged
     c_bands:  5 eigenvalues not converged
     c_bands:  4 eigenvalues not converged
     c_bands:  4 eigenvalues not converged
     c_bands:  2 eigenvalues not converged
     c_bands:  5 eigenvalues not converged
     c_bands:  2 eigenvalues not converged
     c_bands:  5 eigenvalues not converged
     c_bands:  3 eigenvalues not converged
     c_bands:  5 eigenvalues not converged
     c_bands:  3 eigenvalues not converged
     c_bands:  4 eigenvalues not converged
     c_bands:  2 eigenvalues not converged
     c_bands:  3 eigenvalues not converged
     c_bands:  4 eigenvalues not converged
     c_bands:  2 eigenvalues not converged
     c_bands:  2 eigenvalues not converged
     c_bands:  2 eigenvalues not converged
     c_bands:  5 eigenvalues not converged
     c_bands:  2 eigenvalues not converged
     c_bands:  5 eigenvalues not converged
     c_bands:  4 eigenvalues not converged
     c_bands:  4 eigenvalues not converged
     c_bands:  5 eigenvalues not converged
     c_bands:  3 eigenvalues not converged
     c_bands:  3 eigenvalues not converged
     c_bands:  4 eigenvalues not converged
     c_bands:  3 eigenvalues not converged
     c_bands:  5 eigenvalues not converged
     c_bands:  5 eigenvalues not converged
     ethr =  1.00E-02,  avg # of iterations = 16.2

[...]

     End of self-consistent calculation

          k = 0.0000 0.0000 0.0000 (  5047 PWs)   bands (ev):

   -98.1135 -98.1134 -98.1076 -98.0496 -98.0495 -98.0115 -56.9167 -56.8943
   -56.8942 -56.8902 -56.8889 -56.8855 -56.8855 -56.8842 -56.8841 -56.8797
[...]
        k(   14) = (   0.0000000  -0.5973381   0.1872753), wk =   0.0190476
        k(   15) = (   0.0000000  -0.5973381   0.3745506), wk =   0.0190476
        k(   16) = (   0.0000000  -0.5973381   0.5618259), wk =   0.0190476
        k(   17) = (   0.2069240   0.1194676   0.0000000), wk =   0.0190476
        k(   18) = (   0.2069240   0.1194676   0.1872753), wk =   0.0380952
        k(   19) = (   0.2069240   0.1194676   0.3745506), wk =   0.0380952
        k(   20) = (   0.2069240   0.1194676   0.5618259), wk =   0.0380952
        k(   21) = (   0.2069240   0.3185803   0.0000000), wk =   0.0190476
        k(   22) = (   0.2069240   0.3185803   0.1872753), wk =   0.0380952
        k(   23) = (   0.2069240   0.3185803   0.3745506), wk =   0.0380952
        k(   24) = (   0.2069240   0.3185803   0.5618259), wk =   0.0380952
        k(   25) = (   0.2069240   0.5176931   0.0000000), wk =   0.0190476
        k(   26) = (   0.2069240   0.5176931   0.1872753), wk =   0.0380952
        k(   27) = (   0.2069240   0.5176931   0.3745506), wk =   0.0380952
        k(   28) = (   0.2069240   0.5176931   0.5618259), wk =   0.0380952
        k(   29) = (   0.2069240  -0.4778705   0.0000000), wk =   0.0190476
        k(   30) = (   0.2069240  -0.4778705   0.1872753), wk =   0.0380952
        k(   31) = (   0.2069240  -0.4778705   0.3745506), wk =   0.0380952
        k(   32) = (   0.2069240  -0.4778705   0.5618259), wk =   0.0380952
        k(   33) = (   0.2069240  -0.2787578   0.0000000), wk =   0.0190476
        k(   34) = (   0.2069240  -0.2787578   0.1872753), wk =   0.0380952
        k(   35) = (   0.2069240  -0.2787578   0.3745506), wk =   0.0380952
        k(   36) = (   0.2069240  -0.2787578   0.5618259), wk =   0.0380952
        k(   37) = (   0.2069240  -0.0796451   0.0000000), wk =   0.0190476
        k(   38) = (   0.2069240  -0.0796451   0.1872753), wk =   0.0380952
        k(   39) = (   0.2069240  -0.0796451   0.3745506), wk =   0.0380952
        k(   40) = (   0.2069240  -0.0796451   0.5618259), wk =   0.0380952
        k(   41) = (   0.4138480   0.2389353   0.0000000), wk =   0.0190476
        k(   42) = (   0.4138480   0.2389353   0.1872753), wk =   0.0380952
        k(   43) = (   0.4138480   0.2389353   0.3745506), wk =   0.0380952
        k(   44) = (   0.4138480   0.2389353   0.5618259), wk =   0.0380952
        k(   45) = (   0.4138480   0.4380480   0.0000000), wk =   0.0190476
        k(   46) = (   0.4138480   0.4380480   0.1872753), wk =   0.0380952
        k(   47) = (   0.4138480   0.4380480   0.3745506), wk =   0.0380952
        k(   48) = (   0.4138480   0.4380480   0.5618259), wk =   0.0380952
        k(   49) = (   0.4138480   0.6371607   0.0000000), wk =   0.0190476
        k(   50) = (   0.4138480   0.6371607   0.1872753), wk =   0.0380952
        k(   51) = (   0.4138480   0.6371607   0.3745506), wk =   0.0380952
        k(   52) = (   0.4138480   0.6371607   0.5618259), wk =   0.0380952
        k(   53) = (   0.4138480  -0.3584029   0.0000000), wk =   0.0190476
        k(   54) = (   0.4138480  -0.3584029   0.1872753), wk =   0.0380952
        k(   55) = (   0.4138480  -0.3584029   0.3745506), wk =   0.0380952
        k(   56) = (   0.4138480  -0.3584029   0.5618259), wk =   0.0380952
        k(   57) = (   0.4138480  -0.1592902   0.0000000), wk =   0.0190476
        k(   58) = (   0.4138480  -0.1592902   0.1872753), wk =   0.0380952
        k(   59) = (   0.4138480  -0.1592902   0.3745506), wk =   0.0380952
        k(   60) = (   0.4138480  -0.1592902   0.5618259), wk =   0.0380952
        k(   61) = (   0.4138480   0.0398225   0.0000000), wk =   0.0190476
        k(   62) = (   0.4138480   0.0398225   0.1872753), wk =   0.0380952
        k(   63) = (   0.4138480   0.0398225   0.3745506), wk =   0.0380952
        k(   64) = (   0.4138480   0.0398225   0.5618259), wk =   0.0380952

[...]

     The maximum number of steps has been reached.

     End of BFGS Geometry Optimization
Begin final coordinates
     new unit-cell volume =   1070.91996 a.u.^3 (   158.69396 Ang^3 )

CELL_PARAMETERS (alat= 12.01680127)
   0.966538427   0.000000000   0.000000000
  -0.483269214   0.837046832   0.000000000
   0.000000000   0.000000000   0.762818986

ATOMIC_POSITIONS (crystal)
Mg       0.653216360   0.826608180   0.250000000
Mg       0.826608180   0.173391820   0.750000000
Mg       0.346783640   0.173391820   0.750000000
Mg       0.173391820   0.826608180   0.250000000
Mg       0.173391820   0.346783640   0.250000000
Mg       0.826608180   0.653216360   0.750000000
Cd       0.666667000   0.333333000   0.250000000
Cd       0.333333000   0.666667000   0.750000000
End final coordinates

     A final scf calculation at the relaxed structure.
     The G-vectors are recalculated for the final unit cell
     Results may differ from those at the preceding step.

     bravais-lattice index     =            0
     lattice parameter (alat)  =      12.0168  a.u.
     unit-cell volume          =    1070.9200 (a.u.)^3
     number of atoms/cell      =            8
     number of atomic types    =            2
     number of electrons       =       176.00
     number of Kohn-Sham states=          106
     kinetic-energy cutoff     =      40.0000  Ry
     charge density cutoff     =     160.0000  Ry
     convergence threshold     =      1.0E-04
     mixing beta               =       0.7000
     number of iterations used =            8  plain     mixing
     Exchange-correlation      = SLA-PZ-NOGX-NOGC ( 1 1 0 0 0)
     EXX-fraction              =        0.00

     celldm(1)=  12.016801  celldm(2)=   0.000000  celldm(3)=   0.000000
     celldm(4)=   0.000000  celldm(5)=   0.000000  celldm(6)=   0.000000

     crystal axes: (cart. coord. in units of alat)
               a(1) = (   0.966538   0.000000   0.000000 )
               a(2) = (  -0.483269   0.837047   0.000000 )
               a(3) = (   0.000000   0.000000   0.762819 )

     reciprocal axes: (cart. coord. in units 2 pi/alat)
               b(1) = (  1.034620  0.597338  0.000000 )
               b(2) = (  0.000000  1.194676  0.000000 )
               b(3) = (  0.000000  0.000000  1.310927 )

     PseudoPot. # 1 for Yb read from file:
     /home/jld5415/pp.La/Yb.UPF
     MD5 check sum: 3e859b81cc28c53ec6aa3a2e888efcdf
     Pseudo is Norm-conserving, Zval = 24.0
     Generated in analytical, separable form
     Using radial grid of 1269 points,  6 beta functions with:
                l(1) =   0
                l(2) =   0
                l(3) =   1
                l(4) =   1
                l(5) =   2
                l(6) =   3

     PseudoPot. # 2 for Sm read from file:
     /home/jld5415/pp.La/Sm.UPF
     MD5 check sum: 5079e8b144a06bfcdbc14fb02b96ab09
     Pseudo is Norm-conserving, Zval = 16.0
     Generated in analytical, separable form
     Using radial grid of 1259 points,  6 beta functions with:
                l(1) =   0
                l(2) =   0
                l(3) =   1
                l(4) =   1
                l(5) =   2
                l(6) =   3

     atomic species   valence    mass     pseudopotential
        Mg            24.00    24.30500     Yb( 1.00)
        Cd            16.00   112.41100     Sm( 1.00)

     24 Sym. Ops., with inversion, found (12 have fractional translation)

   Cartesian axes

     site n.     atom                  positions (alat units)
         1           Mg  tau(   1) = (   0.2318844   0.6919098   0.1907047  )
         2           Mg  tau(   2) = (   0.7151536   0.1451371   0.5721142  )
         3           Mg  tau(   3) = (   0.2513848   0.1451371   0.5721142  )
         4           Mg  tau(   4) = (  -0.2318844   0.6919098   0.1907047  )
         5           Mg  tau(   5) = (   0.0000000   0.2902741   0.1907047  )
         6           Mg  tau(   6) = (   0.4832692   0.5467727   0.5721142  )
         7           Cd  tau(   7) = (   0.4832697   0.2790153   0.1907047  )
         8           Cd  tau(   8) = (  -0.0000005   0.5580315   0.5721142  )

     number of k points=    64  gaussian smearing, width (Ry)=  0.1000
                       cart. coord. in units 2pi/alat
        k(    1) = (   0.0000000   0.0000000   0.0000000), wk =   0.0095238
        k(    2) = (   0.0000000   0.0000000   0.1872753), wk =   0.0190476
        k(    3) = (   0.0000000   0.0000000   0.3745506), wk =   0.0190476
        k(    4) = (   0.0000000   0.0000000   0.5618259), wk =   0.0190476
        k(    5) = (   0.0000000   0.1991127   0.0000000), wk =   0.0190476
        k(    6) = (   0.0000000   0.1991127   0.1872753), wk =   0.0380952
        k(    7) = (   0.0000000   0.1991127   0.3745506), wk =   0.0380952
        k(    8) = (   0.0000000   0.1991127   0.5618259), wk =   0.0380952
        k(    9) = (   0.0000000   0.3982254   0.0000000), wk =   0.0190476
        k(   10) = (   0.0000000   0.3982254   0.1872753), wk =   0.0380952
        k(   11) = (   0.0000000   0.3982254   0.3745506), wk =   0.0380952
        k(   12) = (   0.0000000   0.3982254   0.5618259), wk =   0.0380952
        k(   13) = (   0.0000000  -0.5973381   0.0000000), wk =   0.0095238
        k(   14) = (   0.0000000  -0.5973381   0.1872753), wk =   0.0190476
        k(   15) = (   0.0000000  -0.5973381   0.3745506), wk =   0.0190476
        k(   16) = (   0.0000000  -0.5973381   0.5618259), wk =   0.0190476
        k(   17) = (   0.2069240   0.1194676   0.0000000), wk =   0.0190476
        k(   18) = (   0.2069240   0.1194676   0.1872753), wk =   0.0380952
        k(   19) = (   0.2069240   0.1194676   0.3745506), wk =   0.0380952
        k(   20) = (   0.2069240   0.1194676   0.5618259), wk =   0.0380952
        k(   21) = (   0.2069240   0.3185803   0.0000000), wk =   0.0190476
        k(   22) = (   0.2069240   0.3185803   0.1872753), wk =   0.0380952
        k(   23) = (   0.2069240   0.3185803   0.3745506), wk =   0.0380952
        k(   24) = (   0.2069240   0.3185803   0.5618259), wk =   0.0380952
        k(   25) = (   0.2069240   0.5176931   0.0000000), wk =   0.0190476
        k(   26) = (   0.2069240   0.5176931   0.1872753), wk =   0.0380952
        k(   27) = (   0.2069240   0.5176931   0.3745506), wk =   0.0380952
        k(   28) = (   0.2069240   0.5176931   0.5618259), wk =   0.0380952
        k(   29) = (   0.2069240  -0.4778705   0.0000000), wk =   0.0190476
        k(   30) = (   0.2069240  -0.4778705   0.1872753), wk =   0.0380952
        k(   31) = (   0.2069240  -0.4778705   0.3745506), wk =   0.0380952
        k(   32) = (   0.2069240  -0.4778705   0.5618259), wk =   0.0380952
        k(   33) = (   0.2069240  -0.2787578   0.0000000), wk =   0.0190476
        k(   34) = (   0.2069240  -0.2787578   0.1872753), wk =   0.0380952
        k(   35) = (   0.2069240  -0.2787578   0.3745506), wk =   0.0380952
        k(   36) = (   0.2069240  -0.2787578   0.5618259), wk =   0.0380952
        k(   37) = (   0.2069240  -0.0796451   0.0000000), wk =   0.0190476
        k(   38) = (   0.2069240  -0.0796451   0.1872753), wk =   0.0380952
        k(   39) = (   0.2069240  -0.0796451   0.3745506), wk =   0.0380952
        k(   40) = (   0.2069240  -0.0796451   0.5618259), wk =   0.0380952
        k(   41) = (   0.4138480   0.2389353   0.0000000), wk =   0.0190476
        k(   42) = (   0.4138480   0.2389353   0.1872753), wk =   0.0380952
        k(   43) = (   0.4138480   0.2389353   0.3745506), wk =   0.0380952
        k(   44) = (   0.4138480   0.2389353   0.5618259), wk =   0.0380952
        k(   45) = (   0.4138480   0.4380480   0.0000000), wk =   0.0190476
        k(   46) = (   0.4138480   0.4380480   0.1872753), wk =   0.0380952
        k(   47) = (   0.4138480   0.4380480   0.3745506), wk =   0.0380952
        k(   48) = (   0.4138480   0.4380480   0.5618259), wk =   0.0380952
        k(   49) = (   0.4138480   0.6371607   0.0000000), wk =   0.0190476
        k(   50) = (   0.4138480   0.6371607   0.1872753), wk =   0.0380952
        k(   51) = (   0.4138480   0.6371607   0.3745506), wk =   0.0380952
        k(   52) = (   0.4138480   0.6371607   0.5618259), wk =   0.0380952
        k(   53) = (   0.4138480  -0.3584029   0.0000000), wk =   0.0190476
        k(   54) = (   0.4138480  -0.3584029   0.1872753), wk =   0.0380952
        k(   55) = (   0.4138480  -0.3584029   0.3745506), wk =   0.0380952
        k(   56) = (   0.4138480  -0.3584029   0.5618259), wk =   0.0380952
        k(   57) = (   0.4138480  -0.1592902   0.0000000), wk =   0.0190476
        k(   58) = (   0.4138480  -0.1592902   0.1872753), wk =   0.0380952
        k(   59) = (   0.4138480  -0.1592902   0.3745506), wk =   0.0380952
        k(   60) = (   0.4138480  -0.1592902   0.5618259), wk =   0.0380952
        k(   61) = (   0.4138480   0.0398225   0.0000000), wk =   0.0190476
        k(   62) = (   0.4138480   0.0398225   0.1872753), wk =   0.0380952
        k(   63) = (   0.4138480   0.0398225   0.3745506), wk =   0.0380952
        k(   64) = (   0.4138480   0.0398225   0.5618259), wk =   0.0380952

     Largest allocated arrays     est. size (Mb)     dimensions
     Largest temporary arrays     est. size (Mb)     dimensions

     Initial potential from superposition of free atoms

     Starting from uniform charge
     Starting wfc are    0 randomized atomic wfcs

     Writing output data file Prototype-La-hP8-Mg3Cd.save

     Self-consistent Calculation

[...]

     iteration # 10     ecut=    40.00 Ry     beta=0.70
     CG style diagonalization
     c_bands:  1 eigenvalues not converged
     ethr =  1.41E-06,  avg # of iterations =  3.3

     total energy              =   -2760.13831763 Ry
     Harris-Foulkes estimate   =   -2760.13844804 Ry
     estimated scf accuracy    <       0.00030629 Ry

     iteration # 11     ecut=    40.00 Ry     beta=0.70
     CG style diagonalization
     ethr =  1.74E-07,  avg # of iterations =  3.6

     End of self-consistent calculation

[...]

          k = 0.4138 0.0398 0.5618 (  4572 PWs)   bands (ev):

   -94.9541 -94.9455 -94.9428 -94.9214 -94.9186 -94.9085 -53.7579 -53.7535
   -53.7508 -53.7476 -53.7439 -53.7433 -53.7401 -53.7377 -53.7326 -53.7316
   -53.7264 -53.7237 -53.7197 -53.7177 -53.7160 -53.7149 -53.7120 -53.7111
   -27.8927 -27.8924  -3.4002  -3.3975  -3.2261  -3.2240  -3.2194  -3.2151
     3.6735   3.6859   3.7730   3.7905   3.8569   3.8794   3.9581   3.9990
     4.0212   4.0384   4.0804   4.0873   4.1428   4.2460   4.2709   4.2887
     4.3027   4.3393   4.3697   4.3844   4.4330   4.4658   4.4768   4.4836
     4.5470   4.5615   4.6855   4.7001   4.7351   4.7779  14.2304  15.1320
    16.1687  16.6196  17.5833  17.9655  20.8242  21.3974  21.5092  22.0097
    23.3693  23.4323  24.5430  24.8762  25.1581  25.4828  26.4853  26.5957
    26.7115  26.8409  27.8397  27.9304  28.3594  28.6307  29.3877  30.1335
    30.3773  30.6810  31.2956  31.4371  31.9701  32.0931  32.6490  32.9647
    33.0837  34.0903  34.3088  34.3645  34.6108  35.1729  35.7224  35.9427
    36.1161  36.4150

     the Fermi energy is    29.8003 ev

!    total energy              =   -2760.13836050 Ry
     Harris-Foulkes estimate   =   -2760.13839737 Ry
     estimated scf accuracy    <       0.00003635 Ry

     The total energy is the sum of the following terms:

     one-electron contribution =    -809.28696775 Ry
     hartree contribution      =     487.89023853 Ry
     xc contribution           =    -225.02839553 Ry
     ewald contribution        =   -2213.41028932 Ry
     smearing contrib. (-TS)   =      -0.30294643 Ry

     convergence has been achieved in  11 iterations

     Forces acting on atoms (Ry/au):

     atom    1 type  1   force =     0.01144500    0.00660777    0.00000000
     atom    2 type  1   force =     0.01144500   -0.00660777    0.00000000
     atom    3 type  1   force =    -0.01144500   -0.00660777    0.00000000
     atom    4 type  1   force =    -0.01144500    0.00660777    0.00000000
     atom    5 type  1   force =     0.00000000   -0.01321555    0.00000000
     atom    6 type  1   force =     0.00000000    0.01321555    0.00000000
     atom    7 type  2   force =     0.00000000    0.00000000    0.00000000
     atom    8 type  2   force =     0.00000000    0.00000000    0.00000000

     Total force =     0.032371     Total SCF correction =     0.000000

     entering subroutine stress ...

          total   stress  (Ry/bohr**3)                   (kbar)     P=  118.03
   0.00090189   0.00000000   0.00000000        132.67      0.00      0.00
   0.00000000   0.00090189   0.00000000          0.00    132.67      0.00
   0.00000000   0.00000000   0.00060334          0.00      0.00     88.75

     Writing output data file Prototype-La-hP8-Mg3Cd.save

     General routines

     Parallel routines

   This run was terminated on:  13:14:35  22Mar2018

   JOB DONE.