     Program PWSCF v.5.0.2 starts on 22Mar2018 at 17:36:40

     Current dimensions of program PWSCF are:
     Max number of different atomic species (ntypx) = 10
     Max number of k-points (npk) =  40000
     Max angular momentum in pseudopotentials (lmaxx) =  3
     Waiting for input...
     Reading input from standard input

     Subspace diagonalization in iterative solution of the eigenvalue problem:
     a serial algorithm will be used

     bravais-lattice index     =            0
     lattice parameter (alat)  =      13.3930  a.u.
     unit-cell volume          =    1134.0956 (a.u.)^3
     number of atoms/cell      =            4
     number of atomic types    =            2
     number of electrons       =        66.00
     number of Kohn-Sham states=           40
     kinetic-energy cutoff     =      40.0000  Ry
     charge density cutoff     =     160.0000  Ry
     convergence threshold     =      1.0E-04
     mixing beta               =       0.7000
     number of iterations used =            8  plain     mixing
     Exchange-correlation      = SLA-PZ-NOGX-NOGC ( 1 1 0 0 0)
     EXX-fraction              =        0.00
     nstep                     =           50

     celldm(1)=  13.392972  celldm(2)=   0.000000  celldm(3)=   0.000000
     celldm(4)=   0.000000  celldm(5)=   0.000000  celldm(6)=   0.000000

     crystal axes: (cart. coord. in units of alat)
               a(1) = (   1.000000   0.000000   0.000000 )
               a(2) = (  -0.776311   0.630350   0.000000 )
               a(3) = (   0.000000   0.000000   0.748922 )

     reciprocal axes: (cart. coord. in units 2 pi/alat)
               b(1) = (  1.000000  1.231554  0.000000 )
               b(2) = (  0.000000  1.586419  0.000000 )
               b(3) = (  0.000000  0.000000  1.335252 )

     PseudoPot. # 1 for Tb read from file:
     /home/jld5415/pp.La/Tb.UPF
     MD5 check sum: 3d6088a3f0cf7fd2e110c43f7f8e95c2
     Pseudo is Norm-conserving, Zval = 19.0
     Generated in analytical, separable form
     Using radial grid of 1263 points,  6 beta functions with:
                l(1) =   0
                l(2) =   0
                l(3) =   1
                l(4) =   1
                l(5) =   2
                l(6) =   3

     PseudoPot. # 2 for Nd read from file:
     /home/jld5415/pp.La/Nd.UPF
     MD5 check sum: c66c5b6abe7b5840ced9b1e244e3bed6
     Pseudo is Norm-conserving, Zval = 14.0
     Generated in analytical, separable form
     Using radial grid of 1257 points,  6 beta functions with:
                l(1) =   0
                l(2) =   0
                l(3) =   1
                l(4) =   1
                l(5) =   2
                l(6) =   3

     atomic species   valence    mass     pseudopotential
        Tl            19.00   204.38300     Tb( 1.00)
        I             14.00   126.90400     Nd( 1.00)

      2 Sym. Ops., with inversion, found
          (note:  2 additional sym.ops. were found but ignored
           their fractional translations are incommensurate with FFT grid)

   Cartesian axes

     site n.     atom                  positions (alat units)
         1           Tl  tau(   1) = (  -0.0906317   0.3870269   0.5616917  )
         2           Tl  tau(   2) = (   0.3143210   0.2433234   0.1872306  )
         3           I   tau(   3) = (  -0.5408004   0.5467760   0.5616917  )
         4           I   tau(   4) = (   0.7644896   0.0835744   0.1872306  )

     number of k points=   106  gaussian smearing, width (Ry)=  0.1000

     Number of k-points >= 100: set verbosity='high' to print them.

     Largest allocated arrays     est. size (Mb)     dimensions
     Largest temporary arrays     est. size (Mb)     dimensions

     Initial potential from superposition of free atoms

     Starting from uniform charge
     Starting wfc are    0 randomized atomic wfcs

     Self-consistent Calculation

     iteration #  1     ecut=    40.00 Ry     beta=0.70
     CG style diagonalization
     c_bands:  4 eigenvalues not converged
     c_bands:  5 eigenvalues not converged
     c_bands:  5 eigenvalues not converged
     c_bands:  4 eigenvalues not converged
     c_bands:  5 eigenvalues not converged
     c_bands:  4 eigenvalues not converged
     c_bands:  3 eigenvalues not converged
     c_bands:  4 eigenvalues not converged
     c_bands:  4 eigenvalues not converged
     c_bands:  3 eigenvalues not converged
     c_bands:  4 eigenvalues not converged
     c_bands:  4 eigenvalues not converged
     c_bands:  4 eigenvalues not converged
     c_bands:  3 eigenvalues not converged
     c_bands:  5 eigenvalues not converged
     c_bands:  5 eigenvalues not converged
     c_bands:  4 eigenvalues not converged
     c_bands:  3 eigenvalues not converged
     c_bands:  4 eigenvalues not converged
     c_bands:  3 eigenvalues not converged
     c_bands:  4 eigenvalues not converged
     c_bands:  3 eigenvalues not converged
     ethr =  1.00E-02,  avg # of iterations = 17.8

     total energy              =    -326.87491667 Ry
     Harris-Foulkes estimate   =    -953.86231125 Ry
     estimated scf accuracy    <     764.01377329 Ry

[...]

     iteration #  4     ecut=    40.00 Ry     beta=0.70
     CG style diagonalization
     ethr =  1.00E-02,  avg # of iterations =  5.4

[...]

     End of self-consistent calculation

     Number of k-points >= 100: set verbosity='high' to print the bands.

     the Fermi energy is     8.8084 ev

!    total energy              =    -679.19995412 Ry
     Harris-Foulkes estimate   =    -679.19995523 Ry
     estimated scf accuracy    <       0.00000183 Ry

     The total energy is the sum of the following terms:

     one-electron contribution =    -291.19730254 Ry
     hartree contribution      =     160.38938767 Ry
     xc contribution           =     -68.17128564 Ry
     ewald contribution        =    -479.71147167 Ry
     smearing contrib. (-TS)   =      -0.50928194 Ry

     convergence has been achieved in  11 iterations

     Forces acting on atoms (Ry/au):

     atom    1 type  1   force =    -0.00413701    0.00227830    0.00196010
     atom    2 type  1   force =     0.00413701   -0.00227830   -0.00196010
     atom    3 type  2   force =     0.00016291    0.00032779    0.00115387
     atom    4 type  2   force =    -0.00016291   -0.00032779   -0.00115387

     Total force =     0.007431     Total SCF correction =     0.000000

     entering subroutine stress ...

          total   stress  (Ry/bohr**3)                   (kbar)     P= -338.05
  -0.00229719   0.00000647   0.00000000       -337.93      0.95      0.00
   0.00000647  -0.00228116  -0.00000015          0.95   -335.57     -0.02
   0.00000000  -0.00000015  -0.00231572          0.00     -0.02   -340.65

     BFGS Geometry Optimization

     number of scf cycles    =   1
     number of bfgs steps    =   0

     enthalpy new            =    -679.1999541168 Ry

     new trust radius        =       0.3899251132 bohr
     new conv_thr            =       0.0001000000 Ry

     new unit-cell volume =    949.64658 a.u.^3 (   140.72310 Ang^3 )

CELL_PARAMETERS (alat= 13.39297219)
   0.942570373   0.000161655  -0.000000067
  -0.731625614   0.594276703  -0.000002258
  -0.000000050  -0.000002745   0.705564836

ATOMIC_POSITIONS (crystal)
Tl       0.385913607   0.614256868   0.750195418
Tl       0.614086393   0.385743132   0.249804582
I        0.132626306   0.867454827   0.750115039
I        0.867373694   0.132545173   0.249884961

     Writing output data file Prototype-La-oS8-TlI.save
     NEW-OLD atomic charge density approx. for the potential
     NEW k-points: (use verbosity='high' to print them)

[...]

     enthalpy old            =    -679.1999541168 Ry
     enthalpy new            =    -679.5933208110 Ry

     CASE: enthalpy_new < enthalpy_old

     small trust_radius: resetting bfgs history

[...]

     number of scf cycles    =   3
     number of bfgs steps    =   2

     enthalpy old            =    -679.5933208110 Ry
     enthalpy new            =    -679.8175585023 Ry

     CASE: enthalpy_new < enthalpy_old

     Message from routine bfgs:
     history already reset at previous step: stopping
     small trust_radius: resetting bfgs history

     new trust radius        =       0.2129160010 bohr
     new conv_thr            =       0.0000227626 Ry

     new unit-cell volume =    733.49723 a.u.^3 (   108.69307 Ang^3 )

[...]

ATOMIC_POSITIONS (crystal)
Tl       0.387442219   0.612892407   0.751265055
Tl       0.612557781   0.387107593   0.248734945
I        0.131146356   0.868996027   0.750603104
I        0.868853644   0.131003973   0.249396896

     Writing output data file Prototype-La-oS8-TlI.save
     NEW-OLD atomic charge density approx. for the potential
     NEW k-points: (use verbosity='high' to print them)

[...]

     The maximum number of steps has been reached.

     End of BFGS Geometry Optimization
Begin final coordinates
     new unit-cell volume =    733.49723 a.u.^3 (   108.69307 Ang^3 )

CELL_PARAMETERS (alat= 13.39297219)
   0.862891478   0.000955820   0.000001721
  -0.669269426   0.544672226  -0.000002417
   0.000001281  -0.000001279   0.648762075

ATOMIC_POSITIONS (crystal)
Tl       0.387442219   0.612892407   0.751265055
Tl       0.612557781   0.387107593   0.248734945
I        0.131146356   0.868996027   0.750603104
I        0.868853644   0.131003973   0.249396896
End final coordinates

     A final scf calculation at the relaxed structure.
     The G-vectors are recalculated for the final unit cell
     Results may differ from those at the preceding step.

     bravais-lattice index     =            0
     lattice parameter (alat)  =      13.3930  a.u.
     unit-cell volume          =     733.4972 (a.u.)^3
     number of atoms/cell      =            4
     number of atomic types    =            2
     number of electrons       =        66.00
     number of Kohn-Sham states=           40
     kinetic-energy cutoff     =      40.0000  Ry
     charge density cutoff     =     160.0000  Ry
     convergence threshold     =      2.3E-05
     mixing beta               =       0.7000
     number of iterations used =            8  plain     mixing
     Exchange-correlation      = SLA-PZ-NOGX-NOGC ( 1 1 0 0 0)
     EXX-fraction              =        0.00

     celldm(1)=  13.392972  celldm(2)=   0.000000  celldm(3)=   0.000000
     celldm(4)=   0.000000  celldm(5)=   0.000000  celldm(6)=   0.000000

     crystal axes: (cart. coord. in units of alat)
               a(1) = (   0.862891   0.000956   0.000002 )
               a(2) = (  -0.669269   0.544672  -0.000002 )
               a(3) = (   0.000001  -0.000001   0.648762 )

     reciprocal axes: (cart. coord. in units 2 pi/alat)
               b(1) = (  1.157319  1.422063  0.000001 )
               b(2) = ( -0.002031  1.833471  0.000004 )
               b(3) = ( -0.000003  0.000003  1.541397 )

     PseudoPot. # 1 for Tb read from file:
     /home/jld5415/pp.La/Tb.UPF
     MD5 check sum: 3d6088a3f0cf7fd2e110c43f7f8e95c2
     Pseudo is Norm-conserving, Zval = 19.0
     Generated in analytical, separable form
     Using radial grid of 1263 points,  6 beta functions with:
                l(1) =   0
                l(2) =   0
                l(3) =   1
                l(4) =   1
                l(5) =   2
                l(6) =   3

     PseudoPot. # 2 for Nd read from file:
     /home/jld5415/pp.La/Nd.UPF
     MD5 check sum: c66c5b6abe7b5840ced9b1e244e3bed6
     Pseudo is Norm-conserving, Zval = 14.0
     Generated in analytical, separable form
     Using radial grid of 1257 points,  6 beta functions with:
                l(1) =   0
                l(2) =   0
                l(3) =   1
                l(4) =   1
                l(5) =   2
                l(6) =   3

     atomic species   valence    mass     pseudopotential
        Tl            19.00   204.38300     Tb( 1.00)
        I             14.00   126.90400     Nd( 1.00)

      2 Sym. Ops., with inversion, found
          (note:  2 additional sym.ops. were found but ignored
           their fractional translations are incommensurate with FFT grid)

   Cartesian axes

     site n.     atom                  positions (alat units)
         1           Tl  tau(   1) = (  -0.0758686   0.3341948   0.4873915  )
         2           Tl  tau(   2) = (   0.2694919   0.2114319   0.1613699  )
         3           I   tau(   3) = (  -0.4684264   0.4734424   0.4869610  )
         4           I   tau(   4) = (   0.6620498   0.0721844   0.1618004  )

     number of k points=   106  gaussian smearing, width (Ry)=  0.1000

     Number of k-points >= 100: set verbosity='high' to print them.

     Largest allocated arrays     est. size (Mb)     dimensions
     Largest temporary arrays     est. size (Mb)     dimensions

     Initial potential from superposition of free atoms

     Starting from uniform charge
     Starting wfc are    0 randomized atomic wfcs

     Writing output data file Prototype-La-oS8-TlI.save

     Self-consistent Calculation

[...]

     negative rho (up, down):  0.329E-03 0.000E+00

[...]

     iteration # 10     ecut=    40.00 Ry     beta=0.70
     CG style diagonalization
     c_bands:  1 eigenvalues not converged
     c_bands:  1 eigenvalues not converged
     ethr =  7.28E-06,  avg # of iterations =  3.2

     total energy              =    -679.54370371 Ry
     Harris-Foulkes estimate   =    -679.54387739 Ry
     estimated scf accuracy    <       0.00036722 Ry

     iteration # 11     ecut=    40.00 Ry     beta=0.70
     CG style diagonalization
     ethr =  5.56E-07,  avg # of iterations =  4.3

     End of self-consistent calculation

     Number of k-points >= 100: set verbosity='high' to print the bands.

     the Fermi energy is    16.3795 ev

!    total energy              =    -679.54383360 Ry
     Harris-Foulkes estimate   =    -679.54385146 Ry
     estimated scf accuracy    <       0.00001982 Ry

     The total energy is the sum of the following terms:

     one-electron contribution =    -174.34292563 Ry
     hartree contribution      =     118.89524001 Ry
     xc contribution           =     -69.10268934 Ry
     ewald contribution        =    -554.62926004 Ry
     smearing contrib. (-TS)   =      -0.36419860 Ry

     convergence has been achieved in  11 iterations

     Forces acting on atoms (Ry/au):

     atom    1 type  1   force =     0.04657380   -0.01682711    0.00549511
     atom    2 type  1   force =    -0.04657380    0.01682711   -0.00549511
     atom    3 type  2   force =    -0.03968369    0.01384204    0.00176431
     atom    4 type  2   force =     0.03968369   -0.01384204   -0.00176431

     Total force =     0.092217     Total SCF correction =     0.000000

     entering subroutine stress ...

          total   stress  (Ry/bohr**3)                   (kbar)     P= -362.32
  -0.00259468   0.00004782   0.00000005       -381.69      7.03      0.01
   0.00004782  -0.00247760   0.00000011          7.03   -364.47      0.02
   0.00000005   0.00000011  -0.00231677          0.01      0.02   -340.81

     Writing output data file Prototype-La-oS8-TlI.save

     General routines

     Parallel routines

   This run was terminated on:  18:12:59  22Mar2018

   JOB DONE.