     Program PWSCF v.5.0.2 starts on 22Mar2018 at 17:36:39

     Current dimensions of program PWSCF are:
     Max number of different atomic species (ntypx) = 10
     Max number of k-points (npk) =  40000
     Max angular momentum in pseudopotentials (lmaxx) =  3
     Waiting for input...
     Reading input from standard input

     Subspace diagonalization in iterative solution of the eigenvalue problem:
     a serial algorithm will be used

     bravais-lattice index     =            0
     lattice parameter (alat)  =       7.0151  a.u.
     unit-cell volume          =     862.2778 (a.u.)^3
     number of atoms/cell      =           12
     number of atomic types    =            2
     number of electrons       =       208.00
     number of Kohn-Sham states=          125
     kinetic-energy cutoff     =      40.0000  Ry
     charge density cutoff     =     160.0000  Ry
     convergence threshold     =      1.0E-04
     mixing beta               =       0.7000
     number of iterations used =            8  plain     mixing
     Exchange-correlation      = SLA-PZ-NOGX-NOGC ( 1 1 0 0 0)
     EXX-fraction              =        0.00
     nstep                     =           50

     celldm(1)=   7.015105  celldm(2)=   0.000000  celldm(3)=   0.000000
     celldm(4)=   0.000000  celldm(5)=   0.000000  celldm(6)=   0.000000

     crystal axes: (cart. coord. in units of alat)
               a(1) = (   1.000000   0.000000   0.000000 )
               a(2) = (   0.000000   1.315963   0.000000 )
               a(3) = (   0.000000   0.000000   1.898020 )

     reciprocal axes: (cart. coord. in units 2 pi/alat)
               b(1) = (  1.000000  0.000000  0.000000 )
               b(2) = (  0.000000  0.759900  0.000000 )
               b(3) = (  0.000000  0.000000  0.526865 )

     PseudoPot. # 1 for Tb read from file:
     /home/cwx6513/pp.La/Tb.UPF
     MD5 check sum: 3d6088a3f0cf7fd2e110c43f7f8e95c2
     Pseudo is Norm-conserving, Zval = 19.0
     Generated in analytical, separable form
     Using radial grid of 1263 points,  6 beta functions with:
                l(1) =   0
                l(2) =   0
                l(3) =   1
                l(4) =   1
                l(5) =   2
                l(6) =   3

     PseudoPot. # 2 for Nd read from file:
     /home/cwx6513/pp.La/Nd.UPF
     MD5 check sum: c66c5b6abe7b5840ced9b1e244e3bed6
     Pseudo is Norm-conserving, Zval = 14.0
     Generated in analytical, separable form
     Using radial grid of 1257 points,  6 beta functions with:
                l(1) =   0
                l(2) =   0
                l(3) =   1
                l(4) =   1
                l(5) =   2
                l(6) =   3

     atomic species   valence    mass     pseudopotential
        Co            19.00    58.93320     Tb( 1.00)
        Si            14.00    28.08550     Nd( 1.00)

      8 Sym. Ops., with inversion, found ( 6 have fractional translation)

   Cartesian axes

     site n.     atom                  positions (alat units)
         1           Co  tau(   1) = (   0.7500000   1.0875135   0.8270358  )
         2           Co  tau(   2) = (   0.2500000   0.2284499   1.0709846  )
         3           Co  tau(   3) = (   0.7500000   0.4295318   0.1219744  )
         4           Co  tau(   4) = (   0.2500000   0.8864316   1.7760460  )
         5           Co  tau(   5) = (   0.2500000   0.7067855   0.5358966  )
         6           Co  tau(   6) = (   0.7500000   0.6091779   1.3621238  )
         7           Co  tau(   7) = (   0.2500000   0.0488038   0.4131136  )
         8           Co  tau(   8) = (   0.7500000   1.2671596   1.4849068  )
         9           Si  tau(   9) = (   0.2500000   0.2669484   1.6960710  )
        10           Si  tau(  10) = (   0.7500000   1.0490149   0.2019494  )
        11           Si  tau(  11) = (   0.2500000   0.9249301   1.1509596  )
        12           Si  tau(  12) = (   0.7500000   0.3910333   0.7470608  )

     number of k points=    12  gaussian smearing, width (Ry)=  0.1000
                       cart. coord. in units 2pi/alat
        k(    1) = (   0.0000000   0.0000000   0.0000000), wk =   0.0833333
        k(    2) = (   0.0000000   0.0000000   0.1317162), wk =   0.1666667
        k(    3) = (   0.0000000   0.0000000  -0.2634324), wk =   0.0833333
        k(    4) = (   0.0000000   0.2532999   0.0000000), wk =   0.1666667
        k(    5) = (   0.0000000   0.2532999   0.1317162), wk =   0.3333333
        k(    6) = (   0.0000000   0.2532999  -0.2634324), wk =   0.1666667
        k(    7) = (  -0.5000000   0.0000000   0.0000000), wk =   0.0833333
        k(    8) = (  -0.5000000   0.0000000   0.1317162), wk =   0.1666667
        k(    9) = (  -0.5000000   0.0000000  -0.2634324), wk =   0.0833333
        k(   10) = (  -0.5000000   0.2532999   0.0000000), wk =   0.1666667
        k(   11) = (  -0.5000000   0.2532999   0.1317162), wk =   0.3333333
        k(   12) = (  -0.5000000   0.2532999  -0.2634324), wk =   0.1666667

     Largest allocated arrays     est. size (Mb)     dimensions
     Largest temporary arrays     est. size (Mb)     dimensions

     Initial potential from superposition of free atoms

     Starting from uniform charge
     Starting wfc are    0 randomized atomic wfcs

     Self-consistent Calculation

     iteration #  1     ecut=    40.00 Ry     beta=0.70
     CG style diagonalization
     c_bands:  1 eigenvalues not converged
     ethr =  1.00E-02,  avg # of iterations = 14.1

     total energy              =   -2043.95378445 Ry
     Harris-Foulkes estimate   =   -2499.49537864 Ry
     estimated scf accuracy    <     587.29261713 Ry

[...]

     iteration #  4     ecut=    40.00 Ry     beta=0.70
     CG style diagonalization
     ethr =  1.00E-02,  avg # of iterations =  4.0

[...]

     End of self-consistent calculation

          k = 0.0000 0.0000 0.0000 (  3675 PWs)   bands (ev):

   -30.0376 -29.7746 -29.7503 -29.6231 -29.5639 -29.4439 -29.4118 -29.3939
    -1.9390  -1.6004  -1.3782  -0.4244   0.0518   0.3863   0.6276   0.6439
     0.7294   0.8823   1.0502   1.0764   1.2997   1.4651   1.5532   1.5713
     1.6238   1.8082   1.8981   2.0014   2.0526   2.0787   2.3655   2.4030
     2.5632   2.6605   2.6743   3.0077  19.4452  19.8711  19.8876  19.9296
    20.2486  20.4522  20.4892  20.6419  20.7428  20.8202  21.2998  21.6158
    32.4156  32.5803  32.8212  33.1402  33.2887  33.3035  33.5763  34.1114
    34.4526  35.2615  35.3434  35.8643  36.0930  36.4800  36.5602  37.2186
    37.3531  37.4583  37.6990  38.0929  38.1234  38.2725  38.8181  39.0124
    39.3424  39.3921  39.7651  39.9775  40.0436  40.7087  40.9350  41.3649
    41.7062  41.7085  41.9723  41.9758  42.0461  42.5927  42.9910  43.2259
    44.0204  44.2656  45.2687  45.5672  46.3091  46.7545  47.0927  47.2476
    47.3156  47.9266  48.2255  48.3636  49.5156  50.1399  50.3243  50.5300
    50.9728  51.5330  51.6561  52.0838  52.3074  52.4388  52.7292  53.5079
    54.0486  54.9838  55.0430  55.5195  55.9231  55.9727  56.1667  56.3029
    56.6907  57.5669  57.6096  57.6258  58.4052

[...]

          k =-0.5000 0.0000 0.0000 (  3722 PWs)   bands (ev):

[...]

     the Fermi energy is    50.0261 ev

!    total energy              =   -2263.19070991 Ry
     Harris-Foulkes estimate   =   -2263.19071838 Ry
     estimated scf accuracy    <       0.00001131 Ry

     The total energy is the sum of the following terms:

     one-electron contribution =     356.86144404 Ry
     hartree contribution      =     151.81000804 Ry
     xc contribution           =    -244.39856847 Ry
     ewald contribution        =   -2527.06355794 Ry
     smearing contrib. (-TS)   =      -0.40003558 Ry

     convergence has been achieved in  11 iterations

     Forces acting on atoms (Ry/au):

     atom    1 type  1   force =     0.00000000   -0.09025857   -0.07699718
     atom    2 type  1   force =     0.00000000    0.09025857    0.07699718
     atom    3 type  1   force =     0.00000000   -0.09025857    0.07699718
     atom    4 type  1   force =     0.00000000    0.09025857   -0.07699718
     atom    5 type  1   force =     0.00000000    0.16966893   -0.25205088
     atom    6 type  1   force =     0.00000000   -0.16966893    0.25205088
     atom    7 type  1   force =     0.00000000    0.16966893    0.25205088
     atom    8 type  1   force =     0.00000000   -0.16966893   -0.25205088
     atom    9 type  2   force =     0.00000000   -0.19534006   -0.00757493
     atom   10 type  2   force =     0.00000000    0.19534006    0.00757493
     atom   11 type  2   force =     0.00000000   -0.19534006    0.00757493
     atom   12 type  2   force =     0.00000000    0.19534006   -0.00757493

     Total force =     0.760546     Total SCF correction =     0.000000

     entering subroutine stress ...

          total   stress  (Ry/bohr**3)                   (kbar)     P= 6658.21
   0.04792212   0.00000000   0.00000000       7049.59      0.00      0.00
   0.00000000   0.04263020   0.00000000          0.00   6271.12      0.00
   0.00000000   0.00000000   0.04523248          0.00      0.00   6653.93

     BFGS Geometry Optimization

     number of scf cycles    =   1
     number of bfgs steps    =   0

     enthalpy new            =   -2263.1907099119 Ry

     new trust radius        =       0.5000000000 bohr
     new conv_thr            =       0.0001000000 Ry

     new unit-cell volume =   1087.43884 a.u.^3 (   161.14181 Ang^3 )

CELL_PARAMETERS (alat=  7.01510508)
   1.085136619   0.000000000   0.000000000
   0.000000000   1.415628128   0.000000000
   0.000000000   0.000000000   2.050542125

ATOMIC_POSITIONS (crystal)
Co       0.750000000   0.825706214   0.435325058
Co       0.250000000   0.174293786   0.564674942
Co       0.750000000   0.325706214   0.064674942
Co       0.250000000   0.674293786   0.935325058
Co       0.250000000   0.538392065   0.280999779
Co       0.750000000   0.461607935   0.719000221
Co       0.250000000   0.038392065   0.219000221
Co       0.750000000   0.961607935   0.780999779
Si       0.250000000   0.201350326   0.893559572
Si       0.750000000   0.798649674   0.106440428
Si       0.250000000   0.701350326   0.606440428
Si       0.750000000   0.298649674   0.393559572

     Writing output data file Prototype-La-oP12-Co2Si.save
     NEW-OLD atomic charge density approx. for the potential
     NEW k-points:
        k(    1) = (   0.0000000   0.0000000   0.0000000), wk =   0.0833333
        k(    2) = (   0.0000000   0.0000000   0.1219190), wk =   0.1666667
        k(    3) = (   0.0000000   0.0000000  -0.2438380), wk =   0.0833333
        k(    4) = (   0.0000000   0.2354667   0.0000000), wk =   0.1666667
        k(    5) = (   0.0000000   0.2354667   0.1219190), wk =   0.3333333
        k(    6) = (   0.0000000   0.2354667  -0.2438380), wk =   0.1666667
        k(    7) = (  -0.4607715   0.0000000   0.0000000), wk =   0.0833333
        k(    8) = (  -0.4607715   0.0000000   0.1219190), wk =   0.1666667
        k(    9) = (  -0.4607715   0.0000000  -0.2438380), wk =   0.0833333
        k(   10) = (  -0.4607715   0.2354667   0.0000000), wk =   0.1666667
        k(   11) = (  -0.4607715   0.2354667   0.1219190), wk =   0.3333333
        k(   12) = (  -0.4607715   0.2354667  -0.2438380), wk =   0.1666667

[...]

     enthalpy old            =   -2263.1907099119 Ry
     enthalpy new            =   -2269.3093547469 Ry

     CASE: enthalpy_new < enthalpy_old

     small trust_radius: resetting bfgs history

     new trust radius        =       2.3477024239 bohr
     new conv_thr            =       0.0001000000 Ry

[...]

          total   stress  (Ry/bohr**3)                   (kbar)     P=-1614.15
  -0.01146910   0.00000000   0.00000000      -1687.16      0.00      0.00
   0.00000000  -0.01050882   0.00000000          0.00  -1545.90      0.00
   0.00000000   0.00000000  -0.01094042          0.00      0.00  -1609.39

     number of scf cycles    =   3
     number of bfgs steps    =   2

     enthalpy old            =   -2269.3093547469 Ry
     enthalpy new            =   -2259.3614602087 Ry

     CASE: enthalpy_new > enthalpy_old

     new trust radius        =       0.7875326791 bohr

     trust_radius < trust_radius_min

     resetting bfgs history

     Message from routine bfgs:
     history already reset at previous step: stopping
     new conv_thr            =       0.0001000000 Ry

     new unit-cell volume =   1295.11508 a.u.^3 (   191.91625 Ang^3 )

[...]

ATOMIC_POSITIONS (crystal)
Co       0.750000000   0.825098424   0.435067125
Co       0.250000000   0.174901576   0.564932875
Co       0.750000000   0.325098424   0.064932875
Co       0.250000000   0.674901576   0.935067125
Co       0.250000000   0.539754700   0.279585115
Co       0.750000000   0.460245300   0.720414885
Co       0.250000000   0.039754700   0.220414885
Co       0.750000000   0.960245300   0.779585115
Si       0.250000000   0.199752000   0.893615925
Si       0.750000000   0.800248000   0.106384075
Si       0.250000000   0.699752000   0.606384075
Si       0.750000000   0.300248000   0.393615925

     Writing output data file Prototype-La-oP12-Co2Si.save
     NEW-OLD atomic charge density approx. for the potential
     NEW k-points:
        k(    1) = (   0.0000000   0.0000000   0.0000000), wk =   0.0833333
        k(    2) = (   0.0000000   0.0000000   0.1150332), wk =   0.1666667
        k(    3) = (   0.0000000   0.0000000  -0.2300664), wk =   0.0833333
        k(    4) = (   0.0000000   0.2235832   0.0000000), wk =   0.1666667
        k(    5) = (   0.0000000   0.2235832   0.1150332), wk =   0.3333333
        k(    6) = (   0.0000000   0.2235832  -0.2300664), wk =   0.1666667
        k(    7) = (  -0.4318376   0.0000000   0.0000000), wk =   0.0833333
        k(    8) = (  -0.4318376   0.0000000   0.1150332), wk =   0.1666667
        k(    9) = (  -0.4318376   0.0000000  -0.2300664), wk =   0.0833333
        k(   10) = (  -0.4318376   0.2235832   0.0000000), wk =   0.1666667
        k(   11) = (  -0.4318376   0.2235832   0.1150332), wk =   0.3333333
        k(   12) = (  -0.4318376   0.2235832  -0.2300664), wk =   0.1666667

[...]

     The maximum number of steps has been reached.

     End of BFGS Geometry Optimization
Begin final coordinates
     new unit-cell volume =   1295.11508 a.u.^3 (   191.91625 Ang^3 )

CELL_PARAMETERS (alat=  7.01510508)
   1.157842543   0.000000000   0.000000000
   0.000000000   1.490869226   0.000000000
   0.000000000   0.000000000   2.173285409

ATOMIC_POSITIONS (crystal)
Co       0.750000000   0.825098424   0.435067125
Co       0.250000000   0.174901576   0.564932875
Co       0.750000000   0.325098424   0.064932875
Co       0.250000000   0.674901576   0.935067125
Co       0.250000000   0.539754700   0.279585115
Co       0.750000000   0.460245300   0.720414885
Co       0.250000000   0.039754700   0.220414885
Co       0.750000000   0.960245300   0.779585115
Si       0.250000000   0.199752000   0.893615925
Si       0.750000000   0.800248000   0.106384075
Si       0.250000000   0.699752000   0.606384075
Si       0.750000000   0.300248000   0.393615925
End final coordinates

     A final scf calculation at the relaxed structure.
     The G-vectors are recalculated for the final unit cell
     Results may differ from those at the preceding step.

     bravais-lattice index     =            0
     lattice parameter (alat)  =       7.0151  a.u.
     unit-cell volume          =    1295.1151 (a.u.)^3
     number of atoms/cell      =           12
     number of atomic types    =            2
     number of electrons       =       208.00
     number of Kohn-Sham states=          125
     kinetic-energy cutoff     =      40.0000  Ry
     charge density cutoff     =     160.0000  Ry
     convergence threshold     =      1.0E-04
     mixing beta               =       0.7000
     number of iterations used =            8  plain     mixing
     Exchange-correlation      = SLA-PZ-NOGX-NOGC ( 1 1 0 0 0)
     EXX-fraction              =        0.00

     celldm(1)=   7.015105  celldm(2)=   0.000000  celldm(3)=   0.000000
     celldm(4)=   0.000000  celldm(5)=   0.000000  celldm(6)=   0.000000

     crystal axes: (cart. coord. in units of alat)
               a(1) = (   1.157843   0.000000   0.000000 )
               a(2) = (   0.000000   1.490869   0.000000 )
               a(3) = (   0.000000   0.000000   2.173285 )

     reciprocal axes: (cart. coord. in units 2 pi/alat)
               b(1) = (  0.863675  0.000000  0.000000 )
               b(2) = (  0.000000  0.670750  0.000000 )
               b(3) = (  0.000000  0.000000  0.460133 )

     PseudoPot. # 1 for Tb read from file:
     /home/cwx6513/pp.La/Tb.UPF
     MD5 check sum: 3d6088a3f0cf7fd2e110c43f7f8e95c2
     Pseudo is Norm-conserving, Zval = 19.0
     Generated in analytical, separable form
     Using radial grid of 1263 points,  6 beta functions with:
                l(1) =   0
                l(2) =   0
                l(3) =   1
                l(4) =   1
                l(5) =   2
                l(6) =   3

     PseudoPot. # 2 for Nd read from file:
     /home/cwx6513/pp.La/Nd.UPF
     MD5 check sum: c66c5b6abe7b5840ced9b1e244e3bed6
     Pseudo is Norm-conserving, Zval = 14.0
     Generated in analytical, separable form
     Using radial grid of 1257 points,  6 beta functions with:
                l(1) =   0
                l(2) =   0
                l(3) =   1
                l(4) =   1
                l(5) =   2
                l(6) =   3

     atomic species   valence    mass     pseudopotential
        Co            19.00    58.93320     Tb( 1.00)
        Si            14.00    28.08550     Nd( 1.00)

      8 Sym. Ops., with inversion, found ( 6 have fractional translation)

   Cartesian axes

     site n.     atom                  positions (alat units)
         1           Co  tau(   1) = (   0.8683819   1.2301138   0.9455250  )
         2           Co  tau(   2) = (   0.2894606   0.2607554   1.2277604  )
         3           Co  tau(   3) = (   0.8683819   0.4846792   0.1411177  )
         4           Co  tau(   4) = (   0.2894606   1.0061900   2.0321677  )
         5           Co  tau(   5) = (   0.2894606   0.8047037   0.6076183  )
         6           Co  tau(   6) = (   0.8683819   0.6861656   1.5656672  )
         7           Co  tau(   7) = (   0.2894606   0.0592691   0.4790245  )
         8           Co  tau(   8) = (   0.8683819   1.4316002   1.6942610  )
         9           Si  tau(   9) = (   0.2894606   0.2978041   1.9420825  )
        10           Si  tau(  10) = (   0.8683819   1.1930651   0.2312030  )
        11           Si  tau(  11) = (   0.2894606   1.0432387   1.3178457  )
        12           Si  tau(  12) = (   0.8683819   0.4476305   0.8554397  )

     number of k points=    12  gaussian smearing, width (Ry)=  0.1000
                       cart. coord. in units 2pi/alat
        k(    1) = (   0.0000000   0.0000000   0.0000000), wk =   0.0833333
        k(    2) = (   0.0000000   0.0000000   0.1150332), wk =   0.1666667
        k(    3) = (   0.0000000   0.0000000  -0.2300664), wk =   0.0833333
        k(    4) = (   0.0000000   0.2235832   0.0000000), wk =   0.1666667
        k(    5) = (   0.0000000   0.2235832   0.1150332), wk =   0.3333333
        k(    6) = (   0.0000000   0.2235832  -0.2300664), wk =   0.1666667
        k(    7) = (  -0.4318376   0.0000000   0.0000000), wk =   0.0833333
        k(    8) = (  -0.4318376   0.0000000   0.1150332), wk =   0.1666667
        k(    9) = (  -0.4318376   0.0000000  -0.2300664), wk =   0.0833333
        k(   10) = (  -0.4318376   0.2235832   0.0000000), wk =   0.1666667
        k(   11) = (  -0.4318376   0.2235832   0.1150332), wk =   0.3333333
        k(   12) = (  -0.4318376   0.2235832  -0.2300664), wk =   0.1666667

     Largest allocated arrays     est. size (Mb)     dimensions
     Largest temporary arrays     est. size (Mb)     dimensions

     Initial potential from superposition of free atoms

     Starting from uniform charge
     Starting wfc are    0 randomized atomic wfcs

     Writing output data file Prototype-La-oP12-Co2Si.save

     Self-consistent Calculation

[...]

     iteration #  6     ecut=    40.00 Ry     beta=0.70
     CG style diagonalization
     ethr =  2.88E-03,  avg # of iterations =  4.1

[...]

     total energy              =   -2274.57530079 Ry
     Harris-Foulkes estimate   =   -2274.57576038 Ry
     estimated scf accuracy    <       0.00086163 Ry

     iteration # 11     ecut=    40.00 Ry     beta=0.70
     CG style diagonalization
     c_bands:  1 eigenvalues not converged
     ethr =  4.14E-07,  avg # of iterations =  4.2

     End of self-consistent calculation

[...]

          k = 0.0000 0.2236-0.2301 (  5514 PWs)   bands (ev):

[...]

          k =-0.4318 0.2236-0.2301 (  5536 PWs)   bands (ev):

   -44.9502 -44.9502 -44.9472 -44.9472 -44.7836 -44.7836 -44.7529 -44.7529
   -16.6789 -16.6789 -16.6422 -16.6422 -13.6598 -13.6598 -13.5725 -13.5725
   -13.5252 -13.5252 -13.4541 -13.4541 -13.3640 -13.3640 -13.3538 -13.3538
   -13.2565 -13.2565 -13.1701 -13.1701 -13.1592 -13.1592 -13.1122 -13.1122
   -13.0633 -13.0633 -12.9978 -12.9978   4.5378   4.5378   4.6143   4.6143
     4.7217   4.7217   4.7244   4.7244   4.9154   4.9154   4.9390   4.9390
    21.4226  21.4226  21.9405  21.9405  22.0304  22.0304  22.3675  22.3675
    22.4716  22.4716  22.6416  22.6416  22.7651  22.7651  23.1970  23.1970
    23.2286  23.2286  23.4094  23.4094  23.4565  23.4565  23.9335  23.9335
    24.0632  24.0632  24.4233  24.4233  24.4456  24.4456  24.7139  24.7139
    24.9846  24.9846  25.7718  25.7718  25.7816  25.7816  26.2427  26.2427
    26.8029  26.8029  27.0061  27.0061  28.8463  28.8463  29.6119  29.6119
    30.0796  30.0796  30.1948  30.1948  30.7844  30.7844  31.1021  31.1021
    31.7587  31.7587  32.1244  32.1244  32.6262  32.6262  32.8046  32.8046
    34.6805  34.6806  35.0770  35.0771  35.6376  35.6377  37.9000  37.9001
    38.4583  38.4585  39.9770  39.9773  40.3847

     the Fermi energy is    31.6780 ev

!    total energy              =   -2274.57563488 Ry
     Harris-Foulkes estimate   =   -2274.57568990 Ry
     estimated scf accuracy    <       0.00006418 Ry

     The total energy is the sum of the following terms:

     one-electron contribution =     -80.56125315 Ry
     hartree contribution      =     246.52628087 Ry
     xc contribution           =    -232.87632051 Ry
     ewald contribution        =   -2207.08724605 Ry
     smearing contrib. (-TS)   =      -0.57709604 Ry

     convergence has been achieved in  11 iterations

     Forces acting on atoms (Ry/au):

     atom    1 type  1   force =     0.00000000   -0.01200204   -0.00226701
     atom    2 type  1   force =     0.00000000    0.01200204    0.00226701
     atom    3 type  1   force =     0.00000000   -0.01200204    0.00226701
     atom    4 type  1   force =     0.00000000    0.01200204   -0.00226701
     atom    5 type  1   force =     0.00000000    0.05621776   -0.08625496
     atom    6 type  1   force =     0.00000000   -0.05621776    0.08625496
     atom    7 type  1   force =     0.00000000    0.05621776    0.08625496
     atom    8 type  1   force =     0.00000000   -0.05621776   -0.08625496
     atom    9 type  2   force =     0.00000000   -0.06006651    0.01459639
     atom   10 type  2   force =     0.00000000    0.06006651   -0.01459639
     atom   11 type  2   force =     0.00000000   -0.06006651   -0.01459639
     atom   12 type  2   force =     0.00000000    0.06006651    0.01459639

     Total force =     0.241417     Total SCF correction =     0.000000

     entering subroutine stress ...

          total   stress  (Ry/bohr**3)                   (kbar)     P=  848.76
   0.00632361   0.00000000   0.00000000        930.24      0.00      0.00
   0.00000000   0.00532896   0.00000000          0.00    783.92      0.00
   0.00000000   0.00000000   0.00565659          0.00      0.00    832.11

     Writing output data file Prototype-La-oP12-Co2Si.save

     General routines

     Parallel routines

   This run was terminated on:  17:55:55  22Mar2018

   JOB DONE.