     Program PWSCF v.5.0.2 starts on 22Mar2018 at 17:36:35

     Current dimensions of program PWSCF are:
     Max number of different atomic species (ntypx) = 10
     Max number of k-points (npk) =  40000
     Max angular momentum in pseudopotentials (lmaxx) =  3
     Waiting for input...
     Reading input from standard input

     Subspace diagonalization in iterative solution of the eigenvalue problem:
     a serial algorithm will be used

     bravais-lattice index     =            0
     lattice parameter (alat)  =       9.9235  a.u.
     unit-cell volume          =    1361.0366 (a.u.)^3
     number of atoms/cell      =           12
     number of atomic types    =            2
     number of electrons       =       188.00
     number of Kohn-Sham states=          113
     kinetic-energy cutoff     =      40.0000  Ry
     charge density cutoff     =     160.0000  Ry
     convergence threshold     =      1.0E-04
     mixing beta               =       0.7000
     number of iterations used =            8  plain     mixing
     Exchange-correlation      = SLA-PZ-NOGX-NOGC ( 1 1 0 0 0)
     EXX-fraction              =        0.00
     nstep                     =           50

     celldm(1)=   9.923489  celldm(2)=   0.000000  celldm(3)=   0.000000
     celldm(4)=   0.000000  celldm(5)=   0.000000  celldm(6)=   0.000000

     crystal axes: (cart. coord. in units of alat)
               a(1) = (   1.000000   0.000000   0.000000 )
               a(2) = (  -0.500000   0.866025   0.000000 )
               a(3) = (   0.000000   0.000000   1.608222 )

     reciprocal axes: (cart. coord. in units 2 pi/alat)
               b(1) = (  1.000000  0.577350  0.000000 )
               b(2) = (  0.000000  1.154701  0.000000 )
               b(3) = (  0.000000  0.000000  0.621805 )

     PseudoPot. # 1 for Tb read from file:
     /home/cwx6513/pp.La/Tb.UPF
     MD5 check sum: 3d6088a3f0cf7fd2e110c43f7f8e95c2
     Pseudo is Norm-conserving, Zval = 19.0
     Generated in analytical, separable form
     Using radial grid of 1263 points,  6 beta functions with:
                l(1) =   0
                l(2) =   0
                l(3) =   1
                l(4) =   1
                l(5) =   2
                l(6) =   3

     PseudoPot. # 2 for Nd read from file:
     /home/cwx6513/pp.La/Nd.UPF
     MD5 check sum: c66c5b6abe7b5840ced9b1e244e3bed6
     Pseudo is Norm-conserving, Zval = 14.0
     Generated in analytical, separable form
     Using radial grid of 1257 points,  6 beta functions with:
                l(1) =   0
                l(2) =   0
                l(3) =   1
                l(4) =   1
                l(5) =   2
                l(6) =   3

     atomic species   valence    mass     pseudopotential
        Mg            19.00    24.30500     Tb( 1.00)
        Zn            14.00    65.39000     Nd( 1.00)

     24 Sym. Ops., with inversion, found (12 have fractional translation)

   Cartesian axes

     site n.     atom                  positions (alat units)
         1           Mg  tau(   1) = (  -0.0000005   0.5773506   0.1003820  )
         2           Mg  tau(   2) = (   0.5000005   0.2886748   0.9044931  )
         3           Mg  tau(   3) = (   0.5000005   0.2886748   1.5078402  )
         4           Mg  tau(   4) = (  -0.0000005   0.5773506   0.7037291  )
         5           Zn  tau(   5) = (   0.0000000   0.0000000   0.0000000  )
         6           Zn  tau(   6) = (   0.0000000   0.0000000   0.8041111  )
         7           Zn  tau(   7) = (   0.0000000   0.2950739   1.2061667  )
         8           Zn  tau(   8) = (   0.7444585   0.1475370   0.4020556  )
         9           Zn  tau(   9) = (   0.2555415   0.1475370   0.4020556  )
        10           Zn  tau(  10) = (   0.2444585   0.7184884   1.2061667  )
        11           Zn  tau(  11) = (  -0.2444585   0.7184884   1.2061667  )
        12           Zn  tau(  12) = (   0.5000000   0.5709515   0.4020556  )

     number of k points=    12  gaussian smearing, width (Ry)=  0.1000
                       cart. coord. in units 2pi/alat
        k(    1) = (   0.0000000   0.0000000   0.0000000), wk =   0.0833333
        k(    2) = (   0.0000000   0.0000000   0.1554512), wk =   0.1666667
        k(    3) = (   0.0000000   0.0000000  -0.3109023), wk =   0.0833333
        k(    4) = (   0.0000000   0.3849002   0.0000000), wk =   0.1666667
        k(    5) = (   0.0000000   0.3849002   0.1554512), wk =   0.3333333
        k(    6) = (   0.0000000   0.3849002  -0.3109023), wk =   0.1666667
        k(    7) = (  -0.5000000  -0.2886751   0.0000000), wk =   0.0833333
        k(    8) = (  -0.5000000  -0.2886751   0.1554512), wk =   0.1666667
        k(    9) = (  -0.5000000  -0.2886751  -0.3109023), wk =   0.0833333
        k(   10) = (  -0.5000000   0.0962250   0.0000000), wk =   0.1666667
        k(   11) = (  -0.5000000   0.0962250   0.1554512), wk =   0.3333333
        k(   12) = (  -0.5000000   0.0962250  -0.3109023), wk =   0.1666667

     Largest allocated arrays     est. size (Mb)     dimensions
     Largest temporary arrays     est. size (Mb)     dimensions

     Initial potential from superposition of free atoms

     Starting from uniform charge
     Starting wfc are    0 randomized atomic wfcs

     Self-consistent Calculation

     iteration #  1     ecut=    40.00 Ry     beta=0.70
     CG style diagonalization
     c_bands:  3 eigenvalues not converged
     c_bands:  4 eigenvalues not converged
     c_bands:  2 eigenvalues not converged
     c_bands:  1 eigenvalues not converged
     c_bands:  1 eigenvalues not converged
     c_bands:  1 eigenvalues not converged
     ethr =  1.00E-02,  avg # of iterations = 11.7

     total energy              =   -1154.63564198 Ry
     Harris-Foulkes estimate   =   -2127.21762604 Ry
     estimated scf accuracy    <    1198.55454555 Ry

     iteration #  2     ecut=    40.00 Ry     beta=0.70
     CG style diagonalization
     ethr =  1.00E-02,  avg # of iterations = 12.5

[...]

     End of self-consistent calculation

          k = 0.0000 0.0000 0.0000 (  5769 PWs)   bands (ev):

   -46.6273 -46.6232 -46.6214 -46.6111 -20.2874 -19.9534 -19.1264 -18.7128
   -18.7128 -18.7068 -18.7068 -18.7054 -15.0593 -15.0541 -15.0540 -15.0525
   -15.0221 -15.0221 -14.9476 -14.9229 -14.9125 -14.9125 -14.9121 -14.9121
    -2.1202  -1.3157  -0.4474   0.6661   0.6662   0.8914   0.8914   1.0594
     1.0595   1.7479   2.5595   2.5595   2.5871   2.5872   2.8946   4.1408
     4.1428   4.1538   4.1860   4.1861   4.5898   4.5898   4.7440   4.7441
    19.6941  20.4620  20.8859  21.0936  21.0937  21.5055  21.6476  21.6476
    21.7369  21.7369  21.9450  22.0750  22.1042  22.1043  22.1818  22.2585
    22.3569  22.3569  22.6235  22.6235  22.8944  22.8944  22.9609  22.9609
    23.3350  23.3350  23.9455  24.2732  24.2732  24.3186  24.3186  24.8473
    25.5372  25.6319  25.6319  26.6621  27.0374  27.0374  27.2865  27.2865
    27.6896  27.6896  28.8373  29.8307  30.0522  30.0523  30.1034  30.2655
    31.1264  31.2050  31.6218  31.6218  31.6238  31.6239  31.8560  31.8560
    32.2969  32.2970  33.8357  34.2546  34.2546  34.5771  34.6020  34.6024
    35.1727

[...]

          k =-0.5000-0.2887 0.0000 (  5800 PWs)   bands (ev):

[...]

     the Fermi energy is    29.2743 ev

!    total energy              =   -1799.27771776 Ry
     Harris-Foulkes estimate   =   -1799.27773692 Ry
     estimated scf accuracy    <       0.00002143 Ry

     The total energy is the sum of the following terms:

     one-electron contribution =      -2.19512878 Ry
     hartree contribution      =     178.03246706 Ry
     xc contribution           =    -197.27608677 Ry
     ewald contribution        =   -1777.30740519 Ry
     smearing contrib. (-TS)   =      -0.53156408 Ry

     convergence has been achieved in  11 iterations

     Forces acting on atoms (Ry/au):

     atom    1 type  1   force =     0.00000000    0.00000000    0.02838158
     atom    2 type  1   force =     0.00000000    0.00000000    0.02838158
     atom    3 type  1   force =     0.00000000    0.00000000   -0.02838158
     atom    4 type  1   force =     0.00000000    0.00000000   -0.02838158
     atom    5 type  2   force =     0.00000000    0.00000000    0.00000000
     atom    6 type  2   force =     0.00000000    0.00000000    0.00000000
     atom    7 type  2   force =     0.00000000    0.04021603    0.00000000
     atom    8 type  2   force =    -0.03482810    0.02010801    0.00000000
     atom    9 type  2   force =     0.03482810    0.02010801    0.00000000
     atom   10 type  2   force =    -0.03482810   -0.02010801    0.00000000
     atom   11 type  2   force =     0.03482810   -0.02010801    0.00000000
     atom   12 type  2   force =     0.00000000   -0.04021603    0.00000000

     Total force =     0.113693     Total SCF correction =     0.000000

     entering subroutine stress ...

          total   stress  (Ry/bohr**3)                   (kbar)     P=  777.58
   0.00526640   0.00000000   0.00000000        774.71      0.00      0.00
   0.00000000   0.00526640   0.00000000          0.00    774.71      0.00
   0.00000000   0.00000000   0.00532490          0.00      0.00    783.32

     BFGS Geometry Optimization

     number of scf cycles    =   1
     number of bfgs steps    =   0

     enthalpy new            =   -1799.2777177579 Ry

     new trust radius        =       0.5000000000 bohr
     new conv_thr            =       0.0001000000 Ry

     new unit-cell volume =   1654.59219 a.u.^3 (   245.18526 Ang^3 )

CELL_PARAMETERS (alat=  9.92348860)
   1.067020461   0.000000000   0.000000000
  -0.533510231   0.924066826   0.000000000
   0.000000000   0.000000000   1.717203317

ATOMIC_POSITIONS (crystal)
Mg       0.333333000   0.666667000   0.063323273
Mg       0.666667000   0.333333000   0.563323273
Mg       0.666667000   0.333333000   0.936676727
Mg       0.333333000   0.666667000   0.436676727
Zn       0.000000000   0.000000000   0.000000000
Zn       0.000000000   0.000000000   0.500000000
Zn       0.171552043   0.343104087   0.750000000
Zn       0.828447957   0.171552043   0.250000000
Zn       0.343104087   0.171552043   0.250000000
Zn       0.656895913   0.828447957   0.750000000
Zn       0.171552043   0.828447957   0.750000000
Zn       0.828447957   0.656895913   0.250000000

     Writing output data file Prototype-La-hP12-MgZn2.save
     NEW-OLD atomic charge density approx. for the potential
     NEW k-points:
        k(    1) = (   0.0000000   0.0000000   0.0000000), wk =   0.0833333
        k(    2) = (   0.0000000   0.0000000   0.1455856), wk =   0.1666667
        k(    3) = (   0.0000000   0.0000000  -0.2911711), wk =   0.0833333
        k(    4) = (   0.0000000   0.3607243   0.0000000), wk =   0.1666667
        k(    5) = (   0.0000000   0.3607243   0.1455856), wk =   0.3333333
        k(    6) = (   0.0000000   0.3607243  -0.2911711), wk =   0.1666667
        k(    7) = (  -0.4685946  -0.2705432   0.0000000), wk =   0.0833333
        k(    8) = (  -0.4685946  -0.2705432   0.1455856), wk =   0.1666667
        k(    9) = (  -0.4685946  -0.2705432  -0.2911711), wk =   0.0833333
        k(   10) = (  -0.4685946   0.0901811   0.0000000), wk =   0.1666667
        k(   11) = (  -0.4685946   0.0901811   0.1455856), wk =   0.3333333
        k(   12) = (  -0.4685946   0.0901811  -0.2911711), wk =   0.1666667

[...]

     enthalpy old            =   -1799.2777177580 Ry
     enthalpy new            =   -1799.7202847971 Ry

     CASE: enthalpy_new < enthalpy_old

     small trust_radius: resetting bfgs history

     new trust radius        =       0.2967004924 bohr
     new conv_thr            =       0.0000121593 Ry

[...]

     number of scf cycles    =   3
     number of bfgs steps    =   2

     enthalpy old            =   -1799.7202847971 Ry
     enthalpy new            =   -1799.7120302627 Ry

     CASE: enthalpy_new > enthalpy_old

     new trust radius        =       0.1411707215 bohr

     trust_radius < trust_radius_min

     resetting bfgs history

     Message from routine bfgs:
     history already reset at previous step: stopping
     new conv_thr            =       0.0000121593 Ry

     new unit-cell volume =   1482.16814 a.u.^3 (   219.63465 Ang^3 )

[...]

ATOMIC_POSITIONS (crystal)
Mg       0.333333000   0.666667000   0.064091859
Mg       0.666667000   0.333333000   0.564091859
Mg       0.666667000   0.333333000   0.935908141
Mg       0.333333000   0.666667000   0.435908141
Zn       0.000000000   0.000000000   0.000000000
Zn       0.000000000   0.000000000   0.500000000
Zn       0.171296957   0.342593915   0.750000000
Zn       0.828703043   0.171296957   0.250000000
Zn       0.342593915   0.171296957   0.250000000
Zn       0.657406085   0.828703043   0.750000000
Zn       0.171296957   0.828703043   0.750000000
Zn       0.828703043   0.657406085   0.250000000

     Writing output data file Prototype-La-hP12-MgZn2.save
     NEW-OLD atomic charge density approx. for the potential
     NEW k-points:
        k(    1) = (   0.0000000   0.0000000   0.0000000), wk =   0.0833333
        k(    2) = (   0.0000000   0.0000000   0.1512815), wk =   0.1666667
        k(    3) = (   0.0000000   0.0000000  -0.3025630), wk =   0.0833333
        k(    4) = (   0.0000000   0.3738853   0.0000000), wk =   0.1666667
        k(    5) = (   0.0000000   0.3738853   0.1512815), wk =   0.3333333
        k(    6) = (   0.0000000   0.3738853  -0.3025630), wk =   0.1666667
        k(    7) = (  -0.4856912  -0.2804140   0.0000000), wk =   0.0833333
        k(    8) = (  -0.4856912  -0.2804140   0.1512815), wk =   0.1666667
        k(    9) = (  -0.4856912  -0.2804140  -0.3025630), wk =   0.0833333
        k(   10) = (  -0.4856912   0.0934713   0.0000000), wk =   0.1666667
        k(   11) = (  -0.4856912   0.0934713   0.1512815), wk =   0.3333333
        k(   12) = (  -0.4856912   0.0934713  -0.3025630), wk =   0.1666667

[...]

     The maximum number of steps has been reached.

     End of BFGS Geometry Optimization
Begin final coordinates
     new unit-cell volume =   1482.16814 a.u.^3 (   219.63465 Ang^3 )

CELL_PARAMETERS (alat=  9.92348860)
   1.029460631   0.000000000   0.000000000
  -0.514730315   0.891539058   0.000000000
   0.000000000   0.000000000   1.652548559

ATOMIC_POSITIONS (crystal)
Mg       0.333333000   0.666667000   0.064091859
Mg       0.666667000   0.333333000   0.564091859
Mg       0.666667000   0.333333000   0.935908141
Mg       0.333333000   0.666667000   0.435908141
Zn       0.000000000   0.000000000   0.000000000
Zn       0.000000000   0.000000000   0.500000000
Zn       0.171296957   0.342593915   0.750000000
Zn       0.828703043   0.171296957   0.250000000
Zn       0.342593915   0.171296957   0.250000000
Zn       0.657406085   0.828703043   0.750000000
Zn       0.171296957   0.828703043   0.750000000
Zn       0.828703043   0.657406085   0.250000000
End final coordinates

     A final scf calculation at the relaxed structure.
     The G-vectors are recalculated for the final unit cell
     Results may differ from those at the preceding step.

     bravais-lattice index     =            0
     lattice parameter (alat)  =       9.9235  a.u.
     unit-cell volume          =    1482.1681 (a.u.)^3
     number of atoms/cell      =           12
     number of atomic types    =            2
     number of electrons       =       188.00
     number of Kohn-Sham states=          113
     kinetic-energy cutoff     =      40.0000  Ry
     charge density cutoff     =     160.0000  Ry
     convergence threshold     =      1.2E-05
     mixing beta               =       0.7000
     number of iterations used =            8  plain     mixing
     Exchange-correlation      = SLA-PZ-NOGX-NOGC ( 1 1 0 0 0)
     EXX-fraction              =        0.00

     celldm(1)=   9.923489  celldm(2)=   0.000000  celldm(3)=   0.000000
     celldm(4)=   0.000000  celldm(5)=   0.000000  celldm(6)=   0.000000

     crystal axes: (cart. coord. in units of alat)
               a(1) = (   1.029461   0.000000   0.000000 )
               a(2) = (  -0.514730   0.891539   0.000000 )
               a(3) = (   0.000000   0.000000   1.652549 )

     reciprocal axes: (cart. coord. in units 2 pi/alat)
               b(1) = (  0.971382  0.560828  0.000000 )
               b(2) = (  0.000000  1.121656  0.000000 )
               b(3) = (  0.000000  0.000000  0.605126 )

     PseudoPot. # 1 for Tb read from file:
     /home/cwx6513/pp.La/Tb.UPF
     MD5 check sum: 3d6088a3f0cf7fd2e110c43f7f8e95c2
     Pseudo is Norm-conserving, Zval = 19.0
     Generated in analytical, separable form
     Using radial grid of 1263 points,  6 beta functions with:
                l(1) =   0
                l(2) =   0
                l(3) =   1
                l(4) =   1
                l(5) =   2
                l(6) =   3

     PseudoPot. # 2 for Nd read from file:
     /home/cwx6513/pp.La/Nd.UPF
     MD5 check sum: c66c5b6abe7b5840ced9b1e244e3bed6
     Pseudo is Norm-conserving, Zval = 14.0
     Generated in analytical, separable form
     Using radial grid of 1257 points,  6 beta functions with:
                l(1) =   0
                l(2) =   0
                l(3) =   1
                l(4) =   1
                l(5) =   2
                l(6) =   3

     atomic species   valence    mass     pseudopotential
        Mg            19.00    24.30500     Tb( 1.00)
        Zn            14.00    65.39000     Nd( 1.00)

     24 Sym. Ops., with inversion, found (12 have fractional translation)

   Cartesian axes

     site n.     atom                  positions (alat units)
         1           Mg  tau(   1) = (  -0.0000005   0.5943597   0.1059149  )
         2           Mg  tau(   2) = (   0.5147308   0.2971794   0.9321892  )
         3           Mg  tau(   3) = (   0.5147308   0.2971794   1.5466337  )
         4           Mg  tau(   4) = (  -0.0000005   0.5943597   0.7203594  )
         5           Zn  tau(   5) = (   0.0000000   0.0000000   0.0000000  )
         6           Zn  tau(   6) = (   0.0000000   0.0000000   0.8262743  )
         7           Zn  tau(   7) = (   0.0000000   0.3054359   1.2394114  )
         8           Zn  tau(   8) = (   0.7649454   0.1527179   0.4131371  )
         9           Zn  tau(   9) = (   0.2645152   0.1527179   0.4131371  )
        10           Zn  tau(  10) = (   0.2502151   0.7388211   1.2394114  )
        11           Zn  tau(  11) = (  -0.2502151   0.7388211   1.2394114  )
        12           Zn  tau(  12) = (   0.5147303   0.5861032   0.4131371  )

     number of k points=    12  gaussian smearing, width (Ry)=  0.1000
                       cart. coord. in units 2pi/alat
        k(    1) = (   0.0000000   0.0000000   0.0000000), wk =   0.0833333
        k(    2) = (   0.0000000   0.0000000   0.1512815), wk =   0.1666667
        k(    3) = (   0.0000000   0.0000000  -0.3025630), wk =   0.0833333
        k(    4) = (   0.0000000   0.3738853   0.0000000), wk =   0.1666667
        k(    5) = (   0.0000000   0.3738853   0.1512815), wk =   0.3333333
        k(    6) = (   0.0000000   0.3738853  -0.3025630), wk =   0.1666667
        k(    7) = (  -0.4856912  -0.2804140   0.0000000), wk =   0.0833333
        k(    8) = (  -0.4856912  -0.2804140   0.1512815), wk =   0.1666667
        k(    9) = (  -0.4856912  -0.2804140  -0.3025630), wk =   0.0833333
        k(   10) = (  -0.4856912   0.0934713   0.0000000), wk =   0.1666667
        k(   11) = (  -0.4856912   0.0934713   0.1512815), wk =   0.3333333
        k(   12) = (  -0.4856912   0.0934713  -0.3025630), wk =   0.1666667

     Largest allocated arrays     est. size (Mb)     dimensions
     Largest temporary arrays     est. size (Mb)     dimensions

     Initial potential from superposition of free atoms

     Starting from uniform charge
     Starting wfc are    0 randomized atomic wfcs

     Writing output data file Prototype-La-hP12-MgZn2.save

     Self-consistent Calculation

[...]

     iteration # 10     ecut=    40.00 Ry     beta=0.70
     CG style diagonalization
     c_bands:  1 eigenvalues not converged
     c_bands:  1 eigenvalues not converged
     ethr =  7.70E-07,  avg # of iterations =  4.9

[...]

     total energy              =   -1800.07314726 Ry
     Harris-Foulkes estimate   =   -1800.07315623 Ry
     estimated scf accuracy    <       0.00001691 Ry

     iteration # 12     ecut=    40.00 Ry     beta=0.70
     CG style diagonalization
     ethr =  8.99E-09,  avg # of iterations =  4.6

     End of self-consistent calculation

[...]

          k = 0.0000 0.3739-0.3026 (  6328 PWs)   bands (ev):

[...]

          k =-0.4857 0.0935-0.3026 (  6328 PWs)   bands (ev):

   -48.9985 -48.9985 -48.9929 -48.9929 -22.2043 -22.2043 -21.8792 -21.8792
   -21.3903 -21.3903 -21.3367 -21.3367 -17.3917 -17.3917 -17.3604 -17.3604
   -17.3392 -17.3392 -17.3100 -17.3100 -17.2838 -17.2838 -17.2758 -17.2758
    -2.6958  -2.6958  -1.7700  -1.7700  -1.1140  -1.1140  -1.0181  -1.0180
    -0.8156  -0.8156  -0.5285  -0.5285  -0.0637  -0.0637   0.4049   0.4049
     0.7264   0.7264   0.9528   0.9528   1.4010   1.4010   1.4980   1.4980
    18.7676  18.7676  19.0945  19.0945  19.2075  19.2075  19.4073  19.4073
    19.4810  19.4810  19.8221  19.8221  20.0075  20.0075  20.1813  20.1813
    20.5714  20.5714  20.9195  20.9195  21.2367  21.2367  21.6018  21.6018
    22.1005  22.1005  22.3477  22.3477  22.6955  22.6956  23.2300  23.2300
    23.5140  23.5140  23.6991  23.6991  24.4251  24.4251  24.6601  24.6601
    24.9309  24.9309  25.8786  25.8787  26.1403  26.1403  26.6419  26.6419
    26.9624  26.9624  27.2181  27.2181  27.4575  27.4575  28.2697  28.2697
    28.8197  28.8197  28.9614  28.9615  29.5353  29.5353  30.7886  30.7887
    31.7685

     the Fermi energy is    26.4946 ev

!    total energy              =   -1800.07315854 Ry
     Harris-Foulkes estimate   =   -1800.07315888 Ry
     estimated scf accuracy    <       0.00000048 Ry

     The total energy is the sum of the following terms:

     one-electron contribution =     -71.02789733 Ry
     hartree contribution      =     194.70158430 Ry
     xc contribution           =    -195.53825133 Ry
     ewald contribution        =   -1727.64103785 Ry
     smearing contrib. (-TS)   =      -0.56755633 Ry

     convergence has been achieved in  12 iterations

     Forces acting on atoms (Ry/au):

     atom    1 type  1   force =     0.00000000    0.00000000    0.01269518
     atom    2 type  1   force =     0.00000000    0.00000000    0.01269518
     atom    3 type  1   force =     0.00000000    0.00000000   -0.01269518
     atom    4 type  1   force =     0.00000000    0.00000000   -0.01269518
     atom    5 type  2   force =     0.00000000    0.00000000    0.00000000
     atom    6 type  2   force =     0.00000000    0.00000000    0.00000000
     atom    7 type  2   force =     0.00000000    0.00765869    0.00000000
     atom    8 type  2   force =    -0.00663262    0.00382935    0.00000000
     atom    9 type  2   force =     0.00663262    0.00382935    0.00000000
     atom   10 type  2   force =    -0.00663262   -0.00382935    0.00000000
     atom   11 type  2   force =     0.00663262   -0.00382935    0.00000000
     atom   12 type  2   force =     0.00000000   -0.00765869    0.00000000

     Total force =     0.031569     Total SCF correction =     0.000000

     entering subroutine stress ...

          total   stress  (Ry/bohr**3)                   (kbar)     P=  370.12
   0.00253941   0.00000000   0.00000000        373.56      0.00      0.00
   0.00000000   0.00253941   0.00000000          0.00    373.56      0.00
   0.00000000   0.00000000   0.00246934          0.00      0.00    363.25

     Writing output data file Prototype-La-hP12-MgZn2.save

     General routines

     Parallel routines

   This run was terminated on:  18: 5: 1  22Mar2018

   JOB DONE.