     Program PWSCF v.5.0.2 starts on 22Mar2018 at 17:36:39

     Current dimensions of program PWSCF are:
     Max number of different atomic species (ntypx) = 10
     Max number of k-points (npk) =  40000
     Max angular momentum in pseudopotentials (lmaxx) =  3
     Waiting for input...
     Reading input from standard input

     Subspace diagonalization in iterative solution of the eigenvalue problem:
     a serial algorithm will be used

     bravais-lattice index     =            0
     lattice parameter (alat)  =       8.8008  a.u.
     unit-cell volume          =    1116.9454 (a.u.)^3
     number of atoms/cell      =           16
     number of atomic types    =            2
     number of electrons       =       284.00
     number of Kohn-Sham states=          170
     kinetic-energy cutoff     =      40.0000  Ry
     charge density cutoff     =     160.0000  Ry
     convergence threshold     =      1.0E-04
     mixing beta               =       0.7000
     number of iterations used =            8  plain     mixing
     Exchange-correlation      = SLA-PZ-NOGX-NOGC ( 1 1 0 0 0)
     EXX-fraction              =        0.00
     nstep                     =           50

     celldm(1)=   8.800765  celldm(2)=   0.000000  celldm(3)=   0.000000
     celldm(4)=   0.000000  celldm(5)=   0.000000  celldm(6)=   0.000000

     crystal axes: (cart. coord. in units of alat)
               a(1) = (   1.000000   0.000000   0.000000 )
               a(2) = (   0.000000   1.083771   0.000000 )
               a(3) = (   0.000000   0.000000   1.511935 )

     reciprocal axes: (cart. coord. in units 2 pi/alat)
               b(1) = (  1.000000  0.000000  0.000000 )
               b(2) = (  0.000000  0.922704  0.000000 )
               b(3) = (  0.000000  0.000000  0.661404 )

     PseudoPot. # 1 for Tb read from file:
     /home/jld5415/pp.La/Tb.UPF
     MD5 check sum: 3d6088a3f0cf7fd2e110c43f7f8e95c2
     Pseudo is Norm-conserving, Zval = 19.0
     Generated in analytical, separable form
     Using radial grid of 1263 points,  6 beta functions with:
                l(1) =   0
                l(2) =   0
                l(3) =   1
                l(4) =   1
                l(5) =   2
                l(6) =   3

     PseudoPot. # 2 for Nd read from file:
     /home/jld5415/pp.La/Nd.UPF
     MD5 check sum: c66c5b6abe7b5840ced9b1e244e3bed6
     Pseudo is Norm-conserving, Zval = 14.0
     Generated in analytical, separable form
     Using radial grid of 1257 points,  6 beta functions with:
                l(1) =   0
                l(2) =   0
                l(3) =   1
                l(4) =   1
                l(5) =   2
                l(6) =   3

     atomic species   valence    mass     pseudopotential
        Fe            19.00    55.84500     Tb( 1.00)
        C             14.00    12.01070     Nd( 1.00)

      8 Sym. Ops., with inversion, found ( 6 have fractional translation)

   Cartesian axes

     site n.     atom                  positions (alat units)
         1           Fe  tau(   1) = (   0.3472940   0.1827628   1.3947267  )
         2           Fe  tau(   2) = (   0.1527060   0.7246484   0.8731757  )
         3           Fe  tau(   3) = (   0.8472940   0.3591227   0.6387592  )
         4           Fe  tau(   4) = (   0.3396640   0.4879235   0.3779837  )
         5           Fe  tau(   5) = (   0.1527060   0.7246484   1.3947267  )
         6           Fe  tau(   6) = (   0.3472940   0.1827628   0.8731757  )
         7           Fe  tau(   7) = (   0.1603360   1.0298091   0.3779837  )
         8           Fe  tau(   8) = (   0.6527060   0.9010083   0.6387592  )
         9           Fe  tau(   9) = (   0.8472940   0.3591227   0.1172082  )
        10           Fe  tau(  10) = (   0.6603360   0.5958476   1.1339512  )
        11           Fe  tau(  11) = (   0.6527060   0.9010083   0.1172082  )
        12           Fe  tau(  12) = (   0.8396640   0.0539620   1.1339512  )
        13           C   tau(  13) = (   0.0000000   0.0000000   0.0000000  )
        14           C   tau(  14) = (   0.5000000   0.5418856   0.0000000  )
        15           C   tau(  15) = (   0.5000000   0.5418856   0.7559674  )
        16           C   tau(  16) = (   0.0000000   0.0000000   0.7559674  )

     number of k points=    12  gaussian smearing, width (Ry)=  0.1000
                       cart. coord. in units 2pi/alat
        k(    1) = (   0.0000000   0.0000000   0.0000000), wk =   0.0833333
        k(    2) = (   0.0000000   0.0000000   0.1653510), wk =   0.1666667
        k(    3) = (   0.0000000   0.0000000  -0.3307021), wk =   0.0833333
        k(    4) = (   0.0000000   0.3075680   0.0000000), wk =   0.1666667
        k(    5) = (   0.0000000   0.3075680   0.1653510), wk =   0.3333333
        k(    6) = (   0.0000000   0.3075680  -0.3307021), wk =   0.1666667
        k(    7) = (  -0.5000000   0.0000000   0.0000000), wk =   0.0833333
        k(    8) = (  -0.5000000   0.0000000   0.1653510), wk =   0.1666667
        k(    9) = (  -0.5000000   0.0000000  -0.3307021), wk =   0.0833333
        k(   10) = (  -0.5000000   0.3075680   0.0000000), wk =   0.1666667
        k(   11) = (  -0.5000000   0.3075680   0.1653510), wk =   0.3333333
        k(   12) = (  -0.5000000   0.3075680  -0.3307021), wk =   0.1666667

     Largest allocated arrays     est. size (Mb)     dimensions
     Largest temporary arrays     est. size (Mb)     dimensions

     Initial potential from superposition of free atoms

     Starting from uniform charge
     Starting wfc are    0 randomized atomic wfcs

     Self-consistent Calculation

     iteration #  1     ecut=    40.00 Ry     beta=0.70
     CG style diagonalization
     ethr =  1.00E-02,  avg # of iterations = 19.8

     total energy              =   -2967.87858445 Ry
     Harris-Foulkes estimate   =   -3607.93665141 Ry
     estimated scf accuracy    <     817.71525805 Ry

     iteration #  2     ecut=    40.00 Ry     beta=0.70
     CG style diagonalization
     c_bands:  1 eigenvalues not converged
     ethr =  1.00E-02,  avg # of iterations =  9.2

[...]

     End of self-consistent calculation

          k = 0.0000 0.0000 0.0000 (  4785 PWs)   bands (ev):

   -30.2480 -29.9614 -29.6841 -29.6703 -29.5899 -29.5160 -29.5108 -29.4211
   -29.2803 -29.1934 -29.1600 -29.1565  -9.1701  -8.2171  -6.3019  -4.4851
    -2.6141  -2.3857  -2.3414  -2.3058  -1.7031  -1.4750  -0.1804  -0.0642
     0.1434   0.5695   0.7803   0.8568   1.1182   1.1230   1.2199   1.4483
     1.5390   1.6136   1.8320   2.0183   2.3686   2.4697   2.5920   2.6748
     2.7216   2.7478   2.9669   2.9697   3.3293   3.3321   3.3364   3.4570
     4.4510   5.7397   6.6288   8.3909  16.9861  17.0851  17.2361  17.6433
    17.9839  18.1243  20.9247  21.0789  21.5050  22.1362  22.1399  22.3978
    30.9816  31.6552  32.1075  32.2070  32.4546  32.6198  32.6440  32.8319
    33.3519  34.1177  34.5507  34.7413  34.8877  35.1296  35.6157  35.6333
    35.6788  35.7360  35.9175  36.0758  36.1701  36.5094  36.7703  37.1733
    37.2023  37.4867  37.6333  37.7288  38.0248  38.5463  38.6053  38.9179
    39.1932  39.2012  39.3233  39.5852  40.0221  40.1833  40.2108  40.3130
    40.4252  41.0857  41.3413  41.4414  41.9073  42.0429  42.6156  43.0453
    43.4066  43.6809  43.7870  43.8564  44.0683  44.2406  44.4743  45.0798
    45.3121  45.9024  46.0976  46.2948  46.4987  46.7525  46.8151  46.9683
    47.0215  47.5509  48.1913  48.8463  49.2205  49.3477  50.0776  50.5774
    50.8039  50.9082  51.0190  51.5242  51.6975  52.6022  52.6831  53.1323
    53.2288  53.4994  53.8781  54.8438  55.2258  55.2566  55.7308  55.8380
    56.0105  56.0879  56.2765  56.6564  56.8535  57.0358  57.3437  57.3712
    57.4459  57.4461  57.6498  57.7846  58.1029  58.5488  58.5652  58.6557
    58.8466  59.5274

[...]

          k =-0.5000 0.0000 0.0000 (  4798 PWs)   bands (ev):

[...]

     the Fermi energy is    52.3312 ev

!    total energy              =   -3155.84949436 Ry
     Harris-Foulkes estimate   =   -3155.84950950 Ry
     estimated scf accuracy    <       0.00001752 Ry

     The total energy is the sum of the following terms:

     one-electron contribution =     302.29070592 Ry
     hartree contribution      =     304.38496507 Ry
     xc contribution           =    -344.66684276 Ry
     ewald contribution        =   -3417.36556116 Ry
     smearing contrib. (-TS)   =      -0.49276142 Ry

     convergence has been achieved in  10 iterations

     Forces acting on atoms (Ry/au):

     atom    1 type  1   force =     0.97877235   -1.03806397   -1.35277123
     atom    2 type  1   force =    -0.97877235   -1.03806397    1.35277123
     atom    3 type  1   force =     0.97877235    1.03806397   -1.35277123
     atom    4 type  1   force =    -1.68475182   -0.61812009    0.00000000
     atom    5 type  1   force =    -0.97877235   -1.03806397   -1.35277123
     atom    6 type  1   force =     0.97877235   -1.03806397    1.35277123
     atom    7 type  1   force =     1.68475182   -0.61812009    0.00000000
     atom    8 type  1   force =    -0.97877235    1.03806397   -1.35277123
     atom    9 type  1   force =     0.97877235    1.03806397    1.35277123
     atom   10 type  1   force =     1.68475182    0.61812009    0.00000000
     atom   11 type  1   force =    -0.97877235    1.03806397    1.35277123
     atom   12 type  1   force =    -1.68475182    0.61812009    0.00000000
     atom   13 type  2   force =     0.00000000    0.00000000    0.00000000
     atom   14 type  2   force =     0.00000000    0.00000000    0.00000000
     atom   15 type  2   force =     0.00000000    0.00000000    0.00000000
     atom   16 type  2   force =     0.00000000    0.00000000    0.00000000

     Total force =     6.618636     Total SCF correction =     0.000000

     entering subroutine stress ...

          total   stress  (Ry/bohr**3)                   (kbar)     P=11485.22
   0.07832537   0.00000000   0.00000000      11522.06      0.00      0.00
   0.00000000   0.07872332   0.00000000          0.00  11580.60      0.00
   0.00000000   0.00000000   0.07717610          0.00      0.00  11352.99

     BFGS Geometry Optimization

     number of scf cycles    =   1
     number of bfgs steps    =   0

     enthalpy new            =   -3155.8494943618 Ry

     new trust radius        =       0.5000000000 bohr
     new conv_thr            =       0.0001000000 Ry

     new unit-cell volume =   1384.43418 a.u.^3 (   205.15198 Ang^3 )

CELL_PARAMETERS (alat=  8.80076499)
   1.074425729   0.000000000   0.000000000
   0.000000000   1.164841411   0.000000000
   0.000000000   0.000000000   1.622810614

ATOMIC_POSITIONS (crystal)
Fe       0.351521094   0.164499369   0.918613872
Fe       0.148478906   0.664499369   0.581386128
Fe       0.851521094   0.335500631   0.418613872
Fe       0.332387942   0.447745824   0.250000000
Fe       0.148478906   0.664499369   0.918613872
Fe       0.351521094   0.164499369   0.581386128
Fe       0.167612058   0.947745824   0.250000000
Fe       0.648478906   0.835500631   0.418613872
Fe       0.851521094   0.335500631   0.081386128
Fe       0.667612058   0.552254176   0.750000000
Fe       0.648478906   0.835500631   0.081386128
Fe       0.832387942   0.052254176   0.750000000
C        0.000000000   0.000000000   0.000000000
C        0.500000000   0.500000000   0.000000000
C        0.500000000   0.500000000   0.500000000
C        0.000000000   0.000000000   0.500000000

     Writing output data file Prototype-La-oP16-Fe3C.save
     NEW-OLD atomic charge density approx. for the potential
     NEW k-points:
        k(    1) = (   0.0000000   0.0000000   0.0000000), wk =   0.0833333
        k(    2) = (   0.0000000   0.0000000   0.1540537), wk =   0.1666667
        k(    3) = (   0.0000000   0.0000000  -0.3081074), wk =   0.0833333
        k(    4) = (   0.0000000   0.2861620   0.0000000), wk =   0.1666667
        k(    5) = (   0.0000000   0.2861620   0.1540537), wk =   0.3333333
        k(    6) = (   0.0000000   0.2861620  -0.3081074), wk =   0.1666667
        k(    7) = (  -0.4653649   0.0000000   0.0000000), wk =   0.0833333
        k(    8) = (  -0.4653649   0.0000000   0.1540537), wk =   0.1666667
        k(    9) = (  -0.4653649   0.0000000  -0.3081074), wk =   0.0833333
        k(   10) = (  -0.4653649   0.2861620   0.0000000), wk =   0.1666667
        k(   11) = (  -0.4653649   0.2861620   0.1540537), wk =   0.3333333
        k(   12) = (  -0.4653649   0.2861620  -0.3081074), wk =   0.1666667

[...]

          total   stress  (Ry/bohr**3)                   (kbar)     P= 4900.34
   0.03371298   0.00000000   0.00000000       4959.35      0.00      0.00
   0.00000000   0.03289995   0.00000000          0.00   4839.75      0.00
   0.00000000   0.00000000   0.03332260          0.00      0.00   4901.92

[...]

     enthalpy old            =   -3155.8494943618 Ry
     enthalpy new            =   -3171.3769105760 Ry

     CASE: enthalpy_new < enthalpy_old

     small trust_radius: resetting bfgs history

     new trust radius        =       6.2719608333 bohr
     new conv_thr            =       0.0001000000 Ry

[...]

          total   stress  (Ry/bohr**3)                   (kbar)     P=-2165.69
  -0.01495611   0.00000000   0.00000000      -2200.12      0.00      0.00
   0.00000000  -0.01452297   0.00000000          0.00  -2136.40      0.00
   0.00000000   0.00000000  -0.01468713          0.00      0.00  -2160.55

     number of scf cycles    =   3
     number of bfgs steps    =   2

     enthalpy old            =   -3171.3769105760 Ry
     enthalpy new            =   -3102.4613532247 Ry

     CASE: enthalpy_new > enthalpy_old

     new trust radius        =       2.7620413762 bohr

     trust_radius < trust_radius_min

     resetting bfgs history

     Message from routine bfgs:
     history already reset at previous step: stopping
     new conv_thr            =       0.0001000000 Ry

     new unit-cell volume =   1597.06942 a.u.^3 (   236.66127 Ang^3 )

[...]

ATOMIC_POSITIONS (crystal)
Fe       0.353439283   0.162572150   0.916837718
Fe       0.146560717   0.662572150   0.583162282
Fe       0.853439283   0.337427850   0.416837718
Fe       0.329090851   0.446572519   0.250000000
Fe       0.146560717   0.662572150   0.916837718
Fe       0.353439283   0.162572150   0.583162282
Fe       0.170909149   0.946572519   0.250000000
Fe       0.646560717   0.837427850   0.416837718
Fe       0.853439283   0.337427850   0.083162282
Fe       0.670909149   0.553427481   0.750000000
Fe       0.646560717   0.837427850   0.083162282
Fe       0.829090851   0.053427481   0.750000000
C        0.000000000   0.000000000   0.000000000
C        0.500000000   0.500000000   0.000000000
C        0.500000000   0.500000000   0.500000000
C        0.000000000   0.000000000   0.500000000

     Writing output data file Prototype-La-oP16-Fe3C.save
     NEW-OLD atomic charge density approx. for the potential
     NEW k-points:
        k(    1) = (   0.0000000   0.0000000   0.0000000), wk =   0.0833333
        k(    2) = (   0.0000000   0.0000000   0.1468852), wk =   0.1666667
        k(    3) = (   0.0000000   0.0000000  -0.2937703), wk =   0.0833333
        k(    4) = (   0.0000000   0.2731516   0.0000000), wk =   0.1666667
        k(    5) = (   0.0000000   0.2731516   0.1468852), wk =   0.3333333
        k(    6) = (   0.0000000   0.2731516  -0.2937703), wk =   0.1666667
        k(    7) = (  -0.4432458   0.0000000   0.0000000), wk =   0.0833333
        k(    8) = (  -0.4432458   0.0000000   0.1468852), wk =   0.1666667
        k(    9) = (  -0.4432458   0.0000000  -0.2937703), wk =   0.0833333
        k(   10) = (  -0.4432458   0.2731516   0.0000000), wk =   0.1666667
        k(   11) = (  -0.4432458   0.2731516   0.1468852), wk =   0.3333333
        k(   12) = (  -0.4432458   0.2731516  -0.2937703), wk =   0.1666667

[...]

     The maximum number of steps has been reached.

     End of BFGS Geometry Optimization
Begin final coordinates
     new unit-cell volume =   1597.06942 a.u.^3 (   236.66127 Ang^3 )

CELL_PARAMETERS (alat=  8.80076499)
   1.128042384   0.000000000   0.000000000
   0.000000000   1.220323728   0.000000000
   0.000000000   0.000000000   1.702009767

ATOMIC_POSITIONS (crystal)
Fe       0.353439283   0.162572150   0.916837718
Fe       0.146560717   0.662572150   0.583162282
Fe       0.853439283   0.337427850   0.416837718
Fe       0.329090851   0.446572519   0.250000000
Fe       0.146560717   0.662572150   0.916837718
Fe       0.353439283   0.162572150   0.583162282
Fe       0.170909149   0.946572519   0.250000000
Fe       0.646560717   0.837427850   0.416837718
Fe       0.853439283   0.337427850   0.083162282
Fe       0.670909149   0.553427481   0.750000000
Fe       0.646560717   0.837427850   0.083162282
Fe       0.829090851   0.053427481   0.750000000
C        0.000000000   0.000000000   0.000000000
C        0.500000000   0.500000000   0.000000000
C        0.500000000   0.500000000   0.500000000
C        0.000000000   0.000000000   0.500000000
End final coordinates

     A final scf calculation at the relaxed structure.
     The G-vectors are recalculated for the final unit cell
     Results may differ from those at the preceding step.

     bravais-lattice index     =            0
     lattice parameter (alat)  =       8.8008  a.u.
     unit-cell volume          =    1597.0694 (a.u.)^3
     number of atoms/cell      =           16
     number of atomic types    =            2
     number of electrons       =       284.00
     number of Kohn-Sham states=          170
     kinetic-energy cutoff     =      40.0000  Ry
     charge density cutoff     =     160.0000  Ry
     convergence threshold     =      1.0E-04
     mixing beta               =       0.7000
     number of iterations used =            8  plain     mixing
     Exchange-correlation      = SLA-PZ-NOGX-NOGC ( 1 1 0 0 0)
     EXX-fraction              =        0.00

     celldm(1)=   8.800765  celldm(2)=   0.000000  celldm(3)=   0.000000
     celldm(4)=   0.000000  celldm(5)=   0.000000  celldm(6)=   0.000000

     crystal axes: (cart. coord. in units of alat)
               a(1) = (   1.128042   0.000000   0.000000 )
               a(2) = (   0.000000   1.220324   0.000000 )
               a(3) = (   0.000000   0.000000   1.702010 )

     reciprocal axes: (cart. coord. in units 2 pi/alat)
               b(1) = (  0.886492  0.000000  0.000000 )
               b(2) = (  0.000000  0.819455  0.000000 )
               b(3) = (  0.000000  0.000000  0.587541 )

     PseudoPot. # 1 for Tb read from file:
     /home/jld5415/pp.La/Tb.UPF
     MD5 check sum: 3d6088a3f0cf7fd2e110c43f7f8e95c2
     Pseudo is Norm-conserving, Zval = 19.0
     Generated in analytical, separable form
     Using radial grid of 1263 points,  6 beta functions with:
                l(1) =   0
                l(2) =   0
                l(3) =   1
                l(4) =   1
                l(5) =   2
                l(6) =   3

     PseudoPot. # 2 for Nd read from file:
     /home/jld5415/pp.La/Nd.UPF
     MD5 check sum: c66c5b6abe7b5840ced9b1e244e3bed6
     Pseudo is Norm-conserving, Zval = 14.0
     Generated in analytical, separable form
     Using radial grid of 1257 points,  6 beta functions with:
                l(1) =   0
                l(2) =   0
                l(3) =   1
                l(4) =   1
                l(5) =   2
                l(6) =   3

     atomic species   valence    mass     pseudopotential
        Fe            19.00    55.84500     Tb( 1.00)
        C             14.00    12.01070     Nd( 1.00)

      8 Sym. Ops., with inversion, found ( 6 have fractional translation)

   Cartesian axes

     site n.     atom                  positions (alat units)
         1           Fe  tau(   1) = (   0.3986945   0.1983907   1.5604667  )
         2           Fe  tau(   2) = (   0.1653267   0.8085525   0.9925479  )
         3           Fe  tau(   3) = (   0.9627157   0.4117712   0.7094619  )
         4           Fe  tau(   4) = (   0.3712284   0.5449630   0.4255024  )
         5           Fe  tau(   5) = (   0.1653267   0.8085525   1.5604667  )
         6           Fe  tau(   6) = (   0.3986945   0.1983907   0.9925479  )
         7           Fe  tau(   7) = (   0.1927928   1.1551249   0.4255024  )
         8           Fe  tau(   8) = (   0.7293479   1.0219331   0.7094619  )
         9           Fe  tau(   9) = (   0.9627157   0.4117712   0.1415430  )
        10           Fe  tau(  10) = (   0.7568140   0.6753607   1.2765073  )
        11           Fe  tau(  11) = (   0.7293479   1.0219331   0.1415430  )
        12           Fe  tau(  12) = (   0.9352496   0.0651988   1.2765073  )
        13           C   tau(  13) = (   0.0000000   0.0000000   0.0000000  )
        14           C   tau(  14) = (   0.5640212   0.6101619   0.0000000  )
        15           C   tau(  15) = (   0.5640212   0.6101619   0.8510049  )
        16           C   tau(  16) = (   0.0000000   0.0000000   0.8510049  )

     number of k points=    12  gaussian smearing, width (Ry)=  0.1000
                       cart. coord. in units 2pi/alat
        k(    1) = (   0.0000000   0.0000000   0.0000000), wk =   0.0833333
        k(    2) = (   0.0000000   0.0000000   0.1468852), wk =   0.1666667
        k(    3) = (   0.0000000   0.0000000  -0.2937703), wk =   0.0833333
        k(    4) = (   0.0000000   0.2731516   0.0000000), wk =   0.1666667
        k(    5) = (   0.0000000   0.2731516   0.1468852), wk =   0.3333333
        k(    6) = (   0.0000000   0.2731516  -0.2937703), wk =   0.1666667
        k(    7) = (  -0.4432458   0.0000000   0.0000000), wk =   0.0833333
        k(    8) = (  -0.4432458   0.0000000   0.1468852), wk =   0.1666667
        k(    9) = (  -0.4432458   0.0000000  -0.2937703), wk =   0.0833333
        k(   10) = (  -0.4432458   0.2731516   0.0000000), wk =   0.1666667
        k(   11) = (  -0.4432458   0.2731516   0.1468852), wk =   0.3333333
        k(   12) = (  -0.4432458   0.2731516  -0.2937703), wk =   0.1666667

     Largest allocated arrays     est. size (Mb)     dimensions
     Largest temporary arrays     est. size (Mb)     dimensions

     Initial potential from superposition of free atoms

     Starting from uniform charge
     Starting wfc are    0 randomized atomic wfcs

     Writing output data file Prototype-La-oP16-Fe3C.save

     Self-consistent Calculation

[...]

     iteration #  4     ecut=    40.00 Ry     beta=0.70
     CG style diagonalization
     ethr =  4.93E-03,  avg # of iterations =  3.7

[...]

     total energy              =   -3181.75862084 Ry
     Harris-Foulkes estimate   =   -3181.75871094 Ry
     estimated scf accuracy    <       0.00015443 Ry

     iteration #  9     ecut=    40.00 Ry     beta=0.70
     CG style diagonalization
     c_bands:  1 eigenvalues not converged
     c_bands:  1 eigenvalues not converged
     ethr =  5.44E-08,  avg # of iterations =  4.7

     End of self-consistent calculation

[...]

          k = 0.0000 0.2732-0.2938 (  6800 PWs)   bands (ev):

[...]

          k =-0.4432 0.2732-0.2938 (  6848 PWs)   bands (ev):

   -43.0322 -43.0322 -43.0155 -43.0155 -42.9567 -42.9567 -42.9416 -42.9416
   -42.6659 -42.6659 -42.6484 -42.6484 -16.8676 -16.8676 -16.8644 -16.8644
   -12.7942 -12.7942 -12.7731 -12.7731 -12.3333 -12.3333 -12.2707 -12.2707
   -11.7620 -11.7620 -11.7519 -11.7519 -11.6110 -11.6110 -11.5341 -11.5341
   -11.4512 -11.4512 -11.4042 -11.4042 -11.1896 -11.1896 -11.1806 -11.1806
   -10.8911 -10.8911 -10.8229 -10.8229 -10.7380 -10.7380 -10.6439 -10.6439
   -10.1717 -10.1717 -10.1522 -10.1522   5.3140   5.3140   5.3140   5.3140
     5.8846   5.8846   5.8886   5.8886   6.3337   6.3337   6.3386   6.3386
    21.3682  21.3682  21.4273  21.4273  22.0380  22.0380  22.4427  22.4427
    22.5132  22.5132  22.8227  22.8227  23.4656  23.4656  23.6593  23.6593
    23.9511  23.9511  24.4902  24.4902  24.5333  24.5333  25.0637  25.0637
    25.1468  25.1468  25.3943  25.3943  25.5448  25.5448  25.8446  25.8446
    25.9984  25.9984  26.0899  26.0899  26.5370  26.5370  26.6285  26.6285
    27.1259  27.1259  27.2690  27.2690  27.6540  27.6540  27.7275  27.7275
    28.0011  28.0011  28.3126  28.3126  28.3188  28.3188  28.5772  28.5772
    29.0804  29.0804  29.1141  29.1141  30.0719  30.0719  30.2014  30.2014
    32.2044  32.2044  32.2408  32.2408  33.8028  33.8028  33.8037  33.8037
    34.0329  34.0329  34.3429  34.3429  35.2694  35.2694  35.3577  35.3577
    36.1530  36.1530  36.6748  36.6748  37.0972  37.0972  37.4808  37.4808
    38.0124  38.0125  38.2364  38.2364  39.9203  39.9204  40.5719  40.5719
    40.9374  40.9374  41.4115  41.4117  41.6302  41.6303  42.1564  42.1565
    42.7692  42.7704

     the Fermi energy is    35.4180 ev

!    total energy              =   -3181.75871124 Ry
     Harris-Foulkes estimate   =   -3181.75877622 Ry
     estimated scf accuracy    <       0.00007251 Ry

     The total energy is the sum of the following terms:

     one-electron contribution =    -209.00059017 Ry
     hartree contribution      =     408.58128185 Ry
     xc contribution           =    -329.00909867 Ry
     ewald contribution        =   -3051.73699681 Ry
     smearing contrib. (-TS)   =      -0.59330744 Ry

     convergence has been achieved in   9 iterations

     Forces acting on atoms (Ry/au):

     atom    1 type  1   force =     0.39096009   -0.43066004   -0.54702075
     atom    2 type  1   force =    -0.39096009   -0.43066004    0.54702075
     atom    3 type  1   force =     0.39096009    0.43066004   -0.54702075
     atom    4 type  1   force =    -0.67128415   -0.25319693    0.00000000
     atom    5 type  1   force =    -0.39096009   -0.43066004   -0.54702075
     atom    6 type  1   force =     0.39096009   -0.43066004    0.54702075
     atom    7 type  1   force =     0.67128415   -0.25319693    0.00000000
     atom    8 type  1   force =    -0.39096009    0.43066004   -0.54702075
     atom    9 type  1   force =     0.39096009    0.43066004    0.54702075
     atom   10 type  1   force =     0.67128415    0.25319693    0.00000000
     atom   11 type  1   force =    -0.39096009    0.43066004    0.54702075
     atom   12 type  1   force =    -0.67128415    0.25319693    0.00000000
     atom   13 type  2   force =     0.00000000    0.00000000    0.00000000
     atom   14 type  2   force =     0.00000000    0.00000000    0.00000000
     atom   15 type  2   force =     0.00000000    0.00000000    0.00000000
     atom   16 type  2   force =     0.00000000    0.00000000    0.00000000

     Total force =     2.675691     Total SCF correction =     0.000000

     entering subroutine stress ...

          total   stress  (Ry/bohr**3)                   (kbar)     P= 2983.90
   0.02055098   0.00000000   0.00000000       3023.15      0.00      0.00
   0.00000000   0.01994552   0.00000000          0.00   2934.09      0.00
   0.00000000   0.00000000   0.02035592          0.00      0.00   2994.46

     Writing output data file Prototype-La-oP16-Fe3C.save

     General routines

     Parallel routines

   This run was terminated on:  18:15:15  22Mar2018

   JOB DONE.