     Program PWSCF v.5.0.2 starts on 22Mar2018 at 17:36:37

     Current dimensions of program PWSCF are:
     Max number of different atomic species (ntypx) = 10
     Max number of k-points (npk) =  40000
     Max angular momentum in pseudopotentials (lmaxx) =  3
     Waiting for input...
     Reading input from standard input

     Subspace diagonalization in iterative solution of the eigenvalue problem:
     a serial algorithm will be used

     bravais-lattice index     =            0
     lattice parameter (alat)  =      12.0168  a.u.
     unit-cell volume          =    1187.3413 (a.u.)^3
     number of atoms/cell      =            8
     number of atomic types    =            2
     number of electrons       =       142.00
     number of Kohn-Sham states=           85
     kinetic-energy cutoff     =      40.0000  Ry
     charge density cutoff     =     160.0000  Ry
     convergence threshold     =      1.0E-04
     mixing beta               =       0.7000
     number of iterations used =            8  plain     mixing
     Exchange-correlation      = SLA-PZ-NOGX-NOGC ( 1 1 0 0 0)
     EXX-fraction              =        0.00
     nstep                     =           50

     celldm(1)=  12.016801  celldm(2)=   0.000000  celldm(3)=   0.000000
     celldm(4)=   0.000000  celldm(5)=   0.000000  celldm(6)=   0.000000

     crystal axes: (cart. coord. in units of alat)
               a(1) = (   1.000000   0.000000   0.000000 )
               a(2) = (  -0.500000   0.866025   0.000000 )
               a(3) = (   0.000000   0.000000   0.790093 )

     reciprocal axes: (cart. coord. in units 2 pi/alat)
               b(1) = (  1.000000  0.577350  0.000000 )
               b(2) = (  0.000000  1.154701  0.000000 )
               b(3) = (  0.000000  0.000000  1.265674 )

     PseudoPot. # 1 for Tb read from file:
     /home/cwx6513/pp.La/Tb.UPF
     MD5 check sum: 3d6088a3f0cf7fd2e110c43f7f8e95c2
     Pseudo is Norm-conserving, Zval = 19.0
     Generated in analytical, separable form
     Using radial grid of 1263 points,  6 beta functions with:
                l(1) =   0
                l(2) =   0
                l(3) =   1
                l(4) =   1
                l(5) =   2
                l(6) =   3

     PseudoPot. # 2 for Nd read from file:
     /home/cwx6513/pp.La/Nd.UPF
     MD5 check sum: c66c5b6abe7b5840ced9b1e244e3bed6
     Pseudo is Norm-conserving, Zval = 14.0
     Generated in analytical, separable form
     Using radial grid of 1257 points,  6 beta functions with:
                l(1) =   0
                l(2) =   0
                l(3) =   1
                l(4) =   1
                l(5) =   2
                l(6) =   3

     atomic species   valence    mass     pseudopotential
        Mg            19.00    24.30500     Tb( 1.00)
        Cd            14.00   112.41100     Nd( 1.00)

     24 Sym. Ops., with inversion, found (12 have fractional translation)

   Cartesian axes

     site n.     atom                  positions (alat units)
         1           Mg  tau(   1) = (   0.2478935   0.7204716   0.1975233  )
         2           Mg  tau(   2) = (   0.7478935   0.1455538   0.5925699  )
         3           Mg  tau(   3) = (   0.2521065   0.1455538   0.5925699  )
         4           Mg  tau(   4) = (  -0.2478935   0.7204716   0.1975233  )
         5           Mg  tau(   5) = (   0.0000000   0.2911075   0.1975233  )
         6           Mg  tau(   6) = (   0.5000000   0.5749179   0.5925699  )
         7           Cd  tau(   7) = (   0.5000005   0.2886748   0.1975233  )
         8           Cd  tau(   8) = (  -0.0000005   0.5773506   0.5925699  )

     number of k points=    64  gaussian smearing, width (Ry)=  0.1000
                       cart. coord. in units 2pi/alat
        k(    1) = (   0.0000000   0.0000000   0.0000000), wk =   0.0095238
        k(    2) = (   0.0000000   0.0000000   0.1808105), wk =   0.0190476
        k(    3) = (   0.0000000   0.0000000   0.3616210), wk =   0.0190476
        k(    4) = (   0.0000000   0.0000000   0.5424315), wk =   0.0190476
        k(    5) = (   0.0000000   0.1924501   0.0000000), wk =   0.0190476
        k(    6) = (   0.0000000   0.1924501   0.1808105), wk =   0.0380952
        k(    7) = (   0.0000000   0.1924501   0.3616210), wk =   0.0380952
        k(    8) = (   0.0000000   0.1924501   0.5424315), wk =   0.0380952
        k(    9) = (   0.0000000   0.3849002   0.0000000), wk =   0.0190476
        k(   10) = (   0.0000000   0.3849002   0.1808105), wk =   0.0380952
        k(   11) = (   0.0000000   0.3849002   0.3616210), wk =   0.0380952
        k(   12) = (   0.0000000   0.3849002   0.5424315), wk =   0.0380952
        k(   13) = (   0.0000000  -0.5773503   0.0000000), wk =   0.0095238
        k(   14) = (   0.0000000  -0.5773503   0.1808105), wk =   0.0190476
        k(   15) = (   0.0000000  -0.5773503   0.3616210), wk =   0.0190476
        k(   16) = (   0.0000000  -0.5773503   0.5424315), wk =   0.0190476
        k(   17) = (   0.2000000   0.1154701   0.0000000), wk =   0.0190476
        k(   18) = (   0.2000000   0.1154701   0.1808105), wk =   0.0380952
        k(   19) = (   0.2000000   0.1154701   0.3616210), wk =   0.0380952
        k(   20) = (   0.2000000   0.1154701   0.5424315), wk =   0.0380952
        k(   21) = (   0.2000000   0.3079201   0.0000000), wk =   0.0190476
        k(   22) = (   0.2000000   0.3079201   0.1808105), wk =   0.0380952
        k(   23) = (   0.2000000   0.3079201   0.3616210), wk =   0.0380952
        k(   24) = (   0.2000000   0.3079201   0.5424315), wk =   0.0380952
        k(   25) = (   0.2000000   0.5003702   0.0000000), wk =   0.0190476
        k(   26) = (   0.2000000   0.5003702   0.1808105), wk =   0.0380952
        k(   27) = (   0.2000000   0.5003702   0.3616210), wk =   0.0380952
        k(   28) = (   0.2000000   0.5003702   0.5424315), wk =   0.0380952
        k(   29) = (   0.2000000  -0.4618802   0.0000000), wk =   0.0190476
        k(   30) = (   0.2000000  -0.4618802   0.1808105), wk =   0.0380952
        k(   31) = (   0.2000000  -0.4618802   0.3616210), wk =   0.0380952
        k(   32) = (   0.2000000  -0.4618802   0.5424315), wk =   0.0380952
        k(   33) = (   0.2000000  -0.2694301   0.0000000), wk =   0.0190476
        k(   34) = (   0.2000000  -0.2694301   0.1808105), wk =   0.0380952
        k(   35) = (   0.2000000  -0.2694301   0.3616210), wk =   0.0380952
        k(   36) = (   0.2000000  -0.2694301   0.5424315), wk =   0.0380952
        k(   37) = (   0.2000000  -0.0769800   0.0000000), wk =   0.0190476
        k(   38) = (   0.2000000  -0.0769800   0.1808105), wk =   0.0380952
        k(   39) = (   0.2000000  -0.0769800   0.3616210), wk =   0.0380952
        k(   40) = (   0.2000000  -0.0769800   0.5424315), wk =   0.0380952
        k(   41) = (   0.4000000   0.2309401   0.0000000), wk =   0.0190476
        k(   42) = (   0.4000000   0.2309401   0.1808105), wk =   0.0380952
        k(   43) = (   0.4000000   0.2309401   0.3616210), wk =   0.0380952
        k(   44) = (   0.4000000   0.2309401   0.5424315), wk =   0.0380952
        k(   45) = (   0.4000000   0.4233902   0.0000000), wk =   0.0190476
        k(   46) = (   0.4000000   0.4233902   0.1808105), wk =   0.0380952
        k(   47) = (   0.4000000   0.4233902   0.3616210), wk =   0.0380952
        k(   48) = (   0.4000000   0.4233902   0.5424315), wk =   0.0380952
        k(   49) = (   0.4000000   0.6158403   0.0000000), wk =   0.0190476
        k(   50) = (   0.4000000   0.6158403   0.1808105), wk =   0.0380952
        k(   51) = (   0.4000000   0.6158403   0.3616210), wk =   0.0380952
        k(   52) = (   0.4000000   0.6158403   0.5424315), wk =   0.0380952
        k(   53) = (   0.4000000  -0.3464102   0.0000000), wk =   0.0190476
        k(   54) = (   0.4000000  -0.3464102   0.1808105), wk =   0.0380952
        k(   55) = (   0.4000000  -0.3464102   0.3616210), wk =   0.0380952
        k(   56) = (   0.4000000  -0.3464102   0.5424315), wk =   0.0380952
        k(   57) = (   0.4000000  -0.1539601   0.0000000), wk =   0.0190476
        k(   58) = (   0.4000000  -0.1539601   0.1808105), wk =   0.0380952
        k(   59) = (   0.4000000  -0.1539601   0.3616210), wk =   0.0380952
        k(   60) = (   0.4000000  -0.1539601   0.5424315), wk =   0.0380952
        k(   61) = (   0.4000000   0.0384900   0.0000000), wk =   0.0190476
        k(   62) = (   0.4000000   0.0384900   0.1808105), wk =   0.0380952
        k(   63) = (   0.4000000   0.0384900   0.3616210), wk =   0.0380952
        k(   64) = (   0.4000000   0.0384900   0.5424315), wk =   0.0380952

     Largest allocated arrays     est. size (Mb)     dimensions
     Largest temporary arrays     est. size (Mb)     dimensions

     Initial potential from superposition of free atoms

     Starting from uniform charge
     Starting wfc are    0 randomized atomic wfcs

     Self-consistent Calculation

     iteration #  1     ecut=    40.00 Ry     beta=0.70
     CG style diagonalization
     c_bands:  1 eigenvalues not converged
     c_bands:  1 eigenvalues not converged
     c_bands:  1 eigenvalues not converged
     c_bands:  1 eigenvalues not converged
     c_bands:  2 eigenvalues not converged
     c_bands:  1 eigenvalues not converged
     c_bands:  1 eigenvalues not converged
     c_bands:  2 eigenvalues not converged
     c_bands:  1 eigenvalues not converged
     c_bands:  1 eigenvalues not converged
     c_bands:  1 eigenvalues not converged
     c_bands:  1 eigenvalues not converged
     c_bands:  1 eigenvalues not converged
     c_bands:  1 eigenvalues not converged
     c_bands:  1 eigenvalues not converged
     c_bands:  2 eigenvalues not converged
     c_bands:  1 eigenvalues not converged
     c_bands:  1 eigenvalues not converged
     c_bands:  1 eigenvalues not converged
     c_bands:  1 eigenvalues not converged
     c_bands:  1 eigenvalues not converged
     c_bands:  2 eigenvalues not converged
     c_bands:  1 eigenvalues not converged
     c_bands:  1 eigenvalues not converged
     c_bands:  1 eigenvalues not converged
     c_bands:  3 eigenvalues not converged
     c_bands:  1 eigenvalues not converged
     c_bands:  1 eigenvalues not converged
     ethr =  1.00E-02,  avg # of iterations = 13.2

     total energy              =   -1223.49741841 Ry
     Harris-Foulkes estimate   =   -1988.58556780 Ry
     estimated scf accuracy    <     956.58784423 Ry

[...]

     iteration #  4     ecut=    40.00 Ry     beta=0.70
     CG style diagonalization
     ethr =  1.00E-02,  avg # of iterations =  6.3

[...]

     End of self-consistent calculation

          k = 0.0000 0.0000 0.0000 (  5047 PWs)   bands (ev):

   -53.4771 -53.4605 -53.4580 -53.4579 -53.4517 -53.4516 -26.6885 -26.6860
   -22.0063 -21.9337 -21.8770 -21.8769 -21.8758 -21.8418 -21.8418 -21.8286
   -21.8285 -21.7621 -21.7068 -21.7068 -21.6402 -21.6220 -21.6220 -21.6158
   -21.6125 -21.6125  -5.0267  -5.0041  -4.9487  -4.9487  -4.9274  -4.9274
    13.4789  13.8725  13.9062  13.9062  13.9451  14.2229  14.5272  14.5272
    14.5366  14.5366  14.5440  15.3336  15.6358  15.6359  16.0191  16.1012
[...]
        k(   11) = (   0.0000000   0.3890268   0.3582908), wk =   0.0380952
        k(   12) = (   0.0000000   0.3890268   0.5374362), wk =   0.0380952
        k(   13) = (   0.0000000  -0.5835401   0.0000000), wk =   0.0095238
        k(   14) = (   0.0000000  -0.5835401   0.1791454), wk =   0.0190476
        k(   15) = (   0.0000000  -0.5835401   0.3582908), wk =   0.0190476
        k(   16) = (   0.0000000  -0.5835401   0.5374362), wk =   0.0190476
        k(   17) = (   0.2021442   0.1167080   0.0000000), wk =   0.0190476
        k(   18) = (   0.2021442   0.1167080   0.1791454), wk =   0.0380952
        k(   19) = (   0.2021442   0.1167080   0.3582908), wk =   0.0380952
        k(   20) = (   0.2021442   0.1167080   0.5374362), wk =   0.0380952
        k(   21) = (   0.2021442   0.3112214   0.0000000), wk =   0.0190476
        k(   22) = (   0.2021442   0.3112214   0.1791454), wk =   0.0380952
        k(   23) = (   0.2021442   0.3112214   0.3582908), wk =   0.0380952
        k(   24) = (   0.2021442   0.3112214   0.5374362), wk =   0.0380952
        k(   25) = (   0.2021442   0.5057348   0.0000000), wk =   0.0190476
        k(   26) = (   0.2021442   0.5057348   0.1791454), wk =   0.0380952
        k(   27) = (   0.2021442   0.5057348   0.3582908), wk =   0.0380952
        k(   28) = (   0.2021442   0.5057348   0.5374362), wk =   0.0380952
        k(   29) = (   0.2021442  -0.4668321   0.0000000), wk =   0.0190476
        k(   30) = (   0.2021442  -0.4668321   0.1791454), wk =   0.0380952
        k(   31) = (   0.2021442  -0.4668321   0.3582908), wk =   0.0380952
        k(   32) = (   0.2021442  -0.4668321   0.5374362), wk =   0.0380952
        k(   33) = (   0.2021442  -0.2723187   0.0000000), wk =   0.0190476
        k(   34) = (   0.2021442  -0.2723187   0.1791454), wk =   0.0380952
        k(   35) = (   0.2021442  -0.2723187   0.3582908), wk =   0.0380952
        k(   36) = (   0.2021442  -0.2723187   0.5374362), wk =   0.0380952
        k(   37) = (   0.2021442  -0.0778054   0.0000000), wk =   0.0190476
        k(   38) = (   0.2021442  -0.0778054   0.1791454), wk =   0.0380952
        k(   39) = (   0.2021442  -0.0778054   0.3582908), wk =   0.0380952
        k(   40) = (   0.2021442  -0.0778054   0.5374362), wk =   0.0380952
        k(   41) = (   0.4042885   0.2334161   0.0000000), wk =   0.0190476
        k(   42) = (   0.4042885   0.2334161   0.1791454), wk =   0.0380952
        k(   43) = (   0.4042885   0.2334161   0.3582908), wk =   0.0380952
        k(   44) = (   0.4042885   0.2334161   0.5374362), wk =   0.0380952
        k(   45) = (   0.4042885   0.4279294   0.0000000), wk =   0.0190476
        k(   46) = (   0.4042885   0.4279294   0.1791454), wk =   0.0380952
        k(   47) = (   0.4042885   0.4279294   0.3582908), wk =   0.0380952
        k(   48) = (   0.4042885   0.4279294   0.5374362), wk =   0.0380952
        k(   49) = (   0.4042885   0.6224428   0.0000000), wk =   0.0190476
        k(   50) = (   0.4042885   0.6224428   0.1791454), wk =   0.0380952
        k(   51) = (   0.4042885   0.6224428   0.3582908), wk =   0.0380952
        k(   52) = (   0.4042885   0.6224428   0.5374362), wk =   0.0380952
        k(   53) = (   0.4042885  -0.3501241   0.0000000), wk =   0.0190476
        k(   54) = (   0.4042885  -0.3501241   0.1791454), wk =   0.0380952
        k(   55) = (   0.4042885  -0.3501241   0.3582908), wk =   0.0380952
        k(   56) = (   0.4042885  -0.3501241   0.5374362), wk =   0.0380952
        k(   57) = (   0.4042885  -0.1556107   0.0000000), wk =   0.0190476
        k(   58) = (   0.4042885  -0.1556107   0.1791454), wk =   0.0380952
        k(   59) = (   0.4042885  -0.1556107   0.3582908), wk =   0.0380952
        k(   60) = (   0.4042885  -0.1556107   0.5374362), wk =   0.0380952
        k(   61) = (   0.4042885   0.0389027   0.0000000), wk =   0.0190476
        k(   62) = (   0.4042885   0.0389027   0.1791454), wk =   0.0380952
        k(   63) = (   0.4042885   0.0389027   0.3582908), wk =   0.0380952
        k(   64) = (   0.4042885   0.0389027   0.5374362), wk =   0.0380952

[...]

     The maximum number of steps has been reached.

     End of BFGS Geometry Optimization
Begin final coordinates
     new unit-cell volume =   1173.08866 a.u.^3 (   173.83380 Ang^3 )

CELL_PARAMETERS (alat= 12.01680127)
   0.989392556   0.000000000   0.000000000
  -0.494696278   0.856839087   0.000000000
   0.000000000   0.000000000   0.797436832

ATOMIC_POSITIONS (crystal)
Mg       0.665301888   0.832650944   0.250000000
Mg       0.832650944   0.167349056   0.750000000
Mg       0.334698112   0.167349056   0.750000000
Mg       0.167349056   0.832650944   0.250000000
Mg       0.167349056   0.334698112   0.250000000
Mg       0.832650944   0.665301888   0.750000000
Cd       0.666667000   0.333333000   0.250000000
Cd       0.333333000   0.666667000   0.750000000
End final coordinates

     A final scf calculation at the relaxed structure.
     The G-vectors are recalculated for the final unit cell
     Results may differ from those at the preceding step.

     bravais-lattice index     =            0
     lattice parameter (alat)  =      12.0168  a.u.
     unit-cell volume          =    1173.0887 (a.u.)^3
     number of atoms/cell      =            8
     number of atomic types    =            2
     number of electrons       =       142.00
     number of Kohn-Sham states=           85
     kinetic-energy cutoff     =      40.0000  Ry
     charge density cutoff     =     160.0000  Ry
     convergence threshold     =      1.1E-05
     mixing beta               =       0.7000
     number of iterations used =            8  plain     mixing
     Exchange-correlation      = SLA-PZ-NOGX-NOGC ( 1 1 0 0 0)
     EXX-fraction              =        0.00

     celldm(1)=  12.016801  celldm(2)=   0.000000  celldm(3)=   0.000000
     celldm(4)=   0.000000  celldm(5)=   0.000000  celldm(6)=   0.000000

     crystal axes: (cart. coord. in units of alat)
               a(1) = (   0.989393   0.000000   0.000000 )
               a(2) = (  -0.494696   0.856839   0.000000 )
               a(3) = (   0.000000   0.000000   0.797437 )

     reciprocal axes: (cart. coord. in units 2 pi/alat)
               b(1) = (  1.010721  0.583540  0.000000 )
               b(2) = (  0.000000  1.167080  0.000000 )
               b(3) = (  0.000000  0.000000  1.254018 )

     PseudoPot. # 1 for Tb read from file:
     /home/cwx6513/pp.La/Tb.UPF
     MD5 check sum: 3d6088a3f0cf7fd2e110c43f7f8e95c2
     Pseudo is Norm-conserving, Zval = 19.0
     Generated in analytical, separable form
     Using radial grid of 1263 points,  6 beta functions with:
                l(1) =   0
                l(2) =   0
                l(3) =   1
                l(4) =   1
                l(5) =   2
                l(6) =   3

     PseudoPot. # 2 for Nd read from file:
     /home/cwx6513/pp.La/Nd.UPF
     MD5 check sum: c66c5b6abe7b5840ced9b1e244e3bed6
     Pseudo is Norm-conserving, Zval = 14.0
     Generated in analytical, separable form
     Using radial grid of 1257 points,  6 beta functions with:
                l(1) =   0
                l(2) =   0
                l(3) =   1
                l(4) =   1
                l(5) =   2
                l(6) =   3

     atomic species   valence    mass     pseudopotential
        Mg            19.00    24.30500     Tb( 1.00)
        Cd            14.00   112.41100     Nd( 1.00)

     24 Sym. Ops., with inversion, found (12 have fractional translation)

   Cartesian axes

     site n.     atom                  positions (alat units)
         1           Mg  tau(   1) = (   0.2463354   0.7134479   0.1993592  )
         2           Mg  tau(   2) = (   0.7410317   0.1433912   0.5980776  )
         3           Mg  tau(   3) = (   0.2483609   0.1433912   0.5980776  )
         4           Mg  tau(   4) = (  -0.2463354   0.7134479   0.1993592  )
         5           Mg  tau(   5) = (   0.0000000   0.2867824   0.1993592  )
         6           Mg  tau(   6) = (   0.4946963   0.5700567   0.5980776  )
         7           Cd  tau(   7) = (   0.4946968   0.2856127   0.1993592  )
         8           Cd  tau(   8) = (  -0.0000005   0.5712263   0.5980776  )

     number of k points=    64  gaussian smearing, width (Ry)=  0.1000
                       cart. coord. in units 2pi/alat
        k(    1) = (   0.0000000   0.0000000   0.0000000), wk =   0.0095238
        k(    2) = (   0.0000000   0.0000000   0.1791454), wk =   0.0190476
        k(    3) = (   0.0000000   0.0000000   0.3582908), wk =   0.0190476
        k(    4) = (   0.0000000   0.0000000   0.5374362), wk =   0.0190476
        k(    5) = (   0.0000000   0.1945134   0.0000000), wk =   0.0190476
        k(    6) = (   0.0000000   0.1945134   0.1791454), wk =   0.0380952
        k(    7) = (   0.0000000   0.1945134   0.3582908), wk =   0.0380952
        k(    8) = (   0.0000000   0.1945134   0.5374362), wk =   0.0380952
        k(    9) = (   0.0000000   0.3890268   0.0000000), wk =   0.0190476
        k(   10) = (   0.0000000   0.3890268   0.1791454), wk =   0.0380952
        k(   11) = (   0.0000000   0.3890268   0.3582908), wk =   0.0380952
        k(   12) = (   0.0000000   0.3890268   0.5374362), wk =   0.0380952
        k(   13) = (   0.0000000  -0.5835401   0.0000000), wk =   0.0095238
        k(   14) = (   0.0000000  -0.5835401   0.1791454), wk =   0.0190476
        k(   15) = (   0.0000000  -0.5835401   0.3582908), wk =   0.0190476
        k(   16) = (   0.0000000  -0.5835401   0.5374362), wk =   0.0190476
        k(   17) = (   0.2021442   0.1167080   0.0000000), wk =   0.0190476
        k(   18) = (   0.2021442   0.1167080   0.1791454), wk =   0.0380952
        k(   19) = (   0.2021442   0.1167080   0.3582908), wk =   0.0380952
        k(   20) = (   0.2021442   0.1167080   0.5374362), wk =   0.0380952
        k(   21) = (   0.2021442   0.3112214   0.0000000), wk =   0.0190476
        k(   22) = (   0.2021442   0.3112214   0.1791454), wk =   0.0380952
        k(   23) = (   0.2021442   0.3112214   0.3582908), wk =   0.0380952
        k(   24) = (   0.2021442   0.3112214   0.5374362), wk =   0.0380952
        k(   25) = (   0.2021442   0.5057348   0.0000000), wk =   0.0190476
        k(   26) = (   0.2021442   0.5057348   0.1791454), wk =   0.0380952
        k(   27) = (   0.2021442   0.5057348   0.3582908), wk =   0.0380952
        k(   28) = (   0.2021442   0.5057348   0.5374362), wk =   0.0380952
        k(   29) = (   0.2021442  -0.4668321   0.0000000), wk =   0.0190476
        k(   30) = (   0.2021442  -0.4668321   0.1791454), wk =   0.0380952
        k(   31) = (   0.2021442  -0.4668321   0.3582908), wk =   0.0380952
        k(   32) = (   0.2021442  -0.4668321   0.5374362), wk =   0.0380952
        k(   33) = (   0.2021442  -0.2723187   0.0000000), wk =   0.0190476
        k(   34) = (   0.2021442  -0.2723187   0.1791454), wk =   0.0380952
        k(   35) = (   0.2021442  -0.2723187   0.3582908), wk =   0.0380952
        k(   36) = (   0.2021442  -0.2723187   0.5374362), wk =   0.0380952
        k(   37) = (   0.2021442  -0.0778054   0.0000000), wk =   0.0190476
        k(   38) = (   0.2021442  -0.0778054   0.1791454), wk =   0.0380952
        k(   39) = (   0.2021442  -0.0778054   0.3582908), wk =   0.0380952
        k(   40) = (   0.2021442  -0.0778054   0.5374362), wk =   0.0380952
        k(   41) = (   0.4042885   0.2334161   0.0000000), wk =   0.0190476
        k(   42) = (   0.4042885   0.2334161   0.1791454), wk =   0.0380952
        k(   43) = (   0.4042885   0.2334161   0.3582908), wk =   0.0380952
        k(   44) = (   0.4042885   0.2334161   0.5374362), wk =   0.0380952
        k(   45) = (   0.4042885   0.4279294   0.0000000), wk =   0.0190476
        k(   46) = (   0.4042885   0.4279294   0.1791454), wk =   0.0380952
        k(   47) = (   0.4042885   0.4279294   0.3582908), wk =   0.0380952
        k(   48) = (   0.4042885   0.4279294   0.5374362), wk =   0.0380952
        k(   49) = (   0.4042885   0.6224428   0.0000000), wk =   0.0190476
        k(   50) = (   0.4042885   0.6224428   0.1791454), wk =   0.0380952
        k(   51) = (   0.4042885   0.6224428   0.3582908), wk =   0.0380952
        k(   52) = (   0.4042885   0.6224428   0.5374362), wk =   0.0380952
        k(   53) = (   0.4042885  -0.3501241   0.0000000), wk =   0.0190476
        k(   54) = (   0.4042885  -0.3501241   0.1791454), wk =   0.0380952
        k(   55) = (   0.4042885  -0.3501241   0.3582908), wk =   0.0380952
        k(   56) = (   0.4042885  -0.3501241   0.5374362), wk =   0.0380952
        k(   57) = (   0.4042885  -0.1556107   0.0000000), wk =   0.0190476
        k(   58) = (   0.4042885  -0.1556107   0.1791454), wk =   0.0380952
        k(   59) = (   0.4042885  -0.1556107   0.3582908), wk =   0.0380952
        k(   60) = (   0.4042885  -0.1556107   0.5374362), wk =   0.0380952
        k(   61) = (   0.4042885   0.0389027   0.0000000), wk =   0.0190476
        k(   62) = (   0.4042885   0.0389027   0.1791454), wk =   0.0380952
        k(   63) = (   0.4042885   0.0389027   0.3582908), wk =   0.0380952
        k(   64) = (   0.4042885   0.0389027   0.5374362), wk =   0.0380952

     Largest allocated arrays     est. size (Mb)     dimensions
     Largest temporary arrays     est. size (Mb)     dimensions

     Initial potential from superposition of free atoms

     Starting from uniform charge
     Starting wfc are    0 randomized atomic wfcs

     Writing output data file Prototype-La-hP8-Mg3Cd.save

     Self-consistent Calculation

[...]

     iteration # 11     ecut=    40.00 Ry     beta=0.70
     CG style diagonalization
     c_bands:  1 eigenvalues not converged
     ethr =  3.54E-07,  avg # of iterations =  3.5

[...]

     total energy              =   -1597.41962880 Ry
     Harris-Foulkes estimate   =   -1597.41964231 Ry
     estimated scf accuracy    <       0.00003184 Ry

     iteration # 13     ecut=    40.00 Ry     beta=0.70
     CG style diagonalization
     ethr =  2.24E-08,  avg # of iterations =  3.6

     End of self-consistent calculation

[...]

          k = 0.4043 0.0389 0.5374 (  5010 PWs)   bands (ev):

   -53.1866 -53.1783 -53.1747 -53.1715 -53.1698 -53.1684 -26.3287 -26.3284
   -21.6458 -21.6409 -21.6299 -21.6209 -21.5954 -21.5920 -21.5065 -21.4898
   -21.4662 -21.4594 -21.4374 -21.4212 -21.4117 -21.4008 -21.3931 -21.3776
   -21.3530 -21.3450  -4.6627  -4.6601  -4.6042  -4.6029  -4.5960  -4.5924
    14.5025  14.5218  14.6903  14.7510  14.7717  14.9593  15.0207  15.1322
    15.1635  15.2269  15.3914  15.6099  15.6226  15.7371  15.9052  16.0281
    16.2091  16.2976  16.5335  16.6990  16.7796  16.9010  17.0070  17.0498
    17.1462  17.2181  17.5787  17.6517  17.8486  18.2189  18.3209  18.4810
    19.1379  19.7437  20.0848  20.4549  21.1527  21.2462  21.4187  21.5980
    22.2349  22.4675  22.5979  22.8834  23.4016  23.6956  25.3952  25.6306
    27.4412  27.7622  28.9461  29.8123  29.8651

     the Fermi energy is    21.7390 ev

!    total energy              =   -1597.41963496 Ry
     Harris-Foulkes estimate   =   -1597.41963679 Ry
     estimated scf accuracy    <       0.00000237 Ry

     The total energy is the sum of the following terms:

     one-electron contribution =    -286.17645580 Ry
     hartree contribution      =     237.33500834 Ry
     xc contribution           =    -157.54187388 Ry
     ewald contribution        =   -1390.60240161 Ry
     smearing contrib. (-TS)   =      -0.43391200 Ry

     convergence has been achieved in  13 iterations

     Forces acting on atoms (Ry/au):

     atom    1 type  1   force =    -0.00035155   -0.00020297    0.00000000
     atom    2 type  1   force =    -0.00035155    0.00020297    0.00000000
     atom    3 type  1   force =     0.00035155    0.00020297    0.00000000
     atom    4 type  1   force =     0.00035155   -0.00020297    0.00000000
     atom    5 type  1   force =     0.00000000    0.00040593    0.00000000
     atom    6 type  1   force =     0.00000000   -0.00040593    0.00000000
     atom    7 type  2   force =     0.00000000    0.00000000    0.00000000
     atom    8 type  2   force =     0.00000000    0.00000000    0.00000000

     Total force =     0.000994     Total SCF correction =     0.000000

     entering subroutine stress ...

          total   stress  (Ry/bohr**3)                   (kbar)     P= -379.21
  -0.00259645   0.00000000   0.00000000       -381.95      0.00      0.00
   0.00000000  -0.00259645   0.00000000          0.00   -381.95      0.00
   0.00000000   0.00000000  -0.00254057          0.00      0.00   -373.73

     Writing output data file Prototype-La-hP8-Mg3Cd.save

     General routines

     Parallel routines

   This run was terminated on:  18:49:35  22Mar2018

   JOB DONE.