     Program PWSCF v.5.0.2 starts on 22Mar2018 at 18:45:37

     Current dimensions of program PWSCF are:
     Max number of different atomic species (ntypx) = 10
     Max number of k-points (npk) =  40000
     Max angular momentum in pseudopotentials (lmaxx) =  3
     Waiting for input...
     Reading input from standard input

     Subspace diagonalization in iterative solution of the eigenvalue problem:
     a serial algorithm will be used

     bravais-lattice index     =            0
     lattice parameter (alat)  =       9.9235  a.u.
     unit-cell volume          =    1361.0366 (a.u.)^3
     number of atoms/cell      =           12
     number of atomic types    =            2
     number of electrons       =       168.00
     number of Kohn-Sham states=          101
     kinetic-energy cutoff     =      40.0000  Ry
     charge density cutoff     =     160.0000  Ry
     convergence threshold     =      1.0E-04
     mixing beta               =       0.7000
     number of iterations used =            8  plain     mixing
     Exchange-correlation      = SLA-PZ-NOGX-NOGC ( 1 1 0 0 0)
     EXX-fraction              =        0.00
     nstep                     =           50

     celldm(1)=   9.923489  celldm(2)=   0.000000  celldm(3)=   0.000000
     celldm(4)=   0.000000  celldm(5)=   0.000000  celldm(6)=   0.000000

     crystal axes: (cart. coord. in units of alat)
               a(1) = (   1.000000   0.000000   0.000000 )
               a(2) = (  -0.500000   0.866025   0.000000 )
               a(3) = (   0.000000   0.000000   1.608222 )

     reciprocal axes: (cart. coord. in units 2 pi/alat)
               b(1) = (  1.000000  0.577350  0.000000 )
               b(2) = (  0.000000  1.154701  0.000000 )
               b(3) = (  0.000000  0.000000  0.621805 )

     PseudoPot. # 1 for Sm read from file:
     /home/cwx6513/pp.La/Sm.UPF
     MD5 check sum: 5079e8b144a06bfcdbc14fb02b96ab09
     Pseudo is Norm-conserving, Zval = 16.0
     Generated in analytical, separable form
     Using radial grid of 1259 points,  6 beta functions with:
                l(1) =   0
                l(2) =   0
                l(3) =   1
                l(4) =   1
                l(5) =   2
                l(6) =   3

     PseudoPot. # 2 for Pr read from file:
     /home/cwx6513/pp.La/Pr.UPF
     MD5 check sum: 70e2b4b153859e92c8c91247dfc63203
     Pseudo is Norm-conserving, Zval = 13.0
     Generated in analytical, separable form
     Using radial grid of 1255 points,  6 beta functions with:
                l(1) =   0
                l(2) =   0
                l(3) =   1
                l(4) =   1
                l(5) =   2
                l(6) =   3

     atomic species   valence    mass     pseudopotential
        Mg            16.00    24.30500     Sm( 1.00)
        Zn            13.00    65.39000     Pr( 1.00)

     24 Sym. Ops., with inversion, found (12 have fractional translation)

   Cartesian axes

     site n.     atom                  positions (alat units)
         1           Mg  tau(   1) = (  -0.0000005   0.5773506   0.1003820  )
         2           Mg  tau(   2) = (   0.5000005   0.2886748   0.9044931  )
         3           Mg  tau(   3) = (   0.5000005   0.2886748   1.5078402  )
         4           Mg  tau(   4) = (  -0.0000005   0.5773506   0.7037291  )
         5           Zn  tau(   5) = (   0.0000000   0.0000000   0.0000000  )
         6           Zn  tau(   6) = (   0.0000000   0.0000000   0.8041111  )
         7           Zn  tau(   7) = (   0.0000000   0.2950739   1.2061667  )
         8           Zn  tau(   8) = (   0.7444585   0.1475370   0.4020556  )
         9           Zn  tau(   9) = (   0.2555415   0.1475370   0.4020556  )
        10           Zn  tau(  10) = (   0.2444585   0.7184884   1.2061667  )
        11           Zn  tau(  11) = (  -0.2444585   0.7184884   1.2061667  )
        12           Zn  tau(  12) = (   0.5000000   0.5709515   0.4020556  )

     number of k points=    12  gaussian smearing, width (Ry)=  0.1000
                       cart. coord. in units 2pi/alat
        k(    1) = (   0.0000000   0.0000000   0.0000000), wk =   0.0833333
        k(    2) = (   0.0000000   0.0000000   0.1554512), wk =   0.1666667
        k(    3) = (   0.0000000   0.0000000  -0.3109023), wk =   0.0833333
        k(    4) = (   0.0000000   0.3849002   0.0000000), wk =   0.1666667
        k(    5) = (   0.0000000   0.3849002   0.1554512), wk =   0.3333333
        k(    6) = (   0.0000000   0.3849002  -0.3109023), wk =   0.1666667
        k(    7) = (  -0.5000000  -0.2886751   0.0000000), wk =   0.0833333
        k(    8) = (  -0.5000000  -0.2886751   0.1554512), wk =   0.1666667
        k(    9) = (  -0.5000000  -0.2886751  -0.3109023), wk =   0.0833333
        k(   10) = (  -0.5000000   0.0962250   0.0000000), wk =   0.1666667
        k(   11) = (  -0.5000000   0.0962250   0.1554512), wk =   0.3333333
        k(   12) = (  -0.5000000   0.0962250  -0.3109023), wk =   0.1666667

     Largest allocated arrays     est. size (Mb)     dimensions
     Largest temporary arrays     est. size (Mb)     dimensions

     Initial potential from superposition of free atoms
     Check: negative starting charge=   -0.000695

     starting charge  103.92434, renormalised to  168.00000

     negative rho (up, down):  0.112E-02 0.000E+00
     Starting wfc are  160 randomized atomic wfcs

     Self-consistent Calculation

     iteration #  1     ecut=    40.00 Ry     beta=0.70
     CG style diagonalization
     ethr =  1.00E-02,  avg # of iterations = 20.2

     negative rho (up, down):  0.308E-03 0.000E+00

     total energy              =     266.18010285 Ry
     Harris-Foulkes estimate   =   -2668.40691242 Ry
     estimated scf accuracy    <    3466.86178794 Ry

[...]

     iteration #  8     ecut=    40.00 Ry     beta=0.70
     CG style diagonalization
     c_bands:  1 eigenvalues not converged
     c_bands:  4 eigenvalues not converged
     c_bands:  1 eigenvalues not converged
     c_bands:  1 eigenvalues not converged
     c_bands:  1 eigenvalues not converged
     c_bands:  2 eigenvalues not converged
     c_bands:  1 eigenvalues not converged
     ethr =  5.60E-04,  avg # of iterations =  5.5

[...]

     End of self-consistent calculation

          k = 0.0000 0.0000 0.0000 (  5769 PWs)   bands (ev):

   -29.1398 -29.1142 -29.0745 -29.0491 -16.6833 -16.2831 -15.0858 -14.6061
   -14.6061 -14.5941 -14.5940 -14.5307  -4.5521  -4.5521  -4.5394  -4.4887
    -4.4817  -4.4816  -4.2794  -4.2529  -4.2529  -4.2359  -4.2008  -4.2008
    -0.5759   0.3668   1.4627   2.7582   2.7582   3.0318   3.0318   3.2341
     3.2342   4.0678   4.9888   4.9888   5.0984   5.0984   5.5300   6.9704
     7.0106   7.0174   7.0806   7.0807   7.4904   7.4904   7.6944   7.6944
    20.0310  21.1293  21.1847  22.5168  22.5168  22.9833  23.0034  23.0034
    23.2886  23.2887  23.2910  23.5474  23.5474  23.5695  23.5706  23.5783
    23.5783  23.7778  24.3410  24.3410  24.7244  24.7245  25.7879  25.7880
    25.8239  26.3923  26.3923  26.5132  26.5270  26.5270  26.5782  26.5782
    27.0599  27.0599  27.8869  27.8869  28.2861  28.2910  28.2910  29.4841
    30.4735  30.6399  30.7183  30.7184  30.7340  31.0795  31.0796  31.6525
    31.7741  32.4708  32.4709  32.6884  32.6889

[...]

          k =-0.5000-0.2887 0.0000 (  5800 PWs)   bands (ev):

[...]

     the Fermi energy is    28.2705 ev

!    total energy              =   -1348.23066209 Ry
     Harris-Foulkes estimate   =   -1348.23070361 Ry
     estimated scf accuracy    <       0.00004778 Ry

     The total energy is the sum of the following terms:

     one-electron contribution =     125.19853888 Ry
     hartree contribution      =      96.94982614 Ry
     xc contribution           =    -163.29799508 Ry
     ewald contribution        =   -1406.49007610 Ry
     smearing contrib. (-TS)   =      -0.59095594 Ry

     convergence has been achieved in  13 iterations

     Forces acting on atoms (Ry/au):

     atom    1 type  1   force =     0.00000000    0.00000000    0.01019316
     atom    2 type  1   force =     0.00000000    0.00000000    0.01019316
     atom    3 type  1   force =     0.00000000    0.00000000   -0.01019316
     atom    4 type  1   force =     0.00000000    0.00000000   -0.01019316
     atom    5 type  2   force =     0.00000000    0.00000000    0.00000000
     atom    6 type  2   force =     0.00000000    0.00000000    0.00000000
     atom    7 type  2   force =     0.00000000    0.07162006    0.00000000
     atom    8 type  2   force =    -0.06202479    0.03581003    0.00000000
     atom    9 type  2   force =     0.06202479    0.03581003    0.00000000
     atom   10 type  2   force =    -0.06202479   -0.03581003    0.00000000
     atom   11 type  2   force =     0.06202479   -0.03581003    0.00000000
     atom   12 type  2   force =     0.00000000   -0.07162006    0.00000000

     Total force =     0.176613     Total SCF correction =     0.009277

     entering subroutine stress ...

          total   stress  (Ry/bohr**3)                   (kbar)     P=  940.02
   0.00644154   0.00000000   0.00000000        947.58      0.00      0.00
   0.00000000   0.00644154   0.00000000          0.00    947.58      0.00
   0.00000000   0.00000000   0.00628736          0.00      0.00    924.90

     BFGS Geometry Optimization

     number of scf cycles    =   1
     number of bfgs steps    =   0

     enthalpy new            =   -1348.2306620942 Ry

     new trust radius        =       0.5000000000 bohr
     new conv_thr            =       0.0001000000 Ry

     new unit-cell volume =   1654.38503 a.u.^3 (   245.15457 Ang^3 )

CELL_PARAMETERS (alat=  9.92348860)
   1.067764947   0.000000000   0.000000000
  -0.533882474   0.924711570   0.000000000
   0.000000000   0.000000000   1.714594854

ATOMIC_POSITIONS (crystal)
Mg       0.333333000   0.666667000   0.062686765
Mg       0.666667000   0.333333000   0.562686765
Mg       0.666667000   0.333333000   0.937313235
Mg       0.333333000   0.666667000   0.437313235
Zn       0.000000000   0.000000000   0.000000000
Zn       0.000000000   0.000000000   0.500000000
Zn       0.172114416   0.344228831   0.750000000
Zn       0.827885584   0.172114416   0.250000000
Zn       0.344228831   0.172114416   0.250000000
Zn       0.655771169   0.827885584   0.750000000
Zn       0.172114416   0.827885584   0.750000000
Zn       0.827885584   0.655771169   0.250000000

     Writing output data file Prototype-La-hP12-MgZn2.save
     Check: negative starting charge=   -0.000695
     NEW-OLD atomic charge density approx. for the potential
     NEW k-points:
        k(    1) = (   0.0000000   0.0000000   0.0000000), wk =   0.0833333
        k(    2) = (   0.0000000   0.0000000   0.1458070), wk =   0.1666667
        k(    3) = (   0.0000000   0.0000000  -0.2916141), wk =   0.0833333
        k(    4) = (   0.0000000   0.3604728   0.0000000), wk =   0.1666667
        k(    5) = (   0.0000000   0.3604728   0.1458070), wk =   0.3333333
        k(    6) = (   0.0000000   0.3604728  -0.2916141), wk =   0.1666667
        k(    7) = (  -0.4682679  -0.2703546   0.0000000), wk =   0.0833333
        k(    8) = (  -0.4682679  -0.2703546   0.1458070), wk =   0.1666667
        k(    9) = (  -0.4682679  -0.2703546  -0.2916141), wk =   0.0833333
        k(   10) = (  -0.4682679   0.0901182   0.0000000), wk =   0.1666667
        k(   11) = (  -0.4682679   0.0901182   0.1458070), wk =   0.3333333
        k(   12) = (  -0.4682679   0.0901182  -0.2916141), wk =   0.1666667
     Check: negative starting charge=   -0.006680

     negative rho (up, down):  0.611E-02 0.000E+00
     extrapolated charge  186.42741, renormalised to  168.00000

[...]

     Total force =     0.011336     Total SCF correction =     0.018244
     SCF correction compared to forces is large: reduce conv_thr to get better values

[...]

     enthalpy old            =   -1348.2306620942 Ry
     enthalpy new            =   -1349.1312937649 Ry

     CASE: enthalpy_new < enthalpy_old

     small trust_radius: resetting bfgs history

[...]

     Writing output data file Prototype-La-hP12-MgZn2.save
     Check: negative starting charge=   -0.006680
     NEW-OLD atomic charge density approx. for the potential
     NEW k-points:
        k(    1) = (   0.0000000   0.0000000   0.0000000), wk =   0.0833333
        k(    2) = (   0.0000000   0.0000000   0.1446147), wk =   0.1666667
        k(    3) = (   0.0000000   0.0000000  -0.2892295), wk =   0.0833333
        k(    4) = (   0.0000000   0.3558150   0.0000000), wk =   0.1666667
        k(    5) = (   0.0000000   0.3558150   0.1446147), wk =   0.3333333
        k(    6) = (   0.0000000   0.3558150  -0.2892295), wk =   0.1666667
        k(    7) = (  -0.4622172  -0.2668612   0.0000000), wk =   0.0833333
        k(    8) = (  -0.4622172  -0.2668612   0.1446147), wk =   0.1666667
        k(    9) = (  -0.4622172  -0.2668612  -0.2892295), wk =   0.0833333
        k(   10) = (  -0.4622172   0.0889537   0.0000000), wk =   0.1666667
        k(   11) = (  -0.4622172   0.0889537   0.1446147), wk =   0.3333333
        k(   12) = (  -0.4622172   0.0889537  -0.2892295), wk =   0.1666667
     Check: negative starting charge=   -0.008174

     negative rho (up, down):  0.168E-02 0.000E+00
     extrapolated charge  171.49632, renormalised to  168.00000

[...]

     number of scf cycles    =   3
     number of bfgs steps    =   2

     enthalpy old            =   -1349.1312937649 Ry
     enthalpy new            =   -1349.1357377685 Ry

     CASE: enthalpy_new < enthalpy_old

     Message from routine bfgs:
     history already reset at previous step: stopping
     small trust_radius: resetting bfgs history

     new trust radius        =       0.0784870753 bohr
     new conv_thr            =       0.0000043395 Ry

     new unit-cell volume =   1672.68870 a.u.^3 (   247.86689 Ang^3 )

[...]

ATOMIC_POSITIONS (crystal)
Mg       0.333333000   0.666667000   0.062800589
Mg       0.666667000   0.333333000   0.562800589
Mg       0.666667000   0.333333000   0.937199411
Mg       0.333333000   0.666667000   0.437199411
Zn       0.000000000   0.000000000   0.000000000
Zn       0.000000000   0.000000000   0.500000000
Zn       0.172379068   0.344758136   0.750000000
Zn       0.827620932   0.172379068   0.250000000
Zn       0.344758136   0.172379068   0.250000000
Zn       0.655241864   0.827620932   0.750000000
Zn       0.172379068   0.827620932   0.750000000
Zn       0.827620932   0.655241864   0.250000000

     Writing output data file Prototype-La-hP12-MgZn2.save
     Check: negative starting charge=   -0.008174
     NEW-OLD atomic charge density approx. for the potential
     NEW k-points:
        k(    1) = (   0.0000000   0.0000000   0.0000000), wk =   0.0833333
        k(    2) = (   0.0000000   0.0000000   0.1459995), wk =   0.1666667
        k(    3) = (   0.0000000   0.0000000  -0.2919990), wk =   0.0833333
        k(    4) = (   0.0000000   0.3582587   0.0000000), wk =   0.1666667
        k(    5) = (   0.0000000   0.3582587   0.1459995), wk =   0.3333333
        k(    6) = (   0.0000000   0.3582587  -0.2919990), wk =   0.1666667
        k(    7) = (  -0.4653917  -0.2686940   0.0000000), wk =   0.0833333
        k(    8) = (  -0.4653917  -0.2686940   0.1459995), wk =   0.1666667
        k(    9) = (  -0.4653917  -0.2686940  -0.2919990), wk =   0.0833333
        k(   10) = (  -0.4653917   0.0895647   0.0000000), wk =   0.1666667
        k(   11) = (  -0.4653917   0.0895647   0.1459995), wk =   0.3333333
        k(   12) = (  -0.4653917   0.0895647  -0.2919990), wk =   0.1666667
     Check: negative starting charge=   -0.007168
     extrapolated charge  165.55876, renormalised to  168.00000

[...]

     Total force =     0.008643     Total SCF correction =     0.002553
     SCF correction compared to forces is large: reduce conv_thr to get better values

[...]

     The maximum number of steps has been reached.

     End of BFGS Geometry Optimization
Begin final coordinates
     new unit-cell volume =   1672.68870 a.u.^3 (   247.86689 Ang^3 )

CELL_PARAMETERS (alat=  9.92348860)
   1.074363764   0.000000000   0.000000000
  -0.537181882   0.930426313   0.000000000
   0.000000000   0.000000000   1.712334712

ATOMIC_POSITIONS (crystal)
Mg       0.333333000   0.666667000   0.062800589
Mg       0.666667000   0.333333000   0.562800589
Mg       0.666667000   0.333333000   0.937199411
Mg       0.333333000   0.666667000   0.437199411
Zn       0.000000000   0.000000000   0.000000000
Zn       0.000000000   0.000000000   0.500000000
Zn       0.172379068   0.344758136   0.750000000
Zn       0.827620932   0.172379068   0.250000000
Zn       0.344758136   0.172379068   0.250000000
Zn       0.655241864   0.827620932   0.750000000
Zn       0.172379068   0.827620932   0.750000000
Zn       0.827620932   0.655241864   0.250000000
End final coordinates

     A final scf calculation at the relaxed structure.
     The G-vectors are recalculated for the final unit cell
     Results may differ from those at the preceding step.

     bravais-lattice index     =            0
     lattice parameter (alat)  =       9.9235  a.u.
     unit-cell volume          =    1672.6887 (a.u.)^3
     number of atoms/cell      =           12
     number of atomic types    =            2
     number of electrons       =       168.00
     number of Kohn-Sham states=          101
     kinetic-energy cutoff     =      40.0000  Ry
     charge density cutoff     =     160.0000  Ry
     convergence threshold     =      4.3E-06
     mixing beta               =       0.7000
     number of iterations used =            8  plain     mixing
     Exchange-correlation      = SLA-PZ-NOGX-NOGC ( 1 1 0 0 0)
     EXX-fraction              =        0.00

     celldm(1)=   9.923489  celldm(2)=   0.000000  celldm(3)=   0.000000
     celldm(4)=   0.000000  celldm(5)=   0.000000  celldm(6)=   0.000000

     crystal axes: (cart. coord. in units of alat)
               a(1) = (   1.074364   0.000000   0.000000 )
               a(2) = (  -0.537182   0.930426   0.000000 )
               a(3) = (   0.000000   0.000000   1.712335 )

     reciprocal axes: (cart. coord. in units 2 pi/alat)
               b(1) = (  0.930783  0.537388  0.000000 )
               b(2) = (  0.000000  1.074776  0.000000 )
               b(3) = (  0.000000  0.000000  0.583998 )

     PseudoPot. # 1 for Sm read from file:
     /home/cwx6513/pp.La/Sm.UPF
     MD5 check sum: 5079e8b144a06bfcdbc14fb02b96ab09
     Pseudo is Norm-conserving, Zval = 16.0
     Generated in analytical, separable form
     Using radial grid of 1259 points,  6 beta functions with:
                l(1) =   0
                l(2) =   0
                l(3) =   1
                l(4) =   1
                l(5) =   2
                l(6) =   3

     PseudoPot. # 2 for Pr read from file:
     /home/cwx6513/pp.La/Pr.UPF
     MD5 check sum: 70e2b4b153859e92c8c91247dfc63203
     Pseudo is Norm-conserving, Zval = 13.0
     Generated in analytical, separable form
     Using radial grid of 1255 points,  6 beta functions with:
                l(1) =   0
                l(2) =   0
                l(3) =   1
                l(4) =   1
                l(5) =   2
                l(6) =   3

     atomic species   valence    mass     pseudopotential
        Mg            16.00    24.30500     Sm( 1.00)
        Zn            13.00    65.39000     Pr( 1.00)

     24 Sym. Ops., with inversion, found (12 have fractional translation)

   Cartesian axes

     site n.     atom                  positions (alat units)
         1           Mg  tau(   1) = (  -0.0000005   0.6202845   0.1075356  )
         2           Mg  tau(   2) = (   0.5371824   0.3101418   0.9637030  )
         3           Mg  tau(   3) = (   0.5371824   0.3101418   1.6047991  )
         4           Mg  tau(   4) = (  -0.0000005   0.6202845   0.7486317  )
         5           Zn  tau(   5) = (   0.0000000   0.0000000   0.0000000  )
         6           Zn  tau(   6) = (   0.0000000   0.0000000   0.8561674  )
         7           Zn  tau(   7) = (   0.0000000   0.3207720   1.2842510  )
         8           Zn  tau(   8) = (   0.7965670   0.1603860   0.4280837  )
         9           Zn  tau(   9) = (   0.2777967   0.1603860   0.4280837  )
        10           Zn  tau(  10) = (   0.2593851   0.7700403   1.2842510  )
        11           Zn  tau(  11) = (  -0.2593851   0.7700403   1.2842510  )
        12           Zn  tau(  12) = (   0.5371819   0.6096543   0.4280837  )

     number of k points=    12  gaussian smearing, width (Ry)=  0.1000
                       cart. coord. in units 2pi/alat
        k(    1) = (   0.0000000   0.0000000   0.0000000), wk =   0.0833333
        k(    2) = (   0.0000000   0.0000000   0.1459995), wk =   0.1666667
        k(    3) = (   0.0000000   0.0000000  -0.2919990), wk =   0.0833333
        k(    4) = (   0.0000000   0.3582587   0.0000000), wk =   0.1666667
        k(    5) = (   0.0000000   0.3582587   0.1459995), wk =   0.3333333
        k(    6) = (   0.0000000   0.3582587  -0.2919990), wk =   0.1666667
        k(    7) = (  -0.4653917  -0.2686940   0.0000000), wk =   0.0833333
        k(    8) = (  -0.4653917  -0.2686940   0.1459995), wk =   0.1666667
        k(    9) = (  -0.4653917  -0.2686940  -0.2919990), wk =   0.0833333
        k(   10) = (  -0.4653917   0.0895647   0.0000000), wk =   0.1666667
        k(   11) = (  -0.4653917   0.0895647   0.1459995), wk =   0.3333333
        k(   12) = (  -0.4653917   0.0895647  -0.2919990), wk =   0.1666667

     Largest allocated arrays     est. size (Mb)     dimensions
     Largest temporary arrays     est. size (Mb)     dimensions

     Initial potential from superposition of free atoms
     Check: negative starting charge=   -0.001630

     starting charge  103.92434, renormalised to  168.00000

     negative rho (up, down):  0.263E-02 0.000E+00
     Starting wfc are  160 randomized atomic wfcs

     Writing output data file Prototype-La-hP12-MgZn2.save

     Self-consistent Calculation

[...]

     negative rho (up, down):  0.995E-04 0.000E+00

[...]

     iteration # 14     ecut=    40.00 Ry     beta=0.70
     CG style diagonalization
     c_bands:  1 eigenvalues not converged
     c_bands:  1 eigenvalues not converged
     ethr =  4.88E-07,  avg # of iterations =  3.7

[...]

     total energy              =   -1349.58674773 Ry
     Harris-Foulkes estimate   =   -1349.58675116 Ry
     estimated scf accuracy    <       0.00001230 Ry

     iteration # 17     ecut=    40.00 Ry     beta=0.70
     CG style diagonalization
     ethr =  7.32E-09,  avg # of iterations =  3.7

     End of self-consistent calculation

[...]

          k = 0.0000 0.3583-0.2920 (  7134 PWs)   bands (ev):

[...]

          k =-0.4654 0.0896-0.2920 (  7150 PWs)   bands (ev):

   -34.7953 -34.7953 -34.7823 -34.7823 -21.2017 -21.2017 -20.9100 -20.9100
   -20.4591 -20.4591 -20.3539 -20.3539 -10.0236 -10.0236  -9.9819  -9.9819
    -9.9324  -9.9324  -9.8687  -9.8687  -9.8286  -9.8286  -9.8157  -9.8157
    -3.1237  -3.1237  -2.2631  -2.2631  -1.5927  -1.5927  -1.5083  -1.5083
    -1.3239  -1.3239  -1.1028  -1.1028  -0.5895  -0.5895  -0.1785  -0.1785
     0.1398   0.1398   0.3641   0.3641   0.7628   0.7628   0.8713   0.8713
    17.3697  17.3697  17.6823  17.6823  18.1522  18.1522  18.3925  18.3925
    18.5501  18.5501  18.6876  18.6876  19.1064  19.1064  19.2328  19.2328
    19.3585  19.3585  19.6362  19.6362  19.8904  19.8904  20.2374  20.2374
    20.5571  20.5571  20.8185  20.8185  21.2464  21.2464  21.4715  21.4715
    21.8551  21.8551  22.0603  22.0603  22.4872  22.4872  23.0452  23.0452
    23.1225  23.1225  23.4436  23.4436  23.9143  23.9143  24.4332  24.4332
    24.7876  24.7878  25.0542  25.0551  25.1500

     the Fermi energy is    22.3186 ev

!    total energy              =   -1349.58674902 Ry
     Harris-Foulkes estimate   =   -1349.58674999 Ry
     estimated scf accuracy    <       0.00000106 Ry

     The total energy is the sum of the following terms:

     one-electron contribution =      -0.01773220 Ry
     hartree contribution      =     123.76016176 Ry
     xc contribution           =    -159.25946820 Ry
     ewald contribution        =   -1313.31329412 Ry
     smearing contrib. (-TS)   =      -0.75641627 Ry

     convergence has been achieved in  17 iterations

     Forces acting on atoms (Ry/au):

     atom    1 type  1   force =     0.00000000    0.00000000    0.00384246
     atom    2 type  1   force =     0.00000000    0.00000000    0.00384246
     atom    3 type  1   force =     0.00000000    0.00000000   -0.00384246
     atom    4 type  1   force =     0.00000000    0.00000000   -0.00384246
     atom    5 type  2   force =     0.00000000    0.00000000    0.00000000
     atom    6 type  2   force =     0.00000000    0.00000000    0.00000000
     atom    7 type  2   force =     0.00000000    0.00403953    0.00000000
     atom    8 type  2   force =    -0.00349834    0.00201977    0.00000000
     atom    9 type  2   force =     0.00349834    0.00201977    0.00000000
     atom   10 type  2   force =    -0.00349834   -0.00201977    0.00000000
     atom   11 type  2   force =     0.00349834   -0.00201977    0.00000000
     atom   12 type  2   force =     0.00000000   -0.00403953    0.00000000

     Total force =     0.012529     Total SCF correction =     0.000680

     entering subroutine stress ...

          total   stress  (Ry/bohr**3)                   (kbar)     P=  173.01
   0.00122661   0.00000000   0.00000000        180.44      0.00      0.00
   0.00000000   0.00122661   0.00000000          0.00    180.44      0.00
   0.00000000   0.00000000   0.00107516          0.00      0.00    158.16

     Writing output data file Prototype-La-hP12-MgZn2.save

     General routines

     Parallel routines

   This run was terminated on:  19: 6:13  22Mar2018

   JOB DONE.