     Program PWSCF v.5.0.2 starts on 22Mar2018 at 12:13:28

     Current dimensions of program PWSCF are:
     Max number of different atomic species (ntypx) = 10
     Max number of k-points (npk) =  40000
     Max angular momentum in pseudopotentials (lmaxx) =  3
     Waiting for input...
     Reading input from standard input

     Subspace diagonalization in iterative solution of the eigenvalue problem:
     a serial algorithm will be used

     bravais-lattice index     =            0
     lattice parameter (alat)  =       5.4125  a.u.
     unit-cell volume          =     202.7222 (a.u.)^3
     number of atoms/cell      =            2
     number of atomic types    =            2
     number of electrons       =        37.00
     number of Kohn-Sham states=           23
     kinetic-energy cutoff     =      40.0000  Ry
     charge density cutoff     =     160.0000  Ry
     convergence threshold     =      1.0E-04
     mixing beta               =       0.7000
     number of iterations used =            8  plain     mixing
     Exchange-correlation      = SLA-PZ-NOGX-NOGC ( 1 1 0 0 0)
     EXX-fraction              =        0.00
     nstep                     =           50

     celldm(1)=   5.412493  celldm(2)=   0.000000  celldm(3)=   0.000000
     celldm(4)=   0.000000  celldm(5)=   0.000000  celldm(6)=   0.000000

     crystal axes: (cart. coord. in units of alat)
               a(1) = (   1.000000   0.000000   0.000000 )
               a(2) = (   0.000000   1.000000   0.000000 )
               a(3) = (   0.000000   0.000000   1.278525 )

     reciprocal axes: (cart. coord. in units 2 pi/alat)
               b(1) = (  1.000000  0.000000  0.000000 )
               b(2) = (  0.000000  1.000000  0.000000 )
               b(3) = (  0.000000  0.000000  0.782151 )

     PseudoPot. # 1 for Yb read from file:
     /home/jld5415/pp.La/Yb.UPF
     MD5 check sum: 3e859b81cc28c53ec6aa3a2e888efcdf
     Pseudo is Norm-conserving, Zval = 24.0
     Generated in analytical, separable form
     Using radial grid of 1269 points,  6 beta functions with:
                l(1) =   0
                l(2) =   0
                l(3) =   1
                l(4) =   1
                l(5) =   2
                l(6) =   3

     PseudoPot. # 2 for Pr read from file:
     /home/jld5415/pp.La/Pr.UPF
     MD5 check sum: 70e2b4b153859e92c8c91247dfc63203
     Pseudo is Norm-conserving, Zval = 13.0
     Generated in analytical, separable form
     Using radial grid of 1255 points,  6 beta functions with:
                l(1) =   0
                l(2) =   0
                l(3) =   1
                l(4) =   1
                l(5) =   2
                l(6) =   3

     atomic species   valence    mass     pseudopotential
        Cu            24.00    63.54600     Yb( 1.00)
        Au            13.00   196.96600     Pr( 1.00)

     16 Sym. Ops., with inversion, found

   Cartesian axes

     site n.     atom                  positions (alat units)
         1           Cu  tau(   1) = (   0.5000000   0.5000000   0.6392626  )
         2           Au  tau(   2) = (   0.0000000   0.0000000   0.0000000  )

     number of k points=   100  gaussian smearing, width (Ry)=  0.1000

     Number of k-points >= 100: set verbosity='high' to print them.

     Largest allocated arrays     est. size (Mb)     dimensions
     Largest temporary arrays     est. size (Mb)     dimensions

     Initial potential from superposition of free atoms
     Check: negative starting charge=   -0.000124

     starting charge   12.99054, renormalised to   37.00000

     negative rho (up, down):  0.354E-03 0.000E+00
     Starting wfc are   20 randomized atomic wfcs

     Self-consistent Calculation

     iteration #  1     ecut=    40.00 Ry     beta=0.70
     CG style diagonalization
     ethr =  1.00E-02,  avg # of iterations = 23.6

     negative rho (up, down):  0.104E-03 0.000E+00

     total energy              =    -274.23376523 Ry
     Harris-Foulkes estimate   =   -1054.71991709 Ry
     estimated scf accuracy    <     925.37608200 Ry

     iteration #  2     ecut=    40.00 Ry     beta=0.70
     CG style diagonalization
     c_bands:  1 eigenvalues not converged
     c_bands:  1 eigenvalues not converged
     ethr =  1.00E-02,  avg # of iterations = 12.0

[...]

     End of self-consistent calculation

     Number of k-points >= 100: set verbosity='high' to print the bands.

     the Fermi energy is    37.1510 ev

!    total energy              =    -501.82722076 Ry
     Harris-Foulkes estimate   =    -501.82728874 Ry
     estimated scf accuracy    <       0.00008205 Ry

     The total energy is the sum of the following terms:

     one-electron contribution =     -89.33813341 Ry
     hartree contribution      =      76.12227008 Ry
     xc contribution           =     -44.82077861 Ry
     ewald contribution        =    -443.71888731 Ry
     smearing contrib. (-TS)   =      -0.07169150 Ry

     convergence has been achieved in  10 iterations

     Forces acting on atoms (Ry/au):

     atom    1 type  1   force =     0.00000000    0.00000000    0.00000000
     atom    2 type  2   force =     0.00000000    0.00000000    0.00000000

     Total force =     0.000000     Total SCF correction =     0.000000

     entering subroutine stress ...

          total   stress  (Ry/bohr**3)                   (kbar)     P= 1766.65
   0.01296281   0.00000000   0.00000000       1906.89      0.00      0.00
   0.00000000   0.01296281   0.00000000          0.00   1906.89      0.00
   0.00000000   0.00000000   0.01010270          0.00      0.00   1486.16

     BFGS Geometry Optimization

     number of scf cycles    =   1
     number of bfgs steps    =   0

     enthalpy new            =    -501.8272207559 Ry

     new trust radius        =       0.5000000000 bohr
     new conv_thr            =       0.0001000000 Ry

     new unit-cell volume =    318.50114 a.u.^3 (    47.19700 Ang^3 )

CELL_PARAMETERS (alat=  5.41249258)
   1.175585808   0.000000000   0.000000000
   0.000000000   1.175585808   0.000000000
   0.000000000   0.000000000   1.453484424

ATOMIC_POSITIONS (crystal)
Cu       0.500000000   0.500000000   0.500000000
Au       0.000000000   0.000000000   0.000000000

     Writing output data file Prototype-La-tP2-AuCu.save
     Check: negative starting charge=   -0.000124
     NEW-OLD atomic charge density approx. for the potential
     NEW k-points: (use verbosity='high' to print them)
     Check: negative starting charge=   -0.003014

     negative rho (up, down):  0.293E-02 0.000E+00
     extrapolated charge   41.72222, renormalised to   37.00000

[...]

          total   stress  (Ry/bohr**3)                   (kbar)     P=-1095.31
  -0.00733071   0.00000000   0.00000000      -1078.38      0.00      0.00
   0.00000000  -0.00733071   0.00000000          0.00  -1078.38      0.00
   0.00000000   0.00000000  -0.00767585          0.00      0.00  -1129.16

[...]

     enthalpy old            =    -501.8272207559 Ry
     enthalpy new            =    -501.8132687904 Ry

     CASE: enthalpy_new > enthalpy_old

     new trust radius        =       0.2635015222 bohr

     trust_radius < trust_radius_min

     resetting bfgs history

     new conv_thr            =       0.0001000000 Ry

[...]

     Writing output data file Prototype-La-tP2-AuCu.save
     Check: negative starting charge=   -0.003014
     NEW-OLD atomic charge density approx. for the potential
     NEW k-points: (use verbosity='high' to print them)
     Check: negative starting charge=   -0.002700
     extrapolated charge   36.55681, renormalised to   37.00000

[...]

          total   stress  (Ry/bohr**3)                   (kbar)     P=-1011.13
  -0.00675023   0.00000000   0.00000000       -992.99      0.00      0.00
   0.00000000  -0.00675023   0.00000000          0.00   -992.99      0.00
   0.00000000   0.00000000  -0.00712005          0.00      0.00  -1047.40

     number of scf cycles    =   3
     number of bfgs steps    =   1

     enthalpy old            =    -501.8272207559 Ry
     enthalpy new            =    -501.8894623561 Ry

     CASE: enthalpy_new < enthalpy_old

     Message from routine bfgs:
     history already reset at previous step: stopping
     small trust_radius: resetting bfgs history

     new trust radius        =       0.6247752920 bohr
     new conv_thr            =       0.0000010000 Ry

     new unit-cell volume =    174.93231 a.u.^3 (    25.92229 Ang^3 )

[...]

ATOMIC_POSITIONS (crystal)
Cu       0.500000000   0.500000000   0.500000000
Au       0.000000000   0.000000000   0.000000000

     Writing output data file Prototype-La-tP2-AuCu.save
     Check: negative starting charge=   -0.002700
     NEW-OLD atomic charge density approx. for the potential
     NEW k-points: (use verbosity='high' to print them)

     negative rho (up, down):  0.196E+01 0.000E+00
     extrapolated charge   27.11883, renormalised to   37.00000

[...]

     The maximum number of steps has been reached.

     End of BFGS Geometry Optimization
Begin final coordinates
     new unit-cell volume =    174.93231 a.u.^3 (    25.92229 Ang^3 )

CELL_PARAMETERS (alat=  5.41249258)
   0.968133026   0.000000000   0.000000000
   0.000000000   0.968133026   0.000000000
   0.000000000   0.000000000   1.177085546

ATOMIC_POSITIONS (crystal)
Cu       0.500000000   0.500000000   0.500000000
Au       0.000000000   0.000000000   0.000000000
End final coordinates

     A final scf calculation at the relaxed structure.
     The G-vectors are recalculated for the final unit cell
     Results may differ from those at the preceding step.

     bravais-lattice index     =            0
     lattice parameter (alat)  =       5.4125  a.u.
     unit-cell volume          =     174.9323 (a.u.)^3
     number of atoms/cell      =            2
     number of atomic types    =            2
     number of electrons       =        37.00
     number of Kohn-Sham states=           23
     kinetic-energy cutoff     =      40.0000  Ry
     charge density cutoff     =     160.0000  Ry
     convergence threshold     =      1.0E-06
     mixing beta               =       0.7000
     number of iterations used =            8  plain     mixing
     Exchange-correlation      = SLA-PZ-NOGX-NOGC ( 1 1 0 0 0)
     EXX-fraction              =        0.00

     celldm(1)=   5.412493  celldm(2)=   0.000000  celldm(3)=   0.000000
     celldm(4)=   0.000000  celldm(5)=   0.000000  celldm(6)=   0.000000

     crystal axes: (cart. coord. in units of alat)
               a(1) = (   0.968133   0.000000   0.000000 )
               a(2) = (   0.000000   0.968133   0.000000 )
               a(3) = (   0.000000   0.000000   1.177086 )

     reciprocal axes: (cart. coord. in units 2 pi/alat)
               b(1) = (  1.032916  0.000000  0.000000 )
               b(2) = (  0.000000  1.032916  0.000000 )
               b(3) = (  0.000000  0.000000  0.849556 )

     PseudoPot. # 1 for Yb read from file:
     /home/jld5415/pp.La/Yb.UPF
     MD5 check sum: 3e859b81cc28c53ec6aa3a2e888efcdf
     Pseudo is Norm-conserving, Zval = 24.0
     Generated in analytical, separable form
     Using radial grid of 1269 points,  6 beta functions with:
                l(1) =   0
                l(2) =   0
                l(3) =   1
                l(4) =   1
                l(5) =   2
                l(6) =   3

     PseudoPot. # 2 for Pr read from file:
     /home/jld5415/pp.La/Pr.UPF
     MD5 check sum: 70e2b4b153859e92c8c91247dfc63203
     Pseudo is Norm-conserving, Zval = 13.0
     Generated in analytical, separable form
     Using radial grid of 1255 points,  6 beta functions with:
                l(1) =   0
                l(2) =   0
                l(3) =   1
                l(4) =   1
                l(5) =   2
                l(6) =   3

     atomic species   valence    mass     pseudopotential
        Cu            24.00    63.54600     Yb( 1.00)
        Au            13.00   196.96600     Pr( 1.00)

     16 Sym. Ops., with inversion, found

   Cartesian axes

     site n.     atom                  positions (alat units)
         1           Cu  tau(   1) = (   0.4840665   0.4840665   0.5885428  )
         2           Au  tau(   2) = (   0.0000000   0.0000000   0.0000000  )

     number of k points=   100  gaussian smearing, width (Ry)=  0.1000

     Number of k-points >= 100: set verbosity='high' to print them.

     Largest allocated arrays     est. size (Mb)     dimensions
     Largest temporary arrays     est. size (Mb)     dimensions

     Initial potential from superposition of free atoms

     starting charge   12.99054, renormalised to   37.00000

     negative rho (up, down):  0.202E-03 0.000E+00
     Starting wfc are   20 randomized atomic wfcs

     Writing output data file Prototype-La-tP2-AuCu.save

     Self-consistent Calculation

[...]

     negative rho (up, down):  0.240E-05 0.000E+00

[...]

     iteration #  9     ecut=    40.00 Ry     beta=0.70
     CG style diagonalization
     c_bands:  1 eigenvalues not converged
     ethr =  3.15E-07,  avg # of iterations =  3.6

     total energy              =    -501.20156337 Ry
     Harris-Foulkes estimate   =    -501.20156997 Ry
     estimated scf accuracy    <       0.00001086 Ry

     iteration # 10     ecut=    40.00 Ry     beta=0.70
     CG style diagonalization
     ethr =  2.93E-08,  avg # of iterations =  3.7

     End of self-consistent calculation

     Number of k-points >= 100: set verbosity='high' to print the bands.

     the Fermi energy is    43.2173 ev

!    total energy              =    -501.20156760 Ry
     Harris-Foulkes estimate   =    -501.20156798 Ry
     estimated scf accuracy    <       0.00000048 Ry

     The total energy is the sum of the following terms:

     one-electron contribution =     -56.82248251 Ry
     hartree contribution      =      67.73035841 Ry
     xc contribution           =     -45.49999844 Ry
     ewald contribution        =    -466.54805577 Ry
     smearing contrib. (-TS)   =      -0.06138929 Ry

     convergence has been achieved in  10 iterations

     Forces acting on atoms (Ry/au):

     atom    1 type  1   force =     0.00000000    0.00000000    0.00000000
     atom    2 type  2   force =     0.00000000    0.00000000    0.00000000

     Total force =     0.000000     Total SCF correction =     0.000000

     entering subroutine stress ...

          total   stress  (Ry/bohr**3)                   (kbar)     P= 3424.61
   0.02432996   0.00000000   0.00000000       3579.06      0.00      0.00
   0.00000000   0.02432996   0.00000000          0.00   3579.06      0.00
   0.00000000   0.00000000   0.02118024          0.00      0.00   3115.72

     Writing output data file Prototype-La-tP2-AuCu.save

     General routines

     Parallel routines

   This run was terminated on:  12:16:31  22Mar2018

   JOB DONE.