     Program PWSCF v.5.0.2 starts on 22Mar2018 at 12:13:27

     Current dimensions of program PWSCF are:
     Max number of different atomic species (ntypx) = 10
     Max number of k-points (npk) =  40000
     Max angular momentum in pseudopotentials (lmaxx) =  3
     Waiting for input...
     Reading input from standard input

     Subspace diagonalization in iterative solution of the eigenvalue problem:
     a serial algorithm will be used

     bravais-lattice index     =            0
     lattice parameter (alat)  =       7.0151  a.u.
     unit-cell volume          =     862.2778 (a.u.)^3
     number of atoms/cell      =           12
     number of atomic types    =            2
     number of electrons       =       244.00
     number of Kohn-Sham states=          146
     kinetic-energy cutoff     =      40.0000  Ry
     charge density cutoff     =     160.0000  Ry
     convergence threshold     =      1.0E-04
     mixing beta               =       0.7000
     number of iterations used =            8  plain     mixing
     Exchange-correlation      = SLA-PZ-NOGX-NOGC ( 1 1 0 0 0)
     EXX-fraction              =        0.00
     nstep                     =           50

     celldm(1)=   7.015105  celldm(2)=   0.000000  celldm(3)=   0.000000
     celldm(4)=   0.000000  celldm(5)=   0.000000  celldm(6)=   0.000000

     crystal axes: (cart. coord. in units of alat)
               a(1) = (   1.000000   0.000000   0.000000 )
               a(2) = (   0.000000   1.315963   0.000000 )
               a(3) = (   0.000000   0.000000   1.898020 )

     reciprocal axes: (cart. coord. in units 2 pi/alat)
               b(1) = (  1.000000  0.000000  0.000000 )
               b(2) = (  0.000000  0.759900  0.000000 )
               b(3) = (  0.000000  0.000000  0.526865 )

     PseudoPot. # 1 for Yb read from file:
     /home/jld5415/pp.La/Yb.UPF
     MD5 check sum: 3e859b81cc28c53ec6aa3a2e888efcdf
     Pseudo is Norm-conserving, Zval = 24.0
     Generated in analytical, separable form
     Using radial grid of 1269 points,  6 beta functions with:
                l(1) =   0
                l(2) =   0
                l(3) =   1
                l(4) =   1
                l(5) =   2
                l(6) =   3

     PseudoPot. # 2 for Pr read from file:
     /home/jld5415/pp.La/Pr.UPF
     MD5 check sum: 70e2b4b153859e92c8c91247dfc63203
     Pseudo is Norm-conserving, Zval = 13.0
     Generated in analytical, separable form
     Using radial grid of 1255 points,  6 beta functions with:
                l(1) =   0
                l(2) =   0
                l(3) =   1
                l(4) =   1
                l(5) =   2
                l(6) =   3

     atomic species   valence    mass     pseudopotential
        Co            24.00    58.93320     Yb( 1.00)
        Si            13.00    28.08550     Pr( 1.00)

      8 Sym. Ops., with inversion, found ( 6 have fractional translation)

   Cartesian axes

     site n.     atom                  positions (alat units)
         1           Co  tau(   1) = (   0.7500000   1.0875135   0.8270358  )
         2           Co  tau(   2) = (   0.2500000   0.2284499   1.0709846  )
         3           Co  tau(   3) = (   0.7500000   0.4295318   0.1219744  )
         4           Co  tau(   4) = (   0.2500000   0.8864316   1.7760460  )
         5           Co  tau(   5) = (   0.2500000   0.7067855   0.5358966  )
         6           Co  tau(   6) = (   0.7500000   0.6091779   1.3621238  )
         7           Co  tau(   7) = (   0.2500000   0.0488038   0.4131136  )
         8           Co  tau(   8) = (   0.7500000   1.2671596   1.4849068  )
         9           Si  tau(   9) = (   0.2500000   0.2669484   1.6960710  )
        10           Si  tau(  10) = (   0.7500000   1.0490149   0.2019494  )
        11           Si  tau(  11) = (   0.2500000   0.9249301   1.1509596  )
        12           Si  tau(  12) = (   0.7500000   0.3910333   0.7470608  )

     number of k points=    12  gaussian smearing, width (Ry)=  0.1000
                       cart. coord. in units 2pi/alat
        k(    1) = (   0.0000000   0.0000000   0.0000000), wk =   0.0833333
        k(    2) = (   0.0000000   0.0000000   0.1317162), wk =   0.1666667
        k(    3) = (   0.0000000   0.0000000  -0.2634324), wk =   0.0833333
        k(    4) = (   0.0000000   0.2532999   0.0000000), wk =   0.1666667
        k(    5) = (   0.0000000   0.2532999   0.1317162), wk =   0.3333333
        k(    6) = (   0.0000000   0.2532999  -0.2634324), wk =   0.1666667
        k(    7) = (  -0.5000000   0.0000000   0.0000000), wk =   0.0833333
        k(    8) = (  -0.5000000   0.0000000   0.1317162), wk =   0.1666667
        k(    9) = (  -0.5000000   0.0000000  -0.2634324), wk =   0.0833333
        k(   10) = (  -0.5000000   0.2532999   0.0000000), wk =   0.1666667
        k(   11) = (  -0.5000000   0.2532999   0.1317162), wk =   0.3333333
        k(   12) = (  -0.5000000   0.2532999  -0.2634324), wk =   0.1666667

     Largest allocated arrays     est. size (Mb)     dimensions
     Largest temporary arrays     est. size (Mb)     dimensions

     Initial potential from superposition of free atoms
     Check: negative starting charge=   -0.001196

     starting charge   51.96217, renormalised to  244.00000

     negative rho (up, down):  0.561E-02 0.000E+00
     Starting wfc are   80 randomized atomic wfcs

     Self-consistent Calculation

     iteration #  1     ecut=    40.00 Ry     beta=0.70
     CG style diagonalization
     c_bands:  3 eigenvalues not converged
     c_bands:  2 eigenvalues not converged
     c_bands:  3 eigenvalues not converged
     c_bands:  2 eigenvalues not converged
     c_bands:  1 eigenvalues not converged
     c_bands:  2 eigenvalues not converged
     c_bands:  3 eigenvalues not converged
     c_bands:  3 eigenvalues not converged
     c_bands:  3 eigenvalues not converged
     c_bands:  2 eigenvalues not converged
     c_bands:  4 eigenvalues not converged
     c_bands:  1 eigenvalues not converged
     ethr =  1.00E-02,  avg # of iterations = 33.9

     negative rho (up, down):  0.166E-02 0.000E+00

     total energy              =   -2730.26260535 Ry
     Harris-Foulkes estimate   =   -7563.60365852 Ry
     estimated scf accuracy    <    5709.57042643 Ry

[...]

     iteration #  4     ecut=    40.00 Ry     beta=0.70
     CG style diagonalization
     ethr =  1.00E-02,  avg # of iterations =  8.6

[...]

     End of self-consistent calculation

          k = 0.0000 0.0000 0.0000 (  3675 PWs)   bands (ev):

   -71.2624 -71.2380 -71.1993 -71.1963 -71.1900 -71.1718 -71.1282 -71.1207
   -30.5607 -30.4951 -30.4629 -30.4072 -30.3770 -30.3397 -30.3312 -30.3185
   -30.2681 -30.2466 -30.2438 -30.2263 -30.2212 -30.1958 -30.1650 -30.1484
   -30.1418 -30.1254 -30.1122 -30.1110 -30.0800 -30.0198 -30.0157 -29.9909
     8.0847   8.4514   8.5195   8.6839  21.5465  22.1617  22.3868  22.7171
    22.8739  23.2998  23.5131  23.5376  23.6611  24.0215  24.0551  24.1318
    24.5964  24.7670  24.8621  24.8844  24.9201  24.9901  25.7356  25.9517
    26.0476  26.0813  26.1827  26.4096  26.4447  26.5250  26.6029  26.8151
    26.8533  27.0980  27.2131  27.3110  27.3237  27.4156  27.4989  27.7482
    27.7772  27.7827  27.8610  28.2725  28.7632  28.8676  29.0447  29.1124
    30.1646  30.5465  30.9595  31.5462  31.7665  32.3175  32.7197  32.8813
    33.5077  36.5649  38.8299  39.0538  41.0887  42.1681  42.6259  42.9048
    43.8334  44.0406  44.8549  45.0395  46.1871  46.4247  46.5784  46.9501
    47.2371  47.4301  47.6906  48.0496  48.2752  48.7575  50.5928  50.6779
    50.8611  51.9462  52.0174  52.2755  53.3610  53.4604  53.7418  55.1993
    55.2963  55.3348  55.5989  55.9712  56.1126  56.7087  56.7623  56.7806
    57.0371  57.5314  57.7110  58.2825  58.5758  59.0894  59.2787  59.3519
    59.7522  60.1069  60.1138  60.3677  60.4555  60.6765  60.8909  61.3873
    61.7454  62.1954

[...]

          k =-0.5000 0.0000 0.0000 (  3722 PWs)   bands (ev):

[...]

     the Fermi energy is    54.9358 ev

!    total energy              =   -3630.45859554 Ry
     Harris-Foulkes estimate   =   -3630.45860493 Ry
     estimated scf accuracy    <       0.00000714 Ry

     The total energy is the sum of the following terms:

     one-electron contribution =    -157.50418858 Ry
     hartree contribution      =     416.02230883 Ry
     xc contribution           =    -320.61601871 Ry
     ewald contribution        =   -3567.98364650 Ry
     smearing contrib. (-TS)   =      -0.37705058 Ry

     convergence has been achieved in  12 iterations

     Forces acting on atoms (Ry/au):

     atom    1 type  1   force =     0.00000000   -0.10009230   -0.13801945
     atom    2 type  1   force =     0.00000000    0.10009230    0.13801945
     atom    3 type  1   force =     0.00000000   -0.10009230    0.13801945
     atom    4 type  1   force =     0.00000000    0.10009230   -0.13801945
     atom    5 type  1   force =     0.00000000    0.14823524   -0.12567804
     atom    6 type  1   force =     0.00000000   -0.14823524    0.12567804
     atom    7 type  1   force =     0.00000000    0.14823524    0.12567804
     atom    8 type  1   force =     0.00000000   -0.14823524   -0.12567804
     atom    9 type  2   force =     0.00000000   -0.21938647   -0.02476307
     atom   10 type  2   force =     0.00000000    0.21938647    0.02476307
     atom   11 type  2   force =     0.00000000   -0.21938647    0.02476307
     atom   12 type  2   force =     0.00000000    0.21938647   -0.02476307

     Total force =     0.679942     Total SCF correction =     0.001223

     entering subroutine stress ...

          total   stress  (Ry/bohr**3)                   (kbar)     P= 7260.93
   0.05206131   0.00000000   0.00000000       7658.48      0.00      0.00
   0.00000000   0.04661473   0.00000000          0.00   6857.26      0.00
   0.00000000   0.00000000   0.04940031          0.00      0.00   7267.04

     BFGS Geometry Optimization

     number of scf cycles    =   1
     number of bfgs steps    =   0

     enthalpy new            =   -3630.4585955355 Ry

     new trust radius        =       0.5000000000 bohr
     new conv_thr            =       0.0001000000 Ry

     new unit-cell volume =   1088.36851 a.u.^3 (   161.27957 Ang^3 )

CELL_PARAMETERS (alat=  7.01510508)
   1.085136619   0.000000000   0.000000000
   0.000000000   1.416278946   0.000000000
   0.000000000   0.000000000   2.051352080

ATOMIC_POSITIONS (crystal)
Co       0.750000000   0.825691775   0.435057942
Co       0.250000000   0.174308225   0.564942058
Co       0.750000000   0.325691775   0.064942058
Co       0.250000000   0.674308225   0.935057942
Co       0.250000000   0.538136352   0.281727573
Co       0.750000000   0.461863648   0.718272427
Co       0.250000000   0.038136352   0.218272427
Co       0.750000000   0.961863648   0.781727573
Si       0.250000000   0.201299491   0.893478345
Si       0.750000000   0.798700509   0.106521655
Si       0.250000000   0.701299491   0.606521655
Si       0.750000000   0.298700509   0.393478345

     Writing output data file Prototype-La-oP12-Co2Si.save
     Check: negative starting charge=   -0.001196
     NEW-OLD atomic charge density approx. for the potential
     NEW k-points:
        k(    1) = (   0.0000000   0.0000000   0.0000000), wk =   0.0833333
        k(    2) = (   0.0000000   0.0000000   0.1218708), wk =   0.1666667
        k(    3) = (   0.0000000   0.0000000  -0.2437417), wk =   0.0833333
        k(    4) = (   0.0000000   0.2353585   0.0000000), wk =   0.1666667
        k(    5) = (   0.0000000   0.2353585   0.1218708), wk =   0.3333333
        k(    6) = (   0.0000000   0.2353585  -0.2437417), wk =   0.1666667
        k(    7) = (  -0.4607715   0.0000000   0.0000000), wk =   0.0833333
        k(    8) = (  -0.4607715   0.0000000   0.1218708), wk =   0.1666667
        k(    9) = (  -0.4607715   0.0000000  -0.2437417), wk =   0.0833333
        k(   10) = (  -0.4607715   0.2353585   0.0000000), wk =   0.1666667
        k(   11) = (  -0.4607715   0.2353585   0.1218708), wk =   0.3333333
        k(   12) = (  -0.4607715   0.2353585  -0.2437417), wk =   0.1666667
     Check: negative starting charge=   -0.006353

     negative rho (up, down):  0.528E-02 0.000E+00
     extrapolated charge  254.79429, renormalised to  244.00000

[...]

     enthalpy old            =   -3630.4585955355 Ry
     enthalpy new            =   -3637.4848064417 Ry

     CASE: enthalpy_new < enthalpy_old

     small trust_radius: resetting bfgs history

     new trust radius        =       2.7564725734 bohr
     new conv_thr            =       0.0001000000 Ry

[...]

     Writing output data file Prototype-La-oP12-Co2Si.save
     Check: negative starting charge=   -0.006353
     NEW-OLD atomic charge density approx. for the potential
     NEW k-points:
        k(    1) = (   0.0000000   0.0000000   0.0000000), wk =   0.0833333
        k(    2) = (   0.0000000   0.0000000   0.0859936), wk =   0.1666667
        k(    3) = (   0.0000000   0.0000000  -0.1719873), wk =   0.0833333
        k(    4) = (   0.0000000   0.1685265   0.0000000), wk =   0.1666667
        k(    5) = (   0.0000000   0.1685265   0.0859936), wk =   0.3333333
        k(    6) = (   0.0000000   0.1685265  -0.1719873), wk =   0.1666667
        k(    7) = (  -0.3249977   0.0000000   0.0000000), wk =   0.0833333
        k(    8) = (  -0.3249977   0.0000000   0.0859936), wk =   0.1666667
        k(    9) = (  -0.3249977   0.0000000  -0.1719873), wk =   0.0833333
        k(   10) = (  -0.3249977   0.1685265   0.0000000), wk =   0.1666667
        k(   11) = (  -0.3249977   0.1685265   0.0859936), wk =   0.3333333
        k(   12) = (  -0.3249977   0.1685265  -0.1719873), wk =   0.1666667
     extrapolated charge  277.44449, renormalised to  244.00000

[...]

     Total force =     0.085449     Total SCF correction =     0.010067
     SCF correction compared to forces is large: reduce conv_thr to get better values

[...]

          total   stress  (Ry/bohr**3)                   (kbar)     P=-5788.49
  -0.04054977   0.00000000   0.00000000      -5965.08      0.00      0.00
   0.00000000  -0.03769600   0.00000000          0.00  -5545.27      0.00
   0.00000000   0.00000000  -0.03980233          0.00      0.00  -5855.12

     number of scf cycles    =   3
     number of bfgs steps    =   2

     enthalpy old            =   -3637.4848064417 Ry
     enthalpy new            =   -3594.5122747930 Ry

     CASE: enthalpy_new > enthalpy_old

     new trust radius        =       0.5539469606 bohr

     trust_radius < trust_radius_min

     resetting bfgs history

     Message from routine bfgs:
     history already reset at previous step: stopping
     new conv_thr            =       0.0001000000 Ry

     new unit-cell volume =   1305.09346 a.u.^3 (   193.39489 Ang^3 )

[...]

ATOMIC_POSITIONS (crystal)
Co       0.750000000   0.824927492   0.434629146
Co       0.250000000   0.175072508   0.565370854
Co       0.750000000   0.324927492   0.065370854
Co       0.250000000   0.675072508   0.934629146
Co       0.250000000   0.539119112   0.281547706
Co       0.750000000   0.460880888   0.718452294
Co       0.250000000   0.039119112   0.218452294
Co       0.750000000   0.960880888   0.781547706
Si       0.250000000   0.199889913   0.893570225
Si       0.750000000   0.800110087   0.106429775
Si       0.250000000   0.699889913   0.606429775
Si       0.750000000   0.300110087   0.393570225

     Writing output data file Prototype-La-oP12-Co2Si.save
     NEW-OLD atomic charge density approx. for the potential
     NEW k-points:
        k(    1) = (   0.0000000   0.0000000   0.0000000), wk =   0.0833333
        k(    2) = (   0.0000000   0.0000000   0.1145403), wk =   0.1666667
        k(    3) = (   0.0000000   0.0000000  -0.2290805), wk =   0.0833333
        k(    4) = (   0.0000000   0.2222303   0.0000000), wk =   0.1666667
        k(    5) = (   0.0000000   0.2222303   0.1145403), wk =   0.3333333
        k(    6) = (   0.0000000   0.2222303  -0.2290805), wk =   0.1666667
        k(    7) = (  -0.4330002   0.0000000   0.0000000), wk =   0.0833333
        k(    8) = (  -0.4330002   0.0000000   0.1145403), wk =   0.1666667
        k(    9) = (  -0.4330002   0.0000000  -0.2290805), wk =   0.0833333
        k(   10) = (  -0.4330002   0.2222303   0.0000000), wk =   0.1666667
        k(   11) = (  -0.4330002   0.2222303   0.1145403), wk =   0.3333333
        k(   12) = (  -0.4330002   0.2222303  -0.2290805), wk =   0.1666667
     Check: negative starting charge=   -0.012381

     negative rho (up, down):  0.278E+02 0.000E+00
     extrapolated charge  174.36533, renormalised to  244.00000

[...]

     The maximum number of steps has been reached.

     End of BFGS Geometry Optimization
Begin final coordinates
     new unit-cell volume =   1305.09346 a.u.^3 (   193.39489 Ang^3 )

CELL_PARAMETERS (alat=  7.01510508)
   1.154733768   0.000000000   0.000000000
   0.000000000   1.499945153   0.000000000
   0.000000000   0.000000000   2.182638568

ATOMIC_POSITIONS (crystal)
Co       0.750000000   0.824927492   0.434629146
Co       0.250000000   0.175072508   0.565370854
Co       0.750000000   0.324927492   0.065370854
Co       0.250000000   0.675072508   0.934629146
Co       0.250000000   0.539119112   0.281547706
Co       0.750000000   0.460880888   0.718452294
Co       0.250000000   0.039119112   0.218452294
Co       0.750000000   0.960880888   0.781547706
Si       0.250000000   0.199889913   0.893570225
Si       0.750000000   0.800110087   0.106429775
Si       0.250000000   0.699889913   0.606429775
Si       0.750000000   0.300110087   0.393570225
End final coordinates

     A final scf calculation at the relaxed structure.
     The G-vectors are recalculated for the final unit cell
     Results may differ from those at the preceding step.

     bravais-lattice index     =            0
     lattice parameter (alat)  =       7.0151  a.u.
     unit-cell volume          =    1305.0935 (a.u.)^3
     number of atoms/cell      =           12
     number of atomic types    =            2
     number of electrons       =       244.00
     number of Kohn-Sham states=          146
     kinetic-energy cutoff     =      40.0000  Ry
     charge density cutoff     =     160.0000  Ry
     convergence threshold     =      1.0E-04
     mixing beta               =       0.7000
     number of iterations used =            8  plain     mixing
     Exchange-correlation      = SLA-PZ-NOGX-NOGC ( 1 1 0 0 0)
     EXX-fraction              =        0.00

     celldm(1)=   7.015105  celldm(2)=   0.000000  celldm(3)=   0.000000
     celldm(4)=   0.000000  celldm(5)=   0.000000  celldm(6)=   0.000000

     crystal axes: (cart. coord. in units of alat)
               a(1) = (   1.154734   0.000000   0.000000 )
               a(2) = (   0.000000   1.499945   0.000000 )
               a(3) = (   0.000000   0.000000   2.182639 )

     reciprocal axes: (cart. coord. in units 2 pi/alat)
               b(1) = (  0.866000  0.000000  0.000000 )
               b(2) = (  0.000000  0.666691  0.000000 )
               b(3) = (  0.000000  0.000000  0.458161 )

     PseudoPot. # 1 for Yb read from file:
     /home/jld5415/pp.La/Yb.UPF
     MD5 check sum: 3e859b81cc28c53ec6aa3a2e888efcdf
     Pseudo is Norm-conserving, Zval = 24.0
     Generated in analytical, separable form
     Using radial grid of 1269 points,  6 beta functions with:
                l(1) =   0
                l(2) =   0
                l(3) =   1
                l(4) =   1
                l(5) =   2
                l(6) =   3

     PseudoPot. # 2 for Pr read from file:
     /home/jld5415/pp.La/Pr.UPF
     MD5 check sum: 70e2b4b153859e92c8c91247dfc63203
     Pseudo is Norm-conserving, Zval = 13.0
     Generated in analytical, separable form
     Using radial grid of 1255 points,  6 beta functions with:
                l(1) =   0
                l(2) =   0
                l(3) =   1
                l(4) =   1
                l(5) =   2
                l(6) =   3

     atomic species   valence    mass     pseudopotential
        Co            24.00    58.93320     Yb( 1.00)
        Si            13.00    28.08550     Pr( 1.00)

      8 Sym. Ops., with inversion, found ( 6 have fractional translation)

   Cartesian axes

     site n.     atom                  positions (alat units)
         1           Co  tau(   1) = (   0.8660503   1.2373460   0.9486383  )
         2           Co  tau(   2) = (   0.2886834   0.2625992   1.2340002  )
         3           Co  tau(   3) = (   0.8660503   0.4873734   0.1426809  )
         4           Co  tau(   4) = (   0.2886834   1.0125717   2.0399576  )
         5           Co  tau(   5) = (   0.2886834   0.8086491   0.6145169  )
         6           Co  tau(   6) = (   0.8660503   0.6912961   1.5681217  )
         7           Co  tau(   7) = (   0.2886834   0.0586765   0.4768024  )
         8           Co  tau(   8) = (   0.8660503   1.4412686   1.7058362  )
         9           Si  tau(   9) = (   0.2886834   0.2998239   1.9503408  )
        10           Si  tau(  10) = (   0.8660503   1.2001212   0.2322977  )
        11           Si  tau(  11) = (   0.2886834   1.0497965   1.3236170  )
        12           Si  tau(  12) = (   0.8660503   0.4501487   0.8590216  )

     number of k points=    12  gaussian smearing, width (Ry)=  0.1000
                       cart. coord. in units 2pi/alat
        k(    1) = (   0.0000000   0.0000000   0.0000000), wk =   0.0833333
        k(    2) = (   0.0000000   0.0000000   0.1145403), wk =   0.1666667
        k(    3) = (   0.0000000   0.0000000  -0.2290805), wk =   0.0833333
        k(    4) = (   0.0000000   0.2222303   0.0000000), wk =   0.1666667
        k(    5) = (   0.0000000   0.2222303   0.1145403), wk =   0.3333333
        k(    6) = (   0.0000000   0.2222303  -0.2290805), wk =   0.1666667
        k(    7) = (  -0.4330002   0.0000000   0.0000000), wk =   0.0833333
        k(    8) = (  -0.4330002   0.0000000   0.1145403), wk =   0.1666667
        k(    9) = (  -0.4330002   0.0000000  -0.2290805), wk =   0.0833333
        k(   10) = (  -0.4330002   0.2222303   0.0000000), wk =   0.1666667
        k(   11) = (  -0.4330002   0.2222303   0.1145403), wk =   0.3333333
        k(   12) = (  -0.4330002   0.2222303  -0.2290805), wk =   0.1666667

     Largest allocated arrays     est. size (Mb)     dimensions
     Largest temporary arrays     est. size (Mb)     dimensions

     Initial potential from superposition of free atoms
     Check: negative starting charge=   -0.001090

     starting charge   51.96217, renormalised to  244.00000

     negative rho (up, down):  0.512E-02 0.000E+00
     Starting wfc are   80 randomized atomic wfcs

     Writing output data file Prototype-La-oP12-Co2Si.save

     Self-consistent Calculation

[...]

     negative rho (up, down):  0.173E-03 0.000E+00

[...]

     iteration # 11     ecut=    40.00 Ry     beta=0.70
     CG style diagonalization
     c_bands:  1 eigenvalues not converged
     c_bands:  1 eigenvalues not converged
     ethr =  1.43E-06,  avg # of iterations =  4.4

     total energy              =   -3644.74625592 Ry
     Harris-Foulkes estimate   =   -3644.74633106 Ry
     estimated scf accuracy    <       0.00013573 Ry

     iteration # 12     ecut=    40.00 Ry     beta=0.70
     CG style diagonalization
     ethr =  5.56E-08,  avg # of iterations =  5.0

     End of self-consistent calculation

[...]

          k = 0.0000 0.2222-0.2291 (  5560 PWs)   bands (ev):

[...]

          k =-0.4330 0.2222-0.2291 (  5568 PWs)   bands (ev):

   -88.9108 -88.9108 -88.9075 -88.9075 -88.7927 -88.7927 -88.7721 -88.7721
   -47.7912 -47.7912 -47.7598 -47.7598 -47.7596 -47.7596 -47.7578 -47.7578
   -47.7198 -47.7198 -47.7186 -47.7186 -47.6526 -47.6526 -47.6472 -47.6472
   -47.6370 -47.6370 -47.6355 -47.6355 -47.6119 -47.6119 -47.6105 -47.6105
    -7.5350  -7.5350  -7.5188  -7.5188   8.9573   8.9573   8.9932   8.9932
     9.0710   9.0710   9.3326   9.3326   9.3399   9.3399   9.4819   9.4819
     9.5064   9.5064   9.6006   9.6006   9.6147   9.6147   9.7693   9.7693
     9.8638   9.8638   9.9293   9.9293  10.0001  10.0001  10.1306  10.1306
    10.1702  10.1702  10.1892  10.1892  10.2463  10.2463  10.3313  10.3313
    10.4512  10.4512  10.6619  10.6619  11.5192  11.5192  11.7281  11.7281
    12.2670  12.2670  12.6399  12.6399  12.9368  12.9368  13.2122  13.2122
    21.4018  21.4018  21.7860  21.7860  23.3478  23.3478  23.6141  23.6141
    27.7468  27.7468  27.8869  27.8869  28.6403  28.6403  28.6532  28.6532
    29.4279  29.4279  31.0402  31.0402  31.6873  31.6873  32.3137  32.3137
    32.4491  32.4491  33.3141  33.3141  34.6787  34.6787  35.0358  35.0358
    36.2568  36.2568  36.4586  36.4586  37.8013  37.8013  38.0406  38.0406
    38.6922  38.6923  39.4614  39.4615  39.5469  39.5470  40.1824  40.1825
    40.8706  40.8706  41.2630  41.2631  41.4786  41.4787  42.2161  42.2162
    42.5950  42.6135

     the Fermi energy is    36.2067 ev

!    total energy              =   -3644.74635715 Ry
     Harris-Foulkes estimate   =   -3644.74638925 Ry
     estimated scf accuracy    <       0.00003638 Ry

     The total energy is the sum of the following terms:

     one-electron contribution =    -810.20915096 Ry
     hartree contribution      =     581.83352339 Ry
     xc contribution           =    -307.88469565 Ry
     ewald contribution        =   -3108.07630452 Ry
     smearing contrib. (-TS)   =      -0.40972941 Ry

     convergence has been achieved in  12 iterations

     Forces acting on atoms (Ry/au):

     atom    1 type  1   force =     0.00000000   -0.01269931   -0.01314368
     atom    2 type  1   force =     0.00000000    0.01269931    0.01314368
     atom    3 type  1   force =     0.00000000   -0.01269931    0.01314368
     atom    4 type  1   force =     0.00000000    0.01269931   -0.01314368
     atom    5 type  1   force =     0.00000000    0.06253574   -0.03405617
     atom    6 type  1   force =     0.00000000   -0.06253574    0.03405617
     atom    7 type  1   force =     0.00000000    0.06253574    0.03405617
     atom    8 type  1   force =     0.00000000   -0.06253574   -0.03405617
     atom    9 type  2   force =     0.00000000   -0.08177209    0.01854672
     atom   10 type  2   force =     0.00000000    0.08177209   -0.01854672
     atom   11 type  2   force =     0.00000000   -0.08177209   -0.01854672
     atom   12 type  2   force =     0.00000000    0.08177209    0.01854672

     Total force =     0.223027     Total SCF correction =     0.007617

     entering subroutine stress ...

          total   stress  (Ry/bohr**3)                   (kbar)     P= 1271.66
   0.00874798   0.00000000   0.00000000       1286.87      0.00      0.00
   0.00000000   0.00845115   0.00000000          0.00   1243.21      0.00
   0.00000000   0.00000000   0.00873466          0.00      0.00   1284.91

     Writing output data file Prototype-La-oP12-Co2Si.save

     General routines

     Parallel routines

   This run was terminated on:  13:11:42  22Mar2018

   JOB DONE.