     Program PWSCF v.5.0.2 starts on 22Mar2018 at 12: 7:59

     Current dimensions of program PWSCF are:
     Max number of different atomic species (ntypx) = 10
     Max number of k-points (npk) =  40000
     Max angular momentum in pseudopotentials (lmaxx) =  3
     Waiting for input...
     Reading input from standard input

     Subspace diagonalization in iterative solution of the eigenvalue problem:
     a serial algorithm will be used

     bravais-lattice index     =            0
     lattice parameter (alat)  =      13.3930  a.u.
     unit-cell volume          =    1134.0956 (a.u.)^3
     number of atoms/cell      =            4
     number of atomic types    =            2
     number of electrons       =        74.00
     number of Kohn-Sham states=           44
     kinetic-energy cutoff     =      40.0000  Ry
     charge density cutoff     =     160.0000  Ry
     convergence threshold     =      1.0E-04
     mixing beta               =       0.7000
     number of iterations used =            8  plain     mixing
     Exchange-correlation      = SLA-PZ-NOGX-NOGC ( 1 1 0 0 0)
     EXX-fraction              =        0.00
     nstep                     =           50

     celldm(1)=  13.392972  celldm(2)=   0.000000  celldm(3)=   0.000000
     celldm(4)=   0.000000  celldm(5)=   0.000000  celldm(6)=   0.000000

     crystal axes: (cart. coord. in units of alat)
               a(1) = (   1.000000   0.000000   0.000000 )
               a(2) = (  -0.776311   0.630350   0.000000 )
               a(3) = (   0.000000   0.000000   0.748922 )

     reciprocal axes: (cart. coord. in units 2 pi/alat)
               b(1) = (  1.000000  1.231554  0.000000 )
               b(2) = (  0.000000  1.586419  0.000000 )
               b(3) = (  0.000000  0.000000  1.335252 )

     PseudoPot. # 1 for Yb read from file:
     /home/jld5415/pp.La/Yb.UPF
     MD5 check sum: 3e859b81cc28c53ec6aa3a2e888efcdf
     Pseudo is Norm-conserving, Zval = 24.0
     Generated in analytical, separable form
     Using radial grid of 1269 points,  6 beta functions with:
                l(1) =   0
                l(2) =   0
                l(3) =   1
                l(4) =   1
                l(5) =   2
                l(6) =   3

     PseudoPot. # 2 for Pr read from file:
     /home/jld5415/pp.La/Pr.UPF
     MD5 check sum: 70e2b4b153859e92c8c91247dfc63203
     Pseudo is Norm-conserving, Zval = 13.0
     Generated in analytical, separable form
     Using radial grid of 1255 points,  6 beta functions with:
                l(1) =   0
                l(2) =   0
                l(3) =   1
                l(4) =   1
                l(5) =   2
                l(6) =   3

     atomic species   valence    mass     pseudopotential
        Tl            24.00   204.38300     Yb( 1.00)
        I             13.00   126.90400     Pr( 1.00)

      2 Sym. Ops., with inversion, found
          (note:  2 additional sym.ops. were found but ignored
           their fractional translations are incommensurate with FFT grid)

   Cartesian axes

     site n.     atom                  positions (alat units)
         1           Tl  tau(   1) = (  -0.0906317   0.3870269   0.5616917  )
         2           Tl  tau(   2) = (   0.3143210   0.2433234   0.1872306  )
         3           I   tau(   3) = (  -0.5408004   0.5467760   0.5616917  )
         4           I   tau(   4) = (   0.7644896   0.0835744   0.1872306  )

     number of k points=   106  gaussian smearing, width (Ry)=  0.1000

     Number of k-points >= 100: set verbosity='high' to print them.

     Largest allocated arrays     est. size (Mb)     dimensions
     Largest temporary arrays     est. size (Mb)     dimensions

     Initial potential from superposition of free atoms
     Check: negative starting charge=   -0.000926

     starting charge   25.98109, renormalised to   74.00000

     negative rho (up, down):  0.264E-02 0.000E+00
     Starting wfc are   40 randomized atomic wfcs

     Self-consistent Calculation

     iteration #  1     ecut=    40.00 Ry     beta=0.70
     CG style diagonalization
     ethr =  1.00E-02,  avg # of iterations = 25.1

     negative rho (up, down):  0.786E-03 0.000E+00

     total energy              =    -524.43891409 Ry
     Harris-Foulkes estimate   =   -2412.49446113 Ry
     estimated scf accuracy    <    2234.16064332 Ry

[...]

     iteration #  3     ecut=    40.00 Ry     beta=0.70
     CG style diagonalization
     c_bands:  4 eigenvalues not converged
     c_bands:  4 eigenvalues not converged
     c_bands:  4 eigenvalues not converged
     c_bands:  2 eigenvalues not converged
     c_bands:  5 eigenvalues not converged
     c_bands:  4 eigenvalues not converged
     c_bands:  3 eigenvalues not converged
     c_bands:  3 eigenvalues not converged
     c_bands:  2 eigenvalues not converged
     c_bands:  2 eigenvalues not converged
     c_bands:  3 eigenvalues not converged
     c_bands:  4 eigenvalues not converged
     c_bands:  1 eigenvalues not converged
     c_bands:  3 eigenvalues not converged
     c_bands:  1 eigenvalues not converged
     c_bands:  3 eigenvalues not converged
     c_bands:  3 eigenvalues not converged
     c_bands:  3 eigenvalues not converged
     c_bands:  2 eigenvalues not converged
     c_bands:  1 eigenvalues not converged
     c_bands:  4 eigenvalues not converged
     c_bands:  3 eigenvalues not converged
     c_bands:  2 eigenvalues not converged
     c_bands:  4 eigenvalues not converged
     c_bands:  3 eigenvalues not converged
     c_bands:  3 eigenvalues not converged
     c_bands:  5 eigenvalues not converged
     c_bands:  1 eigenvalues not converged
     c_bands:  2 eigenvalues not converged
     c_bands:  3 eigenvalues not converged
     c_bands:  3 eigenvalues not converged
     c_bands:  4 eigenvalues not converged
     c_bands:  1 eigenvalues not converged
     c_bands:  4 eigenvalues not converged
     c_bands:  2 eigenvalues not converged
     c_bands:  1 eigenvalues not converged
     c_bands:  4 eigenvalues not converged
     c_bands:  2 eigenvalues not converged
     c_bands:  1 eigenvalues not converged
     c_bands:  2 eigenvalues not converged
     c_bands:  3 eigenvalues not converged
     c_bands:  5 eigenvalues not converged
     c_bands:  2 eigenvalues not converged
     c_bands:  2 eigenvalues not converged
     c_bands:  2 eigenvalues not converged
     c_bands:  4 eigenvalues not converged
     c_bands:  4 eigenvalues not converged
     c_bands:  2 eigenvalues not converged
     c_bands:  3 eigenvalues not converged
     c_bands:  4 eigenvalues not converged
     c_bands:  4 eigenvalues not converged
     c_bands:  4 eigenvalues not converged
     c_bands:  3 eigenvalues not converged
     c_bands:  4 eigenvalues not converged
     c_bands:  2 eigenvalues not converged
     c_bands:  2 eigenvalues not converged
     c_bands:  3 eigenvalues not converged
     c_bands:  3 eigenvalues not converged
     c_bands:  1 eigenvalues not converged
     c_bands:  3 eigenvalues not converged
[...]
     c_bands:  3 eigenvalues not converged
     c_bands:  1 eigenvalues not converged
     c_bands:  2 eigenvalues not converged
     c_bands:  5 eigenvalues not converged
     c_bands:  4 eigenvalues not converged
     c_bands:  3 eigenvalues not converged
     c_bands:  3 eigenvalues not converged
     c_bands:  5 eigenvalues not converged
     c_bands:  5 eigenvalues not converged
     c_bands:  4 eigenvalues not converged
     c_bands:  3 eigenvalues not converged
     c_bands:  3 eigenvalues not converged
     c_bands:  4 eigenvalues not converged
     c_bands:  2 eigenvalues not converged
     c_bands:  1 eigenvalues not converged
     ethr =  1.00E-02,  avg # of iterations = 14.5

[...]

     End of self-consistent calculation

     Number of k-points >= 100: set verbosity='high' to print the bands.

     the Fermi energy is    10.9688 ev

!    total energy              =   -1005.25674035 Ry
     Harris-Foulkes estimate   =   -1005.25676865 Ry
     estimated scf accuracy    <       0.00003674 Ry

     The total energy is the sum of the following terms:

     one-electron contribution =    -577.57312149 Ry
     hartree contribution      =     282.70776285 Ry
     xc contribution           =     -84.70857252 Ry
     ewald contribution        =    -625.28510178 Ry
     smearing contrib. (-TS)   =      -0.39770740 Ry

     convergence has been achieved in  15 iterations

     Forces acting on atoms (Ry/au):

     atom    1 type  1   force =    -0.02940813    0.00943964    0.00124314
     atom    2 type  1   force =     0.02940813   -0.00943964   -0.00124314
     atom    3 type  2   force =     0.00093958   -0.00024275   -0.00007064
     atom    4 type  2   force =    -0.00093958    0.00024275    0.00007064

     Total force =     0.043736     Total SCF correction =     0.016424
     SCF correction compared to forces is large: reduce conv_thr to get better values

     entering subroutine stress ...

          total   stress  (Ry/bohr**3)                   (kbar)     P= -387.73
  -0.00258814  -0.00004187   0.00000046       -380.73     -6.16      0.07
  -0.00004187  -0.00268956  -0.00000027         -6.16   -395.65     -0.04
   0.00000046  -0.00000027  -0.00262943          0.07     -0.04   -386.80

     BFGS Geometry Optimization

     number of scf cycles    =   1
     number of bfgs steps    =   0

     enthalpy new            =   -1005.2567403471 Ry

     new trust radius        =       0.4529269827 bohr
     new conv_thr            =       0.0001000000 Ry

     new unit-cell volume =    924.35453 a.u.^3 (   136.97521 Ang^3 )

CELL_PARAMETERS (alat= 13.39297219)
   0.935296426  -0.001046653   0.000011602
  -0.726740428   0.588778838  -0.000013192
   0.000008689  -0.000004973   0.699691342

ATOMIC_POSITIONS (crystal)
Tl       0.384685237   0.615105141   0.750123938
Tl       0.615314763   0.384894859   0.249876062
I        0.132631832   0.867387245   0.749992957
I        0.867368168   0.132612755   0.250007043

     Writing output data file Prototype-La-oS8-TlI.save
     Check: negative starting charge=   -0.000926
     NEW-OLD atomic charge density approx. for the potential
     NEW k-points: (use verbosity='high' to print them)

     negative rho (up, down):  0.423E+00 0.000E+00
     extrapolated charge   68.10475, renormalised to   74.00000

[...]

     Total force =     0.084411     Total SCF correction =     0.006231

[...]

     enthalpy old            =   -1005.2567403471 Ry
     enthalpy new            =   -1005.7345096288 Ry

     CASE: enthalpy_new < enthalpy_old

     small trust_radius: resetting bfgs history

[...]

     Writing output data file Prototype-La-oS8-TlI.save
     NEW-OLD atomic charge density approx. for the potential
     NEW k-points: (use verbosity='high' to print them)

[...]

     number of scf cycles    =   3
     number of bfgs steps    =   2

     enthalpy old            =   -1005.7345096288 Ry
     enthalpy new            =   -1005.9110939627 Ry

     CASE: enthalpy_new < enthalpy_old

     Message from routine bfgs:
     history already reset at previous step: stopping
     small trust_radius: resetting bfgs history

     new trust radius        =       0.1714309095 bohr
     new conv_thr            =       0.0000543652 Ry

     new unit-cell volume =    746.23571 a.u.^3 (   110.58072 Ang^3 )

[...]

ATOMIC_POSITIONS (crystal)
Tl       0.384747358   0.615492488   0.755539376
Tl       0.615252642   0.384507512   0.244460624
I        0.129612946   0.870411833   0.750075595
I        0.870387054   0.129588167   0.249924405

     Writing output data file Prototype-La-oS8-TlI.save
     NEW-OLD atomic charge density approx. for the potential
     NEW k-points: (use verbosity='high' to print them)

     negative rho (up, down):  0.416E-01 0.000E+00
     extrapolated charge   72.10515, renormalised to   74.00000

[...]

     Total force =     0.077030     Total SCF correction =     0.002792

[...]

     The maximum number of steps has been reached.

     End of BFGS Geometry Optimization
Begin final coordinates
     new unit-cell volume =    746.23571 a.u.^3 (   110.58072 Ang^3 )

CELL_PARAMETERS (alat= 13.39297219)
   0.874510676  -0.006321950  -0.000049199
  -0.682877211   0.546347532   0.000048330
  -0.000036760   0.000012060   0.656074256

ATOMIC_POSITIONS (crystal)
Tl       0.384747358   0.615492488   0.755539376
Tl       0.615252642   0.384507512   0.244460624
I        0.129612946   0.870411833   0.750075595
I        0.870387054   0.129588167   0.249924405
End final coordinates

     A final scf calculation at the relaxed structure.
     The G-vectors are recalculated for the final unit cell
     Results may differ from those at the preceding step.

     bravais-lattice index     =            0
     lattice parameter (alat)  =      13.3930  a.u.
     unit-cell volume          =     746.2357 (a.u.)^3
     number of atoms/cell      =            4
     number of atomic types    =            2
     number of electrons       =        74.00
     number of Kohn-Sham states=           44
     kinetic-energy cutoff     =      40.0000  Ry
     charge density cutoff     =     160.0000  Ry
     convergence threshold     =      5.4E-05
     mixing beta               =       0.7000
     number of iterations used =            8  plain     mixing
     Exchange-correlation      = SLA-PZ-NOGX-NOGC ( 1 1 0 0 0)
     EXX-fraction              =        0.00

     celldm(1)=  13.392972  celldm(2)=   0.000000  celldm(3)=   0.000000
     celldm(4)=   0.000000  celldm(5)=   0.000000  celldm(6)=   0.000000

     crystal axes: (cart. coord. in units of alat)
               a(1) = (   0.874511  -0.006322  -0.000049 )
               a(2) = (  -0.682877   0.546348   0.000048 )
               a(3) = (  -0.000037   0.000012   0.656074 )

     reciprocal axes: (cart. coord. in units 2 pi/alat)
               b(1) = (  1.153923  1.442283  0.000038 )
               b(2) = (  0.013352  1.847026 -0.000033 )
               b(3) = (  0.000086 -0.000028  1.524218 )

     PseudoPot. # 1 for Yb read from file:
     /home/jld5415/pp.La/Yb.UPF
     MD5 check sum: 3e859b81cc28c53ec6aa3a2e888efcdf
     Pseudo is Norm-conserving, Zval = 24.0
     Generated in analytical, separable form
     Using radial grid of 1269 points,  6 beta functions with:
                l(1) =   0
                l(2) =   0
                l(3) =   1
                l(4) =   1
                l(5) =   2
                l(6) =   3

     PseudoPot. # 2 for Pr read from file:
     /home/jld5415/pp.La/Pr.UPF
     MD5 check sum: 70e2b4b153859e92c8c91247dfc63203
     Pseudo is Norm-conserving, Zval = 13.0
     Generated in analytical, separable form
     Using radial grid of 1255 points,  6 beta functions with:
                l(1) =   0
                l(2) =   0
                l(3) =   1
                l(4) =   1
                l(5) =   2
                l(6) =   3

     atomic species   valence    mass     pseudopotential
        Tl            24.00   204.38300     Yb( 1.00)
        I             13.00   126.90400     Pr( 1.00)

      2 Sym. Ops., with inversion, found
          (note:  2 additional sym.ops. were found but ignored
           their fractional translations are incommensurate with FFT grid)

   Cartesian axes

     site n.     atom                  positions (alat units)
         1           Tl  tau(   1) = (  -0.0838679   0.3338496   0.4957008  )
         2           Tl  tau(   2) = (   0.2754646   0.2061881   0.1603726  )
         3           I   tau(   3) = (  -0.4810641   0.4747370   0.4921410  )
         4           I   tau(   4) = (   0.6726608   0.0653006   0.1639324  )

     number of k points=   106  gaussian smearing, width (Ry)=  0.1000

     Number of k-points >= 100: set verbosity='high' to print them.

     Largest allocated arrays     est. size (Mb)     dimensions
     Largest temporary arrays     est. size (Mb)     dimensions

     Initial potential from superposition of free atoms
     Check: negative starting charge=   -0.000975

     starting charge   25.98109, renormalised to   74.00000

     negative rho (up, down):  0.278E-02 0.000E+00
     Starting wfc are   40 randomized atomic wfcs

     Writing output data file Prototype-La-oS8-TlI.save

     Self-consistent Calculation

[...]

     negative rho (up, down):  0.400E-04 0.000E+00

[...]

     iteration # 12     ecut=    40.00 Ry     beta=0.70
     CG style diagonalization
     c_bands:  1 eigenvalues not converged
     c_bands:  1 eigenvalues not converged
     ethr =  2.31E-06,  avg # of iterations =  4.1

     total energy              =   -1005.37569144 Ry
     Harris-Foulkes estimate   =   -1005.37576080 Ry
     estimated scf accuracy    <       0.00016139 Ry

     iteration # 13     ecut=    40.00 Ry     beta=0.70
     CG style diagonalization
     ethr =  2.18E-07,  avg # of iterations =  4.1

     End of self-consistent calculation

     Number of k-points >= 100: set verbosity='high' to print the bands.

     the Fermi energy is    18.8344 ev

!    total energy              =   -1005.37572749 Ry
     Harris-Foulkes estimate   =   -1005.37574474 Ry
     estimated scf accuracy    <       0.00002107 Ry

     The total energy is the sum of the following terms:

     one-electron contribution =    -428.73186614 Ry
     hartree contribution      =     228.97172336 Ry
     xc contribution           =     -86.04857084 Ry
     ewald contribution        =    -719.30975131 Ry
     smearing contrib. (-TS)   =      -0.25726257 Ry

     convergence has been achieved in  13 iterations

     Forces acting on atoms (Ry/au):

     atom    1 type  1   force =     0.00597389   -0.00224744   -0.03095492
     atom    2 type  1   force =    -0.00597389    0.00224744    0.03095492
     atom    3 type  2   force =    -0.04431987    0.01559231   -0.00950808
     atom    4 type  2   force =     0.04431987   -0.01559231    0.00950808

     Total force =     0.081200     Total SCF correction =     0.015279
     SCF correction compared to forces is large: reduce conv_thr to get better values

     entering subroutine stress ...

          total   stress  (Ry/bohr**3)                   (kbar)     P= -314.06
  -0.00219376  -0.00012161   0.00002562       -322.71    -17.89      3.77
  -0.00012161  -0.00249235  -0.00000910        -17.89   -366.64     -1.34
   0.00002562  -0.00000910  -0.00171870          3.77     -1.34   -252.83

     Writing output data file Prototype-La-oS8-TlI.save

     General routines

     Parallel routines

   This run was terminated on:  13:12:51  22Mar2018

   JOB DONE.