     Program PWSCF v.5.0.2 starts on 22Mar2018 at 12: 7:59

     Current dimensions of program PWSCF are:
     Max number of different atomic species (ntypx) = 10
     Max number of k-points (npk) =  40000
     Max angular momentum in pseudopotentials (lmaxx) =  3
     Waiting for input...
     Reading input from standard input

     Subspace diagonalization in iterative solution of the eigenvalue problem:
     a serial algorithm will be used

     bravais-lattice index     =            0
     lattice parameter (alat)  =       8.5346  a.u.
     unit-cell volume          =     621.6493 (a.u.)^3
     number of atoms/cell      =            8
     number of atomic types    =            2
     number of electrons       =       170.00
     number of Kohn-Sham states=          102
     kinetic-energy cutoff     =      40.0000  Ry
     charge density cutoff     =     160.0000  Ry
     convergence threshold     =      1.0E-04
     mixing beta               =       0.7000
     number of iterations used =            8  plain     mixing
     Exchange-correlation      = SLA-PZ-NOGX-NOGC ( 1 1 0 0 0)
     EXX-fraction              =        0.00
     nstep                     =           50

     celldm(1)=   8.534573  celldm(2)=   0.000000  celldm(3)=   0.000000
     celldm(4)=   0.000000  celldm(5)=   0.000000  celldm(6)=   0.000000

     crystal axes: (cart. coord. in units of alat)
               a(1) = (   1.000000   0.000000   0.000000 )
               a(2) = (   0.000000   1.000000   0.000000 )
               a(3) = (   0.000000   0.000000   1.000000 )

     reciprocal axes: (cart. coord. in units 2 pi/alat)
               b(1) = (  1.000000  0.000000  0.000000 )
               b(2) = (  0.000000  1.000000  0.000000 )
               b(3) = (  0.000000  0.000000  1.000000 )

     PseudoPot. # 1 for Yb read from file:
     /home/jld5415/pp.La/Yb.UPF
     MD5 check sum: 3e859b81cc28c53ec6aa3a2e888efcdf
     Pseudo is Norm-conserving, Zval = 24.0
     Generated in analytical, separable form
     Using radial grid of 1269 points,  6 beta functions with:
                l(1) =   0
                l(2) =   0
                l(3) =   1
                l(4) =   1
                l(5) =   2
                l(6) =   3

     PseudoPot. # 2 for Pr read from file:
     /home/jld5415/pp.La/Pr.UPF
     MD5 check sum: 70e2b4b153859e92c8c91247dfc63203
     Pseudo is Norm-conserving, Zval = 13.0
     Generated in analytical, separable form
     Using radial grid of 1255 points,  6 beta functions with:
                l(1) =   0
                l(2) =   0
                l(3) =   1
                l(4) =   1
                l(5) =   2
                l(6) =   3

     atomic species   valence    mass     pseudopotential
        Cr            24.00    51.99610     Yb( 1.00)
        Si            13.00    28.08550     Pr( 1.00)

     48 Sym. Ops., with inversion, found (24 have fractional translation)

   Cartesian axes

     site n.     atom                  positions (alat units)
         1           Cr  tau(   1) = (   0.0000000   0.5000000   0.2500000  )
         2           Cr  tau(   2) = (   0.0000000   0.5000000   0.7500000  )
         3           Cr  tau(   3) = (   0.5000000   0.7500000   0.0000000  )
         4           Cr  tau(   4) = (   0.5000000   0.2500000   0.0000000  )
         5           Cr  tau(   5) = (   0.7500000   0.0000000   0.5000000  )
         6           Cr  tau(   6) = (   0.2500000   0.0000000   0.5000000  )
         7           Si  tau(   7) = (   0.5000000   0.5000000   0.5000000  )
         8           Si  tau(   8) = (   0.0000000   0.0000000   0.0000000  )

     number of k points=    48  gaussian smearing, width (Ry)=  0.1000
                       cart. coord. in units 2pi/alat
        k(    1) = (   0.0000000   0.0000000   0.0000000), wk =   0.0095238
        k(    2) = (   0.0000000   0.0000000   0.1428571), wk =   0.0190476
        k(    3) = (   0.0000000   0.0000000   0.2857143), wk =   0.0190476
        k(    4) = (   0.0000000   0.0000000   0.4285714), wk =   0.0190476
        k(    5) = (   0.0000000   0.1666667   0.0000000), wk =   0.0190476
        k(    6) = (   0.0000000   0.1666667   0.1428571), wk =   0.0380952
        k(    7) = (   0.0000000   0.1666667   0.2857143), wk =   0.0380952
        k(    8) = (   0.0000000   0.1666667   0.4285714), wk =   0.0380952
        k(    9) = (   0.0000000   0.3333333   0.0000000), wk =   0.0190476
        k(   10) = (   0.0000000   0.3333333   0.1428571), wk =   0.0380952
        k(   11) = (   0.0000000   0.3333333   0.2857143), wk =   0.0380952
        k(   12) = (   0.0000000   0.3333333   0.4285714), wk =   0.0380952
        k(   13) = (   0.0000000  -0.5000000   0.0000000), wk =   0.0095238
        k(   14) = (   0.0000000  -0.5000000   0.1428571), wk =   0.0190476
        k(   15) = (   0.0000000  -0.5000000   0.2857143), wk =   0.0190476
        k(   16) = (   0.0000000  -0.5000000   0.4285714), wk =   0.0190476
        k(   17) = (   0.2000000   0.0000000   0.0000000), wk =   0.0190476
        k(   18) = (   0.2000000   0.0000000   0.1428571), wk =   0.0380952
        k(   19) = (   0.2000000   0.0000000   0.2857143), wk =   0.0380952
        k(   20) = (   0.2000000   0.0000000   0.4285714), wk =   0.0380952
        k(   21) = (   0.2000000   0.1666667   0.0000000), wk =   0.0380952
        k(   22) = (   0.2000000   0.1666667   0.1428571), wk =   0.0761905
        k(   23) = (   0.2000000   0.1666667   0.2857143), wk =   0.0761905
        k(   24) = (   0.2000000   0.1666667   0.4285714), wk =   0.0761905
        k(   25) = (   0.2000000   0.3333333   0.0000000), wk =   0.0380952
        k(   26) = (   0.2000000   0.3333333   0.1428571), wk =   0.0761905
        k(   27) = (   0.2000000   0.3333333   0.2857143), wk =   0.0761905
        k(   28) = (   0.2000000   0.3333333   0.4285714), wk =   0.0761905
        k(   29) = (   0.2000000  -0.5000000   0.0000000), wk =   0.0190476
        k(   30) = (   0.2000000  -0.5000000   0.1428571), wk =   0.0380952
        k(   31) = (   0.2000000  -0.5000000   0.2857143), wk =   0.0380952
        k(   32) = (   0.2000000  -0.5000000   0.4285714), wk =   0.0380952
        k(   33) = (   0.4000000   0.0000000   0.0000000), wk =   0.0190476
        k(   34) = (   0.4000000   0.0000000   0.1428571), wk =   0.0380952
        k(   35) = (   0.4000000   0.0000000   0.2857143), wk =   0.0380952
        k(   36) = (   0.4000000   0.0000000   0.4285714), wk =   0.0380952
        k(   37) = (   0.4000000   0.1666667   0.0000000), wk =   0.0380952
        k(   38) = (   0.4000000   0.1666667   0.1428571), wk =   0.0761905
        k(   39) = (   0.4000000   0.1666667   0.2857143), wk =   0.0761905
        k(   40) = (   0.4000000   0.1666667   0.4285714), wk =   0.0761905
        k(   41) = (   0.4000000   0.3333333   0.0000000), wk =   0.0380952
        k(   42) = (   0.4000000   0.3333333   0.1428571), wk =   0.0761905
        k(   43) = (   0.4000000   0.3333333   0.2857143), wk =   0.0761905
        k(   44) = (   0.4000000   0.3333333   0.4285714), wk =   0.0761905
        k(   45) = (   0.4000000  -0.5000000   0.0000000), wk =   0.0190476
        k(   46) = (   0.4000000  -0.5000000   0.1428571), wk =   0.0380952
        k(   47) = (   0.4000000  -0.5000000   0.2857143), wk =   0.0380952
        k(   48) = (   0.4000000  -0.5000000   0.4285714), wk =   0.0380952

     Largest allocated arrays     est. size (Mb)     dimensions
     Largest temporary arrays     est. size (Mb)     dimensions

     Initial potential from superposition of free atoms
     Check: negative starting charge=   -0.000293

     starting charge   25.98109, renormalised to  170.00000

     negative rho (up, down):  0.192E-02 0.000E+00
     Starting wfc are   40 randomized atomic wfcs

     Self-consistent Calculation

     iteration #  1     ecut=    40.00 Ry     beta=0.70
     CG style diagonalization
     c_bands:  2 eigenvalues not converged
     c_bands:  2 eigenvalues not converged
     c_bands:  2 eigenvalues not converged
     c_bands:  2 eigenvalues not converged
     c_bands:  2 eigenvalues not converged
     c_bands:  1 eigenvalues not converged
     c_bands:  3 eigenvalues not converged
     c_bands:  4 eigenvalues not converged
     c_bands:  1 eigenvalues not converged
     c_bands:  2 eigenvalues not converged
     c_bands:  3 eigenvalues not converged
     c_bands:  3 eigenvalues not converged
     c_bands:  4 eigenvalues not converged
     c_bands:  4 eigenvalues not converged
     c_bands:  2 eigenvalues not converged
     c_bands:  2 eigenvalues not converged
     c_bands:  2 eigenvalues not converged
     c_bands:  2 eigenvalues not converged
     c_bands:  1 eigenvalues not converged
     c_bands:  3 eigenvalues not converged
     c_bands:  2 eigenvalues not converged
     c_bands:  2 eigenvalues not converged
     c_bands:  3 eigenvalues not converged
     c_bands:  2 eigenvalues not converged
     c_bands:  2 eigenvalues not converged
     c_bands:  3 eigenvalues not converged
     c_bands:  2 eigenvalues not converged
     c_bands:  3 eigenvalues not converged
     c_bands:  3 eigenvalues not converged
     c_bands:  2 eigenvalues not converged
     c_bands:  4 eigenvalues not converged
     c_bands:  1 eigenvalues not converged
     c_bands:  3 eigenvalues not converged
     c_bands:  3 eigenvalues not converged
     c_bands:  3 eigenvalues not converged
     c_bands:  3 eigenvalues not converged
     c_bands:  3 eigenvalues not converged
     c_bands:  3 eigenvalues not converged
     c_bands:  2 eigenvalues not converged
     c_bands:  3 eigenvalues not converged
     c_bands:  4 eigenvalues not converged
     c_bands:  2 eigenvalues not converged
     c_bands:  1 eigenvalues not converged
     c_bands:  3 eigenvalues not converged
     c_bands:  3 eigenvalues not converged
     ethr =  1.00E-02,  avg # of iterations = 33.9

     negative rho (up, down):  0.570E-03 0.000E+00

     total energy              =   -2271.66680976 Ry
     Harris-Foulkes estimate   =   -6317.98920339 Ry
     estimated scf accuracy    <    4731.48224775 Ry

[...]

     iteration #  3     ecut=    40.00 Ry     beta=0.70
     CG style diagonalization
     ethr =  1.00E-02,  avg # of iterations =  7.5

[...]

     End of self-consistent calculation

          k = 0.0000 0.0000 0.0000 (  2601 PWs)   bands (ev):

   -74.1623 -74.1623 -73.9301 -73.7662 -73.7662 -73.7662 -33.9959 -33.9959
   -33.9408 -32.9919 -32.9919 -32.9919 -32.8301 -32.8301 -32.8301 -32.7690
   -32.7690 -32.7690 -32.7312 -32.7312 -32.7312 -32.6705 -32.6705 -32.6705
     6.4934   6.5700  19.3939  19.4201  19.4201  20.4413  20.4413  20.4413
    20.7242  20.7242  20.7242  22.9035  23.6751  23.6751  23.7424  23.7424
    23.7424  24.3943  24.3943  24.3943  24.7505  24.7505  24.7505  24.8949
    25.7027  25.7027  25.8720  25.8720  25.8720  25.9178  25.9178  25.9178
    28.1415  28.1415  28.1415  28.4024  28.4024  28.4024  29.0901  34.1247
    34.1247  40.7008  40.7008  41.8067  41.8067  41.8067  42.2569  42.2569
    42.2569  43.8933  44.0384  44.0384  44.0384  45.6433  45.6433  45.6433
[...]

     Message from routine bfgs:
     history already reset at previous step: stopping
     new conv_thr            =       0.0000010000 Ry

     new unit-cell volume =   1044.69719 a.u.^3 (   154.80815 Ang^3 )

[...]

ATOMIC_POSITIONS (crystal)
Cr       0.000000000   0.500000000   0.250000000
Cr       0.000000000   0.500000000   0.750000000
Cr       0.500000000   0.750000000   0.000000000
Cr       0.500000000   0.250000000   0.000000000
Cr       0.750000000   0.000000000   0.500000000
Cr       0.250000000   0.000000000   0.500000000
Si       0.500000000   0.500000000   0.500000000
Si       0.000000000   0.000000000   0.000000000

     Writing output data file Prototype-La-cP8-Cr3Si.save
     Check: negative starting charge=   -0.012546
     NEW-OLD atomic charge density approx. for the potential
     NEW k-points:
        k(    1) = (   0.0000000   0.0000000   0.0000000), wk =   0.0095238
        k(    2) = (   0.0000000   0.0000000   0.1201583), wk =   0.0190476
        k(    3) = (   0.0000000   0.0000000   0.2403165), wk =   0.0190476
        k(    4) = (   0.0000000   0.0000000   0.3604748), wk =   0.0190476
        k(    5) = (   0.0000000   0.1401846   0.0000000), wk =   0.0190476
        k(    6) = (   0.0000000   0.1401846   0.1201583), wk =   0.0380952
        k(    7) = (   0.0000000   0.1401846   0.2403165), wk =   0.0380952
        k(    8) = (   0.0000000   0.1401846   0.3604748), wk =   0.0380952
        k(    9) = (   0.0000000   0.2803693   0.0000000), wk =   0.0190476
        k(   10) = (   0.0000000   0.2803693   0.1201583), wk =   0.0380952
        k(   11) = (   0.0000000   0.2803693   0.2403165), wk =   0.0380952
        k(   12) = (   0.0000000   0.2803693   0.3604748), wk =   0.0380952
        k(   13) = (   0.0000000  -0.4205539   0.0000000), wk =   0.0095238
        k(   14) = (   0.0000000  -0.4205539   0.1201583), wk =   0.0190476
        k(   15) = (   0.0000000  -0.4205539   0.2403165), wk =   0.0190476
        k(   16) = (   0.0000000  -0.4205539   0.3604748), wk =   0.0190476
        k(   17) = (   0.1682216   0.0000000   0.0000000), wk =   0.0190476
        k(   18) = (   0.1682216   0.0000000   0.1201583), wk =   0.0380952
        k(   19) = (   0.1682216   0.0000000   0.2403165), wk =   0.0380952
        k(   20) = (   0.1682216   0.0000000   0.3604748), wk =   0.0380952
        k(   21) = (   0.1682216   0.1401846   0.0000000), wk =   0.0380952
        k(   22) = (   0.1682216   0.1401846   0.1201583), wk =   0.0761905
        k(   23) = (   0.1682216   0.1401846   0.2403165), wk =   0.0761905
        k(   24) = (   0.1682216   0.1401846   0.3604748), wk =   0.0761905
        k(   25) = (   0.1682216   0.2803693   0.0000000), wk =   0.0380952
        k(   26) = (   0.1682216   0.2803693   0.1201583), wk =   0.0761905
        k(   27) = (   0.1682216   0.2803693   0.2403165), wk =   0.0761905
        k(   28) = (   0.1682216   0.2803693   0.3604748), wk =   0.0761905
        k(   29) = (   0.1682216  -0.4205539   0.0000000), wk =   0.0190476
        k(   30) = (   0.1682216  -0.4205539   0.1201583), wk =   0.0380952
        k(   31) = (   0.1682216  -0.4205539   0.2403165), wk =   0.0380952
        k(   32) = (   0.1682216  -0.4205539   0.3604748), wk =   0.0380952
        k(   33) = (   0.3364431   0.0000000   0.0000000), wk =   0.0190476
        k(   34) = (   0.3364431   0.0000000   0.1201583), wk =   0.0380952
        k(   35) = (   0.3364431   0.0000000   0.2403165), wk =   0.0380952
        k(   36) = (   0.3364431   0.0000000   0.3604748), wk =   0.0380952
        k(   37) = (   0.3364431   0.1401846   0.0000000), wk =   0.0380952
        k(   38) = (   0.3364431   0.1401846   0.1201583), wk =   0.0761905
        k(   39) = (   0.3364431   0.1401846   0.2403165), wk =   0.0761905
        k(   40) = (   0.3364431   0.1401846   0.3604748), wk =   0.0761905
        k(   41) = (   0.3364431   0.2803693   0.0000000), wk =   0.0380952
        k(   42) = (   0.3364431   0.2803693   0.1201583), wk =   0.0761905
        k(   43) = (   0.3364431   0.2803693   0.2403165), wk =   0.0761905
        k(   44) = (   0.3364431   0.2803693   0.3604748), wk =   0.0761905
        k(   45) = (   0.3364431  -0.4205539   0.0000000), wk =   0.0190476
        k(   46) = (   0.3364431  -0.4205539   0.1201583), wk =   0.0380952
        k(   47) = (   0.3364431  -0.4205539   0.2403165), wk =   0.0380952
        k(   48) = (   0.3364431  -0.4205539   0.3604748), wk =   0.0380952
     Check: negative starting charge=   -0.007455

     negative rho (up, down):  0.478E+00 0.000E+00
     extrapolated charge  163.58711, renormalised to  170.00000

[...]

          total   stress  (Ry/bohr**3)                   (kbar)     P=-1399.58
  -0.00951414   0.00000000   0.00000000      -1399.58      0.00      0.00
   0.00000000  -0.00951414   0.00000000          0.00  -1399.58      0.00
   0.00000000   0.00000000  -0.00951414          0.00      0.00  -1399.58

     The maximum number of steps has been reached.

     End of BFGS Geometry Optimization
Begin final coordinates
     new unit-cell volume =   1044.69719 a.u.^3 (   154.80815 Ang^3 )

CELL_PARAMETERS (alat=  8.53457320)
   1.188908235   0.000000000   0.000000000
   0.000000000   1.188908235   0.000000000
   0.000000000   0.000000000   1.188908235

ATOMIC_POSITIONS (crystal)
Cr       0.000000000   0.500000000   0.250000000
Cr       0.000000000   0.500000000   0.750000000
Cr       0.500000000   0.750000000   0.000000000
Cr       0.500000000   0.250000000   0.000000000
Cr       0.750000000   0.000000000   0.500000000
Cr       0.250000000   0.000000000   0.500000000
Si       0.500000000   0.500000000   0.500000000
Si       0.000000000   0.000000000   0.000000000
End final coordinates

     A final scf calculation at the relaxed structure.
     The G-vectors are recalculated for the final unit cell
     Results may differ from those at the preceding step.

     bravais-lattice index     =            0
     lattice parameter (alat)  =       8.5346  a.u.
     unit-cell volume          =    1044.6972 (a.u.)^3
     number of atoms/cell      =            8
     number of atomic types    =            2
     number of electrons       =       170.00
     number of Kohn-Sham states=          102
     kinetic-energy cutoff     =      40.0000  Ry
     charge density cutoff     =     160.0000  Ry
     convergence threshold     =      1.0E-06
     mixing beta               =       0.7000
     number of iterations used =            8  plain     mixing
     Exchange-correlation      = SLA-PZ-NOGX-NOGC ( 1 1 0 0 0)
     EXX-fraction              =        0.00

     celldm(1)=   8.534573  celldm(2)=   0.000000  celldm(3)=   0.000000
     celldm(4)=   0.000000  celldm(5)=   0.000000  celldm(6)=   0.000000

     crystal axes: (cart. coord. in units of alat)
               a(1) = (   1.188908   0.000000   0.000000 )
               a(2) = (   0.000000   1.188908   0.000000 )
               a(3) = (   0.000000   0.000000   1.188908 )

     reciprocal axes: (cart. coord. in units 2 pi/alat)
               b(1) = (  0.841108  0.000000  0.000000 )
               b(2) = (  0.000000  0.841108  0.000000 )
               b(3) = (  0.000000  0.000000  0.841108 )

     PseudoPot. # 1 for Yb read from file:
     /home/jld5415/pp.La/Yb.UPF
     MD5 check sum: 3e859b81cc28c53ec6aa3a2e888efcdf
     Pseudo is Norm-conserving, Zval = 24.0
     Generated in analytical, separable form
     Using radial grid of 1269 points,  6 beta functions with:
                l(1) =   0
                l(2) =   0
                l(3) =   1
                l(4) =   1
                l(5) =   2
                l(6) =   3

     PseudoPot. # 2 for Pr read from file:
     /home/jld5415/pp.La/Pr.UPF
     MD5 check sum: 70e2b4b153859e92c8c91247dfc63203
     Pseudo is Norm-conserving, Zval = 13.0
     Generated in analytical, separable form
     Using radial grid of 1255 points,  6 beta functions with:
                l(1) =   0
                l(2) =   0
                l(3) =   1
                l(4) =   1
                l(5) =   2
                l(6) =   3

     atomic species   valence    mass     pseudopotential
        Cr            24.00    51.99610     Yb( 1.00)
        Si            13.00    28.08550     Pr( 1.00)

     48 Sym. Ops., with inversion, found (24 have fractional translation)

   Cartesian axes

     site n.     atom                  positions (alat units)
         1           Cr  tau(   1) = (   0.0000000   0.5944541   0.2972271  )
         2           Cr  tau(   2) = (   0.0000000   0.5944541   0.8916812  )
         3           Cr  tau(   3) = (   0.5944541   0.8916812   0.0000000  )
         4           Cr  tau(   4) = (   0.5944541   0.2972271   0.0000000  )
         5           Cr  tau(   5) = (   0.8916812   0.0000000   0.5944541  )
         6           Cr  tau(   6) = (   0.2972271   0.0000000   0.5944541  )
         7           Si  tau(   7) = (   0.5944541   0.5944541   0.5944541  )
         8           Si  tau(   8) = (   0.0000000   0.0000000   0.0000000  )

     number of k points=    48  gaussian smearing, width (Ry)=  0.1000
                       cart. coord. in units 2pi/alat
        k(    1) = (   0.0000000   0.0000000   0.0000000), wk =   0.0095238
        k(    2) = (   0.0000000   0.0000000   0.1201583), wk =   0.0190476
        k(    3) = (   0.0000000   0.0000000   0.2403165), wk =   0.0190476
        k(    4) = (   0.0000000   0.0000000   0.3604748), wk =   0.0190476
        k(    5) = (   0.0000000   0.1401846   0.0000000), wk =   0.0190476
        k(    6) = (   0.0000000   0.1401846   0.1201583), wk =   0.0380952
        k(    7) = (   0.0000000   0.1401846   0.2403165), wk =   0.0380952
        k(    8) = (   0.0000000   0.1401846   0.3604748), wk =   0.0380952
        k(    9) = (   0.0000000   0.2803693   0.0000000), wk =   0.0190476
        k(   10) = (   0.0000000   0.2803693   0.1201583), wk =   0.0380952
        k(   11) = (   0.0000000   0.2803693   0.2403165), wk =   0.0380952
        k(   12) = (   0.0000000   0.2803693   0.3604748), wk =   0.0380952
        k(   13) = (   0.0000000  -0.4205539   0.0000000), wk =   0.0095238
        k(   14) = (   0.0000000  -0.4205539   0.1201583), wk =   0.0190476
        k(   15) = (   0.0000000  -0.4205539   0.2403165), wk =   0.0190476
        k(   16) = (   0.0000000  -0.4205539   0.3604748), wk =   0.0190476
        k(   17) = (   0.1682216   0.0000000   0.0000000), wk =   0.0190476
        k(   18) = (   0.1682216   0.0000000   0.1201583), wk =   0.0380952
        k(   19) = (   0.1682216   0.0000000   0.2403165), wk =   0.0380952
        k(   20) = (   0.1682216   0.0000000   0.3604748), wk =   0.0380952
        k(   21) = (   0.1682216   0.1401846   0.0000000), wk =   0.0380952
        k(   22) = (   0.1682216   0.1401846   0.1201583), wk =   0.0761905
        k(   23) = (   0.1682216   0.1401846   0.2403165), wk =   0.0761905
        k(   24) = (   0.1682216   0.1401846   0.3604748), wk =   0.0761905
        k(   25) = (   0.1682216   0.2803693   0.0000000), wk =   0.0380952
        k(   26) = (   0.1682216   0.2803693   0.1201583), wk =   0.0761905
        k(   27) = (   0.1682216   0.2803693   0.2403165), wk =   0.0761905
        k(   28) = (   0.1682216   0.2803693   0.3604748), wk =   0.0761905
        k(   29) = (   0.1682216  -0.4205539   0.0000000), wk =   0.0190476
        k(   30) = (   0.1682216  -0.4205539   0.1201583), wk =   0.0380952
        k(   31) = (   0.1682216  -0.4205539   0.2403165), wk =   0.0380952
        k(   32) = (   0.1682216  -0.4205539   0.3604748), wk =   0.0380952
        k(   33) = (   0.3364431   0.0000000   0.0000000), wk =   0.0190476
        k(   34) = (   0.3364431   0.0000000   0.1201583), wk =   0.0380952
        k(   35) = (   0.3364431   0.0000000   0.2403165), wk =   0.0380952
        k(   36) = (   0.3364431   0.0000000   0.3604748), wk =   0.0380952
        k(   37) = (   0.3364431   0.1401846   0.0000000), wk =   0.0380952
        k(   38) = (   0.3364431   0.1401846   0.1201583), wk =   0.0761905
        k(   39) = (   0.3364431   0.1401846   0.2403165), wk =   0.0761905
        k(   40) = (   0.3364431   0.1401846   0.3604748), wk =   0.0761905
        k(   41) = (   0.3364431   0.2803693   0.0000000), wk =   0.0380952
        k(   42) = (   0.3364431   0.2803693   0.1201583), wk =   0.0761905
        k(   43) = (   0.3364431   0.2803693   0.2403165), wk =   0.0761905
        k(   44) = (   0.3364431   0.2803693   0.3604748), wk =   0.0761905
        k(   45) = (   0.3364431  -0.4205539   0.0000000), wk =   0.0190476
        k(   46) = (   0.3364431  -0.4205539   0.1201583), wk =   0.0380952
        k(   47) = (   0.3364431  -0.4205539   0.2403165), wk =   0.0380952
        k(   48) = (   0.3364431  -0.4205539   0.3604748), wk =   0.0380952

     Largest allocated arrays     est. size (Mb)     dimensions
     Largest temporary arrays     est. size (Mb)     dimensions

     Initial potential from superposition of free atoms
     Check: negative starting charge=   -0.000615

     starting charge   25.98109, renormalised to  170.00000

     negative rho (up, down):  0.402E-02 0.000E+00
     Starting wfc are   40 randomized atomic wfcs

     Writing output data file Prototype-La-cP8-Cr3Si.save

     Self-consistent Calculation

[...]

     negative rho (up, down):  0.191E-04 0.000E+00

[...]

     iteration # 12     ecut=    40.00 Ry     beta=0.70
     CG style diagonalization
     c_bands:  1 eigenvalues not converged
     c_bands:  1 eigenvalues not converged
     ethr =  2.48E-06,  avg # of iterations =  3.1

[...]

     total energy              =   -2642.52401068 Ry
     Harris-Foulkes estimate   =   -2642.52401115 Ry
     estimated scf accuracy    <       0.00000111 Ry

     iteration # 21     ecut=    40.00 Ry     beta=0.70
     CG style diagonalization
     ethr =  6.56E-10,  avg # of iterations =  3.4

     End of self-consistent calculation

[...]

          k = 0.3364-0.4206 0.3605 (  4480 PWs)   bands (ev):

   -94.2742 -94.2675 -94.2624 -94.2598 -94.2585 -94.2532 -53.2204 -53.2157
   -53.1968 -53.1967 -53.1742 -53.1666 -52.9970 -52.9966 -52.9962 -52.9959
   -52.9956 -52.9942 -52.9940 -52.9932 -52.9916 -52.9911 -52.9886 -52.9883
   -13.0654 -13.0654   4.0855   4.1863   4.4336   4.4375   4.4688   4.4712
     4.4851   4.4879   4.5958   4.6031   4.6809   4.6877   4.7103   4.7398
     4.7530   4.7781   4.8440   4.8462   4.9273   4.9417   5.0012   5.0216
     5.0231   5.0302   5.1213   5.1262   5.1614   5.1624   5.1965   5.2112
     6.6060   6.6071   6.7419   6.7437   6.8676   6.8805  16.3029  16.3084
    16.8575  16.8585  17.3352  17.3507  21.9738  21.9739  25.4006  25.4490
    25.6729  25.6884  26.1537  26.3977  26.6842  26.8994  27.5450  27.6628
    27.7547  27.7781  28.6191  28.7032  28.8130  29.1049  31.6374  31.8828
    32.4315  32.4818  32.9455  33.0959  34.6362  34.6608  34.7731  34.8051
    35.0809  35.1032  35.8981  36.0407  36.2648  36.5399

     the Fermi energy is    30.7890 ev

!    total energy              =   -2642.52401064 Ry
     Harris-Foulkes estimate   =   -2642.52401083 Ry
     estimated scf accuracy    <       0.00000023 Ry

     The total energy is the sum of the following terms:

     one-electron contribution =    -807.58854993 Ry
     hartree contribution      =     485.84027250 Ry
     xc contribution           =    -216.08015732 Ry
     ewald contribution        =   -2104.43543251 Ry
     smearing contrib. (-TS)   =      -0.26014338 Ry

     convergence has been achieved in  21 iterations

     Forces acting on atoms (Ry/au):

     atom    1 type  1   force =     0.00000000    0.00000000    0.00000000
     atom    2 type  1   force =     0.00000000    0.00000000    0.00000000
     atom    3 type  1   force =     0.00000000    0.00000000    0.00000000
     atom    4 type  1   force =     0.00000000    0.00000000    0.00000000
     atom    5 type  1   force =     0.00000000    0.00000000    0.00000000
     atom    6 type  1   force =     0.00000000    0.00000000    0.00000000
     atom    7 type  2   force =     0.00000000    0.00000000    0.00000000
     atom    8 type  2   force =     0.00000000    0.00000000    0.00000000

     Total force =     0.000000     Total SCF correction =     0.000000

     entering subroutine stress ...

          total   stress  (Ry/bohr**3)                   (kbar)     P=  327.69
   0.00222760   0.00000000   0.00000000        327.69      0.00      0.00
   0.00000000   0.00222760   0.00000000          0.00    327.69      0.00
   0.00000000   0.00000000   0.00222760          0.00      0.00    327.69

     Writing output data file Prototype-La-cP8-Cr3Si.save

     General routines

     Parallel routines

   This run was terminated on:  12:57:46  22Mar2018

   JOB DONE.