     Program PWSCF v.5.0.2 starts on 22Mar2018 at 22:42:40

     Current dimensions of program PWSCF are:
     Max number of different atomic species (ntypx) = 10
     Max number of k-points (npk) =  40000
     Max angular momentum in pseudopotentials (lmaxx) =  3
     Waiting for input...
     Reading input from standard input

     Subspace diagonalization in iterative solution of the eigenvalue problem:
     a serial algorithm will be used

     bravais-lattice index     =            0
     lattice parameter (alat)  =       7.0151  a.u.
     unit-cell volume          =     862.2778 (a.u.)^3
     number of atoms/cell      =           12
     number of atomic types    =            2
     number of electrons       =       224.00
     number of Kohn-Sham states=          134
     kinetic-energy cutoff     =      40.0000  Ry
     charge density cutoff     =     160.0000  Ry
     convergence threshold     =      1.0E-04
     mixing beta               =       0.7000
     number of iterations used =            8  plain     mixing
     Exchange-correlation      = SLA-PZ-NOGX-NOGC ( 1 1 0 0 0)
     EXX-fraction              =        0.00
     nstep                     =           50

     celldm(1)=   7.015105  celldm(2)=   0.000000  celldm(3)=   0.000000
     celldm(4)=   0.000000  celldm(5)=   0.000000  celldm(6)=   0.000000

     crystal axes: (cart. coord. in units of alat)
               a(1) = (   1.000000   0.000000   0.000000 )
               a(2) = (   0.000000   1.315963   0.000000 )
               a(3) = (   0.000000   0.000000   1.898020 )

     reciprocal axes: (cart. coord. in units 2 pi/alat)
               b(1) = (  1.000000  0.000000  0.000000 )
               b(2) = (  0.000000  0.759900  0.000000 )
               b(3) = (  0.000000  0.000000  0.526865 )

     PseudoPot. # 1 for Er read from file:
     /home/cwx6513/pp.La/Er.UPF
     MD5 check sum: e152ae21b84514339d8526f066caf99b
     Pseudo is Norm-conserving, Zval = 22.0
     Generated in analytical, separable form
     Using radial grid of 1267 points,  6 beta functions with:
                l(1) =   0
                l(2) =   0
                l(3) =   1
                l(4) =   1
                l(5) =   2
                l(6) =   3

     PseudoPot. # 2 for Ce read from file:
     /home/cwx6513/pp.La/Ce.UPF
     MD5 check sum: 44451aa79a44a00cf2bc029dc19922f6
     Pseudo is Norm-conserving, Zval = 12.0
     Generated in analytical, separable form
     Using radial grid of 1255 points,  6 beta functions with:
                l(1) =   0
                l(2) =   0
                l(3) =   1
                l(4) =   1
                l(5) =   2
                l(6) =   3

     atomic species   valence    mass     pseudopotential
        Co            22.00    58.93320     Er( 1.00)
        Si            12.00    28.08550     Ce( 1.00)

      8 Sym. Ops., with inversion, found ( 6 have fractional translation)

   Cartesian axes

     site n.     atom                  positions (alat units)
         1           Co  tau(   1) = (   0.7500000   1.0875135   0.8270358  )
         2           Co  tau(   2) = (   0.2500000   0.2284499   1.0709846  )
         3           Co  tau(   3) = (   0.7500000   0.4295318   0.1219744  )
         4           Co  tau(   4) = (   0.2500000   0.8864316   1.7760460  )
         5           Co  tau(   5) = (   0.2500000   0.7067855   0.5358966  )
         6           Co  tau(   6) = (   0.7500000   0.6091779   1.3621238  )
         7           Co  tau(   7) = (   0.2500000   0.0488038   0.4131136  )
         8           Co  tau(   8) = (   0.7500000   1.2671596   1.4849068  )
         9           Si  tau(   9) = (   0.2500000   0.2669484   1.6960710  )
        10           Si  tau(  10) = (   0.7500000   1.0490149   0.2019494  )
        11           Si  tau(  11) = (   0.2500000   0.9249301   1.1509596  )
        12           Si  tau(  12) = (   0.7500000   0.3910333   0.7470608  )

     number of k points=    12  gaussian smearing, width (Ry)=  0.1000
                       cart. coord. in units 2pi/alat
        k(    1) = (   0.0000000   0.0000000   0.0000000), wk =   0.0833333
        k(    2) = (   0.0000000   0.0000000   0.1317162), wk =   0.1666667
        k(    3) = (   0.0000000   0.0000000  -0.2634324), wk =   0.0833333
        k(    4) = (   0.0000000   0.2532999   0.0000000), wk =   0.1666667
        k(    5) = (   0.0000000   0.2532999   0.1317162), wk =   0.3333333
        k(    6) = (   0.0000000   0.2532999  -0.2634324), wk =   0.1666667
        k(    7) = (  -0.5000000   0.0000000   0.0000000), wk =   0.0833333
        k(    8) = (  -0.5000000   0.0000000   0.1317162), wk =   0.1666667
        k(    9) = (  -0.5000000   0.0000000  -0.2634324), wk =   0.0833333
        k(   10) = (  -0.5000000   0.2532999   0.0000000), wk =   0.1666667
        k(   11) = (  -0.5000000   0.2532999   0.1317162), wk =   0.3333333
        k(   12) = (  -0.5000000   0.2532999  -0.2634324), wk =   0.1666667

     Largest allocated arrays     est. size (Mb)     dimensions
     Largest temporary arrays     est. size (Mb)     dimensions

     Initial potential from superposition of free atoms

     Starting from uniform charge
     Starting wfc are    0 randomized atomic wfcs

     Self-consistent Calculation

     iteration #  1     ecut=    40.00 Ry     beta=0.70
     CG style diagonalization
     ethr =  1.00E-02,  avg # of iterations = 17.1

     total energy              =   -2195.46939197 Ry
     Harris-Foulkes estimate   =   -3518.66444340 Ry
     estimated scf accuracy    <    1631.32403205 Ry

     iteration #  2     ecut=    40.00 Ry     beta=0.70
     CG style diagonalization
     c_bands:  1 eigenvalues not converged
     c_bands:  2 eigenvalues not converged
     c_bands:  3 eigenvalues not converged
     c_bands:  4 eigenvalues not converged
     c_bands:  4 eigenvalues not converged
     c_bands:  2 eigenvalues not converged
     c_bands:  2 eigenvalues not converged
     c_bands:  2 eigenvalues not converged
     c_bands:  4 eigenvalues not converged
     c_bands:  3 eigenvalues not converged
     c_bands:  4 eigenvalues not converged
     ethr =  1.00E-02,  avg # of iterations = 14.3

[...]

     End of self-consistent calculation

          k = 0.0000 0.0000 0.0000 (  3675 PWs)   bands (ev):

   -51.9198 -51.9110 -51.7989 -51.7732 -51.7244 -51.7228 -51.7138 -51.6934
   -14.9520 -14.7994 -14.6334 -14.5869 -14.4775 -14.4166 -14.3890 -14.2502
   -14.2393 -14.1869 -14.1513 -14.1092 -14.0849 -14.0286 -13.9675 -13.9630
   -13.9498 -13.9238 -13.8527 -13.8173 -13.7781 -13.6925 -13.6910 -13.6177
    10.7686  11.3523  11.4743  11.6252  23.7823  24.3536  24.7223  24.7296
    25.3723  25.4220  25.4789  26.1112  26.2402  26.6783  27.2576  27.8435
    28.2011  28.2043  28.3376  28.5956  28.7166  28.7924  29.2995  29.7272
    30.5147  30.5360  30.7155  30.7322  30.8597  30.8980  31.4771  31.5564
    31.5686  31.8989  32.1651  32.1673  32.3148  32.3838  32.4746  32.6274
    32.6316  32.9372  33.2399  33.8449  34.6051  34.6901  34.8672  35.0064
    35.0226  35.6869  35.8805  36.0692  36.1714  36.4682  37.4448  37.5378
    37.8975  38.9450  42.0713  42.3509  43.7804  44.9551  45.5041  45.7932
    45.9359  46.8328  46.9678  47.5973  47.6613  47.8316  49.0375  49.2888
    49.4767  49.7516  49.7766  50.0962  50.3127  51.4879  52.1853  52.5777
    52.7221  52.7667  52.9686  53.2270  53.8395  54.1376  55.7015  55.7688
    55.9660  56.5702  56.8086  56.9077  56.9275  57.0866  57.4794  57.7693
    58.3694  58.3879  58.9697  59.1474  59.5936  59.9066

[...]

          k =-0.5000 0.0000 0.0000 (  3722 PWs)   bands (ev):

[...]

     the Fermi energy is    52.2060 ev

!    total energy              =   -2924.94032553 Ry
     Harris-Foulkes estimate   =   -2924.94034096 Ry
     estimated scf accuracy    <       0.00001742 Ry

     The total energy is the sum of the following terms:

     one-electron contribution =      57.55779796 Ry
     hartree contribution      =     304.54371470 Ry
     xc contribution           =    -281.72744269 Ry
     ewald contribution        =   -3004.99935909 Ry
     smearing contrib. (-TS)   =      -0.31503641 Ry

     convergence has been achieved in  11 iterations

     Forces acting on atoms (Ry/au):

     atom    1 type  1   force =     0.00000000   -0.07104357   -0.04908559
     atom    2 type  1   force =     0.00000000    0.07104357    0.04908559
     atom    3 type  1   force =     0.00000000   -0.07104357    0.04908559
     atom    4 type  1   force =     0.00000000    0.07104357   -0.04908559
     atom    5 type  1   force =     0.00000000    0.17357760   -0.23010491
     atom    6 type  1   force =     0.00000000   -0.17357760    0.23010491
     atom    7 type  1   force =     0.00000000    0.17357760    0.23010491
     atom    8 type  1   force =     0.00000000   -0.17357760   -0.23010491
     atom    9 type  2   force =     0.00000000   -0.15460638    0.02310157
     atom   10 type  2   force =     0.00000000    0.15460638   -0.02310157
     atom   11 type  2   force =     0.00000000   -0.15460638   -0.02310157
     atom   12 type  2   force =     0.00000000    0.15460638    0.02310157

     Total force =     0.678147     Total SCF correction =     0.000000

     entering subroutine stress ...

          total   stress  (Ry/bohr**3)                   (kbar)     P= 7313.10
   0.05398562   0.00000000   0.00000000       7941.56      0.00      0.00
   0.00000000   0.04644005   0.00000000          0.00   6831.57      0.00
   0.00000000   0.00000000   0.04871468          0.00      0.00   7166.18

     BFGS Geometry Optimization

     number of scf cycles    =   1
     number of bfgs steps    =   0

     enthalpy new            =   -2924.9403255269 Ry

     new trust radius        =       0.5000000000 bohr
     new conv_thr            =       0.0001000000 Ry

     new unit-cell volume =   1081.36454 a.u.^3 (   160.24169 Ang^3 )

CELL_PARAMETERS (alat=  7.01510508)
   1.085136619   0.000000000   0.000000000
   0.000000000   1.412340690   0.000000000
   0.000000000   0.000000000   2.043834344

ATOMIC_POSITIONS (crystal)
Co       0.750000000   0.825915549   0.435503449
Co       0.250000000   0.174084451   0.564496551
Co       0.750000000   0.325915549   0.064496551
Co       0.250000000   0.674084451   0.935503449
Co       0.250000000   0.538272080   0.281254843
Co       0.750000000   0.461727920   0.718745157
Co       0.250000000   0.038272080   0.218745157
Co       0.750000000   0.961727920   0.781254843
Si       0.250000000   0.201797553   0.893709447
Si       0.750000000   0.798202447   0.106290553
Si       0.250000000   0.701797553   0.606290553
Si       0.750000000   0.298202447   0.393709447

     Writing output data file Prototype-La-oP12-Co2Si.save
     NEW-OLD atomic charge density approx. for the potential
     NEW k-points:
        k(    1) = (   0.0000000   0.0000000   0.0000000), wk =   0.0833333
        k(    2) = (   0.0000000   0.0000000   0.1223191), wk =   0.1666667
        k(    3) = (   0.0000000   0.0000000  -0.2446382), wk =   0.0833333
        k(    4) = (   0.0000000   0.2360148   0.0000000), wk =   0.1666667
        k(    5) = (   0.0000000   0.2360148   0.1223191), wk =   0.3333333
        k(    6) = (   0.0000000   0.2360148  -0.2446382), wk =   0.1666667
        k(    7) = (  -0.4607715   0.0000000   0.0000000), wk =   0.0833333
        k(    8) = (  -0.4607715   0.0000000   0.1223191), wk =   0.1666667
        k(    9) = (  -0.4607715   0.0000000  -0.2446382), wk =   0.0833333
        k(   10) = (  -0.4607715   0.2360148   0.0000000), wk =   0.1666667
        k(   11) = (  -0.4607715   0.2360148   0.1223191), wk =   0.3333333
        k(   12) = (  -0.4607715   0.2360148  -0.2446382), wk =   0.1666667

[...]

     enthalpy old            =   -2924.9403255269 Ry
     enthalpy new            =   -2931.9415648599 Ry

     CASE: enthalpy_new < enthalpy_old

     small trust_radius: resetting bfgs history

     new trust radius        =       3.2301761221 bohr
     new conv_thr            =       0.0001000000 Ry

[...]

          total   stress  (Ry/bohr**3)                   (kbar)     P=-3522.08
  -0.02674471   0.00000000   0.00000000      -3934.28      0.00      0.00
   0.00000000  -0.02163959   0.00000000          0.00  -3183.29      0.00
   0.00000000   0.00000000  -0.02344361          0.00      0.00  -3448.67

     number of scf cycles    =   3
     number of bfgs steps    =   2

     enthalpy old            =   -2931.9415648600 Ry
     enthalpy new            =   -2903.0318479204 Ry

     CASE: enthalpy_new > enthalpy_old

     new trust radius        =       0.8889308338 bohr

     trust_radius < trust_radius_min

     resetting bfgs history

     Message from routine bfgs:
     history already reset at previous step: stopping
     new conv_thr            =       0.0001000000 Ry

     new unit-cell volume =   1272.24328 a.u.^3 (   188.52700 Ang^3 )

[...]

ATOMIC_POSITIONS (crystal)
Co       0.750000000   0.825366116   0.435402312
Co       0.250000000   0.174633884   0.564597688
Co       0.750000000   0.325366116   0.064597688
Co       0.250000000   0.674633884   0.935402312
Co       0.250000000   0.539233224   0.280439496
Co       0.750000000   0.460766776   0.719560504
Co       0.250000000   0.039233224   0.219560504
Co       0.750000000   0.960766776   0.780439496
Si       0.250000000   0.200742438   0.893749986
Si       0.750000000   0.799257562   0.106250014
Si       0.250000000   0.700742438   0.606250014
Si       0.750000000   0.299257562   0.393749986

     Writing output data file Prototype-La-oP12-Co2Si.save
     NEW-OLD atomic charge density approx. for the potential
     NEW k-points:
        k(    1) = (   0.0000000   0.0000000   0.0000000), wk =   0.0833333
        k(    2) = (   0.0000000   0.0000000   0.1159857), wk =   0.1666667
        k(    3) = (   0.0000000   0.0000000  -0.2319715), wk =   0.0833333
        k(    4) = (   0.0000000   0.2253844   0.0000000), wk =   0.1666667
        k(    5) = (   0.0000000   0.2253844   0.1159857), wk =   0.3333333
        k(    6) = (   0.0000000   0.2253844  -0.2319715), wk =   0.1666667
        k(    7) = (  -0.4325066   0.0000000   0.0000000), wk =   0.0833333
        k(    8) = (  -0.4325066   0.0000000   0.1159857), wk =   0.1666667
        k(    9) = (  -0.4325066   0.0000000  -0.2319715), wk =   0.0833333
        k(   10) = (  -0.4325066   0.2253844   0.0000000), wk =   0.1666667
        k(   11) = (  -0.4325066   0.2253844   0.1159857), wk =   0.3333333
        k(   12) = (  -0.4325066   0.2253844  -0.2319715), wk =   0.1666667

[...]

     The maximum number of steps has been reached.

     End of BFGS Geometry Optimization
Begin final coordinates
     new unit-cell volume =   1272.24328 a.u.^3 (   188.52700 Ang^3 )

CELL_PARAMETERS (alat=  7.01510508)
   1.156051685   0.000000000   0.000000000
   0.000000000   1.478954821   0.000000000
   0.000000000   0.000000000   2.155437656

ATOMIC_POSITIONS (crystal)
Co       0.750000000   0.825366116   0.435402312
Co       0.250000000   0.174633884   0.564597688
Co       0.750000000   0.325366116   0.064597688
Co       0.250000000   0.674633884   0.935402312
Co       0.250000000   0.539233224   0.280439496
Co       0.750000000   0.460766776   0.719560504
Co       0.250000000   0.039233224   0.219560504
Co       0.750000000   0.960766776   0.780439496
Si       0.250000000   0.200742438   0.893749986
Si       0.750000000   0.799257562   0.106250014
Si       0.250000000   0.700742438   0.606250014
Si       0.750000000   0.299257562   0.393749986
End final coordinates

     A final scf calculation at the relaxed structure.
     The G-vectors are recalculated for the final unit cell
     Results may differ from those at the preceding step.

     bravais-lattice index     =            0
     lattice parameter (alat)  =       7.0151  a.u.
     unit-cell volume          =    1272.2433 (a.u.)^3
     number of atoms/cell      =           12
     number of atomic types    =            2
     number of electrons       =       224.00
     number of Kohn-Sham states=          134
     kinetic-energy cutoff     =      40.0000  Ry
     charge density cutoff     =     160.0000  Ry
     convergence threshold     =      1.0E-04
     mixing beta               =       0.7000
     number of iterations used =            8  plain     mixing
     Exchange-correlation      = SLA-PZ-NOGX-NOGC ( 1 1 0 0 0)
     EXX-fraction              =        0.00

     celldm(1)=   7.015105  celldm(2)=   0.000000  celldm(3)=   0.000000
     celldm(4)=   0.000000  celldm(5)=   0.000000  celldm(6)=   0.000000

     crystal axes: (cart. coord. in units of alat)
               a(1) = (   1.156052   0.000000   0.000000 )
               a(2) = (   0.000000   1.478955   0.000000 )
               a(3) = (   0.000000   0.000000   2.155438 )

     reciprocal axes: (cart. coord. in units 2 pi/alat)
               b(1) = (  0.865013  0.000000  0.000000 )
               b(2) = (  0.000000  0.676153  0.000000 )
               b(3) = (  0.000000  0.000000  0.463943 )

     PseudoPot. # 1 for Er read from file:
     /home/cwx6513/pp.La/Er.UPF
     MD5 check sum: e152ae21b84514339d8526f066caf99b
     Pseudo is Norm-conserving, Zval = 22.0
     Generated in analytical, separable form
     Using radial grid of 1267 points,  6 beta functions with:
                l(1) =   0
                l(2) =   0
                l(3) =   1
                l(4) =   1
                l(5) =   2
                l(6) =   3

     PseudoPot. # 2 for Ce read from file:
     /home/cwx6513/pp.La/Ce.UPF
     MD5 check sum: 44451aa79a44a00cf2bc029dc19922f6
     Pseudo is Norm-conserving, Zval = 12.0
     Generated in analytical, separable form
     Using radial grid of 1255 points,  6 beta functions with:
                l(1) =   0
                l(2) =   0
                l(3) =   1
                l(4) =   1
                l(5) =   2
                l(6) =   3

     atomic species   valence    mass     pseudopotential
        Co            22.00    58.93320     Er( 1.00)
        Si            12.00    28.08550     Ce( 1.00)

      8 Sym. Ops., with inversion, found ( 6 have fractional translation)

   Cartesian axes

     site n.     atom                  positions (alat units)
         1           Co  tau(   1) = (   0.8670388   1.2206792   0.9384825  )
         2           Co  tau(   2) = (   0.2890129   0.2582756   1.2169551  )
         3           Co  tau(   3) = (   0.8670388   0.4812018   0.1392363  )
         4           Co  tau(   4) = (   0.2890129   0.9977530   2.0162014  )
         5           Co  tau(   5) = (   0.2890129   0.7975016   0.6044699  )
         6           Co  tau(   6) = (   0.8670388   0.6814532   1.5509678  )
         7           Co  tau(   7) = (   0.2890129   0.0580242   0.4732490  )
         8           Co  tau(   8) = (   0.8670388   1.4209307   1.6821887  )
         9           Si  tau(   9) = (   0.2890129   0.2968890   1.9264224  )
        10           Si  tau(  10) = (   0.8670388   1.1820658   0.2290153  )
        11           Si  tau(  11) = (   0.2890129   1.0363664   1.3067341  )
        12           Si  tau(  12) = (   0.8670388   0.4425884   0.8487035  )

     number of k points=    12  gaussian smearing, width (Ry)=  0.1000
                       cart. coord. in units 2pi/alat
        k(    1) = (   0.0000000   0.0000000   0.0000000), wk =   0.0833333
        k(    2) = (   0.0000000   0.0000000   0.1159857), wk =   0.1666667
        k(    3) = (   0.0000000   0.0000000  -0.2319715), wk =   0.0833333
        k(    4) = (   0.0000000   0.2253844   0.0000000), wk =   0.1666667
        k(    5) = (   0.0000000   0.2253844   0.1159857), wk =   0.3333333
        k(    6) = (   0.0000000   0.2253844  -0.2319715), wk =   0.1666667
        k(    7) = (  -0.4325066   0.0000000   0.0000000), wk =   0.0833333
        k(    8) = (  -0.4325066   0.0000000   0.1159857), wk =   0.1666667
        k(    9) = (  -0.4325066   0.0000000  -0.2319715), wk =   0.0833333
        k(   10) = (  -0.4325066   0.2253844   0.0000000), wk =   0.1666667
        k(   11) = (  -0.4325066   0.2253844   0.1159857), wk =   0.3333333
        k(   12) = (  -0.4325066   0.2253844  -0.2319715), wk =   0.1666667

     Largest allocated arrays     est. size (Mb)     dimensions
     Largest temporary arrays     est. size (Mb)     dimensions

     Initial potential from superposition of free atoms

     Starting from uniform charge
     Starting wfc are    0 randomized atomic wfcs

     Writing output data file Prototype-La-oP12-Co2Si.save

     Self-consistent Calculation

[...]

     iteration #  6     ecut=    40.00 Ry     beta=0.70
     CG style diagonalization
     ethr =  1.92E-03,  avg # of iterations =  3.9

[...]

     total energy              =   -2938.49961071 Ry
     Harris-Foulkes estimate   =   -2938.50002996 Ry
     estimated scf accuracy    <       0.00066629 Ry

     iteration # 10     ecut=    40.00 Ry     beta=0.70
     CG style diagonalization
     c_bands:  1 eigenvalues not converged
     c_bands:  1 eigenvalues not converged
     c_bands:  1 eigenvalues not converged
     ethr =  2.97E-07,  avg # of iterations =  3.8

     End of self-consistent calculation

[...]

          k = 0.0000 0.2254-0.2320 (  5434 PWs)   bands (ev):

[...]

          k =-0.4325 0.2254-0.2320 (  5444 PWs)   bands (ev):

   -67.2318 -67.2318 -67.2241 -67.2241 -67.1702 -67.1702 -67.1539 -67.1539
   -29.4092 -29.4092 -29.3153 -29.3153 -29.3147 -29.3147 -29.2820 -29.2820
   -29.2762 -29.2762 -29.2472 -29.2472 -29.2138 -29.2138 -29.2054 -29.2054
   -29.1936 -29.1936 -29.1821 -29.1821 -29.1725 -29.1725 -29.1515 -29.1515
    -3.1636  -3.1636  -3.1389  -3.1389  12.5448  12.5448  12.8107  12.8107
    12.9769  12.9769  13.0294  13.0294  13.3350  13.3350  13.4223  13.4223
    15.9138  15.9138  16.2519  16.2519  16.3853  16.3853  16.5218  16.5218
    16.5558  16.5558  16.9003  16.9003  16.9659  16.9659  17.1334  17.1334
    17.2030  17.2030  17.4714  17.4714  17.5268  17.5268  17.6245  17.6245
    17.7078  17.7078  18.0146  18.0146  18.0863  18.0863  18.3278  18.3278
    18.4757  18.4757  18.7121  18.7121  18.9363  18.9363  19.0108  19.0108
    24.7423  24.7423  24.7685  24.7685  26.9810  26.9810  27.4249  27.4249
    30.5165  30.5165  30.5654  30.5654  30.9948  30.9948  31.6607  31.6607
    32.5415  32.5415  33.3466  33.3466  33.7160  33.7160  34.1797  34.1797
    34.3764  34.3764  35.7265  35.7265  37.0765  37.0765  37.2496  37.2496
    38.4212  38.4213  39.1361  39.1361  40.2616  40.2617  40.4205  40.4206
    40.9972  40.9977  41.6908  41.6915  41.6947  41.6948

     the Fermi energy is    34.9545 ev

!    total energy              =   -2938.49979101 Ry
     Harris-Foulkes estimate   =   -2938.49983819 Ry
     estimated scf accuracy    <       0.00005588 Ry

     The total energy is the sum of the following terms:

     one-electron contribution =    -459.12087797 Ry
     hartree contribution      =     431.16039220 Ry
     xc contribution           =    -270.66210764 Ry
     ewald contribution        =   -2639.49865434 Ry
     smearing contrib. (-TS)   =      -0.37854325 Ry

     convergence has been achieved in  10 iterations

     Forces acting on atoms (Ry/au):

     atom    1 type  1   force =     0.00000000   -0.07378871   -0.03059208
     atom    2 type  1   force =     0.00000000    0.07378871    0.03059208
     atom    3 type  1   force =     0.00000000   -0.07378871    0.03059208
     atom    4 type  1   force =     0.00000000    0.07378871   -0.03059208
     atom    5 type  1   force =     0.00000000    0.06356822   -0.08120403
     atom    6 type  1   force =     0.00000000   -0.06356822    0.08120403
     atom    7 type  1   force =     0.00000000    0.06356822    0.08120403
     atom    8 type  1   force =     0.00000000   -0.06356822   -0.08120403
     atom    9 type  2   force =     0.00000000   -0.09927935   -0.02211498
     atom   10 type  2   force =     0.00000000    0.09927935    0.02211498
     atom   11 type  2   force =     0.00000000   -0.09927935    0.02211498
     atom   12 type  2   force =     0.00000000    0.09927935   -0.02211498

     Total force =     0.330824     Total SCF correction =     0.000000

     entering subroutine stress ...

          total   stress  (Ry/bohr**3)                   (kbar)     P= 1490.37
   0.01112136   0.00000000   0.00000000       1636.01      0.00      0.00
   0.00000000   0.00916001   0.00000000          0.00   1347.48      0.00
   0.00000000   0.00000000   0.01011263          0.00      0.00   1487.62

     Writing output data file Prototype-La-oP12-Co2Si.save

     General routines

     Parallel routines

   This run was terminated on:  23: 3:22  22Mar2018

   JOB DONE.