     Program PWSCF v.5.0.2 starts on 22Mar2018 at 22:42:40

     Current dimensions of program PWSCF are:
     Max number of different atomic species (ntypx) = 10
     Max number of k-points (npk) =  40000
     Max angular momentum in pseudopotentials (lmaxx) =  3
     Waiting for input...
     Reading input from standard input

     Subspace diagonalization in iterative solution of the eigenvalue problem:
     a serial algorithm will be used

     bravais-lattice index     =            0
     lattice parameter (alat)  =      12.0168  a.u.
     unit-cell volume          =    1187.3413 (a.u.)^3
     number of atoms/cell      =            8
     number of atomic types    =            2
     number of electrons       =       156.00
     number of Kohn-Sham states=           94
     kinetic-energy cutoff     =      40.0000  Ry
     charge density cutoff     =     160.0000  Ry
     convergence threshold     =      1.0E-04
     mixing beta               =       0.7000
     number of iterations used =            8  plain     mixing
     Exchange-correlation      = SLA-PZ-NOGX-NOGC ( 1 1 0 0 0)
     EXX-fraction              =        0.00
     nstep                     =           50

     celldm(1)=  12.016801  celldm(2)=   0.000000  celldm(3)=   0.000000
     celldm(4)=   0.000000  celldm(5)=   0.000000  celldm(6)=   0.000000

     crystal axes: (cart. coord. in units of alat)
               a(1) = (   1.000000   0.000000   0.000000 )
               a(2) = (  -0.500000   0.866025   0.000000 )
               a(3) = (   0.000000   0.000000   0.790093 )

     reciprocal axes: (cart. coord. in units 2 pi/alat)
               b(1) = (  1.000000  0.577350  0.000000 )
               b(2) = (  0.000000  1.154701  0.000000 )
               b(3) = (  0.000000  0.000000  1.265674 )

     PseudoPot. # 1 for Er read from file:
     /home/cwx6513/pp.La/Er.UPF
     MD5 check sum: e152ae21b84514339d8526f066caf99b
     Pseudo is Norm-conserving, Zval = 22.0
     Generated in analytical, separable form
     Using radial grid of 1267 points,  6 beta functions with:
                l(1) =   0
                l(2) =   0
                l(3) =   1
                l(4) =   1
                l(5) =   2
                l(6) =   3

     PseudoPot. # 2 for Ce read from file:
     /home/cwx6513/pp.La/Ce.UPF
     MD5 check sum: 44451aa79a44a00cf2bc029dc19922f6
     Pseudo is Norm-conserving, Zval = 12.0
     Generated in analytical, separable form
     Using radial grid of 1255 points,  6 beta functions with:
                l(1) =   0
                l(2) =   0
                l(3) =   1
                l(4) =   1
                l(5) =   2
                l(6) =   3

     atomic species   valence    mass     pseudopotential
        Mg            22.00    24.30500     Er( 1.00)
        Cd            12.00   112.41100     Ce( 1.00)

     24 Sym. Ops., with inversion, found (12 have fractional translation)

   Cartesian axes

     site n.     atom                  positions (alat units)
         1           Mg  tau(   1) = (   0.2478935   0.7204716   0.1975233  )
         2           Mg  tau(   2) = (   0.7478935   0.1455538   0.5925699  )
         3           Mg  tau(   3) = (   0.2521065   0.1455538   0.5925699  )
         4           Mg  tau(   4) = (  -0.2478935   0.7204716   0.1975233  )
         5           Mg  tau(   5) = (   0.0000000   0.2911075   0.1975233  )
         6           Mg  tau(   6) = (   0.5000000   0.5749179   0.5925699  )
         7           Cd  tau(   7) = (   0.5000005   0.2886748   0.1975233  )
         8           Cd  tau(   8) = (  -0.0000005   0.5773506   0.5925699  )

     number of k points=    64  gaussian smearing, width (Ry)=  0.1000
                       cart. coord. in units 2pi/alat
        k(    1) = (   0.0000000   0.0000000   0.0000000), wk =   0.0095238
        k(    2) = (   0.0000000   0.0000000   0.1808105), wk =   0.0190476
        k(    3) = (   0.0000000   0.0000000   0.3616210), wk =   0.0190476
        k(    4) = (   0.0000000   0.0000000   0.5424315), wk =   0.0190476
        k(    5) = (   0.0000000   0.1924501   0.0000000), wk =   0.0190476
        k(    6) = (   0.0000000   0.1924501   0.1808105), wk =   0.0380952
        k(    7) = (   0.0000000   0.1924501   0.3616210), wk =   0.0380952
        k(    8) = (   0.0000000   0.1924501   0.5424315), wk =   0.0380952
        k(    9) = (   0.0000000   0.3849002   0.0000000), wk =   0.0190476
        k(   10) = (   0.0000000   0.3849002   0.1808105), wk =   0.0380952
        k(   11) = (   0.0000000   0.3849002   0.3616210), wk =   0.0380952
        k(   12) = (   0.0000000   0.3849002   0.5424315), wk =   0.0380952
        k(   13) = (   0.0000000  -0.5773503   0.0000000), wk =   0.0095238
        k(   14) = (   0.0000000  -0.5773503   0.1808105), wk =   0.0190476
        k(   15) = (   0.0000000  -0.5773503   0.3616210), wk =   0.0190476
        k(   16) = (   0.0000000  -0.5773503   0.5424315), wk =   0.0190476
        k(   17) = (   0.2000000   0.1154701   0.0000000), wk =   0.0190476
        k(   18) = (   0.2000000   0.1154701   0.1808105), wk =   0.0380952
        k(   19) = (   0.2000000   0.1154701   0.3616210), wk =   0.0380952
        k(   20) = (   0.2000000   0.1154701   0.5424315), wk =   0.0380952
        k(   21) = (   0.2000000   0.3079201   0.0000000), wk =   0.0190476
        k(   22) = (   0.2000000   0.3079201   0.1808105), wk =   0.0380952
        k(   23) = (   0.2000000   0.3079201   0.3616210), wk =   0.0380952
        k(   24) = (   0.2000000   0.3079201   0.5424315), wk =   0.0380952
        k(   25) = (   0.2000000   0.5003702   0.0000000), wk =   0.0190476
        k(   26) = (   0.2000000   0.5003702   0.1808105), wk =   0.0380952
        k(   27) = (   0.2000000   0.5003702   0.3616210), wk =   0.0380952
        k(   28) = (   0.2000000   0.5003702   0.5424315), wk =   0.0380952
        k(   29) = (   0.2000000  -0.4618802   0.0000000), wk =   0.0190476
        k(   30) = (   0.2000000  -0.4618802   0.1808105), wk =   0.0380952
        k(   31) = (   0.2000000  -0.4618802   0.3616210), wk =   0.0380952
        k(   32) = (   0.2000000  -0.4618802   0.5424315), wk =   0.0380952
        k(   33) = (   0.2000000  -0.2694301   0.0000000), wk =   0.0190476
        k(   34) = (   0.2000000  -0.2694301   0.1808105), wk =   0.0380952
        k(   35) = (   0.2000000  -0.2694301   0.3616210), wk =   0.0380952
        k(   36) = (   0.2000000  -0.2694301   0.5424315), wk =   0.0380952
        k(   37) = (   0.2000000  -0.0769800   0.0000000), wk =   0.0190476
        k(   38) = (   0.2000000  -0.0769800   0.1808105), wk =   0.0380952
        k(   39) = (   0.2000000  -0.0769800   0.3616210), wk =   0.0380952
        k(   40) = (   0.2000000  -0.0769800   0.5424315), wk =   0.0380952
        k(   41) = (   0.4000000   0.2309401   0.0000000), wk =   0.0190476
        k(   42) = (   0.4000000   0.2309401   0.1808105), wk =   0.0380952
        k(   43) = (   0.4000000   0.2309401   0.3616210), wk =   0.0380952
        k(   44) = (   0.4000000   0.2309401   0.5424315), wk =   0.0380952
        k(   45) = (   0.4000000   0.4233902   0.0000000), wk =   0.0190476
        k(   46) = (   0.4000000   0.4233902   0.1808105), wk =   0.0380952
        k(   47) = (   0.4000000   0.4233902   0.3616210), wk =   0.0380952
        k(   48) = (   0.4000000   0.4233902   0.5424315), wk =   0.0380952
        k(   49) = (   0.4000000   0.6158403   0.0000000), wk =   0.0190476
        k(   50) = (   0.4000000   0.6158403   0.1808105), wk =   0.0380952
        k(   51) = (   0.4000000   0.6158403   0.3616210), wk =   0.0380952
        k(   52) = (   0.4000000   0.6158403   0.5424315), wk =   0.0380952
        k(   53) = (   0.4000000  -0.3464102   0.0000000), wk =   0.0190476
        k(   54) = (   0.4000000  -0.3464102   0.1808105), wk =   0.0380952
        k(   55) = (   0.4000000  -0.3464102   0.3616210), wk =   0.0380952
        k(   56) = (   0.4000000  -0.3464102   0.5424315), wk =   0.0380952
        k(   57) = (   0.4000000  -0.1539601   0.0000000), wk =   0.0190476
        k(   58) = (   0.4000000  -0.1539601   0.1808105), wk =   0.0380952
        k(   59) = (   0.4000000  -0.1539601   0.3616210), wk =   0.0380952
        k(   60) = (   0.4000000  -0.1539601   0.5424315), wk =   0.0380952
        k(   61) = (   0.4000000   0.0384900   0.0000000), wk =   0.0190476
        k(   62) = (   0.4000000   0.0384900   0.1808105), wk =   0.0380952
        k(   63) = (   0.4000000   0.0384900   0.3616210), wk =   0.0380952
        k(   64) = (   0.4000000   0.0384900   0.5424315), wk =   0.0380952

     Largest allocated arrays     est. size (Mb)     dimensions
     Largest temporary arrays     est. size (Mb)     dimensions

     Initial potential from superposition of free atoms

     Starting from uniform charge
     Starting wfc are    0 randomized atomic wfcs

     Self-consistent Calculation

     iteration #  1     ecut=    40.00 Ry     beta=0.70
     CG style diagonalization
     ethr =  1.00E-02,  avg # of iterations = 12.6

     total energy              =   -1614.03847547 Ry
     Harris-Foulkes estimate   =   -2872.37470823 Ry
     estimated scf accuracy    <    1547.65151820 Ry

[...]

     iteration #  3     ecut=    40.00 Ry     beta=0.70
     CG style diagonalization
     c_bands:  5 eigenvalues not converged
     c_bands:  5 eigenvalues not converged
     c_bands:  3 eigenvalues not converged
     c_bands:  5 eigenvalues not converged
     c_bands:  5 eigenvalues not converged
     c_bands:  3 eigenvalues not converged
     c_bands:  4 eigenvalues not converged
     c_bands:  1 eigenvalues not converged
     c_bands:  2 eigenvalues not converged
     c_bands:  2 eigenvalues not converged
     c_bands:  5 eigenvalues not converged
     c_bands:  2 eigenvalues not converged
     c_bands:  3 eigenvalues not converged
     c_bands:  4 eigenvalues not converged
     c_bands:  4 eigenvalues not converged
     c_bands:  3 eigenvalues not converged
     c_bands:  2 eigenvalues not converged
     c_bands:  3 eigenvalues not converged
     c_bands:  4 eigenvalues not converged
     c_bands:  1 eigenvalues not converged
     c_bands:  2 eigenvalues not converged
     c_bands:  3 eigenvalues not converged
     c_bands:  3 eigenvalues not converged
     c_bands:  2 eigenvalues not converged
     c_bands:  3 eigenvalues not converged
     c_bands:  4 eigenvalues not converged
     c_bands:  3 eigenvalues not converged
     c_bands:  1 eigenvalues not converged
     c_bands:  4 eigenvalues not converged
     c_bands:  3 eigenvalues not converged
     c_bands:  2 eigenvalues not converged
     c_bands:  3 eigenvalues not converged
     c_bands:  1 eigenvalues not converged
     c_bands:  3 eigenvalues not converged
     c_bands:  2 eigenvalues not converged
     c_bands:  2 eigenvalues not converged
     c_bands:  2 eigenvalues not converged
     c_bands:  2 eigenvalues not converged
     c_bands:  3 eigenvalues not converged
     c_bands:  5 eigenvalues not converged
     c_bands:  2 eigenvalues not converged
     c_bands:  4 eigenvalues not converged
     c_bands:  1 eigenvalues not converged
[...]
        k(   13) = (   0.0000000  -0.5928211   0.0000000), wk =   0.0095238
        k(   14) = (   0.0000000  -0.5928211   0.1802186), wk =   0.0190476
        k(   15) = (   0.0000000  -0.5928211   0.3604372), wk =   0.0190476
        k(   16) = (   0.0000000  -0.5928211   0.5406558), wk =   0.0190476
        k(   17) = (   0.2053592   0.1185642   0.0000000), wk =   0.0190476
        k(   18) = (   0.2053592   0.1185642   0.1802186), wk =   0.0380952
        k(   19) = (   0.2053592   0.1185642   0.3604372), wk =   0.0380952
        k(   20) = (   0.2053592   0.1185642   0.5406558), wk =   0.0380952
        k(   21) = (   0.2053592   0.3161712   0.0000000), wk =   0.0190476
        k(   22) = (   0.2053592   0.3161712   0.1802186), wk =   0.0380952
        k(   23) = (   0.2053592   0.3161712   0.3604372), wk =   0.0380952
        k(   24) = (   0.2053592   0.3161712   0.5406558), wk =   0.0380952
        k(   25) = (   0.2053592   0.5137782   0.0000000), wk =   0.0190476
        k(   26) = (   0.2053592   0.5137782   0.1802186), wk =   0.0380952
        k(   27) = (   0.2053592   0.5137782   0.3604372), wk =   0.0380952
        k(   28) = (   0.2053592   0.5137782   0.5406558), wk =   0.0380952
        k(   29) = (   0.2053592  -0.4742568   0.0000000), wk =   0.0190476
        k(   30) = (   0.2053592  -0.4742568   0.1802186), wk =   0.0380952
        k(   31) = (   0.2053592  -0.4742568   0.3604372), wk =   0.0380952
        k(   32) = (   0.2053592  -0.4742568   0.5406558), wk =   0.0380952
        k(   33) = (   0.2053592  -0.2766498   0.0000000), wk =   0.0190476
        k(   34) = (   0.2053592  -0.2766498   0.1802186), wk =   0.0380952
        k(   35) = (   0.2053592  -0.2766498   0.3604372), wk =   0.0380952
        k(   36) = (   0.2053592  -0.2766498   0.5406558), wk =   0.0380952
        k(   37) = (   0.2053592  -0.0790428   0.0000000), wk =   0.0190476
        k(   38) = (   0.2053592  -0.0790428   0.1802186), wk =   0.0380952
        k(   39) = (   0.2053592  -0.0790428   0.3604372), wk =   0.0380952
        k(   40) = (   0.2053592  -0.0790428   0.5406558), wk =   0.0380952
        k(   41) = (   0.4107185   0.2371284   0.0000000), wk =   0.0190476
        k(   42) = (   0.4107185   0.2371284   0.1802186), wk =   0.0380952
        k(   43) = (   0.4107185   0.2371284   0.3604372), wk =   0.0380952
        k(   44) = (   0.4107185   0.2371284   0.5406558), wk =   0.0380952
        k(   45) = (   0.4107185   0.4347354   0.0000000), wk =   0.0190476
        k(   46) = (   0.4107185   0.4347354   0.1802186), wk =   0.0380952
        k(   47) = (   0.4107185   0.4347354   0.3604372), wk =   0.0380952
        k(   48) = (   0.4107185   0.4347354   0.5406558), wk =   0.0380952
        k(   49) = (   0.4107185   0.6323425   0.0000000), wk =   0.0190476
        k(   50) = (   0.4107185   0.6323425   0.1802186), wk =   0.0380952
        k(   51) = (   0.4107185   0.6323425   0.3604372), wk =   0.0380952
        k(   52) = (   0.4107185   0.6323425   0.5406558), wk =   0.0380952
        k(   53) = (   0.4107185  -0.3556926   0.0000000), wk =   0.0190476
        k(   54) = (   0.4107185  -0.3556926   0.1802186), wk =   0.0380952
        k(   55) = (   0.4107185  -0.3556926   0.3604372), wk =   0.0380952
        k(   56) = (   0.4107185  -0.3556926   0.5406558), wk =   0.0380952
        k(   57) = (   0.4107185  -0.1580856   0.0000000), wk =   0.0190476
        k(   58) = (   0.4107185  -0.1580856   0.1802186), wk =   0.0380952
        k(   59) = (   0.4107185  -0.1580856   0.3604372), wk =   0.0380952
        k(   60) = (   0.4107185  -0.1580856   0.5406558), wk =   0.0380952
        k(   61) = (   0.4107185   0.0395214   0.0000000), wk =   0.0190476
        k(   62) = (   0.4107185   0.0395214   0.1802186), wk =   0.0380952
        k(   63) = (   0.4107185   0.0395214   0.3604372), wk =   0.0380952
        k(   64) = (   0.4107185   0.0395214   0.5406558), wk =   0.0380952

[...]

     The maximum number of steps has been reached.

     End of BFGS Geometry Optimization
Begin final coordinates
     new unit-cell volume =   1129.87691 a.u.^3 (   167.43048 Ang^3 )

CELL_PARAMETERS (alat= 12.01680127)
   0.973903118   0.000000000   0.000000000
  -0.486951559   0.843424841   0.000000000
   0.000000000   0.000000000   0.792688127

ATOMIC_POSITIONS (crystal)
Mg       0.664711599   0.832355799   0.250000000
Mg       0.832355799   0.167644201   0.750000000
Mg       0.335288401   0.167644201   0.750000000
Mg       0.167644201   0.832355799   0.250000000
Mg       0.167644201   0.335288401   0.250000000
Mg       0.832355799   0.664711599   0.750000000
Cd       0.666667000   0.333333000   0.250000000
Cd       0.333333000   0.666667000   0.750000000
End final coordinates

     A final scf calculation at the relaxed structure.
     The G-vectors are recalculated for the final unit cell
     Results may differ from those at the preceding step.

     bravais-lattice index     =            0
     lattice parameter (alat)  =      12.0168  a.u.
     unit-cell volume          =    1129.8769 (a.u.)^3
     number of atoms/cell      =            8
     number of atomic types    =            2
     number of electrons       =       156.00
     number of Kohn-Sham states=           94
     kinetic-energy cutoff     =      40.0000  Ry
     charge density cutoff     =     160.0000  Ry
     convergence threshold     =      3.4E-06
     mixing beta               =       0.7000
     number of iterations used =            8  plain     mixing
     Exchange-correlation      = SLA-PZ-NOGX-NOGC ( 1 1 0 0 0)
     EXX-fraction              =        0.00

     celldm(1)=  12.016801  celldm(2)=   0.000000  celldm(3)=   0.000000
     celldm(4)=   0.000000  celldm(5)=   0.000000  celldm(6)=   0.000000

     crystal axes: (cart. coord. in units of alat)
               a(1) = (   0.973903   0.000000   0.000000 )
               a(2) = (  -0.486952   0.843425   0.000000 )
               a(3) = (   0.000000   0.000000   0.792688 )

     reciprocal axes: (cart. coord. in units 2 pi/alat)
               b(1) = (  1.026796  0.592821  0.000000 )
               b(2) = (  0.000000  1.185642  0.000000 )
               b(3) = (  0.000000  0.000000  1.261530 )

     PseudoPot. # 1 for Er read from file:
     /home/cwx6513/pp.La/Er.UPF
     MD5 check sum: e152ae21b84514339d8526f066caf99b
     Pseudo is Norm-conserving, Zval = 22.0
     Generated in analytical, separable form
     Using radial grid of 1267 points,  6 beta functions with:
                l(1) =   0
                l(2) =   0
                l(3) =   1
                l(4) =   1
                l(5) =   2
                l(6) =   3

     PseudoPot. # 2 for Ce read from file:
     /home/cwx6513/pp.La/Ce.UPF
     MD5 check sum: 44451aa79a44a00cf2bc029dc19922f6
     Pseudo is Norm-conserving, Zval = 12.0
     Generated in analytical, separable form
     Using radial grid of 1255 points,  6 beta functions with:
                l(1) =   0
                l(2) =   0
                l(3) =   1
                l(4) =   1
                l(5) =   2
                l(6) =   3

     atomic species   valence    mass     pseudopotential
        Mg            22.00    24.30500     Er( 1.00)
        Cd            12.00   112.41100     Ce( 1.00)

     24 Sym. Ops., with inversion, found (12 have fractional translation)

   Cartesian axes

     site n.     atom                  positions (alat units)
         1           Mg  tau(   1) = (   0.2420477   0.7020296   0.1981720  )
         2           Mg  tau(   2) = (   0.7289993   0.1413953   0.5945161  )
         3           Mg  tau(   3) = (   0.2449038   0.1413953   0.5945161  )
         4           Mg  tau(   4) = (  -0.2420477   0.7020296   0.1981720  )
         5           Mg  tau(   5) = (   0.0000000   0.2827906   0.1981720  )
         6           Mg  tau(   6) = (   0.4869516   0.5606343   0.5945161  )
         7           Cd  tau(   7) = (   0.4869520   0.2811413   0.1981720  )
         8           Cd  tau(   8) = (  -0.0000005   0.5622835   0.5945161  )

     number of k points=    64  gaussian smearing, width (Ry)=  0.1000
                       cart. coord. in units 2pi/alat
        k(    1) = (   0.0000000   0.0000000   0.0000000), wk =   0.0095238
        k(    2) = (   0.0000000   0.0000000   0.1802186), wk =   0.0190476
        k(    3) = (   0.0000000   0.0000000   0.3604372), wk =   0.0190476
        k(    4) = (   0.0000000   0.0000000   0.5406558), wk =   0.0190476
        k(    5) = (   0.0000000   0.1976070   0.0000000), wk =   0.0190476
        k(    6) = (   0.0000000   0.1976070   0.1802186), wk =   0.0380952
        k(    7) = (   0.0000000   0.1976070   0.3604372), wk =   0.0380952
        k(    8) = (   0.0000000   0.1976070   0.5406558), wk =   0.0380952
        k(    9) = (   0.0000000   0.3952140   0.0000000), wk =   0.0190476
        k(   10) = (   0.0000000   0.3952140   0.1802186), wk =   0.0380952
        k(   11) = (   0.0000000   0.3952140   0.3604372), wk =   0.0380952
        k(   12) = (   0.0000000   0.3952140   0.5406558), wk =   0.0380952
        k(   13) = (   0.0000000  -0.5928211   0.0000000), wk =   0.0095238
        k(   14) = (   0.0000000  -0.5928211   0.1802186), wk =   0.0190476
        k(   15) = (   0.0000000  -0.5928211   0.3604372), wk =   0.0190476
        k(   16) = (   0.0000000  -0.5928211   0.5406558), wk =   0.0190476
        k(   17) = (   0.2053592   0.1185642   0.0000000), wk =   0.0190476
        k(   18) = (   0.2053592   0.1185642   0.1802186), wk =   0.0380952
        k(   19) = (   0.2053592   0.1185642   0.3604372), wk =   0.0380952
        k(   20) = (   0.2053592   0.1185642   0.5406558), wk =   0.0380952
        k(   21) = (   0.2053592   0.3161712   0.0000000), wk =   0.0190476
        k(   22) = (   0.2053592   0.3161712   0.1802186), wk =   0.0380952
        k(   23) = (   0.2053592   0.3161712   0.3604372), wk =   0.0380952
        k(   24) = (   0.2053592   0.3161712   0.5406558), wk =   0.0380952
        k(   25) = (   0.2053592   0.5137782   0.0000000), wk =   0.0190476
        k(   26) = (   0.2053592   0.5137782   0.1802186), wk =   0.0380952
        k(   27) = (   0.2053592   0.5137782   0.3604372), wk =   0.0380952
        k(   28) = (   0.2053592   0.5137782   0.5406558), wk =   0.0380952
        k(   29) = (   0.2053592  -0.4742568   0.0000000), wk =   0.0190476
        k(   30) = (   0.2053592  -0.4742568   0.1802186), wk =   0.0380952
        k(   31) = (   0.2053592  -0.4742568   0.3604372), wk =   0.0380952
        k(   32) = (   0.2053592  -0.4742568   0.5406558), wk =   0.0380952
        k(   33) = (   0.2053592  -0.2766498   0.0000000), wk =   0.0190476
        k(   34) = (   0.2053592  -0.2766498   0.1802186), wk =   0.0380952
        k(   35) = (   0.2053592  -0.2766498   0.3604372), wk =   0.0380952
        k(   36) = (   0.2053592  -0.2766498   0.5406558), wk =   0.0380952
        k(   37) = (   0.2053592  -0.0790428   0.0000000), wk =   0.0190476
        k(   38) = (   0.2053592  -0.0790428   0.1802186), wk =   0.0380952
        k(   39) = (   0.2053592  -0.0790428   0.3604372), wk =   0.0380952
        k(   40) = (   0.2053592  -0.0790428   0.5406558), wk =   0.0380952
        k(   41) = (   0.4107185   0.2371284   0.0000000), wk =   0.0190476
        k(   42) = (   0.4107185   0.2371284   0.1802186), wk =   0.0380952
        k(   43) = (   0.4107185   0.2371284   0.3604372), wk =   0.0380952
        k(   44) = (   0.4107185   0.2371284   0.5406558), wk =   0.0380952
        k(   45) = (   0.4107185   0.4347354   0.0000000), wk =   0.0190476
        k(   46) = (   0.4107185   0.4347354   0.1802186), wk =   0.0380952
        k(   47) = (   0.4107185   0.4347354   0.3604372), wk =   0.0380952
        k(   48) = (   0.4107185   0.4347354   0.5406558), wk =   0.0380952
        k(   49) = (   0.4107185   0.6323425   0.0000000), wk =   0.0190476
        k(   50) = (   0.4107185   0.6323425   0.1802186), wk =   0.0380952
        k(   51) = (   0.4107185   0.6323425   0.3604372), wk =   0.0380952
        k(   52) = (   0.4107185   0.6323425   0.5406558), wk =   0.0380952
        k(   53) = (   0.4107185  -0.3556926   0.0000000), wk =   0.0190476
        k(   54) = (   0.4107185  -0.3556926   0.1802186), wk =   0.0380952
        k(   55) = (   0.4107185  -0.3556926   0.3604372), wk =   0.0380952
        k(   56) = (   0.4107185  -0.3556926   0.5406558), wk =   0.0380952
        k(   57) = (   0.4107185  -0.1580856   0.0000000), wk =   0.0190476
        k(   58) = (   0.4107185  -0.1580856   0.1802186), wk =   0.0380952
        k(   59) = (   0.4107185  -0.1580856   0.3604372), wk =   0.0380952
        k(   60) = (   0.4107185  -0.1580856   0.5406558), wk =   0.0380952
        k(   61) = (   0.4107185   0.0395214   0.0000000), wk =   0.0190476
        k(   62) = (   0.4107185   0.0395214   0.1802186), wk =   0.0380952
        k(   63) = (   0.4107185   0.0395214   0.3604372), wk =   0.0380952
        k(   64) = (   0.4107185   0.0395214   0.5406558), wk =   0.0380952

     Largest allocated arrays     est. size (Mb)     dimensions
     Largest temporary arrays     est. size (Mb)     dimensions

     Initial potential from superposition of free atoms

     Starting from uniform charge
     Starting wfc are    0 randomized atomic wfcs

     Writing output data file Prototype-La-hP8-Mg3Cd.save

     Self-consistent Calculation

[...]

     iteration # 10     ecut=    40.00 Ry     beta=0.70
     CG style diagonalization
     ethr =  2.44E-05,  avg # of iterations =  3.7

[...]

     total energy              =   -2129.72498175 Ry
     Harris-Foulkes estimate   =   -2129.72501858 Ry
     estimated scf accuracy    <       0.00008424 Ry

     iteration # 12     ecut=    40.00 Ry     beta=0.70
     CG style diagonalization
     c_bands:  1 eigenvalues not converged
     c_bands:  1 eigenvalues not converged
     ethr =  5.40E-08,  avg # of iterations =  4.5

     End of self-consistent calculation

[...]

          k = 0.4107 0.0395 0.5407 (  4813 PWs)   bands (ev):

   -75.2524 -75.2488 -75.2466 -75.2425 -75.2405 -75.2348 -37.2899 -37.2882
   -37.2534 -37.2498 -37.2448 -37.2360 -37.2103 -37.2042 -37.1995 -37.1897
   -37.1845 -37.1764 -37.1681 -37.1630 -37.1608 -37.1532 -37.1450 -37.1410
   -11.5913 -11.5887   5.7934   5.8081   5.8957   5.9037   5.9378   5.9501
     8.7752   8.8074   8.9093   8.9537   8.9917   9.0243   9.0947   9.1378
     9.1951   9.2770   9.3334   9.3553   9.5607   9.7204   9.7366   9.7864
     9.8130   9.8752   9.8938   9.9360   9.9599  10.0135  10.0442  10.0526
    10.1530  10.1894  10.3760  10.4067  10.4879  10.5709  15.1149  16.1489
    17.3811  17.9650  18.6727  19.1510  21.4480  22.0511  22.0894  22.5471
    24.0533  24.1033  25.1857  25.2051  25.8389  26.2576  27.3124  27.3880
    27.5302  27.6120  28.6362  28.7761  29.4247  29.5640  30.1189  30.8109
    31.3441  31.5610  31.6003  32.0026  32.3756  32.4992

     the Fermi energy is    26.4921 ev

!    total energy              =   -2129.72504251 Ry
     Harris-Foulkes estimate   =   -2129.72504354 Ry
     estimated scf accuracy    <       0.00000149 Ry

     The total energy is the sum of the following terms:

     one-electron contribution =    -603.17696885 Ry
     hartree contribution      =     390.24430588 Ry
     xc contribution           =    -188.39466741 Ry
     ewald contribution        =   -1728.09553875 Ry
     smearing contrib. (-TS)   =      -0.30217338 Ry

     convergence has been achieved in  12 iterations

     Forces acting on atoms (Ry/au):

     atom    1 type  1   force =    -0.00879881   -0.00508000    0.00000000
     atom    2 type  1   force =    -0.00879881    0.00508000    0.00000000
     atom    3 type  1   force =     0.00879881    0.00508000    0.00000000
     atom    4 type  1   force =     0.00879881   -0.00508000    0.00000000
     atom    5 type  1   force =     0.00000000    0.01016000    0.00000000
     atom    6 type  1   force =     0.00000000   -0.01016000    0.00000000
     atom    7 type  2   force =     0.00000000    0.00000000    0.00000000
     atom    8 type  2   force =     0.00000000    0.00000000    0.00000000

     Total force =     0.024887     Total SCF correction =     0.000000

     entering subroutine stress ...

          total   stress  (Ry/bohr**3)                   (kbar)     P=   26.14
   0.00000903   0.00000000   0.00000000          1.33      0.00      0.00
   0.00000000   0.00000903   0.00000000          0.00      1.33      0.00
   0.00000000   0.00000000   0.00051512          0.00      0.00     75.78

     Writing output data file Prototype-La-hP8-Mg3Cd.save

     General routines

     Parallel routines

   This run was terminated on:  23:46:47  22Mar2018

   JOB DONE.