     Program PWSCF v.5.0.2 starts on 22Mar2018 at 22:42:40

     Current dimensions of program PWSCF are:
     Max number of different atomic species (ntypx) = 10
     Max number of k-points (npk) =  40000
     Max angular momentum in pseudopotentials (lmaxx) =  3
     Waiting for input...
     Reading input from standard input

     Subspace diagonalization in iterative solution of the eigenvalue problem:
     a serial algorithm will be used

     bravais-lattice index     =            0
     lattice parameter (alat)  =       9.9235  a.u.
     unit-cell volume          =    1361.0366 (a.u.)^3
     number of atoms/cell      =           12
     number of atomic types    =            2
     number of electrons       =       184.00
     number of Kohn-Sham states=          110
     kinetic-energy cutoff     =      40.0000  Ry
     charge density cutoff     =     160.0000  Ry
     convergence threshold     =      1.0E-04
     mixing beta               =       0.7000
     number of iterations used =            8  plain     mixing
     Exchange-correlation      = SLA-PZ-NOGX-NOGC ( 1 1 0 0 0)
     EXX-fraction              =        0.00
     nstep                     =           50

     celldm(1)=   9.923489  celldm(2)=   0.000000  celldm(3)=   0.000000
     celldm(4)=   0.000000  celldm(5)=   0.000000  celldm(6)=   0.000000

     crystal axes: (cart. coord. in units of alat)
               a(1) = (   1.000000   0.000000   0.000000 )
               a(2) = (  -0.500000   0.866025   0.000000 )
               a(3) = (   0.000000   0.000000   1.608222 )

     reciprocal axes: (cart. coord. in units 2 pi/alat)
               b(1) = (  1.000000  0.577350  0.000000 )
               b(2) = (  0.000000  1.154701  0.000000 )
               b(3) = (  0.000000  0.000000  0.621805 )

     PseudoPot. # 1 for Er read from file:
     /home/cwx6513/pp.La/Er.UPF
     MD5 check sum: e152ae21b84514339d8526f066caf99b
     Pseudo is Norm-conserving, Zval = 22.0
     Generated in analytical, separable form
     Using radial grid of 1267 points,  6 beta functions with:
                l(1) =   0
                l(2) =   0
                l(3) =   1
                l(4) =   1
                l(5) =   2
                l(6) =   3

     PseudoPot. # 2 for Ce read from file:
     /home/cwx6513/pp.La/Ce.UPF
     MD5 check sum: 44451aa79a44a00cf2bc029dc19922f6
     Pseudo is Norm-conserving, Zval = 12.0
     Generated in analytical, separable form
     Using radial grid of 1255 points,  6 beta functions with:
                l(1) =   0
                l(2) =   0
                l(3) =   1
                l(4) =   1
                l(5) =   2
                l(6) =   3

     atomic species   valence    mass     pseudopotential
        Mg            22.00    24.30500     Er( 1.00)
        Zn            12.00    65.39000     Ce( 1.00)

     24 Sym. Ops., with inversion, found (12 have fractional translation)

   Cartesian axes

     site n.     atom                  positions (alat units)
         1           Mg  tau(   1) = (  -0.0000005   0.5773506   0.1003820  )
         2           Mg  tau(   2) = (   0.5000005   0.2886748   0.9044931  )
         3           Mg  tau(   3) = (   0.5000005   0.2886748   1.5078402  )
         4           Mg  tau(   4) = (  -0.0000005   0.5773506   0.7037291  )
         5           Zn  tau(   5) = (   0.0000000   0.0000000   0.0000000  )
         6           Zn  tau(   6) = (   0.0000000   0.0000000   0.8041111  )
         7           Zn  tau(   7) = (   0.0000000   0.2950739   1.2061667  )
         8           Zn  tau(   8) = (   0.7444585   0.1475370   0.4020556  )
         9           Zn  tau(   9) = (   0.2555415   0.1475370   0.4020556  )
        10           Zn  tau(  10) = (   0.2444585   0.7184884   1.2061667  )
        11           Zn  tau(  11) = (  -0.2444585   0.7184884   1.2061667  )
        12           Zn  tau(  12) = (   0.5000000   0.5709515   0.4020556  )

     number of k points=    12  gaussian smearing, width (Ry)=  0.1000
                       cart. coord. in units 2pi/alat
        k(    1) = (   0.0000000   0.0000000   0.0000000), wk =   0.0833333
        k(    2) = (   0.0000000   0.0000000   0.1554512), wk =   0.1666667
        k(    3) = (   0.0000000   0.0000000  -0.3109023), wk =   0.0833333
        k(    4) = (   0.0000000   0.3849002   0.0000000), wk =   0.1666667
        k(    5) = (   0.0000000   0.3849002   0.1554512), wk =   0.3333333
        k(    6) = (   0.0000000   0.3849002  -0.3109023), wk =   0.1666667
        k(    7) = (  -0.5000000  -0.2886751   0.0000000), wk =   0.0833333
        k(    8) = (  -0.5000000  -0.2886751   0.1554512), wk =   0.1666667
        k(    9) = (  -0.5000000  -0.2886751  -0.3109023), wk =   0.0833333
        k(   10) = (  -0.5000000   0.0962250   0.0000000), wk =   0.1666667
        k(   11) = (  -0.5000000   0.0962250   0.1554512), wk =   0.3333333
        k(   12) = (  -0.5000000   0.0962250  -0.3109023), wk =   0.1666667

     Largest allocated arrays     est. size (Mb)     dimensions
     Largest temporary arrays     est. size (Mb)     dimensions

     Initial potential from superposition of free atoms

     Starting from uniform charge
     Starting wfc are    0 randomized atomic wfcs

     Self-consistent Calculation

     iteration #  1     ecut=    40.00 Ry     beta=0.70
     CG style diagonalization
     ethr =  1.00E-02,  avg # of iterations = 12.8

     total energy              =    -638.79201447 Ry
     Harris-Foulkes estimate   =   -2664.05701831 Ry
     estimated scf accuracy    <    2401.70110347 Ry

[...]

     iteration #  3     ecut=    40.00 Ry     beta=0.70
     CG style diagonalization
     c_bands:  1 eigenvalues not converged
     c_bands:  1 eigenvalues not converged
     c_bands:  1 eigenvalues not converged
     ethr =  1.00E-02,  avg # of iterations = 13.0

[...]

     End of self-consistent calculation

          k = 0.0000 0.0000 0.0000 (  5769 PWs)   bands (ev):

   -71.6141 -71.6036 -71.5973 -71.5666 -33.6154 -33.5988 -33.5987 -33.5987
   -33.5768 -33.5768 -33.5635 -33.5431 -33.5431 -33.5372 -33.5344 -33.5344
   -10.3894  -9.8350  -8.3804  -7.6018  -7.6017  -7.5859  -7.5741  -7.5741
     3.4852   4.5950   5.5220   6.8043   6.8043   7.1490   7.1491   7.2909
     7.2910   8.3819   9.5270   9.5271   9.5415   9.5416  10.6160  11.6299
    12.1887  12.1887  12.2999  12.3195  12.5145  12.5145  12.8611  12.9570
    12.9824  12.9824  13.0266  13.0267  13.1520  13.1520  13.3836  13.4174
    13.4174  13.4827  13.4827  13.5026  13.5027  13.7472  13.7472  13.8018
    13.8018  13.9008  13.9008  13.9771  17.8639  20.1061  20.1975  22.7610
    22.7610  23.4458  24.0488  25.0665  25.0666  25.4588  25.4968  25.7987
    26.6181  26.6181  26.8624  26.8625  27.2604  27.2605  27.8194  28.2786
    28.9572  28.9573  29.9340  29.9340  31.0808  31.0810  31.5292  32.1449
    32.8136  32.8777  32.8778  33.4993  33.4994  33.5574  33.9125  34.0887
    34.0890  34.2631  34.3054  34.3062  34.3656  34.3620

[...]

          k =-0.5000-0.2887 0.0000 (  5800 PWs)   bands (ev):

[...]

     the Fermi energy is    30.0771 ev

!    total energy              =   -1932.21032142 Ry
     Harris-Foulkes estimate   =   -1932.21032804 Ry
     estimated scf accuracy    <       0.00000824 Ry

     The total energy is the sum of the following terms:

     one-electron contribution =    -231.34429366 Ry
     hartree contribution      =     272.65798040 Ry
     xc contribution           =    -199.13512469 Ry
     ewald contribution        =   -1773.92993201 Ry
     smearing contrib. (-TS)   =      -0.45895145 Ry

     convergence has been achieved in  11 iterations

     Forces acting on atoms (Ry/au):

     atom    1 type  1   force =     0.00000000    0.00000000    0.01648496
     atom    2 type  1   force =     0.00000000    0.00000000    0.01648496
     atom    3 type  1   force =     0.00000000    0.00000000   -0.01648496
     atom    4 type  1   force =     0.00000000    0.00000000   -0.01648496
     atom    5 type  2   force =     0.00000000    0.00000000    0.00000000
     atom    6 type  2   force =     0.00000000    0.00000000    0.00000000
     atom    7 type  2   force =     0.00000000    0.05404698    0.00000000
     atom    8 type  2   force =    -0.04680606    0.02702349    0.00000000
     atom    9 type  2   force =     0.04680606    0.02702349    0.00000000
     atom   10 type  2   force =    -0.04680606   -0.02702349    0.00000000
     atom   11 type  2   force =     0.04680606   -0.02702349    0.00000000
     atom   12 type  2   force =     0.00000000   -0.05404698    0.00000000

     Total force =     0.136431     Total SCF correction =     0.000000

     entering subroutine stress ...

          total   stress  (Ry/bohr**3)                   (kbar)     P= 1105.24
   0.00728600   0.00000000   0.00000000       1071.81      0.00      0.00
   0.00000000   0.00728600   0.00000000          0.00   1071.81      0.00
   0.00000000   0.00000000   0.00796777          0.00      0.00   1172.10

     BFGS Geometry Optimization

     number of scf cycles    =   1
     number of bfgs steps    =   0

     enthalpy new            =   -1932.2103214163 Ry

     new trust radius        =       0.5000000000 bohr
     new conv_thr            =       0.0001000000 Ry

     new unit-cell volume =   1638.95557 a.u.^3 (   242.86815 Ang^3 )

CELL_PARAMETERS (alat=  9.92348860)
   1.061966585   0.000000000   0.000000000
  -0.530983293   0.919690041   0.000000000
   0.000000000   0.000000000   1.717203317

ATOMIC_POSITIONS (crystal)
Mg       0.333333000   0.666667000   0.062769403
Mg       0.666667000   0.333333000   0.562769403
Mg       0.666667000   0.333333000   0.937230597
Mg       0.333333000   0.666667000   0.437230597
Zn       0.000000000   0.000000000   0.000000000
Zn       0.000000000   0.000000000   0.500000000
Zn       0.171430732   0.342861464   0.750000000
Zn       0.828569268   0.171430732   0.250000000
Zn       0.342861464   0.171430732   0.250000000
Zn       0.657138536   0.828569268   0.750000000
Zn       0.171430732   0.828569268   0.750000000
Zn       0.828569268   0.657138536   0.250000000

     Writing output data file Prototype-La-hP12-MgZn2.save
     NEW-OLD atomic charge density approx. for the potential
     NEW k-points:
        k(    1) = (   0.0000000   0.0000000   0.0000000), wk =   0.0833333
        k(    2) = (   0.0000000   0.0000000   0.1455856), wk =   0.1666667
        k(    3) = (   0.0000000   0.0000000  -0.2911711), wk =   0.0833333
        k(    4) = (   0.0000000   0.3624410   0.0000000), wk =   0.1666667
        k(    5) = (   0.0000000   0.3624410   0.1455856), wk =   0.3333333
        k(    6) = (   0.0000000   0.3624410  -0.2911711), wk =   0.1666667
        k(    7) = (  -0.4708246  -0.2718307   0.0000000), wk =   0.0833333
        k(    8) = (  -0.4708246  -0.2718307   0.1455856), wk =   0.1666667
        k(    9) = (  -0.4708246  -0.2718307  -0.2911711), wk =   0.0833333
        k(   10) = (  -0.4708246   0.0906102   0.0000000), wk =   0.1666667
        k(   11) = (  -0.4708246   0.0906102   0.1455856), wk =   0.3333333
        k(   12) = (  -0.4708246   0.0906102  -0.2911711), wk =   0.1666667

[...]

     enthalpy old            =   -1932.2103214163 Ry
     enthalpy new            =   -1933.2776806486 Ry

     CASE: enthalpy_new < enthalpy_old

     small trust_radius: resetting bfgs history

     new trust radius        =       0.2128638414 bohr
     new conv_thr            =       0.0000265416 Ry

[...]

     number of scf cycles    =   3
     number of bfgs steps    =   2

     enthalpy old            =   -1933.2776806485 Ry
     enthalpy new            =   -1933.2786793106 Ry

     CASE: enthalpy_new > enthalpy_old

     new trust radius        =       0.1084527202 bohr

     trust_radius < trust_radius_min

     resetting bfgs history

     Message from routine bfgs:
     history already reset at previous step: stopping
     new conv_thr            =       0.0000265416 Ry

     new unit-cell volume =   1760.53770 a.u.^3 (   260.88477 Ang^3 )

[...]

ATOMIC_POSITIONS (crystal)
Mg       0.333333000   0.666667000   0.064248175
Mg       0.666667000   0.333333000   0.564248175
Mg       0.666667000   0.333333000   0.935751825
Mg       0.333333000   0.666667000   0.435751825
Zn       0.000000000   0.000000000   0.000000000
Zn       0.000000000   0.000000000   0.500000000
Zn       0.171074798   0.342149595   0.750000000
Zn       0.828925202   0.171074798   0.250000000
Zn       0.342149595   0.171074798   0.250000000
Zn       0.657850405   0.828925202   0.750000000
Zn       0.171074798   0.828925202   0.750000000
Zn       0.828925202   0.657850405   0.250000000

     Writing output data file Prototype-La-hP12-MgZn2.save
     NEW-OLD atomic charge density approx. for the potential
     NEW k-points:
        k(    1) = (   0.0000000   0.0000000   0.0000000), wk =   0.0833333
        k(    2) = (   0.0000000   0.0000000   0.1419332), wk =   0.1666667
        k(    3) = (   0.0000000   0.0000000  -0.2838663), wk =   0.0833333
        k(    4) = (   0.0000000   0.3541730   0.0000000), wk =   0.1666667
        k(    5) = (   0.0000000   0.3541730   0.1419332), wk =   0.3333333
        k(    6) = (   0.0000000   0.3541730  -0.2838663), wk =   0.1666667
        k(    7) = (  -0.4600842  -0.2656297   0.0000000), wk =   0.0833333
        k(    8) = (  -0.4600842  -0.2656297   0.1419332), wk =   0.1666667
        k(    9) = (  -0.4600842  -0.2656297  -0.2838663), wk =   0.0833333
        k(   10) = (  -0.4600842   0.0885432   0.0000000), wk =   0.1666667
        k(   11) = (  -0.4600842   0.0885432   0.1419332), wk =   0.3333333
        k(   12) = (  -0.4600842   0.0885432  -0.2838663), wk =   0.1666667

[...]

     The maximum number of steps has been reached.

     End of BFGS Geometry Optimization
Begin final coordinates
     new unit-cell volume =   1760.53770 a.u.^3 (   260.88477 Ang^3 )

CELL_PARAMETERS (alat=  9.92348860)
   1.086757684   0.000000000   0.000000000
  -0.543378842   0.941159762   0.000000000
   0.000000000   0.000000000   1.761392460

ATOMIC_POSITIONS (crystal)
Mg       0.333333000   0.666667000   0.064248175
Mg       0.666667000   0.333333000   0.564248175
Mg       0.666667000   0.333333000   0.935751825
Mg       0.333333000   0.666667000   0.435751825
Zn       0.000000000   0.000000000   0.000000000
Zn       0.000000000   0.000000000   0.500000000
Zn       0.171074798   0.342149595   0.750000000
Zn       0.828925202   0.171074798   0.250000000
Zn       0.342149595   0.171074798   0.250000000
Zn       0.657850405   0.828925202   0.750000000
Zn       0.171074798   0.828925202   0.750000000
Zn       0.828925202   0.657850405   0.250000000
End final coordinates

     A final scf calculation at the relaxed structure.
     The G-vectors are recalculated for the final unit cell
     Results may differ from those at the preceding step.

     bravais-lattice index     =            0
     lattice parameter (alat)  =       9.9235  a.u.
     unit-cell volume          =    1760.5377 (a.u.)^3
     number of atoms/cell      =           12
     number of atomic types    =            2
     number of electrons       =       184.00
     number of Kohn-Sham states=          110
     kinetic-energy cutoff     =      40.0000  Ry
     charge density cutoff     =     160.0000  Ry
     convergence threshold     =      2.7E-05
     mixing beta               =       0.7000
     number of iterations used =            8  plain     mixing
     Exchange-correlation      = SLA-PZ-NOGX-NOGC ( 1 1 0 0 0)
     EXX-fraction              =        0.00

     celldm(1)=   9.923489  celldm(2)=   0.000000  celldm(3)=   0.000000
     celldm(4)=   0.000000  celldm(5)=   0.000000  celldm(6)=   0.000000

     crystal axes: (cart. coord. in units of alat)
               a(1) = (   1.086758   0.000000   0.000000 )
               a(2) = (  -0.543379   0.941160   0.000000 )
               a(3) = (   0.000000   0.000000   1.761392 )

     reciprocal axes: (cart. coord. in units 2 pi/alat)
               b(1) = (  0.920168  0.531259  0.000000 )
               b(2) = (  0.000000  1.062519  0.000000 )
               b(3) = (  0.000000  0.000000  0.567733 )

     PseudoPot. # 1 for Er read from file:
     /home/cwx6513/pp.La/Er.UPF
     MD5 check sum: e152ae21b84514339d8526f066caf99b
     Pseudo is Norm-conserving, Zval = 22.0
     Generated in analytical, separable form
     Using radial grid of 1267 points,  6 beta functions with:
                l(1) =   0
                l(2) =   0
                l(3) =   1
                l(4) =   1
                l(5) =   2
                l(6) =   3

     PseudoPot. # 2 for Ce read from file:
     /home/cwx6513/pp.La/Ce.UPF
     MD5 check sum: 44451aa79a44a00cf2bc029dc19922f6
     Pseudo is Norm-conserving, Zval = 12.0
     Generated in analytical, separable form
     Using radial grid of 1255 points,  6 beta functions with:
                l(1) =   0
                l(2) =   0
                l(3) =   1
                l(4) =   1
                l(5) =   2
                l(6) =   3

     atomic species   valence    mass     pseudopotential
        Mg            22.00    24.30500     Er( 1.00)
        Zn            12.00    65.39000     Ce( 1.00)

     24 Sym. Ops., with inversion, found (12 have fractional translation)

   Cartesian axes

     site n.     atom                  positions (alat units)
         1           Mg  tau(   1) = (  -0.0000005   0.6274402   0.1131663  )
         2           Mg  tau(   2) = (   0.5433794   0.3137196   0.9938625  )
         3           Mg  tau(   3) = (   0.5433794   0.3137196   1.6482262  )
         4           Mg  tau(   4) = (  -0.0000005   0.6274402   0.7675300  )
         5           Zn  tau(   5) = (   0.0000000   0.0000000   0.0000000  )
         6           Zn  tau(   6) = (   0.0000000   0.0000000   0.8806962  )
         7           Zn  tau(   7) = (   0.0000000   0.3220174   1.3210443  )
         8           Zn  tau(   8) = (   0.8078824   0.1610087   0.4403481  )
         9           Zn  tau(   9) = (   0.2788753   0.1610087   0.4403481  )
        10           Zn  tau(  10) = (   0.2645036   0.7801510   1.3210443  )
        11           Zn  tau(  11) = (  -0.2645036   0.7801510   1.3210443  )
        12           Zn  tau(  12) = (   0.5433788   0.6191423   0.4403481  )

     number of k points=    12  gaussian smearing, width (Ry)=  0.1000
                       cart. coord. in units 2pi/alat
        k(    1) = (   0.0000000   0.0000000   0.0000000), wk =   0.0833333
        k(    2) = (   0.0000000   0.0000000   0.1419332), wk =   0.1666667
        k(    3) = (   0.0000000   0.0000000  -0.2838663), wk =   0.0833333
        k(    4) = (   0.0000000   0.3541730   0.0000000), wk =   0.1666667
        k(    5) = (   0.0000000   0.3541730   0.1419332), wk =   0.3333333
        k(    6) = (   0.0000000   0.3541730  -0.2838663), wk =   0.1666667
        k(    7) = (  -0.4600842  -0.2656297   0.0000000), wk =   0.0833333
        k(    8) = (  -0.4600842  -0.2656297   0.1419332), wk =   0.1666667
        k(    9) = (  -0.4600842  -0.2656297  -0.2838663), wk =   0.0833333
        k(   10) = (  -0.4600842   0.0885432   0.0000000), wk =   0.1666667
        k(   11) = (  -0.4600842   0.0885432   0.1419332), wk =   0.3333333
        k(   12) = (  -0.4600842   0.0885432  -0.2838663), wk =   0.1666667

     Largest allocated arrays     est. size (Mb)     dimensions
     Largest temporary arrays     est. size (Mb)     dimensions

     Initial potential from superposition of free atoms

     Starting from uniform charge
     Starting wfc are    0 randomized atomic wfcs

     Writing output data file Prototype-La-hP12-MgZn2.save

     Self-consistent Calculation

[...]

     iteration #  6     ecut=    40.00 Ry     beta=0.70
     CG style diagonalization
     ethr =  2.60E-03,  avg # of iterations =  3.9

[...]

     total energy              =   -1934.73427771 Ry
     Harris-Foulkes estimate   =   -1934.73456850 Ry
     estimated scf accuracy    <       0.00053814 Ry

     iteration # 11     ecut=    40.00 Ry     beta=0.70
     CG style diagonalization
     c_bands:  1 eigenvalues not converged
     c_bands:  1 eigenvalues not converged
     ethr =  2.92E-07,  avg # of iterations =  3.7

     End of self-consistent calculation

[...]

          k = 0.0000 0.3542-0.2839 (  7528 PWs)   bands (ev):

[...]

          k =-0.4601 0.0885-0.2839 (  7516 PWs)   bands (ev):

   -78.3354 -78.3354 -78.3188 -78.3188 -40.2582 -40.2581 -40.2466 -40.2466
   -40.2433 -40.2433 -40.2395 -40.2395 -40.2372 -40.2372 -40.2342 -40.2342
   -15.7934 -15.7934 -15.4231 -15.4231 -14.8677 -14.8677 -14.7910 -14.7910
     0.1374   0.1374   1.0623   1.0623   1.6382   1.6382   1.7508   1.7508
     1.9738   1.9738   2.2737   2.2737   2.7541   2.7541   3.2953   3.2953
     3.6259   3.6259   3.9409   3.9409   4.4557   4.4557   4.5588   4.5588
     6.5662   6.5662   6.5910   6.5910   6.6934   6.6934   6.7502   6.7502
     6.8093   6.8093   6.8240   6.8241   6.8637   6.8637   6.8820   6.8820
     6.9889   6.9889   7.0199   7.0199  14.3063  14.3063  14.9794  14.9794
    18.5172  18.5172  18.8358  18.8358  19.4749  19.4749  20.0567  20.0567
    20.1649  20.1649  20.6391  20.6391  21.2474  21.2474  21.4785  21.4785
    21.7782  21.7782  22.4551  22.4551  23.0001  23.0001  23.1585  23.1585
    23.9714  23.9714  24.1903  24.1903  24.5301  24.5301  24.7771  24.7771
    25.1617  25.1618  25.8842  25.8845  26.5522  26.5526

     the Fermi energy is    22.6617 ev

!    total energy              =   -1934.73438959 Ry
     Harris-Foulkes estimate   =   -1934.73439894 Ry
     estimated scf accuracy    <       0.00001220 Ry

     The total energy is the sum of the following terms:

     one-electron contribution =    -441.02781017 Ry
     hartree contribution      =     329.45587436 Ry
     xc contribution           =    -194.52024935 Ry
     ewald contribution        =   -1628.07258872 Ry
     smearing contrib. (-TS)   =      -0.56961570 Ry

     convergence has been achieved in  11 iterations

     Forces acting on atoms (Ry/au):

     atom    1 type  1   force =     0.00000000    0.00000000   -0.00086398
     atom    2 type  1   force =     0.00000000    0.00000000   -0.00086398
     atom    3 type  1   force =     0.00000000    0.00000000    0.00086398
     atom    4 type  1   force =     0.00000000    0.00000000    0.00086398
     atom    5 type  2   force =     0.00000000    0.00000000    0.00000000
     atom    6 type  2   force =     0.00000000    0.00000000    0.00000000
     atom    7 type  2   force =     0.00000000    0.01586453    0.00000000
     atom    8 type  2   force =    -0.01373909    0.00793226    0.00000000
     atom    9 type  2   force =     0.01373909    0.00793226    0.00000000
     atom   10 type  2   force =    -0.01373909   -0.00793226    0.00000000
     atom   11 type  2   force =     0.01373909   -0.00793226    0.00000000
     atom   12 type  2   force =     0.00000000   -0.01586453    0.00000000

     Total force =     0.038898     Total SCF correction =     0.000000

     entering subroutine stress ...

          total   stress  (Ry/bohr**3)                   (kbar)     P=  138.87
   0.00092328   0.00000000   0.00000000        135.82      0.00      0.00
   0.00000000   0.00092328   0.00000000          0.00    135.82      0.00
   0.00000000   0.00000000   0.00098545          0.00      0.00    144.96

     Writing output data file Prototype-La-hP12-MgZn2.save

     General routines

     Parallel routines

   This run was terminated on:  23: 4:25  22Mar2018

   JOB DONE.