     Program PWSCF v.5.0.2 starts on 23Mar2018 at  0:57:24

     Current dimensions of program PWSCF are:
     Max number of different atomic species (ntypx) = 10
     Max number of k-points (npk) =  40000
     Max angular momentum in pseudopotentials (lmaxx) =  3
     Waiting for input...
     Reading input from standard input

     Subspace diagonalization in iterative solution of the eigenvalue problem:
     a serial algorithm will be used

     bravais-lattice index     =            0
     lattice parameter (alat)  =       9.3790  a.u.
     unit-cell volume          =     583.3913 (a.u.)^3
     number of atoms/cell      =            6
     number of atomic types    =            2
     number of electrons       =        94.00
     number of Kohn-Sham states=           56
     kinetic-energy cutoff     =      40.0000  Ry
     charge density cutoff     =     160.0000  Ry
     convergence threshold     =      1.0E-04
     mixing beta               =       0.7000
     number of iterations used =            8  plain     mixing
     Exchange-correlation      = SLA-PZ-NOGX-NOGC ( 1 1 0 0 0)
     EXX-fraction              =        0.00
     nstep                     =           50

     celldm(1)=   9.379038  celldm(2)=   0.000000  celldm(3)=   0.000000
     celldm(4)=   0.000000  celldm(5)=   0.000000  celldm(6)=   0.000000

     crystal axes: (cart. coord. in units of alat)
               a(1) = (   1.000000   0.000000   0.000000 )
               a(2) = (   0.500000   0.866025   0.000000 )
               a(3) = (   0.500000   0.288675   0.816497 )

     reciprocal axes: (cart. coord. in units 2 pi/alat)
               b(1) = (  1.000000 -0.577350 -0.408248 )
               b(2) = (  0.000000  1.154701 -0.408248 )
               b(3) = (  0.000000  0.000000  1.224745 )

     PseudoPot. # 1 for Ho read from file:
     /home/cwx6513/pp.La/Ho.UPF
     MD5 check sum: f307ee11bce99f5b724fa279e3790763
     Pseudo is Norm-conserving, Zval = 21.0
     Generated in analytical, separable form
     Using radial grid of 1265 points,  6 beta functions with:
                l(1) =   0
                l(2) =   0
                l(3) =   1
                l(4) =   1
                l(5) =   2
                l(6) =   3

     PseudoPot. # 2 for Pr read from file:
     /home/cwx6513/pp.La/Pr.UPF
     MD5 check sum: 70e2b4b153859e92c8c91247dfc63203
     Pseudo is Norm-conserving, Zval = 13.0
     Generated in analytical, separable form
     Using radial grid of 1255 points,  6 beta functions with:
                l(1) =   0
                l(2) =   0
                l(3) =   1
                l(4) =   1
                l(5) =   2
                l(6) =   3

     atomic species   valence    mass     pseudopotential
        Mg            21.00    24.30500     Ho( 1.00)
        Cu            13.00    63.54600     Pr( 1.00)

     12 Sym. Ops., with inversion, found ( 6 have fractional translation)

   Cartesian axes

     site n.     atom                  positions (alat units)
         1           Mg  tau(   1) = (   1.5000000   0.8660254   0.6123724  )
         2           Mg  tau(   2) = (   1.0000000   0.5773503   0.4082483  )
         3           Cu  tau(   3) = (   0.2500000   0.1443376   0.1020621  )
         4           Cu  tau(   4) = (   0.7500000   0.1443376   0.1020621  )
         5           Cu  tau(   5) = (   0.5000000   0.5773503   0.1020621  )
         6           Cu  tau(   6) = (   0.5000000   0.2886751   0.5103104  )

     number of k points=   170  gaussian smearing, width (Ry)=  0.1000

     Number of k-points >= 100: set verbosity='high' to print them.

     Largest allocated arrays     est. size (Mb)     dimensions
     Largest temporary arrays     est. size (Mb)     dimensions

     Initial potential from superposition of free atoms
     Check: negative starting charge=   -0.000113

     starting charge   51.96217, renormalised to   94.00000

     negative rho (up, down):  0.204E-03 0.000E+00
     Starting wfc are   80 randomized atomic wfcs

     Self-consistent Calculation

     iteration #  1     ecut=    40.00 Ry     beta=0.70
     CG style diagonalization
     ethr =  1.00E-02,  avg # of iterations = 21.3

     negative rho (up, down):  0.577E-04 0.000E+00

     total energy              =       5.45117560 Ry
     Harris-Foulkes estimate   =   -2053.89070912 Ry
     estimated scf accuracy    <    2417.45492047 Ry

[...]

     iteration #  3     ecut=    40.00 Ry     beta=0.70
     CG style diagonalization
     c_bands:  1 eigenvalues not converged
     c_bands:  1 eigenvalues not converged
     c_bands:  1 eigenvalues not converged
     c_bands:  1 eigenvalues not converged
     c_bands:  1 eigenvalues not converged
     c_bands:  1 eigenvalues not converged
     c_bands:  1 eigenvalues not converged
     c_bands:  1 eigenvalues not converged
     c_bands:  1 eigenvalues not converged
     c_bands:  1 eigenvalues not converged
     ethr =  1.00E-02,  avg # of iterations = 12.4

[...]

     End of self-consistent calculation

     Number of k-points >= 100: set verbosity='high' to print the bands.

     the Fermi energy is    35.4499 ev

!    total energy              =    -956.41716886 Ry
     Harris-Foulkes estimate   =    -956.41718781 Ry
     estimated scf accuracy    <       0.00002212 Ry

     The total energy is the sum of the following terms:

     one-electron contribution =       0.10637572 Ry
     hartree contribution      =     101.91658331 Ry
     xc contribution           =    -102.68736198 Ry
     ewald contribution        =    -955.53907277 Ry
     smearing contrib. (-TS)   =      -0.21369314 Ry

     convergence has been achieved in  10 iterations

     Forces acting on atoms (Ry/au):

     atom    1 type  1   force =     0.00000000    0.00000000   -0.00414739
     atom    2 type  1   force =     0.00000000    0.00000000    0.00414739
     atom    3 type  2   force =     0.00000000    0.00000000    0.00000000
     atom    4 type  2   force =     0.00000000    0.00000000    0.00000000
     atom    5 type  2   force =     0.00000000    0.00000000    0.00000000
     atom    6 type  2   force =     0.00000000    0.00000000    0.00000000

     Total force =     0.005865     Total SCF correction =     0.000000

     entering subroutine stress ...

          total   stress  (Ry/bohr**3)                   (kbar)     P= 2164.34
   0.01471088   0.00000000   0.00000000       2164.05      0.00      0.00
   0.00000000   0.01471088   0.00000000          0.00   2164.05      0.00
   0.00000000   0.00000000   0.01471697          0.00      0.00   2164.94

     BFGS Geometry Optimization

     number of scf cycles    =   1
     number of bfgs steps    =   0

     enthalpy new            =    -956.4171688650 Ry

     new trust radius        =       0.5000000000 bohr
     new conv_thr            =       0.0001000000 Ry

     new unit-cell volume =    783.87856 a.u.^3 (   116.15882 Ang^3 )

CELL_PARAMETERS (alat=  9.37903830)
   1.103461883   0.000000000   0.000000000
   0.551730942   0.955626023   0.000000000
   0.551730942   0.318542008   0.901007810

ATOMIC_POSITIONS (crystal)
Mg       0.750050786   0.750050786   0.749847643
Mg       0.499949214   0.499949214   0.500152357
Cu       0.125000000   0.125000000   0.125000000
Cu       0.625000000   0.125000000   0.125000000
Cu       0.125000000   0.625000000   0.125000000
Cu       0.125000000   0.125000000   0.625000000

     Writing output data file Prototype-La-cF24-Cu2Mg.save
     Check: negative starting charge=   -0.000113
     NEW-OLD atomic charge density approx. for the potential
     NEW k-points: (use verbosity='high' to print them)
     Check: negative starting charge=   -0.004494

     negative rho (up, down):  0.440E-02 0.000E+00
     extrapolated charge  107.29001, renormalised to   94.00000

[...]

     enthalpy old            =    -956.4171688650 Ry
     enthalpy new            =    -957.6146710306 Ry

     CASE: enthalpy_new < enthalpy_old

     small trust_radius: resetting bfgs history

     new trust radius        =       0.0257512104 bohr
     new conv_thr            =       0.0000257512 Ry

[...]

     Writing output data file Prototype-La-cF24-Cu2Mg.save
     Check: negative starting charge=   -0.004494
     NEW-OLD atomic charge density approx. for the potential
     NEW k-points: (use verbosity='high' to print them)
     Check: negative starting charge=   -0.004600

     negative rho (up, down):  0.117E-03 0.000E+00
     extrapolated charge   94.26383, renormalised to   94.00000

[...]

     number of scf cycles    =   3
     number of bfgs steps    =   2

     enthalpy old            =    -957.6146710305 Ry
     enthalpy new            =    -957.6143472373 Ry

     CASE: enthalpy_new > enthalpy_old

     new trust radius        =       0.0107286207 bohr

     trust_radius < trust_radius_min

     resetting bfgs history

     Message from routine bfgs:
     history already reset at previous step: stopping
     new conv_thr            =       0.0000257512 Ry

     new unit-cell volume =    787.87216 a.u.^3 (   116.75061 Ang^3 )

[...]

ATOMIC_POSITIONS (crystal)
Mg       0.749038903   0.749038903   0.752883291
Mg       0.500961097   0.500961097   0.497116709
Cu       0.125000000   0.125000000   0.125000000
Cu       0.625000000   0.125000000   0.125000000
Cu       0.125000000   0.625000000   0.125000000
Cu       0.125000000   0.125000000   0.625000000

     Writing output data file Prototype-La-cF24-Cu2Mg.save
     Check: negative starting charge=   -0.004600
     NEW-OLD atomic charge density approx. for the potential
     NEW k-points: (use verbosity='high' to print them)
     Check: negative starting charge=   -0.004600
     extrapolated charge   93.99956, renormalised to   94.00000

[...]

     Threshold (ethr) on eigenvalues was too large:
     Diagonalizing with lowered threshold

     CG style diagonalization
     ethr =  3.52E-08,  avg # of iterations =  3.3

[...]

     The maximum number of steps has been reached.

     End of BFGS Geometry Optimization
Begin final coordinates
     new unit-cell volume =    787.87216 a.u.^3 (   116.75061 Ang^3 )

CELL_PARAMETERS (alat=  9.37903830)
   1.105214387   0.000000000   0.000000000
   0.552607194   0.957143736   0.000000000
   0.552607194   0.319047912   0.902728457

ATOMIC_POSITIONS (crystal)
Mg       0.749038903   0.749038903   0.752883291
Mg       0.500961097   0.500961097   0.497116709
Cu       0.125000000   0.125000000   0.125000000
Cu       0.625000000   0.125000000   0.125000000
Cu       0.125000000   0.625000000   0.125000000
Cu       0.125000000   0.125000000   0.625000000
End final coordinates

     A final scf calculation at the relaxed structure.
     The G-vectors are recalculated for the final unit cell
     Results may differ from those at the preceding step.

     bravais-lattice index     =            0
     lattice parameter (alat)  =       9.3790  a.u.
     unit-cell volume          =     787.8722 (a.u.)^3
     number of atoms/cell      =            6
     number of atomic types    =            2
     number of electrons       =        94.00
     number of Kohn-Sham states=           56
     kinetic-energy cutoff     =      40.0000  Ry
     charge density cutoff     =     160.0000  Ry
     convergence threshold     =      2.6E-05
     mixing beta               =       0.7000
     number of iterations used =            8  plain     mixing
     Exchange-correlation      = SLA-PZ-NOGX-NOGC ( 1 1 0 0 0)
     EXX-fraction              =        0.00

     celldm(1)=   9.379038  celldm(2)=   0.000000  celldm(3)=   0.000000
     celldm(4)=   0.000000  celldm(5)=   0.000000  celldm(6)=   0.000000

     crystal axes: (cart. coord. in units of alat)
               a(1) = (   1.105214   0.000000   0.000000 )
               a(2) = (   0.552607   0.957144   0.000000 )
               a(3) = (   0.552607   0.319048   0.902728 )

     reciprocal axes: (cart. coord. in units 2 pi/alat)
               b(1) = (  0.904802 -0.522388 -0.369251 )
               b(2) = (  0.000000  1.044775 -0.369251 )
               b(3) = (  0.000000  0.000000  1.107753 )

     PseudoPot. # 1 for Ho read from file:
     /home/cwx6513/pp.La/Ho.UPF
     MD5 check sum: f307ee11bce99f5b724fa279e3790763
     Pseudo is Norm-conserving, Zval = 21.0
     Generated in analytical, separable form
     Using radial grid of 1265 points,  6 beta functions with:
                l(1) =   0
                l(2) =   0
                l(3) =   1
                l(4) =   1
                l(5) =   2
                l(6) =   3

     PseudoPot. # 2 for Pr read from file:
     /home/cwx6513/pp.La/Pr.UPF
     MD5 check sum: 70e2b4b153859e92c8c91247dfc63203
     Pseudo is Norm-conserving, Zval = 13.0
     Generated in analytical, separable form
     Using radial grid of 1255 points,  6 beta functions with:
                l(1) =   0
                l(2) =   0
                l(3) =   1
                l(4) =   1
                l(5) =   2
                l(6) =   3

     atomic species   valence    mass     pseudopotential
        Mg            21.00    24.30500     Ho( 1.00)
        Cu            13.00    63.54600     Pr( 1.00)

     12 Sym. Ops., with inversion, found ( 6 have fractional translation)

   Cartesian axes

     site n.     atom                  positions (alat units)
         1           Mg  tau(   1) = (   1.6578216   0.9571437   0.6796492  )
         2           Mg  tau(   2) = (   1.1052144   0.6380958   0.4487614  )
         3           Cu  tau(   3) = (   0.2763036   0.1595240   0.1128411  )
         4           Cu  tau(   4) = (   0.8289108   0.1595240   0.1128411  )
         5           Cu  tau(   5) = (   0.5526072   0.6380958   0.1128411  )
         6           Cu  tau(   6) = (   0.5526072   0.3190479   0.5642053  )

     number of k points=   170  gaussian smearing, width (Ry)=  0.1000

     Number of k-points >= 100: set verbosity='high' to print them.

     Largest allocated arrays     est. size (Mb)     dimensions
     Largest temporary arrays     est. size (Mb)     dimensions

     Initial potential from superposition of free atoms
     Check: negative starting charge=   -0.000802

     starting charge   51.96217, renormalised to   94.00000

     negative rho (up, down):  0.145E-02 0.000E+00
     Starting wfc are   80 randomized atomic wfcs

     Writing output data file Prototype-La-cF24-Cu2Mg.save

     Self-consistent Calculation

[...]

     negative rho (up, down):  0.823E-04 0.000E+00

[...]

     iteration #  7     ecut=    40.00 Ry     beta=0.70
     CG style diagonalization
     ethr =  7.49E-04,  avg # of iterations =  3.6

[...]

     total energy              =    -958.49487213 Ry
     Harris-Foulkes estimate   =    -958.49527780 Ry
     estimated scf accuracy    <       0.00063663 Ry

     iteration # 11     ecut=    40.00 Ry     beta=0.70
     CG style diagonalization
     c_bands:  1 eigenvalues not converged
     c_bands:  1 eigenvalues not converged
     c_bands:  1 eigenvalues not converged
     c_bands:  1 eigenvalues not converged
     c_bands:  1 eigenvalues not converged
     c_bands:  1 eigenvalues not converged
     c_bands:  2 eigenvalues not converged
     ethr =  6.77E-07,  avg # of iterations =  4.4

     End of self-consistent calculation

     Number of k-points >= 100: set verbosity='high' to print the bands.

     the Fermi energy is    25.4871 ev

!    total energy              =    -958.49515637 Ry
     Harris-Foulkes estimate   =    -958.49517347 Ry
     estimated scf accuracy    <       0.00001968 Ry

     The total energy is the sum of the following terms:

     one-electron contribution =    -127.82938052 Ry
     hartree contribution      =     133.58491381 Ry
     xc contribution           =     -99.52405060 Ry
     ewald contribution        =    -864.45727514 Ry
     smearing contrib. (-TS)   =      -0.26936392 Ry

     convergence has been achieved in  11 iterations

     Forces acting on atoms (Ry/au):

     atom    1 type  1   force =     0.00000000    0.00000000   -0.00280374
     atom    2 type  1   force =     0.00000000    0.00000000    0.00280374
     atom    3 type  2   force =     0.00000000    0.00000000    0.00000000
     atom    4 type  2   force =     0.00000000    0.00000000    0.00000000
     atom    5 type  2   force =     0.00000000    0.00000000    0.00000000
     atom    6 type  2   force =     0.00000000    0.00000000    0.00000000

     Total force =     0.003965     Total SCF correction =     0.000001

     entering subroutine stress ...

          total   stress  (Ry/bohr**3)                   (kbar)     P=  352.51
   0.00240617   0.00000000   0.00000000        353.96      0.00      0.00
   0.00000000   0.00240617   0.00000000          0.00    353.96      0.00
   0.00000000   0.00000000   0.00237651          0.00      0.00    349.60

     Writing output data file Prototype-La-cF24-Cu2Mg.save

     General routines

     Parallel routines

   This run was terminated on:   1:48:35  23Mar2018

   JOB DONE.