     Program PWSCF v.5.0.2 starts on 23Mar2018 at  2:19:38

     Current dimensions of program PWSCF are:
     Max number of different atomic species (ntypx) = 10
     Max number of k-points (npk) =  40000
     Max angular momentum in pseudopotentials (lmaxx) =  3
     Waiting for input...
     Reading input from standard input

     Subspace diagonalization in iterative solution of the eigenvalue problem:
     a serial algorithm will be used

     bravais-lattice index     =            0
     lattice parameter (alat)  =       8.5346  a.u.
     unit-cell volume          =     621.6493 (a.u.)^3
     number of atoms/cell      =            8
     number of atomic types    =            2
     number of electrons       =       148.00
     number of Kohn-Sham states=           89
     kinetic-energy cutoff     =      40.0000  Ry
     charge density cutoff     =     160.0000  Ry
     convergence threshold     =      1.0E-04
     mixing beta               =       0.7000
     number of iterations used =            8  plain     mixing
     Exchange-correlation      = SLA-PZ-NOGX-NOGC ( 1 1 0 0 0)
     EXX-fraction              =        0.00
     nstep                     =           50

     celldm(1)=   8.534573  celldm(2)=   0.000000  celldm(3)=   0.000000
     celldm(4)=   0.000000  celldm(5)=   0.000000  celldm(6)=   0.000000

     crystal axes: (cart. coord. in units of alat)
               a(1) = (   1.000000   0.000000   0.000000 )
               a(2) = (   0.000000   1.000000   0.000000 )
               a(3) = (   0.000000   0.000000   1.000000 )

     reciprocal axes: (cart. coord. in units 2 pi/alat)
               b(1) = (  1.000000  0.000000  0.000000 )
               b(2) = (  0.000000  1.000000  0.000000 )
               b(3) = (  0.000000  0.000000  1.000000 )

     PseudoPot. # 1 for Dy read from file:
     /home/cwx6513/pp.La/Dy.UPF
     MD5 check sum: 9597327bec62616a94a14d07f3fd9936
     Pseudo is Norm-conserving, Zval = 20.0
     Generated in analytical, separable form
     Using radial grid of 1265 points,  6 beta functions with:
                l(1) =   0
                l(2) =   0
                l(3) =   1
                l(4) =   1
                l(5) =   2
                l(6) =   3

     PseudoPot. # 2 for Nd read from file:
     /home/cwx6513/pp.La/Nd.UPF
     MD5 check sum: c66c5b6abe7b5840ced9b1e244e3bed6
     Pseudo is Norm-conserving, Zval = 14.0
     Generated in analytical, separable form
     Using radial grid of 1257 points,  6 beta functions with:
                l(1) =   0
                l(2) =   0
                l(3) =   1
                l(4) =   1
                l(5) =   2
                l(6) =   3

     atomic species   valence    mass     pseudopotential
        Cr            20.00    51.99610     Dy( 1.00)
        Si            14.00    28.08550     Nd( 1.00)

     48 Sym. Ops., with inversion, found (24 have fractional translation)

   Cartesian axes

     site n.     atom                  positions (alat units)
         1           Cr  tau(   1) = (   0.0000000   0.5000000   0.2500000  )
         2           Cr  tau(   2) = (   0.0000000   0.5000000   0.7500000  )
         3           Cr  tau(   3) = (   0.5000000   0.7500000   0.0000000  )
         4           Cr  tau(   4) = (   0.5000000   0.2500000   0.0000000  )
         5           Cr  tau(   5) = (   0.7500000   0.0000000   0.5000000  )
         6           Cr  tau(   6) = (   0.2500000   0.0000000   0.5000000  )
         7           Si  tau(   7) = (   0.5000000   0.5000000   0.5000000  )
         8           Si  tau(   8) = (   0.0000000   0.0000000   0.0000000  )

     number of k points=    48  gaussian smearing, width (Ry)=  0.1000
                       cart. coord. in units 2pi/alat
        k(    1) = (   0.0000000   0.0000000   0.0000000), wk =   0.0095238
        k(    2) = (   0.0000000   0.0000000   0.1428571), wk =   0.0190476
        k(    3) = (   0.0000000   0.0000000   0.2857143), wk =   0.0190476
        k(    4) = (   0.0000000   0.0000000   0.4285714), wk =   0.0190476
        k(    5) = (   0.0000000   0.1666667   0.0000000), wk =   0.0190476
        k(    6) = (   0.0000000   0.1666667   0.1428571), wk =   0.0380952
        k(    7) = (   0.0000000   0.1666667   0.2857143), wk =   0.0380952
        k(    8) = (   0.0000000   0.1666667   0.4285714), wk =   0.0380952
        k(    9) = (   0.0000000   0.3333333   0.0000000), wk =   0.0190476
        k(   10) = (   0.0000000   0.3333333   0.1428571), wk =   0.0380952
        k(   11) = (   0.0000000   0.3333333   0.2857143), wk =   0.0380952
        k(   12) = (   0.0000000   0.3333333   0.4285714), wk =   0.0380952
        k(   13) = (   0.0000000  -0.5000000   0.0000000), wk =   0.0095238
        k(   14) = (   0.0000000  -0.5000000   0.1428571), wk =   0.0190476
        k(   15) = (   0.0000000  -0.5000000   0.2857143), wk =   0.0190476
        k(   16) = (   0.0000000  -0.5000000   0.4285714), wk =   0.0190476
        k(   17) = (   0.2000000   0.0000000   0.0000000), wk =   0.0190476
        k(   18) = (   0.2000000   0.0000000   0.1428571), wk =   0.0380952
        k(   19) = (   0.2000000   0.0000000   0.2857143), wk =   0.0380952
        k(   20) = (   0.2000000   0.0000000   0.4285714), wk =   0.0380952
        k(   21) = (   0.2000000   0.1666667   0.0000000), wk =   0.0380952
        k(   22) = (   0.2000000   0.1666667   0.1428571), wk =   0.0761905
        k(   23) = (   0.2000000   0.1666667   0.2857143), wk =   0.0761905
        k(   24) = (   0.2000000   0.1666667   0.4285714), wk =   0.0761905
        k(   25) = (   0.2000000   0.3333333   0.0000000), wk =   0.0380952
        k(   26) = (   0.2000000   0.3333333   0.1428571), wk =   0.0761905
        k(   27) = (   0.2000000   0.3333333   0.2857143), wk =   0.0761905
        k(   28) = (   0.2000000   0.3333333   0.4285714), wk =   0.0761905
        k(   29) = (   0.2000000  -0.5000000   0.0000000), wk =   0.0190476
        k(   30) = (   0.2000000  -0.5000000   0.1428571), wk =   0.0380952
        k(   31) = (   0.2000000  -0.5000000   0.2857143), wk =   0.0380952
        k(   32) = (   0.2000000  -0.5000000   0.4285714), wk =   0.0380952
        k(   33) = (   0.4000000   0.0000000   0.0000000), wk =   0.0190476
        k(   34) = (   0.4000000   0.0000000   0.1428571), wk =   0.0380952
        k(   35) = (   0.4000000   0.0000000   0.2857143), wk =   0.0380952
        k(   36) = (   0.4000000   0.0000000   0.4285714), wk =   0.0380952
        k(   37) = (   0.4000000   0.1666667   0.0000000), wk =   0.0380952
        k(   38) = (   0.4000000   0.1666667   0.1428571), wk =   0.0761905
        k(   39) = (   0.4000000   0.1666667   0.2857143), wk =   0.0761905
        k(   40) = (   0.4000000   0.1666667   0.4285714), wk =   0.0761905
        k(   41) = (   0.4000000   0.3333333   0.0000000), wk =   0.0380952
        k(   42) = (   0.4000000   0.3333333   0.1428571), wk =   0.0761905
        k(   43) = (   0.4000000   0.3333333   0.2857143), wk =   0.0761905
        k(   44) = (   0.4000000   0.3333333   0.4285714), wk =   0.0761905
        k(   45) = (   0.4000000  -0.5000000   0.0000000), wk =   0.0190476
        k(   46) = (   0.4000000  -0.5000000   0.1428571), wk =   0.0380952
        k(   47) = (   0.4000000  -0.5000000   0.2857143), wk =   0.0380952
        k(   48) = (   0.4000000  -0.5000000   0.4285714), wk =   0.0380952

     Largest allocated arrays     est. size (Mb)     dimensions
     Largest temporary arrays     est. size (Mb)     dimensions

     Initial potential from superposition of free atoms

     Starting from uniform charge
     Starting wfc are    0 randomized atomic wfcs

     Self-consistent Calculation

     iteration #  1     ecut=    40.00 Ry     beta=0.70
     CG style diagonalization
     c_bands:  4 eigenvalues not converged
     c_bands:  1 eigenvalues not converged
     ethr =  1.00E-02,  avg # of iterations = 16.3

     total energy              =   -1466.52211270 Ry
     Harris-Foulkes estimate   =   -2038.10957739 Ry
     estimated scf accuracy    <     714.14545882 Ry

[...]

     iteration #  4     ecut=    40.00 Ry     beta=0.70
     CG style diagonalization
     ethr =  1.00E-02,  avg # of iterations =  3.8

[...]

     End of self-consistent calculation

          k = 0.0000 0.0000 0.0000 (  2601 PWs)   bands (ev):

   -39.3667 -39.2514 -39.2514 -38.6168 -38.6168 -38.6168  -8.7652  -8.7652
    -8.5604  -6.7892  -6.7892  -6.7892  -5.9244  -5.9244  -5.9244  -5.8909
    -5.8909  -5.8909  -5.6461  -5.6461  -5.6461  -4.6491  -4.6491  -4.6491
    -1.3739  -1.2203  18.7386  18.7386  18.7386  18.9341  18.9341  18.9341
    28.3087  28.3087  28.5075  29.4065  29.4065  29.4065  31.1139  32.3745
    32.3938  32.3938  32.3938  32.6491  32.6491  33.6863  33.6863  33.6863
    34.0968  35.9833  35.9833  35.9833  37.7015  37.7015  37.7015  37.7382
    37.7382  37.7382  37.7404  37.7404  38.0959  38.0959  38.0959  38.6753
    38.6754  43.0645  43.0645  43.0645  43.9744  43.9744  45.8234  45.8234
    45.8234  47.1019  47.1019  47.1019  51.2419  51.2418  51.2419  51.5969
    51.5970  51.5969  52.9416  53.2153  54.2512  54.2512  55.6771  55.6775
    55.6776

[...]

     the Fermi energy is    47.5308 ev

!    total energy              =   -1776.44489750 Ry
     Harris-Foulkes estimate   =   -1776.44490159 Ry
     estimated scf accuracy    <       0.00000723 Ry

     The total energy is the sum of the following terms:

     one-electron contribution =     114.68430624 Ry
     hartree contribution      =     155.59358343 Ry
     xc contribution           =    -178.94874639 Ry
     ewald contribution        =   -1867.58087701 Ry
     smearing contrib. (-TS)   =      -0.19316377 Ry

     convergence has been achieved in   8 iterations

     Forces acting on atoms (Ry/au):

     atom    1 type  1   force =     0.00000000    0.00000000    0.00000000
     atom    2 type  1   force =     0.00000000    0.00000000    0.00000000
     atom    3 type  1   force =     0.00000000    0.00000000    0.00000000
     atom    4 type  1   force =     0.00000000    0.00000000    0.00000000
     atom    5 type  1   force =     0.00000000    0.00000000    0.00000000
     atom    6 type  1   force =     0.00000000    0.00000000    0.00000000
     atom    7 type  2   force =     0.00000000    0.00000000    0.00000000
     atom    8 type  2   force =     0.00000000    0.00000000    0.00000000

     Total force =     0.000000     Total SCF correction =     0.000000

     entering subroutine stress ...

          total   stress  (Ry/bohr**3)                   (kbar)     P= 5359.34
   0.03643206   0.00000000   0.00000000       5359.34      0.00      0.00
   0.00000000   0.03643206   0.00000000          0.00   5359.34      0.00
   0.00000000   0.00000000   0.03643206          0.00      0.00   5359.34

     BFGS Geometry Optimization

     number of scf cycles    =   1
     number of bfgs steps    =   0

     enthalpy new            =   -1776.4448974998 Ry

     new trust radius        =       0.5000000000 bohr
     new conv_thr            =       0.0001000000 Ry

     new unit-cell volume =    828.02266 a.u.^3 (   122.70030 Ang^3 )

[...]

     CASE: enthalpy_new < enthalpy_old

     small trust_radius: resetting bfgs history

     new trust radius        =       0.8666146734 bohr
     new conv_thr            =       0.0000010000 Ry

[...]

          total   stress  (Ry/bohr**3)                   (kbar)     P=-1286.88
  -0.00874800   0.00000000   0.00000000      -1286.88      0.00      0.00
   0.00000000  -0.00874800   0.00000000          0.00  -1286.88      0.00
   0.00000000   0.00000000  -0.00874800          0.00      0.00  -1286.88

     number of scf cycles    =   3
     number of bfgs steps    =   2

     enthalpy old            =   -1780.2467732055 Ry
     enthalpy new            =   -1778.6723754365 Ry

     CASE: enthalpy_new > enthalpy_old

     new trust radius        =       0.2736009108 bohr

     trust_radius < trust_radius_min

     resetting bfgs history

     Message from routine bfgs:
     history already reset at previous step: stopping
     new conv_thr            =       0.0000010000 Ry

     new unit-cell volume =   1045.95663 a.u.^3 (   154.99478 Ang^3 )

[...]

ATOMIC_POSITIONS (crystal)
Cr       0.000000000   0.500000000   0.250000000
Cr       0.000000000   0.500000000   0.750000000
Cr       0.500000000   0.750000000   0.000000000
Cr       0.500000000   0.250000000   0.000000000
Cr       0.750000000   0.000000000   0.500000000
Cr       0.250000000   0.000000000   0.500000000
Si       0.500000000   0.500000000   0.500000000
Si       0.000000000   0.000000000   0.000000000

     Writing output data file Prototype-La-cP8-Cr3Si.save
     NEW-OLD atomic charge density approx. for the potential
     NEW k-points:
        k(    1) = (   0.0000000   0.0000000   0.0000000), wk =   0.0095238
        k(    2) = (   0.0000000   0.0000000   0.1201100), wk =   0.0190476
        k(    3) = (   0.0000000   0.0000000   0.2402200), wk =   0.0190476
        k(    4) = (   0.0000000   0.0000000   0.3603300), wk =   0.0190476
        k(    5) = (   0.0000000   0.1401283   0.0000000), wk =   0.0190476
        k(    6) = (   0.0000000   0.1401283   0.1201100), wk =   0.0380952
        k(    7) = (   0.0000000   0.1401283   0.2402200), wk =   0.0380952
        k(    8) = (   0.0000000   0.1401283   0.3603300), wk =   0.0380952
        k(    9) = (   0.0000000   0.2802567   0.0000000), wk =   0.0190476
        k(   10) = (   0.0000000   0.2802567   0.1201100), wk =   0.0380952
        k(   11) = (   0.0000000   0.2802567   0.2402200), wk =   0.0380952
        k(   12) = (   0.0000000   0.2802567   0.3603300), wk =   0.0380952
        k(   13) = (   0.0000000  -0.4203850   0.0000000), wk =   0.0095238
        k(   14) = (   0.0000000  -0.4203850   0.1201100), wk =   0.0190476
        k(   15) = (   0.0000000  -0.4203850   0.2402200), wk =   0.0190476
        k(   16) = (   0.0000000  -0.4203850   0.3603300), wk =   0.0190476
        k(   17) = (   0.1681540   0.0000000   0.0000000), wk =   0.0190476
        k(   18) = (   0.1681540   0.0000000   0.1201100), wk =   0.0380952
        k(   19) = (   0.1681540   0.0000000   0.2402200), wk =   0.0380952
        k(   20) = (   0.1681540   0.0000000   0.3603300), wk =   0.0380952
        k(   21) = (   0.1681540   0.1401283   0.0000000), wk =   0.0380952
        k(   22) = (   0.1681540   0.1401283   0.1201100), wk =   0.0761905
        k(   23) = (   0.1681540   0.1401283   0.2402200), wk =   0.0761905
        k(   24) = (   0.1681540   0.1401283   0.3603300), wk =   0.0761905
        k(   25) = (   0.1681540   0.2802567   0.0000000), wk =   0.0380952
        k(   26) = (   0.1681540   0.2802567   0.1201100), wk =   0.0761905
        k(   27) = (   0.1681540   0.2802567   0.2402200), wk =   0.0761905
        k(   28) = (   0.1681540   0.2802567   0.3603300), wk =   0.0761905
        k(   29) = (   0.1681540  -0.4203850   0.0000000), wk =   0.0190476
        k(   30) = (   0.1681540  -0.4203850   0.1201100), wk =   0.0380952
        k(   31) = (   0.1681540  -0.4203850   0.2402200), wk =   0.0380952
        k(   32) = (   0.1681540  -0.4203850   0.3603300), wk =   0.0380952
        k(   33) = (   0.3363080   0.0000000   0.0000000), wk =   0.0190476
        k(   34) = (   0.3363080   0.0000000   0.1201100), wk =   0.0380952
        k(   35) = (   0.3363080   0.0000000   0.2402200), wk =   0.0380952
        k(   36) = (   0.3363080   0.0000000   0.3603300), wk =   0.0380952
        k(   37) = (   0.3363080   0.1401283   0.0000000), wk =   0.0380952
        k(   38) = (   0.3363080   0.1401283   0.1201100), wk =   0.0761905
        k(   39) = (   0.3363080   0.1401283   0.2402200), wk =   0.0761905
        k(   40) = (   0.3363080   0.1401283   0.3603300), wk =   0.0761905
        k(   41) = (   0.3363080   0.2802567   0.0000000), wk =   0.0380952
        k(   42) = (   0.3363080   0.2802567   0.1201100), wk =   0.0761905
        k(   43) = (   0.3363080   0.2802567   0.2402200), wk =   0.0761905
        k(   44) = (   0.3363080   0.2802567   0.3603300), wk =   0.0761905
        k(   45) = (   0.3363080  -0.4203850   0.0000000), wk =   0.0190476
        k(   46) = (   0.3363080  -0.4203850   0.1201100), wk =   0.0380952
        k(   47) = (   0.3363080  -0.4203850   0.2402200), wk =   0.0380952
        k(   48) = (   0.3363080  -0.4203850   0.3603300), wk =   0.0380952

[...]

     The maximum number of steps has been reached.

     End of BFGS Geometry Optimization
Begin final coordinates
     new unit-cell volume =   1045.95663 a.u.^3 (   154.99478 Ang^3 )

CELL_PARAMETERS (alat=  8.53457320)
   1.189385808   0.000000000   0.000000000
   0.000000000   1.189385808   0.000000000
   0.000000000   0.000000000   1.189385808

ATOMIC_POSITIONS (crystal)
Cr       0.000000000   0.500000000   0.250000000
Cr       0.000000000   0.500000000   0.750000000
Cr       0.500000000   0.750000000   0.000000000
Cr       0.500000000   0.250000000   0.000000000
Cr       0.750000000   0.000000000   0.500000000
Cr       0.250000000   0.000000000   0.500000000
Si       0.500000000   0.500000000   0.500000000
Si       0.000000000   0.000000000   0.000000000
End final coordinates

     A final scf calculation at the relaxed structure.
     The G-vectors are recalculated for the final unit cell
     Results may differ from those at the preceding step.

     bravais-lattice index     =            0
     lattice parameter (alat)  =       8.5346  a.u.
     unit-cell volume          =    1045.9566 (a.u.)^3
     number of atoms/cell      =            8
     number of atomic types    =            2
     number of electrons       =       148.00
     number of Kohn-Sham states=           89
     kinetic-energy cutoff     =      40.0000  Ry
     charge density cutoff     =     160.0000  Ry
     convergence threshold     =      1.0E-06
     mixing beta               =       0.7000
     number of iterations used =            8  plain     mixing
     Exchange-correlation      = SLA-PZ-NOGX-NOGC ( 1 1 0 0 0)
     EXX-fraction              =        0.00

     celldm(1)=   8.534573  celldm(2)=   0.000000  celldm(3)=   0.000000
     celldm(4)=   0.000000  celldm(5)=   0.000000  celldm(6)=   0.000000

     crystal axes: (cart. coord. in units of alat)
               a(1) = (   1.189386   0.000000   0.000000 )
               a(2) = (   0.000000   1.189386   0.000000 )
               a(3) = (   0.000000   0.000000   1.189386 )

     reciprocal axes: (cart. coord. in units 2 pi/alat)
               b(1) = (  0.840770  0.000000  0.000000 )
               b(2) = (  0.000000  0.840770  0.000000 )
               b(3) = (  0.000000  0.000000  0.840770 )

     PseudoPot. # 1 for Dy read from file:
     /home/cwx6513/pp.La/Dy.UPF
     MD5 check sum: 9597327bec62616a94a14d07f3fd9936
     Pseudo is Norm-conserving, Zval = 20.0
     Generated in analytical, separable form
     Using radial grid of 1265 points,  6 beta functions with:
                l(1) =   0
                l(2) =   0
                l(3) =   1
                l(4) =   1
                l(5) =   2
                l(6) =   3

     PseudoPot. # 2 for Nd read from file:
     /home/cwx6513/pp.La/Nd.UPF
     MD5 check sum: c66c5b6abe7b5840ced9b1e244e3bed6
     Pseudo is Norm-conserving, Zval = 14.0
     Generated in analytical, separable form
     Using radial grid of 1257 points,  6 beta functions with:
                l(1) =   0
                l(2) =   0
                l(3) =   1
                l(4) =   1
                l(5) =   2
                l(6) =   3

     atomic species   valence    mass     pseudopotential
        Cr            20.00    51.99610     Dy( 1.00)
        Si            14.00    28.08550     Nd( 1.00)

     48 Sym. Ops., with inversion, found (24 have fractional translation)

   Cartesian axes

     site n.     atom                  positions (alat units)
         1           Cr  tau(   1) = (   0.0000000   0.5946929   0.2973465  )
         2           Cr  tau(   2) = (   0.0000000   0.5946929   0.8920394  )
         3           Cr  tau(   3) = (   0.5946929   0.8920394   0.0000000  )
         4           Cr  tau(   4) = (   0.5946929   0.2973465   0.0000000  )
         5           Cr  tau(   5) = (   0.8920394   0.0000000   0.5946929  )
         6           Cr  tau(   6) = (   0.2973465   0.0000000   0.5946929  )
         7           Si  tau(   7) = (   0.5946929   0.5946929   0.5946929  )
         8           Si  tau(   8) = (   0.0000000   0.0000000   0.0000000  )

     number of k points=    48  gaussian smearing, width (Ry)=  0.1000
                       cart. coord. in units 2pi/alat
        k(    1) = (   0.0000000   0.0000000   0.0000000), wk =   0.0095238
        k(    2) = (   0.0000000   0.0000000   0.1201100), wk =   0.0190476
        k(    3) = (   0.0000000   0.0000000   0.2402200), wk =   0.0190476
        k(    4) = (   0.0000000   0.0000000   0.3603300), wk =   0.0190476
        k(    5) = (   0.0000000   0.1401283   0.0000000), wk =   0.0190476
        k(    6) = (   0.0000000   0.1401283   0.1201100), wk =   0.0380952
        k(    7) = (   0.0000000   0.1401283   0.2402200), wk =   0.0380952
        k(    8) = (   0.0000000   0.1401283   0.3603300), wk =   0.0380952
        k(    9) = (   0.0000000   0.2802567   0.0000000), wk =   0.0190476
        k(   10) = (   0.0000000   0.2802567   0.1201100), wk =   0.0380952
        k(   11) = (   0.0000000   0.2802567   0.2402200), wk =   0.0380952
        k(   12) = (   0.0000000   0.2802567   0.3603300), wk =   0.0380952
        k(   13) = (   0.0000000  -0.4203850   0.0000000), wk =   0.0095238
        k(   14) = (   0.0000000  -0.4203850   0.1201100), wk =   0.0190476
        k(   15) = (   0.0000000  -0.4203850   0.2402200), wk =   0.0190476
        k(   16) = (   0.0000000  -0.4203850   0.3603300), wk =   0.0190476
        k(   17) = (   0.1681540   0.0000000   0.0000000), wk =   0.0190476
        k(   18) = (   0.1681540   0.0000000   0.1201100), wk =   0.0380952
        k(   19) = (   0.1681540   0.0000000   0.2402200), wk =   0.0380952
        k(   20) = (   0.1681540   0.0000000   0.3603300), wk =   0.0380952
        k(   21) = (   0.1681540   0.1401283   0.0000000), wk =   0.0380952
        k(   22) = (   0.1681540   0.1401283   0.1201100), wk =   0.0761905
        k(   23) = (   0.1681540   0.1401283   0.2402200), wk =   0.0761905
        k(   24) = (   0.1681540   0.1401283   0.3603300), wk =   0.0761905
        k(   25) = (   0.1681540   0.2802567   0.0000000), wk =   0.0380952
        k(   26) = (   0.1681540   0.2802567   0.1201100), wk =   0.0761905
        k(   27) = (   0.1681540   0.2802567   0.2402200), wk =   0.0761905
        k(   28) = (   0.1681540   0.2802567   0.3603300), wk =   0.0761905
        k(   29) = (   0.1681540  -0.4203850   0.0000000), wk =   0.0190476
        k(   30) = (   0.1681540  -0.4203850   0.1201100), wk =   0.0380952
        k(   31) = (   0.1681540  -0.4203850   0.2402200), wk =   0.0380952
        k(   32) = (   0.1681540  -0.4203850   0.3603300), wk =   0.0380952
        k(   33) = (   0.3363080   0.0000000   0.0000000), wk =   0.0190476
        k(   34) = (   0.3363080   0.0000000   0.1201100), wk =   0.0380952
        k(   35) = (   0.3363080   0.0000000   0.2402200), wk =   0.0380952
        k(   36) = (   0.3363080   0.0000000   0.3603300), wk =   0.0380952
        k(   37) = (   0.3363080   0.1401283   0.0000000), wk =   0.0380952
        k(   38) = (   0.3363080   0.1401283   0.1201100), wk =   0.0761905
        k(   39) = (   0.3363080   0.1401283   0.2402200), wk =   0.0761905
        k(   40) = (   0.3363080   0.1401283   0.3603300), wk =   0.0761905
        k(   41) = (   0.3363080   0.2802567   0.0000000), wk =   0.0380952
        k(   42) = (   0.3363080   0.2802567   0.1201100), wk =   0.0761905
        k(   43) = (   0.3363080   0.2802567   0.2402200), wk =   0.0761905
        k(   44) = (   0.3363080   0.2802567   0.3603300), wk =   0.0761905
        k(   45) = (   0.3363080  -0.4203850   0.0000000), wk =   0.0190476
        k(   46) = (   0.3363080  -0.4203850   0.1201100), wk =   0.0380952
        k(   47) = (   0.3363080  -0.4203850   0.2402200), wk =   0.0380952
        k(   48) = (   0.3363080  -0.4203850   0.3603300), wk =   0.0380952

     Largest allocated arrays     est. size (Mb)     dimensions
     Largest temporary arrays     est. size (Mb)     dimensions

     Initial potential from superposition of free atoms

     Starting from uniform charge
     Starting wfc are    0 randomized atomic wfcs

     Writing output data file Prototype-La-cP8-Cr3Si.save

     Self-consistent Calculation

[...]

     iteration # 10     ecut=    40.00 Ry     beta=0.70
     CG style diagonalization
     c_bands:  1 eigenvalues not converged
     ethr =  9.17E-07,  avg # of iterations =  3.2

[...]

     total energy              =   -1783.68844118 Ry
     Harris-Foulkes estimate   =   -1783.68844256 Ry
     estimated scf accuracy    <       0.00000233 Ry

     iteration # 13     ecut=    40.00 Ry     beta=0.70
     CG style diagonalization
     ethr =  1.45E-09,  avg # of iterations =  3.6

     End of self-consistent calculation

[...]

          k = 0.3363-0.4204 0.3603 (  4488 PWs)   bands (ev):

   -56.9223 -56.9182 -56.9102 -56.9099 -56.9016 -56.8980 -24.1146 -24.0824
   -23.9933 -23.9927 -23.8973 -23.8647 -23.8555 -23.8553 -23.7953 -23.7900
   -23.7820 -23.7776 -23.7706 -23.7651 -23.7559 -23.7519 -23.7457 -23.7445
   -21.3247 -21.3247   0.1038   0.1045   0.1115   0.1115   0.1160   0.1164
    15.9594  15.9648  15.9889  16.0504  16.0632  16.1463  16.2051  16.2189
    16.4242  16.4335  16.5008  16.5474  16.6023  16.6027  16.7014  16.7049
    17.2436  17.2470  17.3078  17.3180  17.4091  17.4187  17.7568  17.9028
    18.0215  18.0726  18.1587  18.1758  18.2622  18.2824  21.0402  21.0448
    21.6133  21.6246  21.9327  21.9922  24.3684  24.3686  25.8598  25.8676
    25.8893  25.8971  26.5435  26.6820  27.0671  27.0948  27.4795  27.6023
    31.1960  31.4934  32.3766  32.3911  33.3741  33.8238  34.5244  34.5490
    35.0134

     the Fermi energy is    26.2702 ev

!    total energy              =   -1783.68844160 Ry
     Harris-Foulkes estimate   =   -1783.68844222 Ry
     estimated scf accuracy    <       0.00000067 Ry

     The total energy is the sum of the following terms:

     one-electron contribution =    -305.82028930 Ry
     hartree contribution      =     263.40972510 Ry
     xc contribution           =    -170.70638186 Ry
     ewald contribution        =   -1570.20612217 Ry
     smearing contrib. (-TS)   =      -0.36537338 Ry

     convergence has been achieved in  13 iterations

     Forces acting on atoms (Ry/au):

     atom    1 type  1   force =     0.00000000    0.00000000    0.00000000
     atom    2 type  1   force =     0.00000000    0.00000000    0.00000000
     atom    3 type  1   force =     0.00000000    0.00000000    0.00000000
     atom    4 type  1   force =     0.00000000    0.00000000    0.00000000
     atom    5 type  1   force =     0.00000000    0.00000000    0.00000000
     atom    6 type  1   force =     0.00000000    0.00000000    0.00000000
     atom    7 type  2   force =     0.00000000    0.00000000    0.00000000
     atom    8 type  2   force =     0.00000000    0.00000000    0.00000000

     Total force =     0.000000     Total SCF correction =     0.000000

     entering subroutine stress ...

          total   stress  (Ry/bohr**3)                   (kbar)     P=  171.94
   0.00116881   0.00000000   0.00000000        171.94      0.00      0.00
   0.00000000   0.00116881   0.00000000          0.00    171.94      0.00
   0.00000000   0.00000000   0.00116881          0.00      0.00    171.94

     Writing output data file Prototype-La-cP8-Cr3Si.save

     General routines

     Parallel routines

   This run was terminated on:   4: 9:13  23Mar2018

   JOB DONE.