     Program PWSCF v.5.0.2 starts on 22Mar2018 at 17:31: 4

     Current dimensions of program PWSCF are:
     Max number of different atomic species (ntypx) = 10
     Max number of k-points (npk) =  40000
     Max angular momentum in pseudopotentials (lmaxx) =  3
     Waiting for input...
     Reading input from standard input

     Subspace diagonalization in iterative solution of the eigenvalue problem:
     a serial algorithm will be used

     bravais-lattice index     =            0
     lattice parameter (alat)  =       7.0151  a.u.
     unit-cell volume          =     862.2778 (a.u.)^3
     number of atoms/cell      =           12
     number of atomic types    =            2
     number of electrons       =       192.00
     number of Kohn-Sham states=          115
     kinetic-energy cutoff     =      40.0000  Ry
     charge density cutoff     =     160.0000  Ry
     convergence threshold     =      1.0E-04
     mixing beta               =       0.7000
     number of iterations used =            8  plain     mixing
     Exchange-correlation      = SLA-PZ-NOGX-NOGC ( 1 1 0 0 0)
     EXX-fraction              =        0.00
     nstep                     =           50

     celldm(1)=   7.015105  celldm(2)=   0.000000  celldm(3)=   0.000000
     celldm(4)=   0.000000  celldm(5)=   0.000000  celldm(6)=   0.000000

     crystal axes: (cart. coord. in units of alat)
               a(1) = (   1.000000   0.000000   0.000000 )
               a(2) = (   0.000000   1.315963   0.000000 )
               a(3) = (   0.000000   0.000000   1.898020 )

     reciprocal axes: (cart. coord. in units 2 pi/alat)
               b(1) = (  1.000000  0.000000  0.000000 )
               b(2) = (  0.000000  0.759900  0.000000 )
               b(3) = (  0.000000  0.000000  0.526865 )

     PseudoPot. # 1 for Nd read from file:
     /home/cwx6513/pp.La/Nd.UPF
     MD5 check sum: c66c5b6abe7b5840ced9b1e244e3bed6
     Pseudo is Norm-conserving, Zval = 14.0
     Generated in analytical, separable form
     Using radial grid of 1257 points,  6 beta functions with:
                l(1) =   0
                l(2) =   0
                l(3) =   1
                l(4) =   1
                l(5) =   2
                l(6) =   3

     PseudoPot. # 2 for Dy read from file:
     /home/cwx6513/pp.La/Dy.UPF
     MD5 check sum: 9597327bec62616a94a14d07f3fd9936
     Pseudo is Norm-conserving, Zval = 20.0
     Generated in analytical, separable form
     Using radial grid of 1265 points,  6 beta functions with:
                l(1) =   0
                l(2) =   0
                l(3) =   1
                l(4) =   1
                l(5) =   2
                l(6) =   3

     atomic species   valence    mass     pseudopotential
        Co            14.00    58.93320     Nd( 1.00)
        Si            20.00    28.08550     Dy( 1.00)

      8 Sym. Ops., with inversion, found ( 6 have fractional translation)

   Cartesian axes

     site n.     atom                  positions (alat units)
         1           Co  tau(   1) = (   0.7500000   1.0875135   0.8270358  )
         2           Co  tau(   2) = (   0.2500000   0.2284499   1.0709846  )
         3           Co  tau(   3) = (   0.7500000   0.4295318   0.1219744  )
         4           Co  tau(   4) = (   0.2500000   0.8864316   1.7760460  )
         5           Co  tau(   5) = (   0.2500000   0.7067855   0.5358966  )
         6           Co  tau(   6) = (   0.7500000   0.6091779   1.3621238  )
         7           Co  tau(   7) = (   0.2500000   0.0488038   0.4131136  )
         8           Co  tau(   8) = (   0.7500000   1.2671596   1.4849068  )
         9           Si  tau(   9) = (   0.2500000   0.2669484   1.6960710  )
        10           Si  tau(  10) = (   0.7500000   1.0490149   0.2019494  )
        11           Si  tau(  11) = (   0.2500000   0.9249301   1.1509596  )
        12           Si  tau(  12) = (   0.7500000   0.3910333   0.7470608  )

     number of k points=    12  gaussian smearing, width (Ry)=  0.1000
                       cart. coord. in units 2pi/alat
        k(    1) = (   0.0000000   0.0000000   0.0000000), wk =   0.0833333
        k(    2) = (   0.0000000   0.0000000   0.1317162), wk =   0.1666667
        k(    3) = (   0.0000000   0.0000000  -0.2634324), wk =   0.0833333
        k(    4) = (   0.0000000   0.2532999   0.0000000), wk =   0.1666667
        k(    5) = (   0.0000000   0.2532999   0.1317162), wk =   0.3333333
        k(    6) = (   0.0000000   0.2532999  -0.2634324), wk =   0.1666667
        k(    7) = (  -0.5000000   0.0000000   0.0000000), wk =   0.0833333
        k(    8) = (  -0.5000000   0.0000000   0.1317162), wk =   0.1666667
        k(    9) = (  -0.5000000   0.0000000  -0.2634324), wk =   0.0833333
        k(   10) = (  -0.5000000   0.2532999   0.0000000), wk =   0.1666667
        k(   11) = (  -0.5000000   0.2532999   0.1317162), wk =   0.3333333
        k(   12) = (  -0.5000000   0.2532999  -0.2634324), wk =   0.1666667

     Largest allocated arrays     est. size (Mb)     dimensions
     Largest temporary arrays     est. size (Mb)     dimensions

     Initial potential from superposition of free atoms

     Starting from uniform charge
     Starting wfc are    0 randomized atomic wfcs

     Self-consistent Calculation

     iteration #  1     ecut=    40.00 Ry     beta=0.70
     CG style diagonalization
     ethr =  1.00E-02,  avg # of iterations = 17.2

     total energy              =   -1267.03136946 Ry
     Harris-Foulkes estimate   =   -2219.61985234 Ry
     estimated scf accuracy    <    1158.19931294 Ry

     iteration #  2     ecut=    40.00 Ry     beta=0.70
     CG style diagonalization
     c_bands:  5 eigenvalues not converged
     c_bands:  5 eigenvalues not converged
     c_bands:  2 eigenvalues not converged
     c_bands:  3 eigenvalues not converged
     c_bands:  5 eigenvalues not converged
     c_bands:  5 eigenvalues not converged
     ethr =  1.00E-02,  avg # of iterations = 14.2

[...]

     End of self-consistent calculation

          k = 0.0000 0.0000 0.0000 (  3675 PWs)   bands (ev):

   -38.3986 -38.3763 -38.3750 -38.3727  -6.4987  -6.4970  -6.1700  -6.1447
    -6.1051  -6.0978  -6.0438  -5.9942  -5.9919  -5.8138  -5.6258  -5.5850
    -3.0536  -1.5927  -1.0662  -1.0092  -0.5786  -0.3141  -0.2545  -0.1276
    15.2595  16.0238  16.4636  16.9037  17.0859  17.1389  17.8380  18.0716
    18.6961  18.8506  18.8989  19.0220  19.1991  19.8346  20.2730  20.4293
    20.5525  20.7600  21.0007  21.5919  22.1525  22.5368  22.9829  23.4882
    31.0266  31.4602  32.1377  32.2702  32.3916  32.5032  32.6672  32.8753
    33.1902  33.7064  34.2772  34.3316  34.3376  35.5563  35.7184  35.8568
    35.9365  36.1273  36.7456  36.8533  37.2572  39.3864  40.1717  40.8467
    40.8519  41.6886  41.8192  41.9092  41.9593  42.4061  42.8231  42.8591
    43.0569  43.8963  44.1264  44.6593  44.6780  44.8838  44.9783  45.5574
    46.2836  46.7760  47.3084  47.3213  47.7738  47.9218  48.5645  49.3849
    50.1034  50.2098  50.3002  50.3145  50.8218  50.8665  51.9239  52.2533
    52.3106  52.8760  52.9177  52.9284  53.4692  53.8050  54.1255  54.1453
    55.2143  55.8137  56.3908

[...]

          k =-0.5000 0.0000 0.0000 (  3722 PWs)   bands (ev):

[...]

     the Fermi energy is    48.5301 ev

!    total energy              =   -1912.25439415 Ry
     Harris-Foulkes estimate   =   -1912.25439487 Ry
     estimated scf accuracy    <       0.00000099 Ry

     The total energy is the sum of the following terms:

     one-electron contribution =     331.83175257 Ry
     hartree contribution      =     133.81662030 Ry
     xc contribution           =    -217.29433572 Ry
     ewald contribution        =   -2160.24286413 Ry
     smearing contrib. (-TS)   =      -0.36556717 Ry

     convergence has been achieved in  11 iterations

     Forces acting on atoms (Ry/au):

     atom    1 type  1   force =     0.00000000   -0.07143521   -0.03983622
     atom    2 type  1   force =     0.00000000    0.07143521    0.03983622
     atom    3 type  1   force =     0.00000000   -0.07143521    0.03983622
     atom    4 type  1   force =     0.00000000    0.07143521   -0.03983622
     atom    5 type  1   force =     0.00000000    0.19199350   -0.30101216
     atom    6 type  1   force =     0.00000000   -0.19199350    0.30101216
     atom    7 type  1   force =     0.00000000    0.19199350    0.30101216
     atom    8 type  1   force =     0.00000000   -0.19199350   -0.30101216
     atom    9 type  2   force =     0.00000000   -0.17965906   -0.01923706
     atom   10 type  2   force =     0.00000000    0.17965906    0.01923706
     atom   11 type  2   force =     0.00000000   -0.17965906    0.01923706
     atom   12 type  2   force =     0.00000000    0.17965906   -0.01923706

     Total force =     0.816841     Total SCF correction =     0.000000

     entering subroutine stress ...

          total   stress  (Ry/bohr**3)                   (kbar)     P= 6779.47
   0.04988352   0.00000000   0.00000000       7338.12      0.00      0.00
   0.00000000   0.04311885   0.00000000          0.00   6343.00      0.00
   0.00000000   0.00000000   0.04525536          0.00      0.00   6657.29

     BFGS Geometry Optimization

     number of scf cycles    =   1
     number of bfgs steps    =   0

     enthalpy new            =   -1912.2543941484 Ry

     new trust radius        =       0.5000000000 bohr
     new conv_thr            =       0.0001000000 Ry

     new unit-cell volume =   1082.13680 a.u.^3 (   160.35613 Ang^3 )

CELL_PARAMETERS (alat=  7.01510508)
   1.085136619   0.000000000   0.000000000
   0.000000000   1.412806842   0.000000000
   0.000000000   0.000000000   2.044619111

ATOMIC_POSITIONS (crystal)
Co       0.750000000   0.825872733   0.435531750
Co       0.250000000   0.174127267   0.564468250
Co       0.750000000   0.325872733   0.064468250
Co       0.250000000   0.674127267   0.935531750
Co       0.250000000   0.538505802   0.280801636
Co       0.750000000   0.461494198   0.719198364
Co       0.250000000   0.038505802   0.219198364
Co       0.750000000   0.961494198   0.780801636
Si       0.250000000   0.201525412   0.893501367
Si       0.750000000   0.798474588   0.106498633
Si       0.250000000   0.701525412   0.606498633
Si       0.750000000   0.298474588   0.393501367

     Writing output data file Prototype-La-oP12-Co2Si.save
     NEW-OLD atomic charge density approx. for the potential
     NEW k-points:
        k(    1) = (   0.0000000   0.0000000   0.0000000), wk =   0.0833333
        k(    2) = (   0.0000000   0.0000000   0.1222722), wk =   0.1666667
        k(    3) = (   0.0000000   0.0000000  -0.2445443), wk =   0.0833333
        k(    4) = (   0.0000000   0.2359369   0.0000000), wk =   0.1666667
        k(    5) = (   0.0000000   0.2359369   0.1222722), wk =   0.3333333
        k(    6) = (   0.0000000   0.2359369  -0.2445443), wk =   0.1666667
        k(    7) = (  -0.4607715   0.0000000   0.0000000), wk =   0.0833333
        k(    8) = (  -0.4607715   0.0000000   0.1222722), wk =   0.1666667
        k(    9) = (  -0.4607715   0.0000000  -0.2445443), wk =   0.0833333
        k(   10) = (  -0.4607715   0.2359369   0.0000000), wk =   0.1666667
        k(   11) = (  -0.4607715   0.2359369   0.1222722), wk =   0.3333333
        k(   12) = (  -0.4607715   0.2359369  -0.2445443), wk =   0.1666667

[...]

     enthalpy old            =   -1912.2543941484 Ry
     enthalpy new            =   -1918.7812081806 Ry

     CASE: enthalpy_new < enthalpy_old

     small trust_radius: resetting bfgs history

     new trust radius        =       2.9966074349 bohr
     new conv_thr            =       0.0001000000 Ry

[...]

          total   stress  (Ry/bohr**3)                   (kbar)     P=-1595.30
  -0.01158804   0.00000000   0.00000000      -1704.66      0.00      0.00
   0.00000000  -0.01019759   0.00000000          0.00  -1500.12      0.00
   0.00000000   0.00000000  -0.01074827          0.00      0.00  -1581.12

     number of scf cycles    =   3
     number of bfgs steps    =   2

     enthalpy old            =   -1918.7812081806 Ry
     enthalpy new            =   -1906.0583656560 Ry

     CASE: enthalpy_new > enthalpy_old

     new trust radius        =       1.1142243103 bohr

     trust_radius < trust_radius_min

     resetting bfgs history

     Message from routine bfgs:
     history already reset at previous step: stopping
     new conv_thr            =       0.0001000000 Ry

     new unit-cell volume =   1277.97665 a.u.^3 (   189.37660 Ang^3 )

[...]

ATOMIC_POSITIONS (crystal)
Co       0.750000000   0.825310252   0.435472123
Co       0.250000000   0.174689748   0.564527877
Co       0.750000000   0.325310252   0.064527877
Co       0.250000000   0.674689748   0.935472123
Co       0.250000000   0.539716764   0.279673378
Co       0.750000000   0.460283236   0.720326622
Co       0.250000000   0.039716764   0.220326622
Co       0.750000000   0.960283236   0.779673378
Si       0.250000000   0.200477887   0.893549053
Si       0.750000000   0.799522113   0.106450947
Si       0.250000000   0.700477887   0.606450947
Si       0.750000000   0.299522113   0.393549053

     Writing output data file Prototype-La-oP12-Co2Si.save
     NEW-OLD atomic charge density approx. for the potential
     NEW k-points:
        k(    1) = (   0.0000000   0.0000000   0.0000000), wk =   0.0833333
        k(    2) = (   0.0000000   0.0000000   0.1157363), wk =   0.1666667
        k(    3) = (   0.0000000   0.0000000  -0.2314726), wk =   0.0833333
        k(    4) = (   0.0000000   0.2249196   0.0000000), wk =   0.1666667
        k(    5) = (   0.0000000   0.2249196   0.1157363), wk =   0.3333333
        k(    6) = (   0.0000000   0.2249196  -0.2314726), wk =   0.1666667
        k(    7) = (  -0.4323858   0.0000000   0.0000000), wk =   0.0833333
        k(    8) = (  -0.4323858   0.0000000   0.1157363), wk =   0.1666667
        k(    9) = (  -0.4323858   0.0000000  -0.2314726), wk =   0.0833333
        k(   10) = (  -0.4323858   0.2249196   0.0000000), wk =   0.1666667
        k(   11) = (  -0.4323858   0.2249196   0.1157363), wk =   0.3333333
        k(   12) = (  -0.4323858   0.2249196  -0.2314726), wk =   0.1666667

[...]

     The maximum number of steps has been reached.

     End of BFGS Geometry Optimization
Begin final coordinates
     new unit-cell volume =   1277.97665 a.u.^3 (   189.37660 Ang^3 )

CELL_PARAMETERS (alat=  7.01510508)
   1.156374790   0.000000000   0.000000000
   0.000000000   1.482010786   0.000000000
   0.000000000   0.000000000   2.160082799

ATOMIC_POSITIONS (crystal)
Co       0.750000000   0.825310252   0.435472123
Co       0.250000000   0.174689748   0.564527877
Co       0.750000000   0.325310252   0.064527877
Co       0.250000000   0.674689748   0.935472123
Co       0.250000000   0.539716764   0.279673378
Co       0.750000000   0.460283236   0.720326622
Co       0.250000000   0.039716764   0.220326622
Co       0.750000000   0.960283236   0.779673378
Si       0.250000000   0.200477887   0.893549053
Si       0.750000000   0.799522113   0.106450947
Si       0.250000000   0.700477887   0.606450947
Si       0.750000000   0.299522113   0.393549053
End final coordinates

     A final scf calculation at the relaxed structure.
     The G-vectors are recalculated for the final unit cell
     Results may differ from those at the preceding step.

     bravais-lattice index     =            0
     lattice parameter (alat)  =       7.0151  a.u.
     unit-cell volume          =    1277.9767 (a.u.)^3
     number of atoms/cell      =           12
     number of atomic types    =            2
     number of electrons       =       192.00
     number of Kohn-Sham states=          115
     kinetic-energy cutoff     =      40.0000  Ry
     charge density cutoff     =     160.0000  Ry
     convergence threshold     =      1.0E-04
     mixing beta               =       0.7000
     number of iterations used =            8  plain     mixing
     Exchange-correlation      = SLA-PZ-NOGX-NOGC ( 1 1 0 0 0)
     EXX-fraction              =        0.00

     celldm(1)=   7.015105  celldm(2)=   0.000000  celldm(3)=   0.000000
     celldm(4)=   0.000000  celldm(5)=   0.000000  celldm(6)=   0.000000

     crystal axes: (cart. coord. in units of alat)
               a(1) = (   1.156375   0.000000   0.000000 )
               a(2) = (   0.000000   1.482011   0.000000 )
               a(3) = (   0.000000   0.000000   2.160083 )

     reciprocal axes: (cart. coord. in units 2 pi/alat)
               b(1) = (  0.864772  0.000000  0.000000 )
               b(2) = (  0.000000  0.674759  0.000000 )
               b(3) = (  0.000000  0.000000  0.462945 )

     PseudoPot. # 1 for Nd read from file:
     /home/cwx6513/pp.La/Nd.UPF
     MD5 check sum: c66c5b6abe7b5840ced9b1e244e3bed6
     Pseudo is Norm-conserving, Zval = 14.0
     Generated in analytical, separable form
     Using radial grid of 1257 points,  6 beta functions with:
                l(1) =   0
                l(2) =   0
                l(3) =   1
                l(4) =   1
                l(5) =   2
                l(6) =   3

     PseudoPot. # 2 for Dy read from file:
     /home/cwx6513/pp.La/Dy.UPF
     MD5 check sum: 9597327bec62616a94a14d07f3fd9936
     Pseudo is Norm-conserving, Zval = 20.0
     Generated in analytical, separable form
     Using radial grid of 1265 points,  6 beta functions with:
                l(1) =   0
                l(2) =   0
                l(3) =   1
                l(4) =   1
                l(5) =   2
                l(6) =   3

     atomic species   valence    mass     pseudopotential
        Co            14.00    58.93320     Nd( 1.00)
        Si            20.00    28.08550     Dy( 1.00)

      8 Sym. Ops., with inversion, found ( 6 have fractional translation)

   Cartesian axes

     site n.     atom                  positions (alat units)
         1           Co  tau(   1) = (   0.8672811   1.2231187   0.9406558  )
         2           Co  tau(   2) = (   0.2890937   0.2588921   1.2194270  )
         3           Co  tau(   3) = (   0.8672811   0.4821133   0.1393856  )
         4           Co  tau(   4) = (   0.2890937   0.9998975   2.0206972  )
         5           Co  tau(   5) = (   0.2890937   0.7998661   0.6041177  )
         6           Co  tau(   6) = (   0.8672811   0.6821447   1.5559651  )
         7           Co  tau(   7) = (   0.2890937   0.0588607   0.4759237  )
         8           Co  tau(   8) = (   0.8672811   1.4231501   1.6841591  )
         9           Si  tau(   9) = (   0.2890937   0.2971104   1.9301399  )
        10           Si  tau(  10) = (   0.8672811   1.1849004   0.2299429  )
        11           Si  tau(  11) = (   0.2890937   1.0381158   1.3099843  )
        12           Si  tau(  12) = (   0.8672811   0.4438950   0.8500985  )

     number of k points=    12  gaussian smearing, width (Ry)=  0.1000
                       cart. coord. in units 2pi/alat
        k(    1) = (   0.0000000   0.0000000   0.0000000), wk =   0.0833333
        k(    2) = (   0.0000000   0.0000000   0.1157363), wk =   0.1666667
        k(    3) = (   0.0000000   0.0000000  -0.2314726), wk =   0.0833333
        k(    4) = (   0.0000000   0.2249196   0.0000000), wk =   0.1666667
        k(    5) = (   0.0000000   0.2249196   0.1157363), wk =   0.3333333
        k(    6) = (   0.0000000   0.2249196  -0.2314726), wk =   0.1666667
        k(    7) = (  -0.4323858   0.0000000   0.0000000), wk =   0.0833333
        k(    8) = (  -0.4323858   0.0000000   0.1157363), wk =   0.1666667
        k(    9) = (  -0.4323858   0.0000000  -0.2314726), wk =   0.0833333
        k(   10) = (  -0.4323858   0.2249196   0.0000000), wk =   0.1666667
        k(   11) = (  -0.4323858   0.2249196   0.1157363), wk =   0.3333333
        k(   12) = (  -0.4323858   0.2249196  -0.2314726), wk =   0.1666667

     Largest allocated arrays     est. size (Mb)     dimensions
     Largest temporary arrays     est. size (Mb)     dimensions

     Initial potential from superposition of free atoms

     Starting from uniform charge
     Starting wfc are    0 randomized atomic wfcs

     Writing output data file Prototype-La-oP12-Co2Si.save

     Self-consistent Calculation

[...]

     iteration # 10     ecut=    40.00 Ry     beta=0.70
     CG style diagonalization
     c_bands:  1 eigenvalues not converged
     ethr =  2.11E-06,  avg # of iterations =  4.1

     total energy              =   -1923.07300956 Ry
     Harris-Foulkes estimate   =   -1923.07319972 Ry
     estimated scf accuracy    <       0.00033763 Ry

     iteration # 11     ecut=    40.00 Ry     beta=0.70
     CG style diagonalization
     ethr =  1.76E-07,  avg # of iterations =  4.2

     End of self-consistent calculation

[...]

          k = 0.0000 0.2249-0.2315 (  5464 PWs)   bands (ev):

[...]

          k =-0.4324 0.2249-0.2315 (  5484 PWs)   bands (ev):

   -52.3264 -52.3264 -52.3257 -52.3257 -19.5168 -19.5168 -19.4869 -19.4869
   -19.4158 -19.4158 -19.4154 -19.4154 -19.2930 -19.2930 -19.2910 -19.2910
   -16.3680 -16.3680 -16.2180 -16.2180 -16.1368 -16.1368 -16.1013 -16.1013
     3.6364   3.6364   4.0049   4.0049   4.1010   4.1010   4.2921   4.2921
     4.3554   4.3554   5.0499   5.0499   5.3638   5.3638   5.5724   5.5724
     5.7606   5.7606   5.7657   5.7657   6.0319   6.0319   6.1276   6.1276
    20.5365  20.5365  20.6770  20.6770  20.7814  20.7814  20.9710  20.9710
    21.1754  21.1754  21.2556  21.2556  21.4930  21.4930  21.4992  21.4992
    21.9374  21.9374  22.0172  22.0172  24.8779  24.8779  25.5877  25.5877
    27.0234  27.0234  27.3208  27.3208  27.4493  27.4493  27.7015  27.7015
    27.7178  27.7178  28.7207  28.7207  28.8887  28.8887  29.5486  29.5486
    29.5724  29.5724  30.2336  30.2336  30.5645  30.5645  31.5241  31.5241
    31.5495  31.5495  32.0000  32.0000  32.7327  32.7327  33.6617  33.6617
    33.8256  33.8256  34.2107  34.2108  34.7961  34.7962  35.1305  35.1305
    36.9330  36.9333  37.6242

     the Fermi energy is    31.7403 ev

!    total energy              =   -1923.07313063 Ry
     Harris-Foulkes estimate   =   -1923.07313748 Ry
     estimated scf accuracy    <       0.00000879 Ry

     The total energy is the sum of the following terms:

     one-electron contribution =     -24.20909789 Ry
     hartree contribution      =     203.40452923 Ry
     xc contribution           =    -205.91062407 Ry
     ewald contribution        =   -1895.83219599 Ry
     smearing contrib. (-TS)   =      -0.52574191 Ry

     convergence has been achieved in  11 iterations

     Forces acting on atoms (Ry/au):

     atom    1 type  1   force =     0.00000000   -0.04301801   -0.00608014
     atom    2 type  1   force =     0.00000000    0.04301801    0.00608014
     atom    3 type  1   force =     0.00000000   -0.04301801    0.00608014
     atom    4 type  1   force =     0.00000000    0.04301801   -0.00608014
     atom    5 type  1   force =     0.00000000    0.07481355   -0.10978006
     atom    6 type  1   force =     0.00000000   -0.07481355    0.10978006
     atom    7 type  1   force =     0.00000000    0.07481355    0.10978006
     atom    8 type  1   force =     0.00000000   -0.07481355   -0.10978006
     atom    9 type  2   force =     0.00000000   -0.06245815   -0.01358857
     atom   10 type  2   force =     0.00000000    0.06245815    0.01358857
     atom   11 type  2   force =     0.00000000   -0.06245815    0.01358857
     atom   12 type  2   force =     0.00000000    0.06245815   -0.01358857

     Total force =     0.307388     Total SCF correction =     0.000000

     entering subroutine stress ...

          total   stress  (Ry/bohr**3)                   (kbar)     P= 1231.80
   0.00911305   0.00000000   0.00000000       1340.58      0.00      0.00
   0.00000000   0.00763138   0.00000000          0.00   1122.61      0.00
   0.00000000   0.00000000   0.00837640          0.00      0.00   1232.21

     Writing output data file Prototype-La-oP12-Co2Si.save

     General routines

     Parallel routines

   This run was terminated on:  17:51:44  22Mar2018

   JOB DONE.