     Program PWSCF v.5.0.2 starts on 22Mar2018 at 12:11:40

     Current dimensions of program PWSCF are:
     Max number of different atomic species (ntypx) = 10
     Max number of k-points (npk) =  40000
     Max angular momentum in pseudopotentials (lmaxx) =  3
     Waiting for input...
     Reading input from standard input

     Subspace diagonalization in iterative solution of the eigenvalue problem:
     a serial algorithm will be used

     bravais-lattice index     =            0
     lattice parameter (alat)  =       8.5346  a.u.
     unit-cell volume          =     621.6493 (a.u.)^3
     number of atoms/cell      =            8
     number of atomic types    =            2
     number of electrons       =       174.00
     number of Kohn-Sham states=          104
     kinetic-energy cutoff     =      40.0000  Ry
     charge density cutoff     =     160.0000  Ry
     convergence threshold     =      1.0E-04
     mixing beta               =       0.7000
     number of iterations used =            8  plain     mixing
     Exchange-correlation      = SLA-PZ-NOGX-NOGC ( 1 1 0 0 0)
     EXX-fraction              =        0.00
     nstep                     =           50

     celldm(1)=   8.534573  celldm(2)=   0.000000  celldm(3)=   0.000000
     celldm(4)=   0.000000  celldm(5)=   0.000000  celldm(6)=   0.000000

     crystal axes: (cart. coord. in units of alat)
               a(1) = (   1.000000   0.000000   0.000000 )
               a(2) = (   0.000000   1.000000   0.000000 )
               a(3) = (   0.000000   0.000000   1.000000 )

     reciprocal axes: (cart. coord. in units 2 pi/alat)
               b(1) = (  1.000000  0.000000  0.000000 )
               b(2) = (  0.000000  1.000000  0.000000 )
               b(3) = (  0.000000  0.000000  1.000000 )

     PseudoPot. # 1 for Yb read from file:
     /home/jld5415/pp.La/Yb.UPF
     MD5 check sum: 3e859b81cc28c53ec6aa3a2e888efcdf
     Pseudo is Norm-conserving, Zval = 24.0
     Generated in analytical, separable form
     Using radial grid of 1269 points,  6 beta functions with:
                l(1) =   0
                l(2) =   0
                l(3) =   1
                l(4) =   1
                l(5) =   2
                l(6) =   3

     PseudoPot. # 2 for Pm read from file:
     /home/jld5415/pp.La/Pm.UPF
     MD5 check sum: 0061344aafc48faba5d75831754de21b
     Pseudo is Norm-conserving, Zval = 15.0
     Generated in analytical, separable form
     Using radial grid of 1259 points,  6 beta functions with:
                l(1) =   0
                l(2) =   0
                l(3) =   1
                l(4) =   1
                l(5) =   2
                l(6) =   3

     atomic species   valence    mass     pseudopotential
        Cr            24.00    51.99610     Yb( 1.00)
        Si            15.00    28.08550     Pm( 1.00)

     48 Sym. Ops., with inversion, found (24 have fractional translation)

   Cartesian axes

     site n.     atom                  positions (alat units)
         1           Cr  tau(   1) = (   0.0000000   0.5000000   0.2500000  )
         2           Cr  tau(   2) = (   0.0000000   0.5000000   0.7500000  )
         3           Cr  tau(   3) = (   0.5000000   0.7500000   0.0000000  )
         4           Cr  tau(   4) = (   0.5000000   0.2500000   0.0000000  )
         5           Cr  tau(   5) = (   0.7500000   0.0000000   0.5000000  )
         6           Cr  tau(   6) = (   0.2500000   0.0000000   0.5000000  )
         7           Si  tau(   7) = (   0.5000000   0.5000000   0.5000000  )
         8           Si  tau(   8) = (   0.0000000   0.0000000   0.0000000  )

     number of k points=    48  gaussian smearing, width (Ry)=  0.1000
                       cart. coord. in units 2pi/alat
        k(    1) = (   0.0000000   0.0000000   0.0000000), wk =   0.0095238
        k(    2) = (   0.0000000   0.0000000   0.1428571), wk =   0.0190476
        k(    3) = (   0.0000000   0.0000000   0.2857143), wk =   0.0190476
        k(    4) = (   0.0000000   0.0000000   0.4285714), wk =   0.0190476
        k(    5) = (   0.0000000   0.1666667   0.0000000), wk =   0.0190476
        k(    6) = (   0.0000000   0.1666667   0.1428571), wk =   0.0380952
        k(    7) = (   0.0000000   0.1666667   0.2857143), wk =   0.0380952
        k(    8) = (   0.0000000   0.1666667   0.4285714), wk =   0.0380952
        k(    9) = (   0.0000000   0.3333333   0.0000000), wk =   0.0190476
        k(   10) = (   0.0000000   0.3333333   0.1428571), wk =   0.0380952
        k(   11) = (   0.0000000   0.3333333   0.2857143), wk =   0.0380952
        k(   12) = (   0.0000000   0.3333333   0.4285714), wk =   0.0380952
        k(   13) = (   0.0000000  -0.5000000   0.0000000), wk =   0.0095238
        k(   14) = (   0.0000000  -0.5000000   0.1428571), wk =   0.0190476
        k(   15) = (   0.0000000  -0.5000000   0.2857143), wk =   0.0190476
        k(   16) = (   0.0000000  -0.5000000   0.4285714), wk =   0.0190476
        k(   17) = (   0.2000000   0.0000000   0.0000000), wk =   0.0190476
        k(   18) = (   0.2000000   0.0000000   0.1428571), wk =   0.0380952
        k(   19) = (   0.2000000   0.0000000   0.2857143), wk =   0.0380952
        k(   20) = (   0.2000000   0.0000000   0.4285714), wk =   0.0380952
        k(   21) = (   0.2000000   0.1666667   0.0000000), wk =   0.0380952
        k(   22) = (   0.2000000   0.1666667   0.1428571), wk =   0.0761905
        k(   23) = (   0.2000000   0.1666667   0.2857143), wk =   0.0761905
        k(   24) = (   0.2000000   0.1666667   0.4285714), wk =   0.0761905
        k(   25) = (   0.2000000   0.3333333   0.0000000), wk =   0.0380952
        k(   26) = (   0.2000000   0.3333333   0.1428571), wk =   0.0761905
        k(   27) = (   0.2000000   0.3333333   0.2857143), wk =   0.0761905
        k(   28) = (   0.2000000   0.3333333   0.4285714), wk =   0.0761905
        k(   29) = (   0.2000000  -0.5000000   0.0000000), wk =   0.0190476
        k(   30) = (   0.2000000  -0.5000000   0.1428571), wk =   0.0380952
        k(   31) = (   0.2000000  -0.5000000   0.2857143), wk =   0.0380952
        k(   32) = (   0.2000000  -0.5000000   0.4285714), wk =   0.0380952
        k(   33) = (   0.4000000   0.0000000   0.0000000), wk =   0.0190476
        k(   34) = (   0.4000000   0.0000000   0.1428571), wk =   0.0380952
        k(   35) = (   0.4000000   0.0000000   0.2857143), wk =   0.0380952
        k(   36) = (   0.4000000   0.0000000   0.4285714), wk =   0.0380952
        k(   37) = (   0.4000000   0.1666667   0.0000000), wk =   0.0380952
        k(   38) = (   0.4000000   0.1666667   0.1428571), wk =   0.0761905
        k(   39) = (   0.4000000   0.1666667   0.2857143), wk =   0.0761905
        k(   40) = (   0.4000000   0.1666667   0.4285714), wk =   0.0761905
        k(   41) = (   0.4000000   0.3333333   0.0000000), wk =   0.0380952
        k(   42) = (   0.4000000   0.3333333   0.1428571), wk =   0.0761905
        k(   43) = (   0.4000000   0.3333333   0.2857143), wk =   0.0761905
        k(   44) = (   0.4000000   0.3333333   0.4285714), wk =   0.0761905
        k(   45) = (   0.4000000  -0.5000000   0.0000000), wk =   0.0190476
        k(   46) = (   0.4000000  -0.5000000   0.1428571), wk =   0.0380952
        k(   47) = (   0.4000000  -0.5000000   0.2857143), wk =   0.0380952
        k(   48) = (   0.4000000  -0.5000000   0.4285714), wk =   0.0380952

     Largest allocated arrays     est. size (Mb)     dimensions
     Largest temporary arrays     est. size (Mb)     dimensions

     Initial potential from superposition of free atoms

     Starting from uniform charge
     Starting wfc are    0 randomized atomic wfcs

     Self-consistent Calculation

     iteration #  1     ecut=    40.00 Ry     beta=0.70
     CG style diagonalization
     ethr =  1.00E-02,  avg # of iterations = 17.5

     total energy              =   -2085.54850467 Ry
     Harris-Foulkes estimate   =   -3312.66980888 Ry
     estimated scf accuracy    <    1498.33176966 Ry

     iteration #  2     ecut=    40.00 Ry     beta=0.70
     CG style diagonalization
     c_bands:  1 eigenvalues not converged
     c_bands:  4 eigenvalues not converged
     c_bands:  5 eigenvalues not converged
     c_bands:  3 eigenvalues not converged
     c_bands:  4 eigenvalues not converged
     c_bands:  2 eigenvalues not converged
     ethr =  1.00E-02,  avg # of iterations = 16.3

[...]

     End of self-consistent calculation

          k = 0.0000 0.0000 0.0000 (  2601 PWs)   bands (ev):

   -73.5534 -73.5534 -73.3213 -73.1575 -73.1575 -73.1575 -33.3774 -33.3774
   -33.3227 -32.3907 -32.3907 -32.3907 -32.2275 -32.2275 -32.2275 -32.1677
   -32.1677 -32.1677 -32.1297 -32.1297 -32.1297 -32.0527 -32.0527 -32.0527
    -2.6963  -2.6670  18.3141  18.3141  18.3141  18.5097  18.5097  18.5097
    20.0001  20.0222  20.0222  22.4231  22.4231  22.4231  23.4820  24.2524
    24.2524  24.3148  24.3148  24.3148  24.8314  24.8314  24.8314  24.9548
    25.7770  25.7770  25.7770  26.2873  26.2873  26.4696  26.4696  26.4696
    26.5106  26.5106  26.5106  27.8396  27.8396  27.8396  28.6364  34.4111
    34.4111  40.5359  40.5359  40.5359  40.6917  40.6917  41.9145  41.9145
    41.9145  43.3300  43.3300  43.3300  43.8246  46.2132  46.2132  46.2132
    50.2679  50.2679  50.2679  51.3826  51.3826  51.8641  51.8642  53.6623
    54.7286  54.7286  54.7286  55.9239  56.1202  56.1202  56.1203  56.8667
    56.8667  56.8669  57.5569  57.7153  57.7153  57.7155  59.3842  59.3845

[...]

     the Fermi energy is    53.1623 ev

!    total energy              =   -2707.02145488 Ry
     Harris-Foulkes estimate   =   -2707.02146909 Ry
     estimated scf accuracy    <       0.00002053 Ry

     The total energy is the sum of the following terms:

     one-electron contribution =    -195.78396070 Ry
     hartree contribution      =     318.14425869 Ry
     xc contribution           =    -231.56047511 Ry
     ewald contribution        =   -2597.50827320 Ry
     smearing contrib. (-TS)   =      -0.31300456 Ry

     convergence has been achieved in   9 iterations

     Forces acting on atoms (Ry/au):

     atom    1 type  1   force =     0.00000000    0.00000000    0.00000000
     atom    2 type  1   force =     0.00000000    0.00000000    0.00000000
     atom    3 type  1   force =     0.00000000    0.00000000    0.00000000
     atom    4 type  1   force =     0.00000000    0.00000000    0.00000000
     atom    5 type  1   force =     0.00000000    0.00000000    0.00000000
     atom    6 type  1   force =     0.00000000    0.00000000    0.00000000
     atom    7 type  2   force =     0.00000000    0.00000000    0.00000000
     atom    8 type  2   force =     0.00000000    0.00000000    0.00000000

     Total force =     0.000000     Total SCF correction =     0.000000

     entering subroutine stress ...

          total   stress  (Ry/bohr**3)                   (kbar)     P= 5608.70
   0.03812721   0.00000000   0.00000000       5608.70      0.00      0.00
   0.00000000   0.03812721   0.00000000          0.00   5608.70      0.00
   0.00000000   0.00000000   0.03812721          0.00      0.00   5608.70

     BFGS Geometry Optimization

[...]
   0.00000000   0.00000000  -0.01942995          0.00      0.00  -2858.24

     number of scf cycles    =   3
     number of bfgs steps    =   2

     enthalpy old            =   -2711.1241599954 Ry
     enthalpy new            =   -2707.3124661763 Ry

     CASE: enthalpy_new > enthalpy_old

     new trust radius        =       0.1686799786 bohr

     trust_radius < trust_radius_min

     resetting bfgs history

     Message from routine bfgs:
     history already reset at previous step: stopping
     new conv_thr            =       0.0000010000 Ry

     new unit-cell volume =   1046.11057 a.u.^3 (   155.01759 Ang^3 )

[...]

ATOMIC_POSITIONS (crystal)
Cr       0.000000000   0.500000000   0.250000000
Cr       0.000000000   0.500000000   0.750000000
Cr       0.500000000   0.750000000   0.000000000
Cr       0.500000000   0.250000000   0.000000000
Cr       0.750000000   0.000000000   0.500000000
Cr       0.250000000   0.000000000   0.500000000
Si       0.500000000   0.500000000   0.500000000
Si       0.000000000   0.000000000   0.000000000

     Writing output data file Prototype-La-cP8-Cr3Si.save
     NEW-OLD atomic charge density approx. for the potential
     NEW k-points:
        k(    1) = (   0.0000000   0.0000000   0.0000000), wk =   0.0095238
        k(    2) = (   0.0000000   0.0000000   0.1201041), wk =   0.0190476
        k(    3) = (   0.0000000   0.0000000   0.2402082), wk =   0.0190476
        k(    4) = (   0.0000000   0.0000000   0.3603124), wk =   0.0190476
        k(    5) = (   0.0000000   0.1401215   0.0000000), wk =   0.0190476
        k(    6) = (   0.0000000   0.1401215   0.1201041), wk =   0.0380952
        k(    7) = (   0.0000000   0.1401215   0.2402082), wk =   0.0380952
        k(    8) = (   0.0000000   0.1401215   0.3603124), wk =   0.0380952
        k(    9) = (   0.0000000   0.2802429   0.0000000), wk =   0.0190476
        k(   10) = (   0.0000000   0.2802429   0.1201041), wk =   0.0380952
        k(   11) = (   0.0000000   0.2802429   0.2402082), wk =   0.0380952
        k(   12) = (   0.0000000   0.2802429   0.3603124), wk =   0.0380952
        k(   13) = (   0.0000000  -0.4203644   0.0000000), wk =   0.0095238
        k(   14) = (   0.0000000  -0.4203644   0.1201041), wk =   0.0190476
        k(   15) = (   0.0000000  -0.4203644   0.2402082), wk =   0.0190476
        k(   16) = (   0.0000000  -0.4203644   0.3603124), wk =   0.0190476
        k(   17) = (   0.1681458   0.0000000   0.0000000), wk =   0.0190476
        k(   18) = (   0.1681458   0.0000000   0.1201041), wk =   0.0380952
        k(   19) = (   0.1681458   0.0000000   0.2402082), wk =   0.0380952
        k(   20) = (   0.1681458   0.0000000   0.3603124), wk =   0.0380952
        k(   21) = (   0.1681458   0.1401215   0.0000000), wk =   0.0380952
        k(   22) = (   0.1681458   0.1401215   0.1201041), wk =   0.0761905
        k(   23) = (   0.1681458   0.1401215   0.2402082), wk =   0.0761905
        k(   24) = (   0.1681458   0.1401215   0.3603124), wk =   0.0761905
        k(   25) = (   0.1681458   0.2802429   0.0000000), wk =   0.0380952
        k(   26) = (   0.1681458   0.2802429   0.1201041), wk =   0.0761905
        k(   27) = (   0.1681458   0.2802429   0.2402082), wk =   0.0761905
        k(   28) = (   0.1681458   0.2802429   0.3603124), wk =   0.0761905
        k(   29) = (   0.1681458  -0.4203644   0.0000000), wk =   0.0190476
        k(   30) = (   0.1681458  -0.4203644   0.1201041), wk =   0.0380952
        k(   31) = (   0.1681458  -0.4203644   0.2402082), wk =   0.0380952
        k(   32) = (   0.1681458  -0.4203644   0.3603124), wk =   0.0380952
        k(   33) = (   0.3362915   0.0000000   0.0000000), wk =   0.0190476
        k(   34) = (   0.3362915   0.0000000   0.1201041), wk =   0.0380952
        k(   35) = (   0.3362915   0.0000000   0.2402082), wk =   0.0380952
        k(   36) = (   0.3362915   0.0000000   0.3603124), wk =   0.0380952
        k(   37) = (   0.3362915   0.1401215   0.0000000), wk =   0.0380952
        k(   38) = (   0.3362915   0.1401215   0.1201041), wk =   0.0761905
        k(   39) = (   0.3362915   0.1401215   0.2402082), wk =   0.0761905
        k(   40) = (   0.3362915   0.1401215   0.3603124), wk =   0.0761905
        k(   41) = (   0.3362915   0.2802429   0.0000000), wk =   0.0380952
        k(   42) = (   0.3362915   0.2802429   0.1201041), wk =   0.0761905
        k(   43) = (   0.3362915   0.2802429   0.2402082), wk =   0.0761905
        k(   44) = (   0.3362915   0.2802429   0.3603124), wk =   0.0761905
        k(   45) = (   0.3362915  -0.4203644   0.0000000), wk =   0.0190476
        k(   46) = (   0.3362915  -0.4203644   0.1201041), wk =   0.0380952
        k(   47) = (   0.3362915  -0.4203644   0.2402082), wk =   0.0380952
        k(   48) = (   0.3362915  -0.4203644   0.3603124), wk =   0.0380952

[...]

          total   stress  (Ry/bohr**3)                   (kbar)     P=-1492.49
  -0.01014575   0.00000000   0.00000000      -1492.49      0.00      0.00
   0.00000000  -0.01014575   0.00000000          0.00  -1492.49      0.00
   0.00000000   0.00000000  -0.01014575          0.00      0.00  -1492.49

     The maximum number of steps has been reached.

     End of BFGS Geometry Optimization
Begin final coordinates
     new unit-cell volume =   1046.11057 a.u.^3 (   155.01759 Ang^3 )

CELL_PARAMETERS (alat=  8.53457320)
   1.189444153   0.000000000   0.000000000
   0.000000000   1.189444153   0.000000000
   0.000000000   0.000000000   1.189444153

ATOMIC_POSITIONS (crystal)
Cr       0.000000000   0.500000000   0.250000000
Cr       0.000000000   0.500000000   0.750000000
Cr       0.500000000   0.750000000   0.000000000
Cr       0.500000000   0.250000000   0.000000000
Cr       0.750000000   0.000000000   0.500000000
Cr       0.250000000   0.000000000   0.500000000
Si       0.500000000   0.500000000   0.500000000
Si       0.000000000   0.000000000   0.000000000
End final coordinates

     A final scf calculation at the relaxed structure.
     The G-vectors are recalculated for the final unit cell
     Results may differ from those at the preceding step.

     bravais-lattice index     =            0
     lattice parameter (alat)  =       8.5346  a.u.
     unit-cell volume          =    1046.1106 (a.u.)^3
     number of atoms/cell      =            8
     number of atomic types    =            2
     number of electrons       =       174.00
     number of Kohn-Sham states=          104
     kinetic-energy cutoff     =      40.0000  Ry
     charge density cutoff     =     160.0000  Ry
     convergence threshold     =      1.0E-06
     mixing beta               =       0.7000
     number of iterations used =            8  plain     mixing
     Exchange-correlation      = SLA-PZ-NOGX-NOGC ( 1 1 0 0 0)
     EXX-fraction              =        0.00

     celldm(1)=   8.534573  celldm(2)=   0.000000  celldm(3)=   0.000000
     celldm(4)=   0.000000  celldm(5)=   0.000000  celldm(6)=   0.000000

     crystal axes: (cart. coord. in units of alat)
               a(1) = (   1.189444   0.000000   0.000000 )
               a(2) = (   0.000000   1.189444   0.000000 )
               a(3) = (   0.000000   0.000000   1.189444 )

     reciprocal axes: (cart. coord. in units 2 pi/alat)
               b(1) = (  0.840729  0.000000  0.000000 )
               b(2) = (  0.000000  0.840729  0.000000 )
               b(3) = (  0.000000  0.000000  0.840729 )

     PseudoPot. # 1 for Yb read from file:
     /home/jld5415/pp.La/Yb.UPF
     MD5 check sum: 3e859b81cc28c53ec6aa3a2e888efcdf
     Pseudo is Norm-conserving, Zval = 24.0
     Generated in analytical, separable form
     Using radial grid of 1269 points,  6 beta functions with:
                l(1) =   0
                l(2) =   0
                l(3) =   1
                l(4) =   1
                l(5) =   2
                l(6) =   3

     PseudoPot. # 2 for Pm read from file:
     /home/jld5415/pp.La/Pm.UPF
     MD5 check sum: 0061344aafc48faba5d75831754de21b
     Pseudo is Norm-conserving, Zval = 15.0
     Generated in analytical, separable form
     Using radial grid of 1259 points,  6 beta functions with:
                l(1) =   0
                l(2) =   0
                l(3) =   1
                l(4) =   1
                l(5) =   2
                l(6) =   3

     atomic species   valence    mass     pseudopotential
        Cr            24.00    51.99610     Yb( 1.00)
        Si            15.00    28.08550     Pm( 1.00)

     48 Sym. Ops., with inversion, found (24 have fractional translation)

   Cartesian axes

     site n.     atom                  positions (alat units)
         1           Cr  tau(   1) = (   0.0000000   0.5947221   0.2973610  )
         2           Cr  tau(   2) = (   0.0000000   0.5947221   0.8920831  )
         3           Cr  tau(   3) = (   0.5947221   0.8920831   0.0000000  )
         4           Cr  tau(   4) = (   0.5947221   0.2973610   0.0000000  )
         5           Cr  tau(   5) = (   0.8920831   0.0000000   0.5947221  )
         6           Cr  tau(   6) = (   0.2973610   0.0000000   0.5947221  )
         7           Si  tau(   7) = (   0.5947221   0.5947221   0.5947221  )
         8           Si  tau(   8) = (   0.0000000   0.0000000   0.0000000  )

     number of k points=    48  gaussian smearing, width (Ry)=  0.1000
                       cart. coord. in units 2pi/alat
        k(    1) = (   0.0000000   0.0000000   0.0000000), wk =   0.0095238
        k(    2) = (   0.0000000   0.0000000   0.1201041), wk =   0.0190476
        k(    3) = (   0.0000000   0.0000000   0.2402082), wk =   0.0190476
        k(    4) = (   0.0000000   0.0000000   0.3603124), wk =   0.0190476
        k(    5) = (   0.0000000   0.1401215   0.0000000), wk =   0.0190476
        k(    6) = (   0.0000000   0.1401215   0.1201041), wk =   0.0380952
        k(    7) = (   0.0000000   0.1401215   0.2402082), wk =   0.0380952
        k(    8) = (   0.0000000   0.1401215   0.3603124), wk =   0.0380952
        k(    9) = (   0.0000000   0.2802429   0.0000000), wk =   0.0190476
        k(   10) = (   0.0000000   0.2802429   0.1201041), wk =   0.0380952
        k(   11) = (   0.0000000   0.2802429   0.2402082), wk =   0.0380952
        k(   12) = (   0.0000000   0.2802429   0.3603124), wk =   0.0380952
        k(   13) = (   0.0000000  -0.4203644   0.0000000), wk =   0.0095238
        k(   14) = (   0.0000000  -0.4203644   0.1201041), wk =   0.0190476
        k(   15) = (   0.0000000  -0.4203644   0.2402082), wk =   0.0190476
        k(   16) = (   0.0000000  -0.4203644   0.3603124), wk =   0.0190476
        k(   17) = (   0.1681458   0.0000000   0.0000000), wk =   0.0190476
        k(   18) = (   0.1681458   0.0000000   0.1201041), wk =   0.0380952
        k(   19) = (   0.1681458   0.0000000   0.2402082), wk =   0.0380952
        k(   20) = (   0.1681458   0.0000000   0.3603124), wk =   0.0380952
        k(   21) = (   0.1681458   0.1401215   0.0000000), wk =   0.0380952
        k(   22) = (   0.1681458   0.1401215   0.1201041), wk =   0.0761905
        k(   23) = (   0.1681458   0.1401215   0.2402082), wk =   0.0761905
        k(   24) = (   0.1681458   0.1401215   0.3603124), wk =   0.0761905
        k(   25) = (   0.1681458   0.2802429   0.0000000), wk =   0.0380952
        k(   26) = (   0.1681458   0.2802429   0.1201041), wk =   0.0761905
        k(   27) = (   0.1681458   0.2802429   0.2402082), wk =   0.0761905
        k(   28) = (   0.1681458   0.2802429   0.3603124), wk =   0.0761905
        k(   29) = (   0.1681458  -0.4203644   0.0000000), wk =   0.0190476
        k(   30) = (   0.1681458  -0.4203644   0.1201041), wk =   0.0380952
        k(   31) = (   0.1681458  -0.4203644   0.2402082), wk =   0.0380952
        k(   32) = (   0.1681458  -0.4203644   0.3603124), wk =   0.0380952
        k(   33) = (   0.3362915   0.0000000   0.0000000), wk =   0.0190476
        k(   34) = (   0.3362915   0.0000000   0.1201041), wk =   0.0380952
        k(   35) = (   0.3362915   0.0000000   0.2402082), wk =   0.0380952
        k(   36) = (   0.3362915   0.0000000   0.3603124), wk =   0.0380952
        k(   37) = (   0.3362915   0.1401215   0.0000000), wk =   0.0380952
        k(   38) = (   0.3362915   0.1401215   0.1201041), wk =   0.0761905
        k(   39) = (   0.3362915   0.1401215   0.2402082), wk =   0.0761905
        k(   40) = (   0.3362915   0.1401215   0.3603124), wk =   0.0761905
        k(   41) = (   0.3362915   0.2802429   0.0000000), wk =   0.0380952
        k(   42) = (   0.3362915   0.2802429   0.1201041), wk =   0.0761905
        k(   43) = (   0.3362915   0.2802429   0.2402082), wk =   0.0761905
        k(   44) = (   0.3362915   0.2802429   0.3603124), wk =   0.0761905
        k(   45) = (   0.3362915  -0.4203644   0.0000000), wk =   0.0190476
        k(   46) = (   0.3362915  -0.4203644   0.1201041), wk =   0.0380952
        k(   47) = (   0.3362915  -0.4203644   0.2402082), wk =   0.0380952
        k(   48) = (   0.3362915  -0.4203644   0.3603124), wk =   0.0380952

     Largest allocated arrays     est. size (Mb)     dimensions
     Largest temporary arrays     est. size (Mb)     dimensions

     Initial potential from superposition of free atoms

     Starting from uniform charge
     Starting wfc are    0 randomized atomic wfcs

     Writing output data file Prototype-La-cP8-Cr3Si.save

     Self-consistent Calculation

[...]

     iteration #  8     ecut=    40.00 Ry     beta=0.70
     CG style diagonalization
     ethr =  8.72E-05,  avg # of iterations =  3.3

[...]

     total energy              =   -2716.44123011 Ry
     Harris-Foulkes estimate   =   -2716.44130523 Ry
     estimated scf accuracy    <       0.00017308 Ry

     iteration # 11     ecut=    40.00 Ry     beta=0.70
     CG style diagonalization
     c_bands:  1 eigenvalues not converged
     ethr =  9.95E-08,  avg # of iterations =  3.7

     End of self-consistent calculation

[...]

          k = 0.3363-0.4204 0.3603 (  4488 PWs)   bands (ev):

   -94.2522 -94.2428 -94.2406 -94.2379 -94.2375 -94.2299 -53.1782 -53.1729
   -53.1548 -53.1548 -53.1318 -53.1246 -52.9786 -52.9782 -52.9767 -52.9759
   -52.9757 -52.9753 -52.9745 -52.9738 -52.9719 -52.9717 -52.9693 -52.9689
   -22.4540 -22.4540   0.5827   0.5838   0.5864   0.5867   0.5892   0.5897
     4.1484   4.2501   4.5089   4.5090   4.6173   4.6224   4.6488   4.6626
     4.7415   4.7488   4.7585   4.7881   4.7895   4.8106   4.8592   4.8620
     5.0126   5.0129   5.0722   5.0753   5.0977   5.1052   5.1108   5.1212
     5.2165   5.2185   5.2193   5.2206   5.2390   5.2510  15.9835  15.9906
    16.6193  16.6198  17.1635  17.1756  21.6126  21.6127  25.0777  25.0905
    25.2381  25.2475  25.9215  26.0882  26.4573  26.5169  27.1101  27.1310
    27.4449  27.5095  28.1467  28.1851  28.7288  29.1240  30.9853  31.1902
    31.7112  31.7588  32.1751  32.2304  33.7704  33.7712  33.9288  33.9385
    34.3851  34.4129  35.2762  35.3768  35.7757  36.0024  36.2220  36.2479

     the Fermi energy is    30.7920 ev

!    total energy              =   -2716.44128279 Ry
     Harris-Foulkes estimate   =   -2716.44128312 Ry
     estimated scf accuracy    <       0.00000050 Ry

     The total energy is the sum of the following terms:

     one-electron contribution =    -792.59489556 Ry
     hartree contribution      =     482.35474961 Ry
     xc contribution           =    -222.06694483 Ry
     ewald contribution        =   -2183.80011036 Ry
     smearing contrib. (-TS)   =      -0.33408164 Ry

     convergence has been achieved in  11 iterations

     Forces acting on atoms (Ry/au):

     atom    1 type  1   force =     0.00000000    0.00000000    0.00000000
     atom    2 type  1   force =     0.00000000    0.00000000    0.00000000
     atom    3 type  1   force =     0.00000000    0.00000000    0.00000000
     atom    4 type  1   force =     0.00000000    0.00000000    0.00000000
     atom    5 type  1   force =     0.00000000    0.00000000    0.00000000
     atom    6 type  1   force =     0.00000000    0.00000000    0.00000000
     atom    7 type  2   force =     0.00000000    0.00000000    0.00000000
     atom    8 type  2   force =     0.00000000    0.00000000    0.00000000

     Total force =     0.000000     Total SCF correction =     0.000000

     entering subroutine stress ...

          total   stress  (Ry/bohr**3)                   (kbar)     P=  263.62
   0.00179205   0.00000000   0.00000000        263.62      0.00      0.00
   0.00000000   0.00179205   0.00000000          0.00    263.62      0.00
   0.00000000   0.00000000   0.00179205          0.00      0.00    263.62

     Writing output data file Prototype-La-cP8-Cr3Si.save

     General routines

     Parallel routines

   This run was terminated on:  12:55: 3  22Mar2018

   JOB DONE.