     Program PWSCF v.5.0.2 starts on 22Mar2018 at 12:11:41

     Current dimensions of program PWSCF are:
     Max number of different atomic species (ntypx) = 10
     Max number of k-points (npk) =  40000
     Max angular momentum in pseudopotentials (lmaxx) =  3
     Waiting for input...
     Reading input from standard input

     Subspace diagonalization in iterative solution of the eigenvalue problem:
     a serial algorithm will be used

     bravais-lattice index     =            0
     lattice parameter (alat)  =       9.9235  a.u.
     unit-cell volume          =    1361.0366 (a.u.)^3
     number of atoms/cell      =           12
     number of atomic types    =            2
     number of electrons       =       216.00
     number of Kohn-Sham states=          130
     kinetic-energy cutoff     =      40.0000  Ry
     charge density cutoff     =     160.0000  Ry
     convergence threshold     =      1.0E-04
     mixing beta               =       0.7000
     number of iterations used =            8  plain     mixing
     Exchange-correlation      = SLA-PZ-NOGX-NOGC ( 1 1 0 0 0)
     EXX-fraction              =        0.00
     nstep                     =           50

     celldm(1)=   9.923489  celldm(2)=   0.000000  celldm(3)=   0.000000
     celldm(4)=   0.000000  celldm(5)=   0.000000  celldm(6)=   0.000000

     crystal axes: (cart. coord. in units of alat)
               a(1) = (   1.000000   0.000000   0.000000 )
               a(2) = (  -0.500000   0.866025   0.000000 )
               a(3) = (   0.000000   0.000000   1.608222 )

     reciprocal axes: (cart. coord. in units 2 pi/alat)
               b(1) = (  1.000000  0.577350  0.000000 )
               b(2) = (  0.000000  1.154701  0.000000 )
               b(3) = (  0.000000  0.000000  0.621805 )

     PseudoPot. # 1 for Yb read from file:
     /home/jld5415/pp.La/Yb.UPF
     MD5 check sum: 3e859b81cc28c53ec6aa3a2e888efcdf
     Pseudo is Norm-conserving, Zval = 24.0
     Generated in analytical, separable form
     Using radial grid of 1269 points,  6 beta functions with:
                l(1) =   0
                l(2) =   0
                l(3) =   1
                l(4) =   1
                l(5) =   2
                l(6) =   3

     PseudoPot. # 2 for Pm read from file:
     /home/jld5415/pp.La/Pm.UPF
     MD5 check sum: 0061344aafc48faba5d75831754de21b
     Pseudo is Norm-conserving, Zval = 15.0
     Generated in analytical, separable form
     Using radial grid of 1259 points,  6 beta functions with:
                l(1) =   0
                l(2) =   0
                l(3) =   1
                l(4) =   1
                l(5) =   2
                l(6) =   3

     atomic species   valence    mass     pseudopotential
        Mg            24.00    24.30500     Yb( 1.00)
        Zn            15.00    65.39000     Pm( 1.00)

     24 Sym. Ops., with inversion, found (12 have fractional translation)

   Cartesian axes

     site n.     atom                  positions (alat units)
         1           Mg  tau(   1) = (  -0.0000005   0.5773506   0.1003820  )
         2           Mg  tau(   2) = (   0.5000005   0.2886748   0.9044931  )
         3           Mg  tau(   3) = (   0.5000005   0.2886748   1.5078402  )
         4           Mg  tau(   4) = (  -0.0000005   0.5773506   0.7037291  )
         5           Zn  tau(   5) = (   0.0000000   0.0000000   0.0000000  )
         6           Zn  tau(   6) = (   0.0000000   0.0000000   0.8041111  )
         7           Zn  tau(   7) = (   0.0000000   0.2950739   1.2061667  )
         8           Zn  tau(   8) = (   0.7444585   0.1475370   0.4020556  )
         9           Zn  tau(   9) = (   0.2555415   0.1475370   0.4020556  )
        10           Zn  tau(  10) = (   0.2444585   0.7184884   1.2061667  )
        11           Zn  tau(  11) = (  -0.2444585   0.7184884   1.2061667  )
        12           Zn  tau(  12) = (   0.5000000   0.5709515   0.4020556  )

     number of k points=    12  gaussian smearing, width (Ry)=  0.1000
                       cart. coord. in units 2pi/alat
        k(    1) = (   0.0000000   0.0000000   0.0000000), wk =   0.0833333
        k(    2) = (   0.0000000   0.0000000   0.1554512), wk =   0.1666667
        k(    3) = (   0.0000000   0.0000000  -0.3109023), wk =   0.0833333
        k(    4) = (   0.0000000   0.3849002   0.0000000), wk =   0.1666667
        k(    5) = (   0.0000000   0.3849002   0.1554512), wk =   0.3333333
        k(    6) = (   0.0000000   0.3849002  -0.3109023), wk =   0.1666667
        k(    7) = (  -0.5000000  -0.2886751   0.0000000), wk =   0.0833333
        k(    8) = (  -0.5000000  -0.2886751   0.1554512), wk =   0.1666667
        k(    9) = (  -0.5000000  -0.2886751  -0.3109023), wk =   0.0833333
        k(   10) = (  -0.5000000   0.0962250   0.0000000), wk =   0.1666667
        k(   11) = (  -0.5000000   0.0962250   0.1554512), wk =   0.3333333
        k(   12) = (  -0.5000000   0.0962250  -0.3109023), wk =   0.1666667

     Largest allocated arrays     est. size (Mb)     dimensions
     Largest temporary arrays     est. size (Mb)     dimensions

     Initial potential from superposition of free atoms

     Starting from uniform charge
     Starting wfc are    0 randomized atomic wfcs

     Self-consistent Calculation

     iteration #  1     ecut=    40.00 Ry     beta=0.70
     CG style diagonalization
     c_bands:  4 eigenvalues not converged
     c_bands:  3 eigenvalues not converged
     ethr =  1.00E-02,  avg # of iterations = 15.9

     total energy              =   -1497.64091118 Ry
     Harris-Foulkes estimate   =   -3556.05347135 Ry
     estimated scf accuracy    <    2456.93081438 Ry

     iteration #  2     ecut=    40.00 Ry     beta=0.70
     CG style diagonalization
     ethr =  1.00E-02,  avg # of iterations = 18.7

[...]

     End of self-consistent calculation

          k = 0.0000 0.0000 0.0000 (  5769 PWs)   bands (ev):

   -92.7634 -92.7409 -92.7339 -92.6691 -51.5629 -51.5535 -51.5502 -51.5502
   -51.5430 -51.5400 -51.5400 -51.5299 -51.5299 -51.5295 -51.5251 -51.5250
   -22.1353 -21.8723 -21.2396 -20.9628 -20.9627 -20.9596 -20.9595 -20.9369
    -1.8553  -1.1934  -0.4639   0.4118   0.4118   0.6072   0.6073   0.7190
     0.7191   1.2768   1.9826   1.9826   1.9835   1.9836   2.3050   3.2796
     3.2797   3.3067   3.3068   3.3215   3.6470   3.6470   3.7800   3.7800
     6.2724   6.2795   6.2795   6.3016   6.3584   6.3585   6.4523   6.4524
     6.4957   6.4957   6.5720   6.5801   6.5801   6.6094   6.6094   6.6730
     6.6730   6.6809   6.6827   6.6827  16.3574  17.9560  18.8569  21.7013
    22.2994  22.2995  22.3936  23.5754  23.8333  23.8334  23.9207  24.0417
    25.1519  25.1520  25.1934  25.4421  25.4421  25.6929  25.9058  25.9058
    27.1908  27.1908  27.6258  27.6258  28.1110  28.1112  29.8643  30.1757
    30.6856  31.0044  31.0045  31.1948  31.5934  31.5935  31.6262  31.7233
    31.7778  31.7778  32.1726  32.2316  32.2316  32.2988  32.2989  32.5436
    32.5436  32.9431  33.4758  33.4759  34.1195  34.4305  34.4306  35.7454
    35.7454  36.0656  36.5381  36.5382  37.1402  37.1405  37.2136  37.4270
    37.4272  37.6104

[...]

          k =-0.5000-0.2887 0.0000 (  5800 PWs)   bands (ev):

[...]

     the Fermi energy is    32.0350 ev

!    total energy              =   -2675.98526531 Ry
     Harris-Foulkes estimate   =   -2675.98527585 Ry
     estimated scf accuracy    <       0.00001255 Ry

     The total energy is the sum of the following terms:

     one-electron contribution =    -403.00855141 Ry
     hartree contribution      =     371.18925345 Ry
     xc contribution           =    -249.88909396 Ry
     ewald contribution        =   -2393.69322772 Ry
     smearing contrib. (-TS)   =      -0.58364567 Ry

     convergence has been achieved in  11 iterations

     Forces acting on atoms (Ry/au):

     atom    1 type  1   force =     0.00000000    0.00000000    0.03002608
     atom    2 type  1   force =     0.00000000    0.00000000    0.03002608
     atom    3 type  1   force =     0.00000000    0.00000000   -0.03002608
     atom    4 type  1   force =     0.00000000    0.00000000   -0.03002608
     atom    5 type  2   force =     0.00000000    0.00000000    0.00000000
     atom    6 type  2   force =     0.00000000    0.00000000    0.00000000
     atom    7 type  2   force =     0.00000000    0.02461974    0.00000000
     atom    8 type  2   force =    -0.02132132    0.01230987    0.00000000
     atom    9 type  2   force =     0.02132132    0.01230987    0.00000000
     atom   10 type  2   force =    -0.02132132   -0.01230987    0.00000000
     atom   11 type  2   force =     0.02132132   -0.01230987    0.00000000
     atom   12 type  2   force =     0.00000000   -0.02461974    0.00000000

     Total force =     0.085106     Total SCF correction =     0.000000

     entering subroutine stress ...

          total   stress  (Ry/bohr**3)                   (kbar)     P=  826.66
   0.00554137   0.00000000   0.00000000        815.16      0.00      0.00
   0.00000000   0.00554137   0.00000000          0.00    815.16      0.00
   0.00000000   0.00000000   0.00577588          0.00      0.00    849.66

     BFGS Geometry Optimization

     number of scf cycles    =   1
     number of bfgs steps    =   0

     enthalpy new            =   -2675.9852653146 Ry

     new trust radius        =       0.5000000000 bohr
     new conv_thr            =       0.0001000000 Ry

     new unit-cell volume =   1648.37421 a.u.^3 (   244.26385 Ang^3 )

CELL_PARAMETERS (alat=  9.92348860)
   1.065013633   0.000000000   0.000000000
  -0.532506817   0.922328862   0.000000000
   0.000000000   0.000000000   1.717203317

ATOMIC_POSITIONS (crystal)
Mg       0.333333000   0.666667000   0.063300948
Mg       0.666667000   0.333333000   0.563300948
Mg       0.666667000   0.333333000   0.936699052
Mg       0.333333000   0.666667000   0.436699052
Zn       0.000000000   0.000000000   0.000000000
Zn       0.000000000   0.000000000   0.500000000
Zn       0.171033211   0.342066422   0.750000000
Zn       0.828966789   0.171033211   0.250000000
Zn       0.342066422   0.171033211   0.250000000
Zn       0.657933578   0.828966789   0.750000000
Zn       0.171033211   0.828966789   0.750000000
Zn       0.828966789   0.657933578   0.250000000

     Writing output data file Prototype-La-hP12-MgZn2.save
     NEW-OLD atomic charge density approx. for the potential
     NEW k-points:
        k(    1) = (   0.0000000   0.0000000   0.0000000), wk =   0.0833333
        k(    2) = (   0.0000000   0.0000000   0.1455856), wk =   0.1666667
        k(    3) = (   0.0000000   0.0000000  -0.2911711), wk =   0.0833333
        k(    4) = (   0.0000000   0.3614040   0.0000000), wk =   0.1666667
        k(    5) = (   0.0000000   0.3614040   0.1455856), wk =   0.3333333
        k(    6) = (   0.0000000   0.3614040  -0.2911711), wk =   0.1666667
        k(    7) = (  -0.4694776  -0.2710530   0.0000000), wk =   0.0833333
        k(    8) = (  -0.4694776  -0.2710530   0.1455856), wk =   0.1666667
        k(    9) = (  -0.4694776  -0.2710530  -0.2911711), wk =   0.0833333
        k(   10) = (  -0.4694776   0.0903510   0.0000000), wk =   0.1666667
        k(   11) = (  -0.4694776   0.0903510   0.1455856), wk =   0.3333333
        k(   12) = (  -0.4694776   0.0903510  -0.2911711), wk =   0.1666667

[...]

     enthalpy old            =   -2675.9852653146 Ry
     enthalpy new            =   -2676.4337643974 Ry

     CASE: enthalpy_new < enthalpy_old

     small trust_radius: resetting bfgs history

     new trust radius        =       0.3538963515 bohr
     new conv_thr            =       0.0000245808 Ry

[...]

     number of scf cycles    =   3
     number of bfgs steps    =   2

     enthalpy old            =   -2676.4337643974 Ry
     enthalpy new            =   -2676.3540975149 Ry

     CASE: enthalpy_new > enthalpy_old

     new trust radius        =       0.1417810127 bohr

     trust_radius < trust_radius_min

     resetting bfgs history

     Message from routine bfgs:
     history already reset at previous step: stopping
     new conv_thr            =       0.0000245808 Ry

     new unit-cell volume =   1439.59112 a.u.^3 (   213.32539 Ang^3 )

[...]

ATOMIC_POSITIONS (crystal)
Mg       0.333333000   0.666667000   0.064865065
Mg       0.666667000   0.333333000   0.564865065
Mg       0.666667000   0.333333000   0.935134935
Mg       0.333333000   0.666667000   0.435134935
Zn       0.000000000   0.000000000   0.000000000
Zn       0.000000000   0.000000000   0.500000000
Zn       0.171596571   0.343193141   0.750000000
Zn       0.828403429   0.171596571   0.250000000
Zn       0.343193141   0.171596571   0.250000000
Zn       0.656806859   0.828403429   0.750000000
Zn       0.171596571   0.828403429   0.750000000
Zn       0.828403429   0.656806859   0.250000000

     Writing output data file Prototype-La-hP12-MgZn2.save
     NEW-OLD atomic charge density approx. for the potential
     NEW k-points:
        k(    1) = (   0.0000000   0.0000000   0.0000000), wk =   0.0833333
        k(    2) = (   0.0000000   0.0000000   0.1519123), wk =   0.1666667
        k(    3) = (   0.0000000   0.0000000  -0.3038245), wk =   0.0833333
        k(    4) = (   0.0000000   0.3785855   0.0000000), wk =   0.1666667
        k(    5) = (   0.0000000   0.3785855   0.1519123), wk =   0.3333333
        k(    6) = (   0.0000000   0.3785855  -0.3038245), wk =   0.1666667
        k(    7) = (  -0.4917970  -0.2839391   0.0000000), wk =   0.0833333
        k(    8) = (  -0.4917970  -0.2839391   0.1519123), wk =   0.1666667
        k(    9) = (  -0.4917970  -0.2839391  -0.3038245), wk =   0.0833333
        k(   10) = (  -0.4917970   0.0946464   0.0000000), wk =   0.1666667
        k(   11) = (  -0.4917970   0.0946464   0.1519123), wk =   0.3333333
        k(   12) = (  -0.4917970   0.0946464  -0.3038245), wk =   0.1666667

[...]

     The maximum number of steps has been reached.

     End of BFGS Geometry Optimization
Begin final coordinates
     new unit-cell volume =   1439.59112 a.u.^3 (   213.32539 Ang^3 )

CELL_PARAMETERS (alat=  9.92348860)
   1.016679633   0.000000000   0.000000000
  -0.508339817   0.880470390   0.000000000
   0.000000000   0.000000000   1.645686681

ATOMIC_POSITIONS (crystal)
Mg       0.333333000   0.666667000   0.064865065
Mg       0.666667000   0.333333000   0.564865065
Mg       0.666667000   0.333333000   0.935134935
Mg       0.333333000   0.666667000   0.435134935
Zn       0.000000000   0.000000000   0.000000000
Zn       0.000000000   0.000000000   0.500000000
Zn       0.171596571   0.343193141   0.750000000
Zn       0.828403429   0.171596571   0.250000000
Zn       0.343193141   0.171596571   0.250000000
Zn       0.656806859   0.828403429   0.750000000
Zn       0.171596571   0.828403429   0.750000000
Zn       0.828403429   0.656806859   0.250000000
End final coordinates

     A final scf calculation at the relaxed structure.
     The G-vectors are recalculated for the final unit cell
     Results may differ from those at the preceding step.

     bravais-lattice index     =            0
     lattice parameter (alat)  =       9.9235  a.u.
     unit-cell volume          =    1439.5911 (a.u.)^3
     number of atoms/cell      =           12
     number of atomic types    =            2
     number of electrons       =       216.00
     number of Kohn-Sham states=          130
     kinetic-energy cutoff     =      40.0000  Ry
     charge density cutoff     =     160.0000  Ry
     convergence threshold     =      2.5E-05
     mixing beta               =       0.7000
     number of iterations used =            8  plain     mixing
     Exchange-correlation      = SLA-PZ-NOGX-NOGC ( 1 1 0 0 0)
     EXX-fraction              =        0.00

     celldm(1)=   9.923489  celldm(2)=   0.000000  celldm(3)=   0.000000
     celldm(4)=   0.000000  celldm(5)=   0.000000  celldm(6)=   0.000000

     crystal axes: (cart. coord. in units of alat)
               a(1) = (   1.016680   0.000000   0.000000 )
               a(2) = (  -0.508340   0.880470   0.000000 )
               a(3) = (   0.000000   0.000000   1.645687 )

     reciprocal axes: (cart. coord. in units 2 pi/alat)
               b(1) = (  0.983594  0.567878  0.000000 )
               b(2) = (  0.000000  1.135757  0.000000 )
               b(3) = (  0.000000  0.000000  0.607649 )

     PseudoPot. # 1 for Yb read from file:
     /home/jld5415/pp.La/Yb.UPF
     MD5 check sum: 3e859b81cc28c53ec6aa3a2e888efcdf
     Pseudo is Norm-conserving, Zval = 24.0
     Generated in analytical, separable form
     Using radial grid of 1269 points,  6 beta functions with:
                l(1) =   0
                l(2) =   0
                l(3) =   1
                l(4) =   1
                l(5) =   2
                l(6) =   3

     PseudoPot. # 2 for Pm read from file:
     /home/jld5415/pp.La/Pm.UPF
     MD5 check sum: 0061344aafc48faba5d75831754de21b
     Pseudo is Norm-conserving, Zval = 15.0
     Generated in analytical, separable form
     Using radial grid of 1259 points,  6 beta functions with:
                l(1) =   0
                l(2) =   0
                l(3) =   1
                l(4) =   1
                l(5) =   2
                l(6) =   3

     atomic species   valence    mass     pseudopotential
        Mg            24.00    24.30500     Yb( 1.00)
        Zn            15.00    65.39000     Pm( 1.00)

     24 Sym. Ops., with inversion, found (12 have fractional translation)

   Cartesian axes

     site n.     atom                  positions (alat units)
         1           Mg  tau(   1) = (  -0.0000005   0.5869806   0.1067476  )
         2           Mg  tau(   2) = (   0.5083403   0.2934898   0.9295909  )
         3           Mg  tau(   3) = (   0.5083403   0.2934898   1.5389391  )
         4           Mg  tau(   4) = (  -0.0000005   0.5869806   0.7160958  )
         5           Zn  tau(   5) = (   0.0000000   0.0000000   0.0000000  )
         6           Zn  tau(   6) = (   0.0000000   0.0000000   0.8228433  )
         7           Zn  tau(   7) = (   0.0000000   0.3021714   1.2342650  )
         8           Zn  tau(   8) = (   0.7549915   0.1510857   0.4114217  )
         9           Zn  tau(   9) = (   0.2616881   0.1510857   0.4114217  )
        10           Zn  tau(  10) = (   0.2466517   0.7293847   1.2342650  )
        11           Zn  tau(  11) = (  -0.2466517   0.7293847   1.2342650  )
        12           Zn  tau(  12) = (   0.5083398   0.5782990   0.4114217  )

     number of k points=    12  gaussian smearing, width (Ry)=  0.1000
                       cart. coord. in units 2pi/alat
        k(    1) = (   0.0000000   0.0000000   0.0000000), wk =   0.0833333
        k(    2) = (   0.0000000   0.0000000   0.1519123), wk =   0.1666667
        k(    3) = (   0.0000000   0.0000000  -0.3038245), wk =   0.0833333
        k(    4) = (   0.0000000   0.3785855   0.0000000), wk =   0.1666667
        k(    5) = (   0.0000000   0.3785855   0.1519123), wk =   0.3333333
        k(    6) = (   0.0000000   0.3785855  -0.3038245), wk =   0.1666667
        k(    7) = (  -0.4917970  -0.2839391   0.0000000), wk =   0.0833333
        k(    8) = (  -0.4917970  -0.2839391   0.1519123), wk =   0.1666667
        k(    9) = (  -0.4917970  -0.2839391  -0.3038245), wk =   0.0833333
        k(   10) = (  -0.4917970   0.0946464   0.0000000), wk =   0.1666667
        k(   11) = (  -0.4917970   0.0946464   0.1519123), wk =   0.3333333
        k(   12) = (  -0.4917970   0.0946464  -0.3038245), wk =   0.1666667

     Largest allocated arrays     est. size (Mb)     dimensions
     Largest temporary arrays     est. size (Mb)     dimensions

     Initial potential from superposition of free atoms

     Starting from uniform charge
     Starting wfc are    0 randomized atomic wfcs

     Writing output data file Prototype-La-hP12-MgZn2.save

     Self-consistent Calculation

[...]

     iteration #  9     ecut=    40.00 Ry     beta=0.70
     CG style diagonalization
     ethr =  1.84E-05,  avg # of iterations =  4.6

[...]

     total energy              =   -2676.65514211 Ry
     Harris-Foulkes estimate   =   -2676.65537427 Ry
     estimated scf accuracy    <       0.00047049 Ry

     iteration # 11     ecut=    40.00 Ry     beta=0.70
     CG style diagonalization
     c_bands:  1 eigenvalues not converged
     ethr =  2.18E-07,  avg # of iterations =  4.0

     End of self-consistent calculation

[...]

          k = 0.0000 0.3786-0.3038 (  6142 PWs)   bands (ev):

[...]

          k =-0.4918 0.0946-0.3038 (  6150 PWs)   bands (ev):

   -94.6087 -94.6087 -94.5901 -94.5901 -53.3935 -53.3934 -53.3846 -53.3846
   -53.3797 -53.3797 -53.3761 -53.3761 -53.3735 -53.3735 -53.3706 -53.3706
   -23.4607 -23.4607 -23.2040 -23.2040 -22.8108 -22.8108 -22.7560 -22.7560
    -2.0955  -2.0955  -1.3069  -1.3069  -0.7451  -0.7451  -0.6761  -0.6761
    -0.4885  -0.4885  -0.2801  -0.2801   0.1848   0.1848   0.5787   0.5787
     0.8354   0.8354   1.0442   1.0442   1.4502   1.4502   1.5359   1.5359
     4.5043   4.5043   4.5271   4.5271   4.6150   4.6150   4.6773   4.6773
     4.7106   4.7106   4.7426   4.7426   4.7611   4.7611   4.7769   4.7769
     4.8657   4.8657   4.8822   4.8822  16.6556  16.6556  17.5927  17.5927
    21.9301  21.9301  22.2365  22.2365  22.9991  22.9991  23.5446  23.5446
    23.7548  23.7548  24.2689  24.2689  24.8001  24.8001  25.1321  25.1321
    25.3835  25.3835  26.1640  26.1640  26.7136  26.7136  27.0190  27.0190
    27.6100  27.6100  27.9293  27.9293  28.2677  28.2677  28.5691  28.5691
    28.7608  28.7608  29.6228  29.6228  30.4104  30.4104  30.6677  30.6677
    31.1824  31.1824  31.5269  31.5269  32.0879  32.0879  32.4627  32.4628
    33.2353  33.2354  33.5898  33.5899  34.0839  34.0840  35.1430  35.1431
    35.9306  35.9308

     the Fermi energy is    30.0994 ev

!    total energy              =   -2676.65529657 Ry
     Harris-Foulkes estimate   =   -2676.65530780 Ry
     estimated scf accuracy    <       0.00001359 Ry

     The total energy is the sum of the following terms:

     one-electron contribution =    -466.16724125 Ry
     hartree contribution      =     388.11226718 Ry
     xc contribution           =    -248.62295010 Ry
     ewald contribution        =   -2349.35947536 Ry
     smearing contrib. (-TS)   =      -0.61789704 Ry

     convergence has been achieved in  11 iterations

     Forces acting on atoms (Ry/au):

     atom    1 type  1   force =     0.00000000    0.00000000    0.00616538
     atom    2 type  1   force =     0.00000000    0.00000000    0.00616538
     atom    3 type  1   force =     0.00000000    0.00000000   -0.00616538
     atom    4 type  1   force =     0.00000000    0.00000000   -0.00616538
     atom    5 type  2   force =     0.00000000    0.00000000    0.00000000
     atom    6 type  2   force =     0.00000000    0.00000000    0.00000000
     atom    7 type  2   force =     0.00000000   -0.01998585    0.00000000
     atom    8 type  2   force =     0.01730825   -0.00999292    0.00000000
     atom    9 type  2   force =    -0.01730825   -0.00999292    0.00000000
     atom   10 type  2   force =     0.01730825    0.00999292    0.00000000
     atom   11 type  2   force =    -0.01730825    0.00999292    0.00000000
     atom   12 type  2   force =     0.00000000    0.01998585    0.00000000

     Total force =     0.050484     Total SCF correction =     0.000000

     entering subroutine stress ...

          total   stress  (Ry/bohr**3)                   (kbar)     P=  527.89
   0.00356095   0.00000000   0.00000000        523.83      0.00      0.00
   0.00000000   0.00356095   0.00000000          0.00    523.83      0.00
   0.00000000   0.00000000   0.00364375          0.00      0.00    536.01

     Writing output data file Prototype-La-hP12-MgZn2.save

     General routines

     Parallel routines

   This run was terminated on:  12:44:57  22Mar2018

   JOB DONE.