     Program PWSCF v.5.0.2 starts on 22Mar2018 at 12:11:42

     Current dimensions of program PWSCF are:
     Max number of different atomic species (ntypx) = 10
     Max number of k-points (npk) =  40000
     Max angular momentum in pseudopotentials (lmaxx) =  3
     Waiting for input...
     Reading input from standard input

     Subspace diagonalization in iterative solution of the eigenvalue problem:
     a serial algorithm will be used

     bravais-lattice index     =            0
     lattice parameter (alat)  =      12.0168  a.u.
     unit-cell volume          =    1187.3413 (a.u.)^3
     number of atoms/cell      =            8
     number of atomic types    =            2
     number of electrons       =       174.00
     number of Kohn-Sham states=          104
     kinetic-energy cutoff     =      40.0000  Ry
     charge density cutoff     =     160.0000  Ry
     convergence threshold     =      1.0E-04
     mixing beta               =       0.7000
     number of iterations used =            8  plain     mixing
     Exchange-correlation      = SLA-PZ-NOGX-NOGC ( 1 1 0 0 0)
     EXX-fraction              =        0.00
     nstep                     =           50

     celldm(1)=  12.016801  celldm(2)=   0.000000  celldm(3)=   0.000000
     celldm(4)=   0.000000  celldm(5)=   0.000000  celldm(6)=   0.000000

     crystal axes: (cart. coord. in units of alat)
               a(1) = (   1.000000   0.000000   0.000000 )
               a(2) = (  -0.500000   0.866025   0.000000 )
               a(3) = (   0.000000   0.000000   0.790093 )

     reciprocal axes: (cart. coord. in units 2 pi/alat)
               b(1) = (  1.000000  0.577350  0.000000 )
               b(2) = (  0.000000  1.154701  0.000000 )
               b(3) = (  0.000000  0.000000  1.265674 )

     PseudoPot. # 1 for Yb read from file:
     /home/jld5415/pp.La/Yb.UPF
     MD5 check sum: 3e859b81cc28c53ec6aa3a2e888efcdf
     Pseudo is Norm-conserving, Zval = 24.0
     Generated in analytical, separable form
     Using radial grid of 1269 points,  6 beta functions with:
                l(1) =   0
                l(2) =   0
                l(3) =   1
                l(4) =   1
                l(5) =   2
                l(6) =   3

     PseudoPot. # 2 for Pm read from file:
     /home/jld5415/pp.La/Pm.UPF
     MD5 check sum: 0061344aafc48faba5d75831754de21b
     Pseudo is Norm-conserving, Zval = 15.0
     Generated in analytical, separable form
     Using radial grid of 1259 points,  6 beta functions with:
                l(1) =   0
                l(2) =   0
                l(3) =   1
                l(4) =   1
                l(5) =   2
                l(6) =   3

     atomic species   valence    mass     pseudopotential
        Mg            24.00    24.30500     Yb( 1.00)
        Cd            15.00   112.41100     Pm( 1.00)

     24 Sym. Ops., with inversion, found (12 have fractional translation)

   Cartesian axes

     site n.     atom                  positions (alat units)
         1           Mg  tau(   1) = (   0.2478935   0.7204716   0.1975233  )
         2           Mg  tau(   2) = (   0.7478935   0.1455538   0.5925699  )
         3           Mg  tau(   3) = (   0.2521065   0.1455538   0.5925699  )
         4           Mg  tau(   4) = (  -0.2478935   0.7204716   0.1975233  )
         5           Mg  tau(   5) = (   0.0000000   0.2911075   0.1975233  )
         6           Mg  tau(   6) = (   0.5000000   0.5749179   0.5925699  )
         7           Cd  tau(   7) = (   0.5000005   0.2886748   0.1975233  )
         8           Cd  tau(   8) = (  -0.0000005   0.5773506   0.5925699  )

     number of k points=    64  gaussian smearing, width (Ry)=  0.1000
                       cart. coord. in units 2pi/alat
        k(    1) = (   0.0000000   0.0000000   0.0000000), wk =   0.0095238
        k(    2) = (   0.0000000   0.0000000   0.1808105), wk =   0.0190476
        k(    3) = (   0.0000000   0.0000000   0.3616210), wk =   0.0190476
        k(    4) = (   0.0000000   0.0000000   0.5424315), wk =   0.0190476
        k(    5) = (   0.0000000   0.1924501   0.0000000), wk =   0.0190476
        k(    6) = (   0.0000000   0.1924501   0.1808105), wk =   0.0380952
        k(    7) = (   0.0000000   0.1924501   0.3616210), wk =   0.0380952
        k(    8) = (   0.0000000   0.1924501   0.5424315), wk =   0.0380952
        k(    9) = (   0.0000000   0.3849002   0.0000000), wk =   0.0190476
        k(   10) = (   0.0000000   0.3849002   0.1808105), wk =   0.0380952
        k(   11) = (   0.0000000   0.3849002   0.3616210), wk =   0.0380952
        k(   12) = (   0.0000000   0.3849002   0.5424315), wk =   0.0380952
        k(   13) = (   0.0000000  -0.5773503   0.0000000), wk =   0.0095238
        k(   14) = (   0.0000000  -0.5773503   0.1808105), wk =   0.0190476
        k(   15) = (   0.0000000  -0.5773503   0.3616210), wk =   0.0190476
        k(   16) = (   0.0000000  -0.5773503   0.5424315), wk =   0.0190476
        k(   17) = (   0.2000000   0.1154701   0.0000000), wk =   0.0190476
        k(   18) = (   0.2000000   0.1154701   0.1808105), wk =   0.0380952
        k(   19) = (   0.2000000   0.1154701   0.3616210), wk =   0.0380952
        k(   20) = (   0.2000000   0.1154701   0.5424315), wk =   0.0380952
        k(   21) = (   0.2000000   0.3079201   0.0000000), wk =   0.0190476
        k(   22) = (   0.2000000   0.3079201   0.1808105), wk =   0.0380952
        k(   23) = (   0.2000000   0.3079201   0.3616210), wk =   0.0380952
        k(   24) = (   0.2000000   0.3079201   0.5424315), wk =   0.0380952
        k(   25) = (   0.2000000   0.5003702   0.0000000), wk =   0.0190476
        k(   26) = (   0.2000000   0.5003702   0.1808105), wk =   0.0380952
        k(   27) = (   0.2000000   0.5003702   0.3616210), wk =   0.0380952
        k(   28) = (   0.2000000   0.5003702   0.5424315), wk =   0.0380952
        k(   29) = (   0.2000000  -0.4618802   0.0000000), wk =   0.0190476
        k(   30) = (   0.2000000  -0.4618802   0.1808105), wk =   0.0380952
        k(   31) = (   0.2000000  -0.4618802   0.3616210), wk =   0.0380952
        k(   32) = (   0.2000000  -0.4618802   0.5424315), wk =   0.0380952
        k(   33) = (   0.2000000  -0.2694301   0.0000000), wk =   0.0190476
        k(   34) = (   0.2000000  -0.2694301   0.1808105), wk =   0.0380952
        k(   35) = (   0.2000000  -0.2694301   0.3616210), wk =   0.0380952
        k(   36) = (   0.2000000  -0.2694301   0.5424315), wk =   0.0380952
        k(   37) = (   0.2000000  -0.0769800   0.0000000), wk =   0.0190476
        k(   38) = (   0.2000000  -0.0769800   0.1808105), wk =   0.0380952
        k(   39) = (   0.2000000  -0.0769800   0.3616210), wk =   0.0380952
        k(   40) = (   0.2000000  -0.0769800   0.5424315), wk =   0.0380952
        k(   41) = (   0.4000000   0.2309401   0.0000000), wk =   0.0190476
        k(   42) = (   0.4000000   0.2309401   0.1808105), wk =   0.0380952
        k(   43) = (   0.4000000   0.2309401   0.3616210), wk =   0.0380952
        k(   44) = (   0.4000000   0.2309401   0.5424315), wk =   0.0380952
        k(   45) = (   0.4000000   0.4233902   0.0000000), wk =   0.0190476
        k(   46) = (   0.4000000   0.4233902   0.1808105), wk =   0.0380952
        k(   47) = (   0.4000000   0.4233902   0.3616210), wk =   0.0380952
        k(   48) = (   0.4000000   0.4233902   0.5424315), wk =   0.0380952
        k(   49) = (   0.4000000   0.6158403   0.0000000), wk =   0.0190476
        k(   50) = (   0.4000000   0.6158403   0.1808105), wk =   0.0380952
        k(   51) = (   0.4000000   0.6158403   0.3616210), wk =   0.0380952
        k(   52) = (   0.4000000   0.6158403   0.5424315), wk =   0.0380952
        k(   53) = (   0.4000000  -0.3464102   0.0000000), wk =   0.0190476
        k(   54) = (   0.4000000  -0.3464102   0.1808105), wk =   0.0380952
        k(   55) = (   0.4000000  -0.3464102   0.3616210), wk =   0.0380952
        k(   56) = (   0.4000000  -0.3464102   0.5424315), wk =   0.0380952
        k(   57) = (   0.4000000  -0.1539601   0.0000000), wk =   0.0190476
        k(   58) = (   0.4000000  -0.1539601   0.1808105), wk =   0.0380952
        k(   59) = (   0.4000000  -0.1539601   0.3616210), wk =   0.0380952
        k(   60) = (   0.4000000  -0.1539601   0.5424315), wk =   0.0380952
        k(   61) = (   0.4000000   0.0384900   0.0000000), wk =   0.0190476
        k(   62) = (   0.4000000   0.0384900   0.1808105), wk =   0.0380952
        k(   63) = (   0.4000000   0.0384900   0.3616210), wk =   0.0380952
        k(   64) = (   0.4000000   0.0384900   0.5424315), wk =   0.0380952

     Largest allocated arrays     est. size (Mb)     dimensions
     Largest temporary arrays     est. size (Mb)     dimensions

     Initial potential from superposition of free atoms

     Starting from uniform charge
     Starting wfc are    0 randomized atomic wfcs

     Self-consistent Calculation

     iteration #  1     ecut=    40.00 Ry     beta=0.70
     CG style diagonalization
     ethr =  1.00E-02,  avg # of iterations = 18.6

     total energy              =   -1983.59737990 Ry
     Harris-Foulkes estimate   =   -3690.74927199 Ry
     estimated scf accuracy    <    2073.92673462 Ry

     iteration #  2     ecut=    40.00 Ry     beta=0.70
     CG style diagonalization
     c_bands:  4 eigenvalues not converged
     c_bands:  5 eigenvalues not converged
     c_bands:  4 eigenvalues not converged
     c_bands:  5 eigenvalues not converged
     c_bands:  4 eigenvalues not converged
     c_bands:  3 eigenvalues not converged
     c_bands:  5 eigenvalues not converged
     c_bands:  2 eigenvalues not converged
     c_bands:  4 eigenvalues not converged
     c_bands:  5 eigenvalues not converged
     c_bands:  5 eigenvalues not converged
     c_bands:  4 eigenvalues not converged
     c_bands:  4 eigenvalues not converged
     c_bands:  2 eigenvalues not converged
     c_bands:  3 eigenvalues not converged
     c_bands:  4 eigenvalues not converged
     c_bands:  4 eigenvalues not converged
     c_bands:  4 eigenvalues not converged
     c_bands:  4 eigenvalues not converged
     c_bands:  3 eigenvalues not converged
     c_bands:  5 eigenvalues not converged
     c_bands:  4 eigenvalues not converged
     c_bands:  5 eigenvalues not converged
     c_bands:  3 eigenvalues not converged
     c_bands:  5 eigenvalues not converged
     c_bands:  4 eigenvalues not converged
     c_bands:  2 eigenvalues not converged
     c_bands:  4 eigenvalues not converged
     c_bands:  4 eigenvalues not converged
     c_bands:  5 eigenvalues not converged
     c_bands:  3 eigenvalues not converged
     c_bands:  4 eigenvalues not converged
     c_bands:  3 eigenvalues not converged
     c_bands:  5 eigenvalues not converged
     c_bands:  4 eigenvalues not converged
     c_bands:  2 eigenvalues not converged
     c_bands:  5 eigenvalues not converged
     ethr =  1.00E-02,  avg # of iterations = 16.0

[...]

     End of self-consistent calculation

          k = 0.0000 0.0000 0.0000 (  5047 PWs)   bands (ev):

   -98.0857 -98.0856 -98.0799 -98.0218 -98.0218 -97.9838 -56.8872 -56.8661
[...]
        k(   15) = (   0.0000000  -0.5728313   0.3605717), wk =   0.0190476
        k(   16) = (   0.0000000  -0.5728313   0.5408576), wk =   0.0190476
        k(   17) = (   0.1984346   0.1145663   0.0000000), wk =   0.0190476
        k(   18) = (   0.1984346   0.1145663   0.1802859), wk =   0.0380952
        k(   19) = (   0.1984346   0.1145663   0.3605717), wk =   0.0380952
        k(   20) = (   0.1984346   0.1145663   0.5408576), wk =   0.0380952
        k(   21) = (   0.1984346   0.3055100   0.0000000), wk =   0.0190476
        k(   22) = (   0.1984346   0.3055100   0.1802859), wk =   0.0380952
        k(   23) = (   0.1984346   0.3055100   0.3605717), wk =   0.0380952
        k(   24) = (   0.1984346   0.3055100   0.5408576), wk =   0.0380952
        k(   25) = (   0.1984346   0.4964538   0.0000000), wk =   0.0190476
        k(   26) = (   0.1984346   0.4964538   0.1802859), wk =   0.0380952
        k(   27) = (   0.1984346   0.4964538   0.3605717), wk =   0.0380952
        k(   28) = (   0.1984346   0.4964538   0.5408576), wk =   0.0380952
        k(   29) = (   0.1984346  -0.4582650   0.0000000), wk =   0.0190476
        k(   30) = (   0.1984346  -0.4582650   0.1802859), wk =   0.0380952
        k(   31) = (   0.1984346  -0.4582650   0.3605717), wk =   0.0380952
        k(   32) = (   0.1984346  -0.4582650   0.5408576), wk =   0.0380952
        k(   33) = (   0.1984346  -0.2673213   0.0000000), wk =   0.0190476
        k(   34) = (   0.1984346  -0.2673213   0.1802859), wk =   0.0380952
        k(   35) = (   0.1984346  -0.2673213   0.3605717), wk =   0.0380952
        k(   36) = (   0.1984346  -0.2673213   0.5408576), wk =   0.0380952
        k(   37) = (   0.1984346  -0.0763775   0.0000000), wk =   0.0190476
        k(   38) = (   0.1984346  -0.0763775   0.1802859), wk =   0.0380952
        k(   39) = (   0.1984346  -0.0763775   0.3605717), wk =   0.0380952
        k(   40) = (   0.1984346  -0.0763775   0.5408576), wk =   0.0380952
        k(   41) = (   0.3968691   0.2291325   0.0000000), wk =   0.0190476
        k(   42) = (   0.3968691   0.2291325   0.1802859), wk =   0.0380952
        k(   43) = (   0.3968691   0.2291325   0.3605717), wk =   0.0380952
        k(   44) = (   0.3968691   0.2291325   0.5408576), wk =   0.0380952
        k(   45) = (   0.3968691   0.4200763   0.0000000), wk =   0.0190476
        k(   46) = (   0.3968691   0.4200763   0.1802859), wk =   0.0380952
        k(   47) = (   0.3968691   0.4200763   0.3605717), wk =   0.0380952
        k(   48) = (   0.3968691   0.4200763   0.5408576), wk =   0.0380952
        k(   49) = (   0.3968691   0.6110200   0.0000000), wk =   0.0190476
        k(   50) = (   0.3968691   0.6110200   0.1802859), wk =   0.0380952
        k(   51) = (   0.3968691   0.6110200   0.3605717), wk =   0.0380952
        k(   52) = (   0.3968691   0.6110200   0.5408576), wk =   0.0380952
        k(   53) = (   0.3968691  -0.3436988   0.0000000), wk =   0.0190476
        k(   54) = (   0.3968691  -0.3436988   0.1802859), wk =   0.0380952
        k(   55) = (   0.3968691  -0.3436988   0.3605717), wk =   0.0380952
        k(   56) = (   0.3968691  -0.3436988   0.5408576), wk =   0.0380952
        k(   57) = (   0.3968691  -0.1527550   0.0000000), wk =   0.0190476
        k(   58) = (   0.3968691  -0.1527550   0.1802859), wk =   0.0380952
        k(   59) = (   0.3968691  -0.1527550   0.3605717), wk =   0.0380952
        k(   60) = (   0.3968691  -0.1527550   0.5408576), wk =   0.0380952
        k(   61) = (   0.3968691   0.0381888   0.0000000), wk =   0.0190476
        k(   62) = (   0.3968691   0.0381888   0.1802859), wk =   0.0380952
        k(   63) = (   0.3968691   0.0381888   0.3605717), wk =   0.0380952
        k(   64) = (   0.3968691   0.0381888   0.5408576), wk =   0.0380952

[...]

     The maximum number of steps has been reached.

     End of BFGS Geometry Optimization
Begin final coordinates
     new unit-cell volume =   1209.65883 a.u.^3 (   179.25294 Ang^3 )

CELL_PARAMETERS (alat= 12.01680127)
   1.007888918   0.000000000   0.000000000
  -0.503944459   0.872857407   0.000000000
   0.000000000   0.000000000   0.792392381

ATOMIC_POSITIONS (crystal)
Mg       0.657759807   0.828879904   0.250000000
Mg       0.828879904   0.171120096   0.750000000
Mg       0.342240193   0.171120096   0.750000000
Mg       0.171120096   0.828879904   0.250000000
Mg       0.171120096   0.342240193   0.250000000
Mg       0.828879904   0.657759807   0.750000000
Cd       0.666667000   0.333333000   0.250000000
Cd       0.333333000   0.666667000   0.750000000
End final coordinates

     A final scf calculation at the relaxed structure.
     The G-vectors are recalculated for the final unit cell
     Results may differ from those at the preceding step.

     bravais-lattice index     =            0
     lattice parameter (alat)  =      12.0168  a.u.
     unit-cell volume          =    1209.6588 (a.u.)^3
     number of atoms/cell      =            8
     number of atomic types    =            2
     number of electrons       =       174.00
     number of Kohn-Sham states=          104
     kinetic-energy cutoff     =      40.0000  Ry
     charge density cutoff     =     160.0000  Ry
     convergence threshold     =      1.4E-05
     mixing beta               =       0.7000
     number of iterations used =            8  plain     mixing
     Exchange-correlation      = SLA-PZ-NOGX-NOGC ( 1 1 0 0 0)
     EXX-fraction              =        0.00

     celldm(1)=  12.016801  celldm(2)=   0.000000  celldm(3)=   0.000000
     celldm(4)=   0.000000  celldm(5)=   0.000000  celldm(6)=   0.000000

     crystal axes: (cart. coord. in units of alat)
               a(1) = (   1.007889   0.000000   0.000000 )
               a(2) = (  -0.503944   0.872857   0.000000 )
               a(3) = (   0.000000   0.000000   0.792392 )

     reciprocal axes: (cart. coord. in units 2 pi/alat)
               b(1) = (  0.992173  0.572831  0.000000 )
               b(2) = (  0.000000  1.145663  0.000000 )
               b(3) = (  0.000000  0.000000  1.262001 )

     PseudoPot. # 1 for Yb read from file:
     /home/jld5415/pp.La/Yb.UPF
     MD5 check sum: 3e859b81cc28c53ec6aa3a2e888efcdf
     Pseudo is Norm-conserving, Zval = 24.0
     Generated in analytical, separable form
     Using radial grid of 1269 points,  6 beta functions with:
                l(1) =   0
                l(2) =   0
                l(3) =   1
                l(4) =   1
                l(5) =   2
                l(6) =   3

     PseudoPot. # 2 for Pm read from file:
     /home/jld5415/pp.La/Pm.UPF
     MD5 check sum: 0061344aafc48faba5d75831754de21b
     Pseudo is Norm-conserving, Zval = 15.0
     Generated in analytical, separable form
     Using radial grid of 1259 points,  6 beta functions with:
                l(1) =   0
                l(2) =   0
                l(3) =   1
                l(4) =   1
                l(5) =   2
                l(6) =   3

     atomic species   valence    mass     pseudopotential
        Mg            24.00    24.30500     Yb( 1.00)
        Cd            15.00   112.41100     Pm( 1.00)

     24 Sym. Ops., with inversion, found (12 have fractional translation)

   Cartesian axes

     site n.     atom                  positions (alat units)
         1           Mg  tau(   1) = (   0.2452394   0.7234940   0.1980981  )
         2           Mg  tau(   2) = (   0.7491838   0.1493634   0.5942943  )
         3           Mg  tau(   3) = (   0.2587051   0.1493634   0.5942943  )
         4           Mg  tau(   4) = (  -0.2452394   0.7234940   0.1980981  )
         5           Mg  tau(   5) = (   0.0000000   0.2987269   0.1980981  )
         6           Mg  tau(   6) = (   0.5039445   0.5741305   0.5942943  )
         7           Cd  tau(   7) = (   0.5039450   0.2909522   0.1980981  )
         8           Cd  tau(   8) = (  -0.0000005   0.5819052   0.5942943  )

     number of k points=    64  gaussian smearing, width (Ry)=  0.1000
                       cart. coord. in units 2pi/alat
        k(    1) = (   0.0000000   0.0000000   0.0000000), wk =   0.0095238
        k(    2) = (   0.0000000   0.0000000   0.1802859), wk =   0.0190476
        k(    3) = (   0.0000000   0.0000000   0.3605717), wk =   0.0190476
        k(    4) = (   0.0000000   0.0000000   0.5408576), wk =   0.0190476
        k(    5) = (   0.0000000   0.1909438   0.0000000), wk =   0.0190476
        k(    6) = (   0.0000000   0.1909438   0.1802859), wk =   0.0380952
        k(    7) = (   0.0000000   0.1909438   0.3605717), wk =   0.0380952
        k(    8) = (   0.0000000   0.1909438   0.5408576), wk =   0.0380952
        k(    9) = (   0.0000000   0.3818875   0.0000000), wk =   0.0190476
        k(   10) = (   0.0000000   0.3818875   0.1802859), wk =   0.0380952
        k(   11) = (   0.0000000   0.3818875   0.3605717), wk =   0.0380952
        k(   12) = (   0.0000000   0.3818875   0.5408576), wk =   0.0380952
        k(   13) = (   0.0000000  -0.5728313   0.0000000), wk =   0.0095238
        k(   14) = (   0.0000000  -0.5728313   0.1802859), wk =   0.0190476
        k(   15) = (   0.0000000  -0.5728313   0.3605717), wk =   0.0190476
        k(   16) = (   0.0000000  -0.5728313   0.5408576), wk =   0.0190476
        k(   17) = (   0.1984346   0.1145663   0.0000000), wk =   0.0190476
        k(   18) = (   0.1984346   0.1145663   0.1802859), wk =   0.0380952
        k(   19) = (   0.1984346   0.1145663   0.3605717), wk =   0.0380952
        k(   20) = (   0.1984346   0.1145663   0.5408576), wk =   0.0380952
        k(   21) = (   0.1984346   0.3055100   0.0000000), wk =   0.0190476
        k(   22) = (   0.1984346   0.3055100   0.1802859), wk =   0.0380952
        k(   23) = (   0.1984346   0.3055100   0.3605717), wk =   0.0380952
        k(   24) = (   0.1984346   0.3055100   0.5408576), wk =   0.0380952
        k(   25) = (   0.1984346   0.4964538   0.0000000), wk =   0.0190476
        k(   26) = (   0.1984346   0.4964538   0.1802859), wk =   0.0380952
        k(   27) = (   0.1984346   0.4964538   0.3605717), wk =   0.0380952
        k(   28) = (   0.1984346   0.4964538   0.5408576), wk =   0.0380952
        k(   29) = (   0.1984346  -0.4582650   0.0000000), wk =   0.0190476
        k(   30) = (   0.1984346  -0.4582650   0.1802859), wk =   0.0380952
        k(   31) = (   0.1984346  -0.4582650   0.3605717), wk =   0.0380952
        k(   32) = (   0.1984346  -0.4582650   0.5408576), wk =   0.0380952
        k(   33) = (   0.1984346  -0.2673213   0.0000000), wk =   0.0190476
        k(   34) = (   0.1984346  -0.2673213   0.1802859), wk =   0.0380952
        k(   35) = (   0.1984346  -0.2673213   0.3605717), wk =   0.0380952
        k(   36) = (   0.1984346  -0.2673213   0.5408576), wk =   0.0380952
        k(   37) = (   0.1984346  -0.0763775   0.0000000), wk =   0.0190476
        k(   38) = (   0.1984346  -0.0763775   0.1802859), wk =   0.0380952
        k(   39) = (   0.1984346  -0.0763775   0.3605717), wk =   0.0380952
        k(   40) = (   0.1984346  -0.0763775   0.5408576), wk =   0.0380952
        k(   41) = (   0.3968691   0.2291325   0.0000000), wk =   0.0190476
        k(   42) = (   0.3968691   0.2291325   0.1802859), wk =   0.0380952
        k(   43) = (   0.3968691   0.2291325   0.3605717), wk =   0.0380952
        k(   44) = (   0.3968691   0.2291325   0.5408576), wk =   0.0380952
        k(   45) = (   0.3968691   0.4200763   0.0000000), wk =   0.0190476
        k(   46) = (   0.3968691   0.4200763   0.1802859), wk =   0.0380952
        k(   47) = (   0.3968691   0.4200763   0.3605717), wk =   0.0380952
        k(   48) = (   0.3968691   0.4200763   0.5408576), wk =   0.0380952
        k(   49) = (   0.3968691   0.6110200   0.0000000), wk =   0.0190476
        k(   50) = (   0.3968691   0.6110200   0.1802859), wk =   0.0380952
        k(   51) = (   0.3968691   0.6110200   0.3605717), wk =   0.0380952
        k(   52) = (   0.3968691   0.6110200   0.5408576), wk =   0.0380952
        k(   53) = (   0.3968691  -0.3436988   0.0000000), wk =   0.0190476
        k(   54) = (   0.3968691  -0.3436988   0.1802859), wk =   0.0380952
        k(   55) = (   0.3968691  -0.3436988   0.3605717), wk =   0.0380952
        k(   56) = (   0.3968691  -0.3436988   0.5408576), wk =   0.0380952
        k(   57) = (   0.3968691  -0.1527550   0.0000000), wk =   0.0190476
        k(   58) = (   0.3968691  -0.1527550   0.1802859), wk =   0.0380952
        k(   59) = (   0.3968691  -0.1527550   0.3605717), wk =   0.0380952
        k(   60) = (   0.3968691  -0.1527550   0.5408576), wk =   0.0380952
        k(   61) = (   0.3968691   0.0381888   0.0000000), wk =   0.0190476
        k(   62) = (   0.3968691   0.0381888   0.1802859), wk =   0.0380952
        k(   63) = (   0.3968691   0.0381888   0.3605717), wk =   0.0380952
        k(   64) = (   0.3968691   0.0381888   0.5408576), wk =   0.0380952

     Largest allocated arrays     est. size (Mb)     dimensions
     Largest temporary arrays     est. size (Mb)     dimensions

     Initial potential from superposition of free atoms

     Starting from uniform charge
     Starting wfc are    0 randomized atomic wfcs

     Writing output data file Prototype-La-hP8-Mg3Cd.save

     Self-consistent Calculation

[...]

     iteration # 11     ecut=    40.00 Ry     beta=0.70
     CG style diagonalization
     c_bands:  1 eigenvalues not converged
     c_bands:  1 eigenvalues not converged
     c_bands:  1 eigenvalues not converged
     c_bands:  1 eigenvalues not converged
     ethr =  1.18E-06,  avg # of iterations =  3.2

[...]

     total energy              =   -2717.48940507 Ry
     Harris-Foulkes estimate   =   -2717.48941279 Ry
     estimated scf accuracy    <       0.00002128 Ry

     iteration # 14     ecut=    40.00 Ry     beta=0.70
     CG style diagonalization
     ethr =  1.22E-08,  avg # of iterations =  3.7

     End of self-consistent calculation

[...]

          k = 0.3969 0.0382 0.5409 (  5157 PWs)   bands (ev):

   -98.6232 -98.6040 -98.5981 -98.5891 -98.5725 -98.5695 -57.4028 -57.4005
   -57.3975 -57.3968 -57.3940 -57.3932 -57.3864 -57.3822 -57.3767 -57.3729
   -57.3725 -57.3711 -57.3684 -57.3679 -57.3656 -57.3641 -57.3622 -57.3602
   -26.8628 -26.8625  -3.7347  -3.7343  -3.5935  -3.5921  -3.5832  -3.5804
     0.3335   0.3389   0.4022   0.4116   0.4423   0.4521   0.5285   0.5492
     0.5533   0.5887   0.6032   0.6087   0.6378   0.7301   0.7460   0.7551
     0.7607   0.7806   0.8016   0.8115   0.8392   0.8645   0.8723   0.8785
     0.9231   0.9337   1.0061   1.0164   1.0469   1.0778  11.4569  12.2776
    13.1644  13.5781  14.3553  14.7275  17.8686  18.3976  18.5048  18.9639
    20.1609  20.2442  21.4040  21.8913  22.1466  22.1913  23.4030  23.5169
    23.6636  23.7482  24.1997  24.5849  24.9348  25.1192  25.8921  26.4038
    26.7149  26.9506  27.3715  27.5278  28.0167  28.1647  28.6710  28.8204
    29.0082  30.2677  30.5938  30.8207  30.9161  31.4234  31.9556  32.2284

     the Fermi energy is    25.8180 ev

!    total energy              =   -2717.48940886 Ry
     Harris-Foulkes estimate   =   -2717.48941228 Ry
     estimated scf accuracy    <       0.00000372 Ry

     The total energy is the sum of the following terms:

     one-electron contribution =    -938.63764683 Ry
     hartree contribution      =     527.26638508 Ry
     xc contribution           =    -220.20828502 Ry
     ewald contribution        =   -2085.54419645 Ry
     smearing contrib. (-TS)   =      -0.36566563 Ry

     convergence has been achieved in  14 iterations

     Forces acting on atoms (Ry/au):

     atom    1 type  1   force =    -0.00725416   -0.00418819    0.00000000
     atom    2 type  1   force =    -0.00725416    0.00418819    0.00000000
     atom    3 type  1   force =     0.00725416    0.00418819    0.00000000
     atom    4 type  1   force =     0.00725416   -0.00418819    0.00000000
     atom    5 type  1   force =     0.00000000    0.00837638    0.00000000
     atom    6 type  1   force =     0.00000000   -0.00837638    0.00000000
     atom    7 type  2   force =     0.00000000    0.00000000    0.00000000
     atom    8 type  2   force =     0.00000000    0.00000000    0.00000000

     Total force =     0.020518     Total SCF correction =     0.000000

     entering subroutine stress ...

          total   stress  (Ry/bohr**3)                   (kbar)     P= -218.68
  -0.00143684   0.00000000   0.00000000       -211.37      0.00      0.00
   0.00000000  -0.00143684   0.00000000          0.00   -211.37      0.00
   0.00000000   0.00000000  -0.00158597          0.00      0.00   -233.30

     Writing output data file Prototype-La-hP8-Mg3Cd.save

     General routines

     Parallel routines

   This run was terminated on:  14: 8:11  22Mar2018

   JOB DONE.