     Program PWSCF v.5.0.2 starts on 22Mar2018 at 21:37: 5

     Current dimensions of program PWSCF are:
     Max number of different atomic species (ntypx) = 10
     Max number of k-points (npk) =  40000
     Max angular momentum in pseudopotentials (lmaxx) =  3
     Waiting for input...
     Reading input from standard input

     Subspace diagonalization in iterative solution of the eigenvalue problem:
     a serial algorithm will be used

     bravais-lattice index     =            0
     lattice parameter (alat)  =       9.9235  a.u.
     unit-cell volume          =    1361.0366 (a.u.)^3
     number of atoms/cell      =           12
     number of atomic types    =            2
     number of electrons       =       244.00
     number of Kohn-Sham states=          146
     kinetic-energy cutoff     =      40.0000  Ry
     charge density cutoff     =     160.0000  Ry
     convergence threshold     =      1.0E-04
     mixing beta               =       0.7000
     number of iterations used =            8  plain     mixing
     Exchange-correlation      = SLA-PZ-NOGX-NOGC ( 1 1 0 0 0)
     EXX-fraction              =        0.00
     nstep                     =           50

     celldm(1)=   9.923489  celldm(2)=   0.000000  celldm(3)=   0.000000
     celldm(4)=   0.000000  celldm(5)=   0.000000  celldm(6)=   0.000000

     crystal axes: (cart. coord. in units of alat)
               a(1) = (   1.000000   0.000000   0.000000 )
               a(2) = (  -0.500000   0.866025   0.000000 )
               a(3) = (   0.000000   0.000000   1.608222 )

     reciprocal axes: (cart. coord. in units 2 pi/alat)
               b(1) = (  1.000000  0.577350  0.000000 )
               b(2) = (  0.000000  1.154701  0.000000 )
               b(3) = (  0.000000  0.000000  0.621805 )

     PseudoPot. # 1 for Tm read from file:
     /home/cwx6513/pp.La/Tm.UPF
     MD5 check sum: 245516e0878b5372ceeb9443ded2c4e1
     Pseudo is Norm-conserving, Zval = 23.0
     Generated in analytical, separable form
     Using radial grid of 1269 points,  6 beta functions with:
                l(1) =   0
                l(2) =   0
                l(3) =   1
                l(4) =   1
                l(5) =   2
                l(6) =   3

     PseudoPot. # 2 for Tb read from file:
     /home/cwx6513/pp.La/Tb.UPF
     MD5 check sum: 3d6088a3f0cf7fd2e110c43f7f8e95c2
     Pseudo is Norm-conserving, Zval = 19.0
     Generated in analytical, separable form
     Using radial grid of 1263 points,  6 beta functions with:
                l(1) =   0
                l(2) =   0
                l(3) =   1
                l(4) =   1
                l(5) =   2
                l(6) =   3

     atomic species   valence    mass     pseudopotential
        Mg            23.00    24.30500     Tm( 1.00)
        Zn            19.00    65.39000     Tb( 1.00)

     24 Sym. Ops., with inversion, found (12 have fractional translation)

   Cartesian axes

     site n.     atom                  positions (alat units)
         1           Mg  tau(   1) = (  -0.0000005   0.5773506   0.1003820  )
         2           Mg  tau(   2) = (   0.5000005   0.2886748   0.9044931  )
         3           Mg  tau(   3) = (   0.5000005   0.2886748   1.5078402  )
         4           Mg  tau(   4) = (  -0.0000005   0.5773506   0.7037291  )
         5           Zn  tau(   5) = (   0.0000000   0.0000000   0.0000000  )
         6           Zn  tau(   6) = (   0.0000000   0.0000000   0.8041111  )
         7           Zn  tau(   7) = (   0.0000000   0.2950739   1.2061667  )
         8           Zn  tau(   8) = (   0.7444585   0.1475370   0.4020556  )
         9           Zn  tau(   9) = (   0.2555415   0.1475370   0.4020556  )
        10           Zn  tau(  10) = (   0.2444585   0.7184884   1.2061667  )
        11           Zn  tau(  11) = (  -0.2444585   0.7184884   1.2061667  )
        12           Zn  tau(  12) = (   0.5000000   0.5709515   0.4020556  )

     number of k points=    12  gaussian smearing, width (Ry)=  0.1000
                       cart. coord. in units 2pi/alat
        k(    1) = (   0.0000000   0.0000000   0.0000000), wk =   0.0833333
        k(    2) = (   0.0000000   0.0000000   0.1554512), wk =   0.1666667
        k(    3) = (   0.0000000   0.0000000  -0.3109023), wk =   0.0833333
        k(    4) = (   0.0000000   0.3849002   0.0000000), wk =   0.1666667
        k(    5) = (   0.0000000   0.3849002   0.1554512), wk =   0.3333333
        k(    6) = (   0.0000000   0.3849002  -0.3109023), wk =   0.1666667
        k(    7) = (  -0.5000000  -0.2886751   0.0000000), wk =   0.0833333
        k(    8) = (  -0.5000000  -0.2886751   0.1554512), wk =   0.1666667
        k(    9) = (  -0.5000000  -0.2886751  -0.3109023), wk =   0.0833333
        k(   10) = (  -0.5000000   0.0962250   0.0000000), wk =   0.1666667
        k(   11) = (  -0.5000000   0.0962250   0.1554512), wk =   0.3333333
        k(   12) = (  -0.5000000   0.0962250  -0.3109023), wk =   0.1666667

     Largest allocated arrays     est. size (Mb)     dimensions
     Largest temporary arrays     est. size (Mb)     dimensions

     Initial potential from superposition of free atoms

     Starting from uniform charge
     Starting wfc are    0 randomized atomic wfcs

     Self-consistent Calculation

     iteration #  1     ecut=    40.00 Ry     beta=0.70
     CG style diagonalization
     c_bands:  2 eigenvalues not converged
     c_bands:  2 eigenvalues not converged
     c_bands:  2 eigenvalues not converged
     c_bands:  3 eigenvalues not converged
     c_bands:  2 eigenvalues not converged
     c_bands:  4 eigenvalues not converged
     c_bands:  4 eigenvalues not converged
     c_bands:  1 eigenvalues not converged
     c_bands:  2 eigenvalues not converged
     c_bands:  4 eigenvalues not converged
     ethr =  1.00E-02,  avg # of iterations = 13.9

     total energy              =   -2581.29483380 Ry
     Harris-Foulkes estimate   =   -4012.74290509 Ry
     estimated scf accuracy    <    1770.77538755 Ry

[...]

     iteration #  5     ecut=    40.00 Ry     beta=0.70
     CG style diagonalization
     ethr =  1.00E-02,  avg # of iterations =  3.5

[...]

     End of self-consistent calculation

          k = 0.0000 0.0000 0.0000 (  5769 PWs)   bands (ev):

   -78.9129 -78.8985 -78.8927 -78.8507 -44.1175 -44.0738 -43.8371 -43.8371
   -43.8336 -43.8336 -43.7967 -43.7342 -37.6042 -37.5953 -37.5953 -37.5884
   -37.5753 -37.5753 -37.5637 -37.5520 -37.5520 -37.5429 -37.5429 -37.5387
   -14.0622 -13.7714 -13.2852 -12.9448 -12.9448 -12.8846 -12.8846 -12.7513
   -12.7512 -12.5578 -12.3183 -12.3182 -12.2405 -12.2218 -12.2218 -11.8477
   -11.8313 -11.7684 -11.7684 -11.7515 -11.7515 -11.7364 -11.6670 -11.6670
    11.0995  11.0996  11.1406  11.1414  11.1794  11.1794  11.2053  11.2053
    11.2970  11.2970  11.4839  11.4839  11.5265  11.5746  11.5746  11.5888
    11.5888  11.5891  11.6416  11.6416  17.5274  19.0357  19.3149  19.7854
    20.3649  21.0753  21.3221  21.3221  21.5338  21.5338  21.5599  21.8401
    21.8401  22.1292  22.5003  22.5004  23.4882  23.4882  23.6893  23.6893
    24.2195  24.2195  24.5254  25.2947  25.4576  25.4577  26.0502  26.3570
    26.6289  26.8544  26.9879  26.9879  27.0465  27.0465  27.0861  27.0862
    27.1166  27.1166  27.7218  28.7018  28.7018  29.0760  29.0760  30.2345
    30.2353  30.2670  30.2670  30.4240  30.4240  30.8189  30.8239  31.9193
    31.9195  32.3897  32.7964  32.9303  32.9305  33.1294  34.0547  35.9633
    35.9633  36.2910  36.8466  36.8467  37.2129  38.1226  38.1495  38.1497
    38.6995  38.6998  39.1035  39.1036  39.6748  40.0621  40.0622  40.0648
    40.1437  40.1432

[...]

          k =-0.5000-0.2887 0.0000 (  5800 PWs)   bands (ev):

[...]

     the Fermi energy is    33.3556 ev

!    total energy              =   -3302.37881694 Ry
     Harris-Foulkes estimate   =   -3302.37885575 Ry
     estimated scf accuracy    <       0.00004334 Ry

     The total energy is the sum of the following terms:

     one-electron contribution =    -499.34384405 Ry
     hartree contribution      =     460.15338428 Ry
     xc contribution           =    -300.01941614 Ry
     ewald contribution        =   -2962.93907746 Ry
     smearing contrib. (-TS)   =      -0.22986357 Ry

     convergence has been achieved in  11 iterations

     Forces acting on atoms (Ry/au):

     atom    1 type  1   force =     0.00000000    0.00000000   -0.02016268
     atom    2 type  1   force =     0.00000000    0.00000000   -0.02016268
     atom    3 type  1   force =     0.00000000    0.00000000    0.02016268
     atom    4 type  1   force =     0.00000000    0.00000000    0.02016268
     atom    5 type  2   force =     0.00000000    0.00000000    0.00000000
     atom    6 type  2   force =     0.00000000    0.00000000    0.00000000
     atom    7 type  2   force =     0.00000000    0.04997580    0.00000000
     atom    8 type  2   force =    -0.04328032    0.02498790    0.00000000
     atom    9 type  2   force =     0.04328032    0.02498790    0.00000000
     atom   10 type  2   force =    -0.04328032   -0.02498790    0.00000000
     atom   11 type  2   force =     0.04328032   -0.02498790    0.00000000
     atom   12 type  2   force =     0.00000000   -0.04997580    0.00000000

     Total force =     0.128886     Total SCF correction =     0.000000

     entering subroutine stress ...

          total   stress  (Ry/bohr**3)                   (kbar)     P=  663.07
   0.00446395   0.00000000   0.00000000        656.67      0.00      0.00
   0.00000000   0.00446395   0.00000000          0.00    656.67      0.00
   0.00000000   0.00000000   0.00459458          0.00      0.00    675.89

     BFGS Geometry Optimization

     number of scf cycles    =   1
     number of bfgs steps    =   0

     enthalpy new            =   -3302.3788169403 Ry

     new trust radius        =       0.5000000000 bohr
     new conv_thr            =       0.0001000000 Ry

     new unit-cell volume =   1650.92773 a.u.^3 (   244.64225 Ang^3 )

CELL_PARAMETERS (alat=  9.92348860)
   1.065838228   0.000000000   0.000000000
  -0.532919114   0.923042982   0.000000000
   0.000000000   0.000000000   1.717203317

ATOMIC_POSITIONS (crystal)
Mg       0.333333000   0.666667000   0.061672656
Mg       0.666667000   0.333333000   0.561672656
Mg       0.666667000   0.333333000   0.938327344
Mg       0.333333000   0.666667000   0.438327344
Zn       0.000000000   0.000000000   0.000000000
Zn       0.000000000   0.000000000   0.500000000
Zn       0.172076354   0.344152708   0.750000000
Zn       0.827923646   0.172076354   0.250000000
Zn       0.344152708   0.172076354   0.250000000
Zn       0.655847292   0.827923646   0.750000000
Zn       0.172076354   0.827923646   0.750000000
Zn       0.827923646   0.655847292   0.250000000

     Writing output data file Prototype-La-hP12-MgZn2.save
     NEW-OLD atomic charge density approx. for the potential
     NEW k-points:
        k(    1) = (   0.0000000   0.0000000   0.0000000), wk =   0.0833333
        k(    2) = (   0.0000000   0.0000000   0.1455856), wk =   0.1666667
        k(    3) = (   0.0000000   0.0000000  -0.2911711), wk =   0.0833333
        k(    4) = (   0.0000000   0.3611244   0.0000000), wk =   0.1666667
        k(    5) = (   0.0000000   0.3611244   0.1455856), wk =   0.3333333
        k(    6) = (   0.0000000   0.3611244  -0.2911711), wk =   0.1666667
        k(    7) = (  -0.4691143  -0.2708433   0.0000000), wk =   0.0833333
        k(    8) = (  -0.4691143  -0.2708433   0.1455856), wk =   0.1666667
        k(    9) = (  -0.4691143  -0.2708433  -0.2911711), wk =   0.0833333
        k(   10) = (  -0.4691143   0.0902811   0.0000000), wk =   0.1666667
        k(   11) = (  -0.4691143   0.0902811   0.1455856), wk =   0.3333333
        k(   12) = (  -0.4691143   0.0902811  -0.2911711), wk =   0.1666667

[...]

     enthalpy old            =   -3302.3788169403 Ry
     enthalpy new            =   -3302.2032527239 Ry

     CASE: enthalpy_new > enthalpy_old

     new trust radius        =       0.2257382169 bohr

     trust_radius < trust_radius_min

     resetting bfgs history

     new conv_thr            =       0.0001000000 Ry

[...]

     number of scf cycles    =   3
     number of bfgs steps    =   1

     enthalpy old            =   -3302.3788169403 Ry
     enthalpy new            =   -3302.2481608952 Ry

     CASE: enthalpy_new > enthalpy_old

     new trust radius        =       0.2250591348 bohr

     trust_radius < trust_radius_min

     resetting bfgs history

     Message from routine bfgs:
     history already reset at previous step: stopping
     new conv_thr            =       0.0001000000 Ry

     new unit-cell volume =   1641.09077 a.u.^3 (   243.18456 Ang^3 )

[...]

ATOMIC_POSITIONS (crystal)
Mg       0.333333000   0.666667000   0.061741839
Mg       0.666667000   0.333333000   0.561741839
Mg       0.666667000   0.333333000   0.938258161
Mg       0.333333000   0.666667000   0.438258161
Zn       0.000000000   0.000000000   0.000000000
Zn       0.000000000   0.000000000   0.500000000
Zn       0.171923279   0.343846557   0.750000000
Zn       0.828076721   0.171923279   0.250000000
Zn       0.343846557   0.171923279   0.250000000
Zn       0.656153443   0.828076721   0.750000000
Zn       0.171923279   0.828076721   0.750000000
Zn       0.828076721   0.656153443   0.250000000

     Writing output data file Prototype-La-hP12-MgZn2.save
     NEW-OLD atomic charge density approx. for the potential
     NEW k-points:
        k(    1) = (   0.0000000   0.0000000   0.0000000), wk =   0.0833333
        k(    2) = (   0.0000000   0.0000000   0.1458577), wk =   0.1666667
        k(    3) = (   0.0000000   0.0000000  -0.2917155), wk =   0.0833333
        k(    4) = (   0.0000000   0.3618670   0.0000000), wk =   0.1666667
        k(    5) = (   0.0000000   0.3618670   0.1458577), wk =   0.3333333
        k(    6) = (   0.0000000   0.3618670  -0.2917155), wk =   0.1666667
        k(    7) = (  -0.4700790  -0.2714002   0.0000000), wk =   0.0833333
        k(    8) = (  -0.4700790  -0.2714002   0.1458577), wk =   0.1666667
        k(    9) = (  -0.4700790  -0.2714002  -0.2917155), wk =   0.0833333
        k(   10) = (  -0.4700790   0.0904667   0.0000000), wk =   0.1666667
        k(   11) = (  -0.4700790   0.0904667   0.1458577), wk =   0.3333333
        k(   12) = (  -0.4700790   0.0904667  -0.2917155), wk =   0.1666667

[...]

     Threshold (ethr) on eigenvalues was too large:
     Diagonalizing with lowered threshold

     CG style diagonalization
     ethr =  6.35E-08,  avg # of iterations =  3.1

[...]

     The maximum number of steps has been reached.

     End of BFGS Geometry Optimization
Begin final coordinates
     new unit-cell volume =   1641.09077 a.u.^3 (   243.18456 Ang^3 )

CELL_PARAMETERS (alat=  9.92348860)
   1.063650998   0.000000000   0.000000000
  -0.531825499   0.921148785   0.000000000
   0.000000000   0.000000000   1.713998911

ATOMIC_POSITIONS (crystal)
Mg       0.333333000   0.666667000   0.061741839
Mg       0.666667000   0.333333000   0.561741839
Mg       0.666667000   0.333333000   0.938258161
Mg       0.333333000   0.666667000   0.438258161
Zn       0.000000000   0.000000000   0.000000000
Zn       0.000000000   0.000000000   0.500000000
Zn       0.171923279   0.343846557   0.750000000
Zn       0.828076721   0.171923279   0.250000000
Zn       0.343846557   0.171923279   0.250000000
Zn       0.656153443   0.828076721   0.750000000
Zn       0.171923279   0.828076721   0.750000000
Zn       0.828076721   0.656153443   0.250000000
End final coordinates

     A final scf calculation at the relaxed structure.
     The G-vectors are recalculated for the final unit cell
     Results may differ from those at the preceding step.

     bravais-lattice index     =            0
     lattice parameter (alat)  =       9.9235  a.u.
     unit-cell volume          =    1641.0908 (a.u.)^3
     number of atoms/cell      =           12
     number of atomic types    =            2
     number of electrons       =       244.00
     number of Kohn-Sham states=          146
     kinetic-energy cutoff     =      40.0000  Ry
     charge density cutoff     =     160.0000  Ry
     convergence threshold     =      1.0E-04
     mixing beta               =       0.7000
     number of iterations used =            8  plain     mixing
     Exchange-correlation      = SLA-PZ-NOGX-NOGC ( 1 1 0 0 0)
     EXX-fraction              =        0.00

     celldm(1)=   9.923489  celldm(2)=   0.000000  celldm(3)=   0.000000
     celldm(4)=   0.000000  celldm(5)=   0.000000  celldm(6)=   0.000000

     crystal axes: (cart. coord. in units of alat)
               a(1) = (   1.063651   0.000000   0.000000 )
               a(2) = (  -0.531825   0.921149   0.000000 )
               a(3) = (   0.000000   0.000000   1.713999 )

     reciprocal axes: (cart. coord. in units 2 pi/alat)
               b(1) = (  0.940158  0.542800  0.000000 )
               b(2) = (  0.000000  1.085601  0.000000 )
               b(3) = (  0.000000  0.000000  0.583431 )

     PseudoPot. # 1 for Tm read from file:
     /home/cwx6513/pp.La/Tm.UPF
     MD5 check sum: 245516e0878b5372ceeb9443ded2c4e1
     Pseudo is Norm-conserving, Zval = 23.0
     Generated in analytical, separable form
     Using radial grid of 1269 points,  6 beta functions with:
                l(1) =   0
                l(2) =   0
                l(3) =   1
                l(4) =   1
                l(5) =   2
                l(6) =   3

     PseudoPot. # 2 for Tb read from file:
     /home/cwx6513/pp.La/Tb.UPF
     MD5 check sum: 3d6088a3f0cf7fd2e110c43f7f8e95c2
     Pseudo is Norm-conserving, Zval = 19.0
     Generated in analytical, separable form
     Using radial grid of 1263 points,  6 beta functions with:
                l(1) =   0
                l(2) =   0
                l(3) =   1
                l(4) =   1
                l(5) =   2
                l(6) =   3

     atomic species   valence    mass     pseudopotential
        Mg            23.00    24.30500     Tm( 1.00)
        Zn            19.00    65.39000     Tb( 1.00)

     24 Sym. Ops., with inversion, found (12 have fractional translation)

   Cartesian axes

     site n.     atom                  positions (alat units)
         1           Mg  tau(   1) = (  -0.0000005   0.6140995   0.1058254  )
         2           Mg  tau(   2) = (   0.5318260   0.3070493   0.9628249  )
         3           Mg  tau(   3) = (   0.5318260   0.3070493   1.6081735  )
         4           Mg  tau(   4) = (  -0.0000005   0.6140995   0.7511740  )
         5           Zn  tau(   5) = (   0.0000000   0.0000000   0.0000000  )
         6           Zn  tau(   6) = (   0.0000000   0.0000000   0.8569995  )
         7           Zn  tau(   7) = (   0.0000000   0.3167338   1.2854992  )
         8           Zn  tau(   8) = (   0.7893514   0.1583669   0.4284997  )
         9           Zn  tau(   9) = (   0.2742996   0.1583669   0.4284997  )
        10           Zn  tau(  10) = (   0.2575259   0.7627819   1.2854992  )
        11           Zn  tau(  11) = (  -0.2575259   0.7627819   1.2854992  )
        12           Zn  tau(  12) = (   0.5318255   0.6044149   0.4284997  )

     number of k points=    12  gaussian smearing, width (Ry)=  0.1000
                       cart. coord. in units 2pi/alat
        k(    1) = (   0.0000000   0.0000000   0.0000000), wk =   0.0833333
        k(    2) = (   0.0000000   0.0000000   0.1458577), wk =   0.1666667
        k(    3) = (   0.0000000   0.0000000  -0.2917155), wk =   0.0833333
        k(    4) = (   0.0000000   0.3618670   0.0000000), wk =   0.1666667
        k(    5) = (   0.0000000   0.3618670   0.1458577), wk =   0.3333333
        k(    6) = (   0.0000000   0.3618670  -0.2917155), wk =   0.1666667
        k(    7) = (  -0.4700790  -0.2714002   0.0000000), wk =   0.0833333
        k(    8) = (  -0.4700790  -0.2714002   0.1458577), wk =   0.1666667
        k(    9) = (  -0.4700790  -0.2714002  -0.2917155), wk =   0.0833333
        k(   10) = (  -0.4700790   0.0904667   0.0000000), wk =   0.1666667
        k(   11) = (  -0.4700790   0.0904667   0.1458577), wk =   0.3333333
        k(   12) = (  -0.4700790   0.0904667  -0.2917155), wk =   0.1666667

     Largest allocated arrays     est. size (Mb)     dimensions
     Largest temporary arrays     est. size (Mb)     dimensions

     Initial potential from superposition of free atoms

     Starting from uniform charge
     Starting wfc are    0 randomized atomic wfcs

     Writing output data file Prototype-La-hP12-MgZn2.save

     Self-consistent Calculation

[...]

     iteration # 10     ecut=    40.00 Ry     beta=0.70
     CG style diagonalization
     c_bands:  1 eigenvalues not converged
     c_bands:  1 eigenvalues not converged
     ethr =  1.98E-06,  avg # of iterations =  3.6

     total energy              =   -3304.58281224 Ry
     Harris-Foulkes estimate   =   -3304.58290845 Ry
     estimated scf accuracy    <       0.00017082 Ry

     iteration # 11     ecut=    40.00 Ry     beta=0.70
     CG style diagonalization
     ethr =  7.00E-08,  avg # of iterations =  4.1

     End of self-consistent calculation

[...]

          k = 0.0000 0.3619-0.2917 (  7008 PWs)   bands (ev):

[...]

          k =-0.4701 0.0905-0.2917 (  7014 PWs)   bands (ev):

   -85.1968 -85.1968 -85.1911 -85.1911 -49.5179 -49.5178 -49.4713 -49.4713
   -49.4302 -49.4302 -49.3326 -49.3326 -43.8299 -43.8299 -43.8260 -43.8260
   -43.8229 -43.8228 -43.8184 -43.8184 -43.8127 -43.8127 -43.8063 -43.8062
   -18.4425 -18.4425 -18.2114 -18.2114 -18.0322 -18.0322 -17.9902 -17.9902
   -17.9616 -17.9616 -17.9263 -17.9263 -17.7853 -17.7853 -17.6990 -17.6990
   -17.6213 -17.6213 -17.5723 -17.5723 -17.5121 -17.5121 -17.4878 -17.4878
     5.1592   5.1592   5.1644   5.1644   5.2274   5.2274   5.2758   5.2758
     5.2918   5.2919   5.3593   5.3593   5.3758   5.3758   5.4081   5.4082
     5.4835   5.4835   5.4993   5.4993  14.6171  14.6171  15.4574  15.4574
    16.7194  16.7194  17.4294  17.4294  17.6603  17.6603  17.8665  17.8665
    18.0414  18.0414  18.2833  18.2834  18.5514  18.5514  18.6620  18.6620
    18.9087  18.9087  19.4160  19.4160  19.5440  19.5440  19.8479  19.8479
    20.0628  20.0628  20.2695  20.2695  20.5775  20.5775  20.8517  20.8517
    21.1791  21.1791  21.3468  21.3468  21.5520  21.5520  21.9948  21.9948
    22.7502  22.7502  23.2820  23.2821  24.2372  24.2372  24.9333  24.9333
    25.9583  25.9584  27.0175  27.0175  28.9331  28.9331  29.1881  29.1881
    29.7726  29.7726  30.1562  30.1562  31.0743  31.0743  31.9864  31.9864
    32.3286  32.3286  32.8987  32.8988  33.1549  33.1551  33.7318  33.7319
    34.4547  34.4550

     the Fermi energy is    26.5335 ev

!    total energy              =   -3304.58289599 Ry
     Harris-Foulkes estimate   =   -3304.58290072 Ry
     estimated scf accuracy    <       0.00000694 Ry

     The total energy is the sum of the following terms:

     one-electron contribution =    -762.38623274 Ry
     hartree contribution      =     538.84851443 Ry
     xc contribution           =    -296.56213157 Ry
     ewald contribution        =   -2784.23177075 Ry
     smearing contrib. (-TS)   =      -0.25127537 Ry

     convergence has been achieved in  11 iterations

     Forces acting on atoms (Ry/au):

     atom    1 type  1   force =     0.00000000    0.00000000    0.00186554
     atom    2 type  1   force =     0.00000000    0.00000000    0.00186554
     atom    3 type  1   force =     0.00000000    0.00000000   -0.00186554
     atom    4 type  1   force =     0.00000000    0.00000000   -0.00186554
     atom    5 type  2   force =     0.00000000    0.00000000    0.00000000
     atom    6 type  2   force =     0.00000000    0.00000000    0.00000000
     atom    7 type  2   force =     0.00000000   -0.03544288    0.00000000
     atom    8 type  2   force =     0.03069443   -0.01772144    0.00000000
     atom    9 type  2   force =    -0.03069443   -0.01772144    0.00000000
     atom   10 type  2   force =     0.03069443    0.01772144    0.00000000
     atom   11 type  2   force =    -0.03069443    0.01772144    0.00000000
     atom   12 type  2   force =     0.00000000    0.03544288    0.00000000

     Total force =     0.086897     Total SCF correction =     0.000000

     entering subroutine stress ...

          total   stress  (Ry/bohr**3)                   (kbar)     P= -191.51
  -0.00127034   0.00000000   0.00000000       -186.87      0.00      0.00
   0.00000000  -0.00127034   0.00000000          0.00   -186.87      0.00
   0.00000000   0.00000000  -0.00136486          0.00      0.00   -200.78

     Writing output data file Prototype-La-hP12-MgZn2.save

     General routines

     Parallel routines

   This run was terminated on:  21:58:13  22Mar2018

   JOB DONE.