     Program PWSCF v.5.0.2 starts on 22Mar2018 at 21:37: 6

     Current dimensions of program PWSCF are:
     Max number of different atomic species (ntypx) = 10
     Max number of k-points (npk) =  40000
     Max angular momentum in pseudopotentials (lmaxx) =  3
     Waiting for input...
     Reading input from standard input

     Subspace diagonalization in iterative solution of the eigenvalue problem:
     a serial algorithm will be used

     bravais-lattice index     =            0
     lattice parameter (alat)  =      12.0168  a.u.
     unit-cell volume          =    1187.3413 (a.u.)^3
     number of atoms/cell      =            8
     number of atomic types    =            2
     number of electrons       =       176.00
     number of Kohn-Sham states=          106
     kinetic-energy cutoff     =      40.0000  Ry
     charge density cutoff     =     160.0000  Ry
     convergence threshold     =      1.0E-04
     mixing beta               =       0.7000
     number of iterations used =            8  plain     mixing
     Exchange-correlation      = SLA-PZ-NOGX-NOGC ( 1 1 0 0 0)
     EXX-fraction              =        0.00
     nstep                     =           50

     celldm(1)=  12.016801  celldm(2)=   0.000000  celldm(3)=   0.000000
     celldm(4)=   0.000000  celldm(5)=   0.000000  celldm(6)=   0.000000

     crystal axes: (cart. coord. in units of alat)
               a(1) = (   1.000000   0.000000   0.000000 )
               a(2) = (  -0.500000   0.866025   0.000000 )
               a(3) = (   0.000000   0.000000   0.790093 )

     reciprocal axes: (cart. coord. in units 2 pi/alat)
               b(1) = (  1.000000  0.577350  0.000000 )
               b(2) = (  0.000000  1.154701  0.000000 )
               b(3) = (  0.000000  0.000000  1.265674 )

     PseudoPot. # 1 for Tm read from file:
     /home/cwx6513/pp.La/Tm.UPF
     MD5 check sum: 245516e0878b5372ceeb9443ded2c4e1
     Pseudo is Norm-conserving, Zval = 23.0
     Generated in analytical, separable form
     Using radial grid of 1269 points,  6 beta functions with:
                l(1) =   0
                l(2) =   0
                l(3) =   1
                l(4) =   1
                l(5) =   2
                l(6) =   3

     PseudoPot. # 2 for Tb read from file:
     /home/cwx6513/pp.La/Tb.UPF
     MD5 check sum: 3d6088a3f0cf7fd2e110c43f7f8e95c2
     Pseudo is Norm-conserving, Zval = 19.0
     Generated in analytical, separable form
     Using radial grid of 1263 points,  6 beta functions with:
                l(1) =   0
                l(2) =   0
                l(3) =   1
                l(4) =   1
                l(5) =   2
                l(6) =   3

     atomic species   valence    mass     pseudopotential
        Mg            23.00    24.30500     Tm( 1.00)
        Cd            19.00   112.41100     Tb( 1.00)

     24 Sym. Ops., with inversion, found (12 have fractional translation)

   Cartesian axes

     site n.     atom                  positions (alat units)
         1           Mg  tau(   1) = (   0.2478935   0.7204716   0.1975233  )
         2           Mg  tau(   2) = (   0.7478935   0.1455538   0.5925699  )
         3           Mg  tau(   3) = (   0.2521065   0.1455538   0.5925699  )
         4           Mg  tau(   4) = (  -0.2478935   0.7204716   0.1975233  )
         5           Mg  tau(   5) = (   0.0000000   0.2911075   0.1975233  )
         6           Mg  tau(   6) = (   0.5000000   0.5749179   0.5925699  )
         7           Cd  tau(   7) = (   0.5000005   0.2886748   0.1975233  )
         8           Cd  tau(   8) = (  -0.0000005   0.5773506   0.5925699  )

     number of k points=    64  gaussian smearing, width (Ry)=  0.1000
                       cart. coord. in units 2pi/alat
        k(    1) = (   0.0000000   0.0000000   0.0000000), wk =   0.0095238
        k(    2) = (   0.0000000   0.0000000   0.1808105), wk =   0.0190476
        k(    3) = (   0.0000000   0.0000000   0.3616210), wk =   0.0190476
        k(    4) = (   0.0000000   0.0000000   0.5424315), wk =   0.0190476
        k(    5) = (   0.0000000   0.1924501   0.0000000), wk =   0.0190476
        k(    6) = (   0.0000000   0.1924501   0.1808105), wk =   0.0380952
        k(    7) = (   0.0000000   0.1924501   0.3616210), wk =   0.0380952
        k(    8) = (   0.0000000   0.1924501   0.5424315), wk =   0.0380952
        k(    9) = (   0.0000000   0.3849002   0.0000000), wk =   0.0190476
        k(   10) = (   0.0000000   0.3849002   0.1808105), wk =   0.0380952
        k(   11) = (   0.0000000   0.3849002   0.3616210), wk =   0.0380952
        k(   12) = (   0.0000000   0.3849002   0.5424315), wk =   0.0380952
        k(   13) = (   0.0000000  -0.5773503   0.0000000), wk =   0.0095238
        k(   14) = (   0.0000000  -0.5773503   0.1808105), wk =   0.0190476
        k(   15) = (   0.0000000  -0.5773503   0.3616210), wk =   0.0190476
        k(   16) = (   0.0000000  -0.5773503   0.5424315), wk =   0.0190476
        k(   17) = (   0.2000000   0.1154701   0.0000000), wk =   0.0190476
        k(   18) = (   0.2000000   0.1154701   0.1808105), wk =   0.0380952
        k(   19) = (   0.2000000   0.1154701   0.3616210), wk =   0.0380952
        k(   20) = (   0.2000000   0.1154701   0.5424315), wk =   0.0380952
        k(   21) = (   0.2000000   0.3079201   0.0000000), wk =   0.0190476
        k(   22) = (   0.2000000   0.3079201   0.1808105), wk =   0.0380952
        k(   23) = (   0.2000000   0.3079201   0.3616210), wk =   0.0380952
        k(   24) = (   0.2000000   0.3079201   0.5424315), wk =   0.0380952
        k(   25) = (   0.2000000   0.5003702   0.0000000), wk =   0.0190476
        k(   26) = (   0.2000000   0.5003702   0.1808105), wk =   0.0380952
        k(   27) = (   0.2000000   0.5003702   0.3616210), wk =   0.0380952
        k(   28) = (   0.2000000   0.5003702   0.5424315), wk =   0.0380952
        k(   29) = (   0.2000000  -0.4618802   0.0000000), wk =   0.0190476
        k(   30) = (   0.2000000  -0.4618802   0.1808105), wk =   0.0380952
        k(   31) = (   0.2000000  -0.4618802   0.3616210), wk =   0.0380952
        k(   32) = (   0.2000000  -0.4618802   0.5424315), wk =   0.0380952
        k(   33) = (   0.2000000  -0.2694301   0.0000000), wk =   0.0190476
        k(   34) = (   0.2000000  -0.2694301   0.1808105), wk =   0.0380952
        k(   35) = (   0.2000000  -0.2694301   0.3616210), wk =   0.0380952
        k(   36) = (   0.2000000  -0.2694301   0.5424315), wk =   0.0380952
        k(   37) = (   0.2000000  -0.0769800   0.0000000), wk =   0.0190476
        k(   38) = (   0.2000000  -0.0769800   0.1808105), wk =   0.0380952
        k(   39) = (   0.2000000  -0.0769800   0.3616210), wk =   0.0380952
        k(   40) = (   0.2000000  -0.0769800   0.5424315), wk =   0.0380952
        k(   41) = (   0.4000000   0.2309401   0.0000000), wk =   0.0190476
        k(   42) = (   0.4000000   0.2309401   0.1808105), wk =   0.0380952
        k(   43) = (   0.4000000   0.2309401   0.3616210), wk =   0.0380952
        k(   44) = (   0.4000000   0.2309401   0.5424315), wk =   0.0380952
        k(   45) = (   0.4000000   0.4233902   0.0000000), wk =   0.0190476
        k(   46) = (   0.4000000   0.4233902   0.1808105), wk =   0.0380952
        k(   47) = (   0.4000000   0.4233902   0.3616210), wk =   0.0380952
        k(   48) = (   0.4000000   0.4233902   0.5424315), wk =   0.0380952
        k(   49) = (   0.4000000   0.6158403   0.0000000), wk =   0.0190476
        k(   50) = (   0.4000000   0.6158403   0.1808105), wk =   0.0380952
        k(   51) = (   0.4000000   0.6158403   0.3616210), wk =   0.0380952
        k(   52) = (   0.4000000   0.6158403   0.5424315), wk =   0.0380952
        k(   53) = (   0.4000000  -0.3464102   0.0000000), wk =   0.0190476
        k(   54) = (   0.4000000  -0.3464102   0.1808105), wk =   0.0380952
        k(   55) = (   0.4000000  -0.3464102   0.3616210), wk =   0.0380952
        k(   56) = (   0.4000000  -0.3464102   0.5424315), wk =   0.0380952
        k(   57) = (   0.4000000  -0.1539601   0.0000000), wk =   0.0190476
        k(   58) = (   0.4000000  -0.1539601   0.1808105), wk =   0.0380952
        k(   59) = (   0.4000000  -0.1539601   0.3616210), wk =   0.0380952
        k(   60) = (   0.4000000  -0.1539601   0.5424315), wk =   0.0380952
        k(   61) = (   0.4000000   0.0384900   0.0000000), wk =   0.0190476
        k(   62) = (   0.4000000   0.0384900   0.1808105), wk =   0.0380952
        k(   63) = (   0.4000000   0.0384900   0.3616210), wk =   0.0380952
        k(   64) = (   0.4000000   0.0384900   0.5424315), wk =   0.0380952

     Largest allocated arrays     est. size (Mb)     dimensions
     Largest temporary arrays     est. size (Mb)     dimensions

     Initial potential from superposition of free atoms

     Starting from uniform charge
     Starting wfc are    0 randomized atomic wfcs

     Self-consistent Calculation

     iteration #  1     ecut=    40.00 Ry     beta=0.70
     CG style diagonalization
     c_bands:  1 eigenvalues not converged
     c_bands:  1 eigenvalues not converged
     c_bands:  1 eigenvalues not converged
     c_bands:  1 eigenvalues not converged
     c_bands:  1 eigenvalues not converged
     c_bands:  1 eigenvalues not converged
     c_bands:  1 eigenvalues not converged
     c_bands:  1 eigenvalues not converged
     c_bands:  1 eigenvalues not converged
     c_bands:  1 eigenvalues not converged
     c_bands:  1 eigenvalues not converged
     c_bands:  1 eigenvalues not converged
     c_bands:  1 eigenvalues not converged
     c_bands:  1 eigenvalues not converged
     c_bands:  1 eigenvalues not converged
     c_bands:  1 eigenvalues not converged
     c_bands:  1 eigenvalues not converged
     c_bands:  1 eigenvalues not converged
     c_bands:  1 eigenvalues not converged
     c_bands:  2 eigenvalues not converged
     c_bands:  1 eigenvalues not converged
     c_bands:  1 eigenvalues not converged
     c_bands:  1 eigenvalues not converged
     c_bands:  2 eigenvalues not converged
     c_bands:  1 eigenvalues not converged
     c_bands:  1 eigenvalues not converged
     c_bands:  1 eigenvalues not converged
     c_bands:  1 eigenvalues not converged
     c_bands:  2 eigenvalues not converged
     c_bands:  1 eigenvalues not converged
     c_bands:  1 eigenvalues not converged
     ethr =  1.00E-02,  avg # of iterations = 14.1

     total energy              =   -2150.88434956 Ry
     Harris-Foulkes estimate   =   -3452.50854961 Ry
     estimated scf accuracy    <    1606.45520713 Ry

     iteration #  2     ecut=    40.00 Ry     beta=0.70
     CG style diagonalization
     ethr =  1.00E-02,  avg # of iterations = 15.9

[...]

     End of self-consistent calculation

          k = 0.0000 0.0000 0.0000 (  5047 PWs)   bands (ev):

   -85.3977 -85.3977 -85.3946 -85.3566 -85.3565 -85.3330 -49.6916 -49.6901
   -44.1189 -44.0745 -44.0737 -44.0736 -44.0706 -44.0526 -44.0526 -44.0458
   -44.0457 -44.0334 -44.0182 -44.0181 -43.9937 -43.9937 -43.9901 -43.9880
   -43.9880 -43.9787 -18.0977 -18.0893 -18.0494 -18.0494 -18.0423 -18.0423
     4.3384   4.3989   4.3990   4.4564   4.5909   4.6274   4.6636   4.6637
[...]
        k(   22) = (   0.2112005   0.3251645   0.1890670), wk =   0.0380952
        k(   23) = (   0.2112005   0.3251645   0.3781340), wk =   0.0380952
        k(   24) = (   0.2112005   0.3251645   0.5672010), wk =   0.0380952
        k(   25) = (   0.2112005   0.5283922   0.0000000), wk =   0.0190476
        k(   26) = (   0.2112005   0.5283922   0.1890670), wk =   0.0380952
        k(   27) = (   0.2112005   0.5283922   0.3781340), wk =   0.0380952
        k(   28) = (   0.2112005   0.5283922   0.5672010), wk =   0.0380952
        k(   29) = (   0.2112005  -0.4877467   0.0000000), wk =   0.0190476
        k(   30) = (   0.2112005  -0.4877467   0.1890670), wk =   0.0380952
        k(   31) = (   0.2112005  -0.4877467   0.3781340), wk =   0.0380952
        k(   32) = (   0.2112005  -0.4877467   0.5672010), wk =   0.0380952
        k(   33) = (   0.2112005  -0.2845189   0.0000000), wk =   0.0190476
        k(   34) = (   0.2112005  -0.2845189   0.1890670), wk =   0.0380952
        k(   35) = (   0.2112005  -0.2845189   0.3781340), wk =   0.0380952
        k(   36) = (   0.2112005  -0.2845189   0.5672010), wk =   0.0380952
        k(   37) = (   0.2112005  -0.0812911   0.0000000), wk =   0.0190476
        k(   38) = (   0.2112005  -0.0812911   0.1890670), wk =   0.0380952
        k(   39) = (   0.2112005  -0.0812911   0.3781340), wk =   0.0380952
        k(   40) = (   0.2112005  -0.0812911   0.5672010), wk =   0.0380952
        k(   41) = (   0.4224010   0.2438733   0.0000000), wk =   0.0190476
        k(   42) = (   0.4224010   0.2438733   0.1890670), wk =   0.0380952
        k(   43) = (   0.4224010   0.2438733   0.3781340), wk =   0.0380952
        k(   44) = (   0.4224010   0.2438733   0.5672010), wk =   0.0380952
        k(   45) = (   0.4224010   0.4471011   0.0000000), wk =   0.0190476
        k(   46) = (   0.4224010   0.4471011   0.1890670), wk =   0.0380952
        k(   47) = (   0.4224010   0.4471011   0.3781340), wk =   0.0380952
        k(   48) = (   0.4224010   0.4471011   0.5672010), wk =   0.0380952
        k(   49) = (   0.4224010   0.6503289   0.0000000), wk =   0.0190476
        k(   50) = (   0.4224010   0.6503289   0.1890670), wk =   0.0380952
        k(   51) = (   0.4224010   0.6503289   0.3781340), wk =   0.0380952
        k(   52) = (   0.4224010   0.6503289   0.5672010), wk =   0.0380952
        k(   53) = (   0.4224010  -0.3658100   0.0000000), wk =   0.0190476
        k(   54) = (   0.4224010  -0.3658100   0.1890670), wk =   0.0380952
        k(   55) = (   0.4224010  -0.3658100   0.3781340), wk =   0.0380952
        k(   56) = (   0.4224010  -0.3658100   0.5672010), wk =   0.0380952
        k(   57) = (   0.4224010  -0.1625822   0.0000000), wk =   0.0190476
        k(   58) = (   0.4224010  -0.1625822   0.1890670), wk =   0.0380952
        k(   59) = (   0.4224010  -0.1625822   0.3781340), wk =   0.0380952
        k(   60) = (   0.4224010  -0.1625822   0.5672010), wk =   0.0380952
        k(   61) = (   0.4224010   0.0406456   0.0000000), wk =   0.0190476
        k(   62) = (   0.4224010   0.0406456   0.1890670), wk =   0.0380952
        k(   63) = (   0.4224010   0.0406456   0.3781340), wk =   0.0380952
        k(   64) = (   0.4224010   0.0406456   0.5672010), wk =   0.0380952

[...]

     Threshold (ethr) on eigenvalues was too large:
     Diagonalizing with lowered threshold

     CG style diagonalization
     ethr =  4.49E-08,  avg # of iterations =  3.4

[...]

     The maximum number of steps has been reached.

     End of BFGS Geometry Optimization
Begin final coordinates
     new unit-cell volume =   1018.24794 a.u.^3 (   150.88878 Ang^3 )

CELL_PARAMETERS (alat= 12.01680127)
   0.946967417   0.000000000   0.000000000
  -0.473483708   0.820097840   0.000000000
   0.000000000   0.000000000   0.755589995

ATOMIC_POSITIONS (crystal)
Mg       0.661598677   0.830799338   0.250000000
Mg       0.830799338   0.169200662   0.750000000
Mg       0.338401323   0.169200662   0.750000000
Mg       0.169200662   0.830799338   0.250000000
Mg       0.169200662   0.338401323   0.250000000
Mg       0.830799338   0.661598677   0.750000000
Cd       0.666667000   0.333333000   0.250000000
Cd       0.333333000   0.666667000   0.750000000
End final coordinates

     A final scf calculation at the relaxed structure.
     The G-vectors are recalculated for the final unit cell
     Results may differ from those at the preceding step.

     bravais-lattice index     =            0
     lattice parameter (alat)  =      12.0168  a.u.
     unit-cell volume          =    1018.2479 (a.u.)^3
     number of atoms/cell      =            8
     number of atomic types    =            2
     number of electrons       =       176.00
     number of Kohn-Sham states=          106
     kinetic-energy cutoff     =      40.0000  Ry
     charge density cutoff     =     160.0000  Ry
     convergence threshold     =      1.0E-04
     mixing beta               =       0.7000
     number of iterations used =            8  plain     mixing
     Exchange-correlation      = SLA-PZ-NOGX-NOGC ( 1 1 0 0 0)
     EXX-fraction              =        0.00

     celldm(1)=  12.016801  celldm(2)=   0.000000  celldm(3)=   0.000000
     celldm(4)=   0.000000  celldm(5)=   0.000000  celldm(6)=   0.000000

     crystal axes: (cart. coord. in units of alat)
               a(1) = (   0.946967   0.000000   0.000000 )
               a(2) = (  -0.473484   0.820098   0.000000 )
               a(3) = (   0.000000   0.000000   0.755590 )

     reciprocal axes: (cart. coord. in units 2 pi/alat)
               b(1) = (  1.056003  0.609683  0.000000 )
               b(2) = (  0.000000  1.219367  0.000000 )
               b(3) = (  0.000000  0.000000  1.323469 )

     PseudoPot. # 1 for Tm read from file:
     /home/cwx6513/pp.La/Tm.UPF
     MD5 check sum: 245516e0878b5372ceeb9443ded2c4e1
     Pseudo is Norm-conserving, Zval = 23.0
     Generated in analytical, separable form
     Using radial grid of 1269 points,  6 beta functions with:
                l(1) =   0
                l(2) =   0
                l(3) =   1
                l(4) =   1
                l(5) =   2
                l(6) =   3

     PseudoPot. # 2 for Tb read from file:
     /home/cwx6513/pp.La/Tb.UPF
     MD5 check sum: 3d6088a3f0cf7fd2e110c43f7f8e95c2
     Pseudo is Norm-conserving, Zval = 19.0
     Generated in analytical, separable form
     Using radial grid of 1263 points,  6 beta functions with:
                l(1) =   0
                l(2) =   0
                l(3) =   1
                l(4) =   1
                l(5) =   2
                l(6) =   3

     atomic species   valence    mass     pseudopotential
        Mg            23.00    24.30500     Tm( 1.00)
        Cd            19.00   112.41100     Tb( 1.00)

     24 Sym. Ops., with inversion, found (12 have fractional translation)

   Cartesian axes

     site n.     atom                  positions (alat units)
         1           Mg  tau(   1) = (   0.2331424   0.6813367   0.1888975  )
         2           Mg  tau(   2) = (   0.7066261   0.1387611   0.5666925  )
         3           Mg  tau(   3) = (   0.2403413   0.1387611   0.5666925  )
         4           Mg  tau(   4) = (  -0.2331424   0.6813367   0.1888975  )
         5           Mg  tau(   5) = (   0.0000000   0.2775222   0.1888975  )
         6           Mg  tau(   6) = (   0.4734837   0.5425756   0.5666925  )
         7           Cd  tau(   7) = (   0.4734842   0.2733657   0.1888975  )
         8           Cd  tau(   8) = (  -0.0000005   0.5467322   0.5666925  )

     number of k points=    64  gaussian smearing, width (Ry)=  0.1000
                       cart. coord. in units 2pi/alat
        k(    1) = (   0.0000000   0.0000000   0.0000000), wk =   0.0095238
        k(    2) = (   0.0000000   0.0000000   0.1890670), wk =   0.0190476
        k(    3) = (   0.0000000   0.0000000   0.3781340), wk =   0.0190476
        k(    4) = (   0.0000000   0.0000000   0.5672010), wk =   0.0190476
        k(    5) = (   0.0000000   0.2032278   0.0000000), wk =   0.0190476
        k(    6) = (   0.0000000   0.2032278   0.1890670), wk =   0.0380952
        k(    7) = (   0.0000000   0.2032278   0.3781340), wk =   0.0380952
        k(    8) = (   0.0000000   0.2032278   0.5672010), wk =   0.0380952
        k(    9) = (   0.0000000   0.4064556   0.0000000), wk =   0.0190476
        k(   10) = (   0.0000000   0.4064556   0.1890670), wk =   0.0380952
        k(   11) = (   0.0000000   0.4064556   0.3781340), wk =   0.0380952
        k(   12) = (   0.0000000   0.4064556   0.5672010), wk =   0.0380952
        k(   13) = (   0.0000000  -0.6096834   0.0000000), wk =   0.0095238
        k(   14) = (   0.0000000  -0.6096834   0.1890670), wk =   0.0190476
        k(   15) = (   0.0000000  -0.6096834   0.3781340), wk =   0.0190476
        k(   16) = (   0.0000000  -0.6096834   0.5672010), wk =   0.0190476
        k(   17) = (   0.2112005   0.1219367   0.0000000), wk =   0.0190476
        k(   18) = (   0.2112005   0.1219367   0.1890670), wk =   0.0380952
        k(   19) = (   0.2112005   0.1219367   0.3781340), wk =   0.0380952
        k(   20) = (   0.2112005   0.1219367   0.5672010), wk =   0.0380952
        k(   21) = (   0.2112005   0.3251645   0.0000000), wk =   0.0190476
        k(   22) = (   0.2112005   0.3251645   0.1890670), wk =   0.0380952
        k(   23) = (   0.2112005   0.3251645   0.3781340), wk =   0.0380952
        k(   24) = (   0.2112005   0.3251645   0.5672010), wk =   0.0380952
        k(   25) = (   0.2112005   0.5283922   0.0000000), wk =   0.0190476
        k(   26) = (   0.2112005   0.5283922   0.1890670), wk =   0.0380952
        k(   27) = (   0.2112005   0.5283922   0.3781340), wk =   0.0380952
        k(   28) = (   0.2112005   0.5283922   0.5672010), wk =   0.0380952
        k(   29) = (   0.2112005  -0.4877467   0.0000000), wk =   0.0190476
        k(   30) = (   0.2112005  -0.4877467   0.1890670), wk =   0.0380952
        k(   31) = (   0.2112005  -0.4877467   0.3781340), wk =   0.0380952
        k(   32) = (   0.2112005  -0.4877467   0.5672010), wk =   0.0380952
        k(   33) = (   0.2112005  -0.2845189   0.0000000), wk =   0.0190476
        k(   34) = (   0.2112005  -0.2845189   0.1890670), wk =   0.0380952
        k(   35) = (   0.2112005  -0.2845189   0.3781340), wk =   0.0380952
        k(   36) = (   0.2112005  -0.2845189   0.5672010), wk =   0.0380952
        k(   37) = (   0.2112005  -0.0812911   0.0000000), wk =   0.0190476
        k(   38) = (   0.2112005  -0.0812911   0.1890670), wk =   0.0380952
        k(   39) = (   0.2112005  -0.0812911   0.3781340), wk =   0.0380952
        k(   40) = (   0.2112005  -0.0812911   0.5672010), wk =   0.0380952
        k(   41) = (   0.4224010   0.2438733   0.0000000), wk =   0.0190476
        k(   42) = (   0.4224010   0.2438733   0.1890670), wk =   0.0380952
        k(   43) = (   0.4224010   0.2438733   0.3781340), wk =   0.0380952
        k(   44) = (   0.4224010   0.2438733   0.5672010), wk =   0.0380952
        k(   45) = (   0.4224010   0.4471011   0.0000000), wk =   0.0190476
        k(   46) = (   0.4224010   0.4471011   0.1890670), wk =   0.0380952
        k(   47) = (   0.4224010   0.4471011   0.3781340), wk =   0.0380952
        k(   48) = (   0.4224010   0.4471011   0.5672010), wk =   0.0380952
        k(   49) = (   0.4224010   0.6503289   0.0000000), wk =   0.0190476
        k(   50) = (   0.4224010   0.6503289   0.1890670), wk =   0.0380952
        k(   51) = (   0.4224010   0.6503289   0.3781340), wk =   0.0380952
        k(   52) = (   0.4224010   0.6503289   0.5672010), wk =   0.0380952
        k(   53) = (   0.4224010  -0.3658100   0.0000000), wk =   0.0190476
        k(   54) = (   0.4224010  -0.3658100   0.1890670), wk =   0.0380952
        k(   55) = (   0.4224010  -0.3658100   0.3781340), wk =   0.0380952
        k(   56) = (   0.4224010  -0.3658100   0.5672010), wk =   0.0380952
        k(   57) = (   0.4224010  -0.1625822   0.0000000), wk =   0.0190476
        k(   58) = (   0.4224010  -0.1625822   0.1890670), wk =   0.0380952
        k(   59) = (   0.4224010  -0.1625822   0.3781340), wk =   0.0380952
        k(   60) = (   0.4224010  -0.1625822   0.5672010), wk =   0.0380952
        k(   61) = (   0.4224010   0.0406456   0.0000000), wk =   0.0190476
        k(   62) = (   0.4224010   0.0406456   0.1890670), wk =   0.0380952
        k(   63) = (   0.4224010   0.0406456   0.3781340), wk =   0.0380952
        k(   64) = (   0.4224010   0.0406456   0.5672010), wk =   0.0380952

     Largest allocated arrays     est. size (Mb)     dimensions
     Largest temporary arrays     est. size (Mb)     dimensions

     Initial potential from superposition of free atoms

     Starting from uniform charge
     Starting wfc are    0 randomized atomic wfcs

     Writing output data file Prototype-La-hP8-Mg3Cd.save

     Self-consistent Calculation

[...]

     iteration #  9     ecut=    40.00 Ry     beta=0.70
     CG style diagonalization
     c_bands:  1 eigenvalues not converged
     c_bands:  2 eigenvalues not converged
     c_bands:  1 eigenvalues not converged
     c_bands:  1 eigenvalues not converged
     c_bands:  1 eigenvalues not converged
     c_bands:  1 eigenvalues not converged
     c_bands:  1 eigenvalues not converged
     c_bands:  1 eigenvalues not converged
     c_bands:  1 eigenvalues not converged
     c_bands:  1 eigenvalues not converged
     c_bands:  1 eigenvalues not converged
     ethr =  1.93E-06,  avg # of iterations =  5.1

[...]

     total energy              =   -2661.74723244 Ry
     Harris-Foulkes estimate   =   -2661.74732446 Ry
     estimated scf accuracy    <       0.00016027 Ry

     iteration # 11     ecut=    40.00 Ry     beta=0.70
     CG style diagonalization
     ethr =  9.11E-08,  avg # of iterations =  3.5

     End of self-consistent calculation

[...]

          k = 0.4224 0.0406 0.5672 (  4362 PWs)   bands (ev):

   -80.6216 -80.6132 -80.5982 -80.5962 -80.5877 -80.5834 -45.4464 -45.4461
   -39.3448 -39.3383 -39.3350 -39.3307 -39.3198 -39.3166 -39.3066 -39.2960
   -39.2812 -39.2803 -39.2777 -39.2731 -39.2641 -39.2624 -39.2599 -39.2575
   -39.2539 -39.2453 -13.9289 -13.9262 -13.8847 -13.8801 -13.8789 -13.8774
     8.7924   8.8096   8.9033   8.9581   9.0020   9.0095   9.0735   9.1558
     9.1688   9.1718   9.3276   9.3578   9.4597   9.5877   9.6037   9.6225
     9.6444   9.7548   9.7746   9.8011   9.8713   9.9452   9.9521   9.9748
    10.0395  10.0642  10.2442  10.2718  10.3609  10.4421  16.4107  17.5162
    18.6606  19.1535  19.9745  20.3561  22.1552  22.3314  22.6046  22.7266
    23.2419  23.3419  23.8009  23.9410  24.2632  24.4417  25.4889  25.7477
    26.6181  27.2475  28.7900  29.4437  30.3652  30.5004  31.5200  31.5368
    32.7734  32.9397  33.6427  33.9409  34.5073  34.7172  34.8657  34.9771
    35.4905  35.7336  35.9450  36.2334  36.3435  36.6430  37.0016  37.4017
    38.3451  38.6683

     the Fermi energy is    31.6686 ev

!    total energy              =   -2661.74726670 Ry
     Harris-Foulkes estimate   =   -2661.74727349 Ry
     estimated scf accuracy    <       0.00000801 Ry

     The total energy is the sum of the following terms:

     one-electron contribution =    -642.41908952 Ry
     hartree contribution      =     436.26128551 Ry
     xc contribution           =    -225.23131056 Ry
     ewald contribution        =   -2230.12420511 Ry
     smearing contrib. (-TS)   =      -0.23394701 Ry

     convergence has been achieved in  11 iterations

     Forces acting on atoms (Ry/au):

     atom    1 type  1   force =     0.00637837    0.00368255    0.00000000
     atom    2 type  1   force =     0.00637837   -0.00368255    0.00000000
     atom    3 type  1   force =    -0.00637837   -0.00368255    0.00000000
     atom    4 type  1   force =    -0.00637837    0.00368255    0.00000000
     atom    5 type  1   force =     0.00000000   -0.00736510    0.00000000
     atom    6 type  1   force =     0.00000000    0.00736510    0.00000000
     atom    7 type  2   force =     0.00000000    0.00000000    0.00000000
     atom    8 type  2   force =     0.00000000    0.00000000    0.00000000

     Total force =     0.018041     Total SCF correction =     0.000000

     entering subroutine stress ...

          total   stress  (Ry/bohr**3)                   (kbar)     P=  249.26
   0.00156742   0.00000000   0.00000000        230.58      0.00      0.00
   0.00000000   0.00156742   0.00000000          0.00    230.58      0.00
   0.00000000   0.00000000   0.00194841          0.00      0.00    286.62

     Writing output data file Prototype-La-hP8-Mg3Cd.save

     General routines

     Parallel routines

   This run was terminated on:  22:41:22  22Mar2018

   JOB DONE.