     Program PWSCF v.5.0.2 starts on 22Mar2018 at 21:37: 6

     Current dimensions of program PWSCF are:
     Max number of different atomic species (ntypx) = 10
     Max number of k-points (npk) =  40000
     Max angular momentum in pseudopotentials (lmaxx) =  3
     Waiting for input...
     Reading input from standard input

     Subspace diagonalization in iterative solution of the eigenvalue problem:
     a serial algorithm will be used

     bravais-lattice index     =            0
     lattice parameter (alat)  =       7.0151  a.u.
     unit-cell volume          =     862.2778 (a.u.)^3
     number of atoms/cell      =           12
     number of atomic types    =            2
     number of electrons       =       260.00
     number of Kohn-Sham states=          156
     kinetic-energy cutoff     =      40.0000  Ry
     charge density cutoff     =     160.0000  Ry
     convergence threshold     =      1.0E-04
     mixing beta               =       0.7000
     number of iterations used =            8  plain     mixing
     Exchange-correlation      = SLA-PZ-NOGX-NOGC ( 1 1 0 0 0)
     EXX-fraction              =        0.00
     nstep                     =           50

     celldm(1)=   7.015105  celldm(2)=   0.000000  celldm(3)=   0.000000
     celldm(4)=   0.000000  celldm(5)=   0.000000  celldm(6)=   0.000000

     crystal axes: (cart. coord. in units of alat)
               a(1) = (   1.000000   0.000000   0.000000 )
               a(2) = (   0.000000   1.315963   0.000000 )
               a(3) = (   0.000000   0.000000   1.898020 )

     reciprocal axes: (cart. coord. in units 2 pi/alat)
               b(1) = (  1.000000  0.000000  0.000000 )
               b(2) = (  0.000000  0.759900  0.000000 )
               b(3) = (  0.000000  0.000000  0.526865 )

     PseudoPot. # 1 for Tm read from file:
     /home/cwx6513/pp.La/Tm.UPF
     MD5 check sum: 245516e0878b5372ceeb9443ded2c4e1
     Pseudo is Norm-conserving, Zval = 23.0
     Generated in analytical, separable form
     Using radial grid of 1269 points,  6 beta functions with:
                l(1) =   0
                l(2) =   0
                l(3) =   1
                l(4) =   1
                l(5) =   2
                l(6) =   3

     PseudoPot. # 2 for Tb read from file:
     /home/cwx6513/pp.La/Tb.UPF
     MD5 check sum: 3d6088a3f0cf7fd2e110c43f7f8e95c2
     Pseudo is Norm-conserving, Zval = 19.0
     Generated in analytical, separable form
     Using radial grid of 1263 points,  6 beta functions with:
                l(1) =   0
                l(2) =   0
                l(3) =   1
                l(4) =   1
                l(5) =   2
                l(6) =   3

     atomic species   valence    mass     pseudopotential
        Co            23.00    58.93320     Tm( 1.00)
        Si            19.00    28.08550     Tb( 1.00)

      8 Sym. Ops., with inversion, found ( 6 have fractional translation)

   Cartesian axes

     site n.     atom                  positions (alat units)
         1           Co  tau(   1) = (   0.7500000   1.0875135   0.8270358  )
         2           Co  tau(   2) = (   0.2500000   0.2284499   1.0709846  )
         3           Co  tau(   3) = (   0.7500000   0.4295318   0.1219744  )
         4           Co  tau(   4) = (   0.2500000   0.8864316   1.7760460  )
         5           Co  tau(   5) = (   0.2500000   0.7067855   0.5358966  )
         6           Co  tau(   6) = (   0.7500000   0.6091779   1.3621238  )
         7           Co  tau(   7) = (   0.2500000   0.0488038   0.4131136  )
         8           Co  tau(   8) = (   0.7500000   1.2671596   1.4849068  )
         9           Si  tau(   9) = (   0.2500000   0.2669484   1.6960710  )
        10           Si  tau(  10) = (   0.7500000   1.0490149   0.2019494  )
        11           Si  tau(  11) = (   0.2500000   0.9249301   1.1509596  )
        12           Si  tau(  12) = (   0.7500000   0.3910333   0.7470608  )

     number of k points=    12  gaussian smearing, width (Ry)=  0.1000
                       cart. coord. in units 2pi/alat
        k(    1) = (   0.0000000   0.0000000   0.0000000), wk =   0.0833333
        k(    2) = (   0.0000000   0.0000000   0.1317162), wk =   0.1666667
        k(    3) = (   0.0000000   0.0000000  -0.2634324), wk =   0.0833333
        k(    4) = (   0.0000000   0.2532999   0.0000000), wk =   0.1666667
        k(    5) = (   0.0000000   0.2532999   0.1317162), wk =   0.3333333
        k(    6) = (   0.0000000   0.2532999  -0.2634324), wk =   0.1666667
        k(    7) = (  -0.5000000   0.0000000   0.0000000), wk =   0.0833333
        k(    8) = (  -0.5000000   0.0000000   0.1317162), wk =   0.1666667
        k(    9) = (  -0.5000000   0.0000000  -0.2634324), wk =   0.0833333
        k(   10) = (  -0.5000000   0.2532999   0.0000000), wk =   0.1666667
        k(   11) = (  -0.5000000   0.2532999   0.1317162), wk =   0.3333333
        k(   12) = (  -0.5000000   0.2532999  -0.2634324), wk =   0.1666667

     Largest allocated arrays     est. size (Mb)     dimensions
     Largest temporary arrays     est. size (Mb)     dimensions

     Initial potential from superposition of free atoms

     Starting from uniform charge
     Starting wfc are    0 randomized atomic wfcs

     Self-consistent Calculation

     iteration #  1     ecut=    40.00 Ry     beta=0.70
     CG style diagonalization
     ethr =  1.00E-02,  avg # of iterations = 18.1

     total energy              =   -3151.97144490 Ry
     Harris-Foulkes estimate   =   -4411.78512378 Ry
     estimated scf accuracy    <    1567.50427785 Ry

     iteration #  2     ecut=    40.00 Ry     beta=0.70
     CG style diagonalization
     c_bands:  3 eigenvalues not converged
     ethr =  1.00E-02,  avg # of iterations = 15.8

[...]

     End of self-consistent calculation

          k = 0.0000 0.0000 0.0000 (  3675 PWs)   bands (ev):

   -57.1783 -57.1578 -57.1536 -57.1343 -57.0935 -57.0412 -56.9783 -56.9758
   -24.8965 -24.8936 -24.8670 -24.8669 -16.6669 -16.5966 -16.5533 -16.4888
   -16.4055 -16.3929 -16.3503 -16.3439 -16.3413 -16.2364 -16.1589 -16.1372
   -16.0905 -16.0744 -16.0733 -16.0543 -15.9997 -15.9435 -15.9373 -15.9349
   -15.8899 -15.7718 -15.6666 -15.6317   5.6510   5.7986   5.8336   5.8370
     5.8575   5.8763   5.9106   5.9653   6.2413   6.3754   6.3768   6.5400
    28.3585  28.5827  28.6084  28.6369  28.7106  28.9596  29.0281  29.1718
    29.5602  29.7309  29.7383  30.0342  30.1904  30.6084  30.6539  31.1359
    31.1596  31.2231  31.2904  31.3129  31.4804  31.5536  31.6973  31.7763
    31.9122  32.0911  32.2815  32.3647  32.4461  32.5720  32.6407  32.7222
    32.7714  33.0167  33.0731  33.6328  33.9334  34.0341  34.2284  34.2503
    34.4536  37.1270  37.3191  37.7465  40.1699  41.0472  41.1667  41.4001
    41.4065  42.1255  42.5989  42.8001  43.1759  43.2062  43.4559  43.6927
    44.2972  44.3061  45.0586  45.1933  45.2401  45.3121  45.3293  45.5019
    47.0125  49.2522  49.6622  49.7540  49.9982  50.6300  51.7794  54.4327
    54.5884  55.4078  55.5123  55.6230  55.9330  56.2906  56.5357  56.7261
    57.2280  57.6708  57.7273  57.8506  57.9184  57.9523  58.1111  58.1242
    58.4969  58.7383  58.7783  58.8816  58.9104  58.9594  59.1833  59.6177
    60.1699  60.2232  60.9169  61.6934  61.7796  62.4990  62.6474  62.8906
    62.9972  63.1512  63.1660  63.9003

[...]

          k =-0.5000 0.0000 0.0000 (  3722 PWs)   bands (ev):

[...]

     the Fermi energy is    57.3987 ev

!    total energy              =   -3835.98304365 Ry
     Harris-Foulkes estimate   =   -3835.98307136 Ry
     estimated scf accuracy    <       0.00003035 Ry

     The total energy is the sum of the following terms:

     one-electron contribution =      68.55935585 Ry
     hartree contribution      =     364.80009996 Ry
     xc contribution           =    -345.32932780 Ry
     ewald contribution        =   -3923.51116076 Ry
     smearing contrib. (-TS)   =      -0.50201089 Ry

     convergence has been achieved in  10 iterations

     Forces acting on atoms (Ry/au):

     atom    1 type  1   force =     0.00000000   -0.06604166   -0.06598946
     atom    2 type  1   force =     0.00000000    0.06604166    0.06598946
     atom    3 type  1   force =     0.00000000   -0.06604166    0.06598946
     atom    4 type  1   force =     0.00000000    0.06604166   -0.06598946
     atom    5 type  1   force =     0.00000000    0.08679510   -0.11088127
     atom    6 type  1   force =     0.00000000   -0.08679510    0.11088127
     atom    7 type  1   force =     0.00000000    0.08679510    0.11088127
     atom    8 type  1   force =     0.00000000   -0.08679510   -0.11088127
     atom    9 type  2   force =     0.00000000   -0.18577399    0.06985978
     atom   10 type  2   force =     0.00000000    0.18577399   -0.06985978
     atom   11 type  2   force =     0.00000000   -0.18577399   -0.06985978
     atom   12 type  2   force =     0.00000000    0.18577399    0.06985978

     Total force =     0.521293     Total SCF correction =     0.000000

     entering subroutine stress ...

          total   stress  (Ry/bohr**3)                   (kbar)     P= 7498.02
   0.05349669   0.00000000   0.00000000       7869.63      0.00      0.00
   0.00000000   0.04906613   0.00000000          0.00   7217.88      0.00
   0.00000000   0.00000000   0.05034866          0.00      0.00   7406.54

     BFGS Geometry Optimization

     number of scf cycles    =   1
     number of bfgs steps    =   0

     enthalpy new            =   -3835.9830436463 Ry

     new trust radius        =       0.5000000000 bohr
     new conv_thr            =       0.0001000000 Ry

     new unit-cell volume =   1089.58127 a.u.^3 (   161.45928 Ang^3 )

CELL_PARAMETERS (alat=  7.01510508)
   1.085136619   0.000000000   0.000000000
   0.000000000   1.418721257   0.000000000
   0.000000000   0.000000000   2.050102575

ATOMIC_POSITIONS (crystal)
Co       0.750000000   0.825945604   0.435420508
Co       0.250000000   0.174054396   0.564579492
Co       0.750000000   0.325945604   0.064579492
Co       0.250000000   0.674054396   0.935420508
Co       0.250000000   0.537684504   0.281814882
Co       0.750000000   0.462315496   0.718185118
Co       0.250000000   0.037684504   0.218185118
Co       0.750000000   0.962315496   0.781814882
Si       0.250000000   0.201572978   0.893933996
Si       0.750000000   0.798427022   0.106066004
Si       0.250000000   0.701572978   0.606066004
Si       0.750000000   0.298427022   0.393933996

     Writing output data file Prototype-La-oP12-Co2Si.save
     NEW-OLD atomic charge density approx. for the potential
     NEW k-points:
        k(    1) = (   0.0000000   0.0000000   0.0000000), wk =   0.0833333
        k(    2) = (   0.0000000   0.0000000   0.1219451), wk =   0.1666667
        k(    3) = (   0.0000000   0.0000000  -0.2438902), wk =   0.0833333
        k(    4) = (   0.0000000   0.2349534   0.0000000), wk =   0.1666667
        k(    5) = (   0.0000000   0.2349534   0.1219451), wk =   0.3333333
        k(    6) = (   0.0000000   0.2349534  -0.2438902), wk =   0.1666667
        k(    7) = (  -0.4607715   0.0000000   0.0000000), wk =   0.0833333
        k(    8) = (  -0.4607715   0.0000000   0.1219451), wk =   0.1666667
        k(    9) = (  -0.4607715   0.0000000  -0.2438902), wk =   0.0833333
        k(   10) = (  -0.4607715   0.2349534   0.0000000), wk =   0.1666667
        k(   11) = (  -0.4607715   0.2349534   0.1219451), wk =   0.3333333
        k(   12) = (  -0.4607715   0.2349534  -0.2438902), wk =   0.1666667

[...]

     enthalpy old            =   -3835.9830436463 Ry
     enthalpy new            =   -3843.1429314444 Ry

     CASE: enthalpy_new < enthalpy_old

     small trust_radius: resetting bfgs history

     new trust radius        =       2.7691648855 bohr
     new conv_thr            =       0.0000852697 Ry

[...]

          total   stress  (Ry/bohr**3)                   (kbar)     P=-4520.31
  -0.03327357   0.00000000   0.00000000      -4894.71      0.00      0.00
   0.00000000  -0.02894764   0.00000000          0.00  -4258.34      0.00
   0.00000000   0.00000000  -0.02996404          0.00      0.00  -4407.86

     number of scf cycles    =   3
     number of bfgs steps    =   2

     enthalpy old            =   -3843.1429314443 Ry
     enthalpy new            =   -3809.7011030147 Ry

     CASE: enthalpy_new > enthalpy_old

     new trust radius        =       0.5927309391 bohr

     trust_radius < trust_radius_min

     resetting bfgs history

     Message from routine bfgs:
     history already reset at previous step: stopping
     new conv_thr            =       0.0000852697 Ry

     new unit-cell volume =   1291.26154 a.u.^3 (   191.34522 Ang^3 )

[...]

ATOMIC_POSITIONS (crystal)
Co       0.750000000   0.825540680   0.435204599
Co       0.250000000   0.174459320   0.564795401
Co       0.750000000   0.325540680   0.064795401
Co       0.250000000   0.674459320   0.935204599
Co       0.250000000   0.537980709   0.281515879
Co       0.750000000   0.462019291   0.718484121
Co       0.250000000   0.037980709   0.218484121
Co       0.750000000   0.962019291   0.781515879
Si       0.250000000   0.200616130   0.894320204
Si       0.750000000   0.799383870   0.105679796
Si       0.250000000   0.700616130   0.605679796
Si       0.750000000   0.299383870   0.394320204

     Writing output data file Prototype-La-oP12-Co2Si.save
     NEW-OLD atomic charge density approx. for the potential
     NEW k-points:
        k(    1) = (   0.0000000   0.0000000   0.0000000), wk =   0.0833333
        k(    2) = (   0.0000000   0.0000000   0.1154571), wk =   0.1666667
        k(    3) = (   0.0000000   0.0000000  -0.2309142), wk =   0.0833333
        k(    4) = (   0.0000000   0.2231695   0.0000000), wk =   0.1666667
        k(    5) = (   0.0000000   0.2231695   0.1154571), wk =   0.3333333
        k(    6) = (   0.0000000   0.2231695  -0.2309142), wk =   0.1666667
        k(    7) = (  -0.4323360   0.0000000   0.0000000), wk =   0.0833333
        k(    8) = (  -0.4323360   0.0000000   0.1154571), wk =   0.1666667
        k(    9) = (  -0.4323360   0.0000000  -0.2309142), wk =   0.0833333
        k(   10) = (  -0.4323360   0.2231695   0.0000000), wk =   0.1666667
        k(   11) = (  -0.4323360   0.2231695   0.1154571), wk =   0.3333333
        k(   12) = (  -0.4323360   0.2231695  -0.2309142), wk =   0.1666667

[...]

     The maximum number of steps has been reached.

     End of BFGS Geometry Optimization
Begin final coordinates
     new unit-cell volume =   1291.26154 a.u.^3 (   191.34522 Ang^3 )

CELL_PARAMETERS (alat=  7.01510508)
   1.156507822   0.000000000   0.000000000
   0.000000000   1.493632741   0.000000000
   0.000000000   0.000000000   2.165305972

ATOMIC_POSITIONS (crystal)
Co       0.750000000   0.825540680   0.435204599
Co       0.250000000   0.174459320   0.564795401
Co       0.750000000   0.325540680   0.064795401
Co       0.250000000   0.674459320   0.935204599
Co       0.250000000   0.537980709   0.281515879
Co       0.750000000   0.462019291   0.718484121
Co       0.250000000   0.037980709   0.218484121
Co       0.750000000   0.962019291   0.781515879
Si       0.250000000   0.200616130   0.894320204
Si       0.750000000   0.799383870   0.105679796
Si       0.250000000   0.700616130   0.605679796
Si       0.750000000   0.299383870   0.394320204
End final coordinates

     A final scf calculation at the relaxed structure.
     The G-vectors are recalculated for the final unit cell
     Results may differ from those at the preceding step.

     bravais-lattice index     =            0
     lattice parameter (alat)  =       7.0151  a.u.
     unit-cell volume          =    1291.2615 (a.u.)^3
     number of atoms/cell      =           12
     number of atomic types    =            2
     number of electrons       =       260.00
     number of Kohn-Sham states=          156
     kinetic-energy cutoff     =      40.0000  Ry
     charge density cutoff     =     160.0000  Ry
     convergence threshold     =      8.5E-05
     mixing beta               =       0.7000
     number of iterations used =            8  plain     mixing
     Exchange-correlation      = SLA-PZ-NOGX-NOGC ( 1 1 0 0 0)
     EXX-fraction              =        0.00

     celldm(1)=   7.015105  celldm(2)=   0.000000  celldm(3)=   0.000000
     celldm(4)=   0.000000  celldm(5)=   0.000000  celldm(6)=   0.000000

     crystal axes: (cart. coord. in units of alat)
               a(1) = (   1.156508   0.000000   0.000000 )
               a(2) = (   0.000000   1.493633   0.000000 )
               a(3) = (   0.000000   0.000000   2.165306 )

     reciprocal axes: (cart. coord. in units 2 pi/alat)
               b(1) = (  0.864672  0.000000  0.000000 )
               b(2) = (  0.000000  0.669509  0.000000 )
               b(3) = (  0.000000  0.000000  0.461828 )

     PseudoPot. # 1 for Tm read from file:
     /home/cwx6513/pp.La/Tm.UPF
     MD5 check sum: 245516e0878b5372ceeb9443ded2c4e1
     Pseudo is Norm-conserving, Zval = 23.0
     Generated in analytical, separable form
     Using radial grid of 1269 points,  6 beta functions with:
                l(1) =   0
                l(2) =   0
                l(3) =   1
                l(4) =   1
                l(5) =   2
                l(6) =   3

     PseudoPot. # 2 for Tb read from file:
     /home/cwx6513/pp.La/Tb.UPF
     MD5 check sum: 3d6088a3f0cf7fd2e110c43f7f8e95c2
     Pseudo is Norm-conserving, Zval = 19.0
     Generated in analytical, separable form
     Using radial grid of 1263 points,  6 beta functions with:
                l(1) =   0
                l(2) =   0
                l(3) =   1
                l(4) =   1
                l(5) =   2
                l(6) =   3

     atomic species   valence    mass     pseudopotential
        Co            23.00    58.93320     Tm( 1.00)
        Si            19.00    28.08550     Tb( 1.00)

      8 Sym. Ops., with inversion, found ( 6 have fractional translation)

   Cartesian axes

     site n.     atom                  positions (alat units)
         1           Co  tau(   1) = (   0.8673809   1.2330546   0.9423511  )
         2           Co  tau(   2) = (   0.2891270   0.2605782   1.2229549  )
         3           Co  tau(   3) = (   0.8673809   0.4862382   0.1403019  )
         4           Co  tau(   4) = (   0.2891270   1.0073945   2.0250041  )
         5           Co  tau(   5) = (   0.2891270   0.8035456   0.6095680  )
         6           Co  tau(   6) = (   0.8673809   0.6900871   1.5557380  )
         7           Co  tau(   7) = (   0.2891270   0.0567292   0.4730850  )
         8           Co  tau(   8) = (   0.8673809   1.4369035   1.6922210  )
         9           Si  tau(   9) = (   0.2891270   0.2996468   1.9364769  )
        10           Si  tau(  10) = (   0.8673809   1.1939859   0.2288291  )
        11           Si  tau(  11) = (   0.2891270   1.0464632   1.3114821  )
        12           Si  tau(  12) = (   0.8673809   0.4471696   0.8538239  )

     number of k points=    12  gaussian smearing, width (Ry)=  0.1000
                       cart. coord. in units 2pi/alat
        k(    1) = (   0.0000000   0.0000000   0.0000000), wk =   0.0833333
        k(    2) = (   0.0000000   0.0000000   0.1154571), wk =   0.1666667
        k(    3) = (   0.0000000   0.0000000  -0.2309142), wk =   0.0833333
        k(    4) = (   0.0000000   0.2231695   0.0000000), wk =   0.1666667
        k(    5) = (   0.0000000   0.2231695   0.1154571), wk =   0.3333333
        k(    6) = (   0.0000000   0.2231695  -0.2309142), wk =   0.1666667
        k(    7) = (  -0.4323360   0.0000000   0.0000000), wk =   0.0833333
        k(    8) = (  -0.4323360   0.0000000   0.1154571), wk =   0.1666667
        k(    9) = (  -0.4323360   0.0000000  -0.2309142), wk =   0.0833333
        k(   10) = (  -0.4323360   0.2231695   0.0000000), wk =   0.1666667
        k(   11) = (  -0.4323360   0.2231695   0.1154571), wk =   0.3333333
        k(   12) = (  -0.4323360   0.2231695  -0.2309142), wk =   0.1666667

     Largest allocated arrays     est. size (Mb)     dimensions
     Largest temporary arrays     est. size (Mb)     dimensions

     Initial potential from superposition of free atoms

     Starting from uniform charge
     Starting wfc are    0 randomized atomic wfcs

     Writing output data file Prototype-La-oP12-Co2Si.save

     Self-consistent Calculation

[...]

     iteration #  9     ecut=    40.00 Ry     beta=0.70
     CG style diagonalization
     c_bands:  1 eigenvalues not converged
     ethr =  1.43E-06,  avg # of iterations =  4.4

[...]

     total energy              =   -3851.79438064 Ry
     Harris-Foulkes estimate   =   -3851.79443456 Ry
     estimated scf accuracy    <       0.00010616 Ry

     iteration # 11     ecut=    40.00 Ry     beta=0.70
     CG style diagonalization
     ethr =  4.08E-08,  avg # of iterations =  3.6

     End of self-consistent calculation

[...]

          k = 0.0000 0.2232-0.2309 (  5498 PWs)   bands (ev):

[...]

          k =-0.4323 0.2232-0.2309 (  5532 PWs)   bands (ev):

   -75.0656 -75.0656 -75.0550 -75.0550 -74.9876 -74.9876 -74.9836 -74.9836
   -40.7456 -40.7456 -40.7446 -40.7446 -33.8719 -33.8719 -33.8619 -33.8619
   -33.8260 -33.8260 -33.8221 -33.8221 -33.8054 -33.8054 -33.7772 -33.7772
   -33.7668 -33.7668 -33.7515 -33.7515 -33.7361 -33.7361 -33.7299 -33.7299
   -33.6854 -33.6854 -33.6651 -33.6651  -9.4484  -9.4484  -9.4411  -9.4411
    -9.3914  -9.3914  -9.3866  -9.3866  -9.2248  -9.2248  -9.2205  -9.2205
    13.9129  13.9129  14.1538  14.1538  14.1947  14.1947  14.2846  14.2846
    14.3181  14.3181  14.4441  14.4441  14.4762  14.4762  14.6810  14.6810
    14.7263  14.7263  14.7933  14.7933  14.8164  14.8164  15.0068  15.0068
    15.0364  15.0364  15.1144  15.1144  15.1308  15.1308  15.2183  15.2183
    15.3229  15.3229  15.5349  15.5349  15.6017  15.6017  15.8352  15.8352
    22.0958  22.0958  22.6060  22.6060  23.7816  23.7816  24.1205  24.1205
    26.5151  26.5151  26.6299  26.6299  26.7856  26.7856  27.2640  27.2640
    27.6409  27.6409  27.6485  27.6485  27.9261  27.9261  28.0103  28.0103
    29.5156  29.5156  29.6442  29.6442  30.6557  30.6557  32.6421  32.6421
    33.4543  33.4543  34.1103  34.1103  35.2758  35.2758  36.5503  36.5503
    38.9793  38.9793  39.0121  39.0121  40.3127  40.3127  40.4865  40.4865
    40.5710  40.5710  40.6684  40.6685  41.6802  41.6802  41.9929  41.9929
    42.3351  42.3351  42.6832  42.6832  42.9768  42.9769  42.9869  42.9871
    43.1499  43.1500  43.6436  43.6437

     the Fermi energy is    37.7376 ev

!    total energy              =   -3851.79440582 Ry
     Harris-Foulkes estimate   =   -3851.79441176 Ry
     estimated scf accuracy    <       0.00000608 Ry

     The total energy is the sum of the following terms:

     one-electron contribution =    -633.06142906 Ry
     hartree contribution      =     545.27749599 Ry
     xc contribution           =    -333.39371318 Ry
     ewald contribution        =   -3430.24674986 Ry
     smearing contrib. (-TS)   =      -0.37000971 Ry

     convergence has been achieved in  11 iterations

     Forces acting on atoms (Ry/au):

     atom    1 type  1   force =     0.00000000   -0.03851251   -0.03485102
     atom    2 type  1   force =     0.00000000    0.03851251    0.03485102
     atom    3 type  1   force =     0.00000000   -0.03851251    0.03485102
     atom    4 type  1   force =     0.00000000    0.03851251   -0.03485102
     atom    5 type  1   force =     0.00000000    0.01087378   -0.01214683
     atom    6 type  1   force =     0.00000000   -0.01087378    0.01214683
     atom    7 type  1   force =     0.00000000    0.01087378    0.01214683
     atom    8 type  1   force =     0.00000000   -0.01087378   -0.01214683
     atom    9 type  2   force =     0.00000000   -0.06018694    0.02160161
     atom   10 type  2   force =     0.00000000    0.06018694   -0.02160161
     atom   11 type  2   force =     0.00000000   -0.06018694   -0.02160161
     atom   12 type  2   force =     0.00000000    0.06018694    0.02160161

     Total force =     0.167961     Total SCF correction =     0.000000

     entering subroutine stress ...

          total   stress  (Ry/bohr**3)                   (kbar)     P= 1297.97
   0.00959354   0.00000000   0.00000000       1411.26      0.00      0.00
   0.00000000   0.00830936   0.00000000          0.00   1222.35      0.00
   0.00000000   0.00000000   0.00856731          0.00      0.00   1260.29

     Writing output data file Prototype-La-oP12-Co2Si.save

     General routines

     Parallel routines

   This run was terminated on:  22: 5:57  22Mar2018

   JOB DONE.