     Program PWSCF v.5.0.2 starts on 22Mar2018 at 17:32:58

     Current dimensions of program PWSCF are:
     Max number of different atomic species (ntypx) = 10
     Max number of k-points (npk) =  40000
     Max angular momentum in pseudopotentials (lmaxx) =  3
     Waiting for input...
     Reading input from standard input

     Subspace diagonalization in iterative solution of the eigenvalue problem:
     a serial algorithm will be used

     bravais-lattice index     =            0
     lattice parameter (alat)  =      12.0168  a.u.
     unit-cell volume          =    1187.3413 (a.u.)^3
     number of atoms/cell      =            8
     number of atomic types    =            2
     number of electrons       =       148.00
     number of Kohn-Sham states=           89
     kinetic-energy cutoff     =      40.0000  Ry
     charge density cutoff     =     160.0000  Ry
     convergence threshold     =      1.0E-04
     mixing beta               =       0.7000
     number of iterations used =            8  plain     mixing
     Exchange-correlation      = SLA-PZ-NOGX-NOGC ( 1 1 0 0 0)
     EXX-fraction              =        0.00
     nstep                     =           50

     celldm(1)=  12.016801  celldm(2)=   0.000000  celldm(3)=   0.000000
     celldm(4)=   0.000000  celldm(5)=   0.000000  celldm(6)=   0.000000

     crystal axes: (cart. coord. in units of alat)
               a(1) = (   1.000000   0.000000   0.000000 )
               a(2) = (  -0.500000   0.866025   0.000000 )
               a(3) = (   0.000000   0.000000   0.790093 )

     reciprocal axes: (cart. coord. in units 2 pi/alat)
               b(1) = (  1.000000  0.577350  0.000000 )
               b(2) = (  0.000000  1.154701  0.000000 )
               b(3) = (  0.000000  0.000000  1.265674 )

     PseudoPot. # 1 for Tb read from file:
     /home/cwx6513/pp.La/Tb.UPF
     MD5 check sum: 3d6088a3f0cf7fd2e110c43f7f8e95c2
     Pseudo is Norm-conserving, Zval = 19.0
     Generated in analytical, separable form
     Using radial grid of 1263 points,  6 beta functions with:
                l(1) =   0
                l(2) =   0
                l(3) =   1
                l(4) =   1
                l(5) =   2
                l(6) =   3

     PseudoPot. # 2 for Eu read from file:
     /home/cwx6513/pp.La/Eu.UPF
     MD5 check sum: 5efdbbfc50c6a10138933a6429836ad2
     Pseudo is Norm-conserving, Zval = 17.0
     Generated in analytical, separable form
     Using radial grid of 1261 points,  6 beta functions with:
                l(1) =   0
                l(2) =   0
                l(3) =   1
                l(4) =   1
                l(5) =   2
                l(6) =   3

     atomic species   valence    mass     pseudopotential
        Mg            19.00    24.30500     Tb( 1.00)
        Cd            17.00   112.41100     Eu( 1.00)

     24 Sym. Ops., with inversion, found (12 have fractional translation)

   Cartesian axes

     site n.     atom                  positions (alat units)
         1           Mg  tau(   1) = (   0.2478935   0.7204716   0.1975233  )
         2           Mg  tau(   2) = (   0.7478935   0.1455538   0.5925699  )
         3           Mg  tau(   3) = (   0.2521065   0.1455538   0.5925699  )
         4           Mg  tau(   4) = (  -0.2478935   0.7204716   0.1975233  )
         5           Mg  tau(   5) = (   0.0000000   0.2911075   0.1975233  )
         6           Mg  tau(   6) = (   0.5000000   0.5749179   0.5925699  )
         7           Cd  tau(   7) = (   0.5000005   0.2886748   0.1975233  )
         8           Cd  tau(   8) = (  -0.0000005   0.5773506   0.5925699  )

     number of k points=    64  gaussian smearing, width (Ry)=  0.1000
                       cart. coord. in units 2pi/alat
        k(    1) = (   0.0000000   0.0000000   0.0000000), wk =   0.0095238
        k(    2) = (   0.0000000   0.0000000   0.1808105), wk =   0.0190476
        k(    3) = (   0.0000000   0.0000000   0.3616210), wk =   0.0190476
        k(    4) = (   0.0000000   0.0000000   0.5424315), wk =   0.0190476
        k(    5) = (   0.0000000   0.1924501   0.0000000), wk =   0.0190476
        k(    6) = (   0.0000000   0.1924501   0.1808105), wk =   0.0380952
        k(    7) = (   0.0000000   0.1924501   0.3616210), wk =   0.0380952
        k(    8) = (   0.0000000   0.1924501   0.5424315), wk =   0.0380952
        k(    9) = (   0.0000000   0.3849002   0.0000000), wk =   0.0190476
        k(   10) = (   0.0000000   0.3849002   0.1808105), wk =   0.0380952
        k(   11) = (   0.0000000   0.3849002   0.3616210), wk =   0.0380952
        k(   12) = (   0.0000000   0.3849002   0.5424315), wk =   0.0380952
        k(   13) = (   0.0000000  -0.5773503   0.0000000), wk =   0.0095238
        k(   14) = (   0.0000000  -0.5773503   0.1808105), wk =   0.0190476
        k(   15) = (   0.0000000  -0.5773503   0.3616210), wk =   0.0190476
        k(   16) = (   0.0000000  -0.5773503   0.5424315), wk =   0.0190476
        k(   17) = (   0.2000000   0.1154701   0.0000000), wk =   0.0190476
        k(   18) = (   0.2000000   0.1154701   0.1808105), wk =   0.0380952
        k(   19) = (   0.2000000   0.1154701   0.3616210), wk =   0.0380952
        k(   20) = (   0.2000000   0.1154701   0.5424315), wk =   0.0380952
        k(   21) = (   0.2000000   0.3079201   0.0000000), wk =   0.0190476
        k(   22) = (   0.2000000   0.3079201   0.1808105), wk =   0.0380952
        k(   23) = (   0.2000000   0.3079201   0.3616210), wk =   0.0380952
        k(   24) = (   0.2000000   0.3079201   0.5424315), wk =   0.0380952
        k(   25) = (   0.2000000   0.5003702   0.0000000), wk =   0.0190476
        k(   26) = (   0.2000000   0.5003702   0.1808105), wk =   0.0380952
        k(   27) = (   0.2000000   0.5003702   0.3616210), wk =   0.0380952
        k(   28) = (   0.2000000   0.5003702   0.5424315), wk =   0.0380952
        k(   29) = (   0.2000000  -0.4618802   0.0000000), wk =   0.0190476
        k(   30) = (   0.2000000  -0.4618802   0.1808105), wk =   0.0380952
        k(   31) = (   0.2000000  -0.4618802   0.3616210), wk =   0.0380952
        k(   32) = (   0.2000000  -0.4618802   0.5424315), wk =   0.0380952
        k(   33) = (   0.2000000  -0.2694301   0.0000000), wk =   0.0190476
        k(   34) = (   0.2000000  -0.2694301   0.1808105), wk =   0.0380952
        k(   35) = (   0.2000000  -0.2694301   0.3616210), wk =   0.0380952
        k(   36) = (   0.2000000  -0.2694301   0.5424315), wk =   0.0380952
        k(   37) = (   0.2000000  -0.0769800   0.0000000), wk =   0.0190476
        k(   38) = (   0.2000000  -0.0769800   0.1808105), wk =   0.0380952
        k(   39) = (   0.2000000  -0.0769800   0.3616210), wk =   0.0380952
        k(   40) = (   0.2000000  -0.0769800   0.5424315), wk =   0.0380952
        k(   41) = (   0.4000000   0.2309401   0.0000000), wk =   0.0190476
        k(   42) = (   0.4000000   0.2309401   0.1808105), wk =   0.0380952
        k(   43) = (   0.4000000   0.2309401   0.3616210), wk =   0.0380952
        k(   44) = (   0.4000000   0.2309401   0.5424315), wk =   0.0380952
        k(   45) = (   0.4000000   0.4233902   0.0000000), wk =   0.0190476
        k(   46) = (   0.4000000   0.4233902   0.1808105), wk =   0.0380952
        k(   47) = (   0.4000000   0.4233902   0.3616210), wk =   0.0380952
        k(   48) = (   0.4000000   0.4233902   0.5424315), wk =   0.0380952
        k(   49) = (   0.4000000   0.6158403   0.0000000), wk =   0.0190476
        k(   50) = (   0.4000000   0.6158403   0.1808105), wk =   0.0380952
        k(   51) = (   0.4000000   0.6158403   0.3616210), wk =   0.0380952
        k(   52) = (   0.4000000   0.6158403   0.5424315), wk =   0.0380952
        k(   53) = (   0.4000000  -0.3464102   0.0000000), wk =   0.0190476
        k(   54) = (   0.4000000  -0.3464102   0.1808105), wk =   0.0380952
        k(   55) = (   0.4000000  -0.3464102   0.3616210), wk =   0.0380952
        k(   56) = (   0.4000000  -0.3464102   0.5424315), wk =   0.0380952
        k(   57) = (   0.4000000  -0.1539601   0.0000000), wk =   0.0190476
        k(   58) = (   0.4000000  -0.1539601   0.1808105), wk =   0.0380952
        k(   59) = (   0.4000000  -0.1539601   0.3616210), wk =   0.0380952
        k(   60) = (   0.4000000  -0.1539601   0.5424315), wk =   0.0380952
        k(   61) = (   0.4000000   0.0384900   0.0000000), wk =   0.0190476
        k(   62) = (   0.4000000   0.0384900   0.1808105), wk =   0.0380952
        k(   63) = (   0.4000000   0.0384900   0.3616210), wk =   0.0380952
        k(   64) = (   0.4000000   0.0384900   0.5424315), wk =   0.0380952

     Largest allocated arrays     est. size (Mb)     dimensions
     Largest temporary arrays     est. size (Mb)     dimensions

     Initial potential from superposition of free atoms

     Starting from uniform charge
     Starting wfc are    0 randomized atomic wfcs

     Self-consistent Calculation

     iteration #  1     ecut=    40.00 Ry     beta=0.70
     CG style diagonalization
     c_bands:  1 eigenvalues not converged
     c_bands:  2 eigenvalues not converged
     c_bands:  1 eigenvalues not converged
     c_bands:  1 eigenvalues not converged
     c_bands:  1 eigenvalues not converged
     c_bands:  3 eigenvalues not converged
     c_bands:  1 eigenvalues not converged
     c_bands:  4 eigenvalues not converged
     c_bands:  1 eigenvalues not converged
     c_bands:  1 eigenvalues not converged
     c_bands:  1 eigenvalues not converged
     c_bands:  1 eigenvalues not converged
     c_bands:  2 eigenvalues not converged
     c_bands:  1 eigenvalues not converged
     c_bands:  1 eigenvalues not converged
     c_bands:  1 eigenvalues not converged
     c_bands:  1 eigenvalues not converged
     c_bands:  1 eigenvalues not converged
     c_bands:  1 eigenvalues not converged
     c_bands:  1 eigenvalues not converged
     c_bands:  1 eigenvalues not converged
     c_bands:  3 eigenvalues not converged
     c_bands:  2 eigenvalues not converged
     c_bands:  2 eigenvalues not converged
     c_bands:  1 eigenvalues not converged
     c_bands:  1 eigenvalues not converged
     c_bands:  2 eigenvalues not converged
     c_bands:  1 eigenvalues not converged
     c_bands:  2 eigenvalues not converged
     ethr =  1.00E-02,  avg # of iterations = 12.0

     total energy              =   -1470.75001856 Ry
     Harris-Foulkes estimate   =   -2103.87684536 Ry
     estimated scf accuracy    <     806.25320381 Ry

     iteration #  2     ecut=    40.00 Ry     beta=0.70
     CG style diagonalization
     ethr =  1.00E-02,  avg # of iterations = 10.0

[...]

     End of self-consistent calculation

          k = 0.0000 0.0000 0.0000 (  5047 PWs)   bands (ev):

   -53.5167 -53.5001 -53.4975 -53.4974 -53.4912 -53.4911 -41.3151 -41.3146
   -22.0400 -21.9962 -21.9378 -21.9090 -21.9090 -21.8765 -21.8764 -21.8705
   -21.8705 -21.7941 -21.7386 -21.7386 -21.6806 -21.6805 -21.6732 -21.6638
   -21.6637 -21.6481 -14.0552 -14.0488 -14.0052 -14.0052 -14.0032 -14.0032
    13.2123  13.7491  13.8363  13.8363  13.8367  14.0777  14.3321  14.4216
    14.4216  14.4550  14.4551  15.3124  15.5703  15.5704  15.9552  15.9812
[...]
        k(   13) = (   0.0000000  -0.5931562   0.0000000), wk =   0.0095238
        k(   14) = (   0.0000000  -0.5931562   0.1809974), wk =   0.0190476
        k(   15) = (   0.0000000  -0.5931562   0.3619947), wk =   0.0190476
        k(   16) = (   0.0000000  -0.5931562   0.5429921), wk =   0.0190476
        k(   17) = (   0.2054753   0.1186312   0.0000000), wk =   0.0190476
        k(   18) = (   0.2054753   0.1186312   0.1809974), wk =   0.0380952
        k(   19) = (   0.2054753   0.1186312   0.3619947), wk =   0.0380952
        k(   20) = (   0.2054753   0.1186312   0.5429921), wk =   0.0380952
        k(   21) = (   0.2054753   0.3163500   0.0000000), wk =   0.0190476
        k(   22) = (   0.2054753   0.3163500   0.1809974), wk =   0.0380952
        k(   23) = (   0.2054753   0.3163500   0.3619947), wk =   0.0380952
        k(   24) = (   0.2054753   0.3163500   0.5429921), wk =   0.0380952
        k(   25) = (   0.2054753   0.5140687   0.0000000), wk =   0.0190476
        k(   26) = (   0.2054753   0.5140687   0.1809974), wk =   0.0380952
        k(   27) = (   0.2054753   0.5140687   0.3619947), wk =   0.0380952
        k(   28) = (   0.2054753   0.5140687   0.5429921), wk =   0.0380952
        k(   29) = (   0.2054753  -0.4745250   0.0000000), wk =   0.0190476
        k(   30) = (   0.2054753  -0.4745250   0.1809974), wk =   0.0380952
        k(   31) = (   0.2054753  -0.4745250   0.3619947), wk =   0.0380952
        k(   32) = (   0.2054753  -0.4745250   0.5429921), wk =   0.0380952
        k(   33) = (   0.2054753  -0.2768062   0.0000000), wk =   0.0190476
        k(   34) = (   0.2054753  -0.2768062   0.1809974), wk =   0.0380952
        k(   35) = (   0.2054753  -0.2768062   0.3619947), wk =   0.0380952
        k(   36) = (   0.2054753  -0.2768062   0.5429921), wk =   0.0380952
        k(   37) = (   0.2054753  -0.0790875   0.0000000), wk =   0.0190476
        k(   38) = (   0.2054753  -0.0790875   0.1809974), wk =   0.0380952
        k(   39) = (   0.2054753  -0.0790875   0.3619947), wk =   0.0380952
        k(   40) = (   0.2054753  -0.0790875   0.5429921), wk =   0.0380952
        k(   41) = (   0.4109507   0.2372625   0.0000000), wk =   0.0190476
        k(   42) = (   0.4109507   0.2372625   0.1809974), wk =   0.0380952
        k(   43) = (   0.4109507   0.2372625   0.3619947), wk =   0.0380952
        k(   44) = (   0.4109507   0.2372625   0.5429921), wk =   0.0380952
        k(   45) = (   0.4109507   0.4349812   0.0000000), wk =   0.0190476
        k(   46) = (   0.4109507   0.4349812   0.1809974), wk =   0.0380952
        k(   47) = (   0.4109507   0.4349812   0.3619947), wk =   0.0380952
        k(   48) = (   0.4109507   0.4349812   0.5429921), wk =   0.0380952
        k(   49) = (   0.4109507   0.6326999   0.0000000), wk =   0.0190476
        k(   50) = (   0.4109507   0.6326999   0.1809974), wk =   0.0380952
        k(   51) = (   0.4109507   0.6326999   0.3619947), wk =   0.0380952
        k(   52) = (   0.4109507   0.6326999   0.5429921), wk =   0.0380952
        k(   53) = (   0.4109507  -0.3558937   0.0000000), wk =   0.0190476
        k(   54) = (   0.4109507  -0.3558937   0.1809974), wk =   0.0380952
        k(   55) = (   0.4109507  -0.3558937   0.3619947), wk =   0.0380952
        k(   56) = (   0.4109507  -0.3558937   0.5429921), wk =   0.0380952
        k(   57) = (   0.4109507  -0.1581750   0.0000000), wk =   0.0190476
        k(   58) = (   0.4109507  -0.1581750   0.1809974), wk =   0.0380952
        k(   59) = (   0.4109507  -0.1581750   0.3619947), wk =   0.0380952
        k(   60) = (   0.4109507  -0.1581750   0.5429921), wk =   0.0380952
        k(   61) = (   0.4109507   0.0395437   0.0000000), wk =   0.0190476
        k(   62) = (   0.4109507   0.0395437   0.1809974), wk =   0.0380952
        k(   63) = (   0.4109507   0.0395437   0.3619947), wk =   0.0380952
        k(   64) = (   0.4109507   0.0395437   0.5429921), wk =   0.0380952

[...]

     The maximum number of steps has been reached.

     End of BFGS Geometry Optimization
Begin final coordinates
     new unit-cell volume =   1123.74450 a.u.^3 (   166.52175 Ang^3 )

CELL_PARAMETERS (alat= 12.01680127)
   0.973352852   0.000000000   0.000000000
  -0.486676426   0.842948297   0.000000000
   0.000000000   0.000000000   0.789277457

ATOMIC_POSITIONS (crystal)
Mg       0.665390714   0.832695357   0.250000000
Mg       0.832695357   0.167304643   0.750000000
Mg       0.334609286   0.167304643   0.750000000
Mg       0.167304643   0.832695357   0.250000000
Mg       0.167304643   0.334609286   0.250000000
Mg       0.832695357   0.665390714   0.750000000
Cd       0.666667000   0.333333000   0.250000000
Cd       0.333333000   0.666667000   0.750000000
End final coordinates

     A final scf calculation at the relaxed structure.
     The G-vectors are recalculated for the final unit cell
     Results may differ from those at the preceding step.

     bravais-lattice index     =            0
     lattice parameter (alat)  =      12.0168  a.u.
     unit-cell volume          =    1123.7445 (a.u.)^3
     number of atoms/cell      =            8
     number of atomic types    =            2
     number of electrons       =       148.00
     number of Kohn-Sham states=           89
     kinetic-energy cutoff     =      40.0000  Ry
     charge density cutoff     =     160.0000  Ry
     convergence threshold     =      3.4E-06
     mixing beta               =       0.7000
     number of iterations used =            8  plain     mixing
     Exchange-correlation      = SLA-PZ-NOGX-NOGC ( 1 1 0 0 0)
     EXX-fraction              =        0.00

     celldm(1)=  12.016801  celldm(2)=   0.000000  celldm(3)=   0.000000
     celldm(4)=   0.000000  celldm(5)=   0.000000  celldm(6)=   0.000000

     crystal axes: (cart. coord. in units of alat)
               a(1) = (   0.973353   0.000000   0.000000 )
               a(2) = (  -0.486676   0.842948   0.000000 )
               a(3) = (   0.000000   0.000000   0.789277 )

     reciprocal axes: (cart. coord. in units 2 pi/alat)
               b(1) = (  1.027377  0.593156  0.000000 )
               b(2) = (  0.000000  1.186312  0.000000 )
               b(3) = (  0.000000  0.000000  1.266982 )

     PseudoPot. # 1 for Tb read from file:
     /home/cwx6513/pp.La/Tb.UPF
     MD5 check sum: 3d6088a3f0cf7fd2e110c43f7f8e95c2
     Pseudo is Norm-conserving, Zval = 19.0
     Generated in analytical, separable form
     Using radial grid of 1263 points,  6 beta functions with:
                l(1) =   0
                l(2) =   0
                l(3) =   1
                l(4) =   1
                l(5) =   2
                l(6) =   3

     PseudoPot. # 2 for Eu read from file:
     /home/cwx6513/pp.La/Eu.UPF
     MD5 check sum: 5efdbbfc50c6a10138933a6429836ad2
     Pseudo is Norm-conserving, Zval = 17.0
     Generated in analytical, separable form
     Using radial grid of 1261 points,  6 beta functions with:
                l(1) =   0
                l(2) =   0
                l(3) =   1
                l(4) =   1
                l(5) =   2
                l(6) =   3

     atomic species   valence    mass     pseudopotential
        Mg            19.00    24.30500     Tb( 1.00)
        Cd            17.00   112.41100     Eu( 1.00)

     24 Sym. Ops., with inversion, found (12 have fractional translation)

   Cartesian axes

     site n.     atom                  positions (alat units)
         1           Mg  tau(   1) = (   0.2424067   0.7019191   0.1973194  )
         2           Mg  tau(   2) = (   0.7290832   0.1410292   0.5919581  )
         3           Mg  tau(   3) = (   0.2442697   0.1410292   0.5919581  )
         4           Mg  tau(   4) = (  -0.2424067   0.7019191   0.1973194  )
         5           Mg  tau(   5) = (   0.0000000   0.2820583   0.1973194  )
         6           Mg  tau(   6) = (   0.4866764   0.5608900   0.5919581  )
         7           Cd  tau(   7) = (   0.4866769   0.2809825   0.1973194  )
         8           Cd  tau(   8) = (  -0.0000005   0.5619658   0.5919581  )

     number of k points=    64  gaussian smearing, width (Ry)=  0.1000
                       cart. coord. in units 2pi/alat
        k(    1) = (   0.0000000   0.0000000   0.0000000), wk =   0.0095238
        k(    2) = (   0.0000000   0.0000000   0.1809974), wk =   0.0190476
        k(    3) = (   0.0000000   0.0000000   0.3619947), wk =   0.0190476
        k(    4) = (   0.0000000   0.0000000   0.5429921), wk =   0.0190476
        k(    5) = (   0.0000000   0.1977187   0.0000000), wk =   0.0190476
        k(    6) = (   0.0000000   0.1977187   0.1809974), wk =   0.0380952
        k(    7) = (   0.0000000   0.1977187   0.3619947), wk =   0.0380952
        k(    8) = (   0.0000000   0.1977187   0.5429921), wk =   0.0380952
        k(    9) = (   0.0000000   0.3954375   0.0000000), wk =   0.0190476
        k(   10) = (   0.0000000   0.3954375   0.1809974), wk =   0.0380952
        k(   11) = (   0.0000000   0.3954375   0.3619947), wk =   0.0380952
        k(   12) = (   0.0000000   0.3954375   0.5429921), wk =   0.0380952
        k(   13) = (   0.0000000  -0.5931562   0.0000000), wk =   0.0095238
        k(   14) = (   0.0000000  -0.5931562   0.1809974), wk =   0.0190476
        k(   15) = (   0.0000000  -0.5931562   0.3619947), wk =   0.0190476
        k(   16) = (   0.0000000  -0.5931562   0.5429921), wk =   0.0190476
        k(   17) = (   0.2054753   0.1186312   0.0000000), wk =   0.0190476
        k(   18) = (   0.2054753   0.1186312   0.1809974), wk =   0.0380952
        k(   19) = (   0.2054753   0.1186312   0.3619947), wk =   0.0380952
        k(   20) = (   0.2054753   0.1186312   0.5429921), wk =   0.0380952
        k(   21) = (   0.2054753   0.3163500   0.0000000), wk =   0.0190476
        k(   22) = (   0.2054753   0.3163500   0.1809974), wk =   0.0380952
        k(   23) = (   0.2054753   0.3163500   0.3619947), wk =   0.0380952
        k(   24) = (   0.2054753   0.3163500   0.5429921), wk =   0.0380952
        k(   25) = (   0.2054753   0.5140687   0.0000000), wk =   0.0190476
        k(   26) = (   0.2054753   0.5140687   0.1809974), wk =   0.0380952
        k(   27) = (   0.2054753   0.5140687   0.3619947), wk =   0.0380952
        k(   28) = (   0.2054753   0.5140687   0.5429921), wk =   0.0380952
        k(   29) = (   0.2054753  -0.4745250   0.0000000), wk =   0.0190476
        k(   30) = (   0.2054753  -0.4745250   0.1809974), wk =   0.0380952
        k(   31) = (   0.2054753  -0.4745250   0.3619947), wk =   0.0380952
        k(   32) = (   0.2054753  -0.4745250   0.5429921), wk =   0.0380952
        k(   33) = (   0.2054753  -0.2768062   0.0000000), wk =   0.0190476
        k(   34) = (   0.2054753  -0.2768062   0.1809974), wk =   0.0380952
        k(   35) = (   0.2054753  -0.2768062   0.3619947), wk =   0.0380952
        k(   36) = (   0.2054753  -0.2768062   0.5429921), wk =   0.0380952
        k(   37) = (   0.2054753  -0.0790875   0.0000000), wk =   0.0190476
        k(   38) = (   0.2054753  -0.0790875   0.1809974), wk =   0.0380952
        k(   39) = (   0.2054753  -0.0790875   0.3619947), wk =   0.0380952
        k(   40) = (   0.2054753  -0.0790875   0.5429921), wk =   0.0380952
        k(   41) = (   0.4109507   0.2372625   0.0000000), wk =   0.0190476
        k(   42) = (   0.4109507   0.2372625   0.1809974), wk =   0.0380952
        k(   43) = (   0.4109507   0.2372625   0.3619947), wk =   0.0380952
        k(   44) = (   0.4109507   0.2372625   0.5429921), wk =   0.0380952
        k(   45) = (   0.4109507   0.4349812   0.0000000), wk =   0.0190476
        k(   46) = (   0.4109507   0.4349812   0.1809974), wk =   0.0380952
        k(   47) = (   0.4109507   0.4349812   0.3619947), wk =   0.0380952
        k(   48) = (   0.4109507   0.4349812   0.5429921), wk =   0.0380952
        k(   49) = (   0.4109507   0.6326999   0.0000000), wk =   0.0190476
        k(   50) = (   0.4109507   0.6326999   0.1809974), wk =   0.0380952
        k(   51) = (   0.4109507   0.6326999   0.3619947), wk =   0.0380952
        k(   52) = (   0.4109507   0.6326999   0.5429921), wk =   0.0380952
        k(   53) = (   0.4109507  -0.3558937   0.0000000), wk =   0.0190476
        k(   54) = (   0.4109507  -0.3558937   0.1809974), wk =   0.0380952
        k(   55) = (   0.4109507  -0.3558937   0.3619947), wk =   0.0380952
        k(   56) = (   0.4109507  -0.3558937   0.5429921), wk =   0.0380952
        k(   57) = (   0.4109507  -0.1581750   0.0000000), wk =   0.0190476
        k(   58) = (   0.4109507  -0.1581750   0.1809974), wk =   0.0380952
        k(   59) = (   0.4109507  -0.1581750   0.3619947), wk =   0.0380952
        k(   60) = (   0.4109507  -0.1581750   0.5429921), wk =   0.0380952
        k(   61) = (   0.4109507   0.0395437   0.0000000), wk =   0.0190476
        k(   62) = (   0.4109507   0.0395437   0.1809974), wk =   0.0380952
        k(   63) = (   0.4109507   0.0395437   0.3619947), wk =   0.0380952
        k(   64) = (   0.4109507   0.0395437   0.5429921), wk =   0.0380952

     Largest allocated arrays     est. size (Mb)     dimensions
     Largest temporary arrays     est. size (Mb)     dimensions

     Initial potential from superposition of free atoms

     Starting from uniform charge
     Starting wfc are    0 randomized atomic wfcs

     Writing output data file Prototype-La-hP8-Mg3Cd.save

     Self-consistent Calculation

[...]

     iteration # 10     ecut=    40.00 Ry     beta=0.70
     CG style diagonalization
     c_bands:  1 eigenvalues not converged
     c_bands:  1 eigenvalues not converged
     c_bands:  1 eigenvalues not converged
     ethr =  2.84E-06,  avg # of iterations =  3.2

[...]

     total energy              =   -1726.95026991 Ry
     Harris-Foulkes estimate   =   -1726.95027211 Ry
     estimated scf accuracy    <       0.00000531 Ry

     iteration # 12     ecut=    40.00 Ry     beta=0.70
     CG style diagonalization
     ethr =  3.59E-09,  avg # of iterations =  4.6

     End of self-consistent calculation

[...]

          k = 0.4110 0.0395 0.5430 (  4783 PWs)   bands (ev):

   -52.1468 -52.1428 -52.1329 -52.1290 -52.1273 -52.1244 -39.8181 -39.8178
   -20.6463 -20.6447 -20.6135 -20.6041 -20.5805 -20.5655 -20.4877 -20.4589
   -20.4270 -20.4251 -20.4023 -20.3775 -20.3573 -20.3475 -20.3408 -20.3248
   -20.3156 -20.3127 -12.5609 -12.5596 -12.5461 -12.5435 -12.5418 -12.5406
    15.2628  15.3071  15.5015  15.5068  15.5924  15.7861  15.8542  15.9266
    15.9573  16.0707  16.2081  16.3437  16.4517  16.5412  16.6736  16.8046
    17.1120  17.1771  17.4404  17.6373  17.7158  17.9054  17.9319  17.9983
    18.1165  18.2136  18.5459  18.6047  18.8266  19.0703  19.2907  19.5045
    19.6714  19.8481  20.5849  20.6843  20.8055  20.8553  21.0883  21.3539
    21.5801  21.7447  22.0652  22.4942  23.1088  23.5169  25.6488  25.9573
    28.1831  28.5227  29.9520  30.5200  30.8743  31.0453  31.6078  32.0149
    32.2528

     the Fermi energy is    22.4035 ev

!    total energy              =   -1726.95027289 Ry
     Harris-Foulkes estimate   =   -1726.95027487 Ry
     estimated scf accuracy    <       0.00000225 Ry

     The total energy is the sum of the following terms:

     one-electron contribution =    -279.76547370 Ry
     hartree contribution      =     244.14878200 Ry
     xc contribution           =    -168.10691212 Ry
     ewald contribution        =   -1522.91447992 Ry
     smearing contrib. (-TS)   =      -0.31218915 Ry

     convergence has been achieved in  12 iterations

     Forces acting on atoms (Ry/au):

     atom    1 type  1   force =     0.00058769    0.00033931    0.00000000
     atom    2 type  1   force =     0.00058769   -0.00033931    0.00000000
     atom    3 type  1   force =    -0.00058769   -0.00033931    0.00000000
     atom    4 type  1   force =    -0.00058769    0.00033931    0.00000000
     atom    5 type  1   force =     0.00000000   -0.00067861    0.00000000
     atom    6 type  1   force =     0.00000000    0.00067861    0.00000000
     atom    7 type  2   force =     0.00000000    0.00000000    0.00000000
     atom    8 type  2   force =     0.00000000    0.00000000    0.00000000

     Total force =     0.001662     Total SCF correction =     0.000000

     entering subroutine stress ...

          total   stress  (Ry/bohr**3)                   (kbar)     P= -438.46
  -0.00303866   0.00000000   0.00000000       -447.00      0.00      0.00
   0.00000000  -0.00303866   0.00000000          0.00   -447.00      0.00
   0.00000000   0.00000000  -0.00286443          0.00      0.00   -421.37

     Writing output data file Prototype-La-hP8-Mg3Cd.save

     General routines

     Parallel routines

   This run was terminated on:  18:32: 7  22Mar2018

   JOB DONE.