     Program PWSCF v.5.0.2 starts on 22Mar2018 at 17:32:56

     Current dimensions of program PWSCF are:
     Max number of different atomic species (ntypx) = 10
     Max number of k-points (npk) =  40000
     Max angular momentum in pseudopotentials (lmaxx) =  3
     Waiting for input...
     Reading input from standard input

     Subspace diagonalization in iterative solution of the eigenvalue problem:
     a serial algorithm will be used

     bravais-lattice index     =            0
     lattice parameter (alat)  =       8.5346  a.u.
     unit-cell volume          =     621.6493 (a.u.)^3
     number of atoms/cell      =            8
     number of atomic types    =            2
     number of electrons       =       148.00
     number of Kohn-Sham states=           89
     kinetic-energy cutoff     =      40.0000  Ry
     charge density cutoff     =     160.0000  Ry
     convergence threshold     =      1.0E-04
     mixing beta               =       0.7000
     number of iterations used =            8  plain     mixing
     Exchange-correlation      = SLA-PZ-NOGX-NOGC ( 1 1 0 0 0)
     EXX-fraction              =        0.00
     nstep                     =           50

     celldm(1)=   8.534573  celldm(2)=   0.000000  celldm(3)=   0.000000
     celldm(4)=   0.000000  celldm(5)=   0.000000  celldm(6)=   0.000000

     crystal axes: (cart. coord. in units of alat)
               a(1) = (   1.000000   0.000000   0.000000 )
               a(2) = (   0.000000   1.000000   0.000000 )
               a(3) = (   0.000000   0.000000   1.000000 )

     reciprocal axes: (cart. coord. in units 2 pi/alat)
               b(1) = (  1.000000  0.000000  0.000000 )
               b(2) = (  0.000000  1.000000  0.000000 )
               b(3) = (  0.000000  0.000000  1.000000 )

     PseudoPot. # 1 for Tb read from file:
     /home/cwx6513/pp.La/Tb.UPF
     MD5 check sum: 3d6088a3f0cf7fd2e110c43f7f8e95c2
     Pseudo is Norm-conserving, Zval = 19.0
     Generated in analytical, separable form
     Using radial grid of 1263 points,  6 beta functions with:
                l(1) =   0
                l(2) =   0
                l(3) =   1
                l(4) =   1
                l(5) =   2
                l(6) =   3

     PseudoPot. # 2 for Eu read from file:
     /home/cwx6513/pp.La/Eu.UPF
     MD5 check sum: 5efdbbfc50c6a10138933a6429836ad2
     Pseudo is Norm-conserving, Zval = 17.0
     Generated in analytical, separable form
     Using radial grid of 1261 points,  6 beta functions with:
                l(1) =   0
                l(2) =   0
                l(3) =   1
                l(4) =   1
                l(5) =   2
                l(6) =   3

     atomic species   valence    mass     pseudopotential
        Cr            19.00    51.99610     Tb( 1.00)
        Si            17.00    28.08550     Eu( 1.00)

     48 Sym. Ops., with inversion, found (24 have fractional translation)

   Cartesian axes

     site n.     atom                  positions (alat units)
         1           Cr  tau(   1) = (   0.0000000   0.5000000   0.2500000  )
         2           Cr  tau(   2) = (   0.0000000   0.5000000   0.7500000  )
         3           Cr  tau(   3) = (   0.5000000   0.7500000   0.0000000  )
         4           Cr  tau(   4) = (   0.5000000   0.2500000   0.0000000  )
         5           Cr  tau(   5) = (   0.7500000   0.0000000   0.5000000  )
         6           Cr  tau(   6) = (   0.2500000   0.0000000   0.5000000  )
         7           Si  tau(   7) = (   0.5000000   0.5000000   0.5000000  )
         8           Si  tau(   8) = (   0.0000000   0.0000000   0.0000000  )

     number of k points=    48  gaussian smearing, width (Ry)=  0.1000
                       cart. coord. in units 2pi/alat
        k(    1) = (   0.0000000   0.0000000   0.0000000), wk =   0.0095238
        k(    2) = (   0.0000000   0.0000000   0.1428571), wk =   0.0190476
        k(    3) = (   0.0000000   0.0000000   0.2857143), wk =   0.0190476
        k(    4) = (   0.0000000   0.0000000   0.4285714), wk =   0.0190476
        k(    5) = (   0.0000000   0.1666667   0.0000000), wk =   0.0190476
        k(    6) = (   0.0000000   0.1666667   0.1428571), wk =   0.0380952
        k(    7) = (   0.0000000   0.1666667   0.2857143), wk =   0.0380952
        k(    8) = (   0.0000000   0.1666667   0.4285714), wk =   0.0380952
        k(    9) = (   0.0000000   0.3333333   0.0000000), wk =   0.0190476
        k(   10) = (   0.0000000   0.3333333   0.1428571), wk =   0.0380952
        k(   11) = (   0.0000000   0.3333333   0.2857143), wk =   0.0380952
        k(   12) = (   0.0000000   0.3333333   0.4285714), wk =   0.0380952
        k(   13) = (   0.0000000  -0.5000000   0.0000000), wk =   0.0095238
        k(   14) = (   0.0000000  -0.5000000   0.1428571), wk =   0.0190476
        k(   15) = (   0.0000000  -0.5000000   0.2857143), wk =   0.0190476
        k(   16) = (   0.0000000  -0.5000000   0.4285714), wk =   0.0190476
        k(   17) = (   0.2000000   0.0000000   0.0000000), wk =   0.0190476
        k(   18) = (   0.2000000   0.0000000   0.1428571), wk =   0.0380952
        k(   19) = (   0.2000000   0.0000000   0.2857143), wk =   0.0380952
        k(   20) = (   0.2000000   0.0000000   0.4285714), wk =   0.0380952
        k(   21) = (   0.2000000   0.1666667   0.0000000), wk =   0.0380952
        k(   22) = (   0.2000000   0.1666667   0.1428571), wk =   0.0761905
        k(   23) = (   0.2000000   0.1666667   0.2857143), wk =   0.0761905
        k(   24) = (   0.2000000   0.1666667   0.4285714), wk =   0.0761905
        k(   25) = (   0.2000000   0.3333333   0.0000000), wk =   0.0380952
        k(   26) = (   0.2000000   0.3333333   0.1428571), wk =   0.0761905
        k(   27) = (   0.2000000   0.3333333   0.2857143), wk =   0.0761905
        k(   28) = (   0.2000000   0.3333333   0.4285714), wk =   0.0761905
        k(   29) = (   0.2000000  -0.5000000   0.0000000), wk =   0.0190476
        k(   30) = (   0.2000000  -0.5000000   0.1428571), wk =   0.0380952
        k(   31) = (   0.2000000  -0.5000000   0.2857143), wk =   0.0380952
        k(   32) = (   0.2000000  -0.5000000   0.4285714), wk =   0.0380952
        k(   33) = (   0.4000000   0.0000000   0.0000000), wk =   0.0190476
        k(   34) = (   0.4000000   0.0000000   0.1428571), wk =   0.0380952
        k(   35) = (   0.4000000   0.0000000   0.2857143), wk =   0.0380952
        k(   36) = (   0.4000000   0.0000000   0.4285714), wk =   0.0380952
        k(   37) = (   0.4000000   0.1666667   0.0000000), wk =   0.0380952
        k(   38) = (   0.4000000   0.1666667   0.1428571), wk =   0.0761905
        k(   39) = (   0.4000000   0.1666667   0.2857143), wk =   0.0761905
        k(   40) = (   0.4000000   0.1666667   0.4285714), wk =   0.0761905
        k(   41) = (   0.4000000   0.3333333   0.0000000), wk =   0.0380952
        k(   42) = (   0.4000000   0.3333333   0.1428571), wk =   0.0761905
        k(   43) = (   0.4000000   0.3333333   0.2857143), wk =   0.0761905
        k(   44) = (   0.4000000   0.3333333   0.4285714), wk =   0.0761905
        k(   45) = (   0.4000000  -0.5000000   0.0000000), wk =   0.0190476
        k(   46) = (   0.4000000  -0.5000000   0.1428571), wk =   0.0380952
        k(   47) = (   0.4000000  -0.5000000   0.2857143), wk =   0.0380952
        k(   48) = (   0.4000000  -0.5000000   0.4285714), wk =   0.0380952

     Largest allocated arrays     est. size (Mb)     dimensions
     Largest temporary arrays     est. size (Mb)     dimensions

     Initial potential from superposition of free atoms

     Starting from uniform charge
     Starting wfc are    0 randomized atomic wfcs

     Self-consistent Calculation

     iteration #  1     ecut=    40.00 Ry     beta=0.70
     CG style diagonalization
     c_bands:  1 eigenvalues not converged
     c_bands:  1 eigenvalues not converged
     c_bands:  5 eigenvalues not converged
     c_bands:  3 eigenvalues not converged
     c_bands:  1 eigenvalues not converged
     c_bands:  2 eigenvalues not converged
     c_bands:  2 eigenvalues not converged
     c_bands:  2 eigenvalues not converged
     c_bands:  1 eigenvalues not converged
     c_bands:  2 eigenvalues not converged
     c_bands:  3 eigenvalues not converged
     c_bands:  3 eigenvalues not converged
     c_bands:  1 eigenvalues not converged
     c_bands:  1 eigenvalues not converged
     c_bands:  2 eigenvalues not converged
     c_bands:  2 eigenvalues not converged
     c_bands:  1 eigenvalues not converged
     c_bands:  1 eigenvalues not converged
     c_bands:  1 eigenvalues not converged
     c_bands:  1 eigenvalues not converged
     c_bands:  2 eigenvalues not converged
     c_bands:  3 eigenvalues not converged
     c_bands:  2 eigenvalues not converged
     ethr =  1.00E-02,  avg # of iterations = 11.5

     total energy              =   -1617.56909985 Ry
     Harris-Foulkes estimate   =   -1898.18825246 Ry
     estimated scf accuracy    <     368.55727168 Ry

[...]

     iteration #  3     ecut=    40.00 Ry     beta=0.70
     CG style diagonalization
     ethr =  1.00E-02,  avg # of iterations =  5.3

[...]

     End of self-consistent calculation

          k = 0.0000 0.0000 0.0000 (  2601 PWs)   bands (ev):

   -32.5069 -32.2766 -32.2766 -31.4988 -31.4988 -31.4988 -18.2122 -18.1483
    -3.7134  -3.7134  -3.2330  -1.6518  -1.6518  -1.6518  -0.4164  -0.4164
    -0.4164  -0.3381  -0.3381  -0.3381   0.0192   0.0192   0.0192   1.4259
     1.4259   1.4259   8.4937   8.4937   8.4937   8.6170   8.6170   8.6170
    30.3365  30.3365  30.7450  30.8536  30.8536  30.8536  32.5012  32.8355
    33.7520  33.7520  33.7520  34.2785  34.2785  34.3195  34.3195  34.3195
    34.3768  37.6535  37.6535  38.3569  38.3569  38.3569  38.4248  38.4248
    38.4248  39.3424  39.3424  39.3424  39.5957  39.5957  39.5957  40.5677
    40.5677  42.0546  42.0546  42.4569  42.4569  42.4569  45.0904  45.0904
    45.0904  48.6146  48.6146  48.6146  51.5091  51.7592  51.7592  51.7592
    52.9107  52.9107  52.9108  53.0469  53.0469  54.1535  56.6227  56.6228
    56.6230

[...]

     the Fermi energy is    46.4486 ev

!    total energy              =   -1720.40741040 Ry
     Harris-Foulkes estimate   =   -1720.40741365 Ry
     estimated scf accuracy    <       0.00000356 Ry

     The total energy is the sum of the following terms:

     one-electron contribution =     179.99449003 Ry
     hartree contribution      =     127.96095855 Ry
     xc contribution           =    -177.16446677 Ry
     ewald contribution        =   -1851.06419504 Ry
     smearing contrib. (-TS)   =      -0.13419717 Ry

     convergence has been achieved in   9 iterations

     Forces acting on atoms (Ry/au):

     atom    1 type  1   force =     0.00000000    0.00000000    0.00000000
     atom    2 type  1   force =     0.00000000    0.00000000    0.00000000
     atom    3 type  1   force =     0.00000000    0.00000000    0.00000000
     atom    4 type  1   force =     0.00000000    0.00000000    0.00000000
     atom    5 type  1   force =     0.00000000    0.00000000    0.00000000
     atom    6 type  1   force =     0.00000000    0.00000000    0.00000000
[...]

     enthalpy old            =   -1720.4074103986 Ry
     enthalpy new            =   -1723.2086254320 Ry

     CASE: enthalpy_new < enthalpy_old

     small trust_radius: resetting bfgs history

     new trust radius        =       0.1900713538 bohr
     new conv_thr            =       0.0000010000 Ry

[...]

     number of scf cycles    =   3
     number of bfgs steps    =   2

     enthalpy old            =   -1723.2086254320 Ry
     enthalpy new            =   -1723.0742559229 Ry

     CASE: enthalpy_new > enthalpy_old

     new trust radius        =       0.0431257094 bohr

     trust_radius < trust_radius_min

     resetting bfgs history

     Message from routine bfgs:
     history already reset at previous step: stopping
     new conv_thr            =       0.0000010000 Ry

     new unit-cell volume =    910.00650 a.u.^3 (   134.84905 Ang^3 )

[...]

ATOMIC_POSITIONS (crystal)
Cr       0.000000000   0.500000000   0.250000000
Cr       0.000000000   0.500000000   0.750000000
Cr       0.500000000   0.750000000   0.000000000
Cr       0.500000000   0.250000000   0.000000000
Cr       0.750000000   0.000000000   0.500000000
Cr       0.250000000   0.000000000   0.500000000
Si       0.500000000   0.500000000   0.500000000
Si       0.000000000   0.000000000   0.000000000

     Writing output data file Prototype-La-cP8-Cr3Si.save
     NEW-OLD atomic charge density approx. for the potential
     NEW k-points:
        k(    1) = (   0.0000000   0.0000000   0.0000000), wk =   0.0095238
        k(    2) = (   0.0000000   0.0000000   0.1258159), wk =   0.0190476
        k(    3) = (   0.0000000   0.0000000   0.2516318), wk =   0.0190476
        k(    4) = (   0.0000000   0.0000000   0.3774478), wk =   0.0190476
        k(    5) = (   0.0000000   0.1467852   0.0000000), wk =   0.0190476
        k(    6) = (   0.0000000   0.1467852   0.1258159), wk =   0.0380952
        k(    7) = (   0.0000000   0.1467852   0.2516318), wk =   0.0380952
        k(    8) = (   0.0000000   0.1467852   0.3774478), wk =   0.0380952
        k(    9) = (   0.0000000   0.2935705   0.0000000), wk =   0.0190476
        k(   10) = (   0.0000000   0.2935705   0.1258159), wk =   0.0380952
        k(   11) = (   0.0000000   0.2935705   0.2516318), wk =   0.0380952
        k(   12) = (   0.0000000   0.2935705   0.3774478), wk =   0.0380952
        k(   13) = (   0.0000000  -0.4403557   0.0000000), wk =   0.0095238
        k(   14) = (   0.0000000  -0.4403557   0.1258159), wk =   0.0190476
        k(   15) = (   0.0000000  -0.4403557   0.2516318), wk =   0.0190476
        k(   16) = (   0.0000000  -0.4403557   0.3774478), wk =   0.0190476
        k(   17) = (   0.1761423   0.0000000   0.0000000), wk =   0.0190476
        k(   18) = (   0.1761423   0.0000000   0.1258159), wk =   0.0380952
        k(   19) = (   0.1761423   0.0000000   0.2516318), wk =   0.0380952
        k(   20) = (   0.1761423   0.0000000   0.3774478), wk =   0.0380952
        k(   21) = (   0.1761423   0.1467852   0.0000000), wk =   0.0380952
        k(   22) = (   0.1761423   0.1467852   0.1258159), wk =   0.0761905
        k(   23) = (   0.1761423   0.1467852   0.2516318), wk =   0.0761905
        k(   24) = (   0.1761423   0.1467852   0.3774478), wk =   0.0761905
        k(   25) = (   0.1761423   0.2935705   0.0000000), wk =   0.0380952
        k(   26) = (   0.1761423   0.2935705   0.1258159), wk =   0.0761905
        k(   27) = (   0.1761423   0.2935705   0.2516318), wk =   0.0761905
        k(   28) = (   0.1761423   0.2935705   0.3774478), wk =   0.0761905
        k(   29) = (   0.1761423  -0.4403557   0.0000000), wk =   0.0190476
        k(   30) = (   0.1761423  -0.4403557   0.1258159), wk =   0.0380952
        k(   31) = (   0.1761423  -0.4403557   0.2516318), wk =   0.0380952
        k(   32) = (   0.1761423  -0.4403557   0.3774478), wk =   0.0380952
        k(   33) = (   0.3522846   0.0000000   0.0000000), wk =   0.0190476
        k(   34) = (   0.3522846   0.0000000   0.1258159), wk =   0.0380952
        k(   35) = (   0.3522846   0.0000000   0.2516318), wk =   0.0380952
        k(   36) = (   0.3522846   0.0000000   0.3774478), wk =   0.0380952
        k(   37) = (   0.3522846   0.1467852   0.0000000), wk =   0.0380952
        k(   38) = (   0.3522846   0.1467852   0.1258159), wk =   0.0761905
        k(   39) = (   0.3522846   0.1467852   0.2516318), wk =   0.0761905
        k(   40) = (   0.3522846   0.1467852   0.3774478), wk =   0.0761905
        k(   41) = (   0.3522846   0.2935705   0.0000000), wk =   0.0380952
        k(   42) = (   0.3522846   0.2935705   0.1258159), wk =   0.0761905
        k(   43) = (   0.3522846   0.2935705   0.2516318), wk =   0.0761905
        k(   44) = (   0.3522846   0.2935705   0.3774478), wk =   0.0761905
        k(   45) = (   0.3522846  -0.4403557   0.0000000), wk =   0.0190476
        k(   46) = (   0.3522846  -0.4403557   0.1258159), wk =   0.0380952
        k(   47) = (   0.3522846  -0.4403557   0.2516318), wk =   0.0380952
        k(   48) = (   0.3522846  -0.4403557   0.3774478), wk =   0.0380952

[...]

     The maximum number of steps has been reached.

     End of BFGS Geometry Optimization
Begin final coordinates
     new unit-cell volume =    910.00650 a.u.^3 (   134.84905 Ang^3 )

CELL_PARAMETERS (alat=  8.53457320)
   1.135445668   0.000000000   0.000000000
   0.000000000   1.135445668   0.000000000
   0.000000000   0.000000000   1.135445668

ATOMIC_POSITIONS (crystal)
Cr       0.000000000   0.500000000   0.250000000
Cr       0.000000000   0.500000000   0.750000000
Cr       0.500000000   0.750000000   0.000000000
Cr       0.500000000   0.250000000   0.000000000
Cr       0.750000000   0.000000000   0.500000000
Cr       0.250000000   0.000000000   0.500000000
Si       0.500000000   0.500000000   0.500000000
Si       0.000000000   0.000000000   0.000000000
End final coordinates

     A final scf calculation at the relaxed structure.
     The G-vectors are recalculated for the final unit cell
     Results may differ from those at the preceding step.

     bravais-lattice index     =            0
     lattice parameter (alat)  =       8.5346  a.u.
     unit-cell volume          =     910.0065 (a.u.)^3
     number of atoms/cell      =            8
     number of atomic types    =            2
     number of electrons       =       148.00
     number of Kohn-Sham states=           89
     kinetic-energy cutoff     =      40.0000  Ry
     charge density cutoff     =     160.0000  Ry
     convergence threshold     =      1.0E-06
     mixing beta               =       0.7000
     number of iterations used =            8  plain     mixing
     Exchange-correlation      = SLA-PZ-NOGX-NOGC ( 1 1 0 0 0)
     EXX-fraction              =        0.00

     celldm(1)=   8.534573  celldm(2)=   0.000000  celldm(3)=   0.000000
     celldm(4)=   0.000000  celldm(5)=   0.000000  celldm(6)=   0.000000

     crystal axes: (cart. coord. in units of alat)
               a(1) = (   1.135446   0.000000   0.000000 )
               a(2) = (   0.000000   1.135446   0.000000 )
               a(3) = (   0.000000   0.000000   1.135446 )

     reciprocal axes: (cart. coord. in units 2 pi/alat)
               b(1) = (  0.880711  0.000000  0.000000 )
               b(2) = (  0.000000  0.880711  0.000000 )
               b(3) = (  0.000000  0.000000  0.880711 )

     PseudoPot. # 1 for Tb read from file:
     /home/cwx6513/pp.La/Tb.UPF
     MD5 check sum: 3d6088a3f0cf7fd2e110c43f7f8e95c2
     Pseudo is Norm-conserving, Zval = 19.0
     Generated in analytical, separable form
     Using radial grid of 1263 points,  6 beta functions with:
                l(1) =   0
                l(2) =   0
                l(3) =   1
                l(4) =   1
                l(5) =   2
                l(6) =   3

     PseudoPot. # 2 for Eu read from file:
     /home/cwx6513/pp.La/Eu.UPF
     MD5 check sum: 5efdbbfc50c6a10138933a6429836ad2
     Pseudo is Norm-conserving, Zval = 17.0
     Generated in analytical, separable form
     Using radial grid of 1261 points,  6 beta functions with:
                l(1) =   0
                l(2) =   0
                l(3) =   1
                l(4) =   1
                l(5) =   2
                l(6) =   3

     atomic species   valence    mass     pseudopotential
        Cr            19.00    51.99610     Tb( 1.00)
        Si            17.00    28.08550     Eu( 1.00)

     48 Sym. Ops., with inversion, found (24 have fractional translation)

   Cartesian axes

     site n.     atom                  positions (alat units)
         1           Cr  tau(   1) = (   0.0000000   0.5677228   0.2838614  )
         2           Cr  tau(   2) = (   0.0000000   0.5677228   0.8515843  )
         3           Cr  tau(   3) = (   0.5677228   0.8515843   0.0000000  )
         4           Cr  tau(   4) = (   0.5677228   0.2838614   0.0000000  )
         5           Cr  tau(   5) = (   0.8515843   0.0000000   0.5677228  )
         6           Cr  tau(   6) = (   0.2838614   0.0000000   0.5677228  )
         7           Si  tau(   7) = (   0.5677228   0.5677228   0.5677228  )
         8           Si  tau(   8) = (   0.0000000   0.0000000   0.0000000  )

     number of k points=    48  gaussian smearing, width (Ry)=  0.1000
                       cart. coord. in units 2pi/alat
        k(    1) = (   0.0000000   0.0000000   0.0000000), wk =   0.0095238
        k(    2) = (   0.0000000   0.0000000   0.1258159), wk =   0.0190476
        k(    3) = (   0.0000000   0.0000000   0.2516318), wk =   0.0190476
        k(    4) = (   0.0000000   0.0000000   0.3774478), wk =   0.0190476
        k(    5) = (   0.0000000   0.1467852   0.0000000), wk =   0.0190476
        k(    6) = (   0.0000000   0.1467852   0.1258159), wk =   0.0380952
        k(    7) = (   0.0000000   0.1467852   0.2516318), wk =   0.0380952
        k(    8) = (   0.0000000   0.1467852   0.3774478), wk =   0.0380952
        k(    9) = (   0.0000000   0.2935705   0.0000000), wk =   0.0190476
        k(   10) = (   0.0000000   0.2935705   0.1258159), wk =   0.0380952
        k(   11) = (   0.0000000   0.2935705   0.2516318), wk =   0.0380952
        k(   12) = (   0.0000000   0.2935705   0.3774478), wk =   0.0380952
        k(   13) = (   0.0000000  -0.4403557   0.0000000), wk =   0.0095238
        k(   14) = (   0.0000000  -0.4403557   0.1258159), wk =   0.0190476
        k(   15) = (   0.0000000  -0.4403557   0.2516318), wk =   0.0190476
        k(   16) = (   0.0000000  -0.4403557   0.3774478), wk =   0.0190476
        k(   17) = (   0.1761423   0.0000000   0.0000000), wk =   0.0190476
        k(   18) = (   0.1761423   0.0000000   0.1258159), wk =   0.0380952
        k(   19) = (   0.1761423   0.0000000   0.2516318), wk =   0.0380952
        k(   20) = (   0.1761423   0.0000000   0.3774478), wk =   0.0380952
        k(   21) = (   0.1761423   0.1467852   0.0000000), wk =   0.0380952
        k(   22) = (   0.1761423   0.1467852   0.1258159), wk =   0.0761905
        k(   23) = (   0.1761423   0.1467852   0.2516318), wk =   0.0761905
        k(   24) = (   0.1761423   0.1467852   0.3774478), wk =   0.0761905
        k(   25) = (   0.1761423   0.2935705   0.0000000), wk =   0.0380952
        k(   26) = (   0.1761423   0.2935705   0.1258159), wk =   0.0761905
        k(   27) = (   0.1761423   0.2935705   0.2516318), wk =   0.0761905
        k(   28) = (   0.1761423   0.2935705   0.3774478), wk =   0.0761905
        k(   29) = (   0.1761423  -0.4403557   0.0000000), wk =   0.0190476
        k(   30) = (   0.1761423  -0.4403557   0.1258159), wk =   0.0380952
        k(   31) = (   0.1761423  -0.4403557   0.2516318), wk =   0.0380952
        k(   32) = (   0.1761423  -0.4403557   0.3774478), wk =   0.0380952
        k(   33) = (   0.3522846   0.0000000   0.0000000), wk =   0.0190476
        k(   34) = (   0.3522846   0.0000000   0.1258159), wk =   0.0380952
        k(   35) = (   0.3522846   0.0000000   0.2516318), wk =   0.0380952
        k(   36) = (   0.3522846   0.0000000   0.3774478), wk =   0.0380952
        k(   37) = (   0.3522846   0.1467852   0.0000000), wk =   0.0380952
        k(   38) = (   0.3522846   0.1467852   0.1258159), wk =   0.0761905
        k(   39) = (   0.3522846   0.1467852   0.2516318), wk =   0.0761905
        k(   40) = (   0.3522846   0.1467852   0.3774478), wk =   0.0761905
        k(   41) = (   0.3522846   0.2935705   0.0000000), wk =   0.0380952
        k(   42) = (   0.3522846   0.2935705   0.1258159), wk =   0.0761905
        k(   43) = (   0.3522846   0.2935705   0.2516318), wk =   0.0761905
        k(   44) = (   0.3522846   0.2935705   0.3774478), wk =   0.0761905
        k(   45) = (   0.3522846  -0.4403557   0.0000000), wk =   0.0190476
        k(   46) = (   0.3522846  -0.4403557   0.1258159), wk =   0.0380952
        k(   47) = (   0.3522846  -0.4403557   0.2516318), wk =   0.0380952
        k(   48) = (   0.3522846  -0.4403557   0.3774478), wk =   0.0380952

     Largest allocated arrays     est. size (Mb)     dimensions
     Largest temporary arrays     est. size (Mb)     dimensions

     Initial potential from superposition of free atoms

     Starting from uniform charge
     Starting wfc are    0 randomized atomic wfcs

     Writing output data file Prototype-La-cP8-Cr3Si.save

     Self-consistent Calculation

[...]

     iteration #  9     ecut=    40.00 Ry     beta=0.70
     CG style diagonalization
     c_bands:  1 eigenvalues not converged
     c_bands:  1 eigenvalues not converged
     c_bands:  2 eigenvalues not converged
     c_bands:  1 eigenvalues not converged
     c_bands:  1 eigenvalues not converged
     c_bands:  1 eigenvalues not converged
     ethr =  1.21E-06,  avg # of iterations =  3.7

[...]

     total energy              =   -1725.97720524 Ry
     Harris-Foulkes estimate   =   -1725.97720798 Ry
     estimated scf accuracy    <       0.00000807 Ry

     iteration # 11     ecut=    40.00 Ry     beta=0.70
     CG style diagonalization
     ethr =  5.45E-09,  avg # of iterations =  4.0

     End of self-consistent calculation

[...]

          k = 0.3523-0.4404 0.3774 (  3904 PWs)   bands (ev):

   -46.1777 -46.1691 -46.1458 -46.1458 -46.1224 -46.1136 -33.2424 -33.2424
   -15.0925 -15.0173 -14.8349 -14.8346 -14.6806 -14.6795 -14.6654 -14.6120
   -14.5060 -14.4923 -14.4619 -14.4478 -14.4144 -14.4106 -14.3786 -14.3771
   -14.3688 -14.3674  -6.1387  -6.1384  -6.1368  -6.1364  -6.1340  -6.1337
    20.5404  20.5539  20.6405  20.7157  20.8228  20.8313  21.3207  21.3374
    21.3524  21.4225  21.4914  21.4965  21.5384  21.5687  21.6758  21.8298
    22.3620  22.3749  22.6049  22.6927  23.0823  23.1090  23.6914  23.8482
    23.9599  24.0077  24.3165  24.3416  24.5786  24.6726  26.4689  26.4738
    26.7417  26.7579  27.0143  27.0719  28.2617  28.2947  28.4214  28.4272
    28.4391  28.6532  29.1774  29.3231  29.5886  29.7878  30.6212  30.8542
    37.3674  37.5822  38.1914  38.4613  38.8869  39.1528  40.0687  40.3971
    40.8793

     the Fermi energy is    29.4475 ev

!    total energy              =   -1725.97720899 Ry
     Harris-Foulkes estimate   =   -1725.97720900 Ry
     estimated scf accuracy    <       0.00000002 Ry

     The total energy is the sum of the following terms:

     one-electron contribution =    -125.58450797 Ry
     hartree contribution      =     200.66081642 Ry
     xc contribution           =    -170.55720506 Ry
     ewald contribution        =   -1630.25342967 Ry
     smearing contrib. (-TS)   =      -0.24288270 Ry

     convergence has been achieved in  11 iterations

     Forces acting on atoms (Ry/au):

     atom    1 type  1   force =     0.00000000    0.00000000    0.00000000
     atom    2 type  1   force =     0.00000000    0.00000000    0.00000000
     atom    3 type  1   force =     0.00000000    0.00000000    0.00000000
     atom    4 type  1   force =     0.00000000    0.00000000    0.00000000
     atom    5 type  1   force =     0.00000000    0.00000000    0.00000000
     atom    6 type  1   force =     0.00000000    0.00000000    0.00000000
     atom    7 type  2   force =     0.00000000    0.00000000    0.00000000
     atom    8 type  2   force =     0.00000000    0.00000000    0.00000000

     Total force =     0.000000     Total SCF correction =     0.000000

     entering subroutine stress ...

          total   stress  (Ry/bohr**3)                   (kbar)     P=  285.63
   0.00194165   0.00000000   0.00000000        285.63      0.00      0.00
   0.00000000   0.00194165   0.00000000          0.00    285.63      0.00
   0.00000000   0.00000000   0.00194165          0.00      0.00    285.63

     Writing output data file Prototype-La-cP8-Cr3Si.save

     General routines

     Parallel routines

   This run was terminated on:  17:51:21  22Mar2018

   JOB DONE.