     Program PWSCF v.5.0.2 starts on 22Mar2018 at 17:33: 2

     Current dimensions of program PWSCF are:
     Max number of different atomic species (ntypx) = 10
     Max number of k-points (npk) =  40000
     Max angular momentum in pseudopotentials (lmaxx) =  3
     Waiting for input...
     Reading input from standard input

     Subspace diagonalization in iterative solution of the eigenvalue problem:
     a serial algorithm will be used

     bravais-lattice index     =            0
     lattice parameter (alat)  =      13.3930  a.u.
     unit-cell volume          =    1134.0956 (a.u.)^3
     number of atoms/cell      =            4
     number of atomic types    =            2
     number of electrons       =        72.00
     number of Kohn-Sham states=           43
     kinetic-energy cutoff     =      40.0000  Ry
     charge density cutoff     =     160.0000  Ry
     convergence threshold     =      1.0E-04
     mixing beta               =       0.7000
     number of iterations used =            8  plain     mixing
     Exchange-correlation      = SLA-PZ-NOGX-NOGC ( 1 1 0 0 0)
     EXX-fraction              =        0.00
     nstep                     =           50

     celldm(1)=  13.392972  celldm(2)=   0.000000  celldm(3)=   0.000000
     celldm(4)=   0.000000  celldm(5)=   0.000000  celldm(6)=   0.000000

     crystal axes: (cart. coord. in units of alat)
               a(1) = (   1.000000   0.000000   0.000000 )
               a(2) = (  -0.776311   0.630350   0.000000 )
               a(3) = (   0.000000   0.000000   0.748922 )

     reciprocal axes: (cart. coord. in units 2 pi/alat)
               b(1) = (  1.000000  1.231554  0.000000 )
               b(2) = (  0.000000  1.586419  0.000000 )
               b(3) = (  0.000000  0.000000  1.335252 )

     PseudoPot. # 1 for Tb read from file:
     /home/jld5415/pp.La/Tb.UPF
     MD5 check sum: 3d6088a3f0cf7fd2e110c43f7f8e95c2
     Pseudo is Norm-conserving, Zval = 19.0
     Generated in analytical, separable form
     Using radial grid of 1263 points,  6 beta functions with:
                l(1) =   0
                l(2) =   0
                l(3) =   1
                l(4) =   1
                l(5) =   2
                l(6) =   3

     PseudoPot. # 2 for Eu read from file:
     /home/jld5415/pp.La/Eu.UPF
     MD5 check sum: 5efdbbfc50c6a10138933a6429836ad2
     Pseudo is Norm-conserving, Zval = 17.0
     Generated in analytical, separable form
     Using radial grid of 1261 points,  6 beta functions with:
                l(1) =   0
                l(2) =   0
                l(3) =   1
                l(4) =   1
                l(5) =   2
                l(6) =   3

     atomic species   valence    mass     pseudopotential
        Tl            19.00   204.38300     Tb( 1.00)
        I             17.00   126.90400     Eu( 1.00)

      2 Sym. Ops., with inversion, found
          (note:  2 additional sym.ops. were found but ignored
           their fractional translations are incommensurate with FFT grid)

   Cartesian axes

     site n.     atom                  positions (alat units)
         1           Tl  tau(   1) = (  -0.0906317   0.3870269   0.5616917  )
         2           Tl  tau(   2) = (   0.3143210   0.2433234   0.1872306  )
         3           I   tau(   3) = (  -0.5408004   0.5467760   0.5616917  )
         4           I   tau(   4) = (   0.7644896   0.0835744   0.1872306  )

     number of k points=   106  gaussian smearing, width (Ry)=  0.1000

     Number of k-points >= 100: set verbosity='high' to print them.

     Largest allocated arrays     est. size (Mb)     dimensions
     Largest temporary arrays     est. size (Mb)     dimensions

     Initial potential from superposition of free atoms

     Starting from uniform charge
     Starting wfc are    0 randomized atomic wfcs

     Self-consistent Calculation

     iteration #  1     ecut=    40.00 Ry     beta=0.70
     CG style diagonalization
     c_bands:  1 eigenvalues not converged
     ethr =  1.00E-02,  avg # of iterations = 17.9

     total energy              =    -634.03806712 Ry
     Harris-Foulkes estimate   =   -1086.59096760 Ry
     estimated scf accuracy    <     566.72586589 Ry

[...]

     iteration #  3     ecut=    40.00 Ry     beta=0.70
     CG style diagonalization
     ethr =  1.00E-02,  avg # of iterations = 11.2

[...]

     End of self-consistent calculation

     Number of k-points >= 100: set verbosity='high' to print the bands.

     the Fermi energy is     8.0212 ev

!    total energy              =    -808.71277087 Ry
     Harris-Foulkes estimate   =    -808.71279507 Ry
     estimated scf accuracy    <       0.00003831 Ry

     The total energy is the sum of the following terms:

     one-electron contribution =    -362.40262148 Ry
     hartree contribution      =     197.37040921 Ry
     xc contribution           =     -78.62509842 Ry
     ewald contribution        =    -564.66951503 Ry
     smearing contrib. (-TS)   =      -0.38594514 Ry

     convergence has been achieved in   9 iterations

     Forces acting on atoms (Ry/au):

     atom    1 type  1   force =     0.01399606   -0.00516927   -0.00570883
     atom    2 type  1   force =    -0.01399606    0.00516927    0.00570883
     atom    3 type  2   force =    -0.00718308    0.00258942   -0.00578180
     atom    4 type  2   force =     0.00718308   -0.00258942    0.00578180

     Total force =     0.026341     Total SCF correction =     0.000000

     entering subroutine stress ...

          total   stress  (Ry/bohr**3)                   (kbar)     P= -384.39
  -0.00260449   0.00000781  -0.00000024       -383.13      1.15     -0.04
   0.00000781  -0.00258495   0.00000012          1.15   -380.26      0.02
  -0.00000024   0.00000012  -0.00264973         -0.04      0.02   -389.79

     BFGS Geometry Optimization

     number of scf cycles    =   1
     number of bfgs steps    =   0

     enthalpy new            =    -808.7127708665 Ry

     new trust radius        =       0.4461652873 bohr
     new conv_thr            =       0.0001000000 Ry

     new unit-cell volume =    926.03887 a.u.^3 (   137.22480 Ang^3 )

CELL_PARAMETERS (alat= 13.39297219)
   0.934887805   0.000195357  -0.000006047
  -0.725640310   0.589463062   0.000006512
  -0.000004529   0.000002160   0.699311259

ATOMIC_POSITIONS (crystal)
Tl       0.386582689   0.613374692   0.749430841
Tl       0.613417311   0.386625308   0.250569159
I        0.132285779   0.867722721   0.749423566
I        0.867714221   0.132277279   0.250576434

     Writing output data file Prototype-La-oS8-TlI.save
     NEW-OLD atomic charge density approx. for the potential
     NEW k-points: (use verbosity='high' to print them)

[...]

     enthalpy old            =    -808.7127708665 Ry
     enthalpy new            =    -809.2088880777 Ry

     CASE: enthalpy_new < enthalpy_old

     small trust_radius: resetting bfgs history

[...]

     number of scf cycles    =   3
     number of bfgs steps    =   2

     enthalpy old            =    -809.2088880777 Ry
     enthalpy new            =    -809.4635138023 Ry

     CASE: enthalpy_new < enthalpy_old

     Message from routine bfgs:
     history already reset at previous step: stopping
     small trust_radius: resetting bfgs history

     new trust radius        =       0.2198772092 bohr
     new conv_thr            =       0.0000314660 Ry

     new unit-cell volume =    699.48562 a.u.^3 (   103.65307 Ang^3 )

[...]

ATOMIC_POSITIONS (crystal)
Tl       0.388156374   0.611828976   0.749889139
Tl       0.611843626   0.388171024   0.250110861
I        0.130160480   0.869866441   0.748962277
I        0.869839520   0.130133559   0.251037723

     Writing output data file Prototype-La-oS8-TlI.save
     NEW-OLD atomic charge density approx. for the potential
     NEW k-points: (use verbosity='high' to print them)

[...]

     The maximum number of steps has been reached.

     End of BFGS Geometry Optimization
Begin final coordinates
     new unit-cell volume =    699.48562 a.u.^3 (   103.65307 Ang^3 )

CELL_PARAMETERS (alat= 13.39297219)
   0.851317564   0.000048044  -0.000007315
  -0.660856694   0.536683570   0.000010608
  -0.000005472   0.000005844   0.637247029

ATOMIC_POSITIONS (crystal)
Tl       0.388156374   0.611828976   0.749889139
Tl       0.611843626   0.388171024   0.250110861
I        0.130160480   0.869866441   0.748962277
I        0.869839520   0.130133559   0.251037723
End final coordinates

     A final scf calculation at the relaxed structure.
     The G-vectors are recalculated for the final unit cell
     Results may differ from those at the preceding step.

     bravais-lattice index     =            0
     lattice parameter (alat)  =      13.3930  a.u.
     unit-cell volume          =     699.4856 (a.u.)^3
     number of atoms/cell      =            4
     number of atomic types    =            2
     number of electrons       =        72.00
     number of Kohn-Sham states=           43
     kinetic-energy cutoff     =      40.0000  Ry
     charge density cutoff     =     160.0000  Ry
     convergence threshold     =      3.1E-05
     mixing beta               =       0.7000
     number of iterations used =            8  plain     mixing
     Exchange-correlation      = SLA-PZ-NOGX-NOGC ( 1 1 0 0 0)
     EXX-fraction              =        0.00

     celldm(1)=  13.392972  celldm(2)=   0.000000  celldm(3)=   0.000000
     celldm(4)=   0.000000  celldm(5)=   0.000000  celldm(6)=   0.000000

     crystal axes: (cart. coord. in units of alat)
               a(1) = (   0.851318   0.000048  -0.000007 )
               a(2) = (  -0.660857   0.536684   0.000011 )
               a(3) = (  -0.000005   0.000006   0.637247 )

     reciprocal axes: (cart. coord. in units 2 pi/alat)
               b(1) = (  1.174568  1.446329 -0.000003 )
               b(2) = ( -0.000105  1.863166 -0.000017 )
               b(3) = (  0.000013 -0.000014  1.569250 )

     PseudoPot. # 1 for Tb read from file:
     /home/jld5415/pp.La/Tb.UPF
     MD5 check sum: 3d6088a3f0cf7fd2e110c43f7f8e95c2
     Pseudo is Norm-conserving, Zval = 19.0
     Generated in analytical, separable form
     Using radial grid of 1263 points,  6 beta functions with:
                l(1) =   0
                l(2) =   0
                l(3) =   1
                l(4) =   1
                l(5) =   2
                l(6) =   3

     PseudoPot. # 2 for Eu read from file:
     /home/jld5415/pp.La/Eu.UPF
     MD5 check sum: 5efdbbfc50c6a10138933a6429836ad2
     Pseudo is Norm-conserving, Zval = 17.0
     Generated in analytical, separable form
     Using radial grid of 1261 points,  6 beta functions with:
                l(1) =   0
                l(2) =   0
                l(3) =   1
                l(4) =   1
                l(5) =   2
                l(6) =   3

     atomic species   valence    mass     pseudopotential
        Tl            19.00   204.38300     Tb( 1.00)
        I             17.00   126.90400     Eu( 1.00)

      2 Sym. Ops., with inversion, found
          (note:  2 additional sym.ops. were found but ignored
           their fractional translations are incommensurate with FFT grid)

   Cartesian axes

     site n.     atom                  positions (alat units)
         1           Tl  tau(   1) = (  -0.0738910   0.3283816   0.4778683  )
         2           Tl  tau(   2) = (   0.2643464   0.2083559   0.1593820  )
         3           I   tau(   3) = (  -0.4640533   0.4668537   0.4772823  )
         4           I   tau(   4) = (   0.6545087   0.0698838   0.1599681  )

     number of k points=   106  gaussian smearing, width (Ry)=  0.1000

     Number of k-points >= 100: set verbosity='high' to print them.

     Largest allocated arrays     est. size (Mb)     dimensions
     Largest temporary arrays     est. size (Mb)     dimensions

     Initial potential from superposition of free atoms

     Starting from uniform charge
     Starting wfc are    0 randomized atomic wfcs

     Writing output data file Prototype-La-oS8-TlI.save

     Self-consistent Calculation

[...]

     iteration #  7     ecut=    40.00 Ry     beta=0.70
     CG style diagonalization
     ethr =  1.25E-03,  avg # of iterations =  3.2

[...]

     total energy              =    -809.07316929 Ry
     Harris-Foulkes estimate   =    -809.07324459 Ry
     estimated scf accuracy    <       0.00019923 Ry

     iteration # 11     ecut=    40.00 Ry     beta=0.70
     CG style diagonalization
     c_bands:  1 eigenvalues not converged
     ethr =  2.77E-07,  avg # of iterations =  3.3

     End of self-consistent calculation

     Number of k-points >= 100: set verbosity='high' to print the bands.

     the Fermi energy is    16.5467 ev

!    total energy              =    -809.07318256 Ry
     Harris-Foulkes estimate   =    -809.07319875 Ry
     estimated scf accuracy    <       0.00002028 Ry

     The total energy is the sum of the following terms:

     one-electron contribution =    -206.33531529 Ry
     hartree contribution      =     140.28989077 Ry
     xc contribution           =     -79.50433170 Ry
     ewald contribution        =    -663.23141513 Ry
     smearing contrib. (-TS)   =      -0.29201122 Ry

     convergence has been achieved in  11 iterations

     Forces acting on atoms (Ry/au):

     atom    1 type  1   force =     0.03750730   -0.01338639   -0.00174893
     atom    2 type  1   force =    -0.03750730    0.01338639    0.00174893
     atom    3 type  2   force =    -0.04169966    0.01474674   -0.00250149
     atom    4 type  2   force =     0.04169966   -0.01474674    0.00250149

     Total force =     0.084281     Total SCF correction =     0.000000

     entering subroutine stress ...

          total   stress  (Ry/bohr**3)                   (kbar)     P= -474.21
  -0.00332617   0.00002955   0.00000128       -489.30      4.35      0.19
   0.00002955  -0.00325250  -0.00000046          4.35   -478.46     -0.07
   0.00000128  -0.00000046  -0.00309225          0.19     -0.07   -454.89

     Writing output data file Prototype-La-oS8-TlI.save

     General routines

     Parallel routines

   This run was terminated on:  18: 8:50  22Mar2018

   JOB DONE.