     Program PWSCF v.5.0.2 starts on 22Mar2018 at 17:32:57

     Current dimensions of program PWSCF are:
     Max number of different atomic species (ntypx) = 10
     Max number of k-points (npk) =  40000
     Max angular momentum in pseudopotentials (lmaxx) =  3
     Waiting for input...
     Reading input from standard input

     Subspace diagonalization in iterative solution of the eigenvalue problem:
     a serial algorithm will be used

     bravais-lattice index     =            0
     lattice parameter (alat)  =       9.9235  a.u.
     unit-cell volume          =    1361.0366 (a.u.)^3
     number of atoms/cell      =           12
     number of atomic types    =            2
     number of electrons       =       212.00
     number of Kohn-Sham states=          127
     kinetic-energy cutoff     =      40.0000  Ry
     charge density cutoff     =     160.0000  Ry
     convergence threshold     =      1.0E-04
     mixing beta               =       0.7000
     number of iterations used =            8  plain     mixing
     Exchange-correlation      = SLA-PZ-NOGX-NOGC ( 1 1 0 0 0)
     EXX-fraction              =        0.00
     nstep                     =           50

     celldm(1)=   9.923489  celldm(2)=   0.000000  celldm(3)=   0.000000
     celldm(4)=   0.000000  celldm(5)=   0.000000  celldm(6)=   0.000000

     crystal axes: (cart. coord. in units of alat)
               a(1) = (   1.000000   0.000000   0.000000 )
               a(2) = (  -0.500000   0.866025   0.000000 )
               a(3) = (   0.000000   0.000000   1.608222 )

     reciprocal axes: (cart. coord. in units 2 pi/alat)
               b(1) = (  1.000000  0.577350  0.000000 )
               b(2) = (  0.000000  1.154701  0.000000 )
               b(3) = (  0.000000  0.000000  0.621805 )

     PseudoPot. # 1 for Tb read from file:
     /home/cwx6513/pp.La/Tb.UPF
     MD5 check sum: 3d6088a3f0cf7fd2e110c43f7f8e95c2
     Pseudo is Norm-conserving, Zval = 19.0
     Generated in analytical, separable form
     Using radial grid of 1263 points,  6 beta functions with:
                l(1) =   0
                l(2) =   0
                l(3) =   1
                l(4) =   1
                l(5) =   2
                l(6) =   3

     PseudoPot. # 2 for Eu read from file:
     /home/cwx6513/pp.La/Eu.UPF
     MD5 check sum: 5efdbbfc50c6a10138933a6429836ad2
     Pseudo is Norm-conserving, Zval = 17.0
     Generated in analytical, separable form
     Using radial grid of 1261 points,  6 beta functions with:
                l(1) =   0
                l(2) =   0
                l(3) =   1
                l(4) =   1
                l(5) =   2
                l(6) =   3

     atomic species   valence    mass     pseudopotential
        Mg            19.00    24.30500     Tb( 1.00)
        Zn            17.00    65.39000     Eu( 1.00)

     24 Sym. Ops., with inversion, found (12 have fractional translation)

   Cartesian axes

     site n.     atom                  positions (alat units)
         1           Mg  tau(   1) = (  -0.0000005   0.5773506   0.1003820  )
         2           Mg  tau(   2) = (   0.5000005   0.2886748   0.9044931  )
         3           Mg  tau(   3) = (   0.5000005   0.2886748   1.5078402  )
         4           Mg  tau(   4) = (  -0.0000005   0.5773506   0.7037291  )
         5           Zn  tau(   5) = (   0.0000000   0.0000000   0.0000000  )
         6           Zn  tau(   6) = (   0.0000000   0.0000000   0.8041111  )
         7           Zn  tau(   7) = (   0.0000000   0.2950739   1.2061667  )
         8           Zn  tau(   8) = (   0.7444585   0.1475370   0.4020556  )
         9           Zn  tau(   9) = (   0.2555415   0.1475370   0.4020556  )
        10           Zn  tau(  10) = (   0.2444585   0.7184884   1.2061667  )
        11           Zn  tau(  11) = (  -0.2444585   0.7184884   1.2061667  )
        12           Zn  tau(  12) = (   0.5000000   0.5709515   0.4020556  )

     number of k points=    12  gaussian smearing, width (Ry)=  0.1000
                       cart. coord. in units 2pi/alat
        k(    1) = (   0.0000000   0.0000000   0.0000000), wk =   0.0833333
        k(    2) = (   0.0000000   0.0000000   0.1554512), wk =   0.1666667
        k(    3) = (   0.0000000   0.0000000  -0.3109023), wk =   0.0833333
        k(    4) = (   0.0000000   0.3849002   0.0000000), wk =   0.1666667
        k(    5) = (   0.0000000   0.3849002   0.1554512), wk =   0.3333333
        k(    6) = (   0.0000000   0.3849002  -0.3109023), wk =   0.1666667
        k(    7) = (  -0.5000000  -0.2886751   0.0000000), wk =   0.0833333
        k(    8) = (  -0.5000000  -0.2886751   0.1554512), wk =   0.1666667
        k(    9) = (  -0.5000000  -0.2886751  -0.3109023), wk =   0.0833333
        k(   10) = (  -0.5000000   0.0962250   0.0000000), wk =   0.1666667
        k(   11) = (  -0.5000000   0.0962250   0.1554512), wk =   0.3333333
        k(   12) = (  -0.5000000   0.0962250  -0.3109023), wk =   0.1666667

     Largest allocated arrays     est. size (Mb)     dimensions
     Largest temporary arrays     est. size (Mb)     dimensions

     Initial potential from superposition of free atoms

     Starting from uniform charge
     Starting wfc are    0 randomized atomic wfcs

     Self-consistent Calculation

     iteration #  1     ecut=    40.00 Ry     beta=0.70
     CG style diagonalization
     c_bands:  5 eigenvalues not converged
     c_bands:  5 eigenvalues not converged
     c_bands:  5 eigenvalues not converged
     ethr =  1.00E-02,  avg # of iterations = 15.9

     total energy              =   -2171.10718286 Ry
     Harris-Foulkes estimate   =   -2690.36305990 Ry
     estimated scf accuracy    <     681.31980416 Ry

     iteration #  2     ecut=    40.00 Ry     beta=0.70
     CG style diagonalization
     ethr =  1.00E-02,  avg # of iterations =  7.8

[...]

     End of self-consistent calculation

          k = 0.0000 0.0000 0.0000 (  5769 PWs)   bands (ev):

   -45.9692 -45.9651 -45.9633 -45.9530 -34.7858 -34.6137 -34.3989 -34.2119
   -34.1417 -34.1416 -34.1402 -34.1402 -14.4167 -14.4079 -14.3936 -14.3935
   -14.3572 -14.3572 -14.2959 -14.2746 -14.2522 -14.2522 -14.2497 -14.2496
    -9.7941  -9.3163  -8.7429  -8.0026  -8.0026  -7.8679  -7.8679  -7.8119
    -7.8118  -7.4180  -7.1663  -7.0431  -7.0431  -7.0127  -7.0127  -6.2815
    -6.2578  -6.2577  -6.1960  -6.1878  -6.1287  -6.1287  -6.0406  -6.0406
    18.8422  19.6183  19.6888  20.1001  20.5996  20.5996  21.1547  21.2100
    21.2785  21.2785  21.4542  21.4543  21.7220  21.7688  21.7688  21.7829
    21.7829  21.8571  22.1779  22.1779  22.5351  22.5352  22.8473  23.0869
    23.0870  23.6232  23.6232  23.7178  23.7178  23.7906  23.8178  23.8178
    24.0906  24.0906  24.4486  24.4486  24.6622  25.1875  25.1875  25.3695
    26.0679  26.5471  26.5471  26.7883  27.0400  27.0400  27.5044  27.7981
    27.8578  28.0977  28.0977  28.4189  28.4190  28.5455  28.5455  29.1101
    29.1101  30.4738  30.4738  30.8439  30.8439  31.6782  32.3048  32.5047
    32.8683  32.8819  33.3245  33.3245  33.5698  33.7852  33.7852  35.2796
    35.6549  35.6550  36.1556  36.3888  37.5477  37.5487  37.9169

[...]

          k =-0.5000-0.2887 0.0000 (  5800 PWs)   bands (ev):

[...]

     the Fermi energy is    29.1115 ev

!    total energy              =   -2317.62121567 Ry
     Harris-Foulkes estimate   =   -2317.62125932 Ry
     estimated scf accuracy    <       0.00004440 Ry

     The total energy is the sum of the following terms:

     one-electron contribution =    -109.75139848 Ry
     hartree contribution      =     254.05111606 Ry
     xc contribution           =    -236.98439983 Ry
     ewald contribution        =   -2224.39417128 Ry
     smearing contrib. (-TS)   =      -0.54236214 Ry

     convergence has been achieved in  11 iterations

     Forces acting on atoms (Ry/au):

     atom    1 type  1   force =     0.00000000    0.00000000    0.01690140
     atom    2 type  1   force =     0.00000000    0.00000000    0.01690140
     atom    3 type  1   force =     0.00000000    0.00000000   -0.01690140
     atom    4 type  1   force =     0.00000000    0.00000000   -0.01690140
     atom    5 type  2   force =     0.00000000    0.00000000    0.00000000
     atom    6 type  2   force =     0.00000000    0.00000000    0.00000000
     atom    7 type  2   force =     0.00000000    0.03045154    0.00000000
     atom    8 type  2   force =    -0.02637181    0.01522577    0.00000000
     atom    9 type  2   force =     0.02637181    0.01522577    0.00000000
     atom   10 type  2   force =    -0.02637181   -0.01522577    0.00000000
     atom   11 type  2   force =     0.02637181   -0.01522577    0.00000000
     atom   12 type  2   force =     0.00000000   -0.03045154    0.00000000

     Total force =     0.081893     Total SCF correction =     0.000000

     entering subroutine stress ...

          total   stress  (Ry/bohr**3)                   (kbar)     P=  430.62
   0.00294049   0.00000000   0.00000000        432.56      0.00      0.00
   0.00000000   0.00294049   0.00000000          0.00    432.56      0.00
   0.00000000   0.00000000   0.00290090          0.00      0.00    426.74

     BFGS Geometry Optimization

     number of scf cycles    =   1
     number of bfgs steps    =   0

     enthalpy new            =   -2317.6212156733 Ry

     new trust radius        =       0.5000000000 bohr
     new conv_thr            =       0.0001000000 Ry

     new unit-cell volume =   1655.48625 a.u.^3 (   245.31775 Ang^3 )

CELL_PARAMETERS (alat=  9.92348860)
   1.067764947   0.000000000   0.000000000
  -0.533882474   0.924711570   0.000000000
   0.000000000   0.000000000   1.715736146

ATOMIC_POSITIONS (crystal)
Mg       0.333333000   0.666667000   0.063394243
Mg       0.666667000   0.333333000   0.563394243
Mg       0.666667000   0.333333000   0.936605757
Mg       0.333333000   0.666667000   0.436605757
Zn       0.000000000   0.000000000   0.000000000
Zn       0.000000000   0.000000000   0.500000000
Zn       0.171994165   0.343988329   0.750000000
Zn       0.828005835   0.171994165   0.250000000
Zn       0.343988329   0.171994165   0.250000000
Zn       0.656011671   0.828005835   0.750000000
Zn       0.171994165   0.828005835   0.750000000
Zn       0.828005835   0.656011671   0.250000000

     Writing output data file Prototype-La-hP12-MgZn2.save
     NEW-OLD atomic charge density approx. for the potential
     NEW k-points:
        k(    1) = (   0.0000000   0.0000000   0.0000000), wk =   0.0833333
        k(    2) = (   0.0000000   0.0000000   0.1457101), wk =   0.1666667
        k(    3) = (   0.0000000   0.0000000  -0.2914201), wk =   0.0833333
        k(    4) = (   0.0000000   0.3604728   0.0000000), wk =   0.1666667
        k(    5) = (   0.0000000   0.3604728   0.1457101), wk =   0.3333333
        k(    6) = (   0.0000000   0.3604728  -0.2914201), wk =   0.1666667
        k(    7) = (  -0.4682679  -0.2703546   0.0000000), wk =   0.0833333
        k(    8) = (  -0.4682679  -0.2703546   0.1457101), wk =   0.1666667
        k(    9) = (  -0.4682679  -0.2703546  -0.2914201), wk =   0.0833333
        k(   10) = (  -0.4682679   0.0901182   0.0000000), wk =   0.1666667
        k(   11) = (  -0.4682679   0.0901182   0.1457101), wk =   0.3333333
        k(   12) = (  -0.4682679   0.0901182  -0.2914201), wk =   0.1666667

[...]

     enthalpy old            =   -2317.6212156733 Ry
     enthalpy new            =   -2317.3323141521 Ry

     CASE: enthalpy_new > enthalpy_old

     new trust radius        =       0.1904913302 bohr

     trust_radius < trust_radius_min

     resetting bfgs history

     new conv_thr            =       0.0001000000 Ry

[...]

     number of scf cycles    =   3
     number of bfgs steps    =   1

     enthalpy old            =   -2317.6212156733 Ry
     enthalpy new            =   -2317.3719248268 Ry

     CASE: enthalpy_new > enthalpy_old

     new trust radius        =       0.1895936396 bohr

     trust_radius < trust_radius_min

     resetting bfgs history

     Message from routine bfgs:
     history already reset at previous step: stopping
     new conv_thr            =       0.0001000000 Ry

     new unit-cell volume =   1645.64467 a.u.^3 (   243.85938 Ang^3 )

[...]

ATOMIC_POSITIONS (crystal)
Mg       0.333333000   0.666667000   0.063306730
Mg       0.666667000   0.333333000   0.563306730
Mg       0.666667000   0.333333000   0.936693270
Mg       0.333333000   0.666667000   0.436693270
Zn       0.000000000   0.000000000   0.000000000
Zn       0.000000000   0.000000000   0.500000000
Zn       0.171844992   0.343689984   0.750000000
Zn       0.828155008   0.171844992   0.250000000
Zn       0.343689984   0.171844992   0.250000000
Zn       0.656310016   0.828155008   0.750000000
Zn       0.171844992   0.828155008   0.750000000
Zn       0.828155008   0.656310016   0.250000000

     Writing output data file Prototype-La-hP12-MgZn2.save
     NEW-OLD atomic charge density approx. for the potential
     NEW k-points:
        k(    1) = (   0.0000000   0.0000000   0.0000000), wk =   0.0833333
        k(    2) = (   0.0000000   0.0000000   0.1460086), wk =   0.1666667
        k(    3) = (   0.0000000   0.0000000  -0.2920172), wk =   0.0833333
        k(    4) = (   0.0000000   0.3611792   0.0000000), wk =   0.1666667
        k(    5) = (   0.0000000   0.3611792   0.1460086), wk =   0.3333333
        k(    6) = (   0.0000000   0.3611792  -0.2920172), wk =   0.1666667
        k(    7) = (  -0.4691856  -0.2708844   0.0000000), wk =   0.0833333
        k(    8) = (  -0.4691856  -0.2708844   0.1460086), wk =   0.1666667
        k(    9) = (  -0.4691856  -0.2708844  -0.2920172), wk =   0.0833333
        k(   10) = (  -0.4691856   0.0902948   0.0000000), wk =   0.1666667
        k(   11) = (  -0.4691856   0.0902948   0.1460086), wk =   0.3333333
        k(   12) = (  -0.4691856   0.0902948  -0.2920172), wk =   0.1666667

[...]

     The maximum number of steps has been reached.

     End of BFGS Geometry Optimization
Begin final coordinates
     new unit-cell volume =   1645.64467 a.u.^3 (   243.85938 Ang^3 )

CELL_PARAMETERS (alat=  9.92348860)
   1.065676364   0.000000000   0.000000000
  -0.532838182   0.922902803   0.000000000
   0.000000000   0.000000000   1.712228192

ATOMIC_POSITIONS (crystal)
Mg       0.333333000   0.666667000   0.063306730
Mg       0.666667000   0.333333000   0.563306730
Mg       0.666667000   0.333333000   0.936693270
Mg       0.333333000   0.666667000   0.436693270
Zn       0.000000000   0.000000000   0.000000000
Zn       0.000000000   0.000000000   0.500000000
Zn       0.171844992   0.343689984   0.750000000
Zn       0.828155008   0.171844992   0.250000000
Zn       0.343689984   0.171844992   0.250000000
Zn       0.656310016   0.828155008   0.750000000
Zn       0.171844992   0.828155008   0.750000000
Zn       0.828155008   0.656310016   0.250000000
End final coordinates

     A final scf calculation at the relaxed structure.
     The G-vectors are recalculated for the final unit cell
     Results may differ from those at the preceding step.

     bravais-lattice index     =            0
     lattice parameter (alat)  =       9.9235  a.u.
     unit-cell volume          =    1645.6447 (a.u.)^3
     number of atoms/cell      =           12
     number of atomic types    =            2
     number of electrons       =       212.00
     number of Kohn-Sham states=          127
     kinetic-energy cutoff     =      40.0000  Ry
     charge density cutoff     =     160.0000  Ry
     convergence threshold     =      1.0E-04
     mixing beta               =       0.7000
     number of iterations used =            8  plain     mixing
     Exchange-correlation      = SLA-PZ-NOGX-NOGC ( 1 1 0 0 0)
     EXX-fraction              =        0.00

     celldm(1)=   9.923489  celldm(2)=   0.000000  celldm(3)=   0.000000
     celldm(4)=   0.000000  celldm(5)=   0.000000  celldm(6)=   0.000000

     crystal axes: (cart. coord. in units of alat)
               a(1) = (   1.065676   0.000000   0.000000 )
               a(2) = (  -0.532838   0.922903   0.000000 )
               a(3) = (   0.000000   0.000000   1.712228 )

     reciprocal axes: (cart. coord. in units 2 pi/alat)
               b(1) = (  0.938371  0.541769  0.000000 )
               b(2) = (  0.000000  1.083538  0.000000 )
               b(3) = (  0.000000  0.000000  0.584034 )

     PseudoPot. # 1 for Tb read from file:
     /home/cwx6513/pp.La/Tb.UPF
     MD5 check sum: 3d6088a3f0cf7fd2e110c43f7f8e95c2
     Pseudo is Norm-conserving, Zval = 19.0
     Generated in analytical, separable form
     Using radial grid of 1263 points,  6 beta functions with:
                l(1) =   0
                l(2) =   0
                l(3) =   1
                l(4) =   1
                l(5) =   2
                l(6) =   3

     PseudoPot. # 2 for Eu read from file:
     /home/cwx6513/pp.La/Eu.UPF
     MD5 check sum: 5efdbbfc50c6a10138933a6429836ad2
     Pseudo is Norm-conserving, Zval = 17.0
     Generated in analytical, separable form
     Using radial grid of 1261 points,  6 beta functions with:
                l(1) =   0
                l(2) =   0
                l(3) =   1
                l(4) =   1
                l(5) =   2
                l(6) =   3

     atomic species   valence    mass     pseudopotential
        Mg            19.00    24.30500     Tb( 1.00)
        Zn            17.00    65.39000     Eu( 1.00)

     24 Sym. Ops., with inversion, found (12 have fractional translation)

   Cartesian axes

     site n.     atom                  positions (alat units)
         1           Mg  tau(   1) = (  -0.0000005   0.6152688   0.1083956  )
         2           Mg  tau(   2) = (   0.5328387   0.3076340   0.9645097  )
         3           Mg  tau(   3) = (   0.5328387   0.3076340   1.6038326  )
         4           Mg  tau(   4) = (  -0.0000005   0.6152688   0.7477185  )
         5           Zn  tau(   5) = (   0.0000000   0.0000000   0.0000000  )
         6           Zn  tau(   6) = (   0.0000000   0.0000000   0.8561141  )
         7           Zn  tau(   7) = (   0.0000000   0.3171924   1.2841711  )
         8           Zn  tau(   8) = (   0.7909796   0.1585962   0.4280570  )
         9           Zn  tau(   9) = (   0.2746967   0.1585962   0.4280570  )
        10           Zn  tau(  10) = (   0.2581415   0.7643066   1.2841711  )
        11           Zn  tau(  11) = (  -0.2581415   0.7643066   1.2841711  )
        12           Zn  tau(  12) = (   0.5328382   0.6057104   0.4280570  )

     number of k points=    12  gaussian smearing, width (Ry)=  0.1000
                       cart. coord. in units 2pi/alat
        k(    1) = (   0.0000000   0.0000000   0.0000000), wk =   0.0833333
        k(    2) = (   0.0000000   0.0000000   0.1460086), wk =   0.1666667
        k(    3) = (   0.0000000   0.0000000  -0.2920172), wk =   0.0833333
        k(    4) = (   0.0000000   0.3611792   0.0000000), wk =   0.1666667
        k(    5) = (   0.0000000   0.3611792   0.1460086), wk =   0.3333333
        k(    6) = (   0.0000000   0.3611792  -0.2920172), wk =   0.1666667
        k(    7) = (  -0.4691856  -0.2708844   0.0000000), wk =   0.0833333
        k(    8) = (  -0.4691856  -0.2708844   0.1460086), wk =   0.1666667
        k(    9) = (  -0.4691856  -0.2708844  -0.2920172), wk =   0.0833333
        k(   10) = (  -0.4691856   0.0902948   0.0000000), wk =   0.1666667
        k(   11) = (  -0.4691856   0.0902948   0.1460086), wk =   0.3333333
        k(   12) = (  -0.4691856   0.0902948  -0.2920172), wk =   0.1666667

     Largest allocated arrays     est. size (Mb)     dimensions
     Largest temporary arrays     est. size (Mb)     dimensions

     Initial potential from superposition of free atoms

     Starting from uniform charge
     Starting wfc are    0 randomized atomic wfcs

     Writing output data file Prototype-La-hP12-MgZn2.save

     Self-consistent Calculation

[...]

     iteration # 10     ecut=    40.00 Ry     beta=0.70
     CG style diagonalization
     c_bands:  1 eigenvalues not converged
     ethr =  9.91E-07,  avg # of iterations =  3.6

     total energy              =   -2318.78258525 Ry
     Harris-Foulkes estimate   =   -2318.78270781 Ry
     estimated scf accuracy    <       0.00032588 Ry

     iteration # 11     ecut=    40.00 Ry     beta=0.70
     CG style diagonalization
     ethr =  1.54E-07,  avg # of iterations =  3.6

     End of self-consistent calculation

[...]

          k = 0.0000 0.3612-0.2920 (  7020 PWs)   bands (ev):

[...]

          k =-0.4692 0.0903-0.2920 (  7038 PWs)   bands (ev):

   -51.3956 -51.3955 -51.3917 -51.3916 -40.1082 -40.1082 -40.0251 -40.0251
   -39.9006 -39.9006 -39.8838 -39.8838 -19.7449 -19.7449 -19.7122 -19.7122
   -19.6981 -19.6981 -19.6892 -19.6892 -19.6752 -19.6752 -19.6696 -19.6696
   -13.7661 -13.7661 -13.4061 -13.4061 -13.0221 -13.0221 -12.9954 -12.9954
   -12.9155 -12.9155 -12.8124 -12.8124 -12.5983 -12.5983 -12.4639 -12.4639
   -12.3573 -12.3573 -12.2975 -12.2975 -12.2248 -12.2248 -12.1679 -12.1679
    16.0753  16.0753  16.4269  16.4269  16.6537  16.6537  16.8086  16.8086
    16.9195  16.9196  17.0157  17.0157  17.2529  17.2529  17.3778  17.3778
    17.4302  17.4302  17.5832  17.5832  17.7402  17.7402  18.1593  18.1593
    18.2419  18.2419  18.4587  18.4587  18.7941  18.7941  19.0076  19.0076
    19.2024  19.2024  19.4867  19.4867  19.6091  19.6091  19.8811  19.8811
    20.0681  20.0681  20.4440  20.4440  20.6712  20.6712  21.1013  21.1013
    21.3090  21.3090  21.6063  21.6063  21.6525  21.6525  22.1396  22.1396
    22.2995  22.2995  22.4333  22.4333  22.8206  22.8206  23.7855  23.7855
    24.4944  24.4944  26.2519  26.2519  27.5033  27.5033  27.7967  27.7968
    28.8995  28.8995  30.1265  30.1266  31.3844  31.3845  32.0585

     the Fermi energy is    22.9154 ev

!    total energy              =   -2318.78263982 Ry
     Harris-Foulkes estimate   =   -2318.78268234 Ry
     estimated scf accuracy    <       0.00004623 Ry

     The total energy is the sum of the following terms:

     one-electron contribution =    -303.10384818 Ry
     hartree contribution      =     307.00702865 Ry
     xc contribution           =    -233.54408630 Ry
     ewald contribution        =   -2088.47830368 Ry
     smearing contrib. (-TS)   =      -0.66343031 Ry

     convergence has been achieved in  11 iterations

     Forces acting on atoms (Ry/au):

     atom    1 type  1   force =     0.00000000    0.00000000    0.02023421
     atom    2 type  1   force =     0.00000000    0.00000000    0.02023421
     atom    3 type  1   force =     0.00000000    0.00000000   -0.02023421
     atom    4 type  1   force =     0.00000000    0.00000000   -0.02023421
     atom    5 type  2   force =     0.00000000    0.00000000    0.00000000
     atom    6 type  2   force =     0.00000000    0.00000000    0.00000000
     atom    7 type  2   force =     0.00000000   -0.01542122    0.00000000
     atom    8 type  2   force =     0.01335517   -0.00771061    0.00000000
     atom    9 type  2   force =    -0.01335517   -0.00771061    0.00000000
     atom   10 type  2   force =     0.01335517    0.00771061    0.00000000
     atom   11 type  2   force =    -0.01335517    0.00771061    0.00000000
     atom   12 type  2   force =     0.00000000    0.01542122    0.00000000

     Total force =     0.055359     Total SCF correction =     0.000000

     entering subroutine stress ...

          total   stress  (Ry/bohr**3)                   (kbar)     P= -251.37
  -0.00168537   0.00000000   0.00000000       -247.93      0.00      0.00
   0.00000000  -0.00168537   0.00000000          0.00   -247.93      0.00
   0.00000000   0.00000000  -0.00175554          0.00      0.00   -258.25

     Writing output data file Prototype-La-hP12-MgZn2.save

     General routines

     Parallel routines

   This run was terminated on:  17:52:25  22Mar2018

   JOB DONE.