     Program PWSCF v.5.0.2 starts on 22Mar2018 at 17:33: 0

     Current dimensions of program PWSCF are:
     Max number of different atomic species (ntypx) = 10
     Max number of k-points (npk) =  40000
     Max angular momentum in pseudopotentials (lmaxx) =  3
     Waiting for input...
     Reading input from standard input

     Subspace diagonalization in iterative solution of the eigenvalue problem:
     a serial algorithm will be used

     bravais-lattice index     =            0
     lattice parameter (alat)  =       7.0151  a.u.
     unit-cell volume          =     862.2778 (a.u.)^3
     number of atoms/cell      =           12
     number of atomic types    =            2
     number of electrons       =       220.00
     number of Kohn-Sham states=          132
     kinetic-energy cutoff     =      40.0000  Ry
     charge density cutoff     =     160.0000  Ry
     convergence threshold     =      1.0E-04
     mixing beta               =       0.7000
     number of iterations used =            8  plain     mixing
     Exchange-correlation      = SLA-PZ-NOGX-NOGC ( 1 1 0 0 0)
     EXX-fraction              =        0.00
     nstep                     =           50

     celldm(1)=   7.015105  celldm(2)=   0.000000  celldm(3)=   0.000000
     celldm(4)=   0.000000  celldm(5)=   0.000000  celldm(6)=   0.000000

     crystal axes: (cart. coord. in units of alat)
               a(1) = (   1.000000   0.000000   0.000000 )
               a(2) = (   0.000000   1.315963   0.000000 )
               a(3) = (   0.000000   0.000000   1.898020 )

     reciprocal axes: (cart. coord. in units 2 pi/alat)
               b(1) = (  1.000000  0.000000  0.000000 )
               b(2) = (  0.000000  0.759900  0.000000 )
               b(3) = (  0.000000  0.000000  0.526865 )

     PseudoPot. # 1 for Tb read from file:
     /home/cwx6513/pp.La/Tb.UPF
     MD5 check sum: 3d6088a3f0cf7fd2e110c43f7f8e95c2
     Pseudo is Norm-conserving, Zval = 19.0
     Generated in analytical, separable form
     Using radial grid of 1263 points,  6 beta functions with:
                l(1) =   0
                l(2) =   0
                l(3) =   1
                l(4) =   1
                l(5) =   2
                l(6) =   3

     PseudoPot. # 2 for Eu read from file:
     /home/cwx6513/pp.La/Eu.UPF
     MD5 check sum: 5efdbbfc50c6a10138933a6429836ad2
     Pseudo is Norm-conserving, Zval = 17.0
     Generated in analytical, separable form
     Using radial grid of 1261 points,  6 beta functions with:
                l(1) =   0
                l(2) =   0
                l(3) =   1
                l(4) =   1
                l(5) =   2
                l(6) =   3

     atomic species   valence    mass     pseudopotential
        Co            19.00    58.93320     Tb( 1.00)
        Si            17.00    28.08550     Eu( 1.00)

      8 Sym. Ops., with inversion, found ( 6 have fractional translation)

   Cartesian axes

     site n.     atom                  positions (alat units)
         1           Co  tau(   1) = (   0.7500000   1.0875135   0.8270358  )
         2           Co  tau(   2) = (   0.2500000   0.2284499   1.0709846  )
         3           Co  tau(   3) = (   0.7500000   0.4295318   0.1219744  )
         4           Co  tau(   4) = (   0.2500000   0.8864316   1.7760460  )
         5           Co  tau(   5) = (   0.2500000   0.7067855   0.5358966  )
         6           Co  tau(   6) = (   0.7500000   0.6091779   1.3621238  )
         7           Co  tau(   7) = (   0.2500000   0.0488038   0.4131136  )
         8           Co  tau(   8) = (   0.7500000   1.2671596   1.4849068  )
         9           Si  tau(   9) = (   0.2500000   0.2669484   1.6960710  )
        10           Si  tau(  10) = (   0.7500000   1.0490149   0.2019494  )
        11           Si  tau(  11) = (   0.2500000   0.9249301   1.1509596  )
        12           Si  tau(  12) = (   0.7500000   0.3910333   0.7470608  )

     number of k points=    12  gaussian smearing, width (Ry)=  0.1000
                       cart. coord. in units 2pi/alat
        k(    1) = (   0.0000000   0.0000000   0.0000000), wk =   0.0833333
        k(    2) = (   0.0000000   0.0000000   0.1317162), wk =   0.1666667
        k(    3) = (   0.0000000   0.0000000  -0.2634324), wk =   0.0833333
        k(    4) = (   0.0000000   0.2532999   0.0000000), wk =   0.1666667
        k(    5) = (   0.0000000   0.2532999   0.1317162), wk =   0.3333333
        k(    6) = (   0.0000000   0.2532999  -0.2634324), wk =   0.1666667
        k(    7) = (  -0.5000000   0.0000000   0.0000000), wk =   0.0833333
        k(    8) = (  -0.5000000   0.0000000   0.1317162), wk =   0.1666667
        k(    9) = (  -0.5000000   0.0000000  -0.2634324), wk =   0.0833333
        k(   10) = (  -0.5000000   0.2532999   0.0000000), wk =   0.1666667
        k(   11) = (  -0.5000000   0.2532999   0.1317162), wk =   0.3333333
        k(   12) = (  -0.5000000   0.2532999  -0.2634324), wk =   0.1666667

     Largest allocated arrays     est. size (Mb)     dimensions
     Largest temporary arrays     est. size (Mb)     dimensions

     Initial potential from superposition of free atoms

     Starting from uniform charge
     Starting wfc are    0 randomized atomic wfcs

     Self-consistent Calculation

     iteration #  1     ecut=    40.00 Ry     beta=0.70
     CG style diagonalization
     c_bands:  1 eigenvalues not converged
     c_bands:  3 eigenvalues not converged
     c_bands:  2 eigenvalues not converged
     c_bands:  1 eigenvalues not converged
     c_bands:  1 eigenvalues not converged
     ethr =  1.00E-02,  avg # of iterations = 10.7

     total energy              =   -2421.37674547 Ry
     Harris-Foulkes estimate   =   -2744.97267420 Ry
     estimated scf accuracy    <     436.13961803 Ry

     iteration #  2     ecut=    40.00 Ry     beta=0.70
     CG style diagonalization
     ethr =  1.00E-02,  avg # of iterations =  6.2

[...]

     End of self-consistent calculation

          k = 0.0000 0.0000 0.0000 (  3675 PWs)   bands (ev):

   -28.9779 -28.7111 -28.6366 -28.5085 -28.4545 -28.3590 -28.3555 -28.3339
   -15.2534 -15.2363 -15.1894 -15.1181   0.8778   0.9826   1.3992   1.4296
     1.4365   1.7699   1.8435   1.9675   2.0186   2.0890   2.4669   2.4984
     2.5709   2.5870   2.6013   2.6646   2.8743   2.9719   2.9824   3.1286
     3.2839   3.3263   3.6577   3.7955  11.0829  11.2303  11.2599  11.2950
    11.4326  11.6294  11.6753  11.7429  11.7807  11.7904  12.0040  12.0157
    32.8194  32.9900  33.1632  33.6816  33.6922  33.7874  34.0050  34.3194
    34.3952  35.3452  35.3868  35.9146  36.2959  36.2993  36.5557  36.9640
    37.0392  37.3224  37.6268  38.2157  38.6032  38.8562  38.9973  39.2649
    39.2906  39.4157  39.7562  40.1973  40.2094  40.5684  40.6375  40.6964
    40.7064  41.2685  41.3270  41.6006  42.0000  42.3419  42.6411  43.6922
    43.9405  43.9787  44.1896  44.4495  44.6005  45.3202  45.4974  45.8281
    46.5138  46.5437  46.8740  47.5807  47.6935  47.9673  47.9838  48.1298
    49.2503  49.5085  49.6439  49.6705  49.8128  50.6064  51.0365  51.7544
    52.1506  54.3729  54.6684  55.5938  55.7864  55.7878  55.7966  56.4950
    56.6839  57.1518  57.4339  58.1091  58.1939  58.2189  58.6780  59.0156
    59.1256  59.2791  59.5463  59.5708

[...]

          k =-0.5000 0.0000 0.0000 (  3722 PWs)   bands (ev):

[...]

     the Fermi energy is    50.3475 ev

!    total energy              =   -2523.09938422 Ry
     Harris-Foulkes estimate   =   -2523.09943278 Ry
     estimated scf accuracy    <       0.00005479 Ry

     The total energy is the sum of the following terms:

     one-electron contribution =     377.35488307 Ry
     hartree contribution      =     165.08794132 Ry
     xc contribution           =    -264.65131587 Ry
     ewald contribution        =   -2800.62239788 Ry
     smearing contrib. (-TS)   =      -0.26849486 Ry

     convergence has been achieved in   8 iterations

     Forces acting on atoms (Ry/au):

     atom    1 type  1   force =     0.00000000   -0.04001700   -0.04194095
     atom    2 type  1   force =     0.00000000    0.04001700    0.04194095
     atom    3 type  1   force =     0.00000000   -0.04001700    0.04194095
     atom    4 type  1   force =     0.00000000    0.04001700   -0.04194095
     atom    5 type  1   force =     0.00000000    0.15663840   -0.27538686
     atom    6 type  1   force =     0.00000000   -0.15663840    0.27538686
     atom    7 type  1   force =     0.00000000    0.15663840    0.27538686
     atom    8 type  1   force =     0.00000000   -0.15663840   -0.27538686
     atom    9 type  2   force =     0.00000000   -0.19517321    0.04955748
     atom   10 type  2   force =     0.00000000    0.19517321   -0.04955748
     atom   11 type  2   force =     0.00000000   -0.19517321   -0.04955748
     atom   12 type  2   force =     0.00000000    0.19517321    0.04955748

     Total force =     0.759691     Total SCF correction =     0.000000

     entering subroutine stress ...

          total   stress  (Ry/bohr**3)                   (kbar)     P= 6592.65
   0.04860198   0.00000000   0.00000000       7149.60      0.00      0.00
   0.00000000   0.04174341   0.00000000          0.00   6140.67      0.00
   0.00000000   0.00000000   0.04410238          0.00      0.00   6487.68

     BFGS Geometry Optimization

     number of scf cycles    =   1
     number of bfgs steps    =   0

     enthalpy new            =   -2523.0993842186 Ry

     new trust radius        =       0.5000000000 bohr
     new conv_thr            =       0.0001000000 Ry

     new unit-cell volume =   1081.68116 a.u.^3 (   160.28861 Ang^3 )

CELL_PARAMETERS (alat=  7.01510508)
   1.085136619   0.000000000   0.000000000
   0.000000000   1.412189772   0.000000000
   0.000000000   0.000000000   2.044651248

ATOMIC_POSITIONS (crystal)
Co       0.750000000   0.826097269   0.435515288
Co       0.250000000   0.173902731   0.564484712
Co       0.750000000   0.326097269   0.064484712
Co       0.250000000   0.673902731   0.935515288
Co       0.250000000   0.538274893   0.280895793
Co       0.750000000   0.461725107   0.719104207
Co       0.250000000   0.038274893   0.219104207
Co       0.750000000   0.961725107   0.780895793
Si       0.250000000   0.201372626   0.893860793
Si       0.750000000   0.798627374   0.106139207
Si       0.250000000   0.701372626   0.606139207
Si       0.750000000   0.298627374   0.393860793

     Writing output data file Prototype-La-oP12-Co2Si.save
     NEW-OLD atomic charge density approx. for the potential
     NEW k-points:
        k(    1) = (   0.0000000   0.0000000   0.0000000), wk =   0.0833333
        k(    2) = (   0.0000000   0.0000000   0.1222702), wk =   0.1666667
        k(    3) = (   0.0000000   0.0000000  -0.2445405), wk =   0.0833333
        k(    4) = (   0.0000000   0.2360400   0.0000000), wk =   0.1666667
        k(    5) = (   0.0000000   0.2360400   0.1222702), wk =   0.3333333
        k(    6) = (   0.0000000   0.2360400  -0.2445405), wk =   0.1666667
        k(    7) = (  -0.4607715   0.0000000   0.0000000), wk =   0.0833333
        k(    8) = (  -0.4607715   0.0000000   0.1222702), wk =   0.1666667
        k(    9) = (  -0.4607715   0.0000000  -0.2445405), wk =   0.0833333
        k(   10) = (  -0.4607715   0.2360400   0.0000000), wk =   0.1666667
        k(   11) = (  -0.4607715   0.2360400   0.1222702), wk =   0.3333333
        k(   12) = (  -0.4607715   0.2360400  -0.2445405), wk =   0.1666667

[...]

     enthalpy old            =   -2523.0993842186 Ry
     enthalpy new            =   -2528.7743411225 Ry

     CASE: enthalpy_new < enthalpy_old

     small trust_radius: resetting bfgs history

     new trust radius        =       2.0775299101 bohr
     new conv_thr            =       0.0001000000 Ry

[...]

          total   stress  (Ry/bohr**3)                   (kbar)     P=-1704.16
  -0.01224748   0.00000000   0.00000000      -1801.67      0.00      0.00
   0.00000000  -0.01105131   0.00000000          0.00  -1625.70      0.00
   0.00000000   0.00000000  -0.01145519          0.00      0.00  -1685.12

     number of scf cycles    =   3
     number of bfgs steps    =   2

     enthalpy old            =   -2528.7743411225 Ry
     enthalpy new            =   -2519.8389823833 Ry

     CASE: enthalpy_new > enthalpy_old

     new trust radius        =       0.6264067898 bohr

     trust_radius < trust_radius_min

     resetting bfgs history

     Message from routine bfgs:
     history already reset at previous step: stopping
     new conv_thr            =       0.0001000000 Ry

     new unit-cell volume =   1284.73993 a.u.^3 (   190.37881 Ang^3 )

[...]

ATOMIC_POSITIONS (crystal)
Co       0.750000000   0.825354426   0.435201756
Co       0.250000000   0.174645574   0.564798244
Co       0.750000000   0.325354426   0.064798244
Co       0.250000000   0.674645574   0.935201756
Co       0.250000000   0.539816535   0.279232065
Co       0.750000000   0.460183465   0.720767935
Co       0.250000000   0.039816535   0.220767935
Co       0.750000000   0.960183465   0.779232065
Si       0.250000000   0.199243436   0.894270100
Si       0.750000000   0.800756564   0.105729900
Si       0.250000000   0.699243436   0.605729900
Si       0.750000000   0.300756564   0.394270100

     Writing output data file Prototype-La-oP12-Co2Si.save
     NEW-OLD atomic charge density approx. for the potential
     NEW k-points:
        k(    1) = (   0.0000000   0.0000000   0.0000000), wk =   0.0833333
        k(    2) = (   0.0000000   0.0000000   0.1156006), wk =   0.1666667
        k(    3) = (   0.0000000   0.0000000  -0.2312011), wk =   0.0833333
        k(    4) = (   0.0000000   0.2246568   0.0000000), wk =   0.1666667
        k(    5) = (   0.0000000   0.2246568   0.1156006), wk =   0.3333333
        k(    6) = (   0.0000000   0.2246568  -0.2312011), wk =   0.1666667
        k(    7) = (  -0.4311185   0.0000000   0.0000000), wk =   0.0833333
        k(    8) = (  -0.4311185   0.0000000   0.1156006), wk =   0.1666667
        k(    9) = (  -0.4311185   0.0000000  -0.2312011), wk =   0.0833333
        k(   10) = (  -0.4311185   0.2246568   0.0000000), wk =   0.1666667
        k(   11) = (  -0.4311185   0.2246568   0.1156006), wk =   0.3333333
        k(   12) = (  -0.4311185   0.2246568  -0.2312011), wk =   0.1666667

[...]

     The maximum number of steps has been reached.

     End of BFGS Geometry Optimization
Begin final coordinates
     new unit-cell volume =   1284.73993 a.u.^3 (   190.37881 Ang^3 )

CELL_PARAMETERS (alat=  7.01510508)
   1.159773987   0.000000000   0.000000000
   0.000000000   1.483744852   0.000000000
   0.000000000   0.000000000   2.162619378

ATOMIC_POSITIONS (crystal)
Co       0.750000000   0.825354426   0.435201756
Co       0.250000000   0.174645574   0.564798244
Co       0.750000000   0.325354426   0.064798244
Co       0.250000000   0.674645574   0.935201756
Co       0.250000000   0.539816535   0.279232065
Co       0.750000000   0.460183465   0.720767935
Co       0.250000000   0.039816535   0.220767935
Co       0.750000000   0.960183465   0.779232065
Si       0.250000000   0.199243436   0.894270100
Si       0.750000000   0.800756564   0.105729900
Si       0.250000000   0.699243436   0.605729900
Si       0.750000000   0.300756564   0.394270100
End final coordinates

     A final scf calculation at the relaxed structure.
     The G-vectors are recalculated for the final unit cell
     Results may differ from those at the preceding step.

     bravais-lattice index     =            0
     lattice parameter (alat)  =       7.0151  a.u.
     unit-cell volume          =    1284.7399 (a.u.)^3
     number of atoms/cell      =           12
     number of atomic types    =            2
     number of electrons       =       220.00
     number of Kohn-Sham states=          132
     kinetic-energy cutoff     =      40.0000  Ry
     charge density cutoff     =     160.0000  Ry
     convergence threshold     =      1.0E-04
     mixing beta               =       0.7000
     number of iterations used =            8  plain     mixing
     Exchange-correlation      = SLA-PZ-NOGX-NOGC ( 1 1 0 0 0)
     EXX-fraction              =        0.00

     celldm(1)=   7.015105  celldm(2)=   0.000000  celldm(3)=   0.000000
     celldm(4)=   0.000000  celldm(5)=   0.000000  celldm(6)=   0.000000

     crystal axes: (cart. coord. in units of alat)
               a(1) = (   1.159774   0.000000   0.000000 )
               a(2) = (   0.000000   1.483745   0.000000 )
               a(3) = (   0.000000   0.000000   2.162619 )

     reciprocal axes: (cart. coord. in units 2 pi/alat)
               b(1) = (  0.862237  0.000000  0.000000 )
               b(2) = (  0.000000  0.673970  0.000000 )
               b(3) = (  0.000000  0.000000  0.462402 )

     PseudoPot. # 1 for Tb read from file:
     /home/cwx6513/pp.La/Tb.UPF
     MD5 check sum: 3d6088a3f0cf7fd2e110c43f7f8e95c2
     Pseudo is Norm-conserving, Zval = 19.0
     Generated in analytical, separable form
     Using radial grid of 1263 points,  6 beta functions with:
                l(1) =   0
                l(2) =   0
                l(3) =   1
                l(4) =   1
                l(5) =   2
                l(6) =   3

     PseudoPot. # 2 for Eu read from file:
     /home/cwx6513/pp.La/Eu.UPF
     MD5 check sum: 5efdbbfc50c6a10138933a6429836ad2
     Pseudo is Norm-conserving, Zval = 17.0
     Generated in analytical, separable form
     Using radial grid of 1261 points,  6 beta functions with:
                l(1) =   0
                l(2) =   0
                l(3) =   1
                l(4) =   1
                l(5) =   2
                l(6) =   3

     atomic species   valence    mass     pseudopotential
        Co            19.00    58.93320     Tb( 1.00)
        Si            17.00    28.08550     Eu( 1.00)

      8 Sym. Ops., with inversion, found ( 6 have fractional translation)

   Cartesian axes

     site n.     atom                  positions (alat units)
         1           Co  tau(   1) = (   0.8698305   1.2246154   0.9411758  )
         2           Co  tau(   2) = (   0.2899435   0.2591295   1.2214436  )
         3           Co  tau(   3) = (   0.8698305   0.4827430   0.1401339  )
         4           Co  tau(   4) = (   0.2899435   1.0010019   2.0224854  )
         5           Co  tau(   5) = (   0.2899435   0.8009500   0.6038727  )
         6           Co  tau(   6) = (   0.8698305   0.6827948   1.5587467  )
         7           Co  tau(   7) = (   0.2899435   0.0590776   0.4774370  )
         8           Co  tau(   8) = (   0.8698305   1.4246673   1.6851824  )
         9           Si  tau(   9) = (   0.2899435   0.2956264   1.9339658  )
        10           Si  tau(  10) = (   0.8698305   1.1881184   0.2286535  )
        11           Si  tau(  11) = (   0.2899435   1.0374988   1.3099632  )
        12           Si  tau(  12) = (   0.8698305   0.4462460   0.8526562  )

     number of k points=    12  gaussian smearing, width (Ry)=  0.1000
                       cart. coord. in units 2pi/alat
        k(    1) = (   0.0000000   0.0000000   0.0000000), wk =   0.0833333
        k(    2) = (   0.0000000   0.0000000   0.1156006), wk =   0.1666667
        k(    3) = (   0.0000000   0.0000000  -0.2312011), wk =   0.0833333
        k(    4) = (   0.0000000   0.2246568   0.0000000), wk =   0.1666667
        k(    5) = (   0.0000000   0.2246568   0.1156006), wk =   0.3333333
        k(    6) = (   0.0000000   0.2246568  -0.2312011), wk =   0.1666667
        k(    7) = (  -0.4311185   0.0000000   0.0000000), wk =   0.0833333
        k(    8) = (  -0.4311185   0.0000000   0.1156006), wk =   0.1666667
        k(    9) = (  -0.4311185   0.0000000  -0.2312011), wk =   0.0833333
        k(   10) = (  -0.4311185   0.2246568   0.0000000), wk =   0.1666667
        k(   11) = (  -0.4311185   0.2246568   0.1156006), wk =   0.3333333
        k(   12) = (  -0.4311185   0.2246568  -0.2312011), wk =   0.1666667

     Largest allocated arrays     est. size (Mb)     dimensions
     Largest temporary arrays     est. size (Mb)     dimensions

     Initial potential from superposition of free atoms

     Starting from uniform charge
     Starting wfc are    0 randomized atomic wfcs

     Writing output data file Prototype-La-oP12-Co2Si.save

     Self-consistent Calculation

[...]

     iteration #  6     ecut=    40.00 Ry     beta=0.70
     CG style diagonalization
     ethr =  1.64E-04,  avg # of iterations =  3.6

[...]

     total energy              =   -2534.06527158 Ry
     Harris-Foulkes estimate   =   -2534.06549879 Ry
     estimated scf accuracy    <       0.00041076 Ry

     iteration #  9     ecut=    40.00 Ry     beta=0.70
     CG style diagonalization
     c_bands:  1 eigenvalues not converged
     c_bands:  1 eigenvalues not converged
     ethr =  1.87E-07,  avg # of iterations =  3.6

     End of self-consistent calculation

[...]

          k = 0.0000 0.2247-0.2312 (  5486 PWs)   bands (ev):

[...]

          k =-0.4311 0.2247-0.2312 (  5512 PWs)   bands (ev):

   -44.3106 -44.3106 -44.3041 -44.3041 -44.2695 -44.2695 -44.2459 -44.2459
   -31.4715 -31.4715 -31.4687 -31.4687 -13.1174 -13.1174 -12.9918 -12.9918
   -12.9746 -12.9746 -12.9352 -12.9352 -12.8635 -12.8635 -12.7619 -12.7619
   -12.6767 -12.6767 -12.6099 -12.6099 -12.5967 -12.5967 -12.5743 -12.5743
   -12.5202 -12.5202 -12.4775 -12.4775  -4.5173  -4.5173  -4.4862  -4.4862
    -4.4224  -4.4224  -4.4179  -4.4179  -4.3141  -4.3141  -4.3106  -4.3106
    21.6497  21.6497  22.2339  22.2339  22.2709  22.2709  22.4366  22.4366
    22.6807  22.6807  23.0084  23.0084  23.1683  23.1683  23.2915  23.2915
    23.4380  23.4380  23.6646  23.6646  23.6660  23.6660  24.0729  24.0729
    24.1988  24.1988  24.5792  24.5792  24.6736  24.6736  25.0122  25.0122
    25.0764  25.0764  25.7628  25.7628  25.9465  25.9465  26.2529  26.2529
    26.6397  26.6397  26.8893  26.8893  28.1263  28.1263  28.3542  28.3542
    28.8412  28.8412  28.8598  28.8598  29.2739  29.2739  29.5898  29.5898
    30.0053  30.0053  30.4860  30.4860  31.2020  31.2020  31.2529  31.2529
    32.7621  32.7621  33.0583  33.0583  34.2545  34.2545  37.3178  37.3178
    38.2222  38.2222  39.2604  39.2604  40.5179  40.5180  40.5461  40.5461
    40.6577  40.6577  41.8694  41.8696

     the Fermi energy is    31.4484 ev

!    total energy              =   -2534.06534697 Ry
     Harris-Foulkes estimate   =   -2534.06542989 Ry
     estimated scf accuracy    <       0.00009323 Ry

     The total energy is the sum of the following terms:

     one-electron contribution =     -97.65534253 Ry
     hartree contribution      =     270.27886659 Ry
     xc contribution           =    -253.16359187 Ry
     ewald contribution        =   -2453.08577559 Ry
     smearing contrib. (-TS)   =      -0.43950357 Ry

     convergence has been achieved in   9 iterations

     Forces acting on atoms (Ry/au):

     atom    1 type  1   force =     0.00000000   -0.01837631   -0.00937624
     atom    2 type  1   force =     0.00000000    0.01837631    0.00937624
     atom    3 type  1   force =     0.00000000   -0.01837631    0.00937624
     atom    4 type  1   force =     0.00000000    0.01837631   -0.00937624
     atom    5 type  1   force =     0.00000000    0.05040769   -0.09354238
     atom    6 type  1   force =     0.00000000   -0.05040769    0.09354238
     atom    7 type  1   force =     0.00000000    0.05040769    0.09354238
     atom    8 type  1   force =     0.00000000   -0.05040769   -0.09354238
     atom    9 type  2   force =     0.00000000   -0.06517729    0.01914505
     atom   10 type  2   force =     0.00000000    0.06517729   -0.01914505
     atom   11 type  2   force =     0.00000000   -0.06517729   -0.01914505
     atom   12 type  2   force =     0.00000000    0.06517729    0.01914505

     Total force =     0.255588     Total SCF correction =     0.000000

     entering subroutine stress ...

          total   stress  (Ry/bohr**3)                   (kbar)     P=  648.29
   0.00495408   0.00000000   0.00000000        728.77      0.00      0.00
   0.00000000   0.00393306   0.00000000          0.00    578.57      0.00
   0.00000000   0.00000000   0.00433376          0.00      0.00    637.52

     Writing output data file Prototype-La-oP12-Co2Si.save

     General routines

     Parallel routines

   This run was terminated on:  17:46:19  22Mar2018

   JOB DONE.