     Program PWSCF v.5.0.2 starts on 22Mar2018 at 17:33: 2

     Current dimensions of program PWSCF are:
     Max number of different atomic species (ntypx) = 10
     Max number of k-points (npk) =  40000
     Max angular momentum in pseudopotentials (lmaxx) =  3
     Waiting for input...
     Reading input from standard input

     Subspace diagonalization in iterative solution of the eigenvalue problem:
     a serial algorithm will be used

     bravais-lattice index     =            0
     lattice parameter (alat)  =       8.8008  a.u.
     unit-cell volume          =    1116.9454 (a.u.)^3
     number of atoms/cell      =           16
     number of atomic types    =            2
     number of electrons       =       296.00
     number of Kohn-Sham states=          178
     kinetic-energy cutoff     =      40.0000  Ry
     charge density cutoff     =     160.0000  Ry
     convergence threshold     =      1.0E-04
     mixing beta               =       0.7000
     number of iterations used =            8  plain     mixing
     Exchange-correlation      = SLA-PZ-NOGX-NOGC ( 1 1 0 0 0)
     EXX-fraction              =        0.00
     nstep                     =           50

     celldm(1)=   8.800765  celldm(2)=   0.000000  celldm(3)=   0.000000
     celldm(4)=   0.000000  celldm(5)=   0.000000  celldm(6)=   0.000000

     crystal axes: (cart. coord. in units of alat)
               a(1) = (   1.000000   0.000000   0.000000 )
               a(2) = (   0.000000   1.083771   0.000000 )
               a(3) = (   0.000000   0.000000   1.511935 )

     reciprocal axes: (cart. coord. in units 2 pi/alat)
               b(1) = (  1.000000  0.000000  0.000000 )
               b(2) = (  0.000000  0.922704  0.000000 )
               b(3) = (  0.000000  0.000000  0.661404 )

     PseudoPot. # 1 for Tb read from file:
     /home/jld5415/pp.La/Tb.UPF
     MD5 check sum: 3d6088a3f0cf7fd2e110c43f7f8e95c2
     Pseudo is Norm-conserving, Zval = 19.0
     Generated in analytical, separable form
     Using radial grid of 1263 points,  6 beta functions with:
                l(1) =   0
                l(2) =   0
                l(3) =   1
                l(4) =   1
                l(5) =   2
                l(6) =   3

     PseudoPot. # 2 for Eu read from file:
     /home/jld5415/pp.La/Eu.UPF
     MD5 check sum: 5efdbbfc50c6a10138933a6429836ad2
     Pseudo is Norm-conserving, Zval = 17.0
     Generated in analytical, separable form
     Using radial grid of 1261 points,  6 beta functions with:
                l(1) =   0
                l(2) =   0
                l(3) =   1
                l(4) =   1
                l(5) =   2
                l(6) =   3

     atomic species   valence    mass     pseudopotential
        Fe            19.00    55.84500     Tb( 1.00)
        C             17.00    12.01070     Eu( 1.00)

      8 Sym. Ops., with inversion, found ( 6 have fractional translation)

   Cartesian axes

     site n.     atom                  positions (alat units)
         1           Fe  tau(   1) = (   0.3472940   0.1827628   1.3947267  )
         2           Fe  tau(   2) = (   0.1527060   0.7246484   0.8731757  )
         3           Fe  tau(   3) = (   0.8472940   0.3591227   0.6387592  )
         4           Fe  tau(   4) = (   0.3396640   0.4879235   0.3779837  )
         5           Fe  tau(   5) = (   0.1527060   0.7246484   1.3947267  )
         6           Fe  tau(   6) = (   0.3472940   0.1827628   0.8731757  )
         7           Fe  tau(   7) = (   0.1603360   1.0298091   0.3779837  )
         8           Fe  tau(   8) = (   0.6527060   0.9010083   0.6387592  )
         9           Fe  tau(   9) = (   0.8472940   0.3591227   0.1172082  )
        10           Fe  tau(  10) = (   0.6603360   0.5958476   1.1339512  )
        11           Fe  tau(  11) = (   0.6527060   0.9010083   0.1172082  )
        12           Fe  tau(  12) = (   0.8396640   0.0539620   1.1339512  )
        13           C   tau(  13) = (   0.0000000   0.0000000   0.0000000  )
        14           C   tau(  14) = (   0.5000000   0.5418856   0.0000000  )
        15           C   tau(  15) = (   0.5000000   0.5418856   0.7559674  )
        16           C   tau(  16) = (   0.0000000   0.0000000   0.7559674  )

     number of k points=    12  gaussian smearing, width (Ry)=  0.1000
                       cart. coord. in units 2pi/alat
        k(    1) = (   0.0000000   0.0000000   0.0000000), wk =   0.0833333
        k(    2) = (   0.0000000   0.0000000   0.1653510), wk =   0.1666667
        k(    3) = (   0.0000000   0.0000000  -0.3307021), wk =   0.0833333
        k(    4) = (   0.0000000   0.3075680   0.0000000), wk =   0.1666667
        k(    5) = (   0.0000000   0.3075680   0.1653510), wk =   0.3333333
        k(    6) = (   0.0000000   0.3075680  -0.3307021), wk =   0.1666667
        k(    7) = (  -0.5000000   0.0000000   0.0000000), wk =   0.0833333
        k(    8) = (  -0.5000000   0.0000000   0.1653510), wk =   0.1666667
        k(    9) = (  -0.5000000   0.0000000  -0.3307021), wk =   0.0833333
        k(   10) = (  -0.5000000   0.3075680   0.0000000), wk =   0.1666667
        k(   11) = (  -0.5000000   0.3075680   0.1653510), wk =   0.3333333
        k(   12) = (  -0.5000000   0.3075680  -0.3307021), wk =   0.1666667

     Largest allocated arrays     est. size (Mb)     dimensions
     Largest temporary arrays     est. size (Mb)     dimensions

     Initial potential from superposition of free atoms

     Starting from uniform charge
     Starting wfc are    0 randomized atomic wfcs

     Self-consistent Calculation

     iteration #  1     ecut=    40.00 Ry     beta=0.70
     CG style diagonalization
     ethr =  1.00E-02,  avg # of iterations = 21.2

     total energy              =   -3002.98916344 Ry
     Harris-Foulkes estimate   =   -3980.42986997 Ry
     estimated scf accuracy    <    1205.39483868 Ry

     iteration #  2     ecut=    40.00 Ry     beta=0.70
     CG style diagonalization
     c_bands:  2 eigenvalues not converged
     c_bands:  1 eigenvalues not converged
     c_bands:  1 eigenvalues not converged
     c_bands:  1 eigenvalues not converged
     c_bands:  1 eigenvalues not converged
     c_bands:  1 eigenvalues not converged
     c_bands:  1 eigenvalues not converged
     c_bands:  1 eigenvalues not converged
     c_bands:  2 eigenvalues not converged
     c_bands:  4 eigenvalues not converged
     ethr =  1.00E-02,  avg # of iterations = 11.2

[...]

     End of self-consistent calculation

          k = 0.0000 0.0000 0.0000 (  4785 PWs)   bands (ev):

   -29.8392 -29.4601 -28.7899 -28.7757 -28.6539 -28.6243 -28.6179 -28.4858
   -28.4441 -28.3486 -28.2288 -28.2105 -19.9308 -19.1384 -18.0468 -17.3337
    -3.5455  -3.3693  -3.2480  -3.2153  -2.5664  -2.3329   0.4595   0.5698
     0.5842   0.8183   0.9742   1.5060   1.5172   1.5868   1.6348   1.9570
     1.9762   2.0065   2.0161   2.1125   2.6747   3.3500   3.3886   3.4520
     3.5021   3.6399   3.7248   3.7647   3.8013   3.8561   3.9976   4.0358
     4.2839   4.2865   4.3855   4.4388   9.1375   9.1561   9.2978   9.7255
     9.8885   9.9575  13.1553  13.2877  13.4567  13.6899  13.8584  13.9078
    30.2101  30.7177  31.3164  31.4551  31.5555  31.6544  31.7136  31.8368
    32.6974  33.2894  33.7488  34.6928  35.2717  35.3606  35.7381  35.9579
    36.3134  36.3410  36.3697  36.3938  36.7503  37.1872  37.2351  37.2572
    37.4513  37.5733  37.9371  37.9522  38.3163  38.3306  38.5710  38.7009
    38.7907  39.4120  39.6368  39.9502  40.0048  40.1782  40.3778  40.7448
    40.8776  41.0009  41.0523  41.4688  41.6668  41.9810  42.3377  42.4770
    42.7052  42.8473  43.0572  43.3583  43.6495  43.6792  43.9536  44.0927
    44.1228  44.6375  44.7565  45.2042  45.6455  45.6597  45.6723  45.9519
    46.2554  46.3779  46.8646  47.3895  47.8496  48.1291  48.5786  48.6387
    49.3013  49.8338  49.8962  50.6001  50.6708  50.7218  51.4672  51.7864
    52.0884  52.8605  53.8712  54.3891  54.8432  54.8897  55.0362  55.0583
    55.2236  55.6314  55.9154  56.5029  56.5139  56.5762  56.9020  56.9783
    57.0965  57.0994  57.1578  57.3112  57.7979  57.9136  57.9333  57.9358
    57.9679  58.3061  58.5834  59.7366  59.7560  60.1129  60.1482  60.7260
    60.8156  60.9570

[...]

          k =-0.5000 0.0000 0.0000 (  4798 PWs)   bands (ev):

[...]

     the Fermi energy is    52.8479 ev

!    total energy              =   -3414.54498049 Ry
     Harris-Foulkes estimate   =   -3414.54502492 Ry
     estimated scf accuracy    <       0.00005660 Ry

     The total energy is the sum of the following terms:

     one-electron contribution =     242.01753260 Ry
     hartree contribution      =     358.69947667 Ry
     xc contribution           =    -365.46223774 Ry
     ewald contribution        =   -3649.43862621 Ry
     smearing contrib. (-TS)   =      -0.36112581 Ry

     convergence has been achieved in   9 iterations

     Forces acting on atoms (Ry/au):

     atom    1 type  1   force =     1.03657761   -1.13788379   -1.43703050
     atom    2 type  1   force =    -1.03657761   -1.13788379    1.43703050
     atom    3 type  1   force =     1.03657761    1.13788379   -1.43703050
     atom    4 type  1   force =    -1.79272835   -0.68954317    0.00000000
     atom    5 type  1   force =    -1.03657761   -1.13788379   -1.43703050
     atom    6 type  1   force =     1.03657761   -1.13788379    1.43703050
     atom    7 type  1   force =     1.79272835   -0.68954317    0.00000000
     atom    8 type  1   force =    -1.03657761    1.13788379   -1.43703050
     atom    9 type  1   force =     1.03657761    1.13788379    1.43703050
     atom   10 type  1   force =     1.79272835    0.68954317    0.00000000
     atom   11 type  1   force =    -1.03657761    1.13788379    1.43703050
     atom   12 type  1   force =    -1.79272835    0.68954317    0.00000000
     atom   13 type  2   force =     0.00000000    0.00000000    0.00000000
     atom   14 type  2   force =     0.00000000    0.00000000    0.00000000
     atom   15 type  2   force =     0.00000000    0.00000000    0.00000000
     atom   16 type  2   force =     0.00000000    0.00000000    0.00000000

     Total force =     7.087455     Total SCF correction =     0.000000

     entering subroutine stress ...

          total   stress  (Ry/bohr**3)                   (kbar)     P=11961.15
   0.08162536   0.00000000   0.00000000      12007.50      0.00      0.00
   0.00000000   0.08200973   0.00000000          0.00  12064.05      0.00
   0.00000000   0.00000000   0.08029574          0.00      0.00  11811.91

     BFGS Geometry Optimization

     number of scf cycles    =   1
     number of bfgs steps    =   0

     enthalpy new            =   -3414.5449804914 Ry

     new trust radius        =       0.5000000000 bohr
     new conv_thr            =       0.0001000000 Ry

     new unit-cell volume =   1384.34946 a.u.^3 (   205.13942 Ang^3 )

CELL_PARAMETERS (alat=  8.80076499)
   1.074453269   0.000000000   0.000000000
   0.000000000   1.164841411   0.000000000
   0.000000000   0.000000000   1.622669713

ATOMIC_POSITIONS (crystal)
Fe       0.351591343   0.164283302   0.918537683
Fe       0.148408657   0.664283302   0.581462317
Fe       0.851591343   0.335716698   0.418537683
Fe       0.332231880   0.447571320   0.250000000
Fe       0.148408657   0.664283302   0.918537683
Fe       0.351591343   0.164283302   0.581462317
Fe       0.167768120   0.947571320   0.250000000
Fe       0.648408657   0.835716698   0.418537683
Fe       0.851591343   0.335716698   0.081462317
Fe       0.667768120   0.552428680   0.750000000
Fe       0.648408657   0.835716698   0.081462317
Fe       0.832231880   0.052428680   0.750000000
C        0.000000000   0.000000000   0.000000000
C        0.500000000   0.500000000   0.000000000
C        0.500000000   0.500000000   0.500000000
C        0.000000000   0.000000000   0.500000000

     Writing output data file Prototype-La-oP16-Fe3C.save
     NEW-OLD atomic charge density approx. for the potential
     NEW k-points:
        k(    1) = (   0.0000000   0.0000000   0.0000000), wk =   0.0833333
        k(    2) = (   0.0000000   0.0000000   0.1540671), wk =   0.1666667
        k(    3) = (   0.0000000   0.0000000  -0.3081342), wk =   0.0833333
        k(    4) = (   0.0000000   0.2861620   0.0000000), wk =   0.1666667
        k(    5) = (   0.0000000   0.2861620   0.1540671), wk =   0.3333333
        k(    6) = (   0.0000000   0.2861620  -0.3081342), wk =   0.1666667
        k(    7) = (  -0.4653530   0.0000000   0.0000000), wk =   0.0833333
        k(    8) = (  -0.4653530   0.0000000   0.1540671), wk =   0.1666667
        k(    9) = (  -0.4653530   0.0000000  -0.3081342), wk =   0.0833333
        k(   10) = (  -0.4653530   0.2861620   0.0000000), wk =   0.1666667
        k(   11) = (  -0.4653530   0.2861620   0.1540671), wk =   0.3333333
        k(   12) = (  -0.4653530   0.2861620  -0.3081342), wk =   0.1666667

[...]

          total   stress  (Ry/bohr**3)                   (kbar)     P= 4893.83
   0.03365764   0.00000000   0.00000000       4951.21      0.00      0.00
   0.00000000   0.03282251   0.00000000          0.00   4828.36      0.00
   0.00000000   0.00000000   0.03332259          0.00      0.00   4901.92

[...]

     enthalpy old            =   -3414.5449804914 Ry
     enthalpy new            =   -3430.5413465635 Ry

     CASE: enthalpy_new < enthalpy_old

     small trust_radius: resetting bfgs history

     new trust radius        =       6.2614742410 bohr
     new conv_thr            =       0.0001000000 Ry

[...]

          total   stress  (Ry/bohr**3)                   (kbar)     P=-2395.39
  -0.01650701   0.00000000   0.00000000      -2428.27      0.00      0.00
   0.00000000  -0.01608453   0.00000000          0.00  -2366.12      0.00
   0.00000000   0.00000000  -0.01625902          0.00      0.00  -2391.78

     number of scf cycles    =   3
     number of bfgs steps    =   2

     enthalpy old            =   -3430.5413465635 Ry
     enthalpy new            =   -3355.3534929554 Ry

     CASE: enthalpy_new > enthalpy_old

     new trust radius        =       2.6857063469 bohr

     trust_radius < trust_radius_min

     resetting bfgs history

     Message from routine bfgs:
     history already reset at previous step: stopping
     new conv_thr            =       0.0001000000 Ry

     new unit-cell volume =   1597.15026 a.u.^3 (   236.67325 Ang^3 )

[...]

ATOMIC_POSITIONS (crystal)
Fe       0.353672312   0.162210784   0.916691498
Fe       0.146327688   0.662210784   0.583308502
Fe       0.853672312   0.337789216   0.416691498
Fe       0.328653040   0.446297175   0.250000000
Fe       0.146327688   0.662210784   0.916691498
Fe       0.353672312   0.162210784   0.583308502
Fe       0.171346960   0.946297175   0.250000000
Fe       0.646327688   0.837789216   0.416691498
Fe       0.853672312   0.337789216   0.083308502
Fe       0.671346960   0.553702825   0.750000000
Fe       0.646327688   0.837789216   0.083308502
Fe       0.828653040   0.053702825   0.750000000
C        0.000000000   0.000000000   0.000000000
C        0.500000000   0.500000000   0.000000000
C        0.500000000   0.500000000   0.500000000
C        0.000000000   0.000000000   0.500000000

     Writing output data file Prototype-La-oP16-Fe3C.save
     NEW-OLD atomic charge density approx. for the potential
     NEW k-points:
        k(    1) = (   0.0000000   0.0000000   0.0000000), wk =   0.0833333
        k(    2) = (   0.0000000   0.0000000   0.1468751), wk =   0.1666667
        k(    3) = (   0.0000000   0.0000000  -0.2937502), wk =   0.0833333
        k(    4) = (   0.0000000   0.2731658   0.0000000), wk =   0.1666667
        k(    5) = (   0.0000000   0.2731658   0.1468751), wk =   0.3333333
        k(    6) = (   0.0000000   0.2731658  -0.2937502), wk =   0.1666667
        k(    7) = (  -0.4432305   0.0000000   0.0000000), wk =   0.0833333
        k(    8) = (  -0.4432305   0.0000000   0.1468751), wk =   0.1666667
        k(    9) = (  -0.4432305   0.0000000  -0.2937502), wk =   0.0833333
        k(   10) = (  -0.4432305   0.2731658   0.0000000), wk =   0.1666667
        k(   11) = (  -0.4432305   0.2731658   0.1468751), wk =   0.3333333
        k(   12) = (  -0.4432305   0.2731658  -0.2937502), wk =   0.1666667

[...]

     The maximum number of steps has been reached.

     End of BFGS Geometry Optimization
Begin final coordinates
     new unit-cell volume =   1597.15026 a.u.^3 (   236.67325 Ang^3 )

CELL_PARAMETERS (alat=  8.80076499)
   1.128081302   0.000000000   0.000000000
   0.000000000   1.220259910   0.000000000
   0.000000000   0.000000000   1.702126219

ATOMIC_POSITIONS (crystal)
Fe       0.353672312   0.162210784   0.916691498
Fe       0.146327688   0.662210784   0.583308502
Fe       0.853672312   0.337789216   0.416691498
Fe       0.328653040   0.446297175   0.250000000
Fe       0.146327688   0.662210784   0.916691498
Fe       0.353672312   0.162210784   0.583308502
Fe       0.171346960   0.946297175   0.250000000
Fe       0.646327688   0.837789216   0.416691498
Fe       0.853672312   0.337789216   0.083308502
Fe       0.671346960   0.553702825   0.750000000
Fe       0.646327688   0.837789216   0.083308502
Fe       0.828653040   0.053702825   0.750000000
C        0.000000000   0.000000000   0.000000000
C        0.500000000   0.500000000   0.000000000
C        0.500000000   0.500000000   0.500000000
C        0.000000000   0.000000000   0.500000000
End final coordinates

     A final scf calculation at the relaxed structure.
     The G-vectors are recalculated for the final unit cell
     Results may differ from those at the preceding step.

     bravais-lattice index     =            0
     lattice parameter (alat)  =       8.8008  a.u.
     unit-cell volume          =    1597.1503 (a.u.)^3
     number of atoms/cell      =           16
     number of atomic types    =            2
     number of electrons       =       296.00
     number of Kohn-Sham states=          178
     kinetic-energy cutoff     =      40.0000  Ry
     charge density cutoff     =     160.0000  Ry
     convergence threshold     =      1.0E-04
     mixing beta               =       0.7000
     number of iterations used =            8  plain     mixing
     Exchange-correlation      = SLA-PZ-NOGX-NOGC ( 1 1 0 0 0)
     EXX-fraction              =        0.00

     celldm(1)=   8.800765  celldm(2)=   0.000000  celldm(3)=   0.000000
     celldm(4)=   0.000000  celldm(5)=   0.000000  celldm(6)=   0.000000

     crystal axes: (cart. coord. in units of alat)
               a(1) = (   1.128081   0.000000   0.000000 )
               a(2) = (   0.000000   1.220260   0.000000 )
               a(3) = (   0.000000   0.000000   1.702126 )

     reciprocal axes: (cart. coord. in units 2 pi/alat)
               b(1) = (  0.886461  0.000000  0.000000 )
               b(2) = (  0.000000  0.819498  0.000000 )
               b(3) = (  0.000000  0.000000  0.587500 )

     PseudoPot. # 1 for Tb read from file:
     /home/jld5415/pp.La/Tb.UPF
     MD5 check sum: 3d6088a3f0cf7fd2e110c43f7f8e95c2
     Pseudo is Norm-conserving, Zval = 19.0
     Generated in analytical, separable form
     Using radial grid of 1263 points,  6 beta functions with:
                l(1) =   0
                l(2) =   0
                l(3) =   1
                l(4) =   1
                l(5) =   2
                l(6) =   3

     PseudoPot. # 2 for Eu read from file:
     /home/jld5415/pp.La/Eu.UPF
     MD5 check sum: 5efdbbfc50c6a10138933a6429836ad2
     Pseudo is Norm-conserving, Zval = 17.0
     Generated in analytical, separable form
     Using radial grid of 1261 points,  6 beta functions with:
                l(1) =   0
                l(2) =   0
                l(3) =   1
                l(4) =   1
                l(5) =   2
                l(6) =   3

     atomic species   valence    mass     pseudopotential
        Fe            19.00    55.84500     Tb( 1.00)
        C             17.00    12.01070     Eu( 1.00)

      8 Sym. Ops., with inversion, found ( 6 have fractional translation)

   Cartesian axes

     site n.     atom                  positions (alat units)
         1           Fe  tau(   1) = (   0.3989711   0.1979393   1.5603246  )
         2           Fe  tau(   2) = (   0.1650695   0.8080693   0.9928647  )
         3           Fe  tau(   3) = (   0.9630118   0.4121906   0.7092615  )
         4           Fe  tau(   4) = (   0.3707473   0.5445986   0.4255316  )
         5           Fe  tau(   5) = (   0.1650695   0.8080693   1.5603246  )
         6           Fe  tau(   6) = (   0.3989711   0.1979393   0.9928647  )
         7           Fe  tau(   7) = (   0.1932933   1.1547285   0.4255316  )
         8           Fe  tau(   8) = (   0.7291102   1.0223206   0.7092615  )
         9           Fe  tau(   9) = (   0.9630118   0.4121906   0.1418016  )
        10           Fe  tau(  10) = (   0.7573340   0.6756614   1.2765947  )
        11           Fe  tau(  11) = (   0.7291102   1.0223206   0.1418016  )
        12           Fe  tau(  12) = (   0.9347880   0.0655314   1.2765947  )
        13           C   tau(  13) = (   0.0000000   0.0000000   0.0000000  )
        14           C   tau(  14) = (   0.5640407   0.6101300   0.0000000  )
        15           C   tau(  15) = (   0.5640407   0.6101300   0.8510631  )
        16           C   tau(  16) = (   0.0000000   0.0000000   0.8510631  )

     number of k points=    12  gaussian smearing, width (Ry)=  0.1000
                       cart. coord. in units 2pi/alat
        k(    1) = (   0.0000000   0.0000000   0.0000000), wk =   0.0833333
        k(    2) = (   0.0000000   0.0000000   0.1468751), wk =   0.1666667
        k(    3) = (   0.0000000   0.0000000  -0.2937502), wk =   0.0833333
        k(    4) = (   0.0000000   0.2731658   0.0000000), wk =   0.1666667
        k(    5) = (   0.0000000   0.2731658   0.1468751), wk =   0.3333333
        k(    6) = (   0.0000000   0.2731658  -0.2937502), wk =   0.1666667
        k(    7) = (  -0.4432305   0.0000000   0.0000000), wk =   0.0833333
        k(    8) = (  -0.4432305   0.0000000   0.1468751), wk =   0.1666667
        k(    9) = (  -0.4432305   0.0000000  -0.2937502), wk =   0.0833333
        k(   10) = (  -0.4432305   0.2731658   0.0000000), wk =   0.1666667
        k(   11) = (  -0.4432305   0.2731658   0.1468751), wk =   0.3333333
        k(   12) = (  -0.4432305   0.2731658  -0.2937502), wk =   0.1666667

     Largest allocated arrays     est. size (Mb)     dimensions
     Largest temporary arrays     est. size (Mb)     dimensions

     Initial potential from superposition of free atoms

     Starting from uniform charge
     Starting wfc are    0 randomized atomic wfcs

     Writing output data file Prototype-La-oP16-Fe3C.save

     Self-consistent Calculation

[...]

     iteration # 10     ecut=    40.00 Ry     beta=0.70
     CG style diagonalization
     c_bands:  1 eigenvalues not converged
     ethr =  9.98E-08,  avg # of iterations =  3.5

     total energy              =   -3441.33431052 Ry
     Harris-Foulkes estimate   =   -3441.33437039 Ry
     estimated scf accuracy    <       0.00010692 Ry

     iteration # 11     ecut=    40.00 Ry     beta=0.70
     CG style diagonalization
     ethr =  3.61E-08,  avg # of iterations =  3.5

     End of self-consistent calculation

[...]

          k = 0.0000 0.2732-0.2938 (  6800 PWs)   bands (ev):

[...]

          k =-0.4432 0.2732-0.2938 (  6848 PWs)   bands (ev):

   -42.4266 -42.4266 -42.4017 -42.4017 -42.3555 -42.3555 -42.3308 -42.3308
   -42.1142 -42.1142 -42.0977 -42.0977 -30.6945 -30.6945 -30.6938 -30.6938
   -12.6538 -12.6538 -12.6479 -12.6479 -12.0084 -12.0084 -11.9338 -11.9338
   -11.7153 -11.7153 -11.7004 -11.7004 -11.2515 -11.2515 -11.1978 -11.1978
   -10.9822 -10.9822 -10.9088 -10.9088 -10.6828 -10.6828 -10.6247 -10.6247
   -10.5436 -10.5436 -10.5286 -10.5286 -10.3258 -10.3258 -10.2252 -10.2252
   -10.1659 -10.1659 -10.0909 -10.0909  -3.7332  -3.7332  -3.7329  -3.7329
    -3.2236  -3.2236  -3.2108  -3.2108  -2.7729  -2.7729  -2.7678  -2.7678
    21.1317  21.1317  21.1694  21.1694  21.7575  21.7575  21.9885  21.9885
    22.2148  22.2148  22.4161  22.4161  23.0430  23.0430  23.2836  23.2836
    23.6450  23.6450  24.0875  24.0875  24.6634  24.6634  25.0305  25.0305
    25.3822  25.3822  25.4880  25.4880  25.6905  25.6905  25.8916  25.8916
    26.0154  26.0154  26.2361  26.2361  26.6591  26.6591  26.8149  26.8149
    26.9024  26.9024  27.0849  27.0849  27.4873  27.4873  27.8063  27.8063
    28.0597  28.0597  28.1228  28.1228  28.2549  28.2549  28.7641  28.7641
    29.0965  29.0965  29.2325  29.2325  29.6457  29.6457  29.6589  29.6589
    31.3520  31.3520  31.5717  31.5717  31.7435  31.7435  31.9218  31.9218
    32.6876  32.6876  32.9105  32.9105  33.3226  33.3226  33.4749  33.4749
    34.4331  34.4331  34.5089  34.5089  35.1090  35.1090  35.5315  35.5315
    35.9888  35.9888  37.4897  37.4898  39.7371  39.7371  40.1044  40.1045
    40.2164  40.2164  40.9902  40.9902  41.8752  41.8752  41.9893  41.9893
    42.7320  42.7321  42.7672  42.7672  43.7873  43.7873  43.9398  43.9399
    44.7032  44.7037

     the Fermi energy is    35.1043 ev

!    total energy              =   -3441.33433493 Ry
     Harris-Foulkes estimate   =   -3441.33434282 Ry
     estimated scf accuracy    <       0.00000868 Ry

     The total energy is the sum of the following terms:

     one-electron contribution =    -295.40907933 Ry
     hartree contribution      =     467.42880001 Ry
     xc contribution           =    -349.36258783 Ry
     ewald contribution        =   -3263.48301900 Ry
     smearing contrib. (-TS)   =      -0.50844878 Ry

     convergence has been achieved in  11 iterations

     Forces acting on atoms (Ry/au):

     atom    1 type  1   force =     0.41832671   -0.44501613   -0.55220699
     atom    2 type  1   force =    -0.41832671   -0.44501613    0.55220699
     atom    3 type  1   force =     0.41832671    0.44501613   -0.55220699
     atom    4 type  1   force =    -0.71618738   -0.26632166    0.00000000
     atom    5 type  1   force =    -0.41832671   -0.44501613   -0.55220699
     atom    6 type  1   force =     0.41832671   -0.44501613    0.55220699
     atom    7 type  1   force =     0.71618738   -0.26632166    0.00000000
     atom    8 type  1   force =    -0.41832671    0.44501613   -0.55220699
     atom    9 type  1   force =     0.41832671    0.44501613    0.55220699
     atom   10 type  1   force =     0.71618738    0.26632166    0.00000000
     atom   11 type  1   force =    -0.41832671    0.44501613    0.55220699
     atom   12 type  1   force =    -0.71618738    0.26632166    0.00000000
     atom   13 type  2   force =     0.00000000    0.00000000    0.00000000
     atom   14 type  2   force =     0.00000000    0.00000000    0.00000000
     atom   15 type  2   force =     0.00000000    0.00000000    0.00000000
     atom   16 type  2   force =     0.00000000    0.00000000    0.00000000

     Total force =     2.785527     Total SCF correction =     0.000000

     entering subroutine stress ...

          total   stress  (Ry/bohr**3)                   (kbar)     P= 2930.33
   0.02020143   0.00000000   0.00000000       2971.73      0.00      0.00
   0.00000000   0.01954333   0.00000000          0.00   2874.92      0.00
   0.00000000   0.00000000   0.02001524          0.00      0.00   2944.34

     Writing output data file Prototype-La-oP16-Fe3C.save

     General routines

     Parallel routines

   This run was terminated on:  18:26:50  22Mar2018

   JOB DONE.