     Program PWSCF v.5.0.2 starts on 23Mar2018 at  2:19:45

     Current dimensions of program PWSCF are:
     Max number of different atomic species (ntypx) = 10
     Max number of k-points (npk) =  40000
     Max angular momentum in pseudopotentials (lmaxx) =  3
     Waiting for input...
     Reading input from standard input

     Subspace diagonalization in iterative solution of the eigenvalue problem:
     a serial algorithm will be used

     bravais-lattice index     =            0
     lattice parameter (alat)  =       8.5346  a.u.
     unit-cell volume          =     621.6493 (a.u.)^3
     number of atoms/cell      =            8
     number of atomic types    =            2
     number of electrons       =       152.00
     number of Kohn-Sham states=           91
     kinetic-energy cutoff     =      40.0000  Ry
     charge density cutoff     =     160.0000  Ry
     convergence threshold     =      1.0E-04
     mixing beta               =       0.7000
     number of iterations used =            8  plain     mixing
     Exchange-correlation      = SLA-PZ-NOGX-NOGC ( 1 1 0 0 0)
     EXX-fraction              =        0.00
     nstep                     =           50

     celldm(1)=   8.534573  celldm(2)=   0.000000  celldm(3)=   0.000000
     celldm(4)=   0.000000  celldm(5)=   0.000000  celldm(6)=   0.000000

     crystal axes: (cart. coord. in units of alat)
               a(1) = (   1.000000   0.000000   0.000000 )
               a(2) = (   0.000000   1.000000   0.000000 )
               a(3) = (   0.000000   0.000000   1.000000 )

     reciprocal axes: (cart. coord. in units 2 pi/alat)
               b(1) = (  1.000000  0.000000  0.000000 )
               b(2) = (  0.000000  1.000000  0.000000 )
               b(3) = (  0.000000  0.000000  1.000000 )

     PseudoPot. # 1 for Dy read from file:
     /home/cwx6513/pp.La/Dy.UPF
     MD5 check sum: 9597327bec62616a94a14d07f3fd9936
     Pseudo is Norm-conserving, Zval = 20.0
     Generated in analytical, separable form
     Using radial grid of 1265 points,  6 beta functions with:
                l(1) =   0
                l(2) =   0
                l(3) =   1
                l(4) =   1
                l(5) =   2
                l(6) =   3

     PseudoPot. # 2 for Sm read from file:
     /home/cwx6513/pp.La/Sm.UPF
     MD5 check sum: 5079e8b144a06bfcdbc14fb02b96ab09
     Pseudo is Norm-conserving, Zval = 16.0
     Generated in analytical, separable form
     Using radial grid of 1259 points,  6 beta functions with:
                l(1) =   0
                l(2) =   0
                l(3) =   1
                l(4) =   1
                l(5) =   2
                l(6) =   3

     atomic species   valence    mass     pseudopotential
        Cr            20.00    51.99610     Dy( 1.00)
        Si            16.00    28.08550     Sm( 1.00)

     48 Sym. Ops., with inversion, found (24 have fractional translation)

   Cartesian axes

     site n.     atom                  positions (alat units)
         1           Cr  tau(   1) = (   0.0000000   0.5000000   0.2500000  )
         2           Cr  tau(   2) = (   0.0000000   0.5000000   0.7500000  )
         3           Cr  tau(   3) = (   0.5000000   0.7500000   0.0000000  )
         4           Cr  tau(   4) = (   0.5000000   0.2500000   0.0000000  )
         5           Cr  tau(   5) = (   0.7500000   0.0000000   0.5000000  )
         6           Cr  tau(   6) = (   0.2500000   0.0000000   0.5000000  )
         7           Si  tau(   7) = (   0.5000000   0.5000000   0.5000000  )
         8           Si  tau(   8) = (   0.0000000   0.0000000   0.0000000  )

     number of k points=    48  gaussian smearing, width (Ry)=  0.1000
                       cart. coord. in units 2pi/alat
        k(    1) = (   0.0000000   0.0000000   0.0000000), wk =   0.0095238
        k(    2) = (   0.0000000   0.0000000   0.1428571), wk =   0.0190476
        k(    3) = (   0.0000000   0.0000000   0.2857143), wk =   0.0190476
        k(    4) = (   0.0000000   0.0000000   0.4285714), wk =   0.0190476
        k(    5) = (   0.0000000   0.1666667   0.0000000), wk =   0.0190476
        k(    6) = (   0.0000000   0.1666667   0.1428571), wk =   0.0380952
        k(    7) = (   0.0000000   0.1666667   0.2857143), wk =   0.0380952
        k(    8) = (   0.0000000   0.1666667   0.4285714), wk =   0.0380952
        k(    9) = (   0.0000000   0.3333333   0.0000000), wk =   0.0190476
        k(   10) = (   0.0000000   0.3333333   0.1428571), wk =   0.0380952
        k(   11) = (   0.0000000   0.3333333   0.2857143), wk =   0.0380952
        k(   12) = (   0.0000000   0.3333333   0.4285714), wk =   0.0380952
        k(   13) = (   0.0000000  -0.5000000   0.0000000), wk =   0.0095238
        k(   14) = (   0.0000000  -0.5000000   0.1428571), wk =   0.0190476
        k(   15) = (   0.0000000  -0.5000000   0.2857143), wk =   0.0190476
        k(   16) = (   0.0000000  -0.5000000   0.4285714), wk =   0.0190476
        k(   17) = (   0.2000000   0.0000000   0.0000000), wk =   0.0190476
        k(   18) = (   0.2000000   0.0000000   0.1428571), wk =   0.0380952
        k(   19) = (   0.2000000   0.0000000   0.2857143), wk =   0.0380952
        k(   20) = (   0.2000000   0.0000000   0.4285714), wk =   0.0380952
        k(   21) = (   0.2000000   0.1666667   0.0000000), wk =   0.0380952
        k(   22) = (   0.2000000   0.1666667   0.1428571), wk =   0.0761905
        k(   23) = (   0.2000000   0.1666667   0.2857143), wk =   0.0761905
        k(   24) = (   0.2000000   0.1666667   0.4285714), wk =   0.0761905
        k(   25) = (   0.2000000   0.3333333   0.0000000), wk =   0.0380952
        k(   26) = (   0.2000000   0.3333333   0.1428571), wk =   0.0761905
        k(   27) = (   0.2000000   0.3333333   0.2857143), wk =   0.0761905
        k(   28) = (   0.2000000   0.3333333   0.4285714), wk =   0.0761905
        k(   29) = (   0.2000000  -0.5000000   0.0000000), wk =   0.0190476
        k(   30) = (   0.2000000  -0.5000000   0.1428571), wk =   0.0380952
        k(   31) = (   0.2000000  -0.5000000   0.2857143), wk =   0.0380952
        k(   32) = (   0.2000000  -0.5000000   0.4285714), wk =   0.0380952
        k(   33) = (   0.4000000   0.0000000   0.0000000), wk =   0.0190476
        k(   34) = (   0.4000000   0.0000000   0.1428571), wk =   0.0380952
        k(   35) = (   0.4000000   0.0000000   0.2857143), wk =   0.0380952
        k(   36) = (   0.4000000   0.0000000   0.4285714), wk =   0.0380952
        k(   37) = (   0.4000000   0.1666667   0.0000000), wk =   0.0380952
        k(   38) = (   0.4000000   0.1666667   0.1428571), wk =   0.0761905
        k(   39) = (   0.4000000   0.1666667   0.2857143), wk =   0.0761905
        k(   40) = (   0.4000000   0.1666667   0.4285714), wk =   0.0761905
        k(   41) = (   0.4000000   0.3333333   0.0000000), wk =   0.0380952
        k(   42) = (   0.4000000   0.3333333   0.1428571), wk =   0.0761905
        k(   43) = (   0.4000000   0.3333333   0.2857143), wk =   0.0761905
        k(   44) = (   0.4000000   0.3333333   0.4285714), wk =   0.0761905
        k(   45) = (   0.4000000  -0.5000000   0.0000000), wk =   0.0190476
        k(   46) = (   0.4000000  -0.5000000   0.1428571), wk =   0.0380952
        k(   47) = (   0.4000000  -0.5000000   0.2857143), wk =   0.0380952
        k(   48) = (   0.4000000  -0.5000000   0.4285714), wk =   0.0380952

     Largest allocated arrays     est. size (Mb)     dimensions
     Largest temporary arrays     est. size (Mb)     dimensions

     Initial potential from superposition of free atoms

     Starting from uniform charge
     Starting wfc are    0 randomized atomic wfcs

     Self-consistent Calculation

     iteration #  1     ecut=    40.00 Ry     beta=0.70
     CG style diagonalization
     c_bands:  1 eigenvalues not converged
     c_bands:  4 eigenvalues not converged
     c_bands:  2 eigenvalues not converged
     c_bands:  3 eigenvalues not converged
     c_bands:  4 eigenvalues not converged
     c_bands:  1 eigenvalues not converged
     c_bands:  2 eigenvalues not converged
     c_bands:  4 eigenvalues not converged
     c_bands:  3 eigenvalues not converged
     c_bands:  1 eigenvalues not converged
     c_bands:  2 eigenvalues not converged
     c_bands:  2 eigenvalues not converged
     c_bands:  4 eigenvalues not converged
     c_bands:  3 eigenvalues not converged
     c_bands:  4 eigenvalues not converged
     c_bands:  1 eigenvalues not converged
     c_bands:  3 eigenvalues not converged
     c_bands:  1 eigenvalues not converged
     c_bands:  3 eigenvalues not converged
     c_bands:  3 eigenvalues not converged
     ethr =  1.00E-02,  avg # of iterations = 13.6

     total energy              =   -1650.24103123 Ry
     Harris-Foulkes estimate   =   -2102.61823294 Ry
     estimated scf accuracy    <     575.15260712 Ry

[...]

     iteration #  4     ecut=    40.00 Ry     beta=0.70
     CG style diagonalization
     ethr =  1.00E-02,  avg # of iterations =  4.1

[...]

     End of self-consistent calculation

          k = 0.0000 0.0000 0.0000 (  2601 PWs)   bands (ev):

   -38.8869 -38.7700 -38.7700 -38.1351 -38.1351 -38.1351 -11.0998 -10.9061
    -8.2860  -8.2860  -7.7635  -6.3320  -6.3320  -6.3320  -5.4608  -5.4608
    -5.4608  -5.4205  -5.4205  -5.4205  -5.1749  -5.1749  -5.1749  -4.1653
    -4.1653  -4.1653  12.9340  12.9340  12.9340  13.0450  13.0450  13.0450
    28.7210  28.7210  28.9661  29.5876  29.5876  29.5876  31.5630  31.8530
    32.6920  32.6920  32.6920  32.9820  32.9820  33.1056  33.1056  33.1056
    33.6002  36.4031  36.4031  36.4031  37.8693  37.8693  37.8693  37.8883
    37.8883  37.8883  38.0039  38.0039  38.0039  38.0869  38.0869  38.1943
    38.1943  42.0870  42.0870  42.0870  42.8119  42.8119  44.7575  44.7575
    44.7575  46.6405  46.6405  46.6405  51.6742  51.6742  51.6742  52.0426
    52.0426  52.0426  52.2447  52.3418  52.6706  52.6706  56.1200  56.1201
    56.1207  56.4767  56.4777

[...]

     the Fermi energy is    48.2592 ev

!    total energy              =   -1859.27334763 Ry
     Harris-Foulkes estimate   =   -1859.27334785 Ry
     estimated scf accuracy    <       0.00000029 Ry

     The total energy is the sum of the following terms:

     one-electron contribution =     128.68240698 Ry
     hartree contribution      =     156.21989165 Ry
     xc contribution           =    -185.48977224 Ry
     ewald contribution        =   -1958.55821006 Ry
     smearing contrib. (-TS)   =      -0.12766397 Ry

     convergence has been achieved in  10 iterations

     Forces acting on atoms (Ry/au):

     atom    1 type  1   force =     0.00000000    0.00000000    0.00000000
     atom    2 type  1   force =     0.00000000    0.00000000    0.00000000
     atom    3 type  1   force =     0.00000000    0.00000000    0.00000000
     atom    4 type  1   force =     0.00000000    0.00000000    0.00000000
     atom    5 type  1   force =     0.00000000    0.00000000    0.00000000
     atom    6 type  1   force =     0.00000000    0.00000000    0.00000000
     atom    7 type  2   force =     0.00000000    0.00000000    0.00000000
[...]

     CASE: enthalpy_new < enthalpy_old

     small trust_radius: resetting bfgs history

     new trust radius        =       0.7531587453 bohr
     new conv_thr            =       0.0000010000 Ry

[...]

          total   stress  (Ry/bohr**3)                   (kbar)     P=-1216.65
  -0.00827065   0.00000000   0.00000000      -1216.65      0.00      0.00
   0.00000000  -0.00827065   0.00000000          0.00  -1216.65      0.00
   0.00000000   0.00000000  -0.00827065          0.00      0.00  -1216.65

     number of scf cycles    =   3
     number of bfgs steps    =   2

     enthalpy old            =   -1862.9695076594 Ry
     enthalpy new            =   -1861.6970543918 Ry

     CASE: enthalpy_new > enthalpy_old

     new trust radius        =       0.2291327078 bohr

     trust_radius < trust_radius_min

     resetting bfgs history

     Message from routine bfgs:
     history already reset at previous step: stopping
     new conv_thr            =       0.0000010000 Ry

     new unit-cell volume =   1047.99840 a.u.^3 (   155.29734 Ang^3 )

[...]

ATOMIC_POSITIONS (crystal)
Cr       0.000000000   0.500000000   0.250000000
Cr       0.000000000   0.500000000   0.750000000
Cr       0.500000000   0.750000000   0.000000000
Cr       0.500000000   0.250000000   0.000000000
Cr       0.750000000   0.000000000   0.500000000
Cr       0.250000000   0.000000000   0.500000000
Si       0.500000000   0.500000000   0.500000000
Si       0.000000000   0.000000000   0.000000000

     Writing output data file Prototype-La-cP8-Cr3Si.save
     NEW-OLD atomic charge density approx. for the potential
     NEW k-points:
        k(    1) = (   0.0000000   0.0000000   0.0000000), wk =   0.0095238
        k(    2) = (   0.0000000   0.0000000   0.1200320), wk =   0.0190476
        k(    3) = (   0.0000000   0.0000000   0.2400639), wk =   0.0190476
        k(    4) = (   0.0000000   0.0000000   0.3600959), wk =   0.0190476
        k(    5) = (   0.0000000   0.1400373   0.0000000), wk =   0.0190476
        k(    6) = (   0.0000000   0.1400373   0.1200320), wk =   0.0380952
        k(    7) = (   0.0000000   0.1400373   0.2400639), wk =   0.0380952
        k(    8) = (   0.0000000   0.1400373   0.3600959), wk =   0.0380952
        k(    9) = (   0.0000000   0.2800746   0.0000000), wk =   0.0190476
        k(   10) = (   0.0000000   0.2800746   0.1200320), wk =   0.0380952
        k(   11) = (   0.0000000   0.2800746   0.2400639), wk =   0.0380952
        k(   12) = (   0.0000000   0.2800746   0.3600959), wk =   0.0380952
        k(   13) = (   0.0000000  -0.4201119   0.0000000), wk =   0.0095238
        k(   14) = (   0.0000000  -0.4201119   0.1200320), wk =   0.0190476
        k(   15) = (   0.0000000  -0.4201119   0.2400639), wk =   0.0190476
        k(   16) = (   0.0000000  -0.4201119   0.3600959), wk =   0.0190476
        k(   17) = (   0.1680447   0.0000000   0.0000000), wk =   0.0190476
        k(   18) = (   0.1680447   0.0000000   0.1200320), wk =   0.0380952
        k(   19) = (   0.1680447   0.0000000   0.2400639), wk =   0.0380952
        k(   20) = (   0.1680447   0.0000000   0.3600959), wk =   0.0380952
        k(   21) = (   0.1680447   0.1400373   0.0000000), wk =   0.0380952
        k(   22) = (   0.1680447   0.1400373   0.1200320), wk =   0.0761905
        k(   23) = (   0.1680447   0.1400373   0.2400639), wk =   0.0761905
        k(   24) = (   0.1680447   0.1400373   0.3600959), wk =   0.0761905
        k(   25) = (   0.1680447   0.2800746   0.0000000), wk =   0.0380952
        k(   26) = (   0.1680447   0.2800746   0.1200320), wk =   0.0761905
        k(   27) = (   0.1680447   0.2800746   0.2400639), wk =   0.0761905
        k(   28) = (   0.1680447   0.2800746   0.3600959), wk =   0.0761905
        k(   29) = (   0.1680447  -0.4201119   0.0000000), wk =   0.0190476
        k(   30) = (   0.1680447  -0.4201119   0.1200320), wk =   0.0380952
        k(   31) = (   0.1680447  -0.4201119   0.2400639), wk =   0.0380952
        k(   32) = (   0.1680447  -0.4201119   0.3600959), wk =   0.0380952
        k(   33) = (   0.3360895   0.0000000   0.0000000), wk =   0.0190476
        k(   34) = (   0.3360895   0.0000000   0.1200320), wk =   0.0380952
        k(   35) = (   0.3360895   0.0000000   0.2400639), wk =   0.0380952
        k(   36) = (   0.3360895   0.0000000   0.3600959), wk =   0.0380952
        k(   37) = (   0.3360895   0.1400373   0.0000000), wk =   0.0380952
        k(   38) = (   0.3360895   0.1400373   0.1200320), wk =   0.0761905
        k(   39) = (   0.3360895   0.1400373   0.2400639), wk =   0.0761905
        k(   40) = (   0.3360895   0.1400373   0.3600959), wk =   0.0761905
        k(   41) = (   0.3360895   0.2800746   0.0000000), wk =   0.0380952
        k(   42) = (   0.3360895   0.2800746   0.1200320), wk =   0.0761905
        k(   43) = (   0.3360895   0.2800746   0.2400639), wk =   0.0761905
        k(   44) = (   0.3360895   0.2800746   0.3600959), wk =   0.0761905
        k(   45) = (   0.3360895  -0.4201119   0.0000000), wk =   0.0190476
        k(   46) = (   0.3360895  -0.4201119   0.1200320), wk =   0.0380952
        k(   47) = (   0.3360895  -0.4201119   0.2400639), wk =   0.0380952
        k(   48) = (   0.3360895  -0.4201119   0.3600959), wk =   0.0380952

[...]

     The maximum number of steps has been reached.

     End of BFGS Geometry Optimization
Begin final coordinates
     new unit-cell volume =   1047.99840 a.u.^3 (   155.29734 Ang^3 )

CELL_PARAMETERS (alat=  8.53457320)
   1.190159222   0.000000000   0.000000000
   0.000000000   1.190159222   0.000000000
   0.000000000   0.000000000   1.190159222

ATOMIC_POSITIONS (crystal)
Cr       0.000000000   0.500000000   0.250000000
Cr       0.000000000   0.500000000   0.750000000
Cr       0.500000000   0.750000000   0.000000000
Cr       0.500000000   0.250000000   0.000000000
Cr       0.750000000   0.000000000   0.500000000
Cr       0.250000000   0.000000000   0.500000000
Si       0.500000000   0.500000000   0.500000000
Si       0.000000000   0.000000000   0.000000000
End final coordinates

     A final scf calculation at the relaxed structure.
     The G-vectors are recalculated for the final unit cell
     Results may differ from those at the preceding step.

     bravais-lattice index     =            0
     lattice parameter (alat)  =       8.5346  a.u.
     unit-cell volume          =    1047.9984 (a.u.)^3
     number of atoms/cell      =            8
     number of atomic types    =            2
     number of electrons       =       152.00
     number of Kohn-Sham states=           91
     kinetic-energy cutoff     =      40.0000  Ry
     charge density cutoff     =     160.0000  Ry
     convergence threshold     =      1.0E-06
     mixing beta               =       0.7000
     number of iterations used =            8  plain     mixing
     Exchange-correlation      = SLA-PZ-NOGX-NOGC ( 1 1 0 0 0)
     EXX-fraction              =        0.00

     celldm(1)=   8.534573  celldm(2)=   0.000000  celldm(3)=   0.000000
     celldm(4)=   0.000000  celldm(5)=   0.000000  celldm(6)=   0.000000

     crystal axes: (cart. coord. in units of alat)
               a(1) = (   1.190159   0.000000   0.000000 )
               a(2) = (   0.000000   1.190159   0.000000 )
               a(3) = (   0.000000   0.000000   1.190159 )

     reciprocal axes: (cart. coord. in units 2 pi/alat)
               b(1) = (  0.840224  0.000000  0.000000 )
               b(2) = (  0.000000  0.840224  0.000000 )
               b(3) = (  0.000000  0.000000  0.840224 )

     PseudoPot. # 1 for Dy read from file:
     /home/cwx6513/pp.La/Dy.UPF
     MD5 check sum: 9597327bec62616a94a14d07f3fd9936
     Pseudo is Norm-conserving, Zval = 20.0
     Generated in analytical, separable form
     Using radial grid of 1265 points,  6 beta functions with:
                l(1) =   0
                l(2) =   0
                l(3) =   1
                l(4) =   1
                l(5) =   2
                l(6) =   3

     PseudoPot. # 2 for Sm read from file:
     /home/cwx6513/pp.La/Sm.UPF
     MD5 check sum: 5079e8b144a06bfcdbc14fb02b96ab09
     Pseudo is Norm-conserving, Zval = 16.0
     Generated in analytical, separable form
     Using radial grid of 1259 points,  6 beta functions with:
                l(1) =   0
                l(2) =   0
                l(3) =   1
                l(4) =   1
                l(5) =   2
                l(6) =   3

     atomic species   valence    mass     pseudopotential
        Cr            20.00    51.99610     Dy( 1.00)
        Si            16.00    28.08550     Sm( 1.00)

     48 Sym. Ops., with inversion, found (24 have fractional translation)

   Cartesian axes

     site n.     atom                  positions (alat units)
         1           Cr  tau(   1) = (   0.0000000   0.5950796   0.2975398  )
         2           Cr  tau(   2) = (   0.0000000   0.5950796   0.8926194  )
         3           Cr  tau(   3) = (   0.5950796   0.8926194   0.0000000  )
         4           Cr  tau(   4) = (   0.5950796   0.2975398   0.0000000  )
         5           Cr  tau(   5) = (   0.8926194   0.0000000   0.5950796  )
         6           Cr  tau(   6) = (   0.2975398   0.0000000   0.5950796  )
         7           Si  tau(   7) = (   0.5950796   0.5950796   0.5950796  )
         8           Si  tau(   8) = (   0.0000000   0.0000000   0.0000000  )

     number of k points=    48  gaussian smearing, width (Ry)=  0.1000
                       cart. coord. in units 2pi/alat
        k(    1) = (   0.0000000   0.0000000   0.0000000), wk =   0.0095238
        k(    2) = (   0.0000000   0.0000000   0.1200320), wk =   0.0190476
        k(    3) = (   0.0000000   0.0000000   0.2400639), wk =   0.0190476
        k(    4) = (   0.0000000   0.0000000   0.3600959), wk =   0.0190476
        k(    5) = (   0.0000000   0.1400373   0.0000000), wk =   0.0190476
        k(    6) = (   0.0000000   0.1400373   0.1200320), wk =   0.0380952
        k(    7) = (   0.0000000   0.1400373   0.2400639), wk =   0.0380952
        k(    8) = (   0.0000000   0.1400373   0.3600959), wk =   0.0380952
        k(    9) = (   0.0000000   0.2800746   0.0000000), wk =   0.0190476
        k(   10) = (   0.0000000   0.2800746   0.1200320), wk =   0.0380952
        k(   11) = (   0.0000000   0.2800746   0.2400639), wk =   0.0380952
        k(   12) = (   0.0000000   0.2800746   0.3600959), wk =   0.0380952
        k(   13) = (   0.0000000  -0.4201119   0.0000000), wk =   0.0095238
        k(   14) = (   0.0000000  -0.4201119   0.1200320), wk =   0.0190476
        k(   15) = (   0.0000000  -0.4201119   0.2400639), wk =   0.0190476
        k(   16) = (   0.0000000  -0.4201119   0.3600959), wk =   0.0190476
        k(   17) = (   0.1680447   0.0000000   0.0000000), wk =   0.0190476
        k(   18) = (   0.1680447   0.0000000   0.1200320), wk =   0.0380952
        k(   19) = (   0.1680447   0.0000000   0.2400639), wk =   0.0380952
        k(   20) = (   0.1680447   0.0000000   0.3600959), wk =   0.0380952
        k(   21) = (   0.1680447   0.1400373   0.0000000), wk =   0.0380952
        k(   22) = (   0.1680447   0.1400373   0.1200320), wk =   0.0761905
        k(   23) = (   0.1680447   0.1400373   0.2400639), wk =   0.0761905
        k(   24) = (   0.1680447   0.1400373   0.3600959), wk =   0.0761905
        k(   25) = (   0.1680447   0.2800746   0.0000000), wk =   0.0380952
        k(   26) = (   0.1680447   0.2800746   0.1200320), wk =   0.0761905
        k(   27) = (   0.1680447   0.2800746   0.2400639), wk =   0.0761905
        k(   28) = (   0.1680447   0.2800746   0.3600959), wk =   0.0761905
        k(   29) = (   0.1680447  -0.4201119   0.0000000), wk =   0.0190476
        k(   30) = (   0.1680447  -0.4201119   0.1200320), wk =   0.0380952
        k(   31) = (   0.1680447  -0.4201119   0.2400639), wk =   0.0380952
        k(   32) = (   0.1680447  -0.4201119   0.3600959), wk =   0.0380952
        k(   33) = (   0.3360895   0.0000000   0.0000000), wk =   0.0190476
        k(   34) = (   0.3360895   0.0000000   0.1200320), wk =   0.0380952
        k(   35) = (   0.3360895   0.0000000   0.2400639), wk =   0.0380952
        k(   36) = (   0.3360895   0.0000000   0.3600959), wk =   0.0380952
        k(   37) = (   0.3360895   0.1400373   0.0000000), wk =   0.0380952
        k(   38) = (   0.3360895   0.1400373   0.1200320), wk =   0.0761905
        k(   39) = (   0.3360895   0.1400373   0.2400639), wk =   0.0761905
        k(   40) = (   0.3360895   0.1400373   0.3600959), wk =   0.0761905
        k(   41) = (   0.3360895   0.2800746   0.0000000), wk =   0.0380952
        k(   42) = (   0.3360895   0.2800746   0.1200320), wk =   0.0761905
        k(   43) = (   0.3360895   0.2800746   0.2400639), wk =   0.0761905
        k(   44) = (   0.3360895   0.2800746   0.3600959), wk =   0.0761905
        k(   45) = (   0.3360895  -0.4201119   0.0000000), wk =   0.0190476
        k(   46) = (   0.3360895  -0.4201119   0.1200320), wk =   0.0380952
        k(   47) = (   0.3360895  -0.4201119   0.2400639), wk =   0.0380952
        k(   48) = (   0.3360895  -0.4201119   0.3600959), wk =   0.0380952

     Largest allocated arrays     est. size (Mb)     dimensions
     Largest temporary arrays     est. size (Mb)     dimensions

     Initial potential from superposition of free atoms

     Starting from uniform charge
     Starting wfc are    0 randomized atomic wfcs

     Writing output data file Prototype-La-cP8-Cr3Si.save

     Self-consistent Calculation

[...]

     iteration # 10     ecut=    40.00 Ry     beta=0.70
     CG style diagonalization
     c_bands:  1 eigenvalues not converged
     ethr =  1.55E-07,  avg # of iterations =  3.6

[...]

     total energy              =   -1866.28597918 Ry
     Harris-Foulkes estimate   =   -1866.28597966 Ry
     estimated scf accuracy    <       0.00000104 Ry

     iteration # 13     ecut=    40.00 Ry     beta=0.70
     CG style diagonalization
     ethr =  6.85E-10,  avg # of iterations =  3.3

     End of self-consistent calculation

[...]

          k = 0.3361-0.4201 0.3601 (  4496 PWs)   bands (ev):

   -56.9704 -56.9667 -56.9590 -56.9587 -56.9509 -56.9477 -30.8254 -30.8253
   -24.1685 -24.1335 -24.0448 -24.0446 -23.9515 -23.9162 -23.8702 -23.8697
   -23.8353 -23.8301 -23.8215 -23.8190 -23.8133 -23.8050 -23.7953 -23.7938
   -23.7885 -23.7849  -6.1093  -6.1091  -6.1070  -6.1070  -6.1052  -6.1051
    15.9241  15.9329  15.9543  16.0206  16.0304  16.1098  16.1799  16.1909
    16.3654  16.3720  16.4517  16.4965  16.5617  16.5665  16.6650  16.6687
    17.1078  17.1096  17.1846  17.1985  17.2983  17.3130  17.6751  17.8267
    17.9829  18.0388  18.1304  18.1488  18.2418  18.2546  20.7289  20.7318
    21.2659  21.2867  21.5684  21.6403  23.8757  23.8759  24.5507  24.5658
    24.5705  24.5853  25.0523  25.1779  25.5723  25.5947  26.0204  26.1543
    31.2431  31.5370  32.3891  32.3894  33.3271  33.7206  34.1182  34.1927
    34.8527  34.9058  35.0669

     the Fermi energy is    26.0008 ev

!    total energy              =   -1866.28597938 Ry
     Harris-Foulkes estimate   =   -1866.28597939 Ry
     estimated scf accuracy    <          5.7E-09 Ry

     The total energy is the sum of the following terms:

     one-electron contribution =    -313.33864589 Ry
     hartree contribution      =     270.12813507 Ry
     xc contribution           =    -177.17610094 Ry
     ewald contribution        =   -1645.62704981 Ry
     smearing contrib. (-TS)   =      -0.27231781 Ry

     convergence has been achieved in  13 iterations

     Forces acting on atoms (Ry/au):

     atom    1 type  1   force =     0.00000000    0.00000000    0.00000000
     atom    2 type  1   force =     0.00000000    0.00000000    0.00000000
     atom    3 type  1   force =     0.00000000    0.00000000    0.00000000
     atom    4 type  1   force =     0.00000000    0.00000000    0.00000000
     atom    5 type  1   force =     0.00000000    0.00000000    0.00000000
     atom    6 type  1   force =     0.00000000    0.00000000    0.00000000
     atom    7 type  2   force =     0.00000000    0.00000000    0.00000000
     atom    8 type  2   force =     0.00000000    0.00000000    0.00000000

     Total force =     0.000000     Total SCF correction =     0.000000

     entering subroutine stress ...

          total   stress  (Ry/bohr**3)                   (kbar)     P=   71.85
   0.00048842   0.00000000   0.00000000         71.85      0.00      0.00
   0.00000000   0.00048842   0.00000000          0.00     71.85      0.00
   0.00000000   0.00000000   0.00048842          0.00      0.00     71.85

     Writing output data file Prototype-La-cP8-Cr3Si.save

     General routines

     Parallel routines

   This run was terminated on:   2:52:52  23Mar2018

   JOB DONE.