     Program PWSCF v.5.0.2 starts on 23Mar2018 at  2:19:45

     Current dimensions of program PWSCF are:
     Max number of different atomic species (ntypx) = 10
     Max number of k-points (npk) =  40000
     Max angular momentum in pseudopotentials (lmaxx) =  3
     Waiting for input...
     Reading input from standard input

     Subspace diagonalization in iterative solution of the eigenvalue problem:
     a serial algorithm will be used

     bravais-lattice index     =            0
     lattice parameter (alat)  =      12.0168  a.u.
     unit-cell volume          =    1187.3413 (a.u.)^3
     number of atoms/cell      =            8
     number of atomic types    =            2
     number of electrons       =       152.00
     number of Kohn-Sham states=           91
     kinetic-energy cutoff     =      40.0000  Ry
     charge density cutoff     =     160.0000  Ry
     convergence threshold     =      1.0E-04
     mixing beta               =       0.7000
     number of iterations used =            8  plain     mixing
     Exchange-correlation      = SLA-PZ-NOGX-NOGC ( 1 1 0 0 0)
     EXX-fraction              =        0.00
     nstep                     =           50

     celldm(1)=  12.016801  celldm(2)=   0.000000  celldm(3)=   0.000000
     celldm(4)=   0.000000  celldm(5)=   0.000000  celldm(6)=   0.000000

     crystal axes: (cart. coord. in units of alat)
               a(1) = (   1.000000   0.000000   0.000000 )
               a(2) = (  -0.500000   0.866025   0.000000 )
               a(3) = (   0.000000   0.000000   0.790093 )

     reciprocal axes: (cart. coord. in units 2 pi/alat)
               b(1) = (  1.000000  0.577350  0.000000 )
               b(2) = (  0.000000  1.154701  0.000000 )
               b(3) = (  0.000000  0.000000  1.265674 )

     PseudoPot. # 1 for Dy read from file:
     /home/cwx6513/pp.La/Dy.UPF
     MD5 check sum: 9597327bec62616a94a14d07f3fd9936
     Pseudo is Norm-conserving, Zval = 20.0
     Generated in analytical, separable form
     Using radial grid of 1265 points,  6 beta functions with:
                l(1) =   0
                l(2) =   0
                l(3) =   1
                l(4) =   1
                l(5) =   2
                l(6) =   3

     PseudoPot. # 2 for Sm read from file:
     /home/cwx6513/pp.La/Sm.UPF
     MD5 check sum: 5079e8b144a06bfcdbc14fb02b96ab09
     Pseudo is Norm-conserving, Zval = 16.0
     Generated in analytical, separable form
     Using radial grid of 1259 points,  6 beta functions with:
                l(1) =   0
                l(2) =   0
                l(3) =   1
                l(4) =   1
                l(5) =   2
                l(6) =   3

     atomic species   valence    mass     pseudopotential
        Mg            20.00    24.30500     Dy( 1.00)
        Cd            16.00   112.41100     Sm( 1.00)

     24 Sym. Ops., with inversion, found (12 have fractional translation)

   Cartesian axes

     site n.     atom                  positions (alat units)
         1           Mg  tau(   1) = (   0.2478935   0.7204716   0.1975233  )
         2           Mg  tau(   2) = (   0.7478935   0.1455538   0.5925699  )
         3           Mg  tau(   3) = (   0.2521065   0.1455538   0.5925699  )
         4           Mg  tau(   4) = (  -0.2478935   0.7204716   0.1975233  )
         5           Mg  tau(   5) = (   0.0000000   0.2911075   0.1975233  )
         6           Mg  tau(   6) = (   0.5000000   0.5749179   0.5925699  )
         7           Cd  tau(   7) = (   0.5000005   0.2886748   0.1975233  )
         8           Cd  tau(   8) = (  -0.0000005   0.5773506   0.5925699  )

     number of k points=    64  gaussian smearing, width (Ry)=  0.1000
                       cart. coord. in units 2pi/alat
        k(    1) = (   0.0000000   0.0000000   0.0000000), wk =   0.0095238
        k(    2) = (   0.0000000   0.0000000   0.1808105), wk =   0.0190476
        k(    3) = (   0.0000000   0.0000000   0.3616210), wk =   0.0190476
        k(    4) = (   0.0000000   0.0000000   0.5424315), wk =   0.0190476
        k(    5) = (   0.0000000   0.1924501   0.0000000), wk =   0.0190476
        k(    6) = (   0.0000000   0.1924501   0.1808105), wk =   0.0380952
        k(    7) = (   0.0000000   0.1924501   0.3616210), wk =   0.0380952
        k(    8) = (   0.0000000   0.1924501   0.5424315), wk =   0.0380952
        k(    9) = (   0.0000000   0.3849002   0.0000000), wk =   0.0190476
        k(   10) = (   0.0000000   0.3849002   0.1808105), wk =   0.0380952
        k(   11) = (   0.0000000   0.3849002   0.3616210), wk =   0.0380952
        k(   12) = (   0.0000000   0.3849002   0.5424315), wk =   0.0380952
        k(   13) = (   0.0000000  -0.5773503   0.0000000), wk =   0.0095238
        k(   14) = (   0.0000000  -0.5773503   0.1808105), wk =   0.0190476
        k(   15) = (   0.0000000  -0.5773503   0.3616210), wk =   0.0190476
        k(   16) = (   0.0000000  -0.5773503   0.5424315), wk =   0.0190476
        k(   17) = (   0.2000000   0.1154701   0.0000000), wk =   0.0190476
        k(   18) = (   0.2000000   0.1154701   0.1808105), wk =   0.0380952
        k(   19) = (   0.2000000   0.1154701   0.3616210), wk =   0.0380952
        k(   20) = (   0.2000000   0.1154701   0.5424315), wk =   0.0380952
        k(   21) = (   0.2000000   0.3079201   0.0000000), wk =   0.0190476
        k(   22) = (   0.2000000   0.3079201   0.1808105), wk =   0.0380952
        k(   23) = (   0.2000000   0.3079201   0.3616210), wk =   0.0380952
        k(   24) = (   0.2000000   0.3079201   0.5424315), wk =   0.0380952
        k(   25) = (   0.2000000   0.5003702   0.0000000), wk =   0.0190476
        k(   26) = (   0.2000000   0.5003702   0.1808105), wk =   0.0380952
        k(   27) = (   0.2000000   0.5003702   0.3616210), wk =   0.0380952
        k(   28) = (   0.2000000   0.5003702   0.5424315), wk =   0.0380952
        k(   29) = (   0.2000000  -0.4618802   0.0000000), wk =   0.0190476
        k(   30) = (   0.2000000  -0.4618802   0.1808105), wk =   0.0380952
        k(   31) = (   0.2000000  -0.4618802   0.3616210), wk =   0.0380952
        k(   32) = (   0.2000000  -0.4618802   0.5424315), wk =   0.0380952
        k(   33) = (   0.2000000  -0.2694301   0.0000000), wk =   0.0190476
        k(   34) = (   0.2000000  -0.2694301   0.1808105), wk =   0.0380952
        k(   35) = (   0.2000000  -0.2694301   0.3616210), wk =   0.0380952
        k(   36) = (   0.2000000  -0.2694301   0.5424315), wk =   0.0380952
        k(   37) = (   0.2000000  -0.0769800   0.0000000), wk =   0.0190476
        k(   38) = (   0.2000000  -0.0769800   0.1808105), wk =   0.0380952
        k(   39) = (   0.2000000  -0.0769800   0.3616210), wk =   0.0380952
        k(   40) = (   0.2000000  -0.0769800   0.5424315), wk =   0.0380952
        k(   41) = (   0.4000000   0.2309401   0.0000000), wk =   0.0190476
        k(   42) = (   0.4000000   0.2309401   0.1808105), wk =   0.0380952
        k(   43) = (   0.4000000   0.2309401   0.3616210), wk =   0.0380952
        k(   44) = (   0.4000000   0.2309401   0.5424315), wk =   0.0380952
        k(   45) = (   0.4000000   0.4233902   0.0000000), wk =   0.0190476
        k(   46) = (   0.4000000   0.4233902   0.1808105), wk =   0.0380952
        k(   47) = (   0.4000000   0.4233902   0.3616210), wk =   0.0380952
        k(   48) = (   0.4000000   0.4233902   0.5424315), wk =   0.0380952
        k(   49) = (   0.4000000   0.6158403   0.0000000), wk =   0.0190476
        k(   50) = (   0.4000000   0.6158403   0.1808105), wk =   0.0380952
        k(   51) = (   0.4000000   0.6158403   0.3616210), wk =   0.0380952
        k(   52) = (   0.4000000   0.6158403   0.5424315), wk =   0.0380952
        k(   53) = (   0.4000000  -0.3464102   0.0000000), wk =   0.0190476
        k(   54) = (   0.4000000  -0.3464102   0.1808105), wk =   0.0380952
        k(   55) = (   0.4000000  -0.3464102   0.3616210), wk =   0.0380952
        k(   56) = (   0.4000000  -0.3464102   0.5424315), wk =   0.0380952
        k(   57) = (   0.4000000  -0.1539601   0.0000000), wk =   0.0190476
        k(   58) = (   0.4000000  -0.1539601   0.1808105), wk =   0.0380952
        k(   59) = (   0.4000000  -0.1539601   0.3616210), wk =   0.0380952
        k(   60) = (   0.4000000  -0.1539601   0.5424315), wk =   0.0380952
        k(   61) = (   0.4000000   0.0384900   0.0000000), wk =   0.0190476
        k(   62) = (   0.4000000   0.0384900   0.1808105), wk =   0.0380952
        k(   63) = (   0.4000000   0.0384900   0.3616210), wk =   0.0380952
        k(   64) = (   0.4000000   0.0384900   0.5424315), wk =   0.0380952

     Largest allocated arrays     est. size (Mb)     dimensions
     Largest temporary arrays     est. size (Mb)     dimensions

     Initial potential from superposition of free atoms

     Starting from uniform charge
     Starting wfc are    0 randomized atomic wfcs

     Self-consistent Calculation

     iteration #  1     ecut=    40.00 Ry     beta=0.70
     CG style diagonalization
     c_bands:  4 eigenvalues not converged
     c_bands:  4 eigenvalues not converged
     c_bands:  4 eigenvalues not converged
     c_bands:  5 eigenvalues not converged
     c_bands:  1 eigenvalues not converged
     c_bands:  4 eigenvalues not converged
     c_bands:  1 eigenvalues not converged
     c_bands:  5 eigenvalues not converged
     c_bands:  5 eigenvalues not converged
     c_bands:  2 eigenvalues not converged
     c_bands:  5 eigenvalues not converged
     c_bands:  5 eigenvalues not converged
     c_bands:  1 eigenvalues not converged
     c_bands:  1 eigenvalues not converged
     c_bands:  3 eigenvalues not converged
     c_bands:  5 eigenvalues not converged
     c_bands:  3 eigenvalues not converged
     c_bands:  3 eigenvalues not converged
     c_bands:  4 eigenvalues not converged
     c_bands:  5 eigenvalues not converged
     c_bands:  3 eigenvalues not converged
     c_bands:  3 eigenvalues not converged
     c_bands:  5 eigenvalues not converged
     c_bands:  4 eigenvalues not converged
     c_bands:  3 eigenvalues not converged
     c_bands:  2 eigenvalues not converged
     c_bands:  5 eigenvalues not converged
     c_bands:  2 eigenvalues not converged
     c_bands:  1 eigenvalues not converged
     c_bands:  4 eigenvalues not converged
     c_bands:  2 eigenvalues not converged
     c_bands:  4 eigenvalues not converged
     c_bands:  5 eigenvalues not converged
     c_bands:  1 eigenvalues not converged
     c_bands:  3 eigenvalues not converged
     c_bands:  3 eigenvalues not converged
     ethr =  1.00E-02,  avg # of iterations = 14.3

     total energy              =   -1566.85020791 Ry
     Harris-Foulkes estimate   =   -2337.62796822 Ry
     estimated scf accuracy    <     971.40123674 Ry

     iteration #  2     ecut=    40.00 Ry     beta=0.70
     CG style diagonalization
     ethr =  1.00E-02,  avg # of iterations = 10.9

[...]

     End of self-consistent calculation

          k = 0.0000 0.0000 0.0000 (  5047 PWs)   bands (ev):

   -60.1960 -60.1924 -60.1913 -60.1912 -60.1861 -60.1860 -34.5351 -34.5343
   -27.2342 -27.2298 -27.1925 -27.1484 -27.1484 -27.1246 -27.1246 -27.1101
[...]
        k(   12) = (   0.0000000   0.3912495   0.5424334), wk =   0.0380952
        k(   13) = (   0.0000000  -0.5868743   0.0000000), wk =   0.0095238
        k(   14) = (   0.0000000  -0.5868743   0.1808111), wk =   0.0190476
        k(   15) = (   0.0000000  -0.5868743   0.3616223), wk =   0.0190476
        k(   16) = (   0.0000000  -0.5868743   0.5424334), wk =   0.0190476
        k(   17) = (   0.2032992   0.1173749   0.0000000), wk =   0.0190476
        k(   18) = (   0.2032992   0.1173749   0.1808111), wk =   0.0380952
        k(   19) = (   0.2032992   0.1173749   0.3616223), wk =   0.0380952
        k(   20) = (   0.2032992   0.1173749   0.5424334), wk =   0.0380952
        k(   21) = (   0.2032992   0.3129996   0.0000000), wk =   0.0190476
        k(   22) = (   0.2032992   0.3129996   0.1808111), wk =   0.0380952
        k(   23) = (   0.2032992   0.3129996   0.3616223), wk =   0.0380952
        k(   24) = (   0.2032992   0.3129996   0.5424334), wk =   0.0380952
        k(   25) = (   0.2032992   0.5086244   0.0000000), wk =   0.0190476
        k(   26) = (   0.2032992   0.5086244   0.1808111), wk =   0.0380952
        k(   27) = (   0.2032992   0.5086244   0.3616223), wk =   0.0380952
        k(   28) = (   0.2032992   0.5086244   0.5424334), wk =   0.0380952
        k(   29) = (   0.2032992  -0.4694994   0.0000000), wk =   0.0190476
        k(   30) = (   0.2032992  -0.4694994   0.1808111), wk =   0.0380952
        k(   31) = (   0.2032992  -0.4694994   0.3616223), wk =   0.0380952
        k(   32) = (   0.2032992  -0.4694994   0.5424334), wk =   0.0380952
        k(   33) = (   0.2032992  -0.2738747   0.0000000), wk =   0.0190476
        k(   34) = (   0.2032992  -0.2738747   0.1808111), wk =   0.0380952
        k(   35) = (   0.2032992  -0.2738747   0.3616223), wk =   0.0380952
        k(   36) = (   0.2032992  -0.2738747   0.5424334), wk =   0.0380952
        k(   37) = (   0.2032992  -0.0782499   0.0000000), wk =   0.0190476
        k(   38) = (   0.2032992  -0.0782499   0.1808111), wk =   0.0380952
        k(   39) = (   0.2032992  -0.0782499   0.3616223), wk =   0.0380952
        k(   40) = (   0.2032992  -0.0782499   0.5424334), wk =   0.0380952
        k(   41) = (   0.4065984   0.2347497   0.0000000), wk =   0.0190476
        k(   42) = (   0.4065984   0.2347497   0.1808111), wk =   0.0380952
        k(   43) = (   0.4065984   0.2347497   0.3616223), wk =   0.0380952
        k(   44) = (   0.4065984   0.2347497   0.5424334), wk =   0.0380952
        k(   45) = (   0.4065984   0.4303745   0.0000000), wk =   0.0190476
        k(   46) = (   0.4065984   0.4303745   0.1808111), wk =   0.0380952
        k(   47) = (   0.4065984   0.4303745   0.3616223), wk =   0.0380952
        k(   48) = (   0.4065984   0.4303745   0.5424334), wk =   0.0380952
        k(   49) = (   0.4065984   0.6259992   0.0000000), wk =   0.0190476
        k(   50) = (   0.4065984   0.6259992   0.1808111), wk =   0.0380952
        k(   51) = (   0.4065984   0.6259992   0.3616223), wk =   0.0380952
        k(   52) = (   0.4065984   0.6259992   0.5424334), wk =   0.0380952
        k(   53) = (   0.4065984  -0.3521246   0.0000000), wk =   0.0190476
        k(   54) = (   0.4065984  -0.3521246   0.1808111), wk =   0.0380952
        k(   55) = (   0.4065984  -0.3521246   0.3616223), wk =   0.0380952
        k(   56) = (   0.4065984  -0.3521246   0.5424334), wk =   0.0380952
        k(   57) = (   0.4065984  -0.1564998   0.0000000), wk =   0.0190476
        k(   58) = (   0.4065984  -0.1564998   0.1808111), wk =   0.0380952
        k(   59) = (   0.4065984  -0.1564998   0.3616223), wk =   0.0380952
        k(   60) = (   0.4065984  -0.1564998   0.5424334), wk =   0.0380952
        k(   61) = (   0.4065984   0.0391250   0.0000000), wk =   0.0190476
        k(   62) = (   0.4065984   0.0391250   0.1808111), wk =   0.0380952
        k(   63) = (   0.4065984   0.0391250   0.3616223), wk =   0.0380952
        k(   64) = (   0.4065984   0.0391250   0.5424334), wk =   0.0380952

[...]

     The maximum number of steps has been reached.

     End of BFGS Geometry Optimization
Begin final coordinates
     new unit-cell volume =   1149.11289 a.u.^3 (   170.28096 Ang^3 )

CELL_PARAMETERS (alat= 12.01680127)
   0.983771682   0.000000000   0.000000000
  -0.491885841   0.851971268   0.000000000
   0.000000000   0.000000000   0.790090418

ATOMIC_POSITIONS (crystal)
Mg       0.664957883   0.832478941   0.250000000
Mg       0.832478941   0.167521059   0.750000000
Mg       0.335042117   0.167521059   0.750000000
Mg       0.167521059   0.832478941   0.250000000
Mg       0.167521059   0.335042117   0.250000000
Mg       0.832478941   0.664957883   0.750000000
Cd       0.666667000   0.333333000   0.250000000
Cd       0.333333000   0.666667000   0.750000000
End final coordinates

     A final scf calculation at the relaxed structure.
     The G-vectors are recalculated for the final unit cell
     Results may differ from those at the preceding step.

     bravais-lattice index     =            0
     lattice parameter (alat)  =      12.0168  a.u.
     unit-cell volume          =    1149.1129 (a.u.)^3
     number of atoms/cell      =            8
     number of atomic types    =            2
     number of electrons       =       152.00
     number of Kohn-Sham states=           91
     kinetic-energy cutoff     =      40.0000  Ry
     charge density cutoff     =     160.0000  Ry
     convergence threshold     =      4.1E-05
     mixing beta               =       0.7000
     number of iterations used =            8  plain     mixing
     Exchange-correlation      = SLA-PZ-NOGX-NOGC ( 1 1 0 0 0)
     EXX-fraction              =        0.00

     celldm(1)=  12.016801  celldm(2)=   0.000000  celldm(3)=   0.000000
     celldm(4)=   0.000000  celldm(5)=   0.000000  celldm(6)=   0.000000

     crystal axes: (cart. coord. in units of alat)
               a(1) = (   0.983772   0.000000   0.000000 )
               a(2) = (  -0.491886   0.851971   0.000000 )
               a(3) = (   0.000000   0.000000   0.790090 )

     reciprocal axes: (cart. coord. in units 2 pi/alat)
               b(1) = (  1.016496  0.586874  0.000000 )
               b(2) = (  0.000000  1.173749  0.000000 )
               b(3) = (  0.000000  0.000000  1.265678 )

     PseudoPot. # 1 for Dy read from file:
     /home/cwx6513/pp.La/Dy.UPF
     MD5 check sum: 9597327bec62616a94a14d07f3fd9936
     Pseudo is Norm-conserving, Zval = 20.0
     Generated in analytical, separable form
     Using radial grid of 1265 points,  6 beta functions with:
                l(1) =   0
                l(2) =   0
                l(3) =   1
                l(4) =   1
                l(5) =   2
                l(6) =   3

     PseudoPot. # 2 for Sm read from file:
     /home/cwx6513/pp.La/Sm.UPF
     MD5 check sum: 5079e8b144a06bfcdbc14fb02b96ab09
     Pseudo is Norm-conserving, Zval = 16.0
     Generated in analytical, separable form
     Using radial grid of 1259 points,  6 beta functions with:
                l(1) =   0
                l(2) =   0
                l(3) =   1
                l(4) =   1
                l(5) =   2
                l(6) =   3

     atomic species   valence    mass     pseudopotential
        Mg            20.00    24.30500     Dy( 1.00)
        Cd            16.00   112.41100     Sm( 1.00)

     24 Sym. Ops., with inversion, found (12 have fractional translation)

   Cartesian axes

     site n.     atom                  positions (alat units)
         1           Mg  tau(   1) = (   0.2446821   0.7092481   0.1975226  )
         2           Mg  tau(   2) = (   0.7365680   0.1427231   0.5925678  )
         3           Mg  tau(   3) = (   0.2472037   0.1427231   0.5925678  )
         4           Mg  tau(   4) = (  -0.2446821   0.7092481   0.1975226  )
         5           Mg  tau(   5) = (   0.0000000   0.2854463   0.1975226  )
         6           Mg  tau(   6) = (   0.4918858   0.5665250   0.5925678  )
         7           Cd  tau(   7) = (   0.4918863   0.2839901   0.1975226  )
         8           Cd  tau(   8) = (  -0.0000005   0.5679811   0.5925678  )

     number of k points=    64  gaussian smearing, width (Ry)=  0.1000
                       cart. coord. in units 2pi/alat
        k(    1) = (   0.0000000   0.0000000   0.0000000), wk =   0.0095238
        k(    2) = (   0.0000000   0.0000000   0.1808111), wk =   0.0190476
        k(    3) = (   0.0000000   0.0000000   0.3616223), wk =   0.0190476
        k(    4) = (   0.0000000   0.0000000   0.5424334), wk =   0.0190476
        k(    5) = (   0.0000000   0.1956248   0.0000000), wk =   0.0190476
        k(    6) = (   0.0000000   0.1956248   0.1808111), wk =   0.0380952
        k(    7) = (   0.0000000   0.1956248   0.3616223), wk =   0.0380952
        k(    8) = (   0.0000000   0.1956248   0.5424334), wk =   0.0380952
        k(    9) = (   0.0000000   0.3912495   0.0000000), wk =   0.0190476
        k(   10) = (   0.0000000   0.3912495   0.1808111), wk =   0.0380952
        k(   11) = (   0.0000000   0.3912495   0.3616223), wk =   0.0380952
        k(   12) = (   0.0000000   0.3912495   0.5424334), wk =   0.0380952
        k(   13) = (   0.0000000  -0.5868743   0.0000000), wk =   0.0095238
        k(   14) = (   0.0000000  -0.5868743   0.1808111), wk =   0.0190476
        k(   15) = (   0.0000000  -0.5868743   0.3616223), wk =   0.0190476
        k(   16) = (   0.0000000  -0.5868743   0.5424334), wk =   0.0190476
        k(   17) = (   0.2032992   0.1173749   0.0000000), wk =   0.0190476
        k(   18) = (   0.2032992   0.1173749   0.1808111), wk =   0.0380952
        k(   19) = (   0.2032992   0.1173749   0.3616223), wk =   0.0380952
        k(   20) = (   0.2032992   0.1173749   0.5424334), wk =   0.0380952
        k(   21) = (   0.2032992   0.3129996   0.0000000), wk =   0.0190476
        k(   22) = (   0.2032992   0.3129996   0.1808111), wk =   0.0380952
        k(   23) = (   0.2032992   0.3129996   0.3616223), wk =   0.0380952
        k(   24) = (   0.2032992   0.3129996   0.5424334), wk =   0.0380952
        k(   25) = (   0.2032992   0.5086244   0.0000000), wk =   0.0190476
        k(   26) = (   0.2032992   0.5086244   0.1808111), wk =   0.0380952
        k(   27) = (   0.2032992   0.5086244   0.3616223), wk =   0.0380952
        k(   28) = (   0.2032992   0.5086244   0.5424334), wk =   0.0380952
        k(   29) = (   0.2032992  -0.4694994   0.0000000), wk =   0.0190476
        k(   30) = (   0.2032992  -0.4694994   0.1808111), wk =   0.0380952
        k(   31) = (   0.2032992  -0.4694994   0.3616223), wk =   0.0380952
        k(   32) = (   0.2032992  -0.4694994   0.5424334), wk =   0.0380952
        k(   33) = (   0.2032992  -0.2738747   0.0000000), wk =   0.0190476
        k(   34) = (   0.2032992  -0.2738747   0.1808111), wk =   0.0380952
        k(   35) = (   0.2032992  -0.2738747   0.3616223), wk =   0.0380952
        k(   36) = (   0.2032992  -0.2738747   0.5424334), wk =   0.0380952
        k(   37) = (   0.2032992  -0.0782499   0.0000000), wk =   0.0190476
        k(   38) = (   0.2032992  -0.0782499   0.1808111), wk =   0.0380952
        k(   39) = (   0.2032992  -0.0782499   0.3616223), wk =   0.0380952
        k(   40) = (   0.2032992  -0.0782499   0.5424334), wk =   0.0380952
        k(   41) = (   0.4065984   0.2347497   0.0000000), wk =   0.0190476
        k(   42) = (   0.4065984   0.2347497   0.1808111), wk =   0.0380952
        k(   43) = (   0.4065984   0.2347497   0.3616223), wk =   0.0380952
        k(   44) = (   0.4065984   0.2347497   0.5424334), wk =   0.0380952
        k(   45) = (   0.4065984   0.4303745   0.0000000), wk =   0.0190476
        k(   46) = (   0.4065984   0.4303745   0.1808111), wk =   0.0380952
        k(   47) = (   0.4065984   0.4303745   0.3616223), wk =   0.0380952
        k(   48) = (   0.4065984   0.4303745   0.5424334), wk =   0.0380952
        k(   49) = (   0.4065984   0.6259992   0.0000000), wk =   0.0190476
        k(   50) = (   0.4065984   0.6259992   0.1808111), wk =   0.0380952
        k(   51) = (   0.4065984   0.6259992   0.3616223), wk =   0.0380952
        k(   52) = (   0.4065984   0.6259992   0.5424334), wk =   0.0380952
        k(   53) = (   0.4065984  -0.3521246   0.0000000), wk =   0.0190476
        k(   54) = (   0.4065984  -0.3521246   0.1808111), wk =   0.0380952
        k(   55) = (   0.4065984  -0.3521246   0.3616223), wk =   0.0380952
        k(   56) = (   0.4065984  -0.3521246   0.5424334), wk =   0.0380952
        k(   57) = (   0.4065984  -0.1564998   0.0000000), wk =   0.0190476
        k(   58) = (   0.4065984  -0.1564998   0.1808111), wk =   0.0380952
        k(   59) = (   0.4065984  -0.1564998   0.3616223), wk =   0.0380952
        k(   60) = (   0.4065984  -0.1564998   0.5424334), wk =   0.0380952
        k(   61) = (   0.4065984   0.0391250   0.0000000), wk =   0.0190476
        k(   62) = (   0.4065984   0.0391250   0.1808111), wk =   0.0380952
        k(   63) = (   0.4065984   0.0391250   0.3616223), wk =   0.0380952
        k(   64) = (   0.4065984   0.0391250   0.5424334), wk =   0.0380952

     Largest allocated arrays     est. size (Mb)     dimensions
     Largest temporary arrays     est. size (Mb)     dimensions

     Initial potential from superposition of free atoms

     Starting from uniform charge
     Starting wfc are    0 randomized atomic wfcs

     Writing output data file Prototype-La-hP8-Mg3Cd.save

     Self-consistent Calculation

[...]

     iteration #  8     ecut=    40.00 Ry     beta=0.70
     CG style diagonalization
     ethr =  5.77E-04,  avg # of iterations =  3.4

[...]

     total energy              =   -1866.74794253 Ry
     Harris-Foulkes estimate   =   -1866.74910604 Ry
     estimated scf accuracy    <       0.00289896 Ry

     iteration # 11     ecut=    40.00 Ry     beta=0.70
     CG style diagonalization
     c_bands:  1 eigenvalues not converged
     ethr =  1.91E-06,  avg # of iterations =  3.3

     End of self-consistent calculation

[...]

          k = 0.4066 0.0391 0.5424 (  4903 PWs)   bands (ev):

   -59.3784 -59.3774 -59.3757 -59.3751 -59.3734 -59.3715 -33.6118 -33.6117
   -26.4125 -26.4084 -26.3663 -26.3610 -26.3496 -26.3382 -26.2909 -26.2757
   -26.2633 -26.2482 -26.2418 -26.2287 -26.2083 -26.2070 -26.1951 -26.1927
   -26.1780 -26.1713  -8.8172  -8.8167  -8.8121  -8.8101  -8.8033  -8.8015
    13.4001  13.4243  13.6295  13.6384  13.7111  13.7856  13.8790  13.9081
    13.9439  13.9881  14.2196  14.3706  14.5999  14.6790  14.7576  14.8582
    14.9023  15.0604  15.1463  15.3216  15.3845  15.4228  15.5583  15.6297
    15.6809  15.7060  16.0824  16.1190  16.4639  16.5728  16.6899  17.4848
    18.5058  19.1993  19.4107  19.9135  20.8019  20.9370  21.1144  21.2343
    21.8894  22.0714  22.2792  22.4762  22.9132  23.1504  24.5750  24.8186
    26.5923  26.9304  28.2514  29.0370  29.2989  29.4636  30.4230  30.5274
    31.2948  31.4449  31.9086

     the Fermi energy is    23.2603 ev

!    total energy              =   -1866.74852826 Ry
     Harris-Foulkes estimate   =   -1866.74854331 Ry
     estimated scf accuracy    <       0.00001645 Ry

     The total energy is the sum of the following terms:

     one-electron contribution =    -380.84855154 Ry
     hartree contribution      =     289.76560669 Ry
     xc contribution           =    -176.15073866 Ry
     ewald contribution        =   -1599.25362378 Ry
     smearing contrib. (-TS)   =      -0.26122097 Ry

     convergence has been achieved in  11 iterations

     Forces acting on atoms (Ry/au):

     atom    1 type  1   force =    -0.02583156   -0.01491386    0.00000000
     atom    2 type  1   force =    -0.02583156    0.01491386    0.00000000
     atom    3 type  1   force =     0.02583156    0.01491386    0.00000000
     atom    4 type  1   force =     0.02583156   -0.01491386    0.00000000
     atom    5 type  1   force =     0.00000000    0.02982772    0.00000000
     atom    6 type  1   force =     0.00000000   -0.02982772    0.00000000
     atom    7 type  2   force =     0.00000000    0.00000000    0.00000000
     atom    8 type  2   force =     0.00000000    0.00000000    0.00000000

     Total force =     0.073063     Total SCF correction =     0.000000

     entering subroutine stress ...

          total   stress  (Ry/bohr**3)                   (kbar)     P= -203.84
  -0.00144403   0.00000000   0.00000000       -212.42      0.00      0.00
   0.00000000  -0.00144403   0.00000000          0.00   -212.42      0.00
   0.00000000   0.00000000  -0.00126892          0.00      0.00   -186.66

     Writing output data file Prototype-La-hP8-Mg3Cd.save

     General routines

     Parallel routines

   This run was terminated on:   3:15:48  23Mar2018

   JOB DONE.