     Program PWSCF v.5.0.2 starts on 23Mar2018 at  2:18:14

     Current dimensions of program PWSCF are:
     Max number of different atomic species (ntypx) = 10
     Max number of k-points (npk) =  40000
     Max angular momentum in pseudopotentials (lmaxx) =  3
     Waiting for input...
     Reading input from standard input

     Subspace diagonalization in iterative solution of the eigenvalue problem:
     a serial algorithm will be used

     bravais-lattice index     =            0
     lattice parameter (alat)  =       8.5346  a.u.
     unit-cell volume          =     621.6493 (a.u.)^3
     number of atoms/cell      =            8
     number of atomic types    =            2
     number of electrons       =       162.00
     number of Kohn-Sham states=           97
     kinetic-energy cutoff     =      40.0000  Ry
     charge density cutoff     =     160.0000  Ry
     convergence threshold     =      1.0E-04
     mixing beta               =       0.7000
     number of iterations used =            8  plain     mixing
     Exchange-correlation      = SLA-PZ-NOGX-NOGC ( 1 1 0 0 0)
     EXX-fraction              =        0.00
     nstep                     =           50

     celldm(1)=   8.534573  celldm(2)=   0.000000  celldm(3)=   0.000000
     celldm(4)=   0.000000  celldm(5)=   0.000000  celldm(6)=   0.000000

     crystal axes: (cart. coord. in units of alat)
               a(1) = (   1.000000   0.000000   0.000000 )
               a(2) = (   0.000000   1.000000   0.000000 )
               a(3) = (   0.000000   0.000000   1.000000 )

     reciprocal axes: (cart. coord. in units 2 pi/alat)
               b(1) = (  1.000000  0.000000  0.000000 )
               b(2) = (  0.000000  1.000000  0.000000 )
               b(3) = (  0.000000  0.000000  1.000000 )

     PseudoPot. # 1 for Dy read from file:
     /home/cwx6513/pp.La/Dy.UPF
     MD5 check sum: 9597327bec62616a94a14d07f3fd9936
     Pseudo is Norm-conserving, Zval = 20.0
     Generated in analytical, separable form
     Using radial grid of 1265 points,  6 beta functions with:
                l(1) =   0
                l(2) =   0
                l(3) =   1
                l(4) =   1
                l(5) =   2
                l(6) =   3

     PseudoPot. # 2 for Ho read from file:
     /home/cwx6513/pp.La/Ho.UPF
     MD5 check sum: f307ee11bce99f5b724fa279e3790763
     Pseudo is Norm-conserving, Zval = 21.0
     Generated in analytical, separable form
     Using radial grid of 1265 points,  6 beta functions with:
                l(1) =   0
                l(2) =   0
                l(3) =   1
                l(4) =   1
                l(5) =   2
                l(6) =   3

     atomic species   valence    mass     pseudopotential
        Cr            20.00    51.99610     Dy( 1.00)
        Si            21.00    28.08550     Ho( 1.00)

     48 Sym. Ops., with inversion, found (24 have fractional translation)

   Cartesian axes

     site n.     atom                  positions (alat units)
         1           Cr  tau(   1) = (   0.0000000   0.5000000   0.2500000  )
         2           Cr  tau(   2) = (   0.0000000   0.5000000   0.7500000  )
         3           Cr  tau(   3) = (   0.5000000   0.7500000   0.0000000  )
         4           Cr  tau(   4) = (   0.5000000   0.2500000   0.0000000  )
         5           Cr  tau(   5) = (   0.7500000   0.0000000   0.5000000  )
         6           Cr  tau(   6) = (   0.2500000   0.0000000   0.5000000  )
         7           Si  tau(   7) = (   0.5000000   0.5000000   0.5000000  )
         8           Si  tau(   8) = (   0.0000000   0.0000000   0.0000000  )

     number of k points=    48  gaussian smearing, width (Ry)=  0.1000
                       cart. coord. in units 2pi/alat
        k(    1) = (   0.0000000   0.0000000   0.0000000), wk =   0.0095238
        k(    2) = (   0.0000000   0.0000000   0.1428571), wk =   0.0190476
        k(    3) = (   0.0000000   0.0000000   0.2857143), wk =   0.0190476
        k(    4) = (   0.0000000   0.0000000   0.4285714), wk =   0.0190476
        k(    5) = (   0.0000000   0.1666667   0.0000000), wk =   0.0190476
        k(    6) = (   0.0000000   0.1666667   0.1428571), wk =   0.0380952
        k(    7) = (   0.0000000   0.1666667   0.2857143), wk =   0.0380952
        k(    8) = (   0.0000000   0.1666667   0.4285714), wk =   0.0380952
        k(    9) = (   0.0000000   0.3333333   0.0000000), wk =   0.0190476
        k(   10) = (   0.0000000   0.3333333   0.1428571), wk =   0.0380952
        k(   11) = (   0.0000000   0.3333333   0.2857143), wk =   0.0380952
        k(   12) = (   0.0000000   0.3333333   0.4285714), wk =   0.0380952
        k(   13) = (   0.0000000  -0.5000000   0.0000000), wk =   0.0095238
        k(   14) = (   0.0000000  -0.5000000   0.1428571), wk =   0.0190476
        k(   15) = (   0.0000000  -0.5000000   0.2857143), wk =   0.0190476
        k(   16) = (   0.0000000  -0.5000000   0.4285714), wk =   0.0190476
        k(   17) = (   0.2000000   0.0000000   0.0000000), wk =   0.0190476
        k(   18) = (   0.2000000   0.0000000   0.1428571), wk =   0.0380952
        k(   19) = (   0.2000000   0.0000000   0.2857143), wk =   0.0380952
        k(   20) = (   0.2000000   0.0000000   0.4285714), wk =   0.0380952
        k(   21) = (   0.2000000   0.1666667   0.0000000), wk =   0.0380952
        k(   22) = (   0.2000000   0.1666667   0.1428571), wk =   0.0761905
        k(   23) = (   0.2000000   0.1666667   0.2857143), wk =   0.0761905
        k(   24) = (   0.2000000   0.1666667   0.4285714), wk =   0.0761905
        k(   25) = (   0.2000000   0.3333333   0.0000000), wk =   0.0380952
        k(   26) = (   0.2000000   0.3333333   0.1428571), wk =   0.0761905
        k(   27) = (   0.2000000   0.3333333   0.2857143), wk =   0.0761905
        k(   28) = (   0.2000000   0.3333333   0.4285714), wk =   0.0761905
        k(   29) = (   0.2000000  -0.5000000   0.0000000), wk =   0.0190476
        k(   30) = (   0.2000000  -0.5000000   0.1428571), wk =   0.0380952
        k(   31) = (   0.2000000  -0.5000000   0.2857143), wk =   0.0380952
        k(   32) = (   0.2000000  -0.5000000   0.4285714), wk =   0.0380952
        k(   33) = (   0.4000000   0.0000000   0.0000000), wk =   0.0190476
        k(   34) = (   0.4000000   0.0000000   0.1428571), wk =   0.0380952
        k(   35) = (   0.4000000   0.0000000   0.2857143), wk =   0.0380952
        k(   36) = (   0.4000000   0.0000000   0.4285714), wk =   0.0380952
        k(   37) = (   0.4000000   0.1666667   0.0000000), wk =   0.0380952
        k(   38) = (   0.4000000   0.1666667   0.1428571), wk =   0.0761905
        k(   39) = (   0.4000000   0.1666667   0.2857143), wk =   0.0761905
        k(   40) = (   0.4000000   0.1666667   0.4285714), wk =   0.0761905
        k(   41) = (   0.4000000   0.3333333   0.0000000), wk =   0.0380952
        k(   42) = (   0.4000000   0.3333333   0.1428571), wk =   0.0761905
        k(   43) = (   0.4000000   0.3333333   0.2857143), wk =   0.0761905
        k(   44) = (   0.4000000   0.3333333   0.4285714), wk =   0.0761905
        k(   45) = (   0.4000000  -0.5000000   0.0000000), wk =   0.0190476
        k(   46) = (   0.4000000  -0.5000000   0.1428571), wk =   0.0380952
        k(   47) = (   0.4000000  -0.5000000   0.2857143), wk =   0.0380952
        k(   48) = (   0.4000000  -0.5000000   0.4285714), wk =   0.0380952

     Largest allocated arrays     est. size (Mb)     dimensions
     Largest temporary arrays     est. size (Mb)     dimensions

     Initial potential from superposition of free atoms

     Starting from uniform charge
     Starting wfc are    0 randomized atomic wfcs

     Self-consistent Calculation

     iteration #  1     ecut=    40.00 Ry     beta=0.70
     CG style diagonalization
     c_bands:  5 eigenvalues not converged
     c_bands:  4 eigenvalues not converged
     c_bands:  5 eigenvalues not converged
     c_bands:  4 eigenvalues not converged
     c_bands:  5 eigenvalues not converged
     c_bands:  5 eigenvalues not converged
     c_bands:  5 eigenvalues not converged
     c_bands:  3 eigenvalues not converged
     c_bands:  2 eigenvalues not converged
     c_bands:  5 eigenvalues not converged
     c_bands:  4 eigenvalues not converged
     ethr =  1.00E-02,  avg # of iterations = 14.9

     total energy              =   -1954.85320660 Ry
     Harris-Foulkes estimate   =   -2418.76911824 Ry
     estimated scf accuracy    <     597.75932038 Ry

[...]

     iteration #  3     ecut=    40.00 Ry     beta=0.70
     CG style diagonalization
     ethr =  1.00E-02,  avg # of iterations =  7.4

[...]

     End of self-consistent calculation

          k = 0.0000 0.0000 0.0000 (  2601 PWs)   bands (ev):

   -45.4054 -45.3786 -37.2268 -37.1272 -37.1272 -36.4908 -36.4908 -36.4908
   -10.0510 -10.0510 -10.0510  -9.9728  -9.9728  -9.9728  -6.6719  -6.6719
    -6.3544  -4.5233  -4.5233  -4.5233  -3.8285  -3.8285  -3.8285  -3.7483
    -3.7483  -3.7483  -3.5760  -3.5760  -3.5760  -2.5214  -2.5214  -2.5214
    29.2599  29.2599  30.4348  30.6959  30.6959  30.6959  30.7150  31.2443
    31.2443  31.2443  32.0020  32.0020  32.1961  32.5431  32.5431  32.6276
    32.6276  32.6276  32.9499  33.0161  33.0161  33.0161  36.7752  36.7752
    36.7752  37.3536  37.3536  37.7631  37.7631  37.7631  37.9250  37.9250
    37.9250  39.7292  39.7292  40.7135  40.7135  40.7135  41.4190  41.4190
    41.4190  46.3421  46.3421  46.3421  48.5229  48.5229  49.2723  49.5412
    52.2856  52.2856  52.2856  53.1295  53.1295  53.1295  54.6120  54.6120
    54.6121  55.2162  55.2163  55.2164  55.2610  55.2610  55.2608  55.5935
    56.8211

[...]

     the Fermi energy is    51.6656 ev

!    total energy              =   -2141.45097748 Ry
     Harris-Foulkes estimate   =   -2141.45098851 Ry
     estimated scf accuracy    <       0.00001228 Ry

     The total energy is the sum of the following terms:

     one-electron contribution =      89.05472912 Ry
     hartree contribution      =     189.89510410 Ry
     xc contribution           =    -204.34988461 Ry
     ewald contribution        =   -2215.85029264 Ry
     smearing contrib. (-TS)   =      -0.20063345 Ry

     convergence has been achieved in   8 iterations

     Forces acting on atoms (Ry/au):

     atom    1 type  1   force =     0.00000000    0.00000000    0.00000000
     atom    2 type  1   force =     0.00000000    0.00000000    0.00000000
     atom    3 type  1   force =     0.00000000    0.00000000    0.00000000
     atom    4 type  1   force =     0.00000000    0.00000000    0.00000000
     atom    5 type  1   force =     0.00000000    0.00000000    0.00000000
     atom    6 type  1   force =     0.00000000    0.00000000    0.00000000
     atom    7 type  2   force =     0.00000000    0.00000000    0.00000000
     atom    8 type  2   force =     0.00000000    0.00000000    0.00000000

     Total force =     0.000000     Total SCF correction =     0.000000

     entering subroutine stress ...

          total   stress  (Ry/bohr**3)                   (kbar)     P= 5738.98
   0.03901283   0.00000000   0.00000000       5738.98      0.00      0.00
[...]
   0.00000000  -0.01024815   0.00000000          0.00  -1507.56      0.00
   0.00000000   0.00000000  -0.01024815          0.00      0.00  -1507.56

     number of scf cycles    =   3
     number of bfgs steps    =   2

     enthalpy old            =   -2145.5401740510 Ry
     enthalpy new            =   -2143.4763878274 Ry

     CASE: enthalpy_new > enthalpy_old

     new trust radius        =       0.2584669606 bohr

     trust_radius < trust_radius_min

     resetting bfgs history

     Message from routine bfgs:
     history already reset at previous step: stopping
     new conv_thr            =       0.0000010000 Ry

     new unit-cell volume =   1045.46426 a.u.^3 (   154.92182 Ang^3 )

[...]

ATOMIC_POSITIONS (crystal)
Cr       0.000000000   0.500000000   0.250000000
Cr       0.000000000   0.500000000   0.750000000
Cr       0.500000000   0.750000000   0.000000000
Cr       0.500000000   0.250000000   0.000000000
Cr       0.750000000   0.000000000   0.500000000
Cr       0.250000000   0.000000000   0.500000000
Si       0.500000000   0.500000000   0.500000000
Si       0.000000000   0.000000000   0.000000000

     Writing output data file Prototype-La-cP8-Cr3Si.save
     NEW-OLD atomic charge density approx. for the potential
     NEW k-points:
        k(    1) = (   0.0000000   0.0000000   0.0000000), wk =   0.0095238
        k(    2) = (   0.0000000   0.0000000   0.1201289), wk =   0.0190476
        k(    3) = (   0.0000000   0.0000000   0.2402577), wk =   0.0190476
        k(    4) = (   0.0000000   0.0000000   0.3603866), wk =   0.0190476
        k(    5) = (   0.0000000   0.1401503   0.0000000), wk =   0.0190476
        k(    6) = (   0.0000000   0.1401503   0.1201289), wk =   0.0380952
        k(    7) = (   0.0000000   0.1401503   0.2402577), wk =   0.0380952
        k(    8) = (   0.0000000   0.1401503   0.3603866), wk =   0.0380952
        k(    9) = (   0.0000000   0.2803007   0.0000000), wk =   0.0190476
        k(   10) = (   0.0000000   0.2803007   0.1201289), wk =   0.0380952
        k(   11) = (   0.0000000   0.2803007   0.2402577), wk =   0.0380952
        k(   12) = (   0.0000000   0.2803007   0.3603866), wk =   0.0380952
        k(   13) = (   0.0000000  -0.4204510   0.0000000), wk =   0.0095238
        k(   14) = (   0.0000000  -0.4204510   0.1201289), wk =   0.0190476
        k(   15) = (   0.0000000  -0.4204510   0.2402577), wk =   0.0190476
        k(   16) = (   0.0000000  -0.4204510   0.3603866), wk =   0.0190476
        k(   17) = (   0.1681804   0.0000000   0.0000000), wk =   0.0190476
        k(   18) = (   0.1681804   0.0000000   0.1201289), wk =   0.0380952
        k(   19) = (   0.1681804   0.0000000   0.2402577), wk =   0.0380952
        k(   20) = (   0.1681804   0.0000000   0.3603866), wk =   0.0380952
        k(   21) = (   0.1681804   0.1401503   0.0000000), wk =   0.0380952
        k(   22) = (   0.1681804   0.1401503   0.1201289), wk =   0.0761905
        k(   23) = (   0.1681804   0.1401503   0.2402577), wk =   0.0761905
        k(   24) = (   0.1681804   0.1401503   0.3603866), wk =   0.0761905
        k(   25) = (   0.1681804   0.2803007   0.0000000), wk =   0.0380952
        k(   26) = (   0.1681804   0.2803007   0.1201289), wk =   0.0761905
        k(   27) = (   0.1681804   0.2803007   0.2402577), wk =   0.0761905
        k(   28) = (   0.1681804   0.2803007   0.3603866), wk =   0.0761905
        k(   29) = (   0.1681804  -0.4204510   0.0000000), wk =   0.0190476
        k(   30) = (   0.1681804  -0.4204510   0.1201289), wk =   0.0380952
        k(   31) = (   0.1681804  -0.4204510   0.2402577), wk =   0.0380952
        k(   32) = (   0.1681804  -0.4204510   0.3603866), wk =   0.0380952
        k(   33) = (   0.3363608   0.0000000   0.0000000), wk =   0.0190476
        k(   34) = (   0.3363608   0.0000000   0.1201289), wk =   0.0380952
        k(   35) = (   0.3363608   0.0000000   0.2402577), wk =   0.0380952
        k(   36) = (   0.3363608   0.0000000   0.3603866), wk =   0.0380952
        k(   37) = (   0.3363608   0.1401503   0.0000000), wk =   0.0380952
        k(   38) = (   0.3363608   0.1401503   0.1201289), wk =   0.0761905
        k(   39) = (   0.3363608   0.1401503   0.2402577), wk =   0.0761905
        k(   40) = (   0.3363608   0.1401503   0.3603866), wk =   0.0761905
        k(   41) = (   0.3363608   0.2803007   0.0000000), wk =   0.0380952
        k(   42) = (   0.3363608   0.2803007   0.1201289), wk =   0.0761905
        k(   43) = (   0.3363608   0.2803007   0.2402577), wk =   0.0761905
        k(   44) = (   0.3363608   0.2803007   0.3603866), wk =   0.0761905
        k(   45) = (   0.3363608  -0.4204510   0.0000000), wk =   0.0190476
        k(   46) = (   0.3363608  -0.4204510   0.1201289), wk =   0.0380952
        k(   47) = (   0.3363608  -0.4204510   0.2402577), wk =   0.0380952
        k(   48) = (   0.3363608  -0.4204510   0.3603866), wk =   0.0380952

[...]

     The maximum number of steps has been reached.

     End of BFGS Geometry Optimization
Begin final coordinates
     new unit-cell volume =   1045.46426 a.u.^3 (   154.92182 Ang^3 )

CELL_PARAMETERS (alat=  8.53457320)
   1.189199150   0.000000000   0.000000000
   0.000000000   1.189199150   0.000000000
   0.000000000   0.000000000   1.189199150

ATOMIC_POSITIONS (crystal)
Cr       0.000000000   0.500000000   0.250000000
Cr       0.000000000   0.500000000   0.750000000
Cr       0.500000000   0.750000000   0.000000000
Cr       0.500000000   0.250000000   0.000000000
Cr       0.750000000   0.000000000   0.500000000
Cr       0.250000000   0.000000000   0.500000000
Si       0.500000000   0.500000000   0.500000000
Si       0.000000000   0.000000000   0.000000000
End final coordinates

     A final scf calculation at the relaxed structure.
     The G-vectors are recalculated for the final unit cell
     Results may differ from those at the preceding step.

     bravais-lattice index     =            0
     lattice parameter (alat)  =       8.5346  a.u.
     unit-cell volume          =    1045.4643 (a.u.)^3
     number of atoms/cell      =            8
     number of atomic types    =            2
     number of electrons       =       162.00
     number of Kohn-Sham states=           97
     kinetic-energy cutoff     =      40.0000  Ry
     charge density cutoff     =     160.0000  Ry
     convergence threshold     =      1.0E-06
     mixing beta               =       0.7000
     number of iterations used =            8  plain     mixing
     Exchange-correlation      = SLA-PZ-NOGX-NOGC ( 1 1 0 0 0)
     EXX-fraction              =        0.00

     celldm(1)=   8.534573  celldm(2)=   0.000000  celldm(3)=   0.000000
     celldm(4)=   0.000000  celldm(5)=   0.000000  celldm(6)=   0.000000

     crystal axes: (cart. coord. in units of alat)
               a(1) = (   1.189199   0.000000   0.000000 )
               a(2) = (   0.000000   1.189199   0.000000 )
               a(3) = (   0.000000   0.000000   1.189199 )

     reciprocal axes: (cart. coord. in units 2 pi/alat)
               b(1) = (  0.840902  0.000000  0.000000 )
               b(2) = (  0.000000  0.840902  0.000000 )
               b(3) = (  0.000000  0.000000  0.840902 )

     PseudoPot. # 1 for Dy read from file:
     /home/cwx6513/pp.La/Dy.UPF
     MD5 check sum: 9597327bec62616a94a14d07f3fd9936
     Pseudo is Norm-conserving, Zval = 20.0
     Generated in analytical, separable form
     Using radial grid of 1265 points,  6 beta functions with:
                l(1) =   0
                l(2) =   0
                l(3) =   1
                l(4) =   1
                l(5) =   2
                l(6) =   3

     PseudoPot. # 2 for Ho read from file:
     /home/cwx6513/pp.La/Ho.UPF
     MD5 check sum: f307ee11bce99f5b724fa279e3790763
     Pseudo is Norm-conserving, Zval = 21.0
     Generated in analytical, separable form
     Using radial grid of 1265 points,  6 beta functions with:
                l(1) =   0
                l(2) =   0
                l(3) =   1
                l(4) =   1
                l(5) =   2
                l(6) =   3

     atomic species   valence    mass     pseudopotential
        Cr            20.00    51.99610     Dy( 1.00)
        Si            21.00    28.08550     Ho( 1.00)

     48 Sym. Ops., with inversion, found (24 have fractional translation)

   Cartesian axes

     site n.     atom                  positions (alat units)
         1           Cr  tau(   1) = (   0.0000000   0.5945996   0.2972998  )
         2           Cr  tau(   2) = (   0.0000000   0.5945996   0.8918994  )
         3           Cr  tau(   3) = (   0.5945996   0.8918994   0.0000000  )
         4           Cr  tau(   4) = (   0.5945996   0.2972998   0.0000000  )
         5           Cr  tau(   5) = (   0.8918994   0.0000000   0.5945996  )
         6           Cr  tau(   6) = (   0.2972998   0.0000000   0.5945996  )
         7           Si  tau(   7) = (   0.5945996   0.5945996   0.5945996  )
         8           Si  tau(   8) = (   0.0000000   0.0000000   0.0000000  )

     number of k points=    48  gaussian smearing, width (Ry)=  0.1000
                       cart. coord. in units 2pi/alat
        k(    1) = (   0.0000000   0.0000000   0.0000000), wk =   0.0095238
        k(    2) = (   0.0000000   0.0000000   0.1201289), wk =   0.0190476
        k(    3) = (   0.0000000   0.0000000   0.2402577), wk =   0.0190476
        k(    4) = (   0.0000000   0.0000000   0.3603866), wk =   0.0190476
        k(    5) = (   0.0000000   0.1401503   0.0000000), wk =   0.0190476
        k(    6) = (   0.0000000   0.1401503   0.1201289), wk =   0.0380952
        k(    7) = (   0.0000000   0.1401503   0.2402577), wk =   0.0380952
        k(    8) = (   0.0000000   0.1401503   0.3603866), wk =   0.0380952
        k(    9) = (   0.0000000   0.2803007   0.0000000), wk =   0.0190476
        k(   10) = (   0.0000000   0.2803007   0.1201289), wk =   0.0380952
        k(   11) = (   0.0000000   0.2803007   0.2402577), wk =   0.0380952
        k(   12) = (   0.0000000   0.2803007   0.3603866), wk =   0.0380952
        k(   13) = (   0.0000000  -0.4204510   0.0000000), wk =   0.0095238
        k(   14) = (   0.0000000  -0.4204510   0.1201289), wk =   0.0190476
        k(   15) = (   0.0000000  -0.4204510   0.2402577), wk =   0.0190476
        k(   16) = (   0.0000000  -0.4204510   0.3603866), wk =   0.0190476
        k(   17) = (   0.1681804   0.0000000   0.0000000), wk =   0.0190476
        k(   18) = (   0.1681804   0.0000000   0.1201289), wk =   0.0380952
        k(   19) = (   0.1681804   0.0000000   0.2402577), wk =   0.0380952
        k(   20) = (   0.1681804   0.0000000   0.3603866), wk =   0.0380952
        k(   21) = (   0.1681804   0.1401503   0.0000000), wk =   0.0380952
        k(   22) = (   0.1681804   0.1401503   0.1201289), wk =   0.0761905
        k(   23) = (   0.1681804   0.1401503   0.2402577), wk =   0.0761905
        k(   24) = (   0.1681804   0.1401503   0.3603866), wk =   0.0761905
        k(   25) = (   0.1681804   0.2803007   0.0000000), wk =   0.0380952
        k(   26) = (   0.1681804   0.2803007   0.1201289), wk =   0.0761905
        k(   27) = (   0.1681804   0.2803007   0.2402577), wk =   0.0761905
        k(   28) = (   0.1681804   0.2803007   0.3603866), wk =   0.0761905
        k(   29) = (   0.1681804  -0.4204510   0.0000000), wk =   0.0190476
        k(   30) = (   0.1681804  -0.4204510   0.1201289), wk =   0.0380952
        k(   31) = (   0.1681804  -0.4204510   0.2402577), wk =   0.0380952
        k(   32) = (   0.1681804  -0.4204510   0.3603866), wk =   0.0380952
        k(   33) = (   0.3363608   0.0000000   0.0000000), wk =   0.0190476
        k(   34) = (   0.3363608   0.0000000   0.1201289), wk =   0.0380952
        k(   35) = (   0.3363608   0.0000000   0.2402577), wk =   0.0380952
        k(   36) = (   0.3363608   0.0000000   0.3603866), wk =   0.0380952
        k(   37) = (   0.3363608   0.1401503   0.0000000), wk =   0.0380952
        k(   38) = (   0.3363608   0.1401503   0.1201289), wk =   0.0761905
        k(   39) = (   0.3363608   0.1401503   0.2402577), wk =   0.0761905
        k(   40) = (   0.3363608   0.1401503   0.3603866), wk =   0.0761905
        k(   41) = (   0.3363608   0.2803007   0.0000000), wk =   0.0380952
        k(   42) = (   0.3363608   0.2803007   0.1201289), wk =   0.0761905
        k(   43) = (   0.3363608   0.2803007   0.2402577), wk =   0.0761905
        k(   44) = (   0.3363608   0.2803007   0.3603866), wk =   0.0761905
        k(   45) = (   0.3363608  -0.4204510   0.0000000), wk =   0.0190476
        k(   46) = (   0.3363608  -0.4204510   0.1201289), wk =   0.0380952
        k(   47) = (   0.3363608  -0.4204510   0.2402577), wk =   0.0380952
        k(   48) = (   0.3363608  -0.4204510   0.3603866), wk =   0.0380952

     Largest allocated arrays     est. size (Mb)     dimensions
     Largest temporary arrays     est. size (Mb)     dimensions

     Initial potential from superposition of free atoms

     Starting from uniform charge
     Starting wfc are    0 randomized atomic wfcs

     Writing output data file Prototype-La-cP8-Cr3Si.save

     Self-consistent Calculation

[...]

     iteration #  8     ecut=    40.00 Ry     beta=0.70
     CG style diagonalization
     c_bands:  1 eigenvalues not converged
     c_bands:  1 eigenvalues not converged
     c_bands:  1 eigenvalues not converged
     c_bands:  1 eigenvalues not converged
     c_bands:  1 eigenvalues not converged
     c_bands:  1 eigenvalues not converged
     c_bands:  1 eigenvalues not converged
     c_bands:  1 eigenvalues not converged
     ethr =  3.13E-06,  avg # of iterations =  3.7

[...]

     total energy              =   -2149.87701568 Ry
     Harris-Foulkes estimate   =   -2149.87703569 Ry
     estimated scf accuracy    <       0.00003110 Ry

     iteration # 11     ecut=    40.00 Ry     beta=0.70
     CG style diagonalization
     ethr =  1.92E-08,  avg # of iterations =  3.8

     End of self-consistent calculation

[...]

          k = 0.3364-0.4205 0.3604 (  4484 PWs)   bands (ev):

   -64.7786 -64.7785 -55.8572 -55.8530 -55.8450 -55.8450 -55.8367 -55.8328
   -28.9482 -28.9482 -28.9426 -28.9425 -28.9391 -28.9391 -23.0450 -23.0134
   -22.9248 -22.9240 -22.8298 -22.7997 -22.7995 -22.7983 -22.7555 -22.7492
   -22.7428 -22.7377 -22.7292 -22.7247 -22.7183 -22.7123 -22.7073 -22.7066
    14.2936  14.2936  14.3242  14.3365  14.3476  14.3647  14.4030  14.4043
    14.4316  14.4321  16.5892  16.5904  17.0064  17.1325  17.1940  17.2481
    17.4073  17.4361  17.7522  17.7532  17.8350  17.8666  18.0525  18.0554
    18.0574  18.0771  18.2022  18.2442  18.6225  18.6995  18.7694  18.8138
    18.8363  18.9188  19.2263  19.2632  19.3580  19.3794  19.4363  19.4750
    21.0454  21.0713  21.8866  22.0997  22.2486  22.5027  23.3186  23.3666
    31.3223  31.3271  31.8529  32.1954  32.5480  32.8228  33.6372  33.6725
    33.8450  33.8847  34.2105  34.2943  34.3681  34.3907  34.8097  34.8761
    35.0323

     the Fermi energy is    28.2917 ev

!    total energy              =   -2149.87702540 Ry
     Harris-Foulkes estimate   =   -2149.87702608 Ry
     estimated scf accuracy    <       0.00000075 Ry

     The total energy is the sum of the following terms:

     one-electron contribution =    -416.46617209 Ry
     hartree contribution      =     326.38621606 Ry
     xc contribution           =    -196.30895950 Ry
     ewald contribution        =   -1863.31304768 Ry
     smearing contrib. (-TS)   =      -0.17506219 Ry

     convergence has been achieved in  11 iterations

     Forces acting on atoms (Ry/au):

     atom    1 type  1   force =     0.00000000    0.00000000    0.00000000
     atom    2 type  1   force =     0.00000000    0.00000000    0.00000000
     atom    3 type  1   force =     0.00000000    0.00000000    0.00000000
     atom    4 type  1   force =     0.00000000    0.00000000    0.00000000
     atom    5 type  1   force =     0.00000000    0.00000000    0.00000000
     atom    6 type  1   force =     0.00000000    0.00000000    0.00000000
     atom    7 type  2   force =     0.00000000    0.00000000    0.00000000
     atom    8 type  2   force =     0.00000000    0.00000000    0.00000000

     Total force =     0.000000     Total SCF correction =     0.000000

     entering subroutine stress ...

          total   stress  (Ry/bohr**3)                   (kbar)     P=  175.93
   0.00119594   0.00000000   0.00000000        175.93      0.00      0.00
   0.00000000   0.00119594   0.00000000          0.00    175.93      0.00
   0.00000000   0.00000000   0.00119594          0.00      0.00    175.93

     Writing output data file Prototype-La-cP8-Cr3Si.save

     General routines

     Parallel routines

   This run was terminated on:   2:48: 0  23Mar2018

   JOB DONE.