     Program PWSCF v.5.0.2 starts on 22Mar2018 at 17:34:39

     Current dimensions of program PWSCF are:
     Max number of different atomic species (ntypx) = 10
     Max number of k-points (npk) =  40000
     Max angular momentum in pseudopotentials (lmaxx) =  3
     Waiting for input...
     Reading input from standard input

     Subspace diagonalization in iterative solution of the eigenvalue problem:
     a serial algorithm will be used

     bravais-lattice index     =            0
     lattice parameter (alat)  =      13.3930  a.u.
     unit-cell volume          =    1134.0956 (a.u.)^3
     number of atoms/cell      =            4
     number of atomic types    =            2
     number of electrons       =        74.00
     number of Kohn-Sham states=           44
     kinetic-energy cutoff     =      40.0000  Ry
     charge density cutoff     =     160.0000  Ry
     convergence threshold     =      1.0E-04
     mixing beta               =       0.7000
     number of iterations used =            8  plain     mixing
     Exchange-correlation      = SLA-PZ-NOGX-NOGC ( 1 1 0 0 0)
     EXX-fraction              =        0.00
     nstep                     =           50

     celldm(1)=  13.392972  celldm(2)=   0.000000  celldm(3)=   0.000000
     celldm(4)=   0.000000  celldm(5)=   0.000000  celldm(6)=   0.000000

     crystal axes: (cart. coord. in units of alat)
               a(1) = (   1.000000   0.000000   0.000000 )
               a(2) = (  -0.776311   0.630350   0.000000 )
               a(3) = (   0.000000   0.000000   0.748922 )

     reciprocal axes: (cart. coord. in units 2 pi/alat)
               b(1) = (  1.000000  1.231554  0.000000 )
               b(2) = (  0.000000  1.586419  0.000000 )
               b(3) = (  0.000000  0.000000  1.335252 )

     PseudoPot. # 1 for Tb read from file:
     /home/jld5415/pp.La/Tb.UPF
     MD5 check sum: 3d6088a3f0cf7fd2e110c43f7f8e95c2
     Pseudo is Norm-conserving, Zval = 19.0
     Generated in analytical, separable form
     Using radial grid of 1263 points,  6 beta functions with:
                l(1) =   0
                l(2) =   0
                l(3) =   1
                l(4) =   1
                l(5) =   2
                l(6) =   3

     PseudoPot. # 2 for Gd read from file:
     /home/jld5415/pp.La/Gd.UPF
     MD5 check sum: 09a8be538722f05520810cb6aac0efd2
     Pseudo is Norm-conserving, Zval = 18.0
     Generated in analytical, separable form
     Using radial grid of 1263 points,  6 beta functions with:
                l(1) =   0
                l(2) =   0
                l(3) =   1
                l(4) =   1
                l(5) =   2
                l(6) =   3

     atomic species   valence    mass     pseudopotential
        Tl            19.00   204.38300     Tb( 1.00)
        I             18.00   126.90400     Gd( 1.00)

      2 Sym. Ops., with inversion, found
          (note:  2 additional sym.ops. were found but ignored
           their fractional translations are incommensurate with FFT grid)

   Cartesian axes

     site n.     atom                  positions (alat units)
         1           Tl  tau(   1) = (  -0.0906317   0.3870269   0.5616917  )
         2           Tl  tau(   2) = (   0.3143210   0.2433234   0.1872306  )
         3           I   tau(   3) = (  -0.5408004   0.5467760   0.5616917  )
         4           I   tau(   4) = (   0.7644896   0.0835744   0.1872306  )

     number of k points=   106  gaussian smearing, width (Ry)=  0.1000

     Number of k-points >= 100: set verbosity='high' to print them.

     Largest allocated arrays     est. size (Mb)     dimensions
     Largest temporary arrays     est. size (Mb)     dimensions

     Initial potential from superposition of free atoms

     Starting from uniform charge
     Starting wfc are    0 randomized atomic wfcs

     Self-consistent Calculation

     iteration #  1     ecut=    40.00 Ry     beta=0.70
     CG style diagonalization
     ethr =  1.00E-02,  avg # of iterations = 17.9

     total energy              =    -789.10305419 Ry
     Harris-Foulkes estimate   =   -1158.30454968 Ry
     estimated scf accuracy    <     472.07193974 Ry

[...]

     iteration #  8     ecut=    40.00 Ry     beta=0.70
     CG style diagonalization
     c_bands:  1 eigenvalues not converged
     ethr =  1.20E-05,  avg # of iterations =  3.6

[...]

     End of self-consistent calculation

     Number of k-points >= 100: set verbosity='high' to print the bands.

     the Fermi energy is     7.8915 ev

!    total energy              =    -861.26557135 Ry
     Harris-Foulkes estimate   =    -861.26562748 Ry
     estimated scf accuracy    <       0.00006322 Ry

     The total energy is the sum of the following terms:

     one-electron contribution =    -398.55414105 Ry
     hartree contribution      =     215.82237720 Ry
     xc contribution           =     -82.53490637 Ry
     ewald contribution        =    -595.75367291 Ry
     smearing contrib. (-TS)   =      -0.24522822 Ry

     convergence has been achieved in  11 iterations

     Forces acting on atoms (Ry/au):

     atom    1 type  1   force =    -0.02850861    0.00973701   -0.00002235
     atom    2 type  1   force =     0.02850861   -0.00973701    0.00002235
     atom    3 type  2   force =     0.02889443   -0.01085157   -0.00008264
     atom    4 type  2   force =    -0.02889443    0.01085157    0.00008264

     Total force =     0.060995     Total SCF correction =     0.000000

     entering subroutine stress ...

          total   stress  (Ry/bohr**3)                   (kbar)     P= -365.63
  -0.00246630  -0.00000170  -0.00000002       -362.80     -0.25      0.00
  -0.00000170  -0.00247059  -0.00000008         -0.25   -363.44     -0.01
  -0.00000002  -0.00000008  -0.00251969          0.00     -0.01   -370.66

     BFGS Geometry Optimization

     number of scf cycles    =   1
     number of bfgs steps    =   0

     enthalpy new            =    -861.2655713476 Ry

     new trust radius        =       0.4242691553 bohr
     new conv_thr            =       0.0001000000 Ry

     new unit-cell volume =    935.54797 a.u.^3 (   138.63390 Ang^3 )

CELL_PARAMETERS (alat= 13.39297219)
   0.938342584  -0.000042608  -0.000000448
  -0.728472293   0.591450073  -0.000000975
  -0.000000336  -0.000001572   0.701745980

ATOMIC_POSITIONS (crystal)
Tl       0.384779745   0.615140365   0.749997772
Tl       0.615220255   0.384859635   0.250002228
I        0.133743573   0.866130614   0.749991761
I        0.866256427   0.133869386   0.250008239

     Writing output data file Prototype-La-oS8-TlI.save
     NEW-OLD atomic charge density approx. for the potential
     NEW k-points: (use verbosity='high' to print them)

[...]

     enthalpy old            =    -861.2655713476 Ry
     enthalpy new            =    -861.7197329865 Ry

     CASE: enthalpy_new < enthalpy_old

     small trust_radius: resetting bfgs history

[...]

     number of scf cycles    =   3
     number of bfgs steps    =   2

     enthalpy old            =    -861.7197329865 Ry
     enthalpy new            =    -861.9478869510 Ry

     CASE: enthalpy_new < enthalpy_old

     Message from routine bfgs:
     history already reset at previous step: stopping
     small trust_radius: resetting bfgs history

     new trust radius        =       0.2178885820 bohr
     new conv_thr            =       0.0000274949 Ry

     new unit-cell volume =    720.02882 a.u.^3 (   106.69726 Ang^3 )

[...]

ATOMIC_POSITIONS (crystal)
Tl       0.386403369   0.613515014   0.749978086
Tl       0.613596631   0.386484986   0.250021914
I        0.132141078   0.867717629   0.749976593
I        0.867858922   0.132282371   0.250023407

     Writing output data file Prototype-La-oS8-TlI.save
     NEW-OLD atomic charge density approx. for the potential
     NEW k-points: (use verbosity='high' to print them)

[...]

     The maximum number of steps has been reached.

     End of BFGS Geometry Optimization
Begin final coordinates
     new unit-cell volume =    720.02882 a.u.^3 (   106.69726 Ang^3 )

CELL_PARAMETERS (alat= 13.39297219)
   0.861445952  -0.000984223  -0.000001018
  -0.669370157   0.542245058   0.000000116
  -0.000000759  -0.000000801   0.642552023

ATOMIC_POSITIONS (crystal)
Tl       0.386403369   0.613515014   0.749978086
Tl       0.613596631   0.386484986   0.250021914
I        0.132141078   0.867717629   0.749976593
I        0.867858922   0.132282371   0.250023407
End final coordinates

     A final scf calculation at the relaxed structure.
     The G-vectors are recalculated for the final unit cell
     Results may differ from those at the preceding step.

     bravais-lattice index     =            0
     lattice parameter (alat)  =      13.3930  a.u.
     unit-cell volume          =     720.0288 (a.u.)^3
     number of atoms/cell      =            4
     number of atomic types    =            2
     number of electrons       =        74.00
     number of Kohn-Sham states=           44
     kinetic-energy cutoff     =      40.0000  Ry
     charge density cutoff     =     160.0000  Ry
     convergence threshold     =      2.7E-05
     mixing beta               =       0.7000
     number of iterations used =            8  plain     mixing
     Exchange-correlation      = SLA-PZ-NOGX-NOGC ( 1 1 0 0 0)
     EXX-fraction              =        0.00

     celldm(1)=  13.392972  celldm(2)=   0.000000  celldm(3)=   0.000000
     celldm(4)=   0.000000  celldm(5)=   0.000000  celldm(6)=   0.000000

     crystal axes: (cart. coord. in units of alat)
               a(1) = (   0.861446  -0.000984  -0.000001 )
               a(2) = (  -0.669370   0.542245   0.000000 )
               a(3) = (  -0.000001  -0.000001   0.642552 )

     reciprocal axes: (cart. coord. in units 2 pi/alat)
               b(1) = (  1.162478  1.435012  0.000003 )
               b(2) = (  0.002110  1.846789  0.000002 )
               b(3) = (  0.000002  0.000002  1.556294 )

     PseudoPot. # 1 for Tb read from file:
     /home/jld5415/pp.La/Tb.UPF
     MD5 check sum: 3d6088a3f0cf7fd2e110c43f7f8e95c2
     Pseudo is Norm-conserving, Zval = 19.0
     Generated in analytical, separable form
     Using radial grid of 1263 points,  6 beta functions with:
                l(1) =   0
                l(2) =   0
                l(3) =   1
                l(4) =   1
                l(5) =   2
                l(6) =   3

     PseudoPot. # 2 for Gd read from file:
     /home/jld5415/pp.La/Gd.UPF
     MD5 check sum: 09a8be538722f05520810cb6aac0efd2
     Pseudo is Norm-conserving, Zval = 18.0
     Generated in analytical, separable form
     Using radial grid of 1263 points,  6 beta functions with:
                l(1) =   0
                l(2) =   0
                l(3) =   1
                l(4) =   1
                l(5) =   2
                l(6) =   3

     atomic species   valence    mass     pseudopotential
        Tl            19.00   204.38300     Tb( 1.00)
        I             18.00   126.90400     Gd( 1.00)

      2 Sym. Ops., with inversion, found
          (note:  2 additional sym.ops. were found but ignored
           their fractional translations are incommensurate with FFT grid)

   Cartesian axes

     site n.     atom                  positions (alat units)
         1           Tl  tau(   1) = (  -0.0778036   0.3322946   0.4818996  )
         2           Tl  tau(   2) = (   0.2698786   0.2089655   0.1606515  )
         3           I   tau(   3) = (  -0.4669925   0.4703849   0.4818989  )
         4           I   tau(   4) = (   0.6590675   0.0708751   0.1606522  )

     number of k points=   106  gaussian smearing, width (Ry)=  0.1000

     Number of k-points >= 100: set verbosity='high' to print them.

     Largest allocated arrays     est. size (Mb)     dimensions
     Largest temporary arrays     est. size (Mb)     dimensions

     Initial potential from superposition of free atoms

     Starting from uniform charge
     Starting wfc are    0 randomized atomic wfcs

     Writing output data file Prototype-La-oS8-TlI.save

     Self-consistent Calculation

[...]

     iteration #  9     ecut=    40.00 Ry     beta=0.70
     CG style diagonalization
     c_bands:  1 eigenvalues not converged
     ethr =  1.56E-07,  avg # of iterations =  4.6

[...]

     total energy              =    -861.57586010 Ry
     Harris-Foulkes estimate   =    -861.57589646 Ry
     estimated scf accuracy    <       0.00007207 Ry

     iteration # 11     ecut=    40.00 Ry     beta=0.70
     CG style diagonalization
     ethr =  4.78E-08,  avg # of iterations =  3.5

     End of self-consistent calculation

     Number of k-points >= 100: set verbosity='high' to print the bands.

     the Fermi energy is    15.7896 ev

!    total energy              =    -861.57587205 Ry
     Harris-Foulkes estimate   =    -861.57587260 Ry
     estimated scf accuracy    <       0.00000063 Ry

     The total energy is the sum of the following terms:

     one-electron contribution =    -242.63031708 Ry
     hartree contribution      =     157.67632605 Ry
     xc contribution           =     -83.27122938 Ry
     ewald contribution        =    -693.16364683 Ry
     smearing contrib. (-TS)   =      -0.18700481 Ry

     convergence has been achieved in  11 iterations

     Forces acting on atoms (Ry/au):

     atom    1 type  1   force =     0.03557169   -0.01276399    0.00119488
     atom    2 type  1   force =    -0.03557169    0.01276399   -0.00119488
     atom    3 type  2   force =    -0.03444317    0.01213196    0.00105057
     atom    4 type  2   force =     0.03444317   -0.01213196   -0.00105057

     Total force =     0.074355     Total SCF correction =     0.000000

     entering subroutine stress ...

          total   stress  (Ry/bohr**3)                   (kbar)     P= -463.33
  -0.00315251  -0.00002213   0.00000004       -463.75     -3.25      0.01
  -0.00002213  -0.00320929  -0.00000002         -3.25   -472.10      0.00
   0.00000004  -0.00000002  -0.00308711          0.01      0.00   -454.13

     Writing output data file Prototype-La-oS8-TlI.save

     General routines

     Parallel routines

   This run was terminated on:  18:23: 0  22Mar2018

   JOB DONE.