     Program PWSCF v.5.0.2 starts on 22Mar2018 at 17:34:39

     Current dimensions of program PWSCF are:
     Max number of different atomic species (ntypx) = 10
     Max number of k-points (npk) =  40000
     Max angular momentum in pseudopotentials (lmaxx) =  3
     Waiting for input...
     Reading input from standard input

     Subspace diagonalization in iterative solution of the eigenvalue problem:
     a serial algorithm will be used

     bravais-lattice index     =            0
     lattice parameter (alat)  =       8.8008  a.u.
     unit-cell volume          =    1116.9454 (a.u.)^3
     number of atoms/cell      =           16
     number of atomic types    =            2
     number of electrons       =       300.00
     number of Kohn-Sham states=          180
     kinetic-energy cutoff     =      40.0000  Ry
     charge density cutoff     =     160.0000  Ry
     convergence threshold     =      1.0E-04
     mixing beta               =       0.7000
     number of iterations used =            8  plain     mixing
     Exchange-correlation      = SLA-PZ-NOGX-NOGC ( 1 1 0 0 0)
     EXX-fraction              =        0.00
     nstep                     =           50

     celldm(1)=   8.800765  celldm(2)=   0.000000  celldm(3)=   0.000000
     celldm(4)=   0.000000  celldm(5)=   0.000000  celldm(6)=   0.000000

     crystal axes: (cart. coord. in units of alat)
               a(1) = (   1.000000   0.000000   0.000000 )
               a(2) = (   0.000000   1.083771   0.000000 )
               a(3) = (   0.000000   0.000000   1.511935 )

     reciprocal axes: (cart. coord. in units 2 pi/alat)
               b(1) = (  1.000000  0.000000  0.000000 )
               b(2) = (  0.000000  0.922704  0.000000 )
               b(3) = (  0.000000  0.000000  0.661404 )

     PseudoPot. # 1 for Tb read from file:
     /home/jld5415/pp.La/Tb.UPF
     MD5 check sum: 3d6088a3f0cf7fd2e110c43f7f8e95c2
     Pseudo is Norm-conserving, Zval = 19.0
     Generated in analytical, separable form
     Using radial grid of 1263 points,  6 beta functions with:
                l(1) =   0
                l(2) =   0
                l(3) =   1
                l(4) =   1
                l(5) =   2
                l(6) =   3

     PseudoPot. # 2 for Gd read from file:
     /home/jld5415/pp.La/Gd.UPF
     MD5 check sum: 09a8be538722f05520810cb6aac0efd2
     Pseudo is Norm-conserving, Zval = 18.0
     Generated in analytical, separable form
     Using radial grid of 1263 points,  6 beta functions with:
                l(1) =   0
                l(2) =   0
                l(3) =   1
                l(4) =   1
                l(5) =   2
                l(6) =   3

     atomic species   valence    mass     pseudopotential
        Fe            19.00    55.84500     Tb( 1.00)
        C             18.00    12.01070     Gd( 1.00)

      8 Sym. Ops., with inversion, found ( 6 have fractional translation)

   Cartesian axes

     site n.     atom                  positions (alat units)
         1           Fe  tau(   1) = (   0.3472940   0.1827628   1.3947267  )
         2           Fe  tau(   2) = (   0.1527060   0.7246484   0.8731757  )
         3           Fe  tau(   3) = (   0.8472940   0.3591227   0.6387592  )
         4           Fe  tau(   4) = (   0.3396640   0.4879235   0.3779837  )
         5           Fe  tau(   5) = (   0.1527060   0.7246484   1.3947267  )
         6           Fe  tau(   6) = (   0.3472940   0.1827628   0.8731757  )
         7           Fe  tau(   7) = (   0.1603360   1.0298091   0.3779837  )
         8           Fe  tau(   8) = (   0.6527060   0.9010083   0.6387592  )
         9           Fe  tau(   9) = (   0.8472940   0.3591227   0.1172082  )
        10           Fe  tau(  10) = (   0.6603360   0.5958476   1.1339512  )
        11           Fe  tau(  11) = (   0.6527060   0.9010083   0.1172082  )
        12           Fe  tau(  12) = (   0.8396640   0.0539620   1.1339512  )
        13           C   tau(  13) = (   0.0000000   0.0000000   0.0000000  )
        14           C   tau(  14) = (   0.5000000   0.5418856   0.0000000  )
        15           C   tau(  15) = (   0.5000000   0.5418856   0.7559674  )
        16           C   tau(  16) = (   0.0000000   0.0000000   0.7559674  )

     number of k points=    12  gaussian smearing, width (Ry)=  0.1000
                       cart. coord. in units 2pi/alat
        k(    1) = (   0.0000000   0.0000000   0.0000000), wk =   0.0833333
        k(    2) = (   0.0000000   0.0000000   0.1653510), wk =   0.1666667
        k(    3) = (   0.0000000   0.0000000  -0.3307021), wk =   0.0833333
        k(    4) = (   0.0000000   0.3075680   0.0000000), wk =   0.1666667
        k(    5) = (   0.0000000   0.3075680   0.1653510), wk =   0.3333333
        k(    6) = (   0.0000000   0.3075680  -0.3307021), wk =   0.1666667
        k(    7) = (  -0.5000000   0.0000000   0.0000000), wk =   0.0833333
        k(    8) = (  -0.5000000   0.0000000   0.1653510), wk =   0.1666667
        k(    9) = (  -0.5000000   0.0000000  -0.3307021), wk =   0.0833333
        k(   10) = (  -0.5000000   0.3075680   0.0000000), wk =   0.1666667
        k(   11) = (  -0.5000000   0.3075680   0.1653510), wk =   0.3333333
        k(   12) = (  -0.5000000   0.3075680  -0.3307021), wk =   0.1666667

     Largest allocated arrays     est. size (Mb)     dimensions
     Largest temporary arrays     est. size (Mb)     dimensions

     Initial potential from superposition of free atoms

     Starting from uniform charge
     Starting wfc are    0 randomized atomic wfcs

     Self-consistent Calculation

     iteration #  1     ecut=    40.00 Ry     beta=0.70
     CG style diagonalization
     ethr =  1.00E-02,  avg # of iterations = 21.3

     total energy              =   -2870.33856700 Ry
     Harris-Foulkes estimate   =   -4156.04806503 Ry
     estimated scf accuracy    <    1562.08082437 Ry

     iteration #  2     ecut=    40.00 Ry     beta=0.70
     CG style diagonalization
     c_bands:  3 eigenvalues not converged
     c_bands:  3 eigenvalues not converged
     c_bands:  5 eigenvalues not converged
     c_bands:  3 eigenvalues not converged
     c_bands:  2 eigenvalues not converged
     c_bands:  3 eigenvalues not converged
     c_bands:  5 eigenvalues not converged
     c_bands:  3 eigenvalues not converged
     ethr =  1.00E-02,  avg # of iterations = 13.1

[...]

     End of self-consistent calculation

          k = 0.0000 0.0000 0.0000 (  4785 PWs)   bands (ev):

   -30.3201 -29.8573 -28.6371 -28.5163 -28.5019 -28.3515 -28.3496 -28.3448
   -28.1849 -28.0796 -27.9598 -27.9300 -25.1327 -23.9738 -22.8729 -22.2224
    -4.5681  -4.4243  -4.2853  -4.2553  -3.6127  -3.3991  -0.2478   0.1296
     0.4571   0.5490   0.6470   0.7553   0.8666   1.0044   1.0453   1.6204
     1.8816   2.1308   2.1961   2.3834   2.5002   3.3763   3.4933   3.6431
     3.6471   3.7695   3.9604   3.9715   3.9719   4.0160   4.0583   4.0942
     4.5756   4.5841   4.6612   4.7247   6.6567   6.7317   6.7725   7.2051
     7.2166   7.2829  10.4216  10.5438  10.6323  10.7751  10.9909  11.0047
    29.7356  30.1827  30.8141  31.0048  31.0393  31.0885  31.1707  31.2953
    32.2663  32.7861  33.2192  34.0716  35.2850  35.3621  35.5290  36.1917
    36.3301  36.4110  36.5012  36.5408  36.5658  36.8288  36.8449  36.9235
    37.2345  37.4726  37.8169  38.1435  38.4681  38.5322  38.5551  38.7296
    38.7668  38.9551  39.6745  39.8650  40.0859  40.1579  40.2324  40.2769
    40.3627  40.9406  41.1503  41.4840  41.6428  41.9428  41.9508  42.2592
    42.4600  42.4925  42.5660  43.0833  43.1425  43.3287  43.5509  43.6097
    44.0137  44.3340  44.4152  44.8598  45.3851  45.6722  45.6990  45.8545
    45.9163  46.2123  46.6361  46.7747  47.0157  47.6747  47.9421  47.9670
    48.5329  48.8340  49.8602  50.2658  50.3216  50.6573  50.9795  51.0796
    51.3958  52.8751  53.7282  53.9259  54.0536  54.0977  54.5136  54.6574
    55.0808  55.5590  55.6973  56.0810  56.2565  56.5376  56.6541  56.8050
    56.8564  56.9113  57.0126  57.2149  57.2662  57.6080  57.7329  57.7565
    58.1322  58.2896  58.5185  59.5533  59.7562  60.0881  60.2852  60.5088
    60.6603  60.8231  61.4217  61.7651

[...]

          k =-0.5000 0.0000 0.0000 (  4798 PWs)   bands (ev):

[...]

     the Fermi energy is    53.1291 ev

!    total energy              =   -3518.85065081 Ry
     Harris-Foulkes estimate   =   -3518.85065796 Ry
     estimated scf accuracy    <       0.00000879 Ry

     The total energy is the sum of the following terms:

     one-electron contribution =     203.81057326 Ry
     hartree contribution      =     384.34849663 Ry
     xc contribution           =    -372.93163820 Ry
     ewald contribution        =   -3733.74267285 Ry
     smearing contrib. (-TS)   =      -0.33540965 Ry

     convergence has been achieved in  10 iterations

     Forces acting on atoms (Ry/au):

     atom    1 type  1   force =     1.07406029   -1.17079953   -1.48937137
     atom    2 type  1   force =    -1.07406029   -1.17079953    1.48937137
     atom    3 type  1   force =     1.07406029    1.17079953   -1.48937137
     atom    4 type  1   force =    -1.84905441   -0.70387657    0.00000000
     atom    5 type  1   force =    -1.07406029   -1.17079953   -1.48937137
     atom    6 type  1   force =     1.07406029   -1.17079953    1.48937137
     atom    7 type  1   force =     1.84905441   -0.70387657    0.00000000
     atom    8 type  1   force =    -1.07406029    1.17079953   -1.48937137
     atom    9 type  1   force =     1.07406029    1.17079953    1.48937137
     atom   10 type  1   force =     1.84905441    0.70387657    0.00000000
     atom   11 type  1   force =    -1.07406029    1.17079953    1.48937137
     atom   12 type  1   force =    -1.84905441    0.70387657    0.00000000
     atom   13 type  2   force =     0.00000000    0.00000000    0.00000000
     atom   14 type  2   force =     0.00000000    0.00000000    0.00000000
     atom   15 type  2   force =     0.00000000    0.00000000    0.00000000
     atom   16 type  2   force =     0.00000000    0.00000000    0.00000000

     Total force =     7.321107     Total SCF correction =     0.000000

     entering subroutine stress ...

          total   stress  (Ry/bohr**3)                   (kbar)     P=12278.89
   0.08381284   0.00000000   0.00000000      12329.29      0.00      0.00
   0.00000000   0.08433085   0.00000000          0.00  12405.49      0.00
   0.00000000   0.00000000   0.08226689          0.00      0.00  12101.88

     BFGS Geometry Optimization

     number of scf cycles    =   1
     number of bfgs steps    =   0

     enthalpy new            =   -3518.8506508072 Ry

     new trust radius        =       0.5000000000 bohr
     new conv_thr            =       0.0001000000 Ry

     new unit-cell volume =   1383.86426 a.u.^3 (   205.06752 Ang^3 )

CELL_PARAMETERS (alat=  8.80076499)
   1.074344368   0.000000000   0.000000000
   0.000000000   1.164841411   0.000000000
   0.000000000   0.000000000   1.622265404

ATOMIC_POSITIONS (crystal)
Fe       0.351624178   0.164280660   0.918506569
Fe       0.148375822   0.664280660   0.581493431
Fe       0.851624178   0.335719340   0.418506569
Fe       0.332209358   0.447590600   0.250000000
Fe       0.148375822   0.664280660   0.918506569
Fe       0.351624178   0.164280660   0.581493431
Fe       0.167790642   0.947590600   0.250000000
Fe       0.648375822   0.835719340   0.418506569
Fe       0.851624178   0.335719340   0.081493431
Fe       0.667790642   0.552409400   0.750000000
Fe       0.648375822   0.835719340   0.081493431
Fe       0.832209358   0.052409400   0.750000000
C        0.000000000   0.000000000   0.000000000
C        0.500000000   0.500000000   0.000000000
C        0.500000000   0.500000000   0.500000000
C        0.000000000   0.000000000   0.500000000

     Writing output data file Prototype-La-oP16-Fe3C.save
     NEW-OLD atomic charge density approx. for the potential
     NEW k-points:
        k(    1) = (   0.0000000   0.0000000   0.0000000), wk =   0.0833333
        k(    2) = (   0.0000000   0.0000000   0.1541055), wk =   0.1666667
        k(    3) = (   0.0000000   0.0000000  -0.3082110), wk =   0.0833333
        k(    4) = (   0.0000000   0.2861620   0.0000000), wk =   0.1666667
        k(    5) = (   0.0000000   0.2861620   0.1541055), wk =   0.3333333
        k(    6) = (   0.0000000   0.2861620  -0.3082110), wk =   0.1666667
        k(    7) = (  -0.4654001   0.0000000   0.0000000), wk =   0.0833333
        k(    8) = (  -0.4654001   0.0000000   0.1541055), wk =   0.1666667
        k(    9) = (  -0.4654001   0.0000000  -0.3082110), wk =   0.0833333
        k(   10) = (  -0.4654001   0.2861620   0.0000000), wk =   0.1666667
        k(   11) = (  -0.4654001   0.2861620   0.1541055), wk =   0.3333333
        k(   12) = (  -0.4654001   0.2861620  -0.3082110), wk =   0.1666667

[...]

          total   stress  (Ry/bohr**3)                   (kbar)     P= 5044.77
   0.03468535   0.00000000   0.00000000       5102.39      0.00      0.00
   0.00000000   0.03387322   0.00000000          0.00   4982.92      0.00
   0.00000000   0.00000000   0.03432243          0.00      0.00   5049.00

[...]

     enthalpy old            =   -3518.8506508072 Ry
     enthalpy new            =   -3535.2682967141 Ry

     CASE: enthalpy_new < enthalpy_old

     small trust_radius: resetting bfgs history

     new trust radius        =       6.4515323985 bohr
     new conv_thr            =       0.0001000000 Ry

[...]

          total   stress  (Ry/bohr**3)                   (kbar)     P=-2577.18
  -0.01774207   0.00000000   0.00000000      -2609.95      0.00      0.00
   0.00000000  -0.01734258   0.00000000          0.00  -2551.18      0.00
   0.00000000   0.00000000  -0.01747320          0.00      0.00  -2570.40

     number of scf cycles    =   3
     number of bfgs steps    =   2

     enthalpy old            =   -3535.2682967141 Ry
     enthalpy new            =   -3450.8641282222 Ry

     CASE: enthalpy_new > enthalpy_old

     new trust radius        =       2.7281714252 bohr

     trust_radius < trust_radius_min

     resetting bfgs history

     Message from routine bfgs:
     history already reset at previous step: stopping
     new conv_thr            =       0.0001000000 Ry

     new unit-cell volume =   1595.15991 a.u.^3 (   236.37831 Ang^3 )

[...]

ATOMIC_POSITIONS (crystal)
Fe       0.353656672   0.162276451   0.916710035
Fe       0.146343328   0.662276451   0.583289965
Fe       0.853656672   0.337723549   0.416710035
Fe       0.328741631   0.446347139   0.250000000
Fe       0.146343328   0.662276451   0.916710035
Fe       0.353656672   0.162276451   0.583289965
Fe       0.171258369   0.946347139   0.250000000
Fe       0.646343328   0.837723549   0.416710035
Fe       0.853656672   0.337723549   0.083289965
Fe       0.671258369   0.553652861   0.750000000
Fe       0.646343328   0.837723549   0.083289965
Fe       0.828741631   0.053652861   0.750000000
C        0.000000000   0.000000000   0.000000000
C        0.500000000   0.500000000   0.000000000
C        0.500000000   0.500000000   0.500000000
C        0.000000000   0.000000000   0.500000000

     Writing output data file Prototype-La-oP16-Fe3C.save
     NEW-OLD atomic charge density approx. for the potential
     NEW k-points:
        k(    1) = (   0.0000000   0.0000000   0.0000000), wk =   0.0833333
        k(    2) = (   0.0000000   0.0000000   0.1469662), wk =   0.1666667
        k(    3) = (   0.0000000   0.0000000  -0.2939324), wk =   0.0833333
        k(    4) = (   0.0000000   0.2732211   0.0000000), wk =   0.1666667
        k(    5) = (   0.0000000   0.2732211   0.1469662), wk =   0.3333333
        k(    6) = (   0.0000000   0.2732211  -0.2939324), wk =   0.1666667
        k(    7) = (  -0.4434189   0.0000000   0.0000000), wk =   0.0833333
        k(    8) = (  -0.4434189   0.0000000   0.1469662), wk =   0.1666667
        k(    9) = (  -0.4434189   0.0000000  -0.2939324), wk =   0.0833333
        k(   10) = (  -0.4434189   0.2732211   0.0000000), wk =   0.1666667
        k(   11) = (  -0.4434189   0.2732211   0.1469662), wk =   0.3333333
        k(   12) = (  -0.4434189   0.2732211  -0.2939324), wk =   0.1666667

[...]

     The maximum number of steps has been reached.

     End of BFGS Geometry Optimization
Begin final coordinates
     new unit-cell volume =   1595.15991 a.u.^3 (   236.37831 Ang^3 )

CELL_PARAMETERS (alat=  8.80076499)
   1.127601897   0.000000000   0.000000000
   0.000000000   1.220013302   0.000000000
   0.000000000   0.000000000   1.701071593

ATOMIC_POSITIONS (crystal)
Fe       0.353656672   0.162276451   0.916710035
Fe       0.146343328   0.662276451   0.583289965
Fe       0.853656672   0.337723549   0.416710035
Fe       0.328741631   0.446347139   0.250000000
Fe       0.146343328   0.662276451   0.916710035
Fe       0.353656672   0.162276451   0.583289965
Fe       0.171258369   0.946347139   0.250000000
Fe       0.646343328   0.837723549   0.416710035
Fe       0.853656672   0.337723549   0.083289965
Fe       0.671258369   0.553652861   0.750000000
Fe       0.646343328   0.837723549   0.083289965
Fe       0.828741631   0.053652861   0.750000000
C        0.000000000   0.000000000   0.000000000
C        0.500000000   0.500000000   0.000000000
C        0.500000000   0.500000000   0.500000000
C        0.000000000   0.000000000   0.500000000
End final coordinates

     A final scf calculation at the relaxed structure.
     The G-vectors are recalculated for the final unit cell
     Results may differ from those at the preceding step.

     bravais-lattice index     =            0
     lattice parameter (alat)  =       8.8008  a.u.
     unit-cell volume          =    1595.1599 (a.u.)^3
     number of atoms/cell      =           16
     number of atomic types    =            2
     number of electrons       =       300.00
     number of Kohn-Sham states=          180
     kinetic-energy cutoff     =      40.0000  Ry
     charge density cutoff     =     160.0000  Ry
     convergence threshold     =      1.0E-04
     mixing beta               =       0.7000
     number of iterations used =            8  plain     mixing
     Exchange-correlation      = SLA-PZ-NOGX-NOGC ( 1 1 0 0 0)
     EXX-fraction              =        0.00

     celldm(1)=   8.800765  celldm(2)=   0.000000  celldm(3)=   0.000000
     celldm(4)=   0.000000  celldm(5)=   0.000000  celldm(6)=   0.000000

     crystal axes: (cart. coord. in units of alat)
               a(1) = (   1.127602   0.000000   0.000000 )
               a(2) = (   0.000000   1.220013   0.000000 )
               a(3) = (   0.000000   0.000000   1.701072 )

     reciprocal axes: (cart. coord. in units 2 pi/alat)
               b(1) = (  0.886838  0.000000  0.000000 )
               b(2) = (  0.000000  0.819663  0.000000 )
               b(3) = (  0.000000  0.000000  0.587865 )

     PseudoPot. # 1 for Tb read from file:
     /home/jld5415/pp.La/Tb.UPF
     MD5 check sum: 3d6088a3f0cf7fd2e110c43f7f8e95c2
     Pseudo is Norm-conserving, Zval = 19.0
     Generated in analytical, separable form
     Using radial grid of 1263 points,  6 beta functions with:
                l(1) =   0
                l(2) =   0
                l(3) =   1
                l(4) =   1
                l(5) =   2
                l(6) =   3

     PseudoPot. # 2 for Gd read from file:
     /home/jld5415/pp.La/Gd.UPF
     MD5 check sum: 09a8be538722f05520810cb6aac0efd2
     Pseudo is Norm-conserving, Zval = 18.0
     Generated in analytical, separable form
     Using radial grid of 1263 points,  6 beta functions with:
                l(1) =   0
                l(2) =   0
                l(3) =   1
                l(4) =   1
                l(5) =   2
                l(6) =   3

     atomic species   valence    mass     pseudopotential
        Fe            19.00    55.84500     Tb( 1.00)
        C             18.00    12.01070     Gd( 1.00)

      8 Sym. Ops., with inversion, found ( 6 have fractional translation)

   Cartesian axes

     site n.     atom                  positions (alat units)
         1           Fe  tau(   1) = (   0.3987839   0.1979794   1.5593894  )
         2           Fe  tau(   2) = (   0.1650170   0.8079861   0.9922180  )
         3           Fe  tau(   3) = (   0.9625849   0.4120272   0.7088536  )
         4           Fe  tau(   4) = (   0.3706897   0.5445494   0.4252679  )
         5           Fe  tau(   5) = (   0.1650170   0.8079861   1.5593894  )
         6           Fe  tau(   6) = (   0.3987839   0.1979794   0.9922180  )
         7           Fe  tau(   7) = (   0.1931113   1.1545561   0.4252679  )
         8           Fe  tau(   8) = (   0.7288180   1.0220339   0.7088536  )
         9           Fe  tau(   9) = (   0.9625849   0.4120272   0.1416822  )
        10           Fe  tau(  10) = (   0.7569122   0.6754639   1.2758037  )
        11           Fe  tau(  11) = (   0.7288180   1.0220339   0.1416822  )
        12           Fe  tau(  12) = (   0.9344906   0.0654572   1.2758037  )
        13           C   tau(  13) = (   0.0000000   0.0000000   0.0000000  )
        14           C   tau(  14) = (   0.5638009   0.6100067   0.0000000  )
        15           C   tau(  15) = (   0.5638009   0.6100067   0.8505358  )
        16           C   tau(  16) = (   0.0000000   0.0000000   0.8505358  )

     number of k points=    12  gaussian smearing, width (Ry)=  0.1000
                       cart. coord. in units 2pi/alat
        k(    1) = (   0.0000000   0.0000000   0.0000000), wk =   0.0833333
        k(    2) = (   0.0000000   0.0000000   0.1469662), wk =   0.1666667
        k(    3) = (   0.0000000   0.0000000  -0.2939324), wk =   0.0833333
        k(    4) = (   0.0000000   0.2732211   0.0000000), wk =   0.1666667
        k(    5) = (   0.0000000   0.2732211   0.1469662), wk =   0.3333333
        k(    6) = (   0.0000000   0.2732211  -0.2939324), wk =   0.1666667
        k(    7) = (  -0.4434189   0.0000000   0.0000000), wk =   0.0833333
        k(    8) = (  -0.4434189   0.0000000   0.1469662), wk =   0.1666667
        k(    9) = (  -0.4434189   0.0000000  -0.2939324), wk =   0.0833333
        k(   10) = (  -0.4434189   0.2732211   0.0000000), wk =   0.1666667
        k(   11) = (  -0.4434189   0.2732211   0.1469662), wk =   0.3333333
        k(   12) = (  -0.4434189   0.2732211  -0.2939324), wk =   0.1666667

     Largest allocated arrays     est. size (Mb)     dimensions
     Largest temporary arrays     est. size (Mb)     dimensions

     Initial potential from superposition of free atoms

     Starting from uniform charge
     Starting wfc are    0 randomized atomic wfcs

     Writing output data file Prototype-La-oP16-Fe3C.save

     Self-consistent Calculation

[...]

     iteration #  5     ecut=    40.00 Ry     beta=0.70
     CG style diagonalization
     ethr =  6.47E-03,  avg # of iterations =  3.7

[...]

     total energy              =   -3546.09170920 Ry
     Harris-Foulkes estimate   =   -3546.09179807 Ry
     estimated scf accuracy    <       0.00014555 Ry

     iteration # 10     ecut=    40.00 Ry     beta=0.70
     CG style diagonalization
     c_bands:  1 eigenvalues not converged
     c_bands:  1 eigenvalues not converged
     ethr =  4.85E-08,  avg # of iterations =  4.1

     End of self-consistent calculation

[...]

          k = 0.0000 0.2732-0.2939 (  6792 PWs)   bands (ev):

[...]

          k =-0.4434 0.2732-0.2939 (  6832 PWs)   bands (ev):

   -42.2029 -42.2029 -42.1647 -42.1647 -42.1325 -42.1325 -42.0928 -42.0928
   -41.8929 -41.8929 -41.8784 -41.8785 -36.3465 -36.3465 -36.3455 -36.3455
   -13.0526 -13.0526 -13.0495 -13.0495 -12.2745 -12.2745 -12.2181 -12.2181
   -11.7768 -11.7768 -11.7716 -11.7716 -11.1424 -11.1424 -11.0975 -11.0975
   -10.7927 -10.7927 -10.7261 -10.7261 -10.4747 -10.4747 -10.4253 -10.4253
   -10.3648 -10.3648 -10.3614 -10.3614 -10.1098 -10.1098  -9.9994  -9.9994
    -9.9441  -9.9441  -9.8712  -9.8712  -7.1883  -7.1883  -7.1835  -7.1835
    -6.6378  -6.6378  -6.6123  -6.6123  -6.0902  -6.0902  -6.0836  -6.0836
    20.8689  20.8689  20.9002  20.9002  21.4713  21.4713  21.6379  21.6379
    21.9028  21.9028  22.0687  22.0687  22.7089  22.7089  22.9431  22.9431
    23.3066  23.3066  23.6142  23.6142  24.7148  24.7148  25.0927  25.0927
    25.4528  25.4528  25.4568  25.4568  25.7314  25.7314  25.8990  25.8990
    26.0476  26.0476  26.2700  26.2700  26.5565  26.5565  26.7917  26.7917
    26.9079  26.9079  27.0490  27.0490  27.4309  27.4309  27.8271  27.8271
    28.0500  28.0500  28.0690  28.0690  28.3884  28.3884  28.7847  28.7847
    29.0633  29.0633  29.1255  29.1255  29.7185  29.7185  29.7248  29.7248
    30.7804  30.7804  31.0560  31.0560  31.3349  31.3349  31.6126  31.6126
    32.1902  32.1902  32.4325  32.4325  32.6439  32.6439  32.7727  32.7727
    33.6770  33.6770  33.9267  33.9267  34.5103  34.5103  34.8781  34.8781
    35.4866  35.4866  37.3271  37.3271  39.7208  39.7209  39.9428  39.9429
    40.0039  40.0039  40.8498  40.8498  41.9646  41.9646  42.0176  42.0176
    42.6806  42.6807  42.7868  42.7869  43.8275  43.8275  43.9496  43.9496
    44.6686  44.6687  44.7453  44.7454

     the Fermi energy is    35.1619 ev

!    total energy              =   -3546.09176402 Ry
     Harris-Foulkes estimate   =   -3546.09178739 Ry
     estimated scf accuracy    <       0.00002680 Ry

     The total energy is the sum of the following terms:

     one-electron contribution =    -343.41510963 Ry
     hartree contribution      =     495.86226064 Ry
     xc contribution           =    -356.86202933 Ry
     ewald contribution        =   -3341.26680921 Ry
     smearing contrib. (-TS)   =      -0.41007649 Ry

     convergence has been achieved in  10 iterations

     Forces acting on atoms (Ry/au):

     atom    1 type  1   force =     0.43434442   -0.45063858   -0.54212752
     atom    2 type  1   force =    -0.43434442   -0.45063858    0.54212752
     atom    3 type  1   force =     0.43434442    0.45063858   -0.54212752
     atom    4 type  1   force =    -0.73528115   -0.27130428    0.00000000
     atom    5 type  1   force =    -0.43434442   -0.45063858   -0.54212752
     atom    6 type  1   force =     0.43434442   -0.45063858    0.54212752
     atom    7 type  1   force =     0.73528115   -0.27130428    0.00000000
     atom    8 type  1   force =    -0.43434442    0.45063858   -0.54212752
     atom    9 type  1   force =     0.43434442    0.45063858    0.54212752
     atom   10 type  1   force =     0.73528115    0.27130428    0.00000000
     atom   11 type  1   force =    -0.43434442    0.45063858    0.54212752
     atom   12 type  1   force =    -0.73528115    0.27130428    0.00000000
     atom   13 type  2   force =     0.00000000    0.00000000    0.00000000
     atom   14 type  2   force =     0.00000000    0.00000000    0.00000000
     atom   15 type  2   force =     0.00000000    0.00000000    0.00000000
     atom   16 type  2   force =     0.00000000    0.00000000    0.00000000

     Total force =     2.818162     Total SCF correction =     0.000000

     entering subroutine stress ...

          total   stress  (Ry/bohr**3)                   (kbar)     P= 3023.68
   0.02082915   0.00000000   0.00000000       3064.07      0.00      0.00
   0.00000000   0.02016257   0.00000000          0.00   2966.02      0.00
   0.00000000   0.00000000   0.02067205          0.00      0.00   3040.96

     Writing output data file Prototype-La-oP16-Fe3C.save

     General routines

     Parallel routines

   This run was terminated on:  18:43:18  22Mar2018

   JOB DONE.