     Program PWSCF v.5.0.2 starts on 22Mar2018 at 17:34:38

     Current dimensions of program PWSCF are:
     Max number of different atomic species (ntypx) = 10
     Max number of k-points (npk) =  40000
     Max angular momentum in pseudopotentials (lmaxx) =  3
     Waiting for input...
     Reading input from standard input

     Subspace diagonalization in iterative solution of the eigenvalue problem:
     a serial algorithm will be used

     bravais-lattice index     =            0
     lattice parameter (alat)  =       7.0151  a.u.
     unit-cell volume          =     862.2778 (a.u.)^3
     number of atoms/cell      =           12
     number of atomic types    =            2
     number of electrons       =       224.00
     number of Kohn-Sham states=          134
     kinetic-energy cutoff     =      40.0000  Ry
     charge density cutoff     =     160.0000  Ry
     convergence threshold     =      1.0E-04
     mixing beta               =       0.7000
     number of iterations used =            8  plain     mixing
     Exchange-correlation      = SLA-PZ-NOGX-NOGC ( 1 1 0 0 0)
     EXX-fraction              =        0.00
     nstep                     =           50

     celldm(1)=   7.015105  celldm(2)=   0.000000  celldm(3)=   0.000000
     celldm(4)=   0.000000  celldm(5)=   0.000000  celldm(6)=   0.000000

     crystal axes: (cart. coord. in units of alat)
               a(1) = (   1.000000   0.000000   0.000000 )
               a(2) = (   0.000000   1.315963   0.000000 )
               a(3) = (   0.000000   0.000000   1.898020 )

     reciprocal axes: (cart. coord. in units 2 pi/alat)
               b(1) = (  1.000000  0.000000  0.000000 )
               b(2) = (  0.000000  0.759900  0.000000 )
               b(3) = (  0.000000  0.000000  0.526865 )

     PseudoPot. # 1 for Tb read from file:
     /home/cwx6513/pp.La/Tb.UPF
     MD5 check sum: 3d6088a3f0cf7fd2e110c43f7f8e95c2
     Pseudo is Norm-conserving, Zval = 19.0
     Generated in analytical, separable form
     Using radial grid of 1263 points,  6 beta functions with:
                l(1) =   0
                l(2) =   0
                l(3) =   1
                l(4) =   1
                l(5) =   2
                l(6) =   3

     PseudoPot. # 2 for Gd read from file:
     /home/cwx6513/pp.La/Gd.UPF
     MD5 check sum: 09a8be538722f05520810cb6aac0efd2
     Pseudo is Norm-conserving, Zval = 18.0
     Generated in analytical, separable form
     Using radial grid of 1263 points,  6 beta functions with:
                l(1) =   0
                l(2) =   0
                l(3) =   1
                l(4) =   1
                l(5) =   2
                l(6) =   3

     atomic species   valence    mass     pseudopotential
        Co            19.00    58.93320     Tb( 1.00)
        Si            18.00    28.08550     Gd( 1.00)

      8 Sym. Ops., with inversion, found ( 6 have fractional translation)

   Cartesian axes

     site n.     atom                  positions (alat units)
         1           Co  tau(   1) = (   0.7500000   1.0875135   0.8270358  )
         2           Co  tau(   2) = (   0.2500000   0.2284499   1.0709846  )
         3           Co  tau(   3) = (   0.7500000   0.4295318   0.1219744  )
         4           Co  tau(   4) = (   0.2500000   0.8864316   1.7760460  )
         5           Co  tau(   5) = (   0.2500000   0.7067855   0.5358966  )
         6           Co  tau(   6) = (   0.7500000   0.6091779   1.3621238  )
         7           Co  tau(   7) = (   0.2500000   0.0488038   0.4131136  )
         8           Co  tau(   8) = (   0.7500000   1.2671596   1.4849068  )
         9           Si  tau(   9) = (   0.2500000   0.2669484   1.6960710  )
        10           Si  tau(  10) = (   0.7500000   1.0490149   0.2019494  )
        11           Si  tau(  11) = (   0.2500000   0.9249301   1.1509596  )
        12           Si  tau(  12) = (   0.7500000   0.3910333   0.7470608  )

     number of k points=    12  gaussian smearing, width (Ry)=  0.1000
                       cart. coord. in units 2pi/alat
        k(    1) = (   0.0000000   0.0000000   0.0000000), wk =   0.0833333
        k(    2) = (   0.0000000   0.0000000   0.1317162), wk =   0.1666667
        k(    3) = (   0.0000000   0.0000000  -0.2634324), wk =   0.0833333
        k(    4) = (   0.0000000   0.2532999   0.0000000), wk =   0.1666667
        k(    5) = (   0.0000000   0.2532999   0.1317162), wk =   0.3333333
        k(    6) = (   0.0000000   0.2532999  -0.2634324), wk =   0.1666667
        k(    7) = (  -0.5000000   0.0000000   0.0000000), wk =   0.0833333
        k(    8) = (  -0.5000000   0.0000000   0.1317162), wk =   0.1666667
        k(    9) = (  -0.5000000   0.0000000  -0.2634324), wk =   0.0833333
        k(   10) = (  -0.5000000   0.2532999   0.0000000), wk =   0.1666667
        k(   11) = (  -0.5000000   0.2532999   0.1317162), wk =   0.3333333
        k(   12) = (  -0.5000000   0.2532999  -0.2634324), wk =   0.1666667

     Largest allocated arrays     est. size (Mb)     dimensions
     Largest temporary arrays     est. size (Mb)     dimensions

     Initial potential from superposition of free atoms

     Starting from uniform charge
     Starting wfc are    0 randomized atomic wfcs

     Self-consistent Calculation

     iteration #  1     ecut=    40.00 Ry     beta=0.70
     CG style diagonalization
     c_bands:  2 eigenvalues not converged
     c_bands:  3 eigenvalues not converged
     c_bands:  2 eigenvalues not converged
     c_bands:  1 eigenvalues not converged
     c_bands:  2 eigenvalues not converged
     ethr =  1.00E-02,  avg # of iterations = 11.3

     total energy              =   -2518.27158484 Ry
     Harris-Foulkes estimate   =   -2866.99125928 Ry
     estimated scf accuracy    <     468.88544132 Ry

     iteration #  2     ecut=    40.00 Ry     beta=0.70
     CG style diagonalization
     ethr =  1.00E-02,  avg # of iterations =  6.1

[...]

     End of self-consistent calculation

          k = 0.0000 0.0000 0.0000 (  3675 PWs)   bands (ev):

   -28.6151 -28.2873 -28.2769 -28.1466 -28.0738 -27.9410 -27.9033 -27.8798
   -21.0206 -20.9901 -20.9831 -20.8797   0.9667   1.2978   1.5981   1.6988
     1.7943   2.0006   2.0507   2.1214   2.1443   2.3220   2.6606   2.6888
     2.7980   2.8708   2.9325   3.0095   3.0197   3.3171   3.3505   3.5115
     3.5439   3.6534   4.0235   4.1431   7.4590   7.5102   7.5448   7.6626
     7.8638   7.8888   8.0797   8.1100   8.1110   8.1265   8.1873   8.1935
    32.8443  32.9930  33.1160  33.7267  33.7562  33.8536  34.0691  34.1361
    34.3672  35.3102  35.3117  35.7566  35.8902  36.1805  36.3938  36.7512
    36.8813  37.3056  37.6083  38.1298  38.5774  38.9355  39.0364  39.0984
    39.1412  39.4984  39.6039  39.6882  40.2013  40.4165  40.4456  40.5524
    40.8618  40.9886  41.1775  41.1926  41.8499  42.2129  42.2732  43.0262
    43.1941  43.5433  43.6850  44.3159  44.4687  44.7016  45.4399  45.4935
    46.2135  46.2179  46.3620  46.8643  46.9376  47.1420  47.2544  47.4956
    48.3934  48.7339  48.7814  48.8236  48.9729  49.7889  50.1379  51.4357
    51.6684  53.4188  54.0741  55.0047  55.6963  55.7666  55.9026  56.3675
    56.9245  57.4077  57.4751  57.8291  58.0387  58.3349  58.4571  58.7584
    58.8672  59.0326  59.2973  59.3900  59.6154  60.1493

[...]

          k =-0.5000 0.0000 0.0000 (  3722 PWs)   bands (ev):

[...]

     the Fermi energy is    50.9034 ev

!    total energy              =   -2627.86576577 Ry
     Harris-Foulkes estimate   =   -2627.86579845 Ry
     estimated scf accuracy    <       0.00003567 Ry

     The total energy is the sum of the following terms:

     one-electron contribution =     366.55494464 Ry
     hartree contribution      =     177.24532221 Ry
     xc contribution           =    -272.08029283 Ry
     ewald contribution        =   -2899.40931463 Ry
     smearing contrib. (-TS)   =      -0.17642516 Ry

     convergence has been achieved in   8 iterations

     Forces acting on atoms (Ry/au):

     atom    1 type  1   force =     0.00000000   -0.03066419   -0.04020701
     atom    2 type  1   force =     0.00000000    0.03066419    0.04020701
     atom    3 type  1   force =     0.00000000   -0.03066419    0.04020701
     atom    4 type  1   force =     0.00000000    0.03066419   -0.04020701
     atom    5 type  1   force =     0.00000000    0.15677667   -0.25514762
     atom    6 type  1   force =     0.00000000   -0.15677667    0.25514762
     atom    7 type  1   force =     0.00000000    0.15677667    0.25514762
     atom    8 type  1   force =     0.00000000   -0.15677667   -0.25514762
     atom    9 type  2   force =     0.00000000   -0.20027145    0.05997762
     atom   10 type  2   force =     0.00000000    0.20027145   -0.05997762
     atom   11 type  2   force =     0.00000000   -0.20027145   -0.05997762
     atom   12 type  2   force =     0.00000000    0.20027145    0.05997762

     Total force =     0.737407     Total SCF correction =     0.000000

     entering subroutine stress ...

          total   stress  (Ry/bohr**3)                   (kbar)     P= 6792.93
   0.05064791   0.00000000   0.00000000       7450.56      0.00      0.00
   0.00000000   0.04254844   0.00000000          0.00   6259.09      0.00
   0.00000000   0.00000000   0.04533584          0.00      0.00   6669.13

     BFGS Geometry Optimization

     number of scf cycles    =   1
     number of bfgs steps    =   0

     enthalpy new            =   -2627.8657657734 Ry

     new trust radius        =       0.5000000000 bohr
     new conv_thr            =       0.0001000000 Ry

     new unit-cell volume =   1079.01776 a.u.^3 (   159.89393 Ang^3 )

CELL_PARAMETERS (alat=  7.01510508)
   1.085136619   0.000000000   0.000000000
   0.000000000   1.410083486   0.000000000
   0.000000000   0.000000000   2.042663395

ATOMIC_POSITIONS (crystal)
Co       0.750000000   0.826177659   0.435532960
Co       0.250000000   0.173822341   0.564467040
Co       0.750000000   0.326177659   0.064467040
Co       0.250000000   0.673822341   0.935532960
Co       0.250000000   0.538227874   0.281056539
Co       0.750000000   0.461772126   0.718943461
Co       0.250000000   0.038227874   0.218943461
Co       0.750000000   0.961772126   0.781056539
Si       0.250000000   0.201395334   0.893902879
Si       0.750000000   0.798604666   0.106097121
Si       0.250000000   0.701395334   0.606097121
Si       0.750000000   0.298604666   0.393902879

     Writing output data file Prototype-La-oP12-Co2Si.save
     NEW-OLD atomic charge density approx. for the potential
     NEW k-points:
        k(    1) = (   0.0000000   0.0000000   0.0000000), wk =   0.0833333
        k(    2) = (   0.0000000   0.0000000   0.1223892), wk =   0.1666667
        k(    3) = (   0.0000000   0.0000000  -0.2447785), wk =   0.0833333
        k(    4) = (   0.0000000   0.2363926   0.0000000), wk =   0.1666667
        k(    5) = (   0.0000000   0.2363926   0.1223892), wk =   0.3333333
        k(    6) = (   0.0000000   0.2363926  -0.2447785), wk =   0.1666667
        k(    7) = (  -0.4607715   0.0000000   0.0000000), wk =   0.0833333
        k(    8) = (  -0.4607715   0.0000000   0.1223892), wk =   0.1666667
        k(    9) = (  -0.4607715   0.0000000  -0.2447785), wk =   0.0833333
        k(   10) = (  -0.4607715   0.2363926   0.0000000), wk =   0.1666667
        k(   11) = (  -0.4607715   0.2363926   0.1223892), wk =   0.3333333
        k(   12) = (  -0.4607715   0.2363926  -0.2447785), wk =   0.1666667

[...]

     enthalpy old            =   -2627.8657657734 Ry
     enthalpy new            =   -2633.7102704265 Ry

     CASE: enthalpy_new < enthalpy_old

     small trust_radius: resetting bfgs history

     new trust radius        =       2.2676397982 bohr
     new conv_thr            =       0.0001000000 Ry

[...]

          total   stress  (Ry/bohr**3)                   (kbar)     P=-1696.82
  -0.01241419   0.00000000   0.00000000      -1826.19      0.00      0.00
   0.00000000  -0.01082908   0.00000000          0.00  -1593.01      0.00
   0.00000000   0.00000000  -0.01136089          0.00      0.00  -1671.24

     number of scf cycles    =   3
     number of bfgs steps    =   2

     enthalpy old            =   -2633.7102704265 Ry
     enthalpy new            =   -2623.8881432749 Ry

     CASE: enthalpy_new > enthalpy_old

     new trust radius        =       0.7064492240 bohr

     trust_radius < trust_radius_min

     resetting bfgs history

     Message from routine bfgs:
     history already reset at previous step: stopping
     new conv_thr            =       0.0001000000 Ry

     new unit-cell volume =   1277.36391 a.u.^3 (   189.28580 Ang^3 )

[...]

ATOMIC_POSITIONS (crystal)
Co       0.750000000   0.825946954   0.435200422
Co       0.250000000   0.174053046   0.564799578
Co       0.750000000   0.325946954   0.064799578
Co       0.250000000   0.674053046   0.935200422
Co       0.250000000   0.539593561   0.279318699
Co       0.750000000   0.460406439   0.720681301
Co       0.250000000   0.039593561   0.220681301
Co       0.750000000   0.960406439   0.779318699
Si       0.250000000   0.199674451   0.894082037
Si       0.750000000   0.800325549   0.105917963
Si       0.250000000   0.699674451   0.605917963
Si       0.750000000   0.300325549   0.394082037

     Writing output data file Prototype-La-oP12-Co2Si.save
     NEW-OLD atomic charge density approx. for the potential
     NEW k-points:
        k(    1) = (   0.0000000   0.0000000   0.0000000), wk =   0.0833333
        k(    2) = (   0.0000000   0.0000000   0.1158575), wk =   0.1666667
        k(    3) = (   0.0000000   0.0000000  -0.2317150), wk =   0.0833333
        k(    4) = (   0.0000000   0.2253970   0.0000000), wk =   0.1666667
        k(    5) = (   0.0000000   0.2253970   0.1158575), wk =   0.3333333
        k(    6) = (   0.0000000   0.2253970  -0.2317150), wk =   0.1666667
        k(    7) = (  -0.4312255   0.0000000   0.0000000), wk =   0.0833333
        k(    8) = (  -0.4312255   0.0000000   0.1158575), wk =   0.1666667
        k(    9) = (  -0.4312255   0.0000000  -0.2317150), wk =   0.0833333
        k(   10) = (  -0.4312255   0.2253970   0.0000000), wk =   0.1666667
        k(   11) = (  -0.4312255   0.2253970   0.1158575), wk =   0.3333333
        k(   12) = (  -0.4312255   0.2253970  -0.2317150), wk =   0.1666667

[...]

     The maximum number of steps has been reached.

     End of BFGS Geometry Optimization
Begin final coordinates
     new unit-cell volume =   1277.36391 a.u.^3 (   189.28580 Ang^3 )

CELL_PARAMETERS (alat=  7.01510508)
   1.159486162   0.000000000   0.000000000
   0.000000000   1.478872147   0.000000000
   0.000000000   0.000000000   2.157823406

ATOMIC_POSITIONS (crystal)
Co       0.750000000   0.825946954   0.435200422
Co       0.250000000   0.174053046   0.564799578
Co       0.750000000   0.325946954   0.064799578
Co       0.250000000   0.674053046   0.935200422
Co       0.250000000   0.539593561   0.279318699
Co       0.750000000   0.460406439   0.720681301
Co       0.250000000   0.039593561   0.220681301
Co       0.750000000   0.960406439   0.779318699
Si       0.250000000   0.199674451   0.894082037
Si       0.750000000   0.800325549   0.105917963
Si       0.250000000   0.699674451   0.605917963
Si       0.750000000   0.300325549   0.394082037
End final coordinates

     A final scf calculation at the relaxed structure.
     The G-vectors are recalculated for the final unit cell
     Results may differ from those at the preceding step.

     bravais-lattice index     =            0
     lattice parameter (alat)  =       7.0151  a.u.
     unit-cell volume          =    1277.3639 (a.u.)^3
     number of atoms/cell      =           12
     number of atomic types    =            2
     number of electrons       =       224.00
     number of Kohn-Sham states=          134
     kinetic-energy cutoff     =      40.0000  Ry
     charge density cutoff     =     160.0000  Ry
     convergence threshold     =      1.0E-04
     mixing beta               =       0.7000
     number of iterations used =            8  plain     mixing
     Exchange-correlation      = SLA-PZ-NOGX-NOGC ( 1 1 0 0 0)
     EXX-fraction              =        0.00

     celldm(1)=   7.015105  celldm(2)=   0.000000  celldm(3)=   0.000000
     celldm(4)=   0.000000  celldm(5)=   0.000000  celldm(6)=   0.000000

     crystal axes: (cart. coord. in units of alat)
               a(1) = (   1.159486   0.000000   0.000000 )
               a(2) = (   0.000000   1.478872   0.000000 )
               a(3) = (   0.000000   0.000000   2.157823 )

     reciprocal axes: (cart. coord. in units 2 pi/alat)
               b(1) = (  0.862451  0.000000  0.000000 )
               b(2) = (  0.000000  0.676191  0.000000 )
               b(3) = (  0.000000  0.000000  0.463430 )

     PseudoPot. # 1 for Tb read from file:
     /home/cwx6513/pp.La/Tb.UPF
     MD5 check sum: 3d6088a3f0cf7fd2e110c43f7f8e95c2
     Pseudo is Norm-conserving, Zval = 19.0
     Generated in analytical, separable form
     Using radial grid of 1263 points,  6 beta functions with:
                l(1) =   0
                l(2) =   0
                l(3) =   1
                l(4) =   1
                l(5) =   2
                l(6) =   3

     PseudoPot. # 2 for Gd read from file:
     /home/cwx6513/pp.La/Gd.UPF
     MD5 check sum: 09a8be538722f05520810cb6aac0efd2
     Pseudo is Norm-conserving, Zval = 18.0
     Generated in analytical, separable form
     Using radial grid of 1263 points,  6 beta functions with:
                l(1) =   0
                l(2) =   0
                l(3) =   1
                l(4) =   1
                l(5) =   2
                l(6) =   3

     atomic species   valence    mass     pseudopotential
        Co            19.00    58.93320     Tb( 1.00)
        Si            18.00    28.08550     Gd( 1.00)

      8 Sym. Ops., with inversion, found ( 6 have fractional translation)

   Cartesian axes

     site n.     atom                  positions (alat units)
         1           Co  tau(   1) = (   0.8696146   1.2214699   0.9390857  )
         2           Co  tau(   2) = (   0.2898715   0.2574022   1.2187377  )
         3           Co  tau(   3) = (   0.8696146   0.4820339   0.1398260  )
         4           Co  tau(   4) = (   0.2898715   0.9968383   2.0179974  )
         5           Co  tau(   5) = (   0.2898715   0.7979899   0.6027204  )
         6           Co  tau(   6) = (   0.8696146   0.6808823   1.5551030  )
         7           Co  tau(   7) = (   0.2898715   0.0585538   0.4761913  )
         8           Co  tau(   8) = (   0.8696146   1.4203183   1.6816321  )
         9           Si  tau(   9) = (   0.2898715   0.2952930   1.9292711  )
        10           Si  tau(  10) = (   0.8696146   1.1835792   0.2285523  )
        11           Si  tau(  11) = (   0.2898715   1.0347291   1.3074640  )
        12           Si  tau(  12) = (   0.8696146   0.4441431   0.8503594  )

     number of k points=    12  gaussian smearing, width (Ry)=  0.1000
                       cart. coord. in units 2pi/alat
        k(    1) = (   0.0000000   0.0000000   0.0000000), wk =   0.0833333
        k(    2) = (   0.0000000   0.0000000   0.1158575), wk =   0.1666667
        k(    3) = (   0.0000000   0.0000000  -0.2317150), wk =   0.0833333
        k(    4) = (   0.0000000   0.2253970   0.0000000), wk =   0.1666667
        k(    5) = (   0.0000000   0.2253970   0.1158575), wk =   0.3333333
        k(    6) = (   0.0000000   0.2253970  -0.2317150), wk =   0.1666667
        k(    7) = (  -0.4312255   0.0000000   0.0000000), wk =   0.0833333
        k(    8) = (  -0.4312255   0.0000000   0.1158575), wk =   0.1666667
        k(    9) = (  -0.4312255   0.0000000  -0.2317150), wk =   0.0833333
        k(   10) = (  -0.4312255   0.2253970   0.0000000), wk =   0.1666667
        k(   11) = (  -0.4312255   0.2253970   0.1158575), wk =   0.3333333
        k(   12) = (  -0.4312255   0.2253970  -0.2317150), wk =   0.1666667

     Largest allocated arrays     est. size (Mb)     dimensions
     Largest temporary arrays     est. size (Mb)     dimensions

     Initial potential from superposition of free atoms

     Starting from uniform charge
     Starting wfc are    0 randomized atomic wfcs

     Writing output data file Prototype-La-oP12-Co2Si.save

     Self-consistent Calculation

[...]

     iteration #  8     ecut=    40.00 Ry     beta=0.70
     CG style diagonalization
     c_bands:  2 eigenvalues not converged
     c_bands:  1 eigenvalues not converged
     c_bands:  1 eigenvalues not converged
     ethr =  9.63E-07,  avg # of iterations =  4.5

     total energy              =   -2638.96155295 Ry
     Harris-Foulkes estimate   =   -2638.96190655 Ry
     estimated scf accuracy    <       0.00057076 Ry

     iteration #  9     ecut=    40.00 Ry     beta=0.70
     CG style diagonalization
     ethr =  2.55E-07,  avg # of iterations =  3.7

     End of self-consistent calculation

[...]

          k = 0.0000 0.2254-0.2317 (  5460 PWs)   bands (ev):

[...]

          k =-0.4312 0.2254-0.2317 (  5464 PWs)   bands (ev):

   -43.9102 -43.9102 -43.9040 -43.9040 -43.8675 -43.8675 -43.8431 -43.8431
   -36.8732 -36.8732 -36.8731 -36.8731 -12.7623 -12.7623 -12.6381 -12.6381
   -12.6132 -12.6132 -12.5748 -12.5748 -12.4849 -12.4849 -12.3791 -12.3791
   -12.3052 -12.3052 -12.2136 -12.2136 -12.2090 -12.2090 -12.1831 -12.1831
   -12.1299 -12.1299 -12.0966 -12.0966  -8.0772  -8.0772  -8.0495  -8.0495
    -7.9888  -7.9888  -7.9851  -7.9851  -7.9347  -7.9347  -7.9274  -7.9274
    21.7647  21.7647  22.3148  22.3148  22.3829  22.3829  22.5563  22.5563
    22.7708  22.7708  23.1479  23.1479  23.2652  23.2652  23.4646  23.4646
    23.5184  23.5184  23.8063  23.8063  23.8364  23.8364  24.1543  24.1543
    24.2566  24.2566  24.6833  24.6833  24.7429  24.7429  25.1206  25.1206
    25.2358  25.2358  25.7808  25.7808  26.0896  26.0896  26.4203  26.4203
    26.6442  26.6442  26.8738  26.8738  27.8511  27.8511  27.9508  27.9508
    28.3197  28.3197  28.4332  28.4332  28.7758  28.7758  29.1278  29.1278
    29.7318  29.7318  30.0476  30.0476  30.8217  30.8217  30.9566  30.9566
    32.2275  32.2275  32.5737  32.5737  34.0442  34.0442  37.2025  37.2025
    38.2263  38.2263  39.1100  39.1100  40.4564  40.4564  40.6840  40.6840
    40.7481  40.7482  41.9073  41.9074  42.4037  42.4038

     the Fermi energy is    31.7655 ev

!    total energy              =   -2638.96167730 Ry
     Harris-Foulkes estimate   =   -2638.96175675 Ry
     estimated scf accuracy    <       0.00008636 Ry

     The total energy is the sum of the following terms:

     one-electron contribution =    -120.20085317 Ry
     hartree contribution      =     286.89737615 Ry
     xc contribution           =    -260.80111444 Ry
     ewald contribution        =   -2544.58059749 Ry
     smearing contrib. (-TS)   =      -0.27648834 Ry

     convergence has been achieved in   9 iterations

     Forces acting on atoms (Ry/au):

     atom    1 type  1   force =     0.00000000   -0.01094876    0.00500234
     atom    2 type  1   force =     0.00000000    0.01094876   -0.00500234
     atom    3 type  1   force =     0.00000000   -0.01094876   -0.00500234
     atom    4 type  1   force =     0.00000000    0.01094876    0.00500234
     atom    5 type  1   force =     0.00000000    0.05126138   -0.10029242
     atom    6 type  1   force =     0.00000000   -0.05126138    0.10029242
     atom    7 type  1   force =     0.00000000    0.05126138    0.10029242
     atom    8 type  1   force =     0.00000000   -0.05126138   -0.10029242
     atom    9 type  2   force =     0.00000000   -0.06608416    0.03182065
     atom   10 type  2   force =     0.00000000    0.06608416   -0.03182065
     atom   11 type  2   force =     0.00000000   -0.06608416   -0.03182065
     atom   12 type  2   force =     0.00000000    0.06608416    0.03182065

     Total force =     0.269895     Total SCF correction =     0.000000

     entering subroutine stress ...

          total   stress  (Ry/bohr**3)                   (kbar)     P=  708.63
   0.00542876   0.00000000   0.00000000        798.60      0.00      0.00
   0.00000000   0.00429181   0.00000000          0.00    631.35      0.00
   0.00000000   0.00000000   0.00473088          0.00      0.00    695.94

     Writing output data file Prototype-La-oP12-Co2Si.save

     General routines

     Parallel routines

   This run was terminated on:  17:53:32  22Mar2018

   JOB DONE.