     Program PWSCF v.5.0.2 starts on 22Mar2018 at 17:33: 8

     Current dimensions of program PWSCF are:
     Max number of different atomic species (ntypx) = 10
     Max number of k-points (npk) =  40000
     Max angular momentum in pseudopotentials (lmaxx) =  3
     Waiting for input...
     Reading input from standard input

     Subspace diagonalization in iterative solution of the eigenvalue problem:
     a serial algorithm will be used

     bravais-lattice index     =            0
     lattice parameter (alat)  =      12.0168  a.u.
     unit-cell volume          =    1187.3413 (a.u.)^3
     number of atoms/cell      =            8
     number of atomic types    =            2
     number of electrons       =       150.00
     number of Kohn-Sham states=           90
     kinetic-energy cutoff     =      40.0000  Ry
     charge density cutoff     =     160.0000  Ry
     convergence threshold     =      1.0E-04
     mixing beta               =       0.7000
     number of iterations used =            8  plain     mixing
     Exchange-correlation      = SLA-PZ-NOGX-NOGC ( 1 1 0 0 0)
     EXX-fraction              =        0.00
     nstep                     =           50

     celldm(1)=  12.016801  celldm(2)=   0.000000  celldm(3)=   0.000000
     celldm(4)=   0.000000  celldm(5)=   0.000000  celldm(6)=   0.000000

     crystal axes: (cart. coord. in units of alat)
               a(1) = (   1.000000   0.000000   0.000000 )
               a(2) = (  -0.500000   0.866025   0.000000 )
               a(3) = (   0.000000   0.000000   0.790093 )

     reciprocal axes: (cart. coord. in units 2 pi/alat)
               b(1) = (  1.000000  0.577350  0.000000 )
               b(2) = (  0.000000  1.154701  0.000000 )
               b(3) = (  0.000000  0.000000  1.265674 )

     PseudoPot. # 1 for Tb read from file:
     /home/cwx6513/pp.La/Tb.UPF
     MD5 check sum: 3d6088a3f0cf7fd2e110c43f7f8e95c2
     Pseudo is Norm-conserving, Zval = 19.0
     Generated in analytical, separable form
     Using radial grid of 1263 points,  6 beta functions with:
                l(1) =   0
                l(2) =   0
                l(3) =   1
                l(4) =   1
                l(5) =   2
                l(6) =   3

     PseudoPot. # 2 for Gd read from file:
     /home/cwx6513/pp.La/Gd.UPF
     MD5 check sum: 09a8be538722f05520810cb6aac0efd2
     Pseudo is Norm-conserving, Zval = 18.0
     Generated in analytical, separable form
     Using radial grid of 1263 points,  6 beta functions with:
                l(1) =   0
                l(2) =   0
                l(3) =   1
                l(4) =   1
                l(5) =   2
                l(6) =   3

     atomic species   valence    mass     pseudopotential
        Mg            19.00    24.30500     Tb( 1.00)
        Cd            18.00   112.41100     Gd( 1.00)

     24 Sym. Ops., with inversion, found (12 have fractional translation)

   Cartesian axes

     site n.     atom                  positions (alat units)
         1           Mg  tau(   1) = (   0.2478935   0.7204716   0.1975233  )
         2           Mg  tau(   2) = (   0.7478935   0.1455538   0.5925699  )
         3           Mg  tau(   3) = (   0.2521065   0.1455538   0.5925699  )
         4           Mg  tau(   4) = (  -0.2478935   0.7204716   0.1975233  )
         5           Mg  tau(   5) = (   0.0000000   0.2911075   0.1975233  )
         6           Mg  tau(   6) = (   0.5000000   0.5749179   0.5925699  )
         7           Cd  tau(   7) = (   0.5000005   0.2886748   0.1975233  )
         8           Cd  tau(   8) = (  -0.0000005   0.5773506   0.5925699  )

     number of k points=    64  gaussian smearing, width (Ry)=  0.1000
                       cart. coord. in units 2pi/alat
        k(    1) = (   0.0000000   0.0000000   0.0000000), wk =   0.0095238
        k(    2) = (   0.0000000   0.0000000   0.1808105), wk =   0.0190476
        k(    3) = (   0.0000000   0.0000000   0.3616210), wk =   0.0190476
        k(    4) = (   0.0000000   0.0000000   0.5424315), wk =   0.0190476
        k(    5) = (   0.0000000   0.1924501   0.0000000), wk =   0.0190476
        k(    6) = (   0.0000000   0.1924501   0.1808105), wk =   0.0380952
        k(    7) = (   0.0000000   0.1924501   0.3616210), wk =   0.0380952
        k(    8) = (   0.0000000   0.1924501   0.5424315), wk =   0.0380952
        k(    9) = (   0.0000000   0.3849002   0.0000000), wk =   0.0190476
        k(   10) = (   0.0000000   0.3849002   0.1808105), wk =   0.0380952
        k(   11) = (   0.0000000   0.3849002   0.3616210), wk =   0.0380952
        k(   12) = (   0.0000000   0.3849002   0.5424315), wk =   0.0380952
        k(   13) = (   0.0000000  -0.5773503   0.0000000), wk =   0.0095238
        k(   14) = (   0.0000000  -0.5773503   0.1808105), wk =   0.0190476
        k(   15) = (   0.0000000  -0.5773503   0.3616210), wk =   0.0190476
        k(   16) = (   0.0000000  -0.5773503   0.5424315), wk =   0.0190476
        k(   17) = (   0.2000000   0.1154701   0.0000000), wk =   0.0190476
        k(   18) = (   0.2000000   0.1154701   0.1808105), wk =   0.0380952
        k(   19) = (   0.2000000   0.1154701   0.3616210), wk =   0.0380952
        k(   20) = (   0.2000000   0.1154701   0.5424315), wk =   0.0380952
        k(   21) = (   0.2000000   0.3079201   0.0000000), wk =   0.0190476
        k(   22) = (   0.2000000   0.3079201   0.1808105), wk =   0.0380952
        k(   23) = (   0.2000000   0.3079201   0.3616210), wk =   0.0380952
        k(   24) = (   0.2000000   0.3079201   0.5424315), wk =   0.0380952
        k(   25) = (   0.2000000   0.5003702   0.0000000), wk =   0.0190476
        k(   26) = (   0.2000000   0.5003702   0.1808105), wk =   0.0380952
        k(   27) = (   0.2000000   0.5003702   0.3616210), wk =   0.0380952
        k(   28) = (   0.2000000   0.5003702   0.5424315), wk =   0.0380952
        k(   29) = (   0.2000000  -0.4618802   0.0000000), wk =   0.0190476
        k(   30) = (   0.2000000  -0.4618802   0.1808105), wk =   0.0380952
        k(   31) = (   0.2000000  -0.4618802   0.3616210), wk =   0.0380952
        k(   32) = (   0.2000000  -0.4618802   0.5424315), wk =   0.0380952
        k(   33) = (   0.2000000  -0.2694301   0.0000000), wk =   0.0190476
        k(   34) = (   0.2000000  -0.2694301   0.1808105), wk =   0.0380952
        k(   35) = (   0.2000000  -0.2694301   0.3616210), wk =   0.0380952
        k(   36) = (   0.2000000  -0.2694301   0.5424315), wk =   0.0380952
        k(   37) = (   0.2000000  -0.0769800   0.0000000), wk =   0.0190476
        k(   38) = (   0.2000000  -0.0769800   0.1808105), wk =   0.0380952
        k(   39) = (   0.2000000  -0.0769800   0.3616210), wk =   0.0380952
        k(   40) = (   0.2000000  -0.0769800   0.5424315), wk =   0.0380952
        k(   41) = (   0.4000000   0.2309401   0.0000000), wk =   0.0190476
        k(   42) = (   0.4000000   0.2309401   0.1808105), wk =   0.0380952
        k(   43) = (   0.4000000   0.2309401   0.3616210), wk =   0.0380952
        k(   44) = (   0.4000000   0.2309401   0.5424315), wk =   0.0380952
        k(   45) = (   0.4000000   0.4233902   0.0000000), wk =   0.0190476
        k(   46) = (   0.4000000   0.4233902   0.1808105), wk =   0.0380952
        k(   47) = (   0.4000000   0.4233902   0.3616210), wk =   0.0380952
        k(   48) = (   0.4000000   0.4233902   0.5424315), wk =   0.0380952
        k(   49) = (   0.4000000   0.6158403   0.0000000), wk =   0.0190476
        k(   50) = (   0.4000000   0.6158403   0.1808105), wk =   0.0380952
        k(   51) = (   0.4000000   0.6158403   0.3616210), wk =   0.0380952
        k(   52) = (   0.4000000   0.6158403   0.5424315), wk =   0.0380952
        k(   53) = (   0.4000000  -0.3464102   0.0000000), wk =   0.0190476
        k(   54) = (   0.4000000  -0.3464102   0.1808105), wk =   0.0380952
        k(   55) = (   0.4000000  -0.3464102   0.3616210), wk =   0.0380952
        k(   56) = (   0.4000000  -0.3464102   0.5424315), wk =   0.0380952
        k(   57) = (   0.4000000  -0.1539601   0.0000000), wk =   0.0190476
        k(   58) = (   0.4000000  -0.1539601   0.1808105), wk =   0.0380952
        k(   59) = (   0.4000000  -0.1539601   0.3616210), wk =   0.0380952
        k(   60) = (   0.4000000  -0.1539601   0.5424315), wk =   0.0380952
        k(   61) = (   0.4000000   0.0384900   0.0000000), wk =   0.0190476
        k(   62) = (   0.4000000   0.0384900   0.1808105), wk =   0.0380952
        k(   63) = (   0.4000000   0.0384900   0.3616210), wk =   0.0380952
        k(   64) = (   0.4000000   0.0384900   0.5424315), wk =   0.0380952

     Largest allocated arrays     est. size (Mb)     dimensions
     Largest temporary arrays     est. size (Mb)     dimensions

     Initial potential from superposition of free atoms

     Starting from uniform charge
     Starting wfc are    0 randomized atomic wfcs

     Self-consistent Calculation

     iteration #  1     ecut=    40.00 Ry     beta=0.70
     CG style diagonalization
     c_bands:  2 eigenvalues not converged
     c_bands:  2 eigenvalues not converged
     c_bands:  2 eigenvalues not converged
     c_bands:  1 eigenvalues not converged
     c_bands:  1 eigenvalues not converged
     c_bands:  1 eigenvalues not converged
     c_bands:  1 eigenvalues not converged
     c_bands:  1 eigenvalues not converged
     c_bands:  1 eigenvalues not converged
     c_bands:  1 eigenvalues not converged
     c_bands:  1 eigenvalues not converged
     c_bands:  1 eigenvalues not converged
     c_bands:  1 eigenvalues not converged
     c_bands:  2 eigenvalues not converged
     c_bands:  1 eigenvalues not converged
     c_bands:  1 eigenvalues not converged
     c_bands:  1 eigenvalues not converged
     c_bands:  1 eigenvalues not converged
     c_bands:  2 eigenvalues not converged
     c_bands:  1 eigenvalues not converged
     ethr =  1.00E-02,  avg # of iterations = 13.1

     total energy              =   -1630.86033175 Ry
     Harris-Foulkes estimate   =   -2171.16776963 Ry
     estimated scf accuracy    <     699.21164127 Ry

     iteration #  2     ecut=    40.00 Ry     beta=0.70
     CG style diagonalization
     ethr =  1.00E-02,  avg # of iterations =  8.8

[...]

     End of self-consistent calculation

          k = 0.0000 0.0000 0.0000 (  5047 PWs)   bands (ev):

   -53.4858 -53.4692 -53.4665 -53.4664 -53.4602 -53.4601 -46.6703 -46.6697
   -22.0097 -21.9703 -21.9118 -21.8760 -21.8760 -21.8481 -21.8481 -21.8418
   -21.8418 -21.7630 -21.7056 -21.7055 -21.6540 -21.6539 -21.6423 -21.6367
   -21.6366 -21.6169 -17.6485 -17.6452 -17.6140 -17.6140 -17.6099 -17.6099
    13.1254  13.7149  13.7948  13.7984  13.7984  14.0780  14.2735  14.3815
    14.3815  14.3952  14.3953  15.3353  15.5645  15.5645  15.9246  15.9246
    15.9302  16.1718  16.3043  16.3043  16.4947  16.4947  16.6343  16.6343
    16.7883  16.7883  17.1225  17.1225  17.5051  17.9237  18.1234  18.4037
    18.4513  18.8605  18.8606  19.0945  19.0945  19.4000  19.4000  19.5240
    19.5240  20.8423  21.5999  21.5999  21.8768  22.9032  22.9033  23.3010
    25.4208  26.8880  26.8880  27.0221  28.1131  28.1131  28.3610  28.8733
    28.8735  28.9404

[...]

[...]
        k(   12) = (   0.0000000   0.3954002   0.5422402), wk =   0.0380952
        k(   13) = (   0.0000000  -0.5931004   0.0000000), wk =   0.0095238
        k(   14) = (   0.0000000  -0.5931004   0.1807467), wk =   0.0190476
        k(   15) = (   0.0000000  -0.5931004   0.3614934), wk =   0.0190476
        k(   16) = (   0.0000000  -0.5931004   0.5422402), wk =   0.0190476
        k(   17) = (   0.2054560   0.1186201   0.0000000), wk =   0.0190476
        k(   18) = (   0.2054560   0.1186201   0.1807467), wk =   0.0380952
        k(   19) = (   0.2054560   0.1186201   0.3614934), wk =   0.0380952
        k(   20) = (   0.2054560   0.1186201   0.5422402), wk =   0.0380952
        k(   21) = (   0.2054560   0.3163202   0.0000000), wk =   0.0190476
        k(   22) = (   0.2054560   0.3163202   0.1807467), wk =   0.0380952
        k(   23) = (   0.2054560   0.3163202   0.3614934), wk =   0.0380952
        k(   24) = (   0.2054560   0.3163202   0.5422402), wk =   0.0380952
        k(   25) = (   0.2054560   0.5140203   0.0000000), wk =   0.0190476
        k(   26) = (   0.2054560   0.5140203   0.1807467), wk =   0.0380952
        k(   27) = (   0.2054560   0.5140203   0.3614934), wk =   0.0380952
        k(   28) = (   0.2054560   0.5140203   0.5422402), wk =   0.0380952
        k(   29) = (   0.2054560  -0.4744803   0.0000000), wk =   0.0190476
        k(   30) = (   0.2054560  -0.4744803   0.1807467), wk =   0.0380952
        k(   31) = (   0.2054560  -0.4744803   0.3614934), wk =   0.0380952
        k(   32) = (   0.2054560  -0.4744803   0.5422402), wk =   0.0380952
        k(   33) = (   0.2054560  -0.2767802   0.0000000), wk =   0.0190476
        k(   34) = (   0.2054560  -0.2767802   0.1807467), wk =   0.0380952
        k(   35) = (   0.2054560  -0.2767802   0.3614934), wk =   0.0380952
        k(   36) = (   0.2054560  -0.2767802   0.5422402), wk =   0.0380952
        k(   37) = (   0.2054560  -0.0790800   0.0000000), wk =   0.0190476
        k(   38) = (   0.2054560  -0.0790800   0.1807467), wk =   0.0380952
        k(   39) = (   0.2054560  -0.0790800   0.3614934), wk =   0.0380952
        k(   40) = (   0.2054560  -0.0790800   0.5422402), wk =   0.0380952
        k(   41) = (   0.4109120   0.2372401   0.0000000), wk =   0.0190476
        k(   42) = (   0.4109120   0.2372401   0.1807467), wk =   0.0380952
        k(   43) = (   0.4109120   0.2372401   0.3614934), wk =   0.0380952
        k(   44) = (   0.4109120   0.2372401   0.5422402), wk =   0.0380952
        k(   45) = (   0.4109120   0.4349403   0.0000000), wk =   0.0190476
        k(   46) = (   0.4109120   0.4349403   0.1807467), wk =   0.0380952
        k(   47) = (   0.4109120   0.4349403   0.3614934), wk =   0.0380952
        k(   48) = (   0.4109120   0.4349403   0.5422402), wk =   0.0380952
        k(   49) = (   0.4109120   0.6326404   0.0000000), wk =   0.0190476
        k(   50) = (   0.4109120   0.6326404   0.1807467), wk =   0.0380952
        k(   51) = (   0.4109120   0.6326404   0.3614934), wk =   0.0380952
        k(   52) = (   0.4109120   0.6326404   0.5422402), wk =   0.0380952
        k(   53) = (   0.4109120  -0.3558602   0.0000000), wk =   0.0190476
        k(   54) = (   0.4109120  -0.3558602   0.1807467), wk =   0.0380952
        k(   55) = (   0.4109120  -0.3558602   0.3614934), wk =   0.0380952
        k(   56) = (   0.4109120  -0.3558602   0.5422402), wk =   0.0380952
        k(   57) = (   0.4109120  -0.1581601   0.0000000), wk =   0.0190476
        k(   58) = (   0.4109120  -0.1581601   0.1807467), wk =   0.0380952
        k(   59) = (   0.4109120  -0.1581601   0.3614934), wk =   0.0380952
        k(   60) = (   0.4109120  -0.1581601   0.5422402), wk =   0.0380952
        k(   61) = (   0.4109120   0.0395400   0.0000000), wk =   0.0190476
        k(   62) = (   0.4109120   0.0395400   0.1807467), wk =   0.0380952
        k(   63) = (   0.4109120   0.0395400   0.3614934), wk =   0.0380952
        k(   64) = (   0.4109120   0.0395400   0.5422402), wk =   0.0380952

[...]

     The maximum number of steps has been reached.

     End of BFGS Geometry Optimization
Begin final coordinates
     new unit-cell volume =   1125.51472 a.u.^3 (   166.78407 Ang^3 )

CELL_PARAMETERS (alat= 12.01680127)
   0.973444481   0.000000000   0.000000000
  -0.486722240   0.843027649   0.000000000
   0.000000000   0.000000000   0.790371982

ATOMIC_POSITIONS (crystal)
Mg       0.662242321   0.831121161   0.250000000
Mg       0.831121161   0.168878839   0.750000000
Mg       0.337757679   0.168878839   0.750000000
Mg       0.168878839   0.831121161   0.250000000
Mg       0.168878839   0.337757679   0.250000000
Mg       0.831121161   0.662242321   0.750000000
Cd       0.666667000   0.333333000   0.250000000
Cd       0.333333000   0.666667000   0.750000000
End final coordinates

     A final scf calculation at the relaxed structure.
     The G-vectors are recalculated for the final unit cell
     Results may differ from those at the preceding step.

     bravais-lattice index     =            0
     lattice parameter (alat)  =      12.0168  a.u.
     unit-cell volume          =    1125.5147 (a.u.)^3
     number of atoms/cell      =            8
     number of atomic types    =            2
     number of electrons       =       150.00
     number of Kohn-Sham states=           90
     kinetic-energy cutoff     =      40.0000  Ry
     charge density cutoff     =     160.0000  Ry
     convergence threshold     =      1.3E-05
     mixing beta               =       0.7000
     number of iterations used =            8  plain     mixing
     Exchange-correlation      = SLA-PZ-NOGX-NOGC ( 1 1 0 0 0)
     EXX-fraction              =        0.00

     celldm(1)=  12.016801  celldm(2)=   0.000000  celldm(3)=   0.000000
     celldm(4)=   0.000000  celldm(5)=   0.000000  celldm(6)=   0.000000

     crystal axes: (cart. coord. in units of alat)
               a(1) = (   0.973444   0.000000   0.000000 )
               a(2) = (  -0.486722   0.843028   0.000000 )
               a(3) = (   0.000000   0.000000   0.790372 )

     reciprocal axes: (cart. coord. in units 2 pi/alat)
               b(1) = (  1.027280  0.593100  0.000000 )
               b(2) = (  0.000000  1.186201  0.000000 )
               b(3) = (  0.000000  0.000000  1.265227 )

     PseudoPot. # 1 for Tb read from file:
     /home/cwx6513/pp.La/Tb.UPF
     MD5 check sum: 3d6088a3f0cf7fd2e110c43f7f8e95c2
     Pseudo is Norm-conserving, Zval = 19.0
     Generated in analytical, separable form
     Using radial grid of 1263 points,  6 beta functions with:
                l(1) =   0
                l(2) =   0
                l(3) =   1
                l(4) =   1
                l(5) =   2
                l(6) =   3

     PseudoPot. # 2 for Gd read from file:
     /home/cwx6513/pp.La/Gd.UPF
     MD5 check sum: 09a8be538722f05520810cb6aac0efd2
     Pseudo is Norm-conserving, Zval = 18.0
     Generated in analytical, separable form
     Using radial grid of 1263 points,  6 beta functions with:
                l(1) =   0
                l(2) =   0
                l(3) =   1
                l(4) =   1
                l(5) =   2
                l(6) =   3

     atomic species   valence    mass     pseudopotential
        Mg            19.00    24.30500     Tb( 1.00)
        Cd            18.00   112.41100     Gd( 1.00)

     24 Sym. Ops., with inversion, found (12 have fractional translation)

   Cartesian axes

     site n.     atom                  positions (alat units)
         1           Mg  tau(   1) = (   0.2401310   0.7006581   0.1975930  )
         2           Mg  tau(   2) = (   0.7268532   0.1423695   0.5927790  )
         3           Mg  tau(   3) = (   0.2465913   0.1423695   0.5927790  )
         4           Mg  tau(   4) = (  -0.2401310   0.7006581   0.1975930  )
         5           Mg  tau(   5) = (   0.0000000   0.2847391   0.1975930  )
         6           Mg  tau(   6) = (   0.4867222   0.5582886   0.5927790  )
         7           Cd  tau(   7) = (   0.4867227   0.2810089   0.1975930  )
         8           Cd  tau(   8) = (  -0.0000005   0.5620187   0.5927790  )

     number of k points=    64  gaussian smearing, width (Ry)=  0.1000
                       cart. coord. in units 2pi/alat
        k(    1) = (   0.0000000   0.0000000   0.0000000), wk =   0.0095238
        k(    2) = (   0.0000000   0.0000000   0.1807467), wk =   0.0190476
        k(    3) = (   0.0000000   0.0000000   0.3614934), wk =   0.0190476
        k(    4) = (   0.0000000   0.0000000   0.5422402), wk =   0.0190476
        k(    5) = (   0.0000000   0.1977001   0.0000000), wk =   0.0190476
        k(    6) = (   0.0000000   0.1977001   0.1807467), wk =   0.0380952
        k(    7) = (   0.0000000   0.1977001   0.3614934), wk =   0.0380952
        k(    8) = (   0.0000000   0.1977001   0.5422402), wk =   0.0380952
        k(    9) = (   0.0000000   0.3954002   0.0000000), wk =   0.0190476
        k(   10) = (   0.0000000   0.3954002   0.1807467), wk =   0.0380952
        k(   11) = (   0.0000000   0.3954002   0.3614934), wk =   0.0380952
        k(   12) = (   0.0000000   0.3954002   0.5422402), wk =   0.0380952
        k(   13) = (   0.0000000  -0.5931004   0.0000000), wk =   0.0095238
        k(   14) = (   0.0000000  -0.5931004   0.1807467), wk =   0.0190476
        k(   15) = (   0.0000000  -0.5931004   0.3614934), wk =   0.0190476
        k(   16) = (   0.0000000  -0.5931004   0.5422402), wk =   0.0190476
        k(   17) = (   0.2054560   0.1186201   0.0000000), wk =   0.0190476
        k(   18) = (   0.2054560   0.1186201   0.1807467), wk =   0.0380952
        k(   19) = (   0.2054560   0.1186201   0.3614934), wk =   0.0380952
        k(   20) = (   0.2054560   0.1186201   0.5422402), wk =   0.0380952
        k(   21) = (   0.2054560   0.3163202   0.0000000), wk =   0.0190476
        k(   22) = (   0.2054560   0.3163202   0.1807467), wk =   0.0380952
        k(   23) = (   0.2054560   0.3163202   0.3614934), wk =   0.0380952
        k(   24) = (   0.2054560   0.3163202   0.5422402), wk =   0.0380952
        k(   25) = (   0.2054560   0.5140203   0.0000000), wk =   0.0190476
        k(   26) = (   0.2054560   0.5140203   0.1807467), wk =   0.0380952
        k(   27) = (   0.2054560   0.5140203   0.3614934), wk =   0.0380952
        k(   28) = (   0.2054560   0.5140203   0.5422402), wk =   0.0380952
        k(   29) = (   0.2054560  -0.4744803   0.0000000), wk =   0.0190476
        k(   30) = (   0.2054560  -0.4744803   0.1807467), wk =   0.0380952
        k(   31) = (   0.2054560  -0.4744803   0.3614934), wk =   0.0380952
        k(   32) = (   0.2054560  -0.4744803   0.5422402), wk =   0.0380952
        k(   33) = (   0.2054560  -0.2767802   0.0000000), wk =   0.0190476
        k(   34) = (   0.2054560  -0.2767802   0.1807467), wk =   0.0380952
        k(   35) = (   0.2054560  -0.2767802   0.3614934), wk =   0.0380952
        k(   36) = (   0.2054560  -0.2767802   0.5422402), wk =   0.0380952
        k(   37) = (   0.2054560  -0.0790800   0.0000000), wk =   0.0190476
        k(   38) = (   0.2054560  -0.0790800   0.1807467), wk =   0.0380952
        k(   39) = (   0.2054560  -0.0790800   0.3614934), wk =   0.0380952
        k(   40) = (   0.2054560  -0.0790800   0.5422402), wk =   0.0380952
        k(   41) = (   0.4109120   0.2372401   0.0000000), wk =   0.0190476
        k(   42) = (   0.4109120   0.2372401   0.1807467), wk =   0.0380952
        k(   43) = (   0.4109120   0.2372401   0.3614934), wk =   0.0380952
        k(   44) = (   0.4109120   0.2372401   0.5422402), wk =   0.0380952
        k(   45) = (   0.4109120   0.4349403   0.0000000), wk =   0.0190476
        k(   46) = (   0.4109120   0.4349403   0.1807467), wk =   0.0380952
        k(   47) = (   0.4109120   0.4349403   0.3614934), wk =   0.0380952
        k(   48) = (   0.4109120   0.4349403   0.5422402), wk =   0.0380952
        k(   49) = (   0.4109120   0.6326404   0.0000000), wk =   0.0190476
        k(   50) = (   0.4109120   0.6326404   0.1807467), wk =   0.0380952
        k(   51) = (   0.4109120   0.6326404   0.3614934), wk =   0.0380952
        k(   52) = (   0.4109120   0.6326404   0.5422402), wk =   0.0380952
        k(   53) = (   0.4109120  -0.3558602   0.0000000), wk =   0.0190476
        k(   54) = (   0.4109120  -0.3558602   0.1807467), wk =   0.0380952
        k(   55) = (   0.4109120  -0.3558602   0.3614934), wk =   0.0380952
        k(   56) = (   0.4109120  -0.3558602   0.5422402), wk =   0.0380952
        k(   57) = (   0.4109120  -0.1581601   0.0000000), wk =   0.0190476
        k(   58) = (   0.4109120  -0.1581601   0.1807467), wk =   0.0380952
        k(   59) = (   0.4109120  -0.1581601   0.3614934), wk =   0.0380952
        k(   60) = (   0.4109120  -0.1581601   0.5422402), wk =   0.0380952
        k(   61) = (   0.4109120   0.0395400   0.0000000), wk =   0.0190476
        k(   62) = (   0.4109120   0.0395400   0.1807467), wk =   0.0380952
        k(   63) = (   0.4109120   0.0395400   0.3614934), wk =   0.0380952
        k(   64) = (   0.4109120   0.0395400   0.5422402), wk =   0.0380952

     Largest allocated arrays     est. size (Mb)     dimensions
     Largest temporary arrays     est. size (Mb)     dimensions

     Initial potential from superposition of free atoms

     Starting from uniform charge
     Starting wfc are    0 randomized atomic wfcs

     Writing output data file Prototype-La-hP8-Mg3Cd.save

     Self-consistent Calculation

[...]

     iteration # 10     ecut=    40.00 Ry     beta=0.70
     CG style diagonalization
     c_bands:  1 eigenvalues not converged
     ethr =  4.57E-08,  avg # of iterations =  4.1

     total energy              =   -1779.44979499 Ry
     Harris-Foulkes estimate   =   -1779.44982047 Ry
     estimated scf accuracy    <       0.00006108 Ry

     iteration # 11     ecut=    40.00 Ry     beta=0.70
     CG style diagonalization
     ethr =  4.07E-08,  avg # of iterations =  3.4

     End of self-consistent calculation

[...]

          k = 0.4109 0.0395 0.5422 (  4791 PWs)   bands (ev):

   -52.1234 -52.1208 -52.1085 -52.1038 -52.1026 -52.1002 -45.2558 -45.2552
   -20.6278 -20.6272 -20.5902 -20.5829 -20.5541 -20.5419 -20.4713 -20.4451
   -20.4108 -20.4060 -20.3826 -20.3603 -20.3382 -20.3292 -20.3177 -20.3049
   -20.2975 -20.2936 -16.2404 -16.2387 -16.2300 -16.2284 -16.2258 -16.2257
    15.2248  15.2733  15.4420  15.4743  15.5423  15.7307  15.8065  15.8794
    15.9145  16.0373  16.1364  16.2520  16.3856  16.4470  16.5346  16.6364
    17.0071  17.1220  17.3753  17.5862  17.6451  17.7831  17.8575  17.9359
    18.0379  18.1276  18.4645  18.5004  18.7312  18.8481  19.1090  19.1782
    19.2820  19.5373  20.0276  20.1485  20.2502  20.3167  20.4345  20.6985
    20.9322  20.9732  21.4865  21.9983  22.6452  23.0839  25.2857  25.6114
    27.8426  28.1963  29.7158  30.1567  30.6201  30.7608  31.1989  31.7893
    32.0144  32.6623

     the Fermi energy is    22.3707 ev

!    total energy              =   -1779.44980162 Ry
     Harris-Foulkes estimate   =   -1779.44980368 Ry
     estimated scf accuracy    <       0.00000244 Ry

     The total energy is the sum of the following terms:

     one-electron contribution =    -301.13347651 Ry
     hartree contribution      =     255.87294291 Ry
     xc contribution           =    -171.91746433 Ry
     ewald contribution        =   -1562.07044446 Ry
     smearing contrib. (-TS)   =      -0.20135923 Ry

     convergence has been achieved in  11 iterations

     Forces acting on atoms (Ry/au):

     atom    1 type  1   force =     0.01630299    0.00941253    0.00000000
     atom    2 type  1   force =     0.01630299   -0.00941253    0.00000000
     atom    3 type  1   force =    -0.01630299   -0.00941253    0.00000000
     atom    4 type  1   force =    -0.01630299    0.00941253    0.00000000
     atom    5 type  1   force =     0.00000000   -0.01882507    0.00000000
     atom    6 type  1   force =     0.00000000    0.01882507    0.00000000
     atom    7 type  2   force =     0.00000000    0.00000000    0.00000000
     atom    8 type  2   force =     0.00000000    0.00000000    0.00000000

     Total force =     0.046112     Total SCF correction =     0.000000

     entering subroutine stress ...

          total   stress  (Ry/bohr**3)                   (kbar)     P= -426.32
  -0.00295926   0.00000000   0.00000000       -435.32      0.00      0.00
   0.00000000  -0.00295926   0.00000000          0.00   -435.32      0.00
   0.00000000   0.00000000  -0.00277559          0.00      0.00   -408.30

     Writing output data file Prototype-La-hP8-Mg3Cd.save

     General routines

     Parallel routines

   This run was terminated on:  18:13: 2  22Mar2018

   JOB DONE.