     Program PWSCF v.5.0.2 starts on 22Mar2018 at 17:33: 5

     Current dimensions of program PWSCF are:
     Max number of different atomic species (ntypx) = 10
     Max number of k-points (npk) =  40000
     Max angular momentum in pseudopotentials (lmaxx) =  3
     Waiting for input...
     Reading input from standard input

     Subspace diagonalization in iterative solution of the eigenvalue problem:
     a serial algorithm will be used

     bravais-lattice index     =            0
     lattice parameter (alat)  =       8.5346  a.u.
     unit-cell volume          =     621.6493 (a.u.)^3
     number of atoms/cell      =            8
     number of atomic types    =            2
     number of electrons       =       150.00
     number of Kohn-Sham states=           90
     kinetic-energy cutoff     =      40.0000  Ry
     charge density cutoff     =     160.0000  Ry
     convergence threshold     =      1.0E-04
     mixing beta               =       0.7000
     number of iterations used =            8  plain     mixing
     Exchange-correlation      = SLA-PZ-NOGX-NOGC ( 1 1 0 0 0)
     EXX-fraction              =        0.00
     nstep                     =           50

     celldm(1)=   8.534573  celldm(2)=   0.000000  celldm(3)=   0.000000
     celldm(4)=   0.000000  celldm(5)=   0.000000  celldm(6)=   0.000000

     crystal axes: (cart. coord. in units of alat)
               a(1) = (   1.000000   0.000000   0.000000 )
               a(2) = (   0.000000   1.000000   0.000000 )
               a(3) = (   0.000000   0.000000   1.000000 )

     reciprocal axes: (cart. coord. in units 2 pi/alat)
               b(1) = (  1.000000  0.000000  0.000000 )
               b(2) = (  0.000000  1.000000  0.000000 )
               b(3) = (  0.000000  0.000000  1.000000 )

     PseudoPot. # 1 for Tb read from file:
     /home/cwx6513/pp.La/Tb.UPF
     MD5 check sum: 3d6088a3f0cf7fd2e110c43f7f8e95c2
     Pseudo is Norm-conserving, Zval = 19.0
     Generated in analytical, separable form
     Using radial grid of 1263 points,  6 beta functions with:
                l(1) =   0
                l(2) =   0
                l(3) =   1
                l(4) =   1
                l(5) =   2
                l(6) =   3

     PseudoPot. # 2 for Gd read from file:
     /home/cwx6513/pp.La/Gd.UPF
     MD5 check sum: 09a8be538722f05520810cb6aac0efd2
     Pseudo is Norm-conserving, Zval = 18.0
     Generated in analytical, separable form
     Using radial grid of 1263 points,  6 beta functions with:
                l(1) =   0
                l(2) =   0
                l(3) =   1
                l(4) =   1
                l(5) =   2
                l(6) =   3

     atomic species   valence    mass     pseudopotential
        Cr            19.00    51.99610     Tb( 1.00)
        Si            18.00    28.08550     Gd( 1.00)

     48 Sym. Ops., with inversion, found (24 have fractional translation)

   Cartesian axes

     site n.     atom                  positions (alat units)
         1           Cr  tau(   1) = (   0.0000000   0.5000000   0.2500000  )
         2           Cr  tau(   2) = (   0.0000000   0.5000000   0.7500000  )
         3           Cr  tau(   3) = (   0.5000000   0.7500000   0.0000000  )
         4           Cr  tau(   4) = (   0.5000000   0.2500000   0.0000000  )
         5           Cr  tau(   5) = (   0.7500000   0.0000000   0.5000000  )
         6           Cr  tau(   6) = (   0.2500000   0.0000000   0.5000000  )
         7           Si  tau(   7) = (   0.5000000   0.5000000   0.5000000  )
         8           Si  tau(   8) = (   0.0000000   0.0000000   0.0000000  )

     number of k points=    48  gaussian smearing, width (Ry)=  0.1000
                       cart. coord. in units 2pi/alat
        k(    1) = (   0.0000000   0.0000000   0.0000000), wk =   0.0095238
        k(    2) = (   0.0000000   0.0000000   0.1428571), wk =   0.0190476
        k(    3) = (   0.0000000   0.0000000   0.2857143), wk =   0.0190476
        k(    4) = (   0.0000000   0.0000000   0.4285714), wk =   0.0190476
        k(    5) = (   0.0000000   0.1666667   0.0000000), wk =   0.0190476
        k(    6) = (   0.0000000   0.1666667   0.1428571), wk =   0.0380952
        k(    7) = (   0.0000000   0.1666667   0.2857143), wk =   0.0380952
        k(    8) = (   0.0000000   0.1666667   0.4285714), wk =   0.0380952
        k(    9) = (   0.0000000   0.3333333   0.0000000), wk =   0.0190476
        k(   10) = (   0.0000000   0.3333333   0.1428571), wk =   0.0380952
        k(   11) = (   0.0000000   0.3333333   0.2857143), wk =   0.0380952
        k(   12) = (   0.0000000   0.3333333   0.4285714), wk =   0.0380952
        k(   13) = (   0.0000000  -0.5000000   0.0000000), wk =   0.0095238
        k(   14) = (   0.0000000  -0.5000000   0.1428571), wk =   0.0190476
        k(   15) = (   0.0000000  -0.5000000   0.2857143), wk =   0.0190476
        k(   16) = (   0.0000000  -0.5000000   0.4285714), wk =   0.0190476
        k(   17) = (   0.2000000   0.0000000   0.0000000), wk =   0.0190476
        k(   18) = (   0.2000000   0.0000000   0.1428571), wk =   0.0380952
        k(   19) = (   0.2000000   0.0000000   0.2857143), wk =   0.0380952
        k(   20) = (   0.2000000   0.0000000   0.4285714), wk =   0.0380952
        k(   21) = (   0.2000000   0.1666667   0.0000000), wk =   0.0380952
        k(   22) = (   0.2000000   0.1666667   0.1428571), wk =   0.0761905
        k(   23) = (   0.2000000   0.1666667   0.2857143), wk =   0.0761905
        k(   24) = (   0.2000000   0.1666667   0.4285714), wk =   0.0761905
        k(   25) = (   0.2000000   0.3333333   0.0000000), wk =   0.0380952
        k(   26) = (   0.2000000   0.3333333   0.1428571), wk =   0.0761905
        k(   27) = (   0.2000000   0.3333333   0.2857143), wk =   0.0761905
        k(   28) = (   0.2000000   0.3333333   0.4285714), wk =   0.0761905
        k(   29) = (   0.2000000  -0.5000000   0.0000000), wk =   0.0190476
        k(   30) = (   0.2000000  -0.5000000   0.1428571), wk =   0.0380952
        k(   31) = (   0.2000000  -0.5000000   0.2857143), wk =   0.0380952
        k(   32) = (   0.2000000  -0.5000000   0.4285714), wk =   0.0380952
        k(   33) = (   0.4000000   0.0000000   0.0000000), wk =   0.0190476
        k(   34) = (   0.4000000   0.0000000   0.1428571), wk =   0.0380952
        k(   35) = (   0.4000000   0.0000000   0.2857143), wk =   0.0380952
        k(   36) = (   0.4000000   0.0000000   0.4285714), wk =   0.0380952
        k(   37) = (   0.4000000   0.1666667   0.0000000), wk =   0.0380952
        k(   38) = (   0.4000000   0.1666667   0.1428571), wk =   0.0761905
        k(   39) = (   0.4000000   0.1666667   0.2857143), wk =   0.0761905
        k(   40) = (   0.4000000   0.1666667   0.4285714), wk =   0.0761905
        k(   41) = (   0.4000000   0.3333333   0.0000000), wk =   0.0380952
        k(   42) = (   0.4000000   0.3333333   0.1428571), wk =   0.0761905
        k(   43) = (   0.4000000   0.3333333   0.2857143), wk =   0.0761905
        k(   44) = (   0.4000000   0.3333333   0.4285714), wk =   0.0761905
        k(   45) = (   0.4000000  -0.5000000   0.0000000), wk =   0.0190476
        k(   46) = (   0.4000000  -0.5000000   0.1428571), wk =   0.0380952
        k(   47) = (   0.4000000  -0.5000000   0.2857143), wk =   0.0380952
        k(   48) = (   0.4000000  -0.5000000   0.4285714), wk =   0.0380952

     Largest allocated arrays     est. size (Mb)     dimensions
     Largest temporary arrays     est. size (Mb)     dimensions

     Initial potential from superposition of free atoms

     Starting from uniform charge
     Starting wfc are    0 randomized atomic wfcs

     Self-consistent Calculation

     iteration #  1     ecut=    40.00 Ry     beta=0.70
     CG style diagonalization
     c_bands:  2 eigenvalues not converged
     c_bands:  1 eigenvalues not converged
     c_bands:  1 eigenvalues not converged
     c_bands:  1 eigenvalues not converged
     c_bands:  1 eigenvalues not converged
     c_bands:  1 eigenvalues not converged
     c_bands:  2 eigenvalues not converged
     c_bands:  2 eigenvalues not converged
     c_bands:  3 eigenvalues not converged
     c_bands:  3 eigenvalues not converged
     c_bands:  3 eigenvalues not converged
     c_bands:  3 eigenvalues not converged
     c_bands:  1 eigenvalues not converged
     c_bands:  2 eigenvalues not converged
     c_bands:  3 eigenvalues not converged
     c_bands:  2 eigenvalues not converged
     c_bands:  1 eigenvalues not converged
     c_bands:  2 eigenvalues not converged
     c_bands:  2 eigenvalues not converged
     c_bands:  1 eigenvalues not converged
     c_bands:  1 eigenvalues not converged
     c_bands:  4 eigenvalues not converged
     c_bands:  1 eigenvalues not converged
     c_bands:  3 eigenvalues not converged
     c_bands:  1 eigenvalues not converged
     c_bands:  2 eigenvalues not converged
     c_bands:  1 eigenvalues not converged
     c_bands:  3 eigenvalues not converged
     c_bands:  1 eigenvalues not converged
     c_bands:  3 eigenvalues not converged
     c_bands:  1 eigenvalues not converged
     c_bands:  4 eigenvalues not converged
     c_bands:  2 eigenvalues not converged
     c_bands:  1 eigenvalues not converged
     c_bands:  2 eigenvalues not converged
     c_bands:  1 eigenvalues not converged
     c_bands:  2 eigenvalues not converged
     ethr =  1.00E-02,  avg # of iterations = 11.7

     total energy              =   -1683.89186197 Ry
     Harris-Foulkes estimate   =   -1959.10166631 Ry
     estimated scf accuracy    <     365.02653546 Ry

     iteration #  2     ecut=    40.00 Ry     beta=0.70
     CG style diagonalization
     ethr =  1.00E-02,  avg # of iterations =  7.2

[...]

     End of self-consistent calculation

          k = 0.0000 0.0000 0.0000 (  2601 PWs)   bands (ev):

   -32.2002 -31.9575 -31.9575 -31.1796 -31.1796 -31.1796 -24.1848 -24.1243
    -3.3952  -3.3952  -2.9371  -1.4794  -1.4794  -1.4794  -0.2277  -0.2277
    -0.2277  -0.0484  -0.0484  -0.0484   0.3118   0.3118   0.3118   1.7335
     1.7335   1.7335   4.5307   4.5307   4.5307   4.6223   4.6223   4.6223
    30.5022  30.5022  31.0026  31.0141  31.0141  31.0141  32.2605  33.0627
    33.6738  33.6738  33.6738  34.0461  34.2051  34.2051  34.2051  34.3154
    34.3154  36.7694  36.7694  37.5219  37.5219  37.5219  38.6678  38.6678
    38.6678  39.2803  39.2803  39.2803  39.3928  39.3928  39.3928  40.8300
    40.8300  41.1425  41.1425  42.4064  42.4064  42.4064  44.4981  44.4981
    44.4981  48.5058  48.5058  48.5058  50.9753  51.8949  51.8949  51.8949
    52.3473  52.3473  53.1257  53.1258  53.1256  53.5544  56.5301  56.5302
    56.5300  57.3157

[...]

     the Fermi energy is    47.1576 ev

!    total energy              =   -1772.78190491 Ry
     Harris-Foulkes estimate   =   -1772.78194036 Ry
     estimated scf accuracy    <       0.00004053 Ry

     The total energy is the sum of the following terms:

     one-electron contribution =     173.95526697 Ry
     hartree contribution      =     134.05348884 Ry
     xc contribution           =    -180.87768173 Ry
     ewald contribution        =   -1899.82176752 Ry
[...]

     new trust radius        =       0.2349862571 bohr
     new conv_thr            =       0.0000010000 Ry

[...]

     number of scf cycles    =   3
     number of bfgs steps    =   2

     enthalpy old            =   -1775.7032871109 Ry
     enthalpy new            =   -1775.5160786167 Ry

     CASE: enthalpy_new > enthalpy_old

     new trust radius        =       0.0562731581 bohr

     trust_radius < trust_radius_min

     resetting bfgs history

     Message from routine bfgs:
     history already reset at previous step: stopping
     new conv_thr            =       0.0000010000 Ry

     new unit-cell volume =    929.34385 a.u.^3 (   137.71455 Ang^3 )

[...]

ATOMIC_POSITIONS (crystal)
Cr       0.000000000   0.500000000   0.250000000
Cr       0.000000000   0.500000000   0.750000000
Cr       0.500000000   0.750000000   0.000000000
Cr       0.500000000   0.250000000   0.000000000
Cr       0.750000000   0.000000000   0.500000000
Cr       0.250000000   0.000000000   0.500000000
Si       0.500000000   0.500000000   0.500000000
Si       0.000000000   0.000000000   0.000000000

     Writing output data file Prototype-La-cP8-Cr3Si.save
     NEW-OLD atomic charge density approx. for the potential
     NEW k-points:
        k(    1) = (   0.0000000   0.0000000   0.0000000), wk =   0.0095238
        k(    2) = (   0.0000000   0.0000000   0.1249372), wk =   0.0190476
        k(    3) = (   0.0000000   0.0000000   0.2498743), wk =   0.0190476
        k(    4) = (   0.0000000   0.0000000   0.3748115), wk =   0.0190476
        k(    5) = (   0.0000000   0.1457600   0.0000000), wk =   0.0190476
        k(    6) = (   0.0000000   0.1457600   0.1249372), wk =   0.0380952
        k(    7) = (   0.0000000   0.1457600   0.2498743), wk =   0.0380952
        k(    8) = (   0.0000000   0.1457600   0.3748115), wk =   0.0380952
        k(    9) = (   0.0000000   0.2915200   0.0000000), wk =   0.0190476
        k(   10) = (   0.0000000   0.2915200   0.1249372), wk =   0.0380952
        k(   11) = (   0.0000000   0.2915200   0.2498743), wk =   0.0380952
        k(   12) = (   0.0000000   0.2915200   0.3748115), wk =   0.0380952
        k(   13) = (   0.0000000  -0.4372801   0.0000000), wk =   0.0095238
        k(   14) = (   0.0000000  -0.4372801   0.1249372), wk =   0.0190476
        k(   15) = (   0.0000000  -0.4372801   0.2498743), wk =   0.0190476
        k(   16) = (   0.0000000  -0.4372801   0.3748115), wk =   0.0190476
        k(   17) = (   0.1749120   0.0000000   0.0000000), wk =   0.0190476
        k(   18) = (   0.1749120   0.0000000   0.1249372), wk =   0.0380952
        k(   19) = (   0.1749120   0.0000000   0.2498743), wk =   0.0380952
        k(   20) = (   0.1749120   0.0000000   0.3748115), wk =   0.0380952
        k(   21) = (   0.1749120   0.1457600   0.0000000), wk =   0.0380952
        k(   22) = (   0.1749120   0.1457600   0.1249372), wk =   0.0761905
        k(   23) = (   0.1749120   0.1457600   0.2498743), wk =   0.0761905
        k(   24) = (   0.1749120   0.1457600   0.3748115), wk =   0.0761905
        k(   25) = (   0.1749120   0.2915200   0.0000000), wk =   0.0380952
        k(   26) = (   0.1749120   0.2915200   0.1249372), wk =   0.0761905
        k(   27) = (   0.1749120   0.2915200   0.2498743), wk =   0.0761905
        k(   28) = (   0.1749120   0.2915200   0.3748115), wk =   0.0761905
        k(   29) = (   0.1749120  -0.4372801   0.0000000), wk =   0.0190476
        k(   30) = (   0.1749120  -0.4372801   0.1249372), wk =   0.0380952
        k(   31) = (   0.1749120  -0.4372801   0.2498743), wk =   0.0380952
        k(   32) = (   0.1749120  -0.4372801   0.3748115), wk =   0.0380952
        k(   33) = (   0.3498240   0.0000000   0.0000000), wk =   0.0190476
        k(   34) = (   0.3498240   0.0000000   0.1249372), wk =   0.0380952
        k(   35) = (   0.3498240   0.0000000   0.2498743), wk =   0.0380952
        k(   36) = (   0.3498240   0.0000000   0.3748115), wk =   0.0380952
        k(   37) = (   0.3498240   0.1457600   0.0000000), wk =   0.0380952
        k(   38) = (   0.3498240   0.1457600   0.1249372), wk =   0.0761905
        k(   39) = (   0.3498240   0.1457600   0.2498743), wk =   0.0761905
        k(   40) = (   0.3498240   0.1457600   0.3748115), wk =   0.0761905
        k(   41) = (   0.3498240   0.2915200   0.0000000), wk =   0.0380952
        k(   42) = (   0.3498240   0.2915200   0.1249372), wk =   0.0761905
        k(   43) = (   0.3498240   0.2915200   0.2498743), wk =   0.0761905
        k(   44) = (   0.3498240   0.2915200   0.3748115), wk =   0.0761905
        k(   45) = (   0.3498240  -0.4372801   0.0000000), wk =   0.0190476
        k(   46) = (   0.3498240  -0.4372801   0.1249372), wk =   0.0380952
        k(   47) = (   0.3498240  -0.4372801   0.2498743), wk =   0.0380952
        k(   48) = (   0.3498240  -0.4372801   0.3748115), wk =   0.0380952

[...]

     The maximum number of steps has been reached.

     End of BFGS Geometry Optimization
Begin final coordinates
     new unit-cell volume =    929.34385 a.u.^3 (   137.71455 Ang^3 )

CELL_PARAMETERS (alat=  8.53457320)
   1.143431984   0.000000000   0.000000000
   0.000000000   1.143431984   0.000000000
   0.000000000   0.000000000   1.143431984

ATOMIC_POSITIONS (crystal)
Cr       0.000000000   0.500000000   0.250000000
Cr       0.000000000   0.500000000   0.750000000
Cr       0.500000000   0.750000000   0.000000000
Cr       0.500000000   0.250000000   0.000000000
Cr       0.750000000   0.000000000   0.500000000
Cr       0.250000000   0.000000000   0.500000000
Si       0.500000000   0.500000000   0.500000000
Si       0.000000000   0.000000000   0.000000000
End final coordinates

     A final scf calculation at the relaxed structure.
     The G-vectors are recalculated for the final unit cell
     Results may differ from those at the preceding step.

     bravais-lattice index     =            0
     lattice parameter (alat)  =       8.5346  a.u.
     unit-cell volume          =     929.3439 (a.u.)^3
     number of atoms/cell      =            8
     number of atomic types    =            2
     number of electrons       =       150.00
     number of Kohn-Sham states=           90
     kinetic-energy cutoff     =      40.0000  Ry
     charge density cutoff     =     160.0000  Ry
     convergence threshold     =      1.0E-06
     mixing beta               =       0.7000
     number of iterations used =            8  plain     mixing
     Exchange-correlation      = SLA-PZ-NOGX-NOGC ( 1 1 0 0 0)
     EXX-fraction              =        0.00

     celldm(1)=   8.534573  celldm(2)=   0.000000  celldm(3)=   0.000000
     celldm(4)=   0.000000  celldm(5)=   0.000000  celldm(6)=   0.000000

     crystal axes: (cart. coord. in units of alat)
               a(1) = (   1.143432   0.000000   0.000000 )
               a(2) = (   0.000000   1.143432   0.000000 )
               a(3) = (   0.000000   0.000000   1.143432 )

     reciprocal axes: (cart. coord. in units 2 pi/alat)
               b(1) = (  0.874560  0.000000  0.000000 )
               b(2) = (  0.000000  0.874560  0.000000 )
               b(3) = (  0.000000  0.000000  0.874560 )

     PseudoPot. # 1 for Tb read from file:
     /home/cwx6513/pp.La/Tb.UPF
     MD5 check sum: 3d6088a3f0cf7fd2e110c43f7f8e95c2
     Pseudo is Norm-conserving, Zval = 19.0
     Generated in analytical, separable form
     Using radial grid of 1263 points,  6 beta functions with:
                l(1) =   0
                l(2) =   0
                l(3) =   1
                l(4) =   1
                l(5) =   2
                l(6) =   3

     PseudoPot. # 2 for Gd read from file:
     /home/cwx6513/pp.La/Gd.UPF
     MD5 check sum: 09a8be538722f05520810cb6aac0efd2
     Pseudo is Norm-conserving, Zval = 18.0
     Generated in analytical, separable form
     Using radial grid of 1263 points,  6 beta functions with:
                l(1) =   0
                l(2) =   0
                l(3) =   1
                l(4) =   1
                l(5) =   2
                l(6) =   3

     atomic species   valence    mass     pseudopotential
        Cr            19.00    51.99610     Tb( 1.00)
        Si            18.00    28.08550     Gd( 1.00)

     48 Sym. Ops., with inversion, found (24 have fractional translation)

   Cartesian axes

     site n.     atom                  positions (alat units)
         1           Cr  tau(   1) = (   0.0000000   0.5717160   0.2858580  )
         2           Cr  tau(   2) = (   0.0000000   0.5717160   0.8575740  )
         3           Cr  tau(   3) = (   0.5717160   0.8575740   0.0000000  )
         4           Cr  tau(   4) = (   0.5717160   0.2858580   0.0000000  )
         5           Cr  tau(   5) = (   0.8575740   0.0000000   0.5717160  )
         6           Cr  tau(   6) = (   0.2858580   0.0000000   0.5717160  )
         7           Si  tau(   7) = (   0.5717160   0.5717160   0.5717160  )
         8           Si  tau(   8) = (   0.0000000   0.0000000   0.0000000  )

     number of k points=    48  gaussian smearing, width (Ry)=  0.1000
                       cart. coord. in units 2pi/alat
        k(    1) = (   0.0000000   0.0000000   0.0000000), wk =   0.0095238
        k(    2) = (   0.0000000   0.0000000   0.1249372), wk =   0.0190476
        k(    3) = (   0.0000000   0.0000000   0.2498743), wk =   0.0190476
        k(    4) = (   0.0000000   0.0000000   0.3748115), wk =   0.0190476
        k(    5) = (   0.0000000   0.1457600   0.0000000), wk =   0.0190476
        k(    6) = (   0.0000000   0.1457600   0.1249372), wk =   0.0380952
        k(    7) = (   0.0000000   0.1457600   0.2498743), wk =   0.0380952
        k(    8) = (   0.0000000   0.1457600   0.3748115), wk =   0.0380952
        k(    9) = (   0.0000000   0.2915200   0.0000000), wk =   0.0190476
        k(   10) = (   0.0000000   0.2915200   0.1249372), wk =   0.0380952
        k(   11) = (   0.0000000   0.2915200   0.2498743), wk =   0.0380952
        k(   12) = (   0.0000000   0.2915200   0.3748115), wk =   0.0380952
        k(   13) = (   0.0000000  -0.4372801   0.0000000), wk =   0.0095238
        k(   14) = (   0.0000000  -0.4372801   0.1249372), wk =   0.0190476
        k(   15) = (   0.0000000  -0.4372801   0.2498743), wk =   0.0190476
        k(   16) = (   0.0000000  -0.4372801   0.3748115), wk =   0.0190476
        k(   17) = (   0.1749120   0.0000000   0.0000000), wk =   0.0190476
        k(   18) = (   0.1749120   0.0000000   0.1249372), wk =   0.0380952
        k(   19) = (   0.1749120   0.0000000   0.2498743), wk =   0.0380952
        k(   20) = (   0.1749120   0.0000000   0.3748115), wk =   0.0380952
        k(   21) = (   0.1749120   0.1457600   0.0000000), wk =   0.0380952
        k(   22) = (   0.1749120   0.1457600   0.1249372), wk =   0.0761905
        k(   23) = (   0.1749120   0.1457600   0.2498743), wk =   0.0761905
        k(   24) = (   0.1749120   0.1457600   0.3748115), wk =   0.0761905
        k(   25) = (   0.1749120   0.2915200   0.0000000), wk =   0.0380952
        k(   26) = (   0.1749120   0.2915200   0.1249372), wk =   0.0761905
        k(   27) = (   0.1749120   0.2915200   0.2498743), wk =   0.0761905
        k(   28) = (   0.1749120   0.2915200   0.3748115), wk =   0.0761905
        k(   29) = (   0.1749120  -0.4372801   0.0000000), wk =   0.0190476
        k(   30) = (   0.1749120  -0.4372801   0.1249372), wk =   0.0380952
        k(   31) = (   0.1749120  -0.4372801   0.2498743), wk =   0.0380952
        k(   32) = (   0.1749120  -0.4372801   0.3748115), wk =   0.0380952
        k(   33) = (   0.3498240   0.0000000   0.0000000), wk =   0.0190476
        k(   34) = (   0.3498240   0.0000000   0.1249372), wk =   0.0380952
        k(   35) = (   0.3498240   0.0000000   0.2498743), wk =   0.0380952
        k(   36) = (   0.3498240   0.0000000   0.3748115), wk =   0.0380952
        k(   37) = (   0.3498240   0.1457600   0.0000000), wk =   0.0380952
        k(   38) = (   0.3498240   0.1457600   0.1249372), wk =   0.0761905
        k(   39) = (   0.3498240   0.1457600   0.2498743), wk =   0.0761905
        k(   40) = (   0.3498240   0.1457600   0.3748115), wk =   0.0761905
        k(   41) = (   0.3498240   0.2915200   0.0000000), wk =   0.0380952
        k(   42) = (   0.3498240   0.2915200   0.1249372), wk =   0.0761905
        k(   43) = (   0.3498240   0.2915200   0.2498743), wk =   0.0761905
        k(   44) = (   0.3498240   0.2915200   0.3748115), wk =   0.0761905
        k(   45) = (   0.3498240  -0.4372801   0.0000000), wk =   0.0190476
        k(   46) = (   0.3498240  -0.4372801   0.1249372), wk =   0.0380952
        k(   47) = (   0.3498240  -0.4372801   0.2498743), wk =   0.0380952
        k(   48) = (   0.3498240  -0.4372801   0.3748115), wk =   0.0380952

     Largest allocated arrays     est. size (Mb)     dimensions
     Largest temporary arrays     est. size (Mb)     dimensions

     Initial potential from superposition of free atoms

     Starting from uniform charge
     Starting wfc are    0 randomized atomic wfcs

     Writing output data file Prototype-La-cP8-Cr3Si.save

     Self-consistent Calculation

[...]

     negative rho (up, down):  0.358E-03 0.000E+00

[...]

     iteration #  8     ecut=    40.00 Ry     beta=0.70
     CG style diagonalization
     c_bands:  2 eigenvalues not converged
     c_bands:  3 eigenvalues not converged
     c_bands:  1 eigenvalues not converged
     c_bands:  1 eigenvalues not converged
     c_bands:  2 eigenvalues not converged
     c_bands:  2 eigenvalues not converged
     c_bands:  1 eigenvalues not converged
     c_bands:  1 eigenvalues not converged
     c_bands:  1 eigenvalues not converged
     ethr =  1.81E-08,  avg # of iterations =  4.8

     total energy              =   -1778.58943106 Ry
     Harris-Foulkes estimate   =   -1778.58946607 Ry
     estimated scf accuracy    <       0.00006365 Ry

     iteration #  9     ecut=    40.00 Ry     beta=0.70
     CG style diagonalization
     ethr =  1.81E-08,  avg # of iterations =  3.6

     End of self-consistent calculation

[...]

          k = 0.3498-0.4373 0.3748 (  3962 PWs)   bands (ev):

   -46.6997 -46.6900 -46.6689 -46.6687 -46.6479 -46.6383 -39.5571 -39.5571
   -15.5715 -15.5057 -15.3293 -15.3275 -15.1905 -15.1897 -15.1705 -15.1217
   -15.0173 -15.0040 -14.9834 -14.9744 -14.9462 -14.9411 -14.9093 -14.9069
   -14.8964 -14.8959 -10.6402 -10.6398 -10.6382 -10.6379 -10.6362 -10.6357
    19.9670  19.9753  20.0696  20.1353  20.2469  20.2490  20.6704  20.6920
    20.7329  20.7714  20.9009  20.9031  21.0031  21.0442  21.1439  21.3170
    21.6929  21.7121  21.9830  22.0746  22.4768  22.5068  23.0657  23.2099
    23.3207  23.3588  23.7144  23.7334  23.9957  24.0990  25.4570  25.4753
    25.6105  25.7053  25.9231  25.9606  26.6553  26.6921  26.8265  26.8296
    26.9241  27.1399  27.9002  28.1510  28.2692  28.6013  29.3675  29.5404
    36.5990  36.7543  37.2855  37.5925  38.0420  38.3014  39.2880  39.6064
    40.0632  40.1804

     the Fermi energy is    28.7859 ev

!    total energy              =   -1778.58944173 Ry
     Harris-Foulkes estimate   =   -1778.58944192 Ry
     estimated scf accuracy    <       0.00000035 Ry

     The total energy is the sum of the following terms:

     one-electron contribution =    -157.53373376 Ry
     hartree contribution      =     214.68091671 Ry
     xc contribution           =    -174.07159202 Ry
     ewald contribution        =   -1661.50833119 Ry
     smearing contrib. (-TS)   =      -0.15670146 Ry

     convergence has been achieved in   9 iterations

     Forces acting on atoms (Ry/au):

     atom    1 type  1   force =     0.00000000    0.00000000    0.00000000
     atom    2 type  1   force =     0.00000000    0.00000000    0.00000000
     atom    3 type  1   force =     0.00000000    0.00000000    0.00000000
     atom    4 type  1   force =     0.00000000    0.00000000    0.00000000
     atom    5 type  1   force =     0.00000000    0.00000000    0.00000000
     atom    6 type  1   force =     0.00000000    0.00000000    0.00000000
     atom    7 type  2   force =     0.00000000    0.00000000    0.00000000
     atom    8 type  2   force =     0.00000000    0.00000000    0.00000000

     Total force =     0.000000     Total SCF correction =     0.000000

     entering subroutine stress ...

          total   stress  (Ry/bohr**3)                   (kbar)     P=  210.03
   0.00142777   0.00000000   0.00000000        210.03      0.00      0.00
   0.00000000   0.00142777   0.00000000          0.00    210.03      0.00
   0.00000000   0.00000000   0.00142777          0.00      0.00    210.03

     Writing output data file Prototype-La-cP8-Cr3Si.save

     General routines

     Parallel routines

   This run was terminated on:  17:49:21  22Mar2018

   JOB DONE.