     Program PWSCF v.5.0.2 starts on 22Mar2018 at 17:33: 5

     Current dimensions of program PWSCF are:
     Max number of different atomic species (ntypx) = 10
     Max number of k-points (npk) =  40000
     Max angular momentum in pseudopotentials (lmaxx) =  3
     Waiting for input...
     Reading input from standard input

     Subspace diagonalization in iterative solution of the eigenvalue problem:
     a serial algorithm will be used

     bravais-lattice index     =            0
     lattice parameter (alat)  =       9.9235  a.u.
     unit-cell volume          =    1361.0366 (a.u.)^3
     number of atoms/cell      =           12
     number of atomic types    =            2
     number of electrons       =       220.00
     number of Kohn-Sham states=          132
     kinetic-energy cutoff     =      40.0000  Ry
     charge density cutoff     =     160.0000  Ry
     convergence threshold     =      1.0E-04
     mixing beta               =       0.7000
     number of iterations used =            8  plain     mixing
     Exchange-correlation      = SLA-PZ-NOGX-NOGC ( 1 1 0 0 0)
     EXX-fraction              =        0.00
     nstep                     =           50

     celldm(1)=   9.923489  celldm(2)=   0.000000  celldm(3)=   0.000000
     celldm(4)=   0.000000  celldm(5)=   0.000000  celldm(6)=   0.000000

     crystal axes: (cart. coord. in units of alat)
               a(1) = (   1.000000   0.000000   0.000000 )
               a(2) = (  -0.500000   0.866025   0.000000 )
               a(3) = (   0.000000   0.000000   1.608222 )

     reciprocal axes: (cart. coord. in units 2 pi/alat)
               b(1) = (  1.000000  0.577350  0.000000 )
               b(2) = (  0.000000  1.154701  0.000000 )
               b(3) = (  0.000000  0.000000  0.621805 )

     PseudoPot. # 1 for Tb read from file:
     /home/cwx6513/pp.La/Tb.UPF
     MD5 check sum: 3d6088a3f0cf7fd2e110c43f7f8e95c2
     Pseudo is Norm-conserving, Zval = 19.0
     Generated in analytical, separable form
     Using radial grid of 1263 points,  6 beta functions with:
                l(1) =   0
                l(2) =   0
                l(3) =   1
                l(4) =   1
                l(5) =   2
                l(6) =   3

     PseudoPot. # 2 for Gd read from file:
     /home/cwx6513/pp.La/Gd.UPF
     MD5 check sum: 09a8be538722f05520810cb6aac0efd2
     Pseudo is Norm-conserving, Zval = 18.0
     Generated in analytical, separable form
     Using radial grid of 1263 points,  6 beta functions with:
                l(1) =   0
                l(2) =   0
                l(3) =   1
                l(4) =   1
                l(5) =   2
                l(6) =   3

     atomic species   valence    mass     pseudopotential
        Mg            19.00    24.30500     Tb( 1.00)
        Zn            18.00    65.39000     Gd( 1.00)

     24 Sym. Ops., with inversion, found (12 have fractional translation)

   Cartesian axes

     site n.     atom                  positions (alat units)
         1           Mg  tau(   1) = (  -0.0000005   0.5773506   0.1003820  )
         2           Mg  tau(   2) = (   0.5000005   0.2886748   0.9044931  )
         3           Mg  tau(   3) = (   0.5000005   0.2886748   1.5078402  )
         4           Mg  tau(   4) = (  -0.0000005   0.5773506   0.7037291  )
         5           Zn  tau(   5) = (   0.0000000   0.0000000   0.0000000  )
         6           Zn  tau(   6) = (   0.0000000   0.0000000   0.8041111  )
         7           Zn  tau(   7) = (   0.0000000   0.2950739   1.2061667  )
         8           Zn  tau(   8) = (   0.7444585   0.1475370   0.4020556  )
         9           Zn  tau(   9) = (   0.2555415   0.1475370   0.4020556  )
        10           Zn  tau(  10) = (   0.2444585   0.7184884   1.2061667  )
        11           Zn  tau(  11) = (  -0.2444585   0.7184884   1.2061667  )
        12           Zn  tau(  12) = (   0.5000000   0.5709515   0.4020556  )

     number of k points=    12  gaussian smearing, width (Ry)=  0.1000
                       cart. coord. in units 2pi/alat
        k(    1) = (   0.0000000   0.0000000   0.0000000), wk =   0.0833333
        k(    2) = (   0.0000000   0.0000000   0.1554512), wk =   0.1666667
        k(    3) = (   0.0000000   0.0000000  -0.3109023), wk =   0.0833333
        k(    4) = (   0.0000000   0.3849002   0.0000000), wk =   0.1666667
        k(    5) = (   0.0000000   0.3849002   0.1554512), wk =   0.3333333
        k(    6) = (   0.0000000   0.3849002  -0.3109023), wk =   0.1666667
        k(    7) = (  -0.5000000  -0.2886751   0.0000000), wk =   0.0833333
        k(    8) = (  -0.5000000  -0.2886751   0.1554512), wk =   0.1666667
        k(    9) = (  -0.5000000  -0.2886751  -0.3109023), wk =   0.0833333
        k(   10) = (  -0.5000000   0.0962250   0.0000000), wk =   0.1666667
        k(   11) = (  -0.5000000   0.0962250   0.1554512), wk =   0.3333333
        k(   12) = (  -0.5000000   0.0962250  -0.3109023), wk =   0.1666667

     Largest allocated arrays     est. size (Mb)     dimensions
     Largest temporary arrays     est. size (Mb)     dimensions

     Initial potential from superposition of free atoms

     Starting from uniform charge
     Starting wfc are    0 randomized atomic wfcs

     Self-consistent Calculation

     iteration #  1     ecut=    40.00 Ry     beta=0.70
     CG style diagonalization
     ethr =  1.00E-02,  avg # of iterations = 17.0

     total energy              =   -2357.75079216 Ry
     Harris-Foulkes estimate   =   -2969.24913791 Ry
     estimated scf accuracy    <     794.79087237 Ry

[...]

     iteration #  7     ecut=    40.00 Ry     beta=0.70
     CG style diagonalization
     c_bands:  1 eigenvalues not converged
     c_bands:  1 eigenvalues not converged
     c_bands:  1 eigenvalues not converged
     ethr =  1.39E-04,  avg # of iterations =  3.6

[...]

     End of self-consistent calculation

          k = 0.0000 0.0000 0.0000 (  5769 PWs)   bands (ev):

   -45.7751 -45.7713 -45.7692 -45.7589 -40.0449 -39.9548 -39.6722 -39.6151
   -39.6150 -39.6132 -39.6131 -39.5688 -14.2323 -14.2228 -14.2153 -14.2153
   -14.1709 -14.1709 -14.1072 -14.0963 -14.0744 -14.0744 -14.0670 -14.0670
   -12.9187 -12.5552 -11.9968 -11.4572 -11.4572 -11.3667 -11.3667 -11.2366
   -11.2365 -10.9857 -10.7721 -10.6796 -10.6795 -10.6118 -10.6118 -10.0742
   -10.0675 -10.0603 -10.0423 -10.0423 -10.0400 -10.0400  -9.9579  -9.9579
    18.2373  18.9814  19.1741  19.6981  20.1167  20.1167  20.6760  20.7192
    20.7192  20.8081  20.9098  20.9099  21.3088  21.3088  21.4429  21.5412
    21.5413  21.6873  21.9343  21.9343  22.4925  22.4926  22.5571  23.0604
    23.0604  23.4728  23.4729  23.4976  23.5648  23.5648  23.6643  23.6643
    23.9420  23.9420  23.9681  23.9681  24.4537  24.4537  24.4716  24.9396
    24.9712  25.9924  25.9924  26.0642  26.2159  26.2159  26.3973  26.6539
    26.8848  26.8848  27.0783  27.3807  27.3808  27.3971  27.3971  28.0554
    28.0555  29.1065  29.1066  29.4290  29.4290  30.9894  30.9972  31.3786
    31.5531  31.7034  32.4793  32.4794  32.9261  33.1688  33.1689  34.4943
    35.0331  35.0332  35.4203  35.9171  37.0218  37.0220  37.2847  37.8959
    37.8960  37.9532  38.2996  38.2998

[...]

          k =-0.5000-0.2887 0.0000 (  5800 PWs)   bands (ev):

[...]

     the Fermi energy is    29.2959 ev

!    total energy              =   -2527.26724692 Ry
     Harris-Foulkes estimate   =   -2527.26731340 Ry
     estimated scf accuracy    <       0.00006995 Ry

     The total energy is the sum of the following terms:

     one-electron contribution =    -185.53234151 Ry
     hartree contribution      =     298.52515544 Ry
     xc contribution           =    -251.96809337 Ry
     ewald contribution        =   -2387.96515636 Ry
     smearing contrib. (-TS)   =      -0.32681113 Ry

     convergence has been achieved in  10 iterations

     Forces acting on atoms (Ry/au):

     atom    1 type  1   force =     0.00000000    0.00000000    0.01611685
     atom    2 type  1   force =     0.00000000    0.00000000    0.01611685
     atom    3 type  1   force =     0.00000000    0.00000000   -0.01611685
     atom    4 type  1   force =     0.00000000    0.00000000   -0.01611685
     atom    5 type  2   force =     0.00000000    0.00000000    0.00000000
     atom    6 type  2   force =     0.00000000    0.00000000    0.00000000
     atom    7 type  2   force =     0.00000000    0.00268902    0.00000000
     atom    8 type  2   force =    -0.00232876    0.00134451    0.00000000
     atom    9 type  2   force =     0.00232876    0.00134451    0.00000000
     atom   10 type  2   force =    -0.00232876   -0.00134451    0.00000000
     atom   11 type  2   force =     0.00232876   -0.00134451    0.00000000
     atom   12 type  2   force =     0.00000000   -0.00268902    0.00000000

     Total force =     0.032900     Total SCF correction =     0.000000

     entering subroutine stress ...

          total   stress  (Ry/bohr**3)                   (kbar)     P=  518.52
   0.00346608   0.00000000   0.00000000        509.88      0.00      0.00
   0.00000000   0.00346608   0.00000000          0.00    509.88      0.00
   0.00000000   0.00000000   0.00364228          0.00      0.00    535.80

     BFGS Geometry Optimization

     number of scf cycles    =   1
     number of bfgs steps    =   0

     enthalpy new            =   -2527.2672469173 Ry

     new trust radius        =       0.5000000000 bohr
     new conv_thr            =       0.0001000000 Ry

     new unit-cell volume =   1646.74339 a.u.^3 (   244.02219 Ang^3 )

CELL_PARAMETERS (alat=  9.92348860)
   1.064486669   0.000000000   0.000000000
  -0.532243334   0.921872497   0.000000000
   0.000000000   0.000000000   1.717203317

ATOMIC_POSITIONS (crystal)
Mg       0.333333000   0.666667000   0.063169555
Mg       0.666667000   0.333333000   0.563169555
Mg       0.666667000   0.333333000   0.936830445
Mg       0.333333000   0.666667000   0.436830445
Zn       0.000000000   0.000000000   0.000000000
Zn       0.000000000   0.000000000   0.500000000
Zn       0.170477429   0.340954858   0.750000000
Zn       0.829522571   0.170477429   0.250000000
Zn       0.340954858   0.170477429   0.250000000
Zn       0.659045142   0.829522571   0.750000000
Zn       0.170477429   0.829522571   0.750000000
Zn       0.829522571   0.659045142   0.250000000

     Writing output data file Prototype-La-hP12-MgZn2.save
     NEW-OLD atomic charge density approx. for the potential
     NEW k-points:
        k(    1) = (   0.0000000   0.0000000   0.0000000), wk =   0.0833333
        k(    2) = (   0.0000000   0.0000000   0.1455856), wk =   0.1666667
        k(    3) = (   0.0000000   0.0000000  -0.2911711), wk =   0.0833333
        k(    4) = (   0.0000000   0.3615829   0.0000000), wk =   0.1666667
        k(    5) = (   0.0000000   0.3615829   0.1455856), wk =   0.3333333
        k(    6) = (   0.0000000   0.3615829  -0.2911711), wk =   0.1666667
        k(    7) = (  -0.4697100  -0.2711872   0.0000000), wk =   0.0833333
        k(    8) = (  -0.4697100  -0.2711872   0.1455856), wk =   0.1666667
        k(    9) = (  -0.4697100  -0.2711872  -0.2911711), wk =   0.0833333
        k(   10) = (  -0.4697100   0.0903957   0.0000000), wk =   0.1666667
        k(   11) = (  -0.4697100   0.0903957   0.1455856), wk =   0.3333333
        k(   12) = (  -0.4697100   0.0903957  -0.2911711), wk =   0.1666667

[...]

     enthalpy old            =   -2527.2672469173 Ry
     enthalpy new            =   -2527.1763574464 Ry

     CASE: enthalpy_new > enthalpy_old

     new trust radius        =       0.2349456187 bohr

     trust_radius < trust_radius_min

     resetting bfgs history

     new conv_thr            =       0.0001000000 Ry

[...]

     number of scf cycles    =   3
     number of bfgs steps    =   1

     enthalpy old            =   -2527.2672469173 Ry
     enthalpy new            =   -2527.2079572447 Ry

     CASE: enthalpy_new > enthalpy_old

     new trust radius        =       0.2344849495 bohr

     trust_radius < trust_radius_min

     resetting bfgs history

     Message from routine bfgs:
     history already reset at previous step: stopping
     new conv_thr            =       0.0001000000 Ry

     new unit-cell volume =   1636.92417 a.u.^3 (   242.56713 Ang^3 )

[...]

ATOMIC_POSITIONS (crystal)
Mg       0.333333000   0.666667000   0.063098774
Mg       0.666667000   0.333333000   0.563098774
Mg       0.666667000   0.333333000   0.936901226
Mg       0.333333000   0.666667000   0.436901226
Zn       0.000000000   0.000000000   0.000000000
Zn       0.000000000   0.000000000   0.500000000
Zn       0.170467173   0.340934346   0.750000000
Zn       0.829532827   0.170467173   0.250000000
Zn       0.340934346   0.170467173   0.250000000
Zn       0.659065654   0.829532827   0.750000000
Zn       0.170467173   0.829532827   0.750000000
Zn       0.829532827   0.659065654   0.250000000

     Writing output data file Prototype-La-hP12-MgZn2.save
     NEW-OLD atomic charge density approx. for the potential
     NEW k-points:
        k(    1) = (   0.0000000   0.0000000   0.0000000), wk =   0.0833333
        k(    2) = (   0.0000000   0.0000000   0.1458457), wk =   0.1666667
        k(    3) = (   0.0000000   0.0000000  -0.2916913), wk =   0.0833333
        k(    4) = (   0.0000000   0.3623422   0.0000000), wk =   0.1666667
        k(    5) = (   0.0000000   0.3623422   0.1458457), wk =   0.3333333
        k(    6) = (   0.0000000   0.3623422  -0.2916913), wk =   0.1666667
        k(    7) = (  -0.4706964  -0.2717567   0.0000000), wk =   0.0833333
        k(    8) = (  -0.4706964  -0.2717567   0.1458457), wk =   0.1666667
        k(    9) = (  -0.4706964  -0.2717567  -0.2916913), wk =   0.0833333
        k(   10) = (  -0.4706964   0.0905856   0.0000000), wk =   0.1666667
        k(   11) = (  -0.4706964   0.0905856   0.1458457), wk =   0.3333333
        k(   12) = (  -0.4706964   0.0905856  -0.2916913), wk =   0.1666667

[...]

     The maximum number of steps has been reached.

     End of BFGS Geometry Optimization
Begin final coordinates
     new unit-cell volume =   1636.92417 a.u.^3 (   242.56713 Ang^3 )

CELL_PARAMETERS (alat=  9.92348860)
   1.062255869   0.000000000   0.000000000
  -0.531127934   0.919940568   0.000000000
   0.000000000   0.000000000   1.714140937

ATOMIC_POSITIONS (crystal)
Mg       0.333333000   0.666667000   0.063098774
Mg       0.666667000   0.333333000   0.563098774
Mg       0.666667000   0.333333000   0.936901226
Mg       0.333333000   0.666667000   0.436901226
Zn       0.000000000   0.000000000   0.000000000
Zn       0.000000000   0.000000000   0.500000000
Zn       0.170467173   0.340934346   0.750000000
Zn       0.829532827   0.170467173   0.250000000
Zn       0.340934346   0.170467173   0.250000000
Zn       0.659065654   0.829532827   0.750000000
Zn       0.170467173   0.829532827   0.750000000
Zn       0.829532827   0.659065654   0.250000000
End final coordinates

     A final scf calculation at the relaxed structure.
     The G-vectors are recalculated for the final unit cell
     Results may differ from those at the preceding step.

     bravais-lattice index     =            0
     lattice parameter (alat)  =       9.9235  a.u.
     unit-cell volume          =    1636.9242 (a.u.)^3
     number of atoms/cell      =           12
     number of atomic types    =            2
     number of electrons       =       220.00
     number of Kohn-Sham states=          132
     kinetic-energy cutoff     =      40.0000  Ry
     charge density cutoff     =     160.0000  Ry
     convergence threshold     =      1.0E-04
     mixing beta               =       0.7000
     number of iterations used =            8  plain     mixing
     Exchange-correlation      = SLA-PZ-NOGX-NOGC ( 1 1 0 0 0)
     EXX-fraction              =        0.00

     celldm(1)=   9.923489  celldm(2)=   0.000000  celldm(3)=   0.000000
     celldm(4)=   0.000000  celldm(5)=   0.000000  celldm(6)=   0.000000

     crystal axes: (cart. coord. in units of alat)
               a(1) = (   1.062256   0.000000   0.000000 )
               a(2) = (  -0.531128   0.919941   0.000000 )
               a(3) = (   0.000000   0.000000   1.714141 )

     reciprocal axes: (cart. coord. in units 2 pi/alat)
               b(1) = (  0.941393  0.543513  0.000000 )
               b(2) = (  0.000000  1.087027  0.000000 )
               b(3) = (  0.000000  0.000000  0.583383 )

     PseudoPot. # 1 for Tb read from file:
     /home/cwx6513/pp.La/Tb.UPF
     MD5 check sum: 3d6088a3f0cf7fd2e110c43f7f8e95c2
     Pseudo is Norm-conserving, Zval = 19.0
     Generated in analytical, separable form
     Using radial grid of 1263 points,  6 beta functions with:
                l(1) =   0
                l(2) =   0
                l(3) =   1
                l(4) =   1
                l(5) =   2
                l(6) =   3

     PseudoPot. # 2 for Gd read from file:
     /home/cwx6513/pp.La/Gd.UPF
     MD5 check sum: 09a8be538722f05520810cb6aac0efd2
     Pseudo is Norm-conserving, Zval = 18.0
     Generated in analytical, separable form
     Using radial grid of 1263 points,  6 beta functions with:
                l(1) =   0
                l(2) =   0
                l(3) =   1
                l(4) =   1
                l(5) =   2
                l(6) =   3

     atomic species   valence    mass     pseudopotential
        Mg            19.00    24.30500     Tb( 1.00)
        Zn            18.00    65.39000     Gd( 1.00)

     24 Sym. Ops., with inversion, found (12 have fractional translation)

   Cartesian axes

     site n.     atom                  positions (alat units)
         1           Mg  tau(   1) = (  -0.0000005   0.6132940   0.1081602  )
         2           Mg  tau(   2) = (   0.5311285   0.3066465   0.9652307  )
         3           Mg  tau(   3) = (   0.5311285   0.3066465   1.6059807  )
         4           Mg  tau(   4) = (  -0.0000005   0.6132940   0.7489103  )
         5           Zn  tau(   5) = (   0.0000000   0.0000000   0.0000000  )
         6           Zn  tau(   6) = (   0.0000000   0.0000000   0.8570705  )
         7           Zn  tau(   7) = (   0.0000000   0.3136393   1.2856057  )
         8           Zn  tau(   8) = (   0.7906362   0.1568197   0.4285352  )
         9           Zn  tau(   9) = (   0.2716196   0.1568197   0.4285352  )
        10           Zn  tau(  10) = (   0.2595083   0.7631209   1.2856057  )
        11           Zn  tau(  11) = (  -0.2595083   0.7631209   1.2856057  )
        12           Zn  tau(  12) = (   0.5311279   0.6063012   0.4285352  )

     number of k points=    12  gaussian smearing, width (Ry)=  0.1000
                       cart. coord. in units 2pi/alat
        k(    1) = (   0.0000000   0.0000000   0.0000000), wk =   0.0833333
        k(    2) = (   0.0000000   0.0000000   0.1458457), wk =   0.1666667
        k(    3) = (   0.0000000   0.0000000  -0.2916913), wk =   0.0833333
        k(    4) = (   0.0000000   0.3623422   0.0000000), wk =   0.1666667
        k(    5) = (   0.0000000   0.3623422   0.1458457), wk =   0.3333333
        k(    6) = (   0.0000000   0.3623422  -0.2916913), wk =   0.1666667
        k(    7) = (  -0.4706964  -0.2717567   0.0000000), wk =   0.0833333
        k(    8) = (  -0.4706964  -0.2717567   0.1458457), wk =   0.1666667
        k(    9) = (  -0.4706964  -0.2717567  -0.2916913), wk =   0.0833333
        k(   10) = (  -0.4706964   0.0905856   0.0000000), wk =   0.1666667
        k(   11) = (  -0.4706964   0.0905856   0.1458457), wk =   0.3333333
        k(   12) = (  -0.4706964   0.0905856  -0.2916913), wk =   0.1666667

     Largest allocated arrays     est. size (Mb)     dimensions
     Largest temporary arrays     est. size (Mb)     dimensions

     Initial potential from superposition of free atoms

     Starting from uniform charge
     Starting wfc are    0 randomized atomic wfcs

     Writing output data file Prototype-La-hP12-MgZn2.save

     Self-consistent Calculation

[...]

     iteration # 10     ecut=    40.00 Ry     beta=0.70
     CG style diagonalization
     c_bands:  2 eigenvalues not converged
     c_bands:  1 eigenvalues not converged
     ethr =  5.13E-07,  avg # of iterations =  3.9

     total energy              =   -2528.50301581 Ry
     Harris-Foulkes estimate   =   -2528.50328103 Ry
     estimated scf accuracy    <       0.00053909 Ry

     iteration # 11     ecut=    40.00 Ry     beta=0.70
     CG style diagonalization
     ethr =  2.45E-07,  avg # of iterations =  3.6

     End of self-consistent calculation

[...]

          k = 0.0000 0.3623-0.2917 (  6996 PWs)   bands (ev):

[...]

          k =-0.4707 0.0906-0.2917 (  6994 PWs)   bands (ev):

   -51.1984 -51.1984 -51.1949 -51.1948 -45.2326 -45.2326 -45.1755 -45.1755
   -45.0959 -45.0959 -45.0786 -45.0786 -19.5516 -19.5515 -19.5255 -19.5254
   -19.5056 -19.5056 -19.4972 -19.4971 -19.4853 -19.4853 -19.4762 -19.4762
   -16.9727 -16.9727 -16.6723 -16.6723 -16.3843 -16.3843 -16.3252 -16.3252
   -16.2628 -16.2628 -16.2028 -16.2028 -16.0728 -16.0728 -15.9439 -15.9438
   -15.8393 -15.8393 -15.7947 -15.7947 -15.7569 -15.7569 -15.7266 -15.7266
    15.6570  15.6570  16.1869  16.1869  16.4455  16.4455  16.5986  16.5986
    16.7376  16.7376  16.8339  16.8339  17.0293  17.0293  17.1468  17.1468
    17.2372  17.2372  17.4072  17.4072  17.5217  17.5217  17.8149  17.8149
    18.0303  18.0303  18.2716  18.2716  18.6151  18.6151  18.7707  18.7707
    18.9404  18.9404  19.1218  19.1218  19.1780  19.1781  19.4910  19.4911
    19.6605  19.6605  19.9541  19.9541  20.2013  20.2013  20.4992  20.4992
    20.6594  20.6595  20.8854  20.8854  21.0366  21.0366  21.3213  21.3213
    21.4646  21.4646  21.6411  21.6411  22.0167  22.0167  22.7699  22.7699
    23.6484  23.6484  25.5212  25.5212  26.9720  26.9720  27.2464  27.2464
    28.4267  28.4268  29.6652  29.6652  31.0746  31.0746  31.9622  31.9622
    32.2374  32.2376  32.8819  32.8820

     the Fermi energy is    23.0793 ev

!    total energy              =   -2528.50306985 Ry
     Harris-Foulkes estimate   =   -2528.50315448 Ry
     estimated scf accuracy    <       0.00009294 Ry

     The total energy is the sum of the following terms:

     one-electron contribution =    -390.72479896 Ry
     hartree contribution      =     356.97429310 Ry
     xc contribution           =    -248.77187571 Ry
     ewald contribution        =   -2245.55784758 Ry
     smearing contrib. (-TS)   =      -0.42284070 Ry

     convergence has been achieved in  11 iterations

     Forces acting on atoms (Ry/au):

     atom    1 type  1   force =     0.00000000    0.00000000   -0.00345946
     atom    2 type  1   force =     0.00000000    0.00000000   -0.00345946
     atom    3 type  1   force =     0.00000000    0.00000000    0.00345946
     atom    4 type  1   force =     0.00000000    0.00000000    0.00345946
     atom    5 type  2   force =     0.00000000    0.00000000    0.00000000
     atom    6 type  2   force =     0.00000000    0.00000000    0.00000000
     atom    7 type  2   force =     0.00000000    0.03520953    0.00000000
     atom    8 type  2   force =    -0.03049235    0.01760477    0.00000000
     atom    9 type  2   force =     0.03049235    0.01760477    0.00000000
     atom   10 type  2   force =    -0.03049235   -0.01760477    0.00000000
     atom   11 type  2   force =     0.03049235   -0.01760477    0.00000000
     atom   12 type  2   force =     0.00000000   -0.03520953    0.00000000

     Total force =     0.086522     Total SCF correction =     0.000000

     entering subroutine stress ...

          total   stress  (Ry/bohr**3)                   (kbar)     P= -166.41
  -0.00114279   0.00000000   0.00000000       -168.11      0.00      0.00
   0.00000000  -0.00114279   0.00000000          0.00   -168.11      0.00
   0.00000000   0.00000000  -0.00110803          0.00      0.00   -163.00

     Writing output data file Prototype-La-hP12-MgZn2.save

     General routines

     Parallel routines

   This run was terminated on:  17:52:14  22Mar2018

   JOB DONE.