     Program PWSCF v.5.0.2 starts on 22Mar2018 at  0:38:20

     Current dimensions of program PWSCF are:
     Max number of different atomic species (ntypx) = 10
     Max number of k-points (npk) =  40000
     Max angular momentum in pseudopotentials (lmaxx) =  3
     Waiting for input...
     Reading input from standard input

     Subspace diagonalization in iterative solution of the eigenvalue problem:
     a serial algorithm will be used

     bravais-lattice index     =            0
     lattice parameter (alat)  =      12.8532  a.u.
     unit-cell volume          =    1390.2597 (a.u.)^3
     number of atoms/cell      =            6
     number of atomic types    =            2
     number of electrons       =        76.00
     number of Kohn-Sham states=           46
     kinetic-energy cutoff     =      40.0000  Ry
     charge density cutoff     =     160.0000  Ry
     convergence threshold     =      1.0E-04
     mixing beta               =       0.7000
     number of iterations used =            8  plain     mixing
     Exchange-correlation      = SLA-PZ-NOGX-NOGC ( 1 1 0 0 0)
     EXX-fraction              =        0.00
     nstep                     =           50

     celldm(1)=  12.853229  celldm(2)=   0.000000  celldm(3)=   0.000000
     celldm(4)=   0.000000  celldm(5)=   0.000000  celldm(6)=   0.000000

     crystal axes: (cart. coord. in units of alat)
               a(1) = (   1.000000   0.000000   0.000000 )
               a(2) = (  -0.036574   0.999331   0.000000 )
               a(3) = (  -0.266883  -0.706777   0.655164 )

     reciprocal axes: (cart. coord. in units 2 pi/alat)
               b(1) = (  1.000000  0.036598  0.446834 )
               b(2) = (  0.000000  1.000669  1.079502 )
               b(3) = (  0.000000  0.000000  1.526336 )

     PseudoPot. # 1 for Ce read from file:
     /home/jld5415/pp.La/Ce.UPF
     MD5 check sum: 44451aa79a44a00cf2bc029dc19922f6
     Pseudo is Norm-conserving, Zval = 12.0
     Generated in analytical, separable form
     Using radial grid of 1255 points,  6 beta functions with:
                l(1) =   0
                l(2) =   0
                l(3) =   1
                l(4) =   1
                l(5) =   2
                l(6) =   3

     PseudoPot. # 2 for Pr read from file:
     /home/jld5415/pp.La/Pr.UPF
     MD5 check sum: 70e2b4b153859e92c8c91247dfc63203
     Pseudo is Norm-conserving, Zval = 13.0
     Generated in analytical, separable form
     Using radial grid of 1255 points,  6 beta functions with:
                l(1) =   0
                l(2) =   0
                l(3) =   1
                l(4) =   1
                l(5) =   2
                l(6) =   3

     atomic species   valence    mass     pseudopotential
        K             12.00    39.09830     Ce( 1.00)
        Hg            13.00   200.59000     Pr( 1.00)

      2 Sym. Ops., with inversion, found

   Cartesian axes

     site n.     atom                  positions (alat units)
         1           K   tau(   1) = (  -0.0340766   0.4201429   0.4913727  )
         2           K   tau(   2) = (   0.7306201  -0.1275892   0.1637909  )
         3           Hg  tau(   3) = (   0.2308977  -0.0548727   0.3630373  )
         4           Hg  tau(   4) = (   0.4656458   0.3474265   0.2921263  )
         5           Hg  tau(   5) = (   0.5181090  -0.3317640   0.6197082  )
         6           Hg  tau(   6) = (   0.1784345   0.6243178   0.0354555  )

     number of k points=   253  gaussian smearing, width (Ry)=  0.1000

     Number of k-points >= 100: set verbosity='high' to print them.

     Largest allocated arrays     est. size (Mb)     dimensions
     Largest temporary arrays     est. size (Mb)     dimensions

     Initial potential from superposition of free atoms
     Check: negative starting charge=   -0.001057

     starting charge   51.96217, renormalised to   76.00000

     negative rho (up, down):  0.155E-02 0.000E+00
     Starting wfc are   80 randomized atomic wfcs

     Self-consistent Calculation

     iteration #  1     ecut=    40.00 Ry     beta=0.70
     CG style diagonalization
     c_bands:  4 eigenvalues not converged
     c_bands:  3 eigenvalues not converged
     c_bands:  5 eigenvalues not converged
     c_bands:  5 eigenvalues not converged
     c_bands:  5 eigenvalues not converged
     c_bands:  5 eigenvalues not converged
     c_bands:  5 eigenvalues not converged
     c_bands:  5 eigenvalues not converged
     c_bands:  5 eigenvalues not converged
     c_bands:  5 eigenvalues not converged
     c_bands:  5 eigenvalues not converged
     c_bands:  4 eigenvalues not converged
     ethr =  1.00E-02,  avg # of iterations = 17.3

     negative rho (up, down):  0.443E-03 0.000E+00

     total energy              =     168.55070703 Ry
     Harris-Foulkes estimate   =    -927.68317415 Ry
     estimated scf accuracy    <    1308.88635031 Ry

[...]

     iteration #  3     ecut=    40.00 Ry     beta=0.70
     CG style diagonalization
     ethr =  1.00E-02,  avg # of iterations =  6.7

[...]

     End of self-consistent calculation

     Number of k-points >= 100: set verbosity='high' to print the bands.

     the Fermi energy is    12.2422 ev

!    total energy              =    -526.10952922 Ry
     Harris-Foulkes estimate   =    -526.10958728 Ry
     estimated scf accuracy    <       0.00006404 Ry

     The total energy is the sum of the following terms:

     one-electron contribution =     -86.40433575 Ry
     hartree contribution      =      70.91976832 Ry
     xc contribution           =     -64.52350815 Ry
     ewald contribution        =    -445.47612132 Ry
     smearing contrib. (-TS)   =      -0.62533232 Ry

     convergence has been achieved in  26 iterations

     Forces acting on atoms (Ry/au):

     atom    1 type  1   force =     0.00575864   -0.00069256    0.00341826
     atom    2 type  1   force =    -0.00575864    0.00069256   -0.00341826
     atom    3 type  2   force =     0.00169429   -0.00035041    0.00099920
     atom    4 type  2   force =    -0.00169429    0.00035041   -0.00099920
     atom    5 type  2   force =    -0.00119014    0.00126834   -0.00103749
     atom    6 type  2   force =     0.00119014   -0.00126834    0.00103749

     Total force =     0.010336     Total SCF correction =     0.022448
     SCF correction compared to forces is large: reduce conv_thr to get better values

     entering subroutine stress ...

          total   stress  (Ry/bohr**3)                   (kbar)     P= -161.00
  -0.00110477  -0.00001067  -0.00002175       -162.52     -1.57     -3.20
  -0.00001067  -0.00111002   0.00002169         -1.57   -163.29      3.19
  -0.00002175   0.00002169  -0.00106857         -3.20      3.19   -157.19

     BFGS Geometry Optimization

     number of scf cycles    =   1
     number of bfgs steps    =   0

     enthalpy new            =    -526.1095292188 Ry

     new trust radius        =       0.2069912368 bohr
     new conv_thr            =       0.0001000000 Ry

     new unit-cell volume =   1279.23432 a.u.^3 (   189.56297 Ang^3 )

CELL_PARAMETERS (alat= 12.85322937)
   0.972380756  -0.000266808  -0.000543637
  -0.035830004   0.971608774   0.000561721
  -0.259679450  -0.686737369   0.637423395

ATOMIC_POSITIONS (crystal)
K        0.201426892   0.951095170   0.750405923
K        0.798573108   0.048904830   0.249594077
Hg       0.391272557   0.337046639   0.554235657
Hg       0.608727443   0.662953361   0.445764343
Hg       0.782748949   0.337001609   0.945759797
Hg       0.217251051   0.662998391   0.054240203

     Writing output data file Prototype-La-oI12-KHg2.save
     Check: negative starting charge=   -0.001057
     NEW-OLD atomic charge density approx. for the potential
     NEW k-points: (use verbosity='high' to print them)
     Check: negative starting charge=   -0.000102

     negative rho (up, down):  0.785E-01 0.000E+00
     extrapolated charge   71.49018, renormalised to   76.00000

[...]

     enthalpy old            =    -526.1095292188 Ry
     enthalpy new            =    -526.2135215994 Ry

     CASE: enthalpy_new < enthalpy_old

     small trust_radius: resetting bfgs history

[...]

     Writing output data file Prototype-La-oI12-KHg2.save
     Check: negative starting charge=   -0.000102
     NEW-OLD atomic charge density approx. for the potential
     NEW k-points: (use verbosity='high' to print them)

[...]

     number of scf cycles    =   3
     number of bfgs steps    =   2

     enthalpy old            =    -526.2135215994 Ry
     enthalpy new            =    -526.2591989022 Ry

     CASE: enthalpy_new < enthalpy_old

     Message from routine bfgs:
     history already reset at previous step: stopping
     small trust_radius: resetting bfgs history

     new trust radius        =       0.0890871463 bohr
     new conv_thr            =       0.0000084075 Ry

     new unit-cell volume =   1163.75160 a.u.^3 (   172.45019 Ang^3 )

[...]

ATOMIC_POSITIONS (crystal)
K        0.202050907   0.951710353   0.750413672
K        0.797949093   0.048289647   0.249586328
Hg       0.390413702   0.337291968   0.553119871
Hg       0.609586298   0.662708032   0.446880129
Hg       0.784167896   0.337288643   0.946887629
Hg       0.215832104   0.662711357   0.053112371

     Writing output data file Prototype-La-oI12-KHg2.save
     NEW-OLD atomic charge density approx. for the potential
     NEW k-points: (use verbosity='high' to print them)

     negative rho (up, down):  0.498E-02 0.000E+00
     extrapolated charge   74.04739, renormalised to   76.00000

[...]

     The maximum number of steps has been reached.

     End of BFGS Geometry Optimization
Begin final coordinates
     new unit-cell volume =   1163.75160 a.u.^3 (   172.45019 Ang^3 )

CELL_PARAMETERS (alat= 12.85322937)
   0.941274889  -0.000853115  -0.002290902
  -0.035278225   0.940512419   0.002298451
  -0.252108165  -0.663476056   0.618147114

ATOMIC_POSITIONS (crystal)
K        0.202050907   0.951710353   0.750413672
K        0.797949093   0.048289647   0.249586328
Hg       0.390413702   0.337291968   0.553119871
Hg       0.609586298   0.662708032   0.446880129
Hg       0.784167896   0.337288643   0.946887629
Hg       0.215832104   0.662711357   0.053112371
End final coordinates

     A final scf calculation at the relaxed structure.
     The G-vectors are recalculated for the final unit cell
     Results may differ from those at the preceding step.

     bravais-lattice index     =            0
     lattice parameter (alat)  =      12.8532  a.u.
     unit-cell volume          =    1163.7516 (a.u.)^3
     number of atoms/cell      =            6
     number of atomic types    =            2
     number of electrons       =        76.00
     number of Kohn-Sham states=           46
     kinetic-energy cutoff     =      40.0000  Ry
     charge density cutoff     =     160.0000  Ry
     convergence threshold     =      8.4E-06
     mixing beta               =       0.7000
     number of iterations used =            8  plain     mixing
     Exchange-correlation      = SLA-PZ-NOGX-NOGC ( 1 1 0 0 0)
     EXX-fraction              =        0.00

     celldm(1)=  12.853229  celldm(2)=   0.000000  celldm(3)=   0.000000
     celldm(4)=   0.000000  celldm(5)=   0.000000  celldm(6)=   0.000000

     crystal axes: (cart. coord. in units of alat)
               a(1) = (   0.941275  -0.000853  -0.002291 )
               a(2) = (  -0.035278   0.940512   0.002298 )
               a(3) = (  -0.252108  -0.663476   0.618147 )

     reciprocal axes: (cart. coord. in units 2 pi/alat)
               b(1) = (  1.063581  0.038733  0.475349 )
               b(2) = (  0.003736  1.060605  1.139903 )
               b(3) = (  0.003928 -0.003800  1.615261 )

     PseudoPot. # 1 for Ce read from file:
     /home/jld5415/pp.La/Ce.UPF
     MD5 check sum: 44451aa79a44a00cf2bc029dc19922f6
     Pseudo is Norm-conserving, Zval = 12.0
     Generated in analytical, separable form
     Using radial grid of 1255 points,  6 beta functions with:
                l(1) =   0
                l(2) =   0
                l(3) =   1
                l(4) =   1
                l(5) =   2
                l(6) =   3

     PseudoPot. # 2 for Pr read from file:
     /home/jld5415/pp.La/Pr.UPF
     MD5 check sum: 70e2b4b153859e92c8c91247dfc63203
     Pseudo is Norm-conserving, Zval = 13.0
     Generated in analytical, separable form
     Using radial grid of 1255 points,  6 beta functions with:
                l(1) =   0
                l(2) =   0
                l(3) =   1
                l(4) =   1
                l(5) =   2
                l(6) =   3

     atomic species   valence    mass     pseudopotential
        K             12.00    39.09830     Ce( 1.00)
        Hg            13.00   200.59000     Pr( 1.00)

      2 Sym. Ops., with inversion, found

   Cartesian axes

     site n.     atom                  positions (alat units)
         1           K   tau(   1) = (  -0.0325746   0.3970415   0.4655906  )
         2           K   tau(   2) = (   0.6864631  -0.1208583   0.1525640  )
         3           Hg  tau(   3) = (   0.2161415  -0.0500876   0.3417903  )
         4           Hg  tau(   4) = (   0.4377470   0.3262708   0.2763644  )
         5           Hg  tau(   5) = (   0.4875005  -0.3116821   0.5842946  )
         6           Hg  tau(   6) = (   0.1663880   0.5878653   0.0338600  )

     number of k points=   253  gaussian smearing, width (Ry)=  0.1000

     Number of k-points >= 100: set verbosity='high' to print them.

     Largest allocated arrays     est. size (Mb)     dimensions
     Largest temporary arrays     est. size (Mb)     dimensions

     Initial potential from superposition of free atoms
     Check: negative starting charge=   -0.001200

     starting charge   51.96217, renormalised to   76.00000

     negative rho (up, down):  0.175E-02 0.000E+00
     Starting wfc are   80 randomized atomic wfcs

     Writing output data file Prototype-La-oI12-KHg2.save

     Self-consistent Calculation

[...]

     iteration #  8     ecut=    40.00 Ry     beta=0.70
     CG style diagonalization
     ethr =  5.50E-03,  avg # of iterations =  4.7

[...]

     negative rho (up, down):  0.498E-04 0.000E+00

[...]

     total energy              =    -526.21999531 Ry
     Harris-Foulkes estimate   =    -526.22000063 Ry
     estimated scf accuracy    <       0.00001666 Ry

     iteration # 19     ecut=    40.00 Ry     beta=0.70
     CG style diagonalization
     c_bands:  1 eigenvalues not converged
     c_bands:  1 eigenvalues not converged
     c_bands:  1 eigenvalues not converged
     c_bands:  1 eigenvalues not converged
     c_bands:  1 eigenvalues not converged
     c_bands:  1 eigenvalues not converged
     c_bands:  1 eigenvalues not converged
     c_bands:  1 eigenvalues not converged
     c_bands:  1 eigenvalues not converged
     c_bands:  1 eigenvalues not converged
     c_bands:  1 eigenvalues not converged
     c_bands:  1 eigenvalues not converged
     c_bands:  1 eigenvalues not converged
     c_bands:  1 eigenvalues not converged
     c_bands:  1 eigenvalues not converged
     c_bands:  1 eigenvalues not converged
     ethr =  2.19E-08,  avg # of iterations =  4.6

     End of self-consistent calculation

     Number of k-points >= 100: set verbosity='high' to print the bands.

     the Fermi energy is    15.2169 ev

!    total energy              =    -526.21999741 Ry
     Harris-Foulkes estimate   =    -526.22000185 Ry
     estimated scf accuracy    <       0.00000493 Ry

     The total energy is the sum of the following terms:

     one-electron contribution =     -47.92268708 Ry
     hartree contribution      =      60.67586953 Ry
     xc contribution           =     -65.53683277 Ry
     ewald contribution        =    -472.91768763 Ry
     smearing contrib. (-TS)   =      -0.51865947 Ry

     convergence has been achieved in  19 iterations

     Forces acting on atoms (Ry/au):

     atom    1 type  1   force =    -0.00132741   -0.00028242   -0.00053289
     atom    2 type  1   force =     0.00132741    0.00028242    0.00053289
     atom    3 type  2   force =    -0.00686440    0.00920956   -0.00729337
     atom    4 type  2   force =     0.00686440   -0.00920956    0.00729337
     atom    5 type  2   force =     0.00999945   -0.00620510    0.00739114
     atom    6 type  2   force =    -0.00999945    0.00620510   -0.00739114

     Total force =     0.027582     Total SCF correction =     0.007835
     SCF correction compared to forces is large: reduce conv_thr to get better values

     entering subroutine stress ...

          total   stress  (Ry/bohr**3)                   (kbar)     P=  -72.80
  -0.00052079  -0.00000794  -0.00005431        -76.61     -1.17     -7.99
  -0.00000794  -0.00052006   0.00005190         -1.17    -76.50      7.63
  -0.00005431   0.00005190  -0.00044379         -7.99      7.63    -65.28

     Writing output data file Prototype-La-oI12-KHg2.save

     General routines

     Parallel routines

   This run was terminated on:   4:35:13  22Mar2018

   JOB DONE.