     Program PWSCF v.5.0.2 starts on 22Mar2018 at  0:38:20

     Current dimensions of program PWSCF are:
     Max number of different atomic species (ntypx) = 10
     Max number of k-points (npk) =  40000
     Max angular momentum in pseudopotentials (lmaxx) =  3
     Waiting for input...
     Reading input from standard input

     Subspace diagonalization in iterative solution of the eigenvalue problem:
     a serial algorithm will be used

     bravais-lattice index     =            0
     lattice parameter (alat)  =      12.0168  a.u.
     unit-cell volume          =    1187.3413 (a.u.)^3
     number of atoms/cell      =            8
     number of atomic types    =            2
     number of electrons       =        98.00
     number of Kohn-Sham states=           59
     kinetic-energy cutoff     =      40.0000  Ry
     charge density cutoff     =     160.0000  Ry
     convergence threshold     =      1.0E-04
     mixing beta               =       0.7000
     number of iterations used =            8  plain     mixing
     Exchange-correlation      = SLA-PZ-NOGX-NOGC ( 1 1 0 0 0)
     EXX-fraction              =        0.00
     nstep                     =           50

     celldm(1)=  12.016801  celldm(2)=   0.000000  celldm(3)=   0.000000
     celldm(4)=   0.000000  celldm(5)=   0.000000  celldm(6)=   0.000000

     crystal axes: (cart. coord. in units of alat)
               a(1) = (   1.000000   0.000000   0.000000 )
               a(2) = (  -0.500000   0.866025   0.000000 )
               a(3) = (   0.000000   0.000000   0.790093 )

     reciprocal axes: (cart. coord. in units 2 pi/alat)
               b(1) = (  1.000000  0.577350  0.000000 )
               b(2) = (  0.000000  1.154701  0.000000 )
               b(3) = (  0.000000  0.000000  1.265674 )

     PseudoPot. # 1 for Ce read from file:
     /home/jld5415/pp.La/Ce.UPF
     MD5 check sum: 44451aa79a44a00cf2bc029dc19922f6
     Pseudo is Norm-conserving, Zval = 12.0
     Generated in analytical, separable form
     Using radial grid of 1255 points,  6 beta functions with:
                l(1) =   0
                l(2) =   0
                l(3) =   1
                l(4) =   1
                l(5) =   2
                l(6) =   3

     PseudoPot. # 2 for Pr read from file:
     /home/jld5415/pp.La/Pr.UPF
     MD5 check sum: 70e2b4b153859e92c8c91247dfc63203
     Pseudo is Norm-conserving, Zval = 13.0
     Generated in analytical, separable form
     Using radial grid of 1255 points,  6 beta functions with:
                l(1) =   0
                l(2) =   0
                l(3) =   1
                l(4) =   1
                l(5) =   2
                l(6) =   3

     atomic species   valence    mass     pseudopotential
        Mg            12.00    24.30500     Ce( 1.00)
        Cd            13.00   112.41100     Pr( 1.00)

     24 Sym. Ops., with inversion, found (12 have fractional translation)

   Cartesian axes

     site n.     atom                  positions (alat units)
         1           Mg  tau(   1) = (   0.2478935   0.7204716   0.1975233  )
         2           Mg  tau(   2) = (   0.7478935   0.1455538   0.5925699  )
         3           Mg  tau(   3) = (   0.2521065   0.1455538   0.5925699  )
         4           Mg  tau(   4) = (  -0.2478935   0.7204716   0.1975233  )
         5           Mg  tau(   5) = (   0.0000000   0.2911075   0.1975233  )
         6           Mg  tau(   6) = (   0.5000000   0.5749179   0.5925699  )
         7           Cd  tau(   7) = (   0.5000005   0.2886748   0.1975233  )
         8           Cd  tau(   8) = (  -0.0000005   0.5773506   0.5925699  )

     number of k points=    64  gaussian smearing, width (Ry)=  0.1000
                       cart. coord. in units 2pi/alat
        k(    1) = (   0.0000000   0.0000000   0.0000000), wk =   0.0095238
        k(    2) = (   0.0000000   0.0000000   0.1808105), wk =   0.0190476
        k(    3) = (   0.0000000   0.0000000   0.3616210), wk =   0.0190476
        k(    4) = (   0.0000000   0.0000000   0.5424315), wk =   0.0190476
        k(    5) = (   0.0000000   0.1924501   0.0000000), wk =   0.0190476
        k(    6) = (   0.0000000   0.1924501   0.1808105), wk =   0.0380952
        k(    7) = (   0.0000000   0.1924501   0.3616210), wk =   0.0380952
        k(    8) = (   0.0000000   0.1924501   0.5424315), wk =   0.0380952
        k(    9) = (   0.0000000   0.3849002   0.0000000), wk =   0.0190476
        k(   10) = (   0.0000000   0.3849002   0.1808105), wk =   0.0380952
        k(   11) = (   0.0000000   0.3849002   0.3616210), wk =   0.0380952
        k(   12) = (   0.0000000   0.3849002   0.5424315), wk =   0.0380952
        k(   13) = (   0.0000000  -0.5773503   0.0000000), wk =   0.0095238
        k(   14) = (   0.0000000  -0.5773503   0.1808105), wk =   0.0190476
        k(   15) = (   0.0000000  -0.5773503   0.3616210), wk =   0.0190476
        k(   16) = (   0.0000000  -0.5773503   0.5424315), wk =   0.0190476
        k(   17) = (   0.2000000   0.1154701   0.0000000), wk =   0.0190476
        k(   18) = (   0.2000000   0.1154701   0.1808105), wk =   0.0380952
        k(   19) = (   0.2000000   0.1154701   0.3616210), wk =   0.0380952
        k(   20) = (   0.2000000   0.1154701   0.5424315), wk =   0.0380952
        k(   21) = (   0.2000000   0.3079201   0.0000000), wk =   0.0190476
        k(   22) = (   0.2000000   0.3079201   0.1808105), wk =   0.0380952
        k(   23) = (   0.2000000   0.3079201   0.3616210), wk =   0.0380952
        k(   24) = (   0.2000000   0.3079201   0.5424315), wk =   0.0380952
        k(   25) = (   0.2000000   0.5003702   0.0000000), wk =   0.0190476
        k(   26) = (   0.2000000   0.5003702   0.1808105), wk =   0.0380952
        k(   27) = (   0.2000000   0.5003702   0.3616210), wk =   0.0380952
        k(   28) = (   0.2000000   0.5003702   0.5424315), wk =   0.0380952
        k(   29) = (   0.2000000  -0.4618802   0.0000000), wk =   0.0190476
        k(   30) = (   0.2000000  -0.4618802   0.1808105), wk =   0.0380952
        k(   31) = (   0.2000000  -0.4618802   0.3616210), wk =   0.0380952
        k(   32) = (   0.2000000  -0.4618802   0.5424315), wk =   0.0380952
        k(   33) = (   0.2000000  -0.2694301   0.0000000), wk =   0.0190476
        k(   34) = (   0.2000000  -0.2694301   0.1808105), wk =   0.0380952
        k(   35) = (   0.2000000  -0.2694301   0.3616210), wk =   0.0380952
        k(   36) = (   0.2000000  -0.2694301   0.5424315), wk =   0.0380952
        k(   37) = (   0.2000000  -0.0769800   0.0000000), wk =   0.0190476
        k(   38) = (   0.2000000  -0.0769800   0.1808105), wk =   0.0380952
        k(   39) = (   0.2000000  -0.0769800   0.3616210), wk =   0.0380952
        k(   40) = (   0.2000000  -0.0769800   0.5424315), wk =   0.0380952
        k(   41) = (   0.4000000   0.2309401   0.0000000), wk =   0.0190476
        k(   42) = (   0.4000000   0.2309401   0.1808105), wk =   0.0380952
        k(   43) = (   0.4000000   0.2309401   0.3616210), wk =   0.0380952
        k(   44) = (   0.4000000   0.2309401   0.5424315), wk =   0.0380952
        k(   45) = (   0.4000000   0.4233902   0.0000000), wk =   0.0190476
        k(   46) = (   0.4000000   0.4233902   0.1808105), wk =   0.0380952
        k(   47) = (   0.4000000   0.4233902   0.3616210), wk =   0.0380952
        k(   48) = (   0.4000000   0.4233902   0.5424315), wk =   0.0380952
        k(   49) = (   0.4000000   0.6158403   0.0000000), wk =   0.0190476
        k(   50) = (   0.4000000   0.6158403   0.1808105), wk =   0.0380952
        k(   51) = (   0.4000000   0.6158403   0.3616210), wk =   0.0380952
        k(   52) = (   0.4000000   0.6158403   0.5424315), wk =   0.0380952
        k(   53) = (   0.4000000  -0.3464102   0.0000000), wk =   0.0190476
        k(   54) = (   0.4000000  -0.3464102   0.1808105), wk =   0.0380952
        k(   55) = (   0.4000000  -0.3464102   0.3616210), wk =   0.0380952
        k(   56) = (   0.4000000  -0.3464102   0.5424315), wk =   0.0380952
        k(   57) = (   0.4000000  -0.1539601   0.0000000), wk =   0.0190476
        k(   58) = (   0.4000000  -0.1539601   0.1808105), wk =   0.0380952
        k(   59) = (   0.4000000  -0.1539601   0.3616210), wk =   0.0380952
        k(   60) = (   0.4000000  -0.1539601   0.5424315), wk =   0.0380952
        k(   61) = (   0.4000000   0.0384900   0.0000000), wk =   0.0190476
        k(   62) = (   0.4000000   0.0384900   0.1808105), wk =   0.0380952
        k(   63) = (   0.4000000   0.0384900   0.3616210), wk =   0.0380952
        k(   64) = (   0.4000000   0.0384900   0.5424315), wk =   0.0380952

     Largest allocated arrays     est. size (Mb)     dimensions
     Largest temporary arrays     est. size (Mb)     dimensions

     Initial potential from superposition of free atoms
     Check: negative starting charge=   -0.001098

     starting charge   25.98109, renormalised to   98.00000

     negative rho (up, down):  0.414E-02 0.000E+00
     Starting wfc are   40 randomized atomic wfcs

     Self-consistent Calculation

     iteration #  1     ecut=    40.00 Ry     beta=0.70
     CG style diagonalization
     c_bands:  1 eigenvalues not converged
     c_bands:  1 eigenvalues not converged
     ethr =  1.00E-02,  avg # of iterations = 22.9

     negative rho (up, down):  0.122E-02 0.000E+00

     total energy              =    -316.15084928 Ry
     Harris-Foulkes estimate   =   -1974.15209283 Ry
     estimated scf accuracy    <    1925.71188747 Ry

[...]

     iteration #  3     ecut=    40.00 Ry     beta=0.70
     CG style diagonalization
     ethr =  1.00E-02,  avg # of iterations = 10.2

[...]

     End of self-consistent calculation

          k = 0.0000 0.0000 0.0000 (  5047 PWs)   bands (ev):

   -22.0542 -22.0234 -17.3931 -16.9125 -16.9125 -16.8350 -16.6181 -16.6180
    -2.6630  -2.5267  -2.5267  -2.2776  -2.2379  -2.2379  -0.7400  -0.0376
     0.1269   0.4509   0.4509   0.6683   0.6683   0.8767   0.8767   1.2573
     1.7041   1.7041   2.1793   2.1794   2.2946   2.3444   2.3444   2.4300
    16.2076  16.2333  16.2333  16.7493  16.8916  17.3919  17.3920  17.4001
    18.0177  18.0397  18.0397  20.0547  20.0548  20.5039  20.7125  20.7125
    21.0428  21.8400  21.8400  22.2442  22.3653  22.3653  22.5979  22.5984
    23.0943  23.1560  23.1588

[...]

     the Fermi energy is    20.6794 ev

!    total energy              =    -649.08773717 Ry
     Harris-Foulkes estimate   =    -649.08779207 Ry
     estimated scf accuracy    <       0.00005865 Ry

     The total energy is the sum of the following terms:

     one-electron contribution =      45.37850742 Ry
     hartree contribution      =      46.26041534 Ry
     xc contribution           =     -85.12542041 Ry
     ewald contribution        =    -655.02492809 Ry
     smearing contrib. (-TS)   =      -0.57631142 Ry

     convergence has been achieved in  14 iterations

     Forces acting on atoms (Ry/au):

     atom    1 type  1   force =     0.00827478    0.00477745    0.00000000
     atom    2 type  1   force =     0.00827478   -0.00477745    0.00000000
     atom    3 type  1   force =    -0.00827478   -0.00477745    0.00000000
[...]
        k(   17) = (   0.1913762   0.1104911   0.0000000), wk =   0.0190476
        k(   18) = (   0.1913762   0.1104911   0.1690175), wk =   0.0380952
        k(   19) = (   0.1913762   0.1104911   0.3380349), wk =   0.0380952
        k(   20) = (   0.1913762   0.1104911   0.5070524), wk =   0.0380952
        k(   21) = (   0.1913762   0.2946429   0.0000000), wk =   0.0190476
        k(   22) = (   0.1913762   0.2946429   0.1690175), wk =   0.0380952
        k(   23) = (   0.1913762   0.2946429   0.3380349), wk =   0.0380952
        k(   24) = (   0.1913762   0.2946429   0.5070524), wk =   0.0380952
        k(   25) = (   0.1913762   0.4787948   0.0000000), wk =   0.0190476
        k(   26) = (   0.1913762   0.4787948   0.1690175), wk =   0.0380952
        k(   27) = (   0.1913762   0.4787948   0.3380349), wk =   0.0380952
        k(   28) = (   0.1913762   0.4787948   0.5070524), wk =   0.0380952
        k(   29) = (   0.1913762  -0.4419644   0.0000000), wk =   0.0190476
        k(   30) = (   0.1913762  -0.4419644   0.1690175), wk =   0.0380952
        k(   31) = (   0.1913762  -0.4419644   0.3380349), wk =   0.0380952
        k(   32) = (   0.1913762  -0.4419644   0.5070524), wk =   0.0380952
        k(   33) = (   0.1913762  -0.2578126   0.0000000), wk =   0.0190476
        k(   34) = (   0.1913762  -0.2578126   0.1690175), wk =   0.0380952
        k(   35) = (   0.1913762  -0.2578126   0.3380349), wk =   0.0380952
        k(   36) = (   0.1913762  -0.2578126   0.5070524), wk =   0.0380952
        k(   37) = (   0.1913762  -0.0736607   0.0000000), wk =   0.0190476
        k(   38) = (   0.1913762  -0.0736607   0.1690175), wk =   0.0380952
        k(   39) = (   0.1913762  -0.0736607   0.3380349), wk =   0.0380952
        k(   40) = (   0.1913762  -0.0736607   0.5070524), wk =   0.0380952
        k(   41) = (   0.3827524   0.2209822   0.0000000), wk =   0.0190476
        k(   42) = (   0.3827524   0.2209822   0.1690175), wk =   0.0380952
        k(   43) = (   0.3827524   0.2209822   0.3380349), wk =   0.0380952
        k(   44) = (   0.3827524   0.2209822   0.5070524), wk =   0.0380952
        k(   45) = (   0.3827524   0.4051340   0.0000000), wk =   0.0190476
        k(   46) = (   0.3827524   0.4051340   0.1690175), wk =   0.0380952
        k(   47) = (   0.3827524   0.4051340   0.3380349), wk =   0.0380952
        k(   48) = (   0.3827524   0.4051340   0.5070524), wk =   0.0380952
        k(   49) = (   0.3827524   0.5892859   0.0000000), wk =   0.0190476
        k(   50) = (   0.3827524   0.5892859   0.1690175), wk =   0.0380952
        k(   51) = (   0.3827524   0.5892859   0.3380349), wk =   0.0380952
        k(   52) = (   0.3827524   0.5892859   0.5070524), wk =   0.0380952
        k(   53) = (   0.3827524  -0.3314733   0.0000000), wk =   0.0190476
        k(   54) = (   0.3827524  -0.3314733   0.1690175), wk =   0.0380952
        k(   55) = (   0.3827524  -0.3314733   0.3380349), wk =   0.0380952
        k(   56) = (   0.3827524  -0.3314733   0.5070524), wk =   0.0380952
        k(   57) = (   0.3827524  -0.1473215   0.0000000), wk =   0.0190476
        k(   58) = (   0.3827524  -0.1473215   0.1690175), wk =   0.0380952
        k(   59) = (   0.3827524  -0.1473215   0.3380349), wk =   0.0380952
        k(   60) = (   0.3827524  -0.1473215   0.5070524), wk =   0.0380952
        k(   61) = (   0.3827524   0.0368304   0.0000000), wk =   0.0190476
        k(   62) = (   0.3827524   0.0368304   0.1690175), wk =   0.0380952
        k(   63) = (   0.3827524   0.0368304   0.3380349), wk =   0.0380952
        k(   64) = (   0.3827524   0.0368304   0.5070524), wk =   0.0380952
     Check: negative starting charge=   -0.003254

     negative rho (up, down):  0.445E-05 0.000E+00
     extrapolated charge   98.11624, renormalised to   98.00000

[...]

     The maximum number of steps has been reached.

     End of BFGS Geometry Optimization
Begin final coordinates
     new unit-cell volume =   1387.24052 a.u.^3 (   205.56783 Ang^3 )

CELL_PARAMETERS (alat= 12.01680127)
   1.045061995   0.000000000   0.000000000
  -0.522530998   0.905050236   0.000000000
   0.000000000   0.000000000   0.845221216

ATOMIC_POSITIONS (crystal)
Mg       0.664354350   0.832177175   0.250000000
Mg       0.832177175   0.167822825   0.750000000
Mg       0.335645650   0.167822825   0.750000000
Mg       0.167822825   0.832177175   0.250000000
Mg       0.167822825   0.335645650   0.250000000
Mg       0.832177175   0.664354350   0.750000000
Cd       0.666667000   0.333333000   0.250000000
Cd       0.333333000   0.666667000   0.750000000
End final coordinates

     A final scf calculation at the relaxed structure.
     The G-vectors are recalculated for the final unit cell
     Results may differ from those at the preceding step.

     bravais-lattice index     =            0
     lattice parameter (alat)  =      12.0168  a.u.
     unit-cell volume          =    1387.2405 (a.u.)^3
     number of atoms/cell      =            8
     number of atomic types    =            2
     number of electrons       =        98.00
     number of Kohn-Sham states=           59
     kinetic-energy cutoff     =      40.0000  Ry
     charge density cutoff     =     160.0000  Ry
     convergence threshold     =      6.6E-06
     mixing beta               =       0.7000
     number of iterations used =            8  plain     mixing
     Exchange-correlation      = SLA-PZ-NOGX-NOGC ( 1 1 0 0 0)
     EXX-fraction              =        0.00

     celldm(1)=  12.016801  celldm(2)=   0.000000  celldm(3)=   0.000000
     celldm(4)=   0.000000  celldm(5)=   0.000000  celldm(6)=   0.000000

     crystal axes: (cart. coord. in units of alat)
               a(1) = (   1.045062   0.000000   0.000000 )
               a(2) = (  -0.522531   0.905050   0.000000 )
               a(3) = (   0.000000   0.000000   0.845221 )

     reciprocal axes: (cart. coord. in units 2 pi/alat)
               b(1) = (  0.956881  0.552456  0.000000 )
               b(2) = (  0.000000  1.104911  0.000000 )
               b(3) = (  0.000000  0.000000  1.183122 )

     PseudoPot. # 1 for Ce read from file:
     /home/jld5415/pp.La/Ce.UPF
     MD5 check sum: 44451aa79a44a00cf2bc029dc19922f6
     Pseudo is Norm-conserving, Zval = 12.0
     Generated in analytical, separable form
     Using radial grid of 1255 points,  6 beta functions with:
                l(1) =   0
                l(2) =   0
                l(3) =   1
                l(4) =   1
                l(5) =   2
                l(6) =   3

     PseudoPot. # 2 for Pr read from file:
     /home/jld5415/pp.La/Pr.UPF
     MD5 check sum: 70e2b4b153859e92c8c91247dfc63203
     Pseudo is Norm-conserving, Zval = 13.0
     Generated in analytical, separable form
     Using radial grid of 1255 points,  6 beta functions with:
                l(1) =   0
                l(2) =   0
                l(3) =   1
                l(4) =   1
                l(5) =   2
                l(6) =   3

     atomic species   valence    mass     pseudopotential
        Mg            12.00    24.30500     Ce( 1.00)
        Cd            13.00   112.41100     Pr( 1.00)

     24 Sym. Ops., with inversion, found (12 have fractional translation)

   Cartesian axes

     site n.     atom                  positions (alat units)
         1           Mg  tau(   1) = (   0.2594531   0.7531621   0.2113053  )
         2           Mg  tau(   2) = (   0.7819841   0.1518881   0.6339159  )
         3           Mg  tau(   3) = (   0.2630779   0.1518881   0.6339159  )
         4           Mg  tau(   4) = (  -0.2594531   0.7531621   0.2113053  )
         5           Mg  tau(   5) = (   0.0000000   0.3037762   0.2113053  )
         6           Mg  tau(   6) = (   0.5225310   0.6012741   0.6339159  )
         7           Cd  tau(   7) = (   0.5225315   0.3016831   0.2113053  )
         8           Cd  tau(   8) = (  -0.0000005   0.6033671   0.6339159  )

     number of k points=    64  gaussian smearing, width (Ry)=  0.1000
                       cart. coord. in units 2pi/alat
        k(    1) = (   0.0000000   0.0000000   0.0000000), wk =   0.0095238
        k(    2) = (   0.0000000   0.0000000   0.1690175), wk =   0.0190476
        k(    3) = (   0.0000000   0.0000000   0.3380349), wk =   0.0190476
        k(    4) = (   0.0000000   0.0000000   0.5070524), wk =   0.0190476
        k(    5) = (   0.0000000   0.1841518   0.0000000), wk =   0.0190476
        k(    6) = (   0.0000000   0.1841518   0.1690175), wk =   0.0380952
        k(    7) = (   0.0000000   0.1841518   0.3380349), wk =   0.0380952
        k(    8) = (   0.0000000   0.1841518   0.5070524), wk =   0.0380952
        k(    9) = (   0.0000000   0.3683037   0.0000000), wk =   0.0190476
        k(   10) = (   0.0000000   0.3683037   0.1690175), wk =   0.0380952
        k(   11) = (   0.0000000   0.3683037   0.3380349), wk =   0.0380952
        k(   12) = (   0.0000000   0.3683037   0.5070524), wk =   0.0380952
        k(   13) = (   0.0000000  -0.5524555   0.0000000), wk =   0.0095238
        k(   14) = (   0.0000000  -0.5524555   0.1690175), wk =   0.0190476
        k(   15) = (   0.0000000  -0.5524555   0.3380349), wk =   0.0190476
        k(   16) = (   0.0000000  -0.5524555   0.5070524), wk =   0.0190476
        k(   17) = (   0.1913762   0.1104911   0.0000000), wk =   0.0190476
        k(   18) = (   0.1913762   0.1104911   0.1690175), wk =   0.0380952
        k(   19) = (   0.1913762   0.1104911   0.3380349), wk =   0.0380952
        k(   20) = (   0.1913762   0.1104911   0.5070524), wk =   0.0380952
        k(   21) = (   0.1913762   0.2946429   0.0000000), wk =   0.0190476
        k(   22) = (   0.1913762   0.2946429   0.1690175), wk =   0.0380952
        k(   23) = (   0.1913762   0.2946429   0.3380349), wk =   0.0380952
        k(   24) = (   0.1913762   0.2946429   0.5070524), wk =   0.0380952
        k(   25) = (   0.1913762   0.4787948   0.0000000), wk =   0.0190476
        k(   26) = (   0.1913762   0.4787948   0.1690175), wk =   0.0380952
        k(   27) = (   0.1913762   0.4787948   0.3380349), wk =   0.0380952
        k(   28) = (   0.1913762   0.4787948   0.5070524), wk =   0.0380952
        k(   29) = (   0.1913762  -0.4419644   0.0000000), wk =   0.0190476
        k(   30) = (   0.1913762  -0.4419644   0.1690175), wk =   0.0380952
        k(   31) = (   0.1913762  -0.4419644   0.3380349), wk =   0.0380952
        k(   32) = (   0.1913762  -0.4419644   0.5070524), wk =   0.0380952
        k(   33) = (   0.1913762  -0.2578126   0.0000000), wk =   0.0190476
        k(   34) = (   0.1913762  -0.2578126   0.1690175), wk =   0.0380952
        k(   35) = (   0.1913762  -0.2578126   0.3380349), wk =   0.0380952
        k(   36) = (   0.1913762  -0.2578126   0.5070524), wk =   0.0380952
        k(   37) = (   0.1913762  -0.0736607   0.0000000), wk =   0.0190476
        k(   38) = (   0.1913762  -0.0736607   0.1690175), wk =   0.0380952
        k(   39) = (   0.1913762  -0.0736607   0.3380349), wk =   0.0380952
        k(   40) = (   0.1913762  -0.0736607   0.5070524), wk =   0.0380952
        k(   41) = (   0.3827524   0.2209822   0.0000000), wk =   0.0190476
        k(   42) = (   0.3827524   0.2209822   0.1690175), wk =   0.0380952
        k(   43) = (   0.3827524   0.2209822   0.3380349), wk =   0.0380952
        k(   44) = (   0.3827524   0.2209822   0.5070524), wk =   0.0380952
        k(   45) = (   0.3827524   0.4051340   0.0000000), wk =   0.0190476
        k(   46) = (   0.3827524   0.4051340   0.1690175), wk =   0.0380952
        k(   47) = (   0.3827524   0.4051340   0.3380349), wk =   0.0380952
        k(   48) = (   0.3827524   0.4051340   0.5070524), wk =   0.0380952
        k(   49) = (   0.3827524   0.5892859   0.0000000), wk =   0.0190476
        k(   50) = (   0.3827524   0.5892859   0.1690175), wk =   0.0380952
        k(   51) = (   0.3827524   0.5892859   0.3380349), wk =   0.0380952
        k(   52) = (   0.3827524   0.5892859   0.5070524), wk =   0.0380952
        k(   53) = (   0.3827524  -0.3314733   0.0000000), wk =   0.0190476
        k(   54) = (   0.3827524  -0.3314733   0.1690175), wk =   0.0380952
        k(   55) = (   0.3827524  -0.3314733   0.3380349), wk =   0.0380952
        k(   56) = (   0.3827524  -0.3314733   0.5070524), wk =   0.0380952
        k(   57) = (   0.3827524  -0.1473215   0.0000000), wk =   0.0190476
        k(   58) = (   0.3827524  -0.1473215   0.1690175), wk =   0.0380952
        k(   59) = (   0.3827524  -0.1473215   0.3380349), wk =   0.0380952
        k(   60) = (   0.3827524  -0.1473215   0.5070524), wk =   0.0380952
        k(   61) = (   0.3827524   0.0368304   0.0000000), wk =   0.0190476
        k(   62) = (   0.3827524   0.0368304   0.1690175), wk =   0.0380952
        k(   63) = (   0.3827524   0.0368304   0.3380349), wk =   0.0380952
        k(   64) = (   0.3827524   0.0368304   0.5070524), wk =   0.0380952

     Largest allocated arrays     est. size (Mb)     dimensions
     Largest temporary arrays     est. size (Mb)     dimensions

     Initial potential from superposition of free atoms
     Check: negative starting charge=   -0.000549

     starting charge   25.98109, renormalised to   98.00000

     negative rho (up, down):  0.207E-02 0.000E+00
     Starting wfc are   40 randomized atomic wfcs

     Writing output data file Prototype-La-hP8-Mg3Cd.save

     Self-consistent Calculation

[...]

     negative rho (up, down):  0.362E-04 0.000E+00

[...]

     iteration #  6     ecut=    40.00 Ry     beta=0.70
     CG style diagonalization
     ethr =  1.00E-02,  avg # of iterations =  5.1

[...]

     total energy              =    -649.36744547 Ry
     Harris-Foulkes estimate   =    -649.36745844 Ry
     estimated scf accuracy    <       0.00003955 Ry

     iteration # 16     ecut=    40.00 Ry     beta=0.70
     CG style diagonalization
     c_bands:  1 eigenvalues not converged
     c_bands:  1 eigenvalues not converged
     c_bands:  2 eigenvalues not converged
     c_bands:  1 eigenvalues not converged
     c_bands:  1 eigenvalues not converged
     c_bands:  1 eigenvalues not converged
     c_bands:  1 eigenvalues not converged
     c_bands:  1 eigenvalues not converged
     ethr =  4.04E-08,  avg # of iterations =  3.9

     End of self-consistent calculation

[...]

          k = 0.3828 0.0368 0.5071 (  5934 PWs)   bands (ev):

   -25.4409 -25.4396 -20.4089 -20.3521 -20.2725 -20.2370 -20.2063 -20.1833
    -5.5177  -5.5008  -5.4764  -5.4736  -5.4602  -5.4442  -3.0706  -3.0110
    -2.8981  -2.8830  -2.6472  -2.6079  -2.2740  -2.2141  -2.0468  -2.0401
    -1.9099  -1.8077  -1.7255  -1.6921  -1.6421  -1.5455  -1.4943  -1.4770
    14.4175  14.4698  14.6155  14.8023  14.8537  15.0728  15.3043  15.5584
    15.7027  15.7357  15.9135  16.1343  16.2029  16.2998  16.3688  16.4793
    17.3104  17.3355  18.0007  18.1107  18.2887  18.3580  18.4413  18.6461
    18.6753  18.8502  19.3178

     the Fermi energy is    17.3625 ev

!    total energy              =    -649.36745848 Ry
     Harris-Foulkes estimate   =    -649.36745872 Ry
     estimated scf accuracy    <       0.00000033 Ry

     The total energy is the sum of the following terms:

     one-electron contribution =       1.06833928 Ry
     hartree contribution      =      55.88062318 Ry
     xc contribution           =     -83.61239077 Ry
     ewald contribution        =    -622.04125308 Ry
     smearing contrib. (-TS)   =      -0.66277709 Ry

     convergence has been achieved in  16 iterations

     Forces acting on atoms (Ry/au):

     atom    1 type  1   force =    -0.00528742   -0.00305270    0.00000000
     atom    2 type  1   force =    -0.00528742    0.00305270    0.00000000
     atom    3 type  1   force =     0.00528742    0.00305270    0.00000000
     atom    4 type  1   force =     0.00528742   -0.00305270    0.00000000
     atom    5 type  1   force =     0.00000000    0.00610539    0.00000000
     atom    6 type  1   force =     0.00000000   -0.00610539    0.00000000
     atom    7 type  2   force =     0.00000000    0.00000000    0.00000000
     atom    8 type  2   force =     0.00000000    0.00000000    0.00000000

     Total force =     0.014955     Total SCF correction =     0.000000

     entering subroutine stress ...

          total   stress  (Ry/bohr**3)                   (kbar)     P=   52.19
   0.00027199   0.00000000   0.00000000         40.01      0.00      0.00
   0.00000000   0.00027199   0.00000000          0.00     40.01      0.00
   0.00000000   0.00000000   0.00052035          0.00      0.00     76.55

     Writing output data file Prototype-La-hP8-Mg3Cd.save

     General routines

     Parallel routines

   This run was terminated on:   1:42: 7  22Mar2018

   JOB DONE.