     Program PWSCF v.5.0.2 starts on 22Mar2018 at  0:38:21

     Current dimensions of program PWSCF are:
     Max number of different atomic species (ntypx) = 10
     Max number of k-points (npk) =  40000
     Max angular momentum in pseudopotentials (lmaxx) =  3
     Waiting for input...
     Reading input from standard input

     Subspace diagonalization in iterative solution of the eigenvalue problem:
     a serial algorithm will be used

     bravais-lattice index     =            0
     lattice parameter (alat)  =       7.0151  a.u.
     unit-cell volume          =     862.2778 (a.u.)^3
     number of atoms/cell      =           12
     number of atomic types    =            2
     number of electrons       =       148.00
     number of Kohn-Sham states=           89
     kinetic-energy cutoff     =      40.0000  Ry
     charge density cutoff     =     160.0000  Ry
     convergence threshold     =      1.0E-04
     mixing beta               =       0.7000
     number of iterations used =            8  plain     mixing
     Exchange-correlation      = SLA-PZ-NOGX-NOGC ( 1 1 0 0 0)
     EXX-fraction              =        0.00
     nstep                     =           50

     celldm(1)=   7.015105  celldm(2)=   0.000000  celldm(3)=   0.000000
     celldm(4)=   0.000000  celldm(5)=   0.000000  celldm(6)=   0.000000

     crystal axes: (cart. coord. in units of alat)
               a(1) = (   1.000000   0.000000   0.000000 )
               a(2) = (   0.000000   1.315963   0.000000 )
               a(3) = (   0.000000   0.000000   1.898020 )

     reciprocal axes: (cart. coord. in units 2 pi/alat)
               b(1) = (  1.000000  0.000000  0.000000 )
               b(2) = (  0.000000  0.759900  0.000000 )
               b(3) = (  0.000000  0.000000  0.526865 )

     PseudoPot. # 1 for Ce read from file:
     /home/jld5415/pp.La/Ce.UPF
     MD5 check sum: 44451aa79a44a00cf2bc029dc19922f6
     Pseudo is Norm-conserving, Zval = 12.0
     Generated in analytical, separable form
     Using radial grid of 1255 points,  6 beta functions with:
                l(1) =   0
                l(2) =   0
                l(3) =   1
                l(4) =   1
                l(5) =   2
                l(6) =   3

     PseudoPot. # 2 for Pr read from file:
     /home/jld5415/pp.La/Pr.UPF
     MD5 check sum: 70e2b4b153859e92c8c91247dfc63203
     Pseudo is Norm-conserving, Zval = 13.0
     Generated in analytical, separable form
     Using radial grid of 1255 points,  6 beta functions with:
                l(1) =   0
                l(2) =   0
                l(3) =   1
                l(4) =   1
                l(5) =   2
                l(6) =   3

     atomic species   valence    mass     pseudopotential
        Co            12.00    58.93320     Ce( 1.00)
        Si            13.00    28.08550     Pr( 1.00)

      8 Sym. Ops., with inversion, found ( 6 have fractional translation)

   Cartesian axes

     site n.     atom                  positions (alat units)
         1           Co  tau(   1) = (   0.7500000   1.0875135   0.8270358  )
         2           Co  tau(   2) = (   0.2500000   0.2284499   1.0709846  )
         3           Co  tau(   3) = (   0.7500000   0.4295318   0.1219744  )
         4           Co  tau(   4) = (   0.2500000   0.8864316   1.7760460  )
         5           Co  tau(   5) = (   0.2500000   0.7067855   0.5358966  )
         6           Co  tau(   6) = (   0.7500000   0.6091779   1.3621238  )
         7           Co  tau(   7) = (   0.2500000   0.0488038   0.4131136  )
         8           Co  tau(   8) = (   0.7500000   1.2671596   1.4849068  )
         9           Si  tau(   9) = (   0.2500000   0.2669484   1.6960710  )
        10           Si  tau(  10) = (   0.7500000   1.0490149   0.2019494  )
        11           Si  tau(  11) = (   0.2500000   0.9249301   1.1509596  )
        12           Si  tau(  12) = (   0.7500000   0.3910333   0.7470608  )

     number of k points=    12  gaussian smearing, width (Ry)=  0.1000
                       cart. coord. in units 2pi/alat
        k(    1) = (   0.0000000   0.0000000   0.0000000), wk =   0.0833333
        k(    2) = (   0.0000000   0.0000000   0.1317162), wk =   0.1666667
        k(    3) = (   0.0000000   0.0000000  -0.2634324), wk =   0.0833333
        k(    4) = (   0.0000000   0.2532999   0.0000000), wk =   0.1666667
        k(    5) = (   0.0000000   0.2532999   0.1317162), wk =   0.3333333
        k(    6) = (   0.0000000   0.2532999  -0.2634324), wk =   0.1666667
        k(    7) = (  -0.5000000   0.0000000   0.0000000), wk =   0.0833333
        k(    8) = (  -0.5000000   0.0000000   0.1317162), wk =   0.1666667
        k(    9) = (  -0.5000000   0.0000000  -0.2634324), wk =   0.0833333
        k(   10) = (  -0.5000000   0.2532999   0.0000000), wk =   0.1666667
        k(   11) = (  -0.5000000   0.2532999   0.1317162), wk =   0.3333333
        k(   12) = (  -0.5000000   0.2532999  -0.2634324), wk =   0.1666667

     Largest allocated arrays     est. size (Mb)     dimensions
     Largest temporary arrays     est. size (Mb)     dimensions

     Initial potential from superposition of free atoms
     Check: negative starting charge=   -0.001196

     starting charge   51.96217, renormalised to  148.00000

     negative rho (up, down):  0.341E-02 0.000E+00
     Starting wfc are   80 randomized atomic wfcs

     Self-consistent Calculation

     iteration #  1     ecut=    40.00 Ry     beta=0.70
     CG style diagonalization
     ethr =  1.00E-02,  avg # of iterations = 20.5

     negative rho (up, down):  0.993E-03 0.000E+00

     total energy              =    -621.99044793 Ry
     Harris-Foulkes estimate   =   -1852.56988185 Ry
     estimated scf accuracy    <    1473.77440131 Ry

     iteration #  2     ecut=    40.00 Ry     beta=0.70
     CG style diagonalization
     c_bands:  2 eigenvalues not converged
     c_bands:  1 eigenvalues not converged
     c_bands:  2 eigenvalues not converged
     c_bands:  5 eigenvalues not converged
     c_bands:  1 eigenvalues not converged
     c_bands:  1 eigenvalues not converged
     c_bands:  3 eigenvalues not converged
     c_bands:  1 eigenvalues not converged
     c_bands:  2 eigenvalues not converged
     ethr =  1.00E-02,  avg # of iterations = 14.3

[...]

     End of self-consistent calculation

          k = 0.0000 0.0000 0.0000 (  3675 PWs)   bands (ev):

    -4.0958  -2.5648  -2.2031  -1.7189   2.7420   3.2316   4.5896   4.6282
     4.8088   5.1083   5.2252   5.6064  12.4384  13.8494  14.4579  14.8423
    14.9757  15.2183  15.3085  15.6838  15.8820  16.3317  16.4955  17.7566
    18.6003  18.7928  18.9758  20.1520  20.4114  21.0257  21.1654  21.9353
    22.2411  22.8118  22.8951  23.3758  23.6163  23.7572  24.5474  24.6477
    25.2605  25.3242  25.5647  26.0332  28.0939  28.5721  28.6274  29.0603
    33.0109  33.6168  34.8808  35.1052  35.1726  35.6567  35.7183  35.9929
    36.8646  37.5933  38.3756  38.5777  39.1138  39.5477  40.7864  41.5442
    42.0407  42.0791  42.5269  42.6080  43.1955  43.2461  43.3183  43.4243
    44.2231  45.0344  45.4319  45.5251  45.5912  46.5208  46.6319  47.3183
    47.5122  47.9080  48.0291  48.0426  48.9693  49.2540  49.3094  49.3710
    49.5166

[...]

          k =-0.5000 0.0000 0.0000 (  3722 PWs)   bands (ev):

[...]

     the Fermi energy is    44.1680 ev

!    total energy              =    -977.34105963 Ry
     Harris-Foulkes estimate   =    -977.34108866 Ry
     estimated scf accuracy    <       0.00003911 Ry

     The total energy is the sum of the following terms:

     one-electron contribution =     412.59713085 Ry
     hartree contribution      =      21.45437432 Ry
     xc contribution           =    -145.64925009 Ry
     ewald contribution        =   -1265.36450565 Ry
     smearing contrib. (-TS)   =      -0.37880906 Ry

     convergence has been achieved in   9 iterations

     Forces acting on atoms (Ry/au):

     atom    1 type  1   force =     0.00000000   -0.02475504   -0.07547272
     atom    2 type  1   force =     0.00000000    0.02475504    0.07547272
     atom    3 type  1   force =     0.00000000   -0.02475504    0.07547272
     atom    4 type  1   force =     0.00000000    0.02475504   -0.07547272
     atom    5 type  1   force =     0.00000000    0.11511493   -0.21640841
     atom    6 type  1   force =     0.00000000   -0.11511493    0.21640841
     atom    7 type  1   force =     0.00000000    0.11511493    0.21640841
     atom    8 type  1   force =     0.00000000   -0.11511493   -0.21640841
     atom    9 type  2   force =     0.00000000   -0.16111318    0.03887549
     atom   10 type  2   force =     0.00000000    0.16111318   -0.03887549
     atom   11 type  2   force =     0.00000000   -0.16111318   -0.03887549
     atom   12 type  2   force =     0.00000000    0.16111318    0.03887549

     Total force =     0.612737     Total SCF correction =     0.021453

     entering subroutine stress ...

          total   stress  (Ry/bohr**3)                   (kbar)     P= 6278.36
   0.04372545   0.00000000   0.00000000       6432.23      0.00      0.00
   0.00000000   0.04162452   0.00000000          0.00   6123.18      0.00
   0.00000000   0.00000000   0.04268824          0.00      0.00   6279.66

     BFGS Geometry Optimization

     number of scf cycles    =   1
     number of bfgs steps    =   0

     enthalpy new            =    -977.3410596313 Ry

     new trust radius        =       0.5000000000 bohr
     new conv_thr            =       0.0001000000 Ry

     new unit-cell volume =   1095.59796 a.u.^3 (   162.35087 Ang^3 )

CELL_PARAMETERS (alat=  7.01510508)
   1.085136619   0.000000000   0.000000000
   0.000000000   1.422616894   0.000000000
   0.000000000   0.000000000   2.055778364

ATOMIC_POSITIONS (crystal)
Co       0.750000000   0.826192153   0.435294534
Co       0.250000000   0.173807847   0.564705466
Co       0.750000000   0.326192153   0.064705466
Co       0.250000000   0.673807847   0.935294534
Co       0.250000000   0.538057171   0.281079153
Co       0.750000000   0.461942829   0.718920847
Co       0.250000000   0.038057171   0.218920847
Co       0.750000000   0.961942829   0.781079153
Si       0.250000000   0.201494763   0.893827396
Si       0.750000000   0.798505237   0.106172604
Si       0.250000000   0.701494763   0.606172604
Si       0.750000000   0.298505237   0.393827396

     Writing output data file Prototype-La-oP12-Co2Si.save
     Check: negative starting charge=   -0.001196
     NEW-OLD atomic charge density approx. for the potential
     NEW k-points:
        k(    1) = (   0.0000000   0.0000000   0.0000000), wk =   0.0833333
        k(    2) = (   0.0000000   0.0000000   0.1216084), wk =   0.1666667
        k(    3) = (   0.0000000   0.0000000  -0.2432169), wk =   0.0833333
        k(    4) = (   0.0000000   0.2343100   0.0000000), wk =   0.1666667
        k(    5) = (   0.0000000   0.2343100   0.1216084), wk =   0.3333333
        k(    6) = (   0.0000000   0.2343100  -0.2432169), wk =   0.1666667
        k(    7) = (  -0.4607715   0.0000000   0.0000000), wk =   0.0833333
        k(    8) = (  -0.4607715   0.0000000   0.1216084), wk =   0.1666667
        k(    9) = (  -0.4607715   0.0000000  -0.2432169), wk =   0.0833333
        k(   10) = (  -0.4607715   0.2343100   0.0000000), wk =   0.1666667
        k(   11) = (  -0.4607715   0.2343100   0.1216084), wk =   0.3333333
        k(   12) = (  -0.4607715   0.2343100  -0.2432169), wk =   0.1666667
     Check: negative starting charge=   -0.006452

     negative rho (up, down):  0.540E-02 0.000E+00
     extrapolated charge  159.06594, renormalised to  148.00000

[...]

     enthalpy old            =    -977.3410596313 Ry
     enthalpy new            =    -983.8390826463 Ry

     CASE: enthalpy_new < enthalpy_old

     small trust_radius: resetting bfgs history

     new trust radius        =       2.8594623780 bohr
     new conv_thr            =       0.0001000000 Ry

[...]

     Writing output data file Prototype-La-oP12-Co2Si.save
     Check: negative starting charge=   -0.006452
     NEW-OLD atomic charge density approx. for the potential
     NEW k-points:
        k(    1) = (   0.0000000   0.0000000   0.0000000), wk =   0.0833333
        k(    2) = (   0.0000000   0.0000000   0.0855922), wk =   0.1666667
        k(    3) = (   0.0000000   0.0000000  -0.1711844), wk =   0.0833333
        k(    4) = (   0.0000000   0.1672980   0.0000000), wk =   0.1666667
        k(    5) = (   0.0000000   0.1672980   0.0855922), wk =   0.3333333
        k(    6) = (   0.0000000   0.1672980  -0.1711844), wk =   0.1666667
        k(    7) = (  -0.3217801   0.0000000   0.0000000), wk =   0.0833333
        k(    8) = (  -0.3217801   0.0000000   0.0855922), wk =   0.1666667
        k(    9) = (  -0.3217801   0.0000000  -0.1711844), wk =   0.0833333
        k(   10) = (  -0.3217801   0.1672980   0.0000000), wk =   0.1666667
        k(   11) = (  -0.3217801   0.1672980   0.0855922), wk =   0.3333333
        k(   12) = (  -0.3217801   0.1672980  -0.1711844), wk =   0.1666667
     extrapolated charge  181.72610, renormalised to  148.00000

[...]

     Total force =     0.019546     Total SCF correction =     0.011240
     SCF correction compared to forces is large: reduce conv_thr to get better values

[...]

          total   stress  (Ry/bohr**3)                   (kbar)     P=-1020.11
  -0.00701270   0.00000000   0.00000000      -1031.60      0.00      0.00
   0.00000000  -0.00682817   0.00000000          0.00  -1004.46      0.00
   0.00000000   0.00000000  -0.00696288          0.00      0.00  -1024.28

     number of scf cycles    =   3
     number of bfgs steps    =   2

     enthalpy old            =    -983.8390826463 Ry
     enthalpy new            =    -978.4057905040 Ry

     CASE: enthalpy_new > enthalpy_old

     new trust radius        =       1.3642298794 bohr

     trust_radius < trust_radius_min

     resetting bfgs history

     Message from routine bfgs:
     history already reset at previous step: stopping
     new conv_thr            =       0.0001000000 Ry

     new unit-cell volume =   1307.76316 a.u.^3 (   193.79050 Ang^3 )

[...]

ATOMIC_POSITIONS (crystal)
Co       0.750000000   0.826087281   0.435055721
Co       0.250000000   0.173912719   0.564944279
Co       0.750000000   0.326087281   0.064944279
Co       0.250000000   0.673912719   0.935055721
Co       0.250000000   0.538590875   0.280274802
Co       0.750000000   0.461409125   0.719725198
Co       0.250000000   0.038590875   0.219725198
Co       0.750000000   0.961409125   0.780274802
Si       0.250000000   0.200515214   0.894166839
Si       0.750000000   0.799484786   0.105833161
Si       0.250000000   0.700515214   0.605833161
Si       0.750000000   0.299484786   0.394166839

     Writing output data file Prototype-La-oP12-Co2Si.save
     NEW-OLD atomic charge density approx. for the potential
     NEW k-points:
        k(    1) = (   0.0000000   0.0000000   0.0000000), wk =   0.0833333
        k(    2) = (   0.0000000   0.0000000   0.1145685), wk =   0.1666667
        k(    3) = (   0.0000000   0.0000000  -0.2291370), wk =   0.0833333
        k(    4) = (   0.0000000   0.2217084   0.0000000), wk =   0.1666667
        k(    5) = (   0.0000000   0.2217084   0.1145685), wk =   0.3333333
        k(    6) = (   0.0000000   0.2217084  -0.2291370), wk =   0.1666667
        k(    7) = (  -0.4330269   0.0000000   0.0000000), wk =   0.0833333
        k(    8) = (  -0.4330269   0.0000000   0.1145685), wk =   0.1666667
        k(    9) = (  -0.4330269   0.0000000  -0.2291370), wk =   0.0833333
        k(   10) = (  -0.4330269   0.2217084   0.0000000), wk =   0.1666667
        k(   11) = (  -0.4330269   0.2217084   0.1145685), wk =   0.3333333
        k(   12) = (  -0.4330269   0.2217084  -0.2291370), wk =   0.1666667
     Check: negative starting charge=   -0.011961

     negative rho (up, down):  0.295E+02 0.000E+00
     extrapolated charge   75.92110, renormalised to  148.00000

[...]

     Total force =     0.193085     Total SCF correction =     0.028328
     SCF correction compared to forces is large: reduce conv_thr to get better values

[...]

     The maximum number of steps has been reached.

     End of BFGS Geometry Optimization
Begin final coordinates
     new unit-cell volume =   1307.76316 a.u.^3 (   193.79050 Ang^3 )

CELL_PARAMETERS (alat=  7.01510508)
   1.154662614   0.000000000   0.000000000
   0.000000000   1.503476451   0.000000000
   0.000000000   0.000000000   2.182100877

ATOMIC_POSITIONS (crystal)
Co       0.750000000   0.826087281   0.435055721
Co       0.250000000   0.173912719   0.564944279
Co       0.750000000   0.326087281   0.064944279
Co       0.250000000   0.673912719   0.935055721
Co       0.250000000   0.538590875   0.280274802
Co       0.750000000   0.461409125   0.719725198
Co       0.250000000   0.038590875   0.219725198
Co       0.750000000   0.961409125   0.780274802
Si       0.250000000   0.200515214   0.894166839
Si       0.750000000   0.799484786   0.105833161
Si       0.250000000   0.700515214   0.605833161
Si       0.750000000   0.299484786   0.394166839
End final coordinates

     A final scf calculation at the relaxed structure.
     The G-vectors are recalculated for the final unit cell
     Results may differ from those at the preceding step.

     bravais-lattice index     =            0
     lattice parameter (alat)  =       7.0151  a.u.
     unit-cell volume          =    1307.7632 (a.u.)^3
     number of atoms/cell      =           12
     number of atomic types    =            2
     number of electrons       =       148.00
     number of Kohn-Sham states=           89
     kinetic-energy cutoff     =      40.0000  Ry
     charge density cutoff     =     160.0000  Ry
     convergence threshold     =      1.0E-04
     mixing beta               =       0.7000
     number of iterations used =            8  plain     mixing
     Exchange-correlation      = SLA-PZ-NOGX-NOGC ( 1 1 0 0 0)
     EXX-fraction              =        0.00

     celldm(1)=   7.015105  celldm(2)=   0.000000  celldm(3)=   0.000000
     celldm(4)=   0.000000  celldm(5)=   0.000000  celldm(6)=   0.000000

     crystal axes: (cart. coord. in units of alat)
               a(1) = (   1.154663   0.000000   0.000000 )
               a(2) = (   0.000000   1.503476   0.000000 )
               a(3) = (   0.000000   0.000000   2.182101 )

     reciprocal axes: (cart. coord. in units 2 pi/alat)
               b(1) = (  0.866054  0.000000  0.000000 )
               b(2) = (  0.000000  0.665125  0.000000 )
               b(3) = (  0.000000  0.000000  0.458274 )

     PseudoPot. # 1 for Ce read from file:
     /home/jld5415/pp.La/Ce.UPF
     MD5 check sum: 44451aa79a44a00cf2bc029dc19922f6
     Pseudo is Norm-conserving, Zval = 12.0
     Generated in analytical, separable form
     Using radial grid of 1255 points,  6 beta functions with:
                l(1) =   0
                l(2) =   0
                l(3) =   1
                l(4) =   1
                l(5) =   2
                l(6) =   3

     PseudoPot. # 2 for Pr read from file:
     /home/jld5415/pp.La/Pr.UPF
     MD5 check sum: 70e2b4b153859e92c8c91247dfc63203
     Pseudo is Norm-conserving, Zval = 13.0
     Generated in analytical, separable form
     Using radial grid of 1255 points,  6 beta functions with:
                l(1) =   0
                l(2) =   0
                l(3) =   1
                l(4) =   1
                l(5) =   2
                l(6) =   3

     atomic species   valence    mass     pseudopotential
        Co            12.00    58.93320     Ce( 1.00)
        Si            13.00    28.08550     Pr( 1.00)

      8 Sym. Ops., with inversion, found ( 6 have fractional translation)

   Cartesian axes

     site n.     atom                  positions (alat units)
         1           Co  tau(   1) = (   0.8659970   1.2420028   0.9493355  )
         2           Co  tau(   2) = (   0.2886657   0.2614737   1.2327654  )
         3           Co  tau(   3) = (   0.8659970   0.4902645   0.1417150  )
         4           Co  tau(   4) = (   0.2886657   1.0132119   2.0403859  )
         5           Co  tau(   5) = (   0.2886657   0.8097587   0.6115879  )
         6           Co  tau(   6) = (   0.8659970   0.6937178   1.5705130  )
         7           Co  tau(   7) = (   0.2886657   0.0580205   0.4794625  )
         8           Co  tau(   8) = (   0.8659970   1.4454560   1.7026383  )
         9           Si  tau(   9) = (   0.2886657   0.3014699   1.9511622  )
        10           Si  tau(  10) = (   0.8659970   1.2020065   0.2309386  )
        11           Si  tau(  11) = (   0.2886657   1.0532081   1.3219891  )
        12           Si  tau(  12) = (   0.8659970   0.4502683   0.8601118  )

     number of k points=    12  gaussian smearing, width (Ry)=  0.1000
                       cart. coord. in units 2pi/alat
        k(    1) = (   0.0000000   0.0000000   0.0000000), wk =   0.0833333
        k(    2) = (   0.0000000   0.0000000   0.1145685), wk =   0.1666667
        k(    3) = (   0.0000000   0.0000000  -0.2291370), wk =   0.0833333
        k(    4) = (   0.0000000   0.2217084   0.0000000), wk =   0.1666667
        k(    5) = (   0.0000000   0.2217084   0.1145685), wk =   0.3333333
        k(    6) = (   0.0000000   0.2217084  -0.2291370), wk =   0.1666667
        k(    7) = (  -0.4330269   0.0000000   0.0000000), wk =   0.0833333
        k(    8) = (  -0.4330269   0.0000000   0.1145685), wk =   0.1666667
        k(    9) = (  -0.4330269   0.0000000  -0.2291370), wk =   0.0833333
        k(   10) = (  -0.4330269   0.2217084   0.0000000), wk =   0.1666667
        k(   11) = (  -0.4330269   0.2217084   0.1145685), wk =   0.3333333
        k(   12) = (  -0.4330269   0.2217084  -0.2291370), wk =   0.1666667

     Largest allocated arrays     est. size (Mb)     dimensions
     Largest temporary arrays     est. size (Mb)     dimensions

     Initial potential from superposition of free atoms
     Check: negative starting charge=   -0.001172

     starting charge   51.96217, renormalised to  148.00000

     negative rho (up, down):  0.334E-02 0.000E+00
     Starting wfc are   80 randomized atomic wfcs

     Writing output data file Prototype-La-oP12-Co2Si.save

     Self-consistent Calculation

[...]

     negative rho (up, down):  0.182E-06 0.000E+00

[...]

     iteration #  6     ecut=    40.00 Ry     beta=0.70
     CG style diagonalization
     ethr =  3.35E-03,  avg # of iterations =  3.6

[...]

     total energy              =    -987.06613760 Ry
     Harris-Foulkes estimate   =    -987.06626881 Ry
     estimated scf accuracy    <       0.00025154 Ry

     iteration # 11     ecut=    40.00 Ry     beta=0.70
     CG style diagonalization
     c_bands:  1 eigenvalues not converged
     ethr =  1.70E-07,  avg # of iterations =  3.9

     End of self-consistent calculation

[...]

          k = 0.0000 0.2217-0.2291 (  5570 PWs)   bands (ev):

[...]

          k =-0.4330 0.2217-0.2291 (  5576 PWs)   bands (ev):

   -14.5213 -14.5213 -14.4656 -14.4656  -9.4553  -9.4553  -9.1586  -9.1586
    -8.8825  -8.8825  -8.7226  -8.7226   3.3251   3.3251   3.7120   3.7120
     4.1117   4.1117   4.4100   4.4100   4.8031   4.8031   5.1273   5.1273
     7.3085   7.3085   8.0268   8.0268   8.2201   8.2201   8.9196   8.9196
     9.1488   9.1488   9.2667   9.2667   9.5000   9.5000   9.7990   9.7990
    10.2000  10.2000  10.2880  10.2880  10.4792  10.4792  10.5726  10.5726
    23.5653  23.5653  24.3262  24.3262  24.7707  24.7707  25.4493  25.4493
    25.5629  25.5629  25.8129  25.8129  26.2200  26.2200  26.4502  26.4502
    26.9648  26.9648  27.0234  27.0234  27.9178  27.9178  27.9778  27.9778
    28.4723  28.4723  28.6860  28.6860  29.3920  29.3920  29.7710  29.7711
    30.0933  30.0933  30.6370  30.6370  31.1292  31.1292  31.5549  31.5551
    31.8401

     the Fermi energy is    28.9026 ev

!    total energy              =    -987.06620432 Ry
     Harris-Foulkes estimate   =    -987.06621457 Ry
     estimated scf accuracy    <       0.00001209 Ry

     The total energy is the sum of the following terms:

     one-electron contribution =     203.02536809 Ry
     hartree contribution      =      46.97669720 Ry
     xc contribution           =    -134.82008855 Ry
     ewald contribution        =   -1101.68373657 Ry
     smearing contrib. (-TS)   =      -0.56444450 Ry

     convergence has been achieved in  11 iterations

     Forces acting on atoms (Ry/au):

     atom    1 type  1   force =     0.00000000   -0.00136561   -0.01131620
     atom    2 type  1   force =     0.00000000    0.00136561    0.01131620
     atom    3 type  1   force =     0.00000000   -0.00136561    0.01131620
     atom    4 type  1   force =     0.00000000    0.00136561   -0.01131620
     atom    5 type  1   force =     0.00000000    0.02489103   -0.06504570
     atom    6 type  1   force =     0.00000000   -0.02489103    0.06504570
     atom    7 type  1   force =     0.00000000    0.02489103    0.06504570
     atom    8 type  1   force =     0.00000000   -0.02489103   -0.06504570
     atom    9 type  2   force =     0.00000000   -0.06010294    0.03945668
     atom   10 type  2   force =     0.00000000    0.06010294   -0.03945668
     atom   11 type  2   force =     0.00000000   -0.06010294   -0.03945668
     atom   12 type  2   force =     0.00000000    0.06010294    0.03945668

     Total force =     0.201491     Total SCF correction =     0.004539

     entering subroutine stress ...

          total   stress  (Ry/bohr**3)                   (kbar)     P= 1258.87
   0.00899186   0.00000000   0.00000000       1322.75      0.00      0.00
   0.00000000   0.00810250   0.00000000          0.00   1191.92      0.00
   0.00000000   0.00000000   0.00857860          0.00      0.00   1261.96

     Writing output data file Prototype-La-oP12-Co2Si.save

     General routines

     Parallel routines

   This run was terminated on:   0:53:47  22Mar2018

   JOB DONE.