     Program PWSCF v.5.0.2 starts on 22Mar2018 at 21:13:24

     Current dimensions of program PWSCF are:
     Max number of different atomic species (ntypx) = 10
     Max number of k-points (npk) =  40000
     Max angular momentum in pseudopotentials (lmaxx) =  3
     Waiting for input...
     Reading input from standard input

     Subspace diagonalization in iterative solution of the eigenvalue problem:
     a serial algorithm will be used

     bravais-lattice index     =            0
     lattice parameter (alat)  =       9.9235  a.u.
     unit-cell volume          =    1361.0366 (a.u.)^3
     number of atoms/cell      =           12
     number of atomic types    =            2
     number of electrons       =       212.00
     number of Kohn-Sham states=          127
     kinetic-energy cutoff     =      40.0000  Ry
     charge density cutoff     =     160.0000  Ry
     convergence threshold     =      1.0E-04
     mixing beta               =       0.7000
     number of iterations used =            8  plain     mixing
     Exchange-correlation      = SLA-PZ-NOGX-NOGC ( 1 1 0 0 0)
     EXX-fraction              =        0.00
     nstep                     =           50

     celldm(1)=   9.923489  celldm(2)=   0.000000  celldm(3)=   0.000000
     celldm(4)=   0.000000  celldm(5)=   0.000000  celldm(6)=   0.000000

     crystal axes: (cart. coord. in units of alat)
               a(1) = (   1.000000   0.000000   0.000000 )
               a(2) = (  -0.500000   0.866025   0.000000 )
               a(3) = (   0.000000   0.000000   1.608222 )

     reciprocal axes: (cart. coord. in units 2 pi/alat)
               b(1) = (  1.000000  0.577350  0.000000 )
               b(2) = (  0.000000  1.154701  0.000000 )
               b(3) = (  0.000000  0.000000  0.621805 )

     PseudoPot. # 1 for Eu read from file:
     /home/cwx6513/pp.La/Eu.UPF
     MD5 check sum: 5efdbbfc50c6a10138933a6429836ad2
     Pseudo is Norm-conserving, Zval = 17.0
     Generated in analytical, separable form
     Using radial grid of 1261 points,  6 beta functions with:
                l(1) =   0
                l(2) =   0
                l(3) =   1
                l(4) =   1
                l(5) =   2
                l(6) =   3

     PseudoPot. # 2 for Gd read from file:
     /home/cwx6513/pp.La/Gd.UPF
     MD5 check sum: 09a8be538722f05520810cb6aac0efd2
     Pseudo is Norm-conserving, Zval = 18.0
     Generated in analytical, separable form
     Using radial grid of 1263 points,  6 beta functions with:
                l(1) =   0
                l(2) =   0
                l(3) =   1
                l(4) =   1
                l(5) =   2
                l(6) =   3

     atomic species   valence    mass     pseudopotential
        Mg            17.00    24.30500     Eu( 1.00)
        Zn            18.00    65.39000     Gd( 1.00)

     24 Sym. Ops., with inversion, found (12 have fractional translation)

   Cartesian axes

     site n.     atom                  positions (alat units)
         1           Mg  tau(   1) = (  -0.0000005   0.5773506   0.1003820  )
         2           Mg  tau(   2) = (   0.5000005   0.2886748   0.9044931  )
         3           Mg  tau(   3) = (   0.5000005   0.2886748   1.5078402  )
         4           Mg  tau(   4) = (  -0.0000005   0.5773506   0.7037291  )
         5           Zn  tau(   5) = (   0.0000000   0.0000000   0.0000000  )
         6           Zn  tau(   6) = (   0.0000000   0.0000000   0.8041111  )
         7           Zn  tau(   7) = (   0.0000000   0.2950739   1.2061667  )
         8           Zn  tau(   8) = (   0.7444585   0.1475370   0.4020556  )
         9           Zn  tau(   9) = (   0.2555415   0.1475370   0.4020556  )
        10           Zn  tau(  10) = (   0.2444585   0.7184884   1.2061667  )
        11           Zn  tau(  11) = (  -0.2444585   0.7184884   1.2061667  )
        12           Zn  tau(  12) = (   0.5000000   0.5709515   0.4020556  )

     number of k points=    12  gaussian smearing, width (Ry)=  0.1000
                       cart. coord. in units 2pi/alat
        k(    1) = (   0.0000000   0.0000000   0.0000000), wk =   0.0833333
        k(    2) = (   0.0000000   0.0000000   0.1554512), wk =   0.1666667
        k(    3) = (   0.0000000   0.0000000  -0.3109023), wk =   0.0833333
        k(    4) = (   0.0000000   0.3849002   0.0000000), wk =   0.1666667
        k(    5) = (   0.0000000   0.3849002   0.1554512), wk =   0.3333333
        k(    6) = (   0.0000000   0.3849002  -0.3109023), wk =   0.1666667
        k(    7) = (  -0.5000000  -0.2886751   0.0000000), wk =   0.0833333
        k(    8) = (  -0.5000000  -0.2886751   0.1554512), wk =   0.1666667
        k(    9) = (  -0.5000000  -0.2886751  -0.3109023), wk =   0.0833333
        k(   10) = (  -0.5000000   0.0962250   0.0000000), wk =   0.1666667
        k(   11) = (  -0.5000000   0.0962250   0.1554512), wk =   0.3333333
        k(   12) = (  -0.5000000   0.0962250  -0.3109023), wk =   0.1666667

     Largest allocated arrays     est. size (Mb)     dimensions
     Largest temporary arrays     est. size (Mb)     dimensions

     Initial potential from superposition of free atoms

     Starting from uniform charge
     Starting wfc are    0 randomized atomic wfcs

     Self-consistent Calculation

     iteration #  1     ecut=    40.00 Ry     beta=0.70
     CG style diagonalization
     ethr =  1.00E-02,  avg # of iterations = 18.1

     total energy              =   -1914.35442284 Ry
     Harris-Foulkes estimate   =   -2742.36655916 Ry
     estimated scf accuracy    <    1031.05372308 Ry

[...]

     iteration #  3     ecut=    40.00 Ry     beta=0.70
     CG style diagonalization
     c_bands:  1 eigenvalues not converged
     c_bands:  1 eigenvalues not converged
     c_bands:  2 eigenvalues not converged
     c_bands:  1 eigenvalues not converged
     c_bands:  1 eigenvalues not converged
     c_bands:  1 eigenvalues not converged
     c_bands:  1 eigenvalues not converged
     c_bands:  1 eigenvalues not converged
     ethr =  1.00E-02,  avg # of iterations = 11.4

[...]

     End of self-consistent calculation

          k = 0.0000 0.0000 0.0000 (  5769 PWs)   bands (ev):

   -40.5764 -40.4899 -40.1865 -40.1521 -40.1520 -40.1502 -40.1501 -40.0879
   -33.8843 -33.8729 -33.8502 -33.8338 -13.4331 -13.0783 -12.5175 -11.9893
   -11.9893 -11.9071 -11.9070 -11.7528 -11.7527 -11.4952 -11.2745 -11.1940
   -11.1939 -11.1103 -11.1103 -10.6024 -10.5792 -10.5720 -10.5671 -10.5671
   -10.5512 -10.5511 -10.4933 -10.4933  -6.7493  -6.7474  -6.7144  -6.7144
    -6.7094  -6.7094  -6.5403  -6.4909  -6.4834  -6.4834  -6.4809  -6.4809
    17.8025  18.5811  18.8516  19.9204  19.9204  20.1335  20.4435  20.4435
    20.5267  20.6503  20.6503  21.0563  21.2007  21.2008  21.6325  21.7735
    21.7736  22.4406  22.8080  22.8080  22.8765  22.8766  23.3789  24.0615
    24.0615  24.4371  24.8369  24.8369  24.9065  24.9065  24.9083  24.9083
    25.2656  25.2656  25.2934  25.3496  25.3496  25.5396  25.8507  25.8508
    25.9016  25.9017  25.9698  26.2193  26.4118  26.4118  26.4164  27.1895
    27.7810  27.7811  28.0072  28.0072  28.7341  28.7341  28.8463  28.8909
    28.8909  29.1027  29.1027  29.4232  29.4232  30.5071  30.5147  31.6757
    31.7689  33.3229  33.3334  33.3335  34.1254  34.5404  34.5404  35.5525
    36.0357  36.4238  36.4239  36.5237  37.6353  37.7402  37.7396

[...]

          k =-0.5000-0.2887 0.0000 (  5800 PWs)   bands (ev):

[...]

     the Fermi energy is    28.8941 ev

!    total energy              =   -2310.21623948 Ry
     Harris-Foulkes estimate   =   -2310.21627659 Ry
     estimated scf accuracy    <       0.00004290 Ry

     The total energy is the sum of the following terms:

     one-electron contribution =    -127.00319620 Ry
     hartree contribution      =     261.93218887 Ry
     xc contribution           =    -236.27250196 Ry
     ewald contribution        =   -2208.21035218 Ry
     smearing contrib. (-TS)   =      -0.66237802 Ry

     convergence has been achieved in  11 iterations

     Forces acting on atoms (Ry/au):

     atom    1 type  1   force =     0.00000000    0.00000000    0.00077451
     atom    2 type  1   force =     0.00000000    0.00000000    0.00077451
     atom    3 type  1   force =     0.00000000    0.00000000   -0.00077451
     atom    4 type  1   force =     0.00000000    0.00000000   -0.00077451
     atom    5 type  2   force =     0.00000000    0.00000000    0.00000000
     atom    6 type  2   force =     0.00000000    0.00000000    0.00000000
     atom    7 type  2   force =     0.00000000    0.03707296    0.00000000
     atom    8 type  2   force =    -0.03210613    0.01853648    0.00000000
     atom    9 type  2   force =     0.03210613    0.01853648    0.00000000
     atom   10 type  2   force =    -0.03210613   -0.01853648    0.00000000
     atom   11 type  2   force =     0.03210613   -0.01853648    0.00000000
     atom   12 type  2   force =     0.00000000   -0.03707296    0.00000000

     Total force =     0.090823     Total SCF correction =     0.000000

     entering subroutine stress ...

          total   stress  (Ry/bohr**3)                   (kbar)     P=  541.65
   0.00362617   0.00000000   0.00000000        533.43      0.00      0.00
   0.00000000   0.00362617   0.00000000          0.00    533.43      0.00
   0.00000000   0.00000000   0.00379376          0.00      0.00    558.08

     BFGS Geometry Optimization

     number of scf cycles    =   1
     number of bfgs steps    =   0

     enthalpy new            =   -2310.2162394828 Ry

     new trust radius        =       0.5000000000 bohr
     new conv_thr            =       0.0001000000 Ry

     new unit-cell volume =   1647.62438 a.u.^3 (   244.15274 Ang^3 )

CELL_PARAMETERS (alat=  9.92348860)
   1.064771374   0.000000000   0.000000000
  -0.532385687   0.922119059   0.000000000
   0.000000000   0.000000000   1.717203317

ATOMIC_POSITIONS (crystal)
Mg       0.333333000   0.666667000   0.062452675
Mg       0.666667000   0.333333000   0.562452675
Mg       0.666667000   0.333333000   0.937547325
Mg       0.333333000   0.666667000   0.437547325
Zn       0.000000000   0.000000000   0.000000000
Zn       0.000000000   0.000000000   0.500000000
Zn       0.171902087   0.343804174   0.750000000
Zn       0.828097913   0.171902087   0.250000000
Zn       0.343804174   0.171902087   0.250000000
Zn       0.656195826   0.828097913   0.750000000
Zn       0.171902087   0.828097913   0.750000000
Zn       0.828097913   0.656195826   0.250000000

     Writing output data file Prototype-La-hP12-MgZn2.save
     NEW-OLD atomic charge density approx. for the potential
     NEW k-points:
        k(    1) = (   0.0000000   0.0000000   0.0000000), wk =   0.0833333
        k(    2) = (   0.0000000   0.0000000   0.1455856), wk =   0.1666667
        k(    3) = (   0.0000000   0.0000000  -0.2911711), wk =   0.0833333
        k(    4) = (   0.0000000   0.3614862   0.0000000), wk =   0.1666667
        k(    5) = (   0.0000000   0.3614862   0.1455856), wk =   0.3333333
        k(    6) = (   0.0000000   0.3614862  -0.2911711), wk =   0.1666667
        k(    7) = (  -0.4695844  -0.2711147   0.0000000), wk =   0.0833333
        k(    8) = (  -0.4695844  -0.2711147   0.1455856), wk =   0.1666667
        k(    9) = (  -0.4695844  -0.2711147  -0.2911711), wk =   0.0833333
        k(   10) = (  -0.4695844   0.0903716   0.0000000), wk =   0.1666667
        k(   11) = (  -0.4695844   0.0903716   0.1455856), wk =   0.3333333
        k(   12) = (  -0.4695844   0.0903716  -0.2911711), wk =   0.1666667

[...]

     enthalpy old            =   -2310.2162394828 Ry
     enthalpy new            =   -2310.2086689450 Ry

     CASE: enthalpy_new > enthalpy_old

     new trust radius        =       0.2556625570 bohr

     trust_radius < trust_radius_min

     resetting bfgs history

     new conv_thr            =       0.0001000000 Ry

[...]

     number of scf cycles    =   3
     number of bfgs steps    =   1

     enthalpy old            =   -2310.2162394828 Ry
     enthalpy new            =   -2310.2367752858 Ry

     CASE: enthalpy_new < enthalpy_old

     Message from routine bfgs:
     history already reset at previous step: stopping
     small trust_radius: resetting bfgs history

     new trust radius        =       0.5585297782 bohr
     new conv_thr            =       0.0000395703 Ry

     new unit-cell volume =   1328.12689 a.u.^3 (   196.80810 Ang^3 )

[...]

ATOMIC_POSITIONS (crystal)
Mg       0.333333000   0.666667000   0.062654477
Mg       0.666667000   0.333333000   0.562654477
Mg       0.666667000   0.333333000   0.937345523
Mg       0.333333000   0.666667000   0.437345523
Zn       0.000000000   0.000000000   0.000000000
Zn       0.000000000   0.000000000   0.500000000
Zn       0.169594891   0.339189782   0.750000000
Zn       0.830405109   0.169594891   0.250000000
Zn       0.339189782   0.169594891   0.250000000
Zn       0.660810218   0.830405109   0.750000000
Zn       0.169594891   0.830405109   0.750000000
Zn       0.830405109   0.660810218   0.250000000

     Writing output data file Prototype-La-hP12-MgZn2.save
     NEW-OLD atomic charge density approx. for the potential
     NEW k-points:
        k(    1) = (   0.0000000   0.0000000   0.0000000), wk =   0.0833333
        k(    2) = (   0.0000000   0.0000000   0.1566710), wk =   0.1666667
        k(    3) = (   0.0000000   0.0000000  -0.3133419), wk =   0.0833333
        k(    4) = (   0.0000000   0.3881199   0.0000000), wk =   0.1666667
        k(    5) = (   0.0000000   0.3881199   0.1566710), wk =   0.3333333
        k(    6) = (   0.0000000   0.3881199  -0.3133419), wk =   0.1666667
        k(    7) = (  -0.5041826  -0.2910899   0.0000000), wk =   0.0833333
        k(    8) = (  -0.5041826  -0.2910899   0.1566710), wk =   0.1666667
        k(    9) = (  -0.5041826  -0.2910899  -0.3133419), wk =   0.0833333
        k(   10) = (  -0.5041826   0.0970300   0.0000000), wk =   0.1666667
        k(   11) = (  -0.5041826   0.0970300   0.1566710), wk =   0.3333333
        k(   12) = (  -0.5041826   0.0970300  -0.3133419), wk =   0.1666667

[...]

     The maximum number of steps has been reached.

     End of BFGS Geometry Optimization
Begin final coordinates
     new unit-cell volume =   1328.12689 a.u.^3 (   196.80810 Ang^3 )

CELL_PARAMETERS (alat=  9.92348860)
   0.991704232   0.000000000   0.000000000
  -0.495852116   0.858841058   0.000000000
   0.000000000   0.000000000   1.595700860

ATOMIC_POSITIONS (crystal)
Mg       0.333333000   0.666667000   0.062654477
Mg       0.666667000   0.333333000   0.562654477
Mg       0.666667000   0.333333000   0.937345523
Mg       0.333333000   0.666667000   0.437345523
Zn       0.000000000   0.000000000   0.000000000
Zn       0.000000000   0.000000000   0.500000000
Zn       0.169594891   0.339189782   0.750000000
Zn       0.830405109   0.169594891   0.250000000
Zn       0.339189782   0.169594891   0.250000000
Zn       0.660810218   0.830405109   0.750000000
Zn       0.169594891   0.830405109   0.750000000
Zn       0.830405109   0.660810218   0.250000000
End final coordinates

     A final scf calculation at the relaxed structure.
     The G-vectors are recalculated for the final unit cell
     Results may differ from those at the preceding step.

     bravais-lattice index     =            0
     lattice parameter (alat)  =       9.9235  a.u.
     unit-cell volume          =    1328.1269 (a.u.)^3
     number of atoms/cell      =           12
     number of atomic types    =            2
     number of electrons       =       212.00
     number of Kohn-Sham states=          127
     kinetic-energy cutoff     =      40.0000  Ry
     charge density cutoff     =     160.0000  Ry
     convergence threshold     =      4.0E-05
     mixing beta               =       0.7000
     number of iterations used =            8  plain     mixing
     Exchange-correlation      = SLA-PZ-NOGX-NOGC ( 1 1 0 0 0)
     EXX-fraction              =        0.00

     celldm(1)=   9.923489  celldm(2)=   0.000000  celldm(3)=   0.000000
     celldm(4)=   0.000000  celldm(5)=   0.000000  celldm(6)=   0.000000

     crystal axes: (cart. coord. in units of alat)
               a(1) = (   0.991704   0.000000   0.000000 )
               a(2) = (  -0.495852   0.858841   0.000000 )
               a(3) = (   0.000000   0.000000   1.595701 )

     reciprocal axes: (cart. coord. in units 2 pi/alat)
               b(1) = (  1.008365  0.582180  0.000000 )
               b(2) = (  0.000000  1.164360  0.000000 )
               b(3) = (  0.000000  0.000000  0.626684 )

     PseudoPot. # 1 for Eu read from file:
     /home/cwx6513/pp.La/Eu.UPF
     MD5 check sum: 5efdbbfc50c6a10138933a6429836ad2
     Pseudo is Norm-conserving, Zval = 17.0
     Generated in analytical, separable form
     Using radial grid of 1261 points,  6 beta functions with:
                l(1) =   0
                l(2) =   0
                l(3) =   1
                l(4) =   1
                l(5) =   2
                l(6) =   3

     PseudoPot. # 2 for Gd read from file:
     /home/cwx6513/pp.La/Gd.UPF
     MD5 check sum: 09a8be538722f05520810cb6aac0efd2
     Pseudo is Norm-conserving, Zval = 18.0
     Generated in analytical, separable form
     Using radial grid of 1263 points,  6 beta functions with:
                l(1) =   0
                l(2) =   0
                l(3) =   1
                l(4) =   1
                l(5) =   2
                l(6) =   3

     atomic species   valence    mass     pseudopotential
        Mg            17.00    24.30500     Eu( 1.00)
        Zn            18.00    65.39000     Gd( 1.00)

     24 Sym. Ops., with inversion, found (12 have fractional translation)

   Cartesian axes

     site n.     atom                  positions (alat units)
         1           Mg  tau(   1) = (  -0.0000005   0.5725610   0.0999778  )
         2           Mg  tau(   2) = (   0.4958526   0.2862801   0.8978282  )
         3           Mg  tau(   3) = (   0.4958526   0.2862801   1.4957231  )
         4           Mg  tau(   4) = (  -0.0000005   0.5725610   0.6978726  )
         5           Zn  tau(   5) = (   0.0000000   0.0000000   0.0000000  )
         6           Zn  tau(   6) = (   0.0000000   0.0000000   0.7978504  )
         7           Zn  tau(   7) = (   0.0000000   0.2913101   1.1967756  )
         8           Zn  tau(   8) = (   0.7394223   0.1456551   0.3989252  )
         9           Zn  tau(   9) = (   0.2522820   0.1456551   0.3989252  )
        10           Zn  tau(  10) = (   0.2435702   0.7131860   1.1967756  )
        11           Zn  tau(  11) = (  -0.2435702   0.7131860   1.1967756  )
        12           Zn  tau(  12) = (   0.4958521   0.5675309   0.3989252  )

     number of k points=    12  gaussian smearing, width (Ry)=  0.1000
                       cart. coord. in units 2pi/alat
        k(    1) = (   0.0000000   0.0000000   0.0000000), wk =   0.0833333
        k(    2) = (   0.0000000   0.0000000   0.1566710), wk =   0.1666667
        k(    3) = (   0.0000000   0.0000000  -0.3133419), wk =   0.0833333
        k(    4) = (   0.0000000   0.3881199   0.0000000), wk =   0.1666667
        k(    5) = (   0.0000000   0.3881199   0.1566710), wk =   0.3333333
        k(    6) = (   0.0000000   0.3881199  -0.3133419), wk =   0.1666667
        k(    7) = (  -0.5041826  -0.2910899   0.0000000), wk =   0.0833333
        k(    8) = (  -0.5041826  -0.2910899   0.1566710), wk =   0.1666667
        k(    9) = (  -0.5041826  -0.2910899  -0.3133419), wk =   0.0833333
        k(   10) = (  -0.5041826   0.0970300   0.0000000), wk =   0.1666667
        k(   11) = (  -0.5041826   0.0970300   0.1566710), wk =   0.3333333
        k(   12) = (  -0.5041826   0.0970300  -0.3133419), wk =   0.1666667

     Largest allocated arrays     est. size (Mb)     dimensions
     Largest temporary arrays     est. size (Mb)     dimensions

     Initial potential from superposition of free atoms

     Starting from uniform charge
     Starting wfc are    0 randomized atomic wfcs

     Writing output data file Prototype-La-hP12-MgZn2.save

     Self-consistent Calculation

[...]

     iteration #  9     ecut=    40.00 Ry     beta=0.70
     CG style diagonalization
     c_bands:  1 eigenvalues not converged
     c_bands:  1 eigenvalues not converged
     c_bands:  1 eigenvalues not converged
     c_bands:  1 eigenvalues not converged
     c_bands:  1 eigenvalues not converged
     c_bands:  1 eigenvalues not converged
     ethr =  3.96E-06,  avg # of iterations =  3.9

[...]

     total energy              =   -2309.97403218 Ry
     Harris-Foulkes estimate   =   -2309.97408877 Ry
     estimated scf accuracy    <       0.00013900 Ry

     iteration # 11     ecut=    40.00 Ry     beta=0.70
     CG style diagonalization
     ethr =  6.56E-08,  avg # of iterations =  3.5

     End of self-consistent calculation

[...]

          k = 0.0000 0.3881-0.3133 (  5684 PWs)   bands (ev):

[...]

          k =-0.5042 0.0970-0.3133 (  5672 PWs)   bands (ev):

   -39.6854 -39.6854 -39.5468 -39.5468 -39.3763 -39.3763 -39.3206 -39.3206
   -33.0455 -33.0455 -33.0238 -33.0237 -12.1270 -12.1270 -11.5305 -11.5305
   -11.0634 -11.0634 -10.9964 -10.9963 -10.8646 -10.8646 -10.6930 -10.6929
   -10.5307 -10.5307 -10.2461 -10.2461 -10.0397 -10.0397  -9.9395  -9.9395
    -9.8307  -9.8307  -9.7917  -9.7917  -5.9413  -5.9412  -5.9282  -5.9282
    -5.8508  -5.8507  -5.7517  -5.7516  -5.6682  -5.6681  -5.6603  -5.6602
    20.0886  20.0886  20.9334  20.9334  21.4451  21.4451  21.5651  21.5651
    21.8241  21.8241  22.0007  22.0007  22.4161  22.4161  22.5875  22.5875
    22.7860  22.7860  23.1706  23.1706  23.4812  23.4812  23.9975  23.9975
    24.1400  24.1401  24.5064  24.5064  24.7151  24.7151  25.1944  25.1944
    25.6078  25.6078  25.8175  25.8175  26.1988  26.1988  26.3991  26.3991
    26.8449  26.8449  27.2786  27.2786  27.4774  27.4774  27.6962  27.6962
    28.0938  28.0938  28.3993  28.3993  28.6202  28.6202  28.8738  28.8738
    29.2532  29.2532  29.5526  29.5526  29.9452  29.9452  30.3133  30.3133
    31.6803  31.6803  33.6861  33.6861  35.5265  35.5265  36.6630  36.6631
    37.4568  37.4568  37.9527  37.9528  39.6786  39.6789  39.8092

     the Fermi energy is    29.7870 ev

!    total energy              =   -2309.97403633 Ry
     Harris-Foulkes estimate   =   -2309.97405971 Ry
     estimated scf accuracy    <       0.00002555 Ry

     The total energy is the sum of the following terms:

     one-electron contribution =    -102.74611583 Ry
     hartree contribution      =     256.00386995 Ry
     xc contribution           =    -236.80163919 Ry
     ewald contribution        =   -2225.78697950 Ry
     smearing contrib. (-TS)   =      -0.64317177 Ry

     convergence has been achieved in  11 iterations

     Forces acting on atoms (Ry/au):

     atom    1 type  1   force =     0.00000000    0.00000000   -0.00616872
     atom    2 type  1   force =     0.00000000    0.00000000   -0.00616872
     atom    3 type  1   force =     0.00000000    0.00000000    0.00616872
     atom    4 type  1   force =     0.00000000    0.00000000    0.00616872
     atom    5 type  2   force =     0.00000000    0.00000000    0.00000000
     atom    6 type  2   force =     0.00000000    0.00000000    0.00000000
     atom    7 type  2   force =     0.00000000    0.07997841    0.00000000
     atom    8 type  2   force =    -0.06926334    0.03998921    0.00000000
     atom    9 type  2   force =     0.06926334    0.03998921    0.00000000
     atom   10 type  2   force =    -0.06926334   -0.03998921    0.00000000
     atom   11 type  2   force =     0.06926334   -0.03998921    0.00000000
     atom   12 type  2   force =     0.00000000   -0.07997841    0.00000000

     Total force =     0.196294     Total SCF correction =     0.000000

     entering subroutine stress ...

          total   stress  (Ry/bohr**3)                   (kbar)     P=  690.12
   0.00461582   0.00000000   0.00000000        679.01      0.00      0.00
   0.00000000   0.00461582   0.00000000          0.00    679.01      0.00
   0.00000000   0.00000000   0.00484229          0.00      0.00    712.33

     Writing output data file Prototype-La-hP12-MgZn2.save

     General routines

     Parallel routines

   This run was terminated on:  21:43:38  22Mar2018

   JOB DONE.