     Program PWSCF v.5.0.2 starts on 21Mar2018 at 22:59: 6

     Current dimensions of program PWSCF are:
     Max number of different atomic species (ntypx) = 10
     Max number of k-points (npk) =  40000
     Max angular momentum in pseudopotentials (lmaxx) =  3
     Waiting for input...
     Reading input from standard input

     bravais-lattice index     =            0
     lattice parameter (alat)  =       6.3076  a.u.
     unit-cell volume          =     177.4528 (a.u.)^3
     number of atoms/cell      =            1
     number of atomic types    =            1
     number of electrons       =        12.00
     number of Kohn-Sham states=           10
     kinetic-energy cutoff     =      40.0000  Ry
     charge density cutoff     =     160.0000  Ry
     convergence threshold     =      1.0E-04
     mixing beta               =       0.7000
     number of iterations used =            8  plain     mixing
     Exchange-correlation      = SLA-PZ-NOGX-NOGC ( 1 1 0 0 0)
     EXX-fraction              =        0.00
     nstep                     =           50

     celldm(1)=   6.307626  celldm(2)=   0.000000  celldm(3)=   0.000000
     celldm(4)=   0.000000  celldm(5)=   0.000000  celldm(6)=   0.000000

     crystal axes: (cart. coord. in units of alat)
               a(1) = (   1.000000   0.000000   0.000000 )
               a(2) = (   0.500000   0.866025   0.000000 )
               a(3) = (   0.500000   0.288675   0.816497 )

     reciprocal axes: (cart. coord. in units 2 pi/alat)
               b(1) = (  1.000000 -0.577350 -0.408248 )
               b(2) = (  0.000000  1.154701 -0.408248 )
               b(3) = (  0.000000  0.000000  1.224745 )

     PseudoPot. # 1 for Ce read from file:
     /home/cwx6513/pp.La/Ce.UPF
     MD5 check sum: 44451aa79a44a00cf2bc029dc19922f6
     Pseudo is Norm-conserving, Zval = 12.0
     Generated in analytical, separable form
     Using radial grid of 1255 points,  6 beta functions with:
                l(1) =   0
                l(2) =   0
                l(3) =   1
                l(4) =   1
                l(5) =   2
                l(6) =   3

     atomic species   valence    mass     pseudopotential
        Ce            12.00   140.11600     Ce( 1.00)

     12 Sym. Ops., with inversion, found

   Cartesian axes

     site n.     atom                  positions (alat units)
         1           Ce  tau(   1) = (   0.0000000   0.0000000   0.0000000  )

     number of k points=   859  gaussian smearing, width (Ry)=  0.1000

     Number of k-points >= 100: set verbosity='high' to print them.

     Largest allocated arrays     est. size (Mb)     dimensions
     Largest temporary arrays     est. size (Mb)     dimensions

     Initial potential from superposition of free atoms

     Starting from uniform charge
     Starting wfc are    0 randomized atomic wfcs

     Self-consistent Calculation

     iteration #  1     ecut=    40.00 Ry     beta=0.70
     CG style diagonalization
     ethr =  1.00E-02,  avg # of iterations =  8.0

     total energy              =     -73.82541203 Ry
     Harris-Foulkes estimate   =     -83.39387844 Ry
     estimated scf accuracy    <      16.00874718 Ry

[...]

     iteration #  4     ecut=    40.00 Ry     beta=0.70
     CG style diagonalization
     c_bands:  1 eigenvalues not converged
     c_bands:  1 eigenvalues not converged
     ethr =  2.10E-05,  avg # of iterations =  5.7

     End of self-consistent calculation

     Number of k-points >= 100: set verbosity='high' to print the bands.

     the Fermi energy is    16.8864 ev

!    total energy              =     -77.25078366 Ry
     Harris-Foulkes estimate   =     -77.25078552 Ry
     estimated scf accuracy    <       0.00001271 Ry

     The total energy is the sum of the following terms:

     one-electron contribution =       0.39705654 Ry
     hartree contribution      =       6.54604528 Ry
     xc contribution           =     -10.09790126 Ry
     ewald contribution        =     -74.01296978 Ry
     smearing contrib. (-TS)   =      -0.08301443 Ry

     convergence has been achieved in   4 iterations

     Forces acting on atoms (Ry/au):

     atom    1 type  1   force =     0.00000000    0.00000000    0.00000000

     Total force =     0.000000     Total SCF correction =     0.000000

     entering subroutine stress ...

          total   stress  (Ry/bohr**3)                   (kbar)     P=   66.08
   0.00044186   0.00000000   0.00000000         65.00      0.00      0.00
   0.00000000   0.00044186   0.00000000          0.00     65.00      0.00
   0.00000000   0.00000000   0.00046398          0.00      0.00     68.25

     BFGS Geometry Optimization

     number of scf cycles    =   1
     number of bfgs steps    =   0

     enthalpy new            =     -77.2507836629 Ry

     new trust radius        =       0.0309038582 bohr
     new conv_thr            =       0.0001000000 Ry

     new unit-cell volume =    183.49900 a.u.^3 (    27.19175 Ang^3 )

CELL_PARAMETERS (alat=  6.30762607)
   1.011046482   0.000000000   0.000000000
   0.505523241   0.875591938   0.000000000
   0.505523241   0.291863979   0.825967577

ATOMIC_POSITIONS (crystal)
Ce       0.000000000   0.000000000   0.000000000

     Writing output data file Element-Ce.q.save
     NEW-OLD atomic charge density approx. for the potential
     NEW k-points: (use verbosity='high' to print them)

[...]

     enthalpy old            =     -77.2507836629 Ry
     enthalpy new            =     -77.2528458498 Ry

     CASE: enthalpy_new < enthalpy_old

     small trust_radius: resetting bfgs history

[...]

     number of scf cycles    =   3
     number of bfgs steps    =   2

     enthalpy old            =     -77.2528458498 Ry
     enthalpy new            =     -77.2532937526 Ry

     CASE: enthalpy_new < enthalpy_old

     Message from routine bfgs:
     history already reset at previous step: stopping
     small trust_radius: resetting bfgs history

     new trust radius        =       0.0084530285 bohr
     new conv_thr            =       0.0000010000 Ry

     new unit-cell volume =    187.86076 a.u.^3 (    27.83809 Ang^3 )

[...]

ATOMIC_POSITIONS (crystal)
Ce       0.000000000   0.000000000   0.000000000

     Writing output data file Element-Ce.q.save
     NEW-OLD atomic charge density approx. for the potential
     NEW k-points: (use verbosity='high' to print them)

[...]

     The maximum number of steps has been reached.

     End of BFGS Geometry Optimization
Begin final coordinates
     new unit-cell volume =    187.86076 a.u.^3 (    27.83809 Ang^3 )

CELL_PARAMETERS (alat=  6.30762607)
   1.019011816   0.000000000   0.000000000
   0.509505908   0.882490119   0.000000000
   0.509505908   0.294163373   0.832432781

ATOMIC_POSITIONS (crystal)
Ce       0.000000000   0.000000000   0.000000000
End final coordinates

     A final scf calculation at the relaxed structure.
     The G-vectors are recalculated for the final unit cell
     Results may differ from those at the preceding step.

     bravais-lattice index     =            0
     lattice parameter (alat)  =       6.3076  a.u.
     unit-cell volume          =     187.8608 (a.u.)^3
     number of atoms/cell      =            1
     number of atomic types    =            1
     number of electrons       =        12.00
     number of Kohn-Sham states=           10
     kinetic-energy cutoff     =      40.0000  Ry
     charge density cutoff     =     160.0000  Ry
     convergence threshold     =      1.0E-06
     mixing beta               =       0.7000
     number of iterations used =            8  plain     mixing
     Exchange-correlation      = SLA-PZ-NOGX-NOGC ( 1 1 0 0 0)
     EXX-fraction              =        0.00

     celldm(1)=   6.307626  celldm(2)=   0.000000  celldm(3)=   0.000000
     celldm(4)=   0.000000  celldm(5)=   0.000000  celldm(6)=   0.000000

     crystal axes: (cart. coord. in units of alat)
               a(1) = (   1.019012   0.000000   0.000000 )
               a(2) = (   0.509506   0.882490   0.000000 )
               a(3) = (   0.509506   0.294163   0.832433 )

     reciprocal axes: (cart. coord. in units 2 pi/alat)
               b(1) = (  0.981343 -0.566579 -0.400433 )
               b(2) = (  0.000000  1.133157 -0.400433 )
               b(3) = (  0.000000  0.000000  1.201298 )

     PseudoPot. # 1 for Ce read from file:
     /home/cwx6513/pp.La/Ce.UPF
     MD5 check sum: 44451aa79a44a00cf2bc029dc19922f6
     Pseudo is Norm-conserving, Zval = 12.0
     Generated in analytical, separable form
     Using radial grid of 1255 points,  6 beta functions with:
                l(1) =   0
                l(2) =   0
                l(3) =   1
                l(4) =   1
                l(5) =   2
                l(6) =   3

     atomic species   valence    mass     pseudopotential
        Ce            12.00   140.11600     Ce( 1.00)

     12 Sym. Ops., with inversion, found

   Cartesian axes

     site n.     atom                  positions (alat units)
         1           Ce  tau(   1) = (   0.0000000   0.0000000   0.0000000  )

     number of k points=   859  gaussian smearing, width (Ry)=  0.1000

     Number of k-points >= 100: set verbosity='high' to print them.

     Largest allocated arrays     est. size (Mb)     dimensions
     Largest temporary arrays     est. size (Mb)     dimensions

     Initial potential from superposition of free atoms

     Starting from uniform charge
     Starting wfc are    0 randomized atomic wfcs

     Writing output data file Element-Ce.q.save

     Self-consistent Calculation

[...]

     iteration #  3     ecut=    40.00 Ry     beta=0.70
     CG style diagonalization
     ethr =  1.67E-03,  avg # of iterations =  3.9

[...]

     total energy              =     -77.25640395 Ry
     Harris-Foulkes estimate   =     -77.25640569 Ry
     estimated scf accuracy    <       0.00001525 Ry

     iteration #  5     ecut=    40.00 Ry     beta=0.70
     CG style diagonalization
     c_bands:  1 eigenvalues not converged
     c_bands:  1 eigenvalues not converged
     c_bands:  1 eigenvalues not converged
     c_bands:  1 eigenvalues not converged
     c_bands:  1 eigenvalues not converged
     c_bands:  1 eigenvalues not converged
     ethr =  1.27E-07,  avg # of iterations =  5.6

     End of self-consistent calculation

     Number of k-points >= 100: set verbosity='high' to print the bands.

     the Fermi energy is    15.8158 ev

!    total energy              =     -77.25645273 Ry
     Harris-Foulkes estimate   =     -77.25645280 Ry
     estimated scf accuracy    <       0.00000052 Ry

     The total energy is the sum of the following terms:

     one-electron contribution =      -1.50127653 Ry
     hartree contribution      =       6.99181889 Ry
     xc contribution           =     -10.03854097 Ry
     ewald contribution        =     -72.62008197 Ry
     smearing contrib. (-TS)   =      -0.08837214 Ry

     convergence has been achieved in   5 iterations

     Forces acting on atoms (Ry/au):

     atom    1 type  1   force =     0.00000000    0.00000000    0.00000000

     Total force =     0.000000     Total SCF correction =     0.000000

     entering subroutine stress ...

          total   stress  (Ry/bohr**3)                   (kbar)     P=   20.85
   0.00014288   0.00000000   0.00000000         21.02      0.00      0.00
   0.00000000   0.00014288   0.00000000          0.00     21.02      0.00
   0.00000000   0.00000000   0.00013935          0.00      0.00     20.50

     Writing output data file Element-Ce.q.save

     General routines

     Parallel routines

   This run was terminated on:  23: 3:22  21Mar2018

   JOB DONE.