     Program PWSCF v.5.0.2 starts on 23Mar2018 at  2:21: 9

     Current dimensions of program PWSCF are:
     Max number of different atomic species (ntypx) = 10
     Max number of k-points (npk) =  40000
     Max angular momentum in pseudopotentials (lmaxx) =  3
     Waiting for input...
     Reading input from standard input

     Subspace diagonalization in iterative solution of the eigenvalue problem:
     a serial algorithm will be used

     bravais-lattice index     =            0
     lattice parameter (alat)  =       9.9235  a.u.
     unit-cell volume          =    1361.0366 (a.u.)^3
     number of atoms/cell      =           12
     number of atomic types    =            2
     number of electrons       =       264.00
     number of Kohn-Sham states=          158
     kinetic-energy cutoff     =      40.0000  Ry
     charge density cutoff     =     160.0000  Ry
     convergence threshold     =      1.0E-04
     mixing beta               =       0.7000
     number of iterations used =            8  plain     mixing
     Exchange-correlation      = SLA-PZ-NOGX-NOGC ( 1 1 0 0 0)
     EXX-fraction              =        0.00
     nstep                     =           50

     celldm(1)=   9.923489  celldm(2)=   0.000000  celldm(3)=   0.000000
     celldm(4)=   0.000000  celldm(5)=   0.000000  celldm(6)=   0.000000

     crystal axes: (cart. coord. in units of alat)
               a(1) = (   1.000000   0.000000   0.000000 )
               a(2) = (  -0.500000   0.866025   0.000000 )
               a(3) = (   0.000000   0.000000   1.608222 )

     reciprocal axes: (cart. coord. in units 2 pi/alat)
               b(1) = (  1.000000  0.577350  0.000000 )
               b(2) = (  0.000000  1.154701  0.000000 )
               b(3) = (  0.000000  0.000000  0.621805 )

     PseudoPot. # 1 for Dy read from file:
     /home/cwx6513/pp.La/Dy.UPF
     MD5 check sum: 9597327bec62616a94a14d07f3fd9936
     Pseudo is Norm-conserving, Zval = 20.0
     Generated in analytical, separable form
     Using radial grid of 1265 points,  6 beta functions with:
                l(1) =   0
                l(2) =   0
                l(3) =   1
                l(4) =   1
                l(5) =   2
                l(6) =   3

     PseudoPot. # 2 for Tm read from file:
     /home/cwx6513/pp.La/Tm.UPF
     MD5 check sum: 245516e0878b5372ceeb9443ded2c4e1
     Pseudo is Norm-conserving, Zval = 23.0
     Generated in analytical, separable form
     Using radial grid of 1269 points,  6 beta functions with:
                l(1) =   0
                l(2) =   0
                l(3) =   1
                l(4) =   1
                l(5) =   2
                l(6) =   3

     atomic species   valence    mass     pseudopotential
        Mg            20.00    24.30500     Dy( 1.00)
        Zn            23.00    65.39000     Tm( 1.00)

     24 Sym. Ops., with inversion, found (12 have fractional translation)

   Cartesian axes

     site n.     atom                  positions (alat units)
         1           Mg  tau(   1) = (  -0.0000005   0.5773506   0.1003820  )
         2           Mg  tau(   2) = (   0.5000005   0.2886748   0.9044931  )
         3           Mg  tau(   3) = (   0.5000005   0.2886748   1.5078402  )
         4           Mg  tau(   4) = (  -0.0000005   0.5773506   0.7037291  )
         5           Zn  tau(   5) = (   0.0000000   0.0000000   0.0000000  )
         6           Zn  tau(   6) = (   0.0000000   0.0000000   0.8041111  )
         7           Zn  tau(   7) = (   0.0000000   0.2950739   1.2061667  )
         8           Zn  tau(   8) = (   0.7444585   0.1475370   0.4020556  )
         9           Zn  tau(   9) = (   0.2555415   0.1475370   0.4020556  )
        10           Zn  tau(  10) = (   0.2444585   0.7184884   1.2061667  )
        11           Zn  tau(  11) = (  -0.2444585   0.7184884   1.2061667  )
        12           Zn  tau(  12) = (   0.5000000   0.5709515   0.4020556  )

     number of k points=    12  gaussian smearing, width (Ry)=  0.1000
                       cart. coord. in units 2pi/alat
        k(    1) = (   0.0000000   0.0000000   0.0000000), wk =   0.0833333
        k(    2) = (   0.0000000   0.0000000   0.1554512), wk =   0.1666667
        k(    3) = (   0.0000000   0.0000000  -0.3109023), wk =   0.0833333
        k(    4) = (   0.0000000   0.3849002   0.0000000), wk =   0.1666667
        k(    5) = (   0.0000000   0.3849002   0.1554512), wk =   0.3333333
        k(    6) = (   0.0000000   0.3849002  -0.3109023), wk =   0.1666667
        k(    7) = (  -0.5000000  -0.2886751   0.0000000), wk =   0.0833333
        k(    8) = (  -0.5000000  -0.2886751   0.1554512), wk =   0.1666667
        k(    9) = (  -0.5000000  -0.2886751  -0.3109023), wk =   0.0833333
        k(   10) = (  -0.5000000   0.0962250   0.0000000), wk =   0.1666667
        k(   11) = (  -0.5000000   0.0962250   0.1554512), wk =   0.3333333
        k(   12) = (  -0.5000000   0.0962250  -0.3109023), wk =   0.1666667

     Largest allocated arrays     est. size (Mb)     dimensions
     Largest temporary arrays     est. size (Mb)     dimensions

     Initial potential from superposition of free atoms

     Starting from uniform charge
     Starting wfc are    0 randomized atomic wfcs

     Self-consistent Calculation

     iteration #  1     ecut=    40.00 Ry     beta=0.70
     CG style diagonalization
     ethr =  1.00E-02,  avg # of iterations = 18.3

     total energy              =   -3038.36704454 Ry
     Harris-Foulkes estimate   =   -5098.76118332 Ry
     estimated scf accuracy    <    2502.23053269 Ry

[...]

     iteration #  3     ecut=    40.00 Ry     beta=0.70
     CG style diagonalization
     c_bands:  4 eigenvalues not converged
     c_bands:  3 eigenvalues not converged
     c_bands:  4 eigenvalues not converged
     c_bands:  4 eigenvalues not converged
     c_bands:  1 eigenvalues not converged
     c_bands:  3 eigenvalues not converged
     c_bands:  1 eigenvalues not converged
     ethr =  1.00E-02,  avg # of iterations = 13.9

[...]

     End of self-consistent calculation

          k = 0.0000 0.0000 0.0000 (  5769 PWs)   bands (ev):

   -77.3623 -77.3621 -77.3427 -77.3128 -77.3128 -77.2968 -77.2968 -77.2666
   -48.2671 -48.2665 -48.2557 -48.2539 -36.8150 -36.6823 -36.5088 -36.2871
   -36.2871 -36.2759 -36.2627 -36.2627 -36.1971 -36.1970 -36.0952 -36.0395
   -36.0395 -36.0347 -36.0347 -35.9374 -35.9374 -35.9298 -35.8981 -35.8981
   -35.8768 -35.8768 -35.8514 -35.8363 -15.3151 -15.3063 -15.2957 -15.2957
   -15.2762 -15.2762 -15.2308 -15.2084 -15.2002 -15.2002 -15.1979 -15.1979
     9.1323   9.5607   9.8520  10.4974  10.4974  10.6173  10.6173  10.8469
    10.8470  10.9619  11.1875  11.1875  11.7430  12.0349  12.1005  12.1005
    12.1997  12.1998  12.5900  12.7923  12.7924  13.0826  13.0827  13.1626
    13.2599  13.2599  13.3466  13.3544  13.3545  13.3651  13.4666  13.4667
    13.5719  13.5719  14.1159  14.1159  14.3846  14.3846  14.7799  14.7824
    16.3709  18.1189  20.2984  22.9498  23.5000  23.5000  23.8315  23.9912
    23.9912  24.2215  24.2215  24.3084  24.3084  24.3771  24.8380  24.8381
    25.2884  25.2885  25.9706  26.0814  26.3108  26.3108  26.3123  26.3376
    26.3376  28.5734  28.5734  28.8964  28.8964  29.0730  29.8231  29.8231
    30.5288  30.7529  31.0115  31.0115  31.5923  31.5924  31.8138  32.2915
    33.0172  34.0304  34.0305  35.6030  36.3464  36.3465  36.6529  36.7415
    36.7416  37.2022  37.6535  37.8634  37.8635  38.2717  38.2717  38.3212
    38.3212  38.3792  39.0717  39.6770  39.7399  39.7984  39.7984  40.1279
    41.0708  41.2137  41.3911  41.3912  41.7847  42.2874

[...]

          k =-0.5000-0.2887 0.0000 (  5800 PWs)   bands (ev):

[...]

     the Fermi energy is    35.8797 ev

!    total energy              =   -3975.43813034 Ry
     Harris-Foulkes estimate   =   -3975.43818444 Ry
     estimated scf accuracy    <       0.00006682 Ry

     The total energy is the sum of the following terms:

     one-electron contribution =    -853.61596068 Ry
     hartree contribution      =     638.11210246 Ry
     xc contribution           =    -340.59275836 Ry
     ewald contribution        =   -3418.94472799 Ry
     smearing contrib. (-TS)   =      -0.39678578 Ry

     convergence has been achieved in  10 iterations

     Forces acting on atoms (Ry/au):

     atom    1 type  1   force =     0.00000000    0.00000000    0.02172577
     atom    2 type  1   force =     0.00000000    0.00000000    0.02172577
     atom    3 type  1   force =     0.00000000    0.00000000   -0.02172577
     atom    4 type  1   force =     0.00000000    0.00000000   -0.02172577
     atom    5 type  2   force =     0.00000000    0.00000000    0.00000000
     atom    6 type  2   force =     0.00000000    0.00000000    0.00000000
     atom    7 type  2   force =     0.00000000    0.19953151    0.00000000
     atom    8 type  2   force =    -0.17279936    0.09976576    0.00000000
     atom    9 type  2   force =     0.17279936    0.09976576    0.00000000
     atom   10 type  2   force =    -0.17279936   -0.09976576    0.00000000
     atom   11 type  2   force =     0.17279936   -0.09976576    0.00000000
     atom   12 type  2   force =     0.00000000   -0.19953151    0.00000000

     Total force =     0.490678     Total SCF correction =     0.000000

     entering subroutine stress ...

          total   stress  (Ry/bohr**3)                   (kbar)     P= 1310.14
   0.00894107   0.00000000   0.00000000       1315.28      0.00      0.00
   0.00000000   0.00894107   0.00000000          0.00   1315.28      0.00
   0.00000000   0.00000000   0.00883630          0.00      0.00   1299.86

     BFGS Geometry Optimization

     number of scf cycles    =   1
     number of bfgs steps    =   0

     enthalpy new            =   -3975.4381303429 Ry

     new trust radius        =       0.5000000000 bohr
     new conv_thr            =       0.0001000000 Ry

     new unit-cell volume =   1655.66975 a.u.^3 (   245.34494 Ang^3 )

CELL_PARAMETERS (alat=  9.92348860)
   1.067764947   0.000000000   0.000000000
  -0.533882474   0.924711570   0.000000000
   0.000000000   0.000000000   1.715926328

ATOMIC_POSITIONS (crystal)
Mg       0.333333000   0.666667000   0.062830706
Mg       0.666667000   0.333333000   0.562830706
Mg       0.666667000   0.333333000   0.937169294
Mg       0.333333000   0.666667000   0.437169294
Zn       0.000000000   0.000000000   0.000000000
Zn       0.000000000   0.000000000   0.500000000
Zn       0.173880349   0.347760697   0.750000000
Zn       0.826119651   0.173880349   0.250000000
Zn       0.347760697   0.173880349   0.250000000
Zn       0.652239303   0.826119651   0.750000000
Zn       0.173880349   0.826119651   0.750000000
Zn       0.826119651   0.652239303   0.250000000

     Writing output data file Prototype-La-hP12-MgZn2.save
     NEW-OLD atomic charge density approx. for the potential
     NEW k-points:
        k(    1) = (   0.0000000   0.0000000   0.0000000), wk =   0.0833333
        k(    2) = (   0.0000000   0.0000000   0.1456939), wk =   0.1666667
        k(    3) = (   0.0000000   0.0000000  -0.2913878), wk =   0.0833333
        k(    4) = (   0.0000000   0.3604728   0.0000000), wk =   0.1666667
        k(    5) = (   0.0000000   0.3604728   0.1456939), wk =   0.3333333
        k(    6) = (   0.0000000   0.3604728  -0.2913878), wk =   0.1666667
        k(    7) = (  -0.4682679  -0.2703546   0.0000000), wk =   0.0833333
        k(    8) = (  -0.4682679  -0.2703546   0.1456939), wk =   0.1666667
        k(    9) = (  -0.4682679  -0.2703546  -0.2913878), wk =   0.0833333
        k(   10) = (  -0.4682679   0.0901182   0.0000000), wk =   0.1666667
        k(   11) = (  -0.4682679   0.0901182   0.1456939), wk =   0.3333333
        k(   12) = (  -0.4682679   0.0901182  -0.2913878), wk =   0.1666667

[...]

     enthalpy old            =   -3975.4381303429 Ry
     enthalpy new            =   -3976.2981208041 Ry

     CASE: enthalpy_new < enthalpy_old

     small trust_radius: resetting bfgs history

     new trust radius        =       0.4578098609 bohr
     new conv_thr            =       0.0000454776 Ry

[...]

     number of scf cycles    =   3
     number of bfgs steps    =   2

     enthalpy old            =   -3976.2981208041 Ry
     enthalpy new            =   -3975.9427684847 Ry

     CASE: enthalpy_new > enthalpy_old

     new trust radius        =       0.1291164393 bohr

     trust_radius < trust_radius_min

     resetting bfgs history

     Message from routine bfgs:
     history already reset at previous step: stopping
     new conv_thr            =       0.0000454776 Ry

     new unit-cell volume =   1418.09334 a.u.^3 (   210.13975 Ang^3 )

[...]

ATOMIC_POSITIONS (crystal)
Mg       0.333333000   0.666667000   0.063739661
Mg       0.666667000   0.333333000   0.563739661
Mg       0.666667000   0.333333000   0.936260339
Mg       0.333333000   0.666667000   0.436260339
Zn       0.000000000   0.000000000   0.000000000
Zn       0.000000000   0.000000000   0.500000000
Zn       0.171170098   0.342340196   0.750000000
Zn       0.828829902   0.171170098   0.250000000
Zn       0.342340196   0.171170098   0.250000000
Zn       0.657659804   0.828829902   0.750000000
Zn       0.171170098   0.828829902   0.750000000
Zn       0.828829902   0.657659804   0.250000000

     Writing output data file Prototype-La-hP12-MgZn2.save
     NEW-OLD atomic charge density approx. for the potential
     NEW k-points:
        k(    1) = (   0.0000000   0.0000000   0.0000000), wk =   0.0833333
        k(    2) = (   0.0000000   0.0000000   0.1546756), wk =   0.1666667
        k(    3) = (   0.0000000   0.0000000  -0.3093511), wk =   0.0833333
        k(    4) = (   0.0000000   0.3780217   0.0000000), wk =   0.1666667
        k(    5) = (   0.0000000   0.3780217   0.1546756), wk =   0.3333333
        k(    6) = (   0.0000000   0.3780217  -0.3093511), wk =   0.1666667
        k(    7) = (  -0.4910646  -0.2835163   0.0000000), wk =   0.0833333
        k(    8) = (  -0.4910646  -0.2835163   0.1546756), wk =   0.1666667
        k(    9) = (  -0.4910646  -0.2835163  -0.3093511), wk =   0.0833333
        k(   10) = (  -0.4910646   0.0945054   0.0000000), wk =   0.1666667
        k(   11) = (  -0.4910646   0.0945054   0.1546756), wk =   0.3333333
        k(   12) = (  -0.4910646   0.0945054  -0.3093511), wk =   0.1666667

[...]

     The maximum number of steps has been reached.

     End of BFGS Geometry Optimization
Begin final coordinates
     new unit-cell volume =   1418.09334 a.u.^3 (   210.13975 Ang^3 )

CELL_PARAMETERS (alat=  9.92348860)
   1.018196017   0.000000000   0.000000000
  -0.509098009   0.881783617   0.000000000
   0.000000000   0.000000000   1.616286232

ATOMIC_POSITIONS (crystal)
Mg       0.333333000   0.666667000   0.063739661
Mg       0.666667000   0.333333000   0.563739661
Mg       0.666667000   0.333333000   0.936260339
Mg       0.333333000   0.666667000   0.436260339
Zn       0.000000000   0.000000000   0.000000000
Zn       0.000000000   0.000000000   0.500000000
Zn       0.171170098   0.342340196   0.750000000
Zn       0.828829902   0.171170098   0.250000000
Zn       0.342340196   0.171170098   0.250000000
Zn       0.657659804   0.828829902   0.750000000
Zn       0.171170098   0.828829902   0.750000000
Zn       0.828829902   0.657659804   0.250000000
End final coordinates

     A final scf calculation at the relaxed structure.
     The G-vectors are recalculated for the final unit cell
     Results may differ from those at the preceding step.

     bravais-lattice index     =            0
     lattice parameter (alat)  =       9.9235  a.u.
     unit-cell volume          =    1418.0933 (a.u.)^3
     number of atoms/cell      =           12
     number of atomic types    =            2
     number of electrons       =       264.00
     number of Kohn-Sham states=          158
     kinetic-energy cutoff     =      40.0000  Ry
     charge density cutoff     =     160.0000  Ry
     convergence threshold     =      4.5E-05
     mixing beta               =       0.7000
     number of iterations used =            8  plain     mixing
     Exchange-correlation      = SLA-PZ-NOGX-NOGC ( 1 1 0 0 0)
     EXX-fraction              =        0.00

     celldm(1)=   9.923489  celldm(2)=   0.000000  celldm(3)=   0.000000
     celldm(4)=   0.000000  celldm(5)=   0.000000  celldm(6)=   0.000000

     crystal axes: (cart. coord. in units of alat)
               a(1) = (   1.018196   0.000000   0.000000 )
               a(2) = (  -0.509098   0.881784   0.000000 )
               a(3) = (   0.000000   0.000000   1.616286 )

     reciprocal axes: (cart. coord. in units 2 pi/alat)
               b(1) = (  0.982129  0.567033  0.000000 )
               b(2) = (  0.000000  1.134065  0.000000 )
               b(3) = (  0.000000  0.000000  0.618702 )

     PseudoPot. # 1 for Dy read from file:
     /home/cwx6513/pp.La/Dy.UPF
     MD5 check sum: 9597327bec62616a94a14d07f3fd9936
     Pseudo is Norm-conserving, Zval = 20.0
     Generated in analytical, separable form
     Using radial grid of 1265 points,  6 beta functions with:
                l(1) =   0
                l(2) =   0
                l(3) =   1
                l(4) =   1
                l(5) =   2
                l(6) =   3

     PseudoPot. # 2 for Tm read from file:
     /home/cwx6513/pp.La/Tm.UPF
     MD5 check sum: 245516e0878b5372ceeb9443ded2c4e1
     Pseudo is Norm-conserving, Zval = 23.0
     Generated in analytical, separable form
     Using radial grid of 1269 points,  6 beta functions with:
                l(1) =   0
                l(2) =   0
                l(3) =   1
                l(4) =   1
                l(5) =   2
                l(6) =   3

     atomic species   valence    mass     pseudopotential
        Mg            20.00    24.30500     Dy( 1.00)
        Zn            23.00    65.39000     Tm( 1.00)

     24 Sym. Ops., with inversion, found (12 have fractional translation)

   Cartesian axes

     site n.     atom                  positions (alat units)
         1           Mg  tau(   1) = (  -0.0000005   0.5878560   0.1030215  )
         2           Mg  tau(   2) = (   0.5090985   0.2939276   0.9111647  )
         3           Mg  tau(   3) = (   0.5090985   0.2939276   1.5132647  )
         4           Mg  tau(   4) = (  -0.0000005   0.5878560   0.7051216  )
         5           Zn  tau(   5) = (   0.0000000   0.0000000   0.0000000  )
         6           Zn  tau(   6) = (   0.0000000   0.0000000   0.8081431  )
         7           Zn  tau(   7) = (   0.0000000   0.3018700   1.2122147  )
         8           Zn  tau(   8) = (   0.7567689   0.1509350   0.4040716  )
         9           Zn  tau(   9) = (   0.2614271   0.1509350   0.4040716  )
        10           Zn  tau(  10) = (   0.2476709   0.7308486   1.2122147  )
        11           Zn  tau(  11) = (  -0.2476709   0.7308486   1.2122147  )
        12           Zn  tau(  12) = (   0.5090980   0.5799136   0.4040716  )

     number of k points=    12  gaussian smearing, width (Ry)=  0.1000
                       cart. coord. in units 2pi/alat
        k(    1) = (   0.0000000   0.0000000   0.0000000), wk =   0.0833333
        k(    2) = (   0.0000000   0.0000000   0.1546756), wk =   0.1666667
        k(    3) = (   0.0000000   0.0000000  -0.3093511), wk =   0.0833333
        k(    4) = (   0.0000000   0.3780217   0.0000000), wk =   0.1666667
        k(    5) = (   0.0000000   0.3780217   0.1546756), wk =   0.3333333
        k(    6) = (   0.0000000   0.3780217  -0.3093511), wk =   0.1666667
        k(    7) = (  -0.4910646  -0.2835163   0.0000000), wk =   0.0833333
        k(    8) = (  -0.4910646  -0.2835163   0.1546756), wk =   0.1666667
        k(    9) = (  -0.4910646  -0.2835163  -0.3093511), wk =   0.0833333
        k(   10) = (  -0.4910646   0.0945054   0.0000000), wk =   0.1666667
        k(   11) = (  -0.4910646   0.0945054   0.1546756), wk =   0.3333333
        k(   12) = (  -0.4910646   0.0945054  -0.3093511), wk =   0.1666667

     Largest allocated arrays     est. size (Mb)     dimensions
     Largest temporary arrays     est. size (Mb)     dimensions

     Initial potential from superposition of free atoms

     Starting from uniform charge
     Starting wfc are    0 randomized atomic wfcs

     Writing output data file Prototype-La-hP12-MgZn2.save

     Self-consistent Calculation

[...]

     iteration #  7     ecut=    40.00 Ry     beta=0.70
     CG style diagonalization
     c_bands:  1 eigenvalues not converged
     c_bands:  1 eigenvalues not converged
     ethr =  1.68E-04,  avg # of iterations =  4.2

[...]

     total energy              =   -3976.39345331 Ry
     Harris-Foulkes estimate   =   -3976.39368502 Ry
     estimated scf accuracy    <       0.00045941 Ry

     iteration # 10     ecut=    40.00 Ry     beta=0.70
     CG style diagonalization
     ethr =  1.74E-07,  avg # of iterations =  4.2

     End of self-consistent calculation

[...]

          k = 0.0000 0.3780-0.3094 (  6058 PWs)   bands (ev):

[...]

          k =-0.4911 0.0945-0.3094 (  6064 PWs)   bands (ev):

   -78.8001 -78.8001 -78.7488 -78.7487 -78.7346 -78.7346 -78.7263 -78.7263
   -49.6748 -49.6746 -49.6680 -49.6678 -37.9501 -37.9501 -37.8191 -37.8190
   -37.6428 -37.6428 -37.6003 -37.6003 -37.5587 -37.5587 -37.5307 -37.5307
   -37.4462 -37.4462 -37.3961 -37.3961 -37.3697 -37.3697 -37.3620 -37.3620
   -37.3455 -37.3455 -37.3216 -37.3216 -16.6979 -16.6977 -16.6726 -16.6726
   -16.6593 -16.6592 -16.6273 -16.6271 -16.6055 -16.6054 -16.5968 -16.5968
     9.0160   9.0160   9.4893   9.4893   9.6737   9.6737   9.7965   9.7965
     9.9704   9.9705  10.5255  10.5255  10.6092  10.6092  10.8018  10.8018
    10.9921  10.9921  11.0741  11.0741  11.2621  11.2621  11.3889  11.3889
    11.5420  11.5420  11.7446  11.7446  11.8272  11.8272  12.0045  12.0045
    12.0309  12.0309  12.0897  12.0897  12.2939  12.2939  12.7205  12.7205
    16.9970  16.9970  18.9352  18.9352  21.6360  21.6360  22.0665  22.0665
    23.2453  23.2453  23.4290  23.4291  23.5240  23.5240  23.7985  23.7985
    24.1932  24.1932  24.5307  24.5308  24.6641  24.6641  24.8686  24.8687
    25.2185  25.2186  25.4491  25.4491  27.4635  27.4635  27.8856  27.8856
    29.5311  29.5312  30.3188  30.3188  32.3791  32.3791  32.8321  32.8321
    33.3105  33.3105  34.3243  34.3243  34.9134  34.9134  35.3822  35.3823
    36.1093  36.1093  36.3145  36.3145  36.9765  36.9765  37.1388  37.1389
    37.8975  37.8976  38.0610  38.0610  38.3496  38.3496  39.3152  39.3152
    39.6774  39.6775  40.0019  40.0020  40.4017  40.4019

     the Fermi energy is    34.2646 ev

!    total energy              =   -3976.39364446 Ry
     Harris-Foulkes estimate   =   -3976.39367047 Ry
     estimated scf accuracy    <       0.00003130 Ry

     The total energy is the sum of the following terms:

     one-electron contribution =    -920.72897046 Ry
     hartree contribution      =     657.71818158 Ry
     xc contribution           =    -339.70521332 Ry
     ewald contribution        =   -3373.28828276 Ry
     smearing contrib. (-TS)   =      -0.38935950 Ry

     convergence has been achieved in  10 iterations

     Forces acting on atoms (Ry/au):

     atom    1 type  1   force =     0.00000000    0.00000000    0.00204161
     atom    2 type  1   force =     0.00000000    0.00000000    0.00204161
     atom    3 type  1   force =     0.00000000    0.00000000   -0.00204161
     atom    4 type  1   force =     0.00000000    0.00000000   -0.00204161
     atom    5 type  2   force =     0.00000000    0.00000000    0.00000000
     atom    6 type  2   force =     0.00000000    0.00000000    0.00000000
     atom    7 type  2   force =     0.00000000    0.12060572    0.00000000
     atom    8 type  2   force =    -0.10444762    0.06030286    0.00000000
     atom    9 type  2   force =     0.10444762    0.06030286    0.00000000
     atom   10 type  2   force =    -0.10444762   -0.06030286    0.00000000
     atom   11 type  2   force =     0.10444762   -0.06030286    0.00000000
     atom   12 type  2   force =     0.00000000   -0.12060572    0.00000000

     Total force =     0.295451     Total SCF correction =     0.000000

     entering subroutine stress ...

          total   stress  (Ry/bohr**3)                   (kbar)     P= 1014.09
   0.00689272   0.00000000   0.00000000       1013.95      0.00      0.00
   0.00000000   0.00689272   0.00000000          0.00   1013.95      0.00
   0.00000000   0.00000000   0.00689539          0.00      0.00   1014.35

     Writing output data file Prototype-La-hP12-MgZn2.save

     General routines

     Parallel routines

   This run was terminated on:   4: 3:10  23Mar2018

   JOB DONE.