     Program PWSCF v.5.0.2 starts on 23Mar2018 at  2:21: 9

     Current dimensions of program PWSCF are:
     Max number of different atomic species (ntypx) = 10
     Max number of k-points (npk) =  40000
     Max angular momentum in pseudopotentials (lmaxx) =  3
     Waiting for input...
     Reading input from standard input

     Subspace diagonalization in iterative solution of the eigenvalue problem:
     a serial algorithm will be used

     bravais-lattice index     =            0
     lattice parameter (alat)  =       8.5346  a.u.
     unit-cell volume          =     621.6493 (a.u.)^3
     number of atoms/cell      =            8
     number of atomic types    =            2
     number of electrons       =       166.00
     number of Kohn-Sham states=          100
     kinetic-energy cutoff     =      40.0000  Ry
     charge density cutoff     =     160.0000  Ry
     convergence threshold     =      1.0E-04
     mixing beta               =       0.7000
     number of iterations used =            8  plain     mixing
     Exchange-correlation      = SLA-PZ-NOGX-NOGC ( 1 1 0 0 0)
     EXX-fraction              =        0.00
     nstep                     =           50

     celldm(1)=   8.534573  celldm(2)=   0.000000  celldm(3)=   0.000000
     celldm(4)=   0.000000  celldm(5)=   0.000000  celldm(6)=   0.000000

     crystal axes: (cart. coord. in units of alat)
               a(1) = (   1.000000   0.000000   0.000000 )
               a(2) = (   0.000000   1.000000   0.000000 )
               a(3) = (   0.000000   0.000000   1.000000 )

     reciprocal axes: (cart. coord. in units 2 pi/alat)
               b(1) = (  1.000000  0.000000  0.000000 )
               b(2) = (  0.000000  1.000000  0.000000 )
               b(3) = (  0.000000  0.000000  1.000000 )

     PseudoPot. # 1 for Dy read from file:
     /home/cwx6513/pp.La/Dy.UPF
     MD5 check sum: 9597327bec62616a94a14d07f3fd9936
     Pseudo is Norm-conserving, Zval = 20.0
     Generated in analytical, separable form
     Using radial grid of 1265 points,  6 beta functions with:
                l(1) =   0
                l(2) =   0
                l(3) =   1
                l(4) =   1
                l(5) =   2
                l(6) =   3

     PseudoPot. # 2 for Tm read from file:
     /home/cwx6513/pp.La/Tm.UPF
     MD5 check sum: 245516e0878b5372ceeb9443ded2c4e1
     Pseudo is Norm-conserving, Zval = 23.0
     Generated in analytical, separable form
     Using radial grid of 1269 points,  6 beta functions with:
                l(1) =   0
                l(2) =   0
                l(3) =   1
                l(4) =   1
                l(5) =   2
                l(6) =   3

     atomic species   valence    mass     pseudopotential
        Cr            20.00    51.99610     Dy( 1.00)
        Si            23.00    28.08550     Tm( 1.00)

     48 Sym. Ops., with inversion, found (24 have fractional translation)

   Cartesian axes

     site n.     atom                  positions (alat units)
         1           Cr  tau(   1) = (   0.0000000   0.5000000   0.2500000  )
         2           Cr  tau(   2) = (   0.0000000   0.5000000   0.7500000  )
         3           Cr  tau(   3) = (   0.5000000   0.7500000   0.0000000  )
         4           Cr  tau(   4) = (   0.5000000   0.2500000   0.0000000  )
         5           Cr  tau(   5) = (   0.7500000   0.0000000   0.5000000  )
         6           Cr  tau(   6) = (   0.2500000   0.0000000   0.5000000  )
         7           Si  tau(   7) = (   0.5000000   0.5000000   0.5000000  )
         8           Si  tau(   8) = (   0.0000000   0.0000000   0.0000000  )

     number of k points=    48  gaussian smearing, width (Ry)=  0.1000
                       cart. coord. in units 2pi/alat
        k(    1) = (   0.0000000   0.0000000   0.0000000), wk =   0.0095238
        k(    2) = (   0.0000000   0.0000000   0.1428571), wk =   0.0190476
        k(    3) = (   0.0000000   0.0000000   0.2857143), wk =   0.0190476
        k(    4) = (   0.0000000   0.0000000   0.4285714), wk =   0.0190476
        k(    5) = (   0.0000000   0.1666667   0.0000000), wk =   0.0190476
        k(    6) = (   0.0000000   0.1666667   0.1428571), wk =   0.0380952
        k(    7) = (   0.0000000   0.1666667   0.2857143), wk =   0.0380952
        k(    8) = (   0.0000000   0.1666667   0.4285714), wk =   0.0380952
        k(    9) = (   0.0000000   0.3333333   0.0000000), wk =   0.0190476
        k(   10) = (   0.0000000   0.3333333   0.1428571), wk =   0.0380952
        k(   11) = (   0.0000000   0.3333333   0.2857143), wk =   0.0380952
        k(   12) = (   0.0000000   0.3333333   0.4285714), wk =   0.0380952
        k(   13) = (   0.0000000  -0.5000000   0.0000000), wk =   0.0095238
        k(   14) = (   0.0000000  -0.5000000   0.1428571), wk =   0.0190476
        k(   15) = (   0.0000000  -0.5000000   0.2857143), wk =   0.0190476
        k(   16) = (   0.0000000  -0.5000000   0.4285714), wk =   0.0190476
        k(   17) = (   0.2000000   0.0000000   0.0000000), wk =   0.0190476
        k(   18) = (   0.2000000   0.0000000   0.1428571), wk =   0.0380952
        k(   19) = (   0.2000000   0.0000000   0.2857143), wk =   0.0380952
        k(   20) = (   0.2000000   0.0000000   0.4285714), wk =   0.0380952
        k(   21) = (   0.2000000   0.1666667   0.0000000), wk =   0.0380952
        k(   22) = (   0.2000000   0.1666667   0.1428571), wk =   0.0761905
        k(   23) = (   0.2000000   0.1666667   0.2857143), wk =   0.0761905
        k(   24) = (   0.2000000   0.1666667   0.4285714), wk =   0.0761905
        k(   25) = (   0.2000000   0.3333333   0.0000000), wk =   0.0380952
        k(   26) = (   0.2000000   0.3333333   0.1428571), wk =   0.0761905
        k(   27) = (   0.2000000   0.3333333   0.2857143), wk =   0.0761905
        k(   28) = (   0.2000000   0.3333333   0.4285714), wk =   0.0761905
        k(   29) = (   0.2000000  -0.5000000   0.0000000), wk =   0.0190476
        k(   30) = (   0.2000000  -0.5000000   0.1428571), wk =   0.0380952
        k(   31) = (   0.2000000  -0.5000000   0.2857143), wk =   0.0380952
        k(   32) = (   0.2000000  -0.5000000   0.4285714), wk =   0.0380952
        k(   33) = (   0.4000000   0.0000000   0.0000000), wk =   0.0190476
        k(   34) = (   0.4000000   0.0000000   0.1428571), wk =   0.0380952
        k(   35) = (   0.4000000   0.0000000   0.2857143), wk =   0.0380952
        k(   36) = (   0.4000000   0.0000000   0.4285714), wk =   0.0380952
        k(   37) = (   0.4000000   0.1666667   0.0000000), wk =   0.0380952
        k(   38) = (   0.4000000   0.1666667   0.1428571), wk =   0.0761905
        k(   39) = (   0.4000000   0.1666667   0.2857143), wk =   0.0761905
        k(   40) = (   0.4000000   0.1666667   0.4285714), wk =   0.0761905
        k(   41) = (   0.4000000   0.3333333   0.0000000), wk =   0.0380952
        k(   42) = (   0.4000000   0.3333333   0.1428571), wk =   0.0761905
        k(   43) = (   0.4000000   0.3333333   0.2857143), wk =   0.0761905
        k(   44) = (   0.4000000   0.3333333   0.4285714), wk =   0.0761905
        k(   45) = (   0.4000000  -0.5000000   0.0000000), wk =   0.0190476
        k(   46) = (   0.4000000  -0.5000000   0.1428571), wk =   0.0380952
        k(   47) = (   0.4000000  -0.5000000   0.2857143), wk =   0.0380952
        k(   48) = (   0.4000000  -0.5000000   0.4285714), wk =   0.0380952

     Largest allocated arrays     est. size (Mb)     dimensions
     Largest temporary arrays     est. size (Mb)     dimensions

     Initial potential from superposition of free atoms

     Starting from uniform charge
     Starting wfc are    0 randomized atomic wfcs

     Self-consistent Calculation

     iteration #  1     ecut=    40.00 Ry     beta=0.70
     CG style diagonalization
     c_bands:  1 eigenvalues not converged
     c_bands:  1 eigenvalues not converged
     c_bands:  1 eigenvalues not converged
     ethr =  1.00E-02,  avg # of iterations = 11.2

     total energy              =   -1949.59470711 Ry
     Harris-Foulkes estimate   =   -2635.54974148 Ry
     estimated scf accuracy    <     858.57173490 Ry

[...]

     iteration #  4     ecut=    40.00 Ry     beta=0.70
     CG style diagonalization
     ethr =  1.00E-02,  avg # of iterations =  4.0

[...]

     End of self-consistent calculation

          k = 0.0000 0.0000 0.0000 (  2601 PWs)   bands (ev):

   -62.7768 -62.7156 -36.5583 -36.4475 -36.4475 -35.8118 -35.8118 -35.8118
   -21.7632 -21.7632 -21.7632 -21.7370 -21.7370 -21.7370  -5.9925  -5.9925
    -5.6822  -3.9801  -3.9801  -3.9801  -3.1626  -3.1626  -3.1626  -3.1384
    -3.1384  -3.1384  -2.9069  -2.9069  -2.9069  -1.8439  -1.8439  -1.8439
    25.4889  25.4889  26.0149  26.0149  26.0656  26.0656  26.0656  26.3366
    26.3366  26.3366  29.7070  31.1091  31.1726  31.1726  31.1726  31.2294
    31.7566  31.7566  33.0810  33.0810  33.0810  33.5501  36.2568  36.2568
    36.2568  36.5032  36.5032  37.9182  37.9182  37.9182  38.3151  38.3151
    38.3151  40.3998  40.3998  41.1208  41.1208  41.1208  41.4232  41.4232
    41.4232  46.2338  46.2338  46.2338  47.2899  47.2899  47.5997  47.9181
    51.8467  51.8467  51.8467  53.4196  53.4196  53.4196  53.4489  53.4489
    53.4489  54.0653  54.0653  54.0653  54.6978  54.6978  54.7665  54.7665
    54.7665  56.8193  56.8194  56.8195

[...]

     the Fermi energy is    52.2862 ev

!    total energy              =   -2288.20978480 Ry
     Harris-Foulkes estimate   =   -2288.20978649 Ry
     estimated scf accuracy    <       0.00000195 Ry

     The total energy is the sum of the following terms:

     one-electron contribution =      37.91725354 Ry
     hartree contribution      =     217.56936639 Ry
     xc contribution           =    -212.76530245 Ry
     ewald contribution        =   -2330.70662567 Ry
     smearing contrib. (-TS)   =      -0.22447661 Ry

     convergence has been achieved in   9 iterations

     Forces acting on atoms (Ry/au):

     atom    1 type  1   force =     0.00000000    0.00000000    0.00000000
     atom    2 type  1   force =     0.00000000    0.00000000    0.00000000
     atom    3 type  1   force =     0.00000000    0.00000000    0.00000000
     atom    4 type  1   force =     0.00000000    0.00000000    0.00000000
     atom    5 type  1   force =     0.00000000    0.00000000    0.00000000
     atom    6 type  1   force =     0.00000000    0.00000000    0.00000000
     atom    7 type  2   force =     0.00000000    0.00000000    0.00000000
     atom    8 type  2   force =     0.00000000    0.00000000    0.00000000

     Total force =     0.000000     Total SCF correction =     0.000000

     entering subroutine stress ...

          total   stress  (Ry/bohr**3)                   (kbar)     P= 5814.50
   0.03952614   0.00000000   0.00000000       5814.50      0.00      0.00
   0.00000000   0.03952614   0.00000000          0.00   5814.50      0.00
   0.00000000   0.00000000   0.03952614          0.00      0.00   5814.50

     BFGS Geometry Optimization

     number of scf cycles    =   1
     number of bfgs steps    =   0

     enthalpy new            =   -2288.2097847951 Ry

     new trust radius        =       0.5000000000 bohr
[...]

     number of scf cycles    =   3
     number of bfgs steps    =   2

     enthalpy old            =   -2292.3869080067 Ry
     enthalpy new            =   -2289.6522432122 Ry

     CASE: enthalpy_new > enthalpy_old

     new trust radius        =       0.2334134424 bohr

     trust_radius < trust_radius_min

     resetting bfgs history

     Message from routine bfgs:
     history already reset at previous step: stopping
     new conv_thr            =       0.0000010000 Ry

     new unit-cell volume =   1045.17961 a.u.^3 (   154.87964 Ang^3 )

[...]

ATOMIC_POSITIONS (crystal)
Cr       0.000000000   0.500000000   0.250000000
Cr       0.000000000   0.500000000   0.750000000
Cr       0.500000000   0.750000000   0.000000000
Cr       0.500000000   0.250000000   0.000000000
Cr       0.750000000   0.000000000   0.500000000
Cr       0.250000000   0.000000000   0.500000000
Si       0.500000000   0.500000000   0.500000000
Si       0.000000000   0.000000000   0.000000000

     Writing output data file Prototype-La-cP8-Cr3Si.save
     NEW-OLD atomic charge density approx. for the potential
     NEW k-points:
        k(    1) = (   0.0000000   0.0000000   0.0000000), wk =   0.0095238
        k(    2) = (   0.0000000   0.0000000   0.1201398), wk =   0.0190476
        k(    3) = (   0.0000000   0.0000000   0.2402795), wk =   0.0190476
        k(    4) = (   0.0000000   0.0000000   0.3604193), wk =   0.0190476
        k(    5) = (   0.0000000   0.1401631   0.0000000), wk =   0.0190476
        k(    6) = (   0.0000000   0.1401631   0.1201398), wk =   0.0380952
        k(    7) = (   0.0000000   0.1401631   0.2402795), wk =   0.0380952
        k(    8) = (   0.0000000   0.1401631   0.3604193), wk =   0.0380952
        k(    9) = (   0.0000000   0.2803261   0.0000000), wk =   0.0190476
        k(   10) = (   0.0000000   0.2803261   0.1201398), wk =   0.0380952
        k(   11) = (   0.0000000   0.2803261   0.2402795), wk =   0.0380952
        k(   12) = (   0.0000000   0.2803261   0.3604193), wk =   0.0380952
        k(   13) = (   0.0000000  -0.4204892   0.0000000), wk =   0.0095238
        k(   14) = (   0.0000000  -0.4204892   0.1201398), wk =   0.0190476
        k(   15) = (   0.0000000  -0.4204892   0.2402795), wk =   0.0190476
        k(   16) = (   0.0000000  -0.4204892   0.3604193), wk =   0.0190476
        k(   17) = (   0.1681957   0.0000000   0.0000000), wk =   0.0190476
        k(   18) = (   0.1681957   0.0000000   0.1201398), wk =   0.0380952
        k(   19) = (   0.1681957   0.0000000   0.2402795), wk =   0.0380952
        k(   20) = (   0.1681957   0.0000000   0.3604193), wk =   0.0380952
        k(   21) = (   0.1681957   0.1401631   0.0000000), wk =   0.0380952
        k(   22) = (   0.1681957   0.1401631   0.1201398), wk =   0.0761905
        k(   23) = (   0.1681957   0.1401631   0.2402795), wk =   0.0761905
        k(   24) = (   0.1681957   0.1401631   0.3604193), wk =   0.0761905
        k(   25) = (   0.1681957   0.2803261   0.0000000), wk =   0.0380952
        k(   26) = (   0.1681957   0.2803261   0.1201398), wk =   0.0761905
        k(   27) = (   0.1681957   0.2803261   0.2402795), wk =   0.0761905
        k(   28) = (   0.1681957   0.2803261   0.3604193), wk =   0.0761905
        k(   29) = (   0.1681957  -0.4204892   0.0000000), wk =   0.0190476
        k(   30) = (   0.1681957  -0.4204892   0.1201398), wk =   0.0380952
        k(   31) = (   0.1681957  -0.4204892   0.2402795), wk =   0.0380952
        k(   32) = (   0.1681957  -0.4204892   0.3604193), wk =   0.0380952
        k(   33) = (   0.3363914   0.0000000   0.0000000), wk =   0.0190476
        k(   34) = (   0.3363914   0.0000000   0.1201398), wk =   0.0380952
        k(   35) = (   0.3363914   0.0000000   0.2402795), wk =   0.0380952
        k(   36) = (   0.3363914   0.0000000   0.3604193), wk =   0.0380952
        k(   37) = (   0.3363914   0.1401631   0.0000000), wk =   0.0380952
        k(   38) = (   0.3363914   0.1401631   0.1201398), wk =   0.0761905
        k(   39) = (   0.3363914   0.1401631   0.2402795), wk =   0.0761905
        k(   40) = (   0.3363914   0.1401631   0.3604193), wk =   0.0761905
        k(   41) = (   0.3363914   0.2803261   0.0000000), wk =   0.0380952
        k(   42) = (   0.3363914   0.2803261   0.1201398), wk =   0.0761905
        k(   43) = (   0.3363914   0.2803261   0.2402795), wk =   0.0761905
        k(   44) = (   0.3363914   0.2803261   0.3604193), wk =   0.0761905
        k(   45) = (   0.3363914  -0.4204892   0.0000000), wk =   0.0190476
        k(   46) = (   0.3363914  -0.4204892   0.1201398), wk =   0.0380952
        k(   47) = (   0.3363914  -0.4204892   0.2402795), wk =   0.0380952
        k(   48) = (   0.3363914  -0.4204892   0.3604193), wk =   0.0380952

[...]

          total   stress  (Ry/bohr**3)                   (kbar)     P=-1002.47
  -0.00681463   0.00000000   0.00000000      -1002.47      0.00      0.00
   0.00000000  -0.00681463   0.00000000          0.00  -1002.47      0.00
   0.00000000   0.00000000  -0.00681463          0.00      0.00  -1002.47

     The maximum number of steps has been reached.

     End of BFGS Geometry Optimization
Begin final coordinates
     new unit-cell volume =   1045.17961 a.u.^3 (   154.87964 Ang^3 )

CELL_PARAMETERS (alat=  8.53457320)
   1.189091211   0.000000000   0.000000000
   0.000000000   1.189091211   0.000000000
   0.000000000   0.000000000   1.189091211

ATOMIC_POSITIONS (crystal)
Cr       0.000000000   0.500000000   0.250000000
Cr       0.000000000   0.500000000   0.750000000
Cr       0.500000000   0.750000000   0.000000000
Cr       0.500000000   0.250000000   0.000000000
Cr       0.750000000   0.000000000   0.500000000
Cr       0.250000000   0.000000000   0.500000000
Si       0.500000000   0.500000000   0.500000000
Si       0.000000000   0.000000000   0.000000000
End final coordinates

     A final scf calculation at the relaxed structure.
     The G-vectors are recalculated for the final unit cell
     Results may differ from those at the preceding step.

     bravais-lattice index     =            0
     lattice parameter (alat)  =       8.5346  a.u.
     unit-cell volume          =    1045.1796 (a.u.)^3
     number of atoms/cell      =            8
     number of atomic types    =            2
     number of electrons       =       166.00
     number of Kohn-Sham states=          100
     kinetic-energy cutoff     =      40.0000  Ry
     charge density cutoff     =     160.0000  Ry
     convergence threshold     =      1.0E-06
     mixing beta               =       0.7000
     number of iterations used =            8  plain     mixing
     Exchange-correlation      = SLA-PZ-NOGX-NOGC ( 1 1 0 0 0)
     EXX-fraction              =        0.00

     celldm(1)=   8.534573  celldm(2)=   0.000000  celldm(3)=   0.000000
     celldm(4)=   0.000000  celldm(5)=   0.000000  celldm(6)=   0.000000

     crystal axes: (cart. coord. in units of alat)
               a(1) = (   1.189091   0.000000   0.000000 )
               a(2) = (   0.000000   1.189091   0.000000 )
               a(3) = (   0.000000   0.000000   1.189091 )

     reciprocal axes: (cart. coord. in units 2 pi/alat)
               b(1) = (  0.840978  0.000000  0.000000 )
               b(2) = (  0.000000  0.840978  0.000000 )
               b(3) = (  0.000000  0.000000  0.840978 )

     PseudoPot. # 1 for Dy read from file:
     /home/cwx6513/pp.La/Dy.UPF
     MD5 check sum: 9597327bec62616a94a14d07f3fd9936
     Pseudo is Norm-conserving, Zval = 20.0
     Generated in analytical, separable form
     Using radial grid of 1265 points,  6 beta functions with:
                l(1) =   0
                l(2) =   0
                l(3) =   1
                l(4) =   1
                l(5) =   2
                l(6) =   3

     PseudoPot. # 2 for Tm read from file:
     /home/cwx6513/pp.La/Tm.UPF
     MD5 check sum: 245516e0878b5372ceeb9443ded2c4e1
     Pseudo is Norm-conserving, Zval = 23.0
     Generated in analytical, separable form
     Using radial grid of 1269 points,  6 beta functions with:
                l(1) =   0
                l(2) =   0
                l(3) =   1
                l(4) =   1
                l(5) =   2
                l(6) =   3

     atomic species   valence    mass     pseudopotential
        Cr            20.00    51.99610     Dy( 1.00)
        Si            23.00    28.08550     Tm( 1.00)

     48 Sym. Ops., with inversion, found (24 have fractional translation)

   Cartesian axes

     site n.     atom                  positions (alat units)
         1           Cr  tau(   1) = (   0.0000000   0.5945456   0.2972728  )
         2           Cr  tau(   2) = (   0.0000000   0.5945456   0.8918184  )
         3           Cr  tau(   3) = (   0.5945456   0.8918184   0.0000000  )
         4           Cr  tau(   4) = (   0.5945456   0.2972728   0.0000000  )
         5           Cr  tau(   5) = (   0.8918184   0.0000000   0.5945456  )
         6           Cr  tau(   6) = (   0.2972728   0.0000000   0.5945456  )
         7           Si  tau(   7) = (   0.5945456   0.5945456   0.5945456  )
         8           Si  tau(   8) = (   0.0000000   0.0000000   0.0000000  )

     number of k points=    48  gaussian smearing, width (Ry)=  0.1000
                       cart. coord. in units 2pi/alat
        k(    1) = (   0.0000000   0.0000000   0.0000000), wk =   0.0095238
        k(    2) = (   0.0000000   0.0000000   0.1201398), wk =   0.0190476
        k(    3) = (   0.0000000   0.0000000   0.2402795), wk =   0.0190476
        k(    4) = (   0.0000000   0.0000000   0.3604193), wk =   0.0190476
        k(    5) = (   0.0000000   0.1401631   0.0000000), wk =   0.0190476
        k(    6) = (   0.0000000   0.1401631   0.1201398), wk =   0.0380952
        k(    7) = (   0.0000000   0.1401631   0.2402795), wk =   0.0380952
        k(    8) = (   0.0000000   0.1401631   0.3604193), wk =   0.0380952
        k(    9) = (   0.0000000   0.2803261   0.0000000), wk =   0.0190476
        k(   10) = (   0.0000000   0.2803261   0.1201398), wk =   0.0380952
        k(   11) = (   0.0000000   0.2803261   0.2402795), wk =   0.0380952
        k(   12) = (   0.0000000   0.2803261   0.3604193), wk =   0.0380952
        k(   13) = (   0.0000000  -0.4204892   0.0000000), wk =   0.0095238
        k(   14) = (   0.0000000  -0.4204892   0.1201398), wk =   0.0190476
        k(   15) = (   0.0000000  -0.4204892   0.2402795), wk =   0.0190476
        k(   16) = (   0.0000000  -0.4204892   0.3604193), wk =   0.0190476
        k(   17) = (   0.1681957   0.0000000   0.0000000), wk =   0.0190476
        k(   18) = (   0.1681957   0.0000000   0.1201398), wk =   0.0380952
        k(   19) = (   0.1681957   0.0000000   0.2402795), wk =   0.0380952
        k(   20) = (   0.1681957   0.0000000   0.3604193), wk =   0.0380952
        k(   21) = (   0.1681957   0.1401631   0.0000000), wk =   0.0380952
        k(   22) = (   0.1681957   0.1401631   0.1201398), wk =   0.0761905
        k(   23) = (   0.1681957   0.1401631   0.2402795), wk =   0.0761905
        k(   24) = (   0.1681957   0.1401631   0.3604193), wk =   0.0761905
        k(   25) = (   0.1681957   0.2803261   0.0000000), wk =   0.0380952
        k(   26) = (   0.1681957   0.2803261   0.1201398), wk =   0.0761905
        k(   27) = (   0.1681957   0.2803261   0.2402795), wk =   0.0761905
        k(   28) = (   0.1681957   0.2803261   0.3604193), wk =   0.0761905
        k(   29) = (   0.1681957  -0.4204892   0.0000000), wk =   0.0190476
        k(   30) = (   0.1681957  -0.4204892   0.1201398), wk =   0.0380952
        k(   31) = (   0.1681957  -0.4204892   0.2402795), wk =   0.0380952
        k(   32) = (   0.1681957  -0.4204892   0.3604193), wk =   0.0380952
        k(   33) = (   0.3363914   0.0000000   0.0000000), wk =   0.0190476
        k(   34) = (   0.3363914   0.0000000   0.1201398), wk =   0.0380952
        k(   35) = (   0.3363914   0.0000000   0.2402795), wk =   0.0380952
        k(   36) = (   0.3363914   0.0000000   0.3604193), wk =   0.0380952
        k(   37) = (   0.3363914   0.1401631   0.0000000), wk =   0.0380952
        k(   38) = (   0.3363914   0.1401631   0.1201398), wk =   0.0761905
        k(   39) = (   0.3363914   0.1401631   0.2402795), wk =   0.0761905
        k(   40) = (   0.3363914   0.1401631   0.3604193), wk =   0.0761905
        k(   41) = (   0.3363914   0.2803261   0.0000000), wk =   0.0380952
        k(   42) = (   0.3363914   0.2803261   0.1201398), wk =   0.0761905
        k(   43) = (   0.3363914   0.2803261   0.2402795), wk =   0.0761905
        k(   44) = (   0.3363914   0.2803261   0.3604193), wk =   0.0761905
        k(   45) = (   0.3363914  -0.4204892   0.0000000), wk =   0.0190476
        k(   46) = (   0.3363914  -0.4204892   0.1201398), wk =   0.0380952
        k(   47) = (   0.3363914  -0.4204892   0.2402795), wk =   0.0380952
        k(   48) = (   0.3363914  -0.4204892   0.3604193), wk =   0.0380952

     Largest allocated arrays     est. size (Mb)     dimensions
     Largest temporary arrays     est. size (Mb)     dimensions

     Initial potential from superposition of free atoms

     Starting from uniform charge
     Starting wfc are    0 randomized atomic wfcs

     Writing output data file Prototype-La-cP8-Cr3Si.save

     Self-consistent Calculation

[...]

     negative rho (up, down):  0.606E-03 0.000E+00

[...]

     iteration #  9     ecut=    40.00 Ry     beta=0.70
     CG style diagonalization
     c_bands:  1 eigenvalues not converged
     ethr =  8.25E-07,  avg # of iterations =  4.3

[...]

     total energy              =   -2297.26555065 Ry
     Harris-Foulkes estimate   =   -2297.26555146 Ry
     estimated scf accuracy    <       0.00000119 Ry

     iteration # 12     ecut=    40.00 Ry     beta=0.70
     CG style diagonalization
     ethr =  7.16E-10,  avg # of iterations =  4.1

     End of self-consistent calculation

[...]

          k = 0.3364-0.4205 0.3604 (  4482 PWs)   bands (ev):

   -83.3221 -83.3220 -55.1782 -55.1739 -55.1665 -55.1664 -55.1585 -55.1546
   -41.9905 -41.9905 -41.9864 -41.9863 -41.9827 -41.9827 -22.3687 -22.3369
   -22.2474 -22.2463 -22.1537 -22.1349 -22.1347 -22.1235 -22.0892 -22.0820
   -22.0758 -22.0702 -22.0620 -22.0578 -22.0519 -22.0461 -22.0412 -22.0404
     6.9328   6.9330   6.9348   6.9349   6.9596   6.9623   6.9684   6.9695
     6.9746   6.9750  15.5845  15.5852  17.6125  17.6153  17.6604  17.7756
    17.8086  17.8261  17.9488  18.0069  18.0283  18.0440  18.1945  18.2339
    18.2805  18.3171  18.5778  18.5951  18.7314  18.7548  18.8709  18.8798
    19.1710  19.3152  19.7118  19.7793  19.8489  19.8873  19.9003  19.9187
    20.9887  20.9934  21.6933  21.8315  22.0788  22.2227  22.9732  23.0412
    30.1688  30.1721  31.5793  31.7145  31.8301  31.9993  32.7542  32.8766
    32.8872  33.0782  33.7535  33.7720  34.0105  34.0573  34.2300  34.3022
    34.5937  34.8387  35.4781  35.5702

     the Fermi energy is    29.0483 ev

!    total energy              =   -2297.26555132 Ry
     Harris-Foulkes estimate   =   -2297.26555136 Ry
     estimated scf accuracy    <       0.00000004 Ry

     The total energy is the sum of the following terms:

     one-electron contribution =    -495.57641526 Ry
     hartree contribution      =     363.09359371 Ry
     xc contribution           =    -204.52393290 Ry
     ewald contribution        =   -1960.07388216 Ry
     smearing contrib. (-TS)   =      -0.18491472 Ry

     convergence has been achieved in  12 iterations

     Forces acting on atoms (Ry/au):

     atom    1 type  1   force =     0.00000000    0.00000000    0.00000000
     atom    2 type  1   force =     0.00000000    0.00000000    0.00000000
     atom    3 type  1   force =     0.00000000    0.00000000    0.00000000
     atom    4 type  1   force =     0.00000000    0.00000000    0.00000000
     atom    5 type  1   force =     0.00000000    0.00000000    0.00000000
     atom    6 type  1   force =     0.00000000    0.00000000    0.00000000
     atom    7 type  2   force =     0.00000000    0.00000000    0.00000000
     atom    8 type  2   force =     0.00000000    0.00000000    0.00000000

     Total force =     0.000000     Total SCF correction =     0.000000

     entering subroutine stress ...

          total   stress  (Ry/bohr**3)                   (kbar)     P=  227.00
   0.00154309   0.00000000   0.00000000        227.00      0.00      0.00
   0.00000000   0.00154309   0.00000000          0.00    227.00      0.00
   0.00000000   0.00000000   0.00154309          0.00      0.00    227.00

     Writing output data file Prototype-La-cP8-Cr3Si.save

     General routines

     Parallel routines

   This run was terminated on:   4: 4:36  23Mar2018

   JOB DONE.