     Program PWSCF v.5.0.2 starts on 23Mar2018 at  0:54:30

     Current dimensions of program PWSCF are:
     Max number of different atomic species (ntypx) = 10
     Max number of k-points (npk) =  40000
     Max angular momentum in pseudopotentials (lmaxx) =  3
     Waiting for input...
     Reading input from standard input

     Subspace diagonalization in iterative solution of the eigenvalue problem:
     a serial algorithm will be used

     bravais-lattice index     =            0
     lattice parameter (alat)  =       8.5346  a.u.
     unit-cell volume          =     621.6493 (a.u.)^3
     number of atoms/cell      =            8
     number of atomic types    =            2
     number of electrons       =       166.00
     number of Kohn-Sham states=          100
     kinetic-energy cutoff     =      40.0000  Ry
     charge density cutoff     =     160.0000  Ry
     convergence threshold     =      1.0E-04
     mixing beta               =       0.7000
     number of iterations used =            8  plain     mixing
     Exchange-correlation      = SLA-PZ-NOGX-NOGC ( 1 1 0 0 0)
     EXX-fraction              =        0.00
     nstep                     =           50

     celldm(1)=   8.534573  celldm(2)=   0.000000  celldm(3)=   0.000000
     celldm(4)=   0.000000  celldm(5)=   0.000000  celldm(6)=   0.000000

     crystal axes: (cart. coord. in units of alat)
               a(1) = (   1.000000   0.000000   0.000000 )
               a(2) = (   0.000000   1.000000   0.000000 )
               a(3) = (   0.000000   0.000000   1.000000 )

     reciprocal axes: (cart. coord. in units 2 pi/alat)
               b(1) = (  1.000000  0.000000  0.000000 )
               b(2) = (  0.000000  1.000000  0.000000 )
               b(3) = (  0.000000  0.000000  1.000000 )

     PseudoPot. # 1 for Ho read from file:
     /home/cwx6513/pp.La/Ho.UPF
     MD5 check sum: f307ee11bce99f5b724fa279e3790763
     Pseudo is Norm-conserving, Zval = 21.0
     Generated in analytical, separable form
     Using radial grid of 1265 points,  6 beta functions with:
                l(1) =   0
                l(2) =   0
                l(3) =   1
                l(4) =   1
                l(5) =   2
                l(6) =   3

     PseudoPot. # 2 for Dy read from file:
     /home/cwx6513/pp.La/Dy.UPF
     MD5 check sum: 9597327bec62616a94a14d07f3fd9936
     Pseudo is Norm-conserving, Zval = 20.0
     Generated in analytical, separable form
     Using radial grid of 1265 points,  6 beta functions with:
                l(1) =   0
                l(2) =   0
                l(3) =   1
                l(4) =   1
                l(5) =   2
                l(6) =   3

     atomic species   valence    mass     pseudopotential
        Cr            21.00    51.99610     Ho( 1.00)
        Si            20.00    28.08550     Dy( 1.00)

     48 Sym. Ops., with inversion, found (24 have fractional translation)

   Cartesian axes

     site n.     atom                  positions (alat units)
         1           Cr  tau(   1) = (   0.0000000   0.5000000   0.2500000  )
         2           Cr  tau(   2) = (   0.0000000   0.5000000   0.7500000  )
         3           Cr  tau(   3) = (   0.5000000   0.7500000   0.0000000  )
         4           Cr  tau(   4) = (   0.5000000   0.2500000   0.0000000  )
         5           Cr  tau(   5) = (   0.7500000   0.0000000   0.5000000  )
         6           Cr  tau(   6) = (   0.2500000   0.0000000   0.5000000  )
         7           Si  tau(   7) = (   0.5000000   0.5000000   0.5000000  )
         8           Si  tau(   8) = (   0.0000000   0.0000000   0.0000000  )

     number of k points=    48  gaussian smearing, width (Ry)=  0.1000
                       cart. coord. in units 2pi/alat
        k(    1) = (   0.0000000   0.0000000   0.0000000), wk =   0.0095238
        k(    2) = (   0.0000000   0.0000000   0.1428571), wk =   0.0190476
        k(    3) = (   0.0000000   0.0000000   0.2857143), wk =   0.0190476
        k(    4) = (   0.0000000   0.0000000   0.4285714), wk =   0.0190476
        k(    5) = (   0.0000000   0.1666667   0.0000000), wk =   0.0190476
        k(    6) = (   0.0000000   0.1666667   0.1428571), wk =   0.0380952
        k(    7) = (   0.0000000   0.1666667   0.2857143), wk =   0.0380952
        k(    8) = (   0.0000000   0.1666667   0.4285714), wk =   0.0380952
        k(    9) = (   0.0000000   0.3333333   0.0000000), wk =   0.0190476
        k(   10) = (   0.0000000   0.3333333   0.1428571), wk =   0.0380952
        k(   11) = (   0.0000000   0.3333333   0.2857143), wk =   0.0380952
        k(   12) = (   0.0000000   0.3333333   0.4285714), wk =   0.0380952
        k(   13) = (   0.0000000  -0.5000000   0.0000000), wk =   0.0095238
        k(   14) = (   0.0000000  -0.5000000   0.1428571), wk =   0.0190476
        k(   15) = (   0.0000000  -0.5000000   0.2857143), wk =   0.0190476
        k(   16) = (   0.0000000  -0.5000000   0.4285714), wk =   0.0190476
        k(   17) = (   0.2000000   0.0000000   0.0000000), wk =   0.0190476
        k(   18) = (   0.2000000   0.0000000   0.1428571), wk =   0.0380952
        k(   19) = (   0.2000000   0.0000000   0.2857143), wk =   0.0380952
        k(   20) = (   0.2000000   0.0000000   0.4285714), wk =   0.0380952
        k(   21) = (   0.2000000   0.1666667   0.0000000), wk =   0.0380952
        k(   22) = (   0.2000000   0.1666667   0.1428571), wk =   0.0761905
        k(   23) = (   0.2000000   0.1666667   0.2857143), wk =   0.0761905
        k(   24) = (   0.2000000   0.1666667   0.4285714), wk =   0.0761905
        k(   25) = (   0.2000000   0.3333333   0.0000000), wk =   0.0380952
        k(   26) = (   0.2000000   0.3333333   0.1428571), wk =   0.0761905
        k(   27) = (   0.2000000   0.3333333   0.2857143), wk =   0.0761905
        k(   28) = (   0.2000000   0.3333333   0.4285714), wk =   0.0761905
        k(   29) = (   0.2000000  -0.5000000   0.0000000), wk =   0.0190476
        k(   30) = (   0.2000000  -0.5000000   0.1428571), wk =   0.0380952
        k(   31) = (   0.2000000  -0.5000000   0.2857143), wk =   0.0380952
        k(   32) = (   0.2000000  -0.5000000   0.4285714), wk =   0.0380952
        k(   33) = (   0.4000000   0.0000000   0.0000000), wk =   0.0190476
        k(   34) = (   0.4000000   0.0000000   0.1428571), wk =   0.0380952
        k(   35) = (   0.4000000   0.0000000   0.2857143), wk =   0.0380952
        k(   36) = (   0.4000000   0.0000000   0.4285714), wk =   0.0380952
        k(   37) = (   0.4000000   0.1666667   0.0000000), wk =   0.0380952
        k(   38) = (   0.4000000   0.1666667   0.1428571), wk =   0.0761905
        k(   39) = (   0.4000000   0.1666667   0.2857143), wk =   0.0761905
        k(   40) = (   0.4000000   0.1666667   0.4285714), wk =   0.0761905
        k(   41) = (   0.4000000   0.3333333   0.0000000), wk =   0.0380952
        k(   42) = (   0.4000000   0.3333333   0.1428571), wk =   0.0761905
        k(   43) = (   0.4000000   0.3333333   0.2857143), wk =   0.0761905
        k(   44) = (   0.4000000   0.3333333   0.4285714), wk =   0.0761905
        k(   45) = (   0.4000000  -0.5000000   0.0000000), wk =   0.0190476
        k(   46) = (   0.4000000  -0.5000000   0.1428571), wk =   0.0380952
        k(   47) = (   0.4000000  -0.5000000   0.2857143), wk =   0.0380952
        k(   48) = (   0.4000000  -0.5000000   0.4285714), wk =   0.0380952

     Largest allocated arrays     est. size (Mb)     dimensions
     Largest temporary arrays     est. size (Mb)     dimensions

     Initial potential from superposition of free atoms

     Starting from uniform charge
     Starting wfc are    0 randomized atomic wfcs

     Self-consistent Calculation

     iteration #  1     ecut=    40.00 Ry     beta=0.70
     CG style diagonalization
     c_bands:  5 eigenvalues not converged
     c_bands:  5 eigenvalues not converged
     c_bands:  3 eigenvalues not converged
     c_bands:  4 eigenvalues not converged
     c_bands:  4 eigenvalues not converged
     c_bands:  3 eigenvalues not converged
     c_bands:  4 eigenvalues not converged
     c_bands:  4 eigenvalues not converged
     c_bands:  3 eigenvalues not converged
     c_bands:  1 eigenvalues not converged
     c_bands:  5 eigenvalues not converged
     c_bands:  2 eigenvalues not converged
     c_bands:  1 eigenvalues not converged
     c_bands:  4 eigenvalues not converged
     c_bands:  1 eigenvalues not converged
     c_bands:  1 eigenvalues not converged
     c_bands:  5 eigenvalues not converged
     c_bands:  1 eigenvalues not converged
     ethr =  1.00E-02,  avg # of iterations = 14.5

     total energy              =   -2104.82440558 Ry
     Harris-Foulkes estimate   =   -2579.29104295 Ry
     estimated scf accuracy    <     612.29345442 Ry

[...]

     iteration #  3     ecut=    40.00 Ry     beta=0.70
     CG style diagonalization
     ethr =  1.00E-02,  avg # of iterations =  4.5

[...]

     End of self-consistent calculation

          k = 0.0000 0.0000 0.0000 (  2601 PWs)   bands (ev):

   -44.8615 -44.8309 -44.8309 -44.3114 -44.3114 -44.3114 -36.2896 -36.2493
   -11.2339 -11.2339 -10.9966  -9.5604  -9.5604  -9.5604  -8.8852  -8.8852
    -8.8852  -8.7743  -8.7743  -8.7743  -8.6013  -8.6013  -8.6013  -7.8853
    -7.8853  -7.8853  -3.5417  -3.5417  -3.5417  -3.5094  -3.5094  -3.5094
    27.9990  27.9990  28.3533  29.1058  29.1058  29.1058  30.2981  31.2959
    31.4270  31.4270  31.4270  31.5738  31.7074  31.7074  31.7074  31.9117
    31.9117  34.4547  34.4547  35.0940  35.0940  35.0940  35.2841  35.2841
    35.2841  35.9598  35.9598  35.9598  36.3634  36.3634  36.3634  36.8637
    36.8637  38.1695  38.1695  38.5477  38.5477  38.5477  39.9242  39.9242
    39.9242  44.4872  44.4872  44.4872  47.8627  47.8627  48.4823  50.2209
    51.8804  51.8804  51.8804  52.4552  52.4552  52.4552  54.1997  54.1997
    54.3992  54.3992  54.3992  54.7892  54.7892  54.7893  55.7329  55.7329
    55.7329  56.1375  56.1375  56.1376

[...]

     the Fermi energy is    52.4222 ev

!    total energy              =   -2272.41499954 Ry
     Harris-Foulkes estimate   =   -2272.41504774 Ry
     estimated scf accuracy    <       0.00006484 Ry

     The total energy is the sum of the following terms:

     one-electron contribution =      56.51707866 Ry
     hartree contribution      =     210.34274367 Ry
     xc contribution           =    -212.41327363 Ry
     ewald contribution        =   -2326.61619752 Ry
     smearing contrib. (-TS)   =      -0.24535073 Ry

     convergence has been achieved in   7 iterations

     Forces acting on atoms (Ry/au):

     atom    1 type  1   force =     0.00000000    0.00000000    0.00000000
     atom    2 type  1   force =     0.00000000    0.00000000    0.00000000
     atom    3 type  1   force =     0.00000000    0.00000000    0.00000000
     atom    4 type  1   force =     0.00000000    0.00000000    0.00000000
     atom    5 type  1   force =     0.00000000    0.00000000    0.00000000
     atom    6 type  1   force =     0.00000000    0.00000000    0.00000000
     atom    7 type  2   force =     0.00000000    0.00000000    0.00000000
[...]

     new trust radius        =       0.9489914602 bohr
     new conv_thr            =       0.0000010000 Ry

[...]

          total   stress  (Ry/bohr**3)                   (kbar)     P=-1712.11
  -0.01163872   0.00000000   0.00000000      -1712.11      0.00      0.00
   0.00000000  -0.01163872   0.00000000          0.00  -1712.11      0.00
   0.00000000   0.00000000  -0.01163872          0.00      0.00  -1712.11

     number of scf cycles    =   3
     number of bfgs steps    =   2

     enthalpy old            =   -2276.6174230654 Ry
     enthalpy new            =   -2274.0622572140 Ry

     CASE: enthalpy_new > enthalpy_old

     new trust radius        =       0.2632027599 bohr

     trust_radius < trust_radius_min

     resetting bfgs history

     Message from routine bfgs:
     history already reset at previous step: stopping
     new conv_thr            =       0.0000010000 Ry

     new unit-cell volume =   1044.50837 a.u.^3 (   154.78017 Ang^3 )

[...]

ATOMIC_POSITIONS (crystal)
Cr       0.000000000   0.500000000   0.250000000
Cr       0.000000000   0.500000000   0.750000000
Cr       0.500000000   0.750000000   0.000000000
Cr       0.500000000   0.250000000   0.000000000
Cr       0.750000000   0.000000000   0.500000000
Cr       0.250000000   0.000000000   0.500000000
Si       0.500000000   0.500000000   0.500000000
Si       0.000000000   0.000000000   0.000000000

     Writing output data file Prototype-La-cP8-Cr3Si.save
     NEW-OLD atomic charge density approx. for the potential
     NEW k-points:
        k(    1) = (   0.0000000   0.0000000   0.0000000), wk =   0.0095238
        k(    2) = (   0.0000000   0.0000000   0.1201655), wk =   0.0190476
        k(    3) = (   0.0000000   0.0000000   0.2403310), wk =   0.0190476
        k(    4) = (   0.0000000   0.0000000   0.3604965), wk =   0.0190476
        k(    5) = (   0.0000000   0.1401931   0.0000000), wk =   0.0190476
        k(    6) = (   0.0000000   0.1401931   0.1201655), wk =   0.0380952
        k(    7) = (   0.0000000   0.1401931   0.2403310), wk =   0.0380952
        k(    8) = (   0.0000000   0.1401931   0.3604965), wk =   0.0380952
        k(    9) = (   0.0000000   0.2803862   0.0000000), wk =   0.0190476
        k(   10) = (   0.0000000   0.2803862   0.1201655), wk =   0.0380952
        k(   11) = (   0.0000000   0.2803862   0.2403310), wk =   0.0380952
        k(   12) = (   0.0000000   0.2803862   0.3604965), wk =   0.0380952
        k(   13) = (   0.0000000  -0.4205792   0.0000000), wk =   0.0095238
        k(   14) = (   0.0000000  -0.4205792   0.1201655), wk =   0.0190476
        k(   15) = (   0.0000000  -0.4205792   0.2403310), wk =   0.0190476
        k(   16) = (   0.0000000  -0.4205792   0.3604965), wk =   0.0190476
        k(   17) = (   0.1682317   0.0000000   0.0000000), wk =   0.0190476
        k(   18) = (   0.1682317   0.0000000   0.1201655), wk =   0.0380952
        k(   19) = (   0.1682317   0.0000000   0.2403310), wk =   0.0380952
        k(   20) = (   0.1682317   0.0000000   0.3604965), wk =   0.0380952
        k(   21) = (   0.1682317   0.1401931   0.0000000), wk =   0.0380952
        k(   22) = (   0.1682317   0.1401931   0.1201655), wk =   0.0761905
        k(   23) = (   0.1682317   0.1401931   0.2403310), wk =   0.0761905
        k(   24) = (   0.1682317   0.1401931   0.3604965), wk =   0.0761905
        k(   25) = (   0.1682317   0.2803862   0.0000000), wk =   0.0380952
        k(   26) = (   0.1682317   0.2803862   0.1201655), wk =   0.0761905
        k(   27) = (   0.1682317   0.2803862   0.2403310), wk =   0.0761905
        k(   28) = (   0.1682317   0.2803862   0.3604965), wk =   0.0761905
        k(   29) = (   0.1682317  -0.4205792   0.0000000), wk =   0.0190476
        k(   30) = (   0.1682317  -0.4205792   0.1201655), wk =   0.0380952
        k(   31) = (   0.1682317  -0.4205792   0.2403310), wk =   0.0380952
        k(   32) = (   0.1682317  -0.4205792   0.3604965), wk =   0.0380952
        k(   33) = (   0.3364634   0.0000000   0.0000000), wk =   0.0190476
        k(   34) = (   0.3364634   0.0000000   0.1201655), wk =   0.0380952
        k(   35) = (   0.3364634   0.0000000   0.2403310), wk =   0.0380952
        k(   36) = (   0.3364634   0.0000000   0.3604965), wk =   0.0380952
        k(   37) = (   0.3364634   0.1401931   0.0000000), wk =   0.0380952
        k(   38) = (   0.3364634   0.1401931   0.1201655), wk =   0.0761905
        k(   39) = (   0.3364634   0.1401931   0.2403310), wk =   0.0761905
        k(   40) = (   0.3364634   0.1401931   0.3604965), wk =   0.0761905
        k(   41) = (   0.3364634   0.2803862   0.0000000), wk =   0.0380952
        k(   42) = (   0.3364634   0.2803862   0.1201655), wk =   0.0761905
        k(   43) = (   0.3364634   0.2803862   0.2403310), wk =   0.0761905
        k(   44) = (   0.3364634   0.2803862   0.3604965), wk =   0.0761905
        k(   45) = (   0.3364634  -0.4205792   0.0000000), wk =   0.0190476
        k(   46) = (   0.3364634  -0.4205792   0.1201655), wk =   0.0380952
        k(   47) = (   0.3364634  -0.4205792   0.2403310), wk =   0.0380952
        k(   48) = (   0.3364634  -0.4205792   0.3604965), wk =   0.0380952

[...]

     The maximum number of steps has been reached.

     End of BFGS Geometry Optimization
Begin final coordinates
     new unit-cell volume =   1044.50837 a.u.^3 (   154.78017 Ang^3 )

CELL_PARAMETERS (alat=  8.53457320)
   1.188836601   0.000000000   0.000000000
   0.000000000   1.188836601   0.000000000
   0.000000000   0.000000000   1.188836601

ATOMIC_POSITIONS (crystal)
Cr       0.000000000   0.500000000   0.250000000
Cr       0.000000000   0.500000000   0.750000000
Cr       0.500000000   0.750000000   0.000000000
Cr       0.500000000   0.250000000   0.000000000
Cr       0.750000000   0.000000000   0.500000000
Cr       0.250000000   0.000000000   0.500000000
Si       0.500000000   0.500000000   0.500000000
Si       0.000000000   0.000000000   0.000000000
End final coordinates

     A final scf calculation at the relaxed structure.
     The G-vectors are recalculated for the final unit cell
     Results may differ from those at the preceding step.

     bravais-lattice index     =            0
     lattice parameter (alat)  =       8.5346  a.u.
     unit-cell volume          =    1044.5084 (a.u.)^3
     number of atoms/cell      =            8
     number of atomic types    =            2
     number of electrons       =       166.00
     number of Kohn-Sham states=          100
     kinetic-energy cutoff     =      40.0000  Ry
     charge density cutoff     =     160.0000  Ry
     convergence threshold     =      1.0E-06
     mixing beta               =       0.7000
     number of iterations used =            8  plain     mixing
     Exchange-correlation      = SLA-PZ-NOGX-NOGC ( 1 1 0 0 0)
     EXX-fraction              =        0.00

     celldm(1)=   8.534573  celldm(2)=   0.000000  celldm(3)=   0.000000
     celldm(4)=   0.000000  celldm(5)=   0.000000  celldm(6)=   0.000000

     crystal axes: (cart. coord. in units of alat)
               a(1) = (   1.188837   0.000000   0.000000 )
               a(2) = (   0.000000   1.188837   0.000000 )
               a(3) = (   0.000000   0.000000   1.188837 )

     reciprocal axes: (cart. coord. in units 2 pi/alat)
               b(1) = (  0.841158  0.000000  0.000000 )
               b(2) = (  0.000000  0.841158  0.000000 )
               b(3) = (  0.000000  0.000000  0.841158 )

     PseudoPot. # 1 for Ho read from file:
     /home/cwx6513/pp.La/Ho.UPF
     MD5 check sum: f307ee11bce99f5b724fa279e3790763
     Pseudo is Norm-conserving, Zval = 21.0
     Generated in analytical, separable form
     Using radial grid of 1265 points,  6 beta functions with:
                l(1) =   0
                l(2) =   0
                l(3) =   1
                l(4) =   1
                l(5) =   2
                l(6) =   3

     PseudoPot. # 2 for Dy read from file:
     /home/cwx6513/pp.La/Dy.UPF
     MD5 check sum: 9597327bec62616a94a14d07f3fd9936
     Pseudo is Norm-conserving, Zval = 20.0
     Generated in analytical, separable form
     Using radial grid of 1265 points,  6 beta functions with:
                l(1) =   0
                l(2) =   0
                l(3) =   1
                l(4) =   1
                l(5) =   2
                l(6) =   3

     atomic species   valence    mass     pseudopotential
        Cr            21.00    51.99610     Ho( 1.00)
        Si            20.00    28.08550     Dy( 1.00)

     48 Sym. Ops., with inversion, found (24 have fractional translation)

   Cartesian axes

     site n.     atom                  positions (alat units)
         1           Cr  tau(   1) = (   0.0000000   0.5944183   0.2972092  )
         2           Cr  tau(   2) = (   0.0000000   0.5944183   0.8916275  )
         3           Cr  tau(   3) = (   0.5944183   0.8916275   0.0000000  )
         4           Cr  tau(   4) = (   0.5944183   0.2972092   0.0000000  )
         5           Cr  tau(   5) = (   0.8916275   0.0000000   0.5944183  )
         6           Cr  tau(   6) = (   0.2972092   0.0000000   0.5944183  )
         7           Si  tau(   7) = (   0.5944183   0.5944183   0.5944183  )
         8           Si  tau(   8) = (   0.0000000   0.0000000   0.0000000  )

     number of k points=    48  gaussian smearing, width (Ry)=  0.1000
                       cart. coord. in units 2pi/alat
        k(    1) = (   0.0000000   0.0000000   0.0000000), wk =   0.0095238
        k(    2) = (   0.0000000   0.0000000   0.1201655), wk =   0.0190476
        k(    3) = (   0.0000000   0.0000000   0.2403310), wk =   0.0190476
        k(    4) = (   0.0000000   0.0000000   0.3604965), wk =   0.0190476
        k(    5) = (   0.0000000   0.1401931   0.0000000), wk =   0.0190476
        k(    6) = (   0.0000000   0.1401931   0.1201655), wk =   0.0380952
        k(    7) = (   0.0000000   0.1401931   0.2403310), wk =   0.0380952
        k(    8) = (   0.0000000   0.1401931   0.3604965), wk =   0.0380952
        k(    9) = (   0.0000000   0.2803862   0.0000000), wk =   0.0190476
        k(   10) = (   0.0000000   0.2803862   0.1201655), wk =   0.0380952
        k(   11) = (   0.0000000   0.2803862   0.2403310), wk =   0.0380952
        k(   12) = (   0.0000000   0.2803862   0.3604965), wk =   0.0380952
        k(   13) = (   0.0000000  -0.4205792   0.0000000), wk =   0.0095238
        k(   14) = (   0.0000000  -0.4205792   0.1201655), wk =   0.0190476
        k(   15) = (   0.0000000  -0.4205792   0.2403310), wk =   0.0190476
        k(   16) = (   0.0000000  -0.4205792   0.3604965), wk =   0.0190476
        k(   17) = (   0.1682317   0.0000000   0.0000000), wk =   0.0190476
        k(   18) = (   0.1682317   0.0000000   0.1201655), wk =   0.0380952
        k(   19) = (   0.1682317   0.0000000   0.2403310), wk =   0.0380952
        k(   20) = (   0.1682317   0.0000000   0.3604965), wk =   0.0380952
        k(   21) = (   0.1682317   0.1401931   0.0000000), wk =   0.0380952
        k(   22) = (   0.1682317   0.1401931   0.1201655), wk =   0.0761905
        k(   23) = (   0.1682317   0.1401931   0.2403310), wk =   0.0761905
        k(   24) = (   0.1682317   0.1401931   0.3604965), wk =   0.0761905
        k(   25) = (   0.1682317   0.2803862   0.0000000), wk =   0.0380952
        k(   26) = (   0.1682317   0.2803862   0.1201655), wk =   0.0761905
        k(   27) = (   0.1682317   0.2803862   0.2403310), wk =   0.0761905
        k(   28) = (   0.1682317   0.2803862   0.3604965), wk =   0.0761905
        k(   29) = (   0.1682317  -0.4205792   0.0000000), wk =   0.0190476
        k(   30) = (   0.1682317  -0.4205792   0.1201655), wk =   0.0380952
        k(   31) = (   0.1682317  -0.4205792   0.2403310), wk =   0.0380952
        k(   32) = (   0.1682317  -0.4205792   0.3604965), wk =   0.0380952
        k(   33) = (   0.3364634   0.0000000   0.0000000), wk =   0.0190476
        k(   34) = (   0.3364634   0.0000000   0.1201655), wk =   0.0380952
        k(   35) = (   0.3364634   0.0000000   0.2403310), wk =   0.0380952
        k(   36) = (   0.3364634   0.0000000   0.3604965), wk =   0.0380952
        k(   37) = (   0.3364634   0.1401931   0.0000000), wk =   0.0380952
        k(   38) = (   0.3364634   0.1401931   0.1201655), wk =   0.0761905
        k(   39) = (   0.3364634   0.1401931   0.2403310), wk =   0.0761905
        k(   40) = (   0.3364634   0.1401931   0.3604965), wk =   0.0761905
        k(   41) = (   0.3364634   0.2803862   0.0000000), wk =   0.0380952
        k(   42) = (   0.3364634   0.2803862   0.1201655), wk =   0.0761905
        k(   43) = (   0.3364634   0.2803862   0.2403310), wk =   0.0761905
        k(   44) = (   0.3364634   0.2803862   0.3604965), wk =   0.0761905
        k(   45) = (   0.3364634  -0.4205792   0.0000000), wk =   0.0190476
        k(   46) = (   0.3364634  -0.4205792   0.1201655), wk =   0.0380952
        k(   47) = (   0.3364634  -0.4205792   0.2403310), wk =   0.0380952
        k(   48) = (   0.3364634  -0.4205792   0.3604965), wk =   0.0380952

     Largest allocated arrays     est. size (Mb)     dimensions
     Largest temporary arrays     est. size (Mb)     dimensions

     Initial potential from superposition of free atoms

     Starting from uniform charge
     Starting wfc are    0 randomized atomic wfcs

     Writing output data file Prototype-La-cP8-Cr3Si.save

     Self-consistent Calculation

[...]

     iteration # 10     ecut=    40.00 Ry     beta=0.70
     CG style diagonalization
     c_bands:  1 eigenvalues not converged
     ethr =  6.13E-10,  avg # of iterations =  5.0

     total energy              =   -2281.59319021 Ry
     Harris-Foulkes estimate   =   -2281.59318667 Ry
     estimated scf accuracy    <       0.00000115 Ry

     iteration # 11     ecut=    40.00 Ry     beta=0.70
     CG style diagonalization
     ethr =  6.13E-10,  avg # of iterations =  3.5

     End of self-consistent calculation

[...]

          k = 0.3365-0.4206 0.3605 (  4478 PWs)   bands (ev):

   -63.9813 -63.9773 -63.9736 -63.9729 -63.9686 -63.9658 -55.2074 -55.2073
   -28.3786 -28.3567 -28.2882 -28.2875 -28.2125 -28.1840 -28.1361 -28.1356
   -28.1155 -28.1128 -28.1071 -28.1017 -28.0979 -28.0925 -28.0921 -28.0822
   -28.0800 -28.0784 -22.1643 -22.1642 -22.1598 -22.1597 -22.1579 -22.1576
    14.4387  14.5277  14.5431  14.5845  14.5961  14.6236  14.7769  14.7928
    14.8584  14.8745  14.9192  14.9335  14.9581  15.0032  15.0301  15.0410
    15.4228  15.4237  15.6129  15.6269  15.6812  15.7050  15.9424  16.0363
    16.1093  16.1600  16.2383  16.2612  16.3406  16.3544  18.7179  18.7238
    18.7898  18.8151  18.9635  18.9739  19.5050  19.5059  19.5328  19.5333
    20.4086  20.4922  21.2842  21.4388  21.6735  21.8838  22.6848  22.7132
    30.7445  30.9522  31.5475  31.6399  32.2740  32.5574  33.0374  33.2560
    33.3501  33.3700  33.8198  33.8829  34.0235  34.1123  34.4727  34.5413
    34.7122  34.8094  35.0793  35.1231

     the Fermi energy is    29.1818 ev

!    total energy              =   -2281.59319038 Ry
     Harris-Foulkes estimate   =   -2281.59319040 Ry
     estimated scf accuracy    <       0.00000003 Ry

     The total energy is the sum of the following terms:

     one-electron contribution =    -476.16534560 Ry
     hartree contribution      =     356.12728155 Ry
     xc contribution           =    -204.29746386 Ry
     ewald contribution        =   -1957.05296673 Ry
     smearing contrib. (-TS)   =      -0.20469573 Ry

     convergence has been achieved in  11 iterations

     Forces acting on atoms (Ry/au):

     atom    1 type  1   force =     0.00000000    0.00000000    0.00000000
     atom    2 type  1   force =     0.00000000    0.00000000    0.00000000
     atom    3 type  1   force =     0.00000000    0.00000000    0.00000000
     atom    4 type  1   force =     0.00000000    0.00000000    0.00000000
     atom    5 type  1   force =     0.00000000    0.00000000    0.00000000
     atom    6 type  1   force =     0.00000000    0.00000000    0.00000000
     atom    7 type  2   force =     0.00000000    0.00000000    0.00000000
     atom    8 type  2   force =     0.00000000    0.00000000    0.00000000

     Total force =     0.000000     Total SCF correction =     0.000000

     entering subroutine stress ...

          total   stress  (Ry/bohr**3)                   (kbar)     P=  236.05
   0.00160465   0.00000000   0.00000000        236.05      0.00      0.00
   0.00000000   0.00160465   0.00000000          0.00    236.05      0.00
   0.00000000   0.00000000   0.00160465          0.00      0.00    236.05

     Writing output data file Prototype-La-cP8-Cr3Si.save

     General routines

     Parallel routines

   This run was terminated on:   1:25:11  23Mar2018

   JOB DONE.