     Program PWSCF v.5.0.2 starts on 23Mar2018 at  0:54:31

     Current dimensions of program PWSCF are:
     Max number of different atomic species (ntypx) = 10
     Max number of k-points (npk) =  40000
     Max angular momentum in pseudopotentials (lmaxx) =  3
     Waiting for input...
     Reading input from standard input

     Subspace diagonalization in iterative solution of the eigenvalue problem:
     a serial algorithm will be used

     bravais-lattice index     =            0
     lattice parameter (alat)  =      12.0168  a.u.
     unit-cell volume          =    1187.3413 (a.u.)^3
     number of atoms/cell      =            8
     number of atomic types    =            2
     number of electrons       =       166.00
     number of Kohn-Sham states=          100
     kinetic-energy cutoff     =      40.0000  Ry
     charge density cutoff     =     160.0000  Ry
     convergence threshold     =      1.0E-04
     mixing beta               =       0.7000
     number of iterations used =            8  plain     mixing
     Exchange-correlation      = SLA-PZ-NOGX-NOGC ( 1 1 0 0 0)
     EXX-fraction              =        0.00
     nstep                     =           50

     celldm(1)=  12.016801  celldm(2)=   0.000000  celldm(3)=   0.000000
     celldm(4)=   0.000000  celldm(5)=   0.000000  celldm(6)=   0.000000

     crystal axes: (cart. coord. in units of alat)
               a(1) = (   1.000000   0.000000   0.000000 )
               a(2) = (  -0.500000   0.866025   0.000000 )
               a(3) = (   0.000000   0.000000   0.790093 )

     reciprocal axes: (cart. coord. in units 2 pi/alat)
               b(1) = (  1.000000  0.577350  0.000000 )
               b(2) = (  0.000000  1.154701  0.000000 )
               b(3) = (  0.000000  0.000000  1.265674 )

     PseudoPot. # 1 for Ho read from file:
     /home/cwx6513/pp.La/Ho.UPF
     MD5 check sum: f307ee11bce99f5b724fa279e3790763
     Pseudo is Norm-conserving, Zval = 21.0
     Generated in analytical, separable form
     Using radial grid of 1265 points,  6 beta functions with:
                l(1) =   0
                l(2) =   0
                l(3) =   1
                l(4) =   1
                l(5) =   2
                l(6) =   3

     PseudoPot. # 2 for Dy read from file:
     /home/cwx6513/pp.La/Dy.UPF
     MD5 check sum: 9597327bec62616a94a14d07f3fd9936
     Pseudo is Norm-conserving, Zval = 20.0
     Generated in analytical, separable form
     Using radial grid of 1265 points,  6 beta functions with:
                l(1) =   0
                l(2) =   0
                l(3) =   1
                l(4) =   1
                l(5) =   2
                l(6) =   3

     atomic species   valence    mass     pseudopotential
        Mg            21.00    24.30500     Ho( 1.00)
        Cd            20.00   112.41100     Dy( 1.00)

     24 Sym. Ops., with inversion, found (12 have fractional translation)

   Cartesian axes

     site n.     atom                  positions (alat units)
         1           Mg  tau(   1) = (   0.2478935   0.7204716   0.1975233  )
         2           Mg  tau(   2) = (   0.7478935   0.1455538   0.5925699  )
         3           Mg  tau(   3) = (   0.2521065   0.1455538   0.5925699  )
         4           Mg  tau(   4) = (  -0.2478935   0.7204716   0.1975233  )
         5           Mg  tau(   5) = (   0.0000000   0.2911075   0.1975233  )
         6           Mg  tau(   6) = (   0.5000000   0.5749179   0.5925699  )
         7           Cd  tau(   7) = (   0.5000005   0.2886748   0.1975233  )
         8           Cd  tau(   8) = (  -0.0000005   0.5773506   0.5925699  )

     number of k points=    64  gaussian smearing, width (Ry)=  0.1000
                       cart. coord. in units 2pi/alat
        k(    1) = (   0.0000000   0.0000000   0.0000000), wk =   0.0095238
        k(    2) = (   0.0000000   0.0000000   0.1808105), wk =   0.0190476
        k(    3) = (   0.0000000   0.0000000   0.3616210), wk =   0.0190476
        k(    4) = (   0.0000000   0.0000000   0.5424315), wk =   0.0190476
        k(    5) = (   0.0000000   0.1924501   0.0000000), wk =   0.0190476
        k(    6) = (   0.0000000   0.1924501   0.1808105), wk =   0.0380952
        k(    7) = (   0.0000000   0.1924501   0.3616210), wk =   0.0380952
        k(    8) = (   0.0000000   0.1924501   0.5424315), wk =   0.0380952
        k(    9) = (   0.0000000   0.3849002   0.0000000), wk =   0.0190476
        k(   10) = (   0.0000000   0.3849002   0.1808105), wk =   0.0380952
        k(   11) = (   0.0000000   0.3849002   0.3616210), wk =   0.0380952
        k(   12) = (   0.0000000   0.3849002   0.5424315), wk =   0.0380952
        k(   13) = (   0.0000000  -0.5773503   0.0000000), wk =   0.0095238
        k(   14) = (   0.0000000  -0.5773503   0.1808105), wk =   0.0190476
        k(   15) = (   0.0000000  -0.5773503   0.3616210), wk =   0.0190476
        k(   16) = (   0.0000000  -0.5773503   0.5424315), wk =   0.0190476
        k(   17) = (   0.2000000   0.1154701   0.0000000), wk =   0.0190476
        k(   18) = (   0.2000000   0.1154701   0.1808105), wk =   0.0380952
        k(   19) = (   0.2000000   0.1154701   0.3616210), wk =   0.0380952
        k(   20) = (   0.2000000   0.1154701   0.5424315), wk =   0.0380952
        k(   21) = (   0.2000000   0.3079201   0.0000000), wk =   0.0190476
        k(   22) = (   0.2000000   0.3079201   0.1808105), wk =   0.0380952
        k(   23) = (   0.2000000   0.3079201   0.3616210), wk =   0.0380952
        k(   24) = (   0.2000000   0.3079201   0.5424315), wk =   0.0380952
        k(   25) = (   0.2000000   0.5003702   0.0000000), wk =   0.0190476
        k(   26) = (   0.2000000   0.5003702   0.1808105), wk =   0.0380952
        k(   27) = (   0.2000000   0.5003702   0.3616210), wk =   0.0380952
        k(   28) = (   0.2000000   0.5003702   0.5424315), wk =   0.0380952
        k(   29) = (   0.2000000  -0.4618802   0.0000000), wk =   0.0190476
        k(   30) = (   0.2000000  -0.4618802   0.1808105), wk =   0.0380952
        k(   31) = (   0.2000000  -0.4618802   0.3616210), wk =   0.0380952
        k(   32) = (   0.2000000  -0.4618802   0.5424315), wk =   0.0380952
        k(   33) = (   0.2000000  -0.2694301   0.0000000), wk =   0.0190476
        k(   34) = (   0.2000000  -0.2694301   0.1808105), wk =   0.0380952
        k(   35) = (   0.2000000  -0.2694301   0.3616210), wk =   0.0380952
        k(   36) = (   0.2000000  -0.2694301   0.5424315), wk =   0.0380952
        k(   37) = (   0.2000000  -0.0769800   0.0000000), wk =   0.0190476
        k(   38) = (   0.2000000  -0.0769800   0.1808105), wk =   0.0380952
        k(   39) = (   0.2000000  -0.0769800   0.3616210), wk =   0.0380952
        k(   40) = (   0.2000000  -0.0769800   0.5424315), wk =   0.0380952
        k(   41) = (   0.4000000   0.2309401   0.0000000), wk =   0.0190476
        k(   42) = (   0.4000000   0.2309401   0.1808105), wk =   0.0380952
        k(   43) = (   0.4000000   0.2309401   0.3616210), wk =   0.0380952
        k(   44) = (   0.4000000   0.2309401   0.5424315), wk =   0.0380952
        k(   45) = (   0.4000000   0.4233902   0.0000000), wk =   0.0190476
        k(   46) = (   0.4000000   0.4233902   0.1808105), wk =   0.0380952
        k(   47) = (   0.4000000   0.4233902   0.3616210), wk =   0.0380952
        k(   48) = (   0.4000000   0.4233902   0.5424315), wk =   0.0380952
        k(   49) = (   0.4000000   0.6158403   0.0000000), wk =   0.0190476
        k(   50) = (   0.4000000   0.6158403   0.1808105), wk =   0.0380952
        k(   51) = (   0.4000000   0.6158403   0.3616210), wk =   0.0380952
        k(   52) = (   0.4000000   0.6158403   0.5424315), wk =   0.0380952
        k(   53) = (   0.4000000  -0.3464102   0.0000000), wk =   0.0190476
        k(   54) = (   0.4000000  -0.3464102   0.1808105), wk =   0.0380952
        k(   55) = (   0.4000000  -0.3464102   0.3616210), wk =   0.0380952
        k(   56) = (   0.4000000  -0.3464102   0.5424315), wk =   0.0380952
        k(   57) = (   0.4000000  -0.1539601   0.0000000), wk =   0.0190476
        k(   58) = (   0.4000000  -0.1539601   0.1808105), wk =   0.0380952
        k(   59) = (   0.4000000  -0.1539601   0.3616210), wk =   0.0380952
        k(   60) = (   0.4000000  -0.1539601   0.5424315), wk =   0.0380952
        k(   61) = (   0.4000000   0.0384900   0.0000000), wk =   0.0190476
        k(   62) = (   0.4000000   0.0384900   0.1808105), wk =   0.0380952
        k(   63) = (   0.4000000   0.0384900   0.3616210), wk =   0.0380952
        k(   64) = (   0.4000000   0.0384900   0.5424315), wk =   0.0380952

     Largest allocated arrays     est. size (Mb)     dimensions
     Largest temporary arrays     est. size (Mb)     dimensions

     Initial potential from superposition of free atoms

     Starting from uniform charge
     Starting wfc are    0 randomized atomic wfcs

     Self-consistent Calculation

     iteration #  1     ecut=    40.00 Ry     beta=0.70
     CG style diagonalization
     c_bands:  2 eigenvalues not converged
     c_bands:  4 eigenvalues not converged
     c_bands:  1 eigenvalues not converged
     c_bands:  2 eigenvalues not converged
     c_bands:  3 eigenvalues not converged
     c_bands:  1 eigenvalues not converged
     c_bands:  2 eigenvalues not converged
     c_bands:  2 eigenvalues not converged
     c_bands:  4 eigenvalues not converged
     c_bands:  1 eigenvalues not converged
     c_bands:  1 eigenvalues not converged
     c_bands:  3 eigenvalues not converged
     c_bands:  5 eigenvalues not converged
     c_bands:  1 eigenvalues not converged
     c_bands:  3 eigenvalues not converged
     c_bands:  3 eigenvalues not converged
     c_bands:  1 eigenvalues not converged
     c_bands:  1 eigenvalues not converged
     c_bands:  1 eigenvalues not converged
     c_bands:  3 eigenvalues not converged
     c_bands:  2 eigenvalues not converged
     c_bands:  1 eigenvalues not converged
     c_bands:  4 eigenvalues not converged
     c_bands:  2 eigenvalues not converged
     c_bands:  2 eigenvalues not converged
     c_bands:  4 eigenvalues not converged
     c_bands:  1 eigenvalues not converged
     c_bands:  1 eigenvalues not converged
     c_bands:  4 eigenvalues not converged
     c_bands:  2 eigenvalues not converged
     c_bands:  2 eigenvalues not converged
     c_bands:  5 eigenvalues not converged
     c_bands:  2 eigenvalues not converged
     c_bands:  1 eigenvalues not converged
     c_bands:  1 eigenvalues not converged
     c_bands:  1 eigenvalues not converged
     c_bands:  3 eigenvalues not converged
     c_bands:  1 eigenvalues not converged
     c_bands:  1 eigenvalues not converged
     c_bands:  4 eigenvalues not converged
     c_bands:  5 eigenvalues not converged
     c_bands:  4 eigenvalues not converged
     c_bands:  1 eigenvalues not converged
     c_bands:  1 eigenvalues not converged
     c_bands:  2 eigenvalues not converged
     c_bands:  3 eigenvalues not converged
     c_bands:  1 eigenvalues not converged
     c_bands:  1 eigenvalues not converged
     c_bands:  1 eigenvalues not converged
     c_bands:  2 eigenvalues not converged
[...]
        k(   16) = (   0.0000000  -0.5991139   0.5571605), wk =   0.0190476
        k(   17) = (   0.2075391   0.1198228   0.0000000), wk =   0.0190476
        k(   18) = (   0.2075391   0.1198228   0.1857202), wk =   0.0380952
        k(   19) = (   0.2075391   0.1198228   0.3714404), wk =   0.0380952
        k(   20) = (   0.2075391   0.1198228   0.5571605), wk =   0.0380952
        k(   21) = (   0.2075391   0.3195274   0.0000000), wk =   0.0190476
        k(   22) = (   0.2075391   0.3195274   0.1857202), wk =   0.0380952
        k(   23) = (   0.2075391   0.3195274   0.3714404), wk =   0.0380952
        k(   24) = (   0.2075391   0.3195274   0.5571605), wk =   0.0380952
        k(   25) = (   0.2075391   0.5192320   0.0000000), wk =   0.0190476
        k(   26) = (   0.2075391   0.5192320   0.1857202), wk =   0.0380952
        k(   27) = (   0.2075391   0.5192320   0.3714404), wk =   0.0380952
        k(   28) = (   0.2075391   0.5192320   0.5571605), wk =   0.0380952
        k(   29) = (   0.2075391  -0.4792911   0.0000000), wk =   0.0190476
        k(   30) = (   0.2075391  -0.4792911   0.1857202), wk =   0.0380952
        k(   31) = (   0.2075391  -0.4792911   0.3714404), wk =   0.0380952
        k(   32) = (   0.2075391  -0.4792911   0.5571605), wk =   0.0380952
        k(   33) = (   0.2075391  -0.2795865   0.0000000), wk =   0.0190476
        k(   34) = (   0.2075391  -0.2795865   0.1857202), wk =   0.0380952
        k(   35) = (   0.2075391  -0.2795865   0.3714404), wk =   0.0380952
        k(   36) = (   0.2075391  -0.2795865   0.5571605), wk =   0.0380952
        k(   37) = (   0.2075391  -0.0798819   0.0000000), wk =   0.0190476
        k(   38) = (   0.2075391  -0.0798819   0.1857202), wk =   0.0380952
        k(   39) = (   0.2075391  -0.0798819   0.3714404), wk =   0.0380952
        k(   40) = (   0.2075391  -0.0798819   0.5571605), wk =   0.0380952
        k(   41) = (   0.4150783   0.2396456   0.0000000), wk =   0.0190476
        k(   42) = (   0.4150783   0.2396456   0.1857202), wk =   0.0380952
        k(   43) = (   0.4150783   0.2396456   0.3714404), wk =   0.0380952
        k(   44) = (   0.4150783   0.2396456   0.5571605), wk =   0.0380952
        k(   45) = (   0.4150783   0.4393502   0.0000000), wk =   0.0190476
        k(   46) = (   0.4150783   0.4393502   0.1857202), wk =   0.0380952
        k(   47) = (   0.4150783   0.4393502   0.3714404), wk =   0.0380952
        k(   48) = (   0.4150783   0.4393502   0.5571605), wk =   0.0380952
        k(   49) = (   0.4150783   0.6390548   0.0000000), wk =   0.0190476
        k(   50) = (   0.4150783   0.6390548   0.1857202), wk =   0.0380952
        k(   51) = (   0.4150783   0.6390548   0.3714404), wk =   0.0380952
        k(   52) = (   0.4150783   0.6390548   0.5571605), wk =   0.0380952
        k(   53) = (   0.4150783  -0.3594683   0.0000000), wk =   0.0190476
        k(   54) = (   0.4150783  -0.3594683   0.1857202), wk =   0.0380952
        k(   55) = (   0.4150783  -0.3594683   0.3714404), wk =   0.0380952
        k(   56) = (   0.4150783  -0.3594683   0.5571605), wk =   0.0380952
        k(   57) = (   0.4150783  -0.1597637   0.0000000), wk =   0.0190476
        k(   58) = (   0.4150783  -0.1597637   0.1857202), wk =   0.0380952
        k(   59) = (   0.4150783  -0.1597637   0.3714404), wk =   0.0380952
        k(   60) = (   0.4150783  -0.1597637   0.5571605), wk =   0.0380952
        k(   61) = (   0.4150783   0.0399409   0.0000000), wk =   0.0190476
        k(   62) = (   0.4150783   0.0399409   0.1857202), wk =   0.0380952
        k(   63) = (   0.4150783   0.0399409   0.3714404), wk =   0.0380952
        k(   64) = (   0.4150783   0.0399409   0.5571605), wk =   0.0380952

[...]

     Threshold (ethr) on eigenvalues was too large:
     Diagonalizing with lowered threshold

     CG style diagonalization
     ethr =  1.43E-08,  avg # of iterations =  3.5

[...]

     The maximum number of steps has been reached.

     End of BFGS Geometry Optimization
Begin final coordinates
     new unit-cell volume =   1073.49526 a.u.^3 (   159.07558 Ang^3 )

CELL_PARAMETERS (alat= 12.01680127)
   0.963673674   0.000000000   0.000000000
  -0.481836837   0.834565883   0.000000000
   0.000000000   0.000000000   0.769206369

ATOMIC_POSITIONS (crystal)
Mg       0.665454641   0.832727321   0.250000000
Mg       0.832727321   0.167272679   0.750000000
Mg       0.334545359   0.167272679   0.750000000
Mg       0.167272679   0.832727321   0.250000000
Mg       0.167272679   0.334545359   0.250000000
Mg       0.832727321   0.665454641   0.750000000
Cd       0.666667000   0.333333000   0.250000000
Cd       0.333333000   0.666667000   0.750000000
End final coordinates

     A final scf calculation at the relaxed structure.
     The G-vectors are recalculated for the final unit cell
     Results may differ from those at the preceding step.

     bravais-lattice index     =            0
     lattice parameter (alat)  =      12.0168  a.u.
     unit-cell volume          =    1073.4953 (a.u.)^3
     number of atoms/cell      =            8
     number of atomic types    =            2
     number of electrons       =       166.00
     number of Kohn-Sham states=          100
     kinetic-energy cutoff     =      40.0000  Ry
     charge density cutoff     =     160.0000  Ry
     convergence threshold     =      1.0E-04
     mixing beta               =       0.7000
     number of iterations used =            8  plain     mixing
     Exchange-correlation      = SLA-PZ-NOGX-NOGC ( 1 1 0 0 0)
     EXX-fraction              =        0.00

     celldm(1)=  12.016801  celldm(2)=   0.000000  celldm(3)=   0.000000
     celldm(4)=   0.000000  celldm(5)=   0.000000  celldm(6)=   0.000000

     crystal axes: (cart. coord. in units of alat)
               a(1) = (   0.963674   0.000000   0.000000 )
               a(2) = (  -0.481837   0.834566   0.000000 )
               a(3) = (   0.000000   0.000000   0.769206 )

     reciprocal axes: (cart. coord. in units 2 pi/alat)
               b(1) = (  1.037696  0.599114  0.000000 )
               b(2) = (  0.000000  1.198228  0.000000 )
               b(3) = (  0.000000  0.000000  1.300041 )

     PseudoPot. # 1 for Ho read from file:
     /home/cwx6513/pp.La/Ho.UPF
     MD5 check sum: f307ee11bce99f5b724fa279e3790763
     Pseudo is Norm-conserving, Zval = 21.0
     Generated in analytical, separable form
     Using radial grid of 1265 points,  6 beta functions with:
                l(1) =   0
                l(2) =   0
                l(3) =   1
                l(4) =   1
                l(5) =   2
                l(6) =   3

     PseudoPot. # 2 for Dy read from file:
     /home/cwx6513/pp.La/Dy.UPF
     MD5 check sum: 9597327bec62616a94a14d07f3fd9936
     Pseudo is Norm-conserving, Zval = 20.0
     Generated in analytical, separable form
     Using radial grid of 1265 points,  6 beta functions with:
                l(1) =   0
                l(2) =   0
                l(3) =   1
                l(4) =   1
                l(5) =   2
                l(6) =   3

     atomic species   valence    mass     pseudopotential
        Mg            21.00    24.30500     Ho( 1.00)
        Cd            20.00   112.41100     Dy( 1.00)

     24 Sym. Ops., with inversion, found (12 have fractional translation)

   Cartesian axes

     site n.     atom                  positions (alat units)
         1           Mg  tau(   1) = (   0.2400424   0.6949658   0.1923016  )
         2           Mg  tau(   2) = (   0.7218793   0.1396001   0.5769048  )
         3           Mg  tau(   3) = (   0.2417944   0.1396001   0.5769048  )
         4           Mg  tau(   4) = (  -0.2400424   0.6949658   0.1923016  )
         5           Mg  tau(   5) = (   0.0000000   0.2792001   0.1923016  )
         6           Mg  tau(   6) = (   0.4818368   0.5553657   0.5769048  )
         7           Cd  tau(   7) = (   0.4818373   0.2781883   0.1923016  )
         8           Cd  tau(   8) = (  -0.0000005   0.5563775   0.5769048  )

     number of k points=    64  gaussian smearing, width (Ry)=  0.1000
                       cart. coord. in units 2pi/alat
        k(    1) = (   0.0000000   0.0000000   0.0000000), wk =   0.0095238
        k(    2) = (   0.0000000   0.0000000   0.1857202), wk =   0.0190476
        k(    3) = (   0.0000000   0.0000000   0.3714404), wk =   0.0190476
        k(    4) = (   0.0000000   0.0000000   0.5571605), wk =   0.0190476
        k(    5) = (   0.0000000   0.1997046   0.0000000), wk =   0.0190476
        k(    6) = (   0.0000000   0.1997046   0.1857202), wk =   0.0380952
        k(    7) = (   0.0000000   0.1997046   0.3714404), wk =   0.0380952
        k(    8) = (   0.0000000   0.1997046   0.5571605), wk =   0.0380952
        k(    9) = (   0.0000000   0.3994093   0.0000000), wk =   0.0190476
        k(   10) = (   0.0000000   0.3994093   0.1857202), wk =   0.0380952
        k(   11) = (   0.0000000   0.3994093   0.3714404), wk =   0.0380952
        k(   12) = (   0.0000000   0.3994093   0.5571605), wk =   0.0380952
        k(   13) = (   0.0000000  -0.5991139   0.0000000), wk =   0.0095238
        k(   14) = (   0.0000000  -0.5991139   0.1857202), wk =   0.0190476
        k(   15) = (   0.0000000  -0.5991139   0.3714404), wk =   0.0190476
        k(   16) = (   0.0000000  -0.5991139   0.5571605), wk =   0.0190476
        k(   17) = (   0.2075391   0.1198228   0.0000000), wk =   0.0190476
        k(   18) = (   0.2075391   0.1198228   0.1857202), wk =   0.0380952
        k(   19) = (   0.2075391   0.1198228   0.3714404), wk =   0.0380952
        k(   20) = (   0.2075391   0.1198228   0.5571605), wk =   0.0380952
        k(   21) = (   0.2075391   0.3195274   0.0000000), wk =   0.0190476
        k(   22) = (   0.2075391   0.3195274   0.1857202), wk =   0.0380952
        k(   23) = (   0.2075391   0.3195274   0.3714404), wk =   0.0380952
        k(   24) = (   0.2075391   0.3195274   0.5571605), wk =   0.0380952
        k(   25) = (   0.2075391   0.5192320   0.0000000), wk =   0.0190476
        k(   26) = (   0.2075391   0.5192320   0.1857202), wk =   0.0380952
        k(   27) = (   0.2075391   0.5192320   0.3714404), wk =   0.0380952
        k(   28) = (   0.2075391   0.5192320   0.5571605), wk =   0.0380952
        k(   29) = (   0.2075391  -0.4792911   0.0000000), wk =   0.0190476
        k(   30) = (   0.2075391  -0.4792911   0.1857202), wk =   0.0380952
        k(   31) = (   0.2075391  -0.4792911   0.3714404), wk =   0.0380952
        k(   32) = (   0.2075391  -0.4792911   0.5571605), wk =   0.0380952
        k(   33) = (   0.2075391  -0.2795865   0.0000000), wk =   0.0190476
        k(   34) = (   0.2075391  -0.2795865   0.1857202), wk =   0.0380952
        k(   35) = (   0.2075391  -0.2795865   0.3714404), wk =   0.0380952
        k(   36) = (   0.2075391  -0.2795865   0.5571605), wk =   0.0380952
        k(   37) = (   0.2075391  -0.0798819   0.0000000), wk =   0.0190476
        k(   38) = (   0.2075391  -0.0798819   0.1857202), wk =   0.0380952
        k(   39) = (   0.2075391  -0.0798819   0.3714404), wk =   0.0380952
        k(   40) = (   0.2075391  -0.0798819   0.5571605), wk =   0.0380952
        k(   41) = (   0.4150783   0.2396456   0.0000000), wk =   0.0190476
        k(   42) = (   0.4150783   0.2396456   0.1857202), wk =   0.0380952
        k(   43) = (   0.4150783   0.2396456   0.3714404), wk =   0.0380952
        k(   44) = (   0.4150783   0.2396456   0.5571605), wk =   0.0380952
        k(   45) = (   0.4150783   0.4393502   0.0000000), wk =   0.0190476
        k(   46) = (   0.4150783   0.4393502   0.1857202), wk =   0.0380952
        k(   47) = (   0.4150783   0.4393502   0.3714404), wk =   0.0380952
        k(   48) = (   0.4150783   0.4393502   0.5571605), wk =   0.0380952
        k(   49) = (   0.4150783   0.6390548   0.0000000), wk =   0.0190476
        k(   50) = (   0.4150783   0.6390548   0.1857202), wk =   0.0380952
        k(   51) = (   0.4150783   0.6390548   0.3714404), wk =   0.0380952
        k(   52) = (   0.4150783   0.6390548   0.5571605), wk =   0.0380952
        k(   53) = (   0.4150783  -0.3594683   0.0000000), wk =   0.0190476
        k(   54) = (   0.4150783  -0.3594683   0.1857202), wk =   0.0380952
        k(   55) = (   0.4150783  -0.3594683   0.3714404), wk =   0.0380952
        k(   56) = (   0.4150783  -0.3594683   0.5571605), wk =   0.0380952
        k(   57) = (   0.4150783  -0.1597637   0.0000000), wk =   0.0190476
        k(   58) = (   0.4150783  -0.1597637   0.1857202), wk =   0.0380952
        k(   59) = (   0.4150783  -0.1597637   0.3714404), wk =   0.0380952
        k(   60) = (   0.4150783  -0.1597637   0.5571605), wk =   0.0380952
        k(   61) = (   0.4150783   0.0399409   0.0000000), wk =   0.0190476
        k(   62) = (   0.4150783   0.0399409   0.1857202), wk =   0.0380952
        k(   63) = (   0.4150783   0.0399409   0.3714404), wk =   0.0380952
        k(   64) = (   0.4150783   0.0399409   0.5571605), wk =   0.0380952

     Largest allocated arrays     est. size (Mb)     dimensions
     Largest temporary arrays     est. size (Mb)     dimensions

     Initial potential from superposition of free atoms

     Starting from uniform charge
     Starting wfc are    0 randomized atomic wfcs

     Writing output data file Prototype-La-hP8-Mg3Cd.save

     Self-consistent Calculation

[...]

     iteration #  6     ecut=    40.00 Ry     beta=0.70
     CG style diagonalization
     ethr =  4.12E-04,  avg # of iterations =  3.8

[...]

     total energy              =   -2281.92082463 Ry
     Harris-Foulkes estimate   =   -2281.92103011 Ry
     estimated scf accuracy    <       0.00030186 Ry

     iteration # 10     ecut=    40.00 Ry     beta=0.70
     CG style diagonalization
     c_bands:  1 eigenvalues not converged
     c_bands:  1 eigenvalues not converged
     ethr =  1.82E-07,  avg # of iterations =  3.6

     End of self-consistent calculation

[...]

          k = 0.4151 0.0399 0.5572 (  4580 PWs)   bands (ev):

   -64.7336 -64.7307 -64.7263 -64.7185 -64.7069 -64.7027 -55.8990 -55.8961
   -28.9994 -28.9896 -28.9798 -28.9719 -28.9546 -28.9473 -28.9229 -28.9015
   -28.8722 -28.8708 -28.8681 -28.8603 -28.8360 -28.8314 -28.8244 -28.8239
   -28.8153 -28.8101 -22.8612 -22.8571 -22.8429 -22.8377 -22.8357 -22.8350
    13.4729  13.5166  13.6599  13.6792  13.7088  13.8354  13.8476  13.9483
    13.9767  14.0292  14.2209  14.3515  14.5273  14.5751  14.5831  14.7066
    14.7437  14.9374  14.9800  15.2138  15.2460  15.2800  15.4050  15.5252
    15.5359  15.5482  15.8618  15.8996  16.2071  16.3659  16.7857  17.3238
    17.9426  18.0648  18.3201  18.3425  18.4099  18.4272  18.6144  18.7848
    18.9315  19.3369  20.4191  20.9062  21.6351  22.1126  24.3361  24.8116
    26.4203  26.9825  28.7735  29.3042  29.8305  30.1085  30.4055  31.2102
    32.2135  32.6433  33.2811  33.6514  33.7290  33.8295  33.9120  34.5251
    34.5762  34.7686  34.9894  35.1283

     the Fermi energy is    28.0848 ev

!    total energy              =   -2281.92089003 Ry
     Harris-Foulkes estimate   =   -2281.92092878 Ry
     estimated scf accuracy    <       0.00004544 Ry

     The total energy is the sum of the following terms:

     one-electron contribution =    -495.22700815 Ry
     hartree contribution      =     360.89496625 Ry
     xc contribution           =    -203.91758900 Ry
     ewald contribution        =   -1943.45809168 Ry
     smearing contrib. (-TS)   =      -0.21316745 Ry

     convergence has been achieved in  10 iterations

     Forces acting on atoms (Ry/au):

     atom    1 type  1   force =     0.00357555    0.00206434    0.00000000
     atom    2 type  1   force =     0.00357555   -0.00206434    0.00000000
     atom    3 type  1   force =    -0.00357555   -0.00206434    0.00000000
     atom    4 type  1   force =    -0.00357555    0.00206434    0.00000000
     atom    5 type  1   force =     0.00000000   -0.00412868    0.00000000
     atom    6 type  1   force =     0.00000000    0.00412868    0.00000000
     atom    7 type  2   force =     0.00000000    0.00000000    0.00000000
     atom    8 type  2   force =     0.00000000    0.00000000    0.00000000

     Total force =     0.010113     Total SCF correction =     0.000000

     entering subroutine stress ...

          total   stress  (Ry/bohr**3)                   (kbar)     P=   80.31
   0.00038803   0.00000000   0.00000000         57.08      0.00      0.00
   0.00000000   0.00038803   0.00000000          0.00     57.08      0.00
   0.00000000   0.00000000   0.00086172          0.00      0.00    126.76

     Writing output data file Prototype-La-hP8-Mg3Cd.save

     General routines

     Parallel routines

   This run was terminated on:   1:42:28  23Mar2018

   JOB DONE.