     Program PWSCF v.5.0.2 starts on 14Mar2018 at 12:13:34

     Current dimensions of program PWSCF are:
     Max number of different atomic species (ntypx) = 10
     Max number of k-points (npk) =  40000
     Max angular momentum in pseudopotentials (lmaxx) =  3
     Waiting for input...
     Reading input from standard input
               file Na.pbe-spn-kjpaw_psl.0.2.UPF: wavefunction(s)  2P 3P renormalized
               file Cl.pbe-n-kjpaw_psl.0.1.UPF: wavefunction(s)  3S 3P renormalized

     bravais-lattice index     =            0
     lattice parameter (alat)  =       6.6440  a.u.
     unit-cell volume          =     279.8595 (a.u.)^3
     number of atoms/cell      =            2
     number of atomic types    =            2
     number of electrons       =        16.00
     number of Kohn-Sham states=            8
     kinetic-energy cutoff     =      60.0000  Ry
     charge density cutoff     =     240.0000  Ry
     convergence threshold     =      1.0E-08
     mixing beta               =       0.7000
     number of iterations used =            8  plain     mixing
     Exchange-correlation      =  SLA  PW   PBX  PBC ( 1 4 3 4 0)
     EXX-fraction              =        0.00
     nstep                     =           50

     celldm(1)=   6.644019  celldm(2)=   0.000000  celldm(3)=   0.000000
     celldm(4)=   0.000000  celldm(5)=   0.000000  celldm(6)=   0.000000

     crystal axes: (cart. coord. in units of alat)
               a(1) = (   1.000000   0.000000   0.000000 )
               a(2) = (   0.774489   0.970445   0.000000 )
               a(3) = (  -0.000002  -0.000045   0.983279 )

     reciprocal axes: (cart. coord. in units 2 pi/alat)
               b(1) = (  1.000000 -0.798077 -0.000035 )
               b(2) = (  0.000000  1.030455  0.000048 )
               b(3) = (  0.000000  0.000000  1.017005 )

     PseudoPot. # 1 for Na read from file:
     /projects/e20438/bin/espresso/pseudo/Na.pbe-spn-kjpaw_psl.0.2.UPF
     MD5 check sum: af6cebf537ceac8ff9d4cdfd6fc7ff14
     Pseudo is Projector augmented-wave, Zval =  9.0
     Generated using "atomic" code by A. Dal Corso  v.5.0.2 svn rev. 9415
     Shape of augmentation charge: PSQ
     Using radial grid of 1121 points,  4 beta functions with:
                l(1) =   0
                l(2) =   0
                l(3) =   1
                l(4) =   1
     Q(r) pseudized with 0 coefficients

     PseudoPot. # 2 for Cl read from file:
     /projects/e20438/bin/espresso/pseudo/Cl.pbe-n-kjpaw_psl.0.1.UPF
     MD5 check sum: 39501d8aaca1fada178cfed307344fc1
     Pseudo is Projector augmented-wave + core cor, Zval =  7.0
     Generated using "atomic" code by A. Dal Corso  v.5.0.2 svn rev. 9415
     Shape of augmentation charge: PSQ
     Using radial grid of 1157 points,  4 beta functions with:
                l(1) =   0
                l(2) =   0
                l(3) =   1
                l(4) =   1
     Q(r) pseudized with 0 coefficients

     atomic species   valence    mass     pseudopotential
        Na             9.00    22.98977     Na( 1.00)
        Cl             7.00    35.45270     Cl( 1.00)

     No symmetry found

   Cartesian axes

     site n.     atom                  positions (alat units)
         1           Na  tau(   1) = (   1.2058136   0.4584297   0.2839037  )
         2           Cl  tau(   2) = (   0.7058134   0.8536196   0.7755607  )

     number of k points=    62
                       cart. coord. in units 2pi/alat
        k(    1) = (   0.0000000   0.0000000   0.0000000), wk =   0.0166667
        k(    2) = (   0.0000000   0.0000000   0.1695009), wk =   0.0333333
        k(    3) = (   0.0000000   0.0000000   0.3390018), wk =   0.0333333
        k(    4) = (   0.0000000   0.0000000  -0.5085027), wk =   0.0166667
        k(    5) = (   0.0000000   0.2060911   0.0000095), wk =   0.0333333
        k(    6) = (   0.0000000   0.2060911   0.1695105), wk =   0.0333333
        k(    7) = (   0.0000000   0.2060911   0.3390114), wk =   0.0333333
        k(    8) = (   0.0000000   0.2060911  -0.5084932), wk =   0.0333333
        k(    9) = (   0.0000000   0.2060911  -0.3389923), wk =   0.0333333
        k(   10) = (   0.0000000   0.2060911  -0.1694914), wk =   0.0333333
        k(   11) = (   0.0000000   0.4121822   0.0000191), wk =   0.0333333
        k(   12) = (   0.0000000   0.4121822   0.1695200), wk =   0.0333333
        k(   13) = (   0.0000000   0.4121822   0.3390209), wk =   0.0333333
        k(   14) = (   0.0000000   0.4121822  -0.5084837), wk =   0.0333333
        k(   15) = (   0.0000000   0.4121822  -0.3389828), wk =   0.0333333
        k(   16) = (   0.0000000   0.4121822  -0.1694818), wk =   0.0333333
        k(   17) = (   0.2500000  -0.1995192  -0.0000088), wk =   0.0333333
        k(   18) = (   0.2500000  -0.1995192   0.1694922), wk =   0.0333333
        k(   19) = (   0.2500000  -0.1995192   0.3389931), wk =   0.0333333
        k(   20) = (   0.2500000  -0.1995192  -0.5085115), wk =   0.0333333
        k(   21) = (   0.2500000  -0.1995192  -0.3390106), wk =   0.0333333
        k(   22) = (   0.2500000  -0.1995192  -0.1695097), wk =   0.0333333
        k(   23) = (   0.2500000   0.0065719   0.0000008), wk =   0.0333333
        k(   24) = (   0.2500000   0.0065719   0.1695017), wk =   0.0333333
        k(   25) = (   0.2500000   0.0065719   0.3390026), wk =   0.0333333
        k(   26) = (   0.2500000   0.0065719  -0.5085020), wk =   0.0333333
        k(   27) = (   0.2500000   0.0065719  -0.3390011), wk =   0.0333333
        k(   28) = (   0.2500000   0.0065719  -0.1695001), wk =   0.0333333
        k(   29) = (   0.2500000   0.2126630   0.0000103), wk =   0.0333333
        k(   30) = (   0.2500000   0.2126630   0.1695112), wk =   0.0333333
        k(   31) = (   0.2500000   0.2126630   0.3390122), wk =   0.0333333
        k(   32) = (   0.2500000   0.2126630  -0.5084924), wk =   0.0333333
        k(   33) = (   0.2500000   0.2126630  -0.3389915), wk =   0.0333333
        k(   34) = (   0.2500000   0.2126630  -0.1694906), wk =   0.0333333
        k(   35) = (   0.2500000  -0.6117014  -0.0000278), wk =   0.0333333
        k(   36) = (   0.2500000  -0.6117014   0.1694731), wk =   0.0333333
        k(   37) = (   0.2500000  -0.6117014   0.3389740), wk =   0.0333333
        k(   38) = (   0.2500000  -0.6117014  -0.5085306), wk =   0.0333333
        k(   39) = (   0.2500000  -0.6117014  -0.3390297), wk =   0.0333333
        k(   40) = (   0.2500000  -0.6117014  -0.1695287), wk =   0.0333333
        k(   41) = (   0.2500000  -0.4056103  -0.0000183), wk =   0.0333333
        k(   42) = (   0.2500000  -0.4056103   0.1694826), wk =   0.0333333
        k(   43) = (   0.2500000  -0.4056103   0.3389835), wk =   0.0333333
        k(   44) = (   0.2500000  -0.4056103  -0.5085210), wk =   0.0333333
        k(   45) = (   0.2500000  -0.4056103  -0.3390201), wk =   0.0333333
        k(   46) = (   0.2500000  -0.4056103  -0.1695192), wk =   0.0333333
        k(   47) = (  -0.5000000   0.3990384   0.0000175), wk =   0.0166667
        k(   48) = (  -0.5000000   0.3990384   0.1695184), wk =   0.0333333
        k(   49) = (  -0.5000000   0.3990384   0.3390193), wk =   0.0333333
        k(   50) = (  -0.5000000   0.3990384  -0.5084852), wk =   0.0166667
        k(   51) = (  -0.5000000   0.6051295   0.0000270), wk =   0.0333333
        k(   52) = (  -0.5000000   0.6051295   0.1695280), wk =   0.0333333
        k(   53) = (  -0.5000000   0.6051295   0.3390289), wk =   0.0333333
        k(   54) = (  -0.5000000   0.6051295  -0.5084757), wk =   0.0333333
        k(   55) = (  -0.5000000   0.6051295  -0.3389748), wk =   0.0333333
        k(   56) = (  -0.5000000   0.6051295  -0.1694739), wk =   0.0333333
        k(   57) = (  -0.5000000   0.8112206   0.0000366), wk =   0.0333333
        k(   58) = (  -0.5000000   0.8112206   0.1695375), wk =   0.0333333
        k(   59) = (  -0.5000000   0.8112206   0.3390384), wk =   0.0333333
        k(   60) = (  -0.5000000   0.8112206  -0.5084662), wk =   0.0333333
        k(   61) = (  -0.5000000   0.8112206  -0.3389652), wk =   0.0333333
        k(   62) = (  -0.5000000   0.8112206  -0.1694643), wk =   0.0333333

     Largest allocated arrays     est. size (Mb)     dimensions
     Largest temporary arrays     est. size (Mb)     dimensions

     Check: negative/imaginary core charge=   -0.000006    0.000000

     Initial potential from superposition of free atoms

     starting charge   15.49915, renormalised to   16.00000
     Starting wfc are   12 randomized atomic wfcs
     Checking if some PAW data can be deallocated...

     Self-consistent Calculation

     iteration #  1     ecut=    60.00 Ry     beta=0.70
     CG style diagonalization
     ethr =  1.00E-02,  avg # of iterations =  2.0

     total energy              =    -188.74437240 Ry
     Harris-Foulkes estimate   =    -188.90513510 Ry
     estimated scf accuracy    <       0.19290479 Ry

[...]

     iteration #  7     ecut=    60.00 Ry     beta=0.70
     CG style diagonalization
     c_bands:  1 eigenvalues not converged
     ethr =  1.60E-07,  avg # of iterations =  7.3

[...]

     End of self-consistent calculation

          k = 0.0000 0.0000 0.0000 (  2189 PWs)   bands (ev):

   -47.3927 -19.3104 -19.2901 -19.2858 -10.9971   1.7114   1.9614   2.1966

[...]

          k =-0.5000 0.3990 0.0000 (  2172 PWs)   bands (ev):

[...]

!    total energy              =    -188.82966586 Ry
     Harris-Foulkes estimate   =    -188.82966587 Ry
     estimated scf accuracy    <          7.4E-09 Ry

     total all-electron energy =     -1248.116658 Ry

     The total energy is the sum of the following terms:

     one-electron contribution =     -77.17199364 Ry
     hartree contribution      =      40.73669404 Ry
     xc contribution           =     -24.70065827 Ry
     ewald contribution        =     -71.07132516 Ry
     one-center paw contrib.   =     -56.62238283 Ry

     convergence has been achieved in  20 iterations

     Forces acting on atoms (Ry/au):

     atom    1 type  1   force =     0.00022134   -0.00023862    0.00000344
     atom    2 type  2   force =    -0.00022134    0.00023862   -0.00000344

     Total force =     0.000460     Total SCF correction =     0.000030

     entering subroutine stress ...

          total   stress  (Ry/bohr**3)                   (kbar)     P=   27.44
   0.00019688  -0.00008163   0.00000001         28.96    -12.01      0.00
  -0.00008163   0.00016998   0.00000003        -12.01     25.01      0.01
   0.00000001   0.00000003   0.00019272          0.00      0.01     28.35

     BFGS Geometry Optimization

     number of scf cycles    =   1
     number of bfgs steps    =   0

     enthalpy new            =    -188.8296658580 Ry

     new trust radius        =       0.0178276836 bohr
     new conv_thr            =       0.0000000100 Ry

     new unit-cell volume =    283.79174 a.u.^3 (    42.05360 Ang^3 )

CELL_PARAMETERS (alat=  6.64401868)
   1.004922117  -0.002040677   0.000000179
   0.776321210   0.972988217   0.000000988
  -0.000001615  -0.000044829   0.988016395

ATOMIC_POSITIONS (crystal)
Na       0.840003514   0.472367889   0.288732116
[...]

     new unit-cell volume =    318.79335 a.u.^3 (    47.24030 Ang^3 )

[...]

ATOMIC_POSITIONS (crystal)
Na       0.765603519   0.509287752   0.288893816
Cl       0.098870212   0.842771023   0.788587241

     Writing output data file NaCl_pegs+pwscf.save
     NEW-OLD atomic charge density approx. for the potential
     NEW k-points:
        k(    1) = (   0.0000000   0.0000000   0.0000000), wk =   0.0166667
        k(    2) = (  -0.0000230   0.0000136   0.1635268), wk =   0.0333333
        k(    3) = (  -0.0000459   0.0000273   0.3270536), wk =   0.0333333
        k(    4) = (   0.0000689  -0.0000409  -0.4905804), wk =   0.0166667
        k(    5) = (   0.0307890   0.2058468   0.0000295), wk =   0.0333333
        k(    6) = (   0.0307660   0.2058604   0.1635563), wk =   0.0333333
        k(    7) = (   0.0307430   0.2058740   0.3270832), wk =   0.0333333
        k(    8) = (   0.0308578   0.2058059  -0.4905509), wk =   0.0333333
        k(    9) = (   0.0308349   0.2058195  -0.3270241), wk =   0.0333333
        k(   10) = (   0.0308119   0.2058331  -0.1634973), wk =   0.0333333
        k(   11) = (   0.0615779   0.4116936   0.0000590), wk =   0.0333333
        k(   12) = (   0.0615550   0.4117072   0.1635859), wk =   0.0333333
        k(   13) = (   0.0615320   0.4117208   0.3271127), wk =   0.0333333
        k(   14) = (   0.0616468   0.4116526  -0.4905214), wk =   0.0333333
        k(   15) = (   0.0616238   0.4116663  -0.3269946), wk =   0.0333333
        k(   16) = (   0.0616009   0.4116799  -0.1634678), wk =   0.0333333
        k(   17) = (   0.2035034  -0.1621438  -0.0000682), wk =   0.0333333
        k(   18) = (   0.2034804  -0.1621302   0.1634586), wk =   0.0333333
        k(   19) = (   0.2034574  -0.1621166   0.3269855), wk =   0.0333333
        k(   20) = (   0.2035722  -0.1621847  -0.4906486), wk =   0.0333333
        k(   21) = (   0.2035493  -0.1621711  -0.3271218), wk =   0.0333333
        k(   22) = (   0.2035263  -0.1621575  -0.1635950), wk =   0.0333333
        k(   23) = (   0.2342923   0.0437029  -0.0000387), wk =   0.0333333
        k(   24) = (   0.2342694   0.0437166   0.1634882), wk =   0.0333333
        k(   25) = (   0.2342464   0.0437302   0.3270150), wk =   0.0333333
        k(   26) = (   0.2343612   0.0436620  -0.4906191), wk =   0.0333333
        k(   27) = (   0.2343382   0.0436757  -0.3270923), wk =   0.0333333
        k(   28) = (   0.2343153   0.0436893  -0.1635655), wk =   0.0333333
        k(   29) = (   0.2650813   0.2495497  -0.0000091), wk =   0.0333333
        k(   30) = (   0.2650583   0.2495634   0.1635177), wk =   0.0333333
        k(   31) = (   0.2650354   0.2495770   0.3270445), wk =   0.0333333
        k(   32) = (   0.2651501   0.2495088  -0.4905896), wk =   0.0333333
        k(   33) = (   0.2651272   0.2495225  -0.3270628), wk =   0.0333333
        k(   34) = (   0.2651042   0.2495361  -0.1635360), wk =   0.0333333
        k(   35) = (   0.1419254  -0.5738374  -0.0001272), wk =   0.0333333
        k(   36) = (   0.1419025  -0.5738237   0.1633996), wk =   0.0333333
        k(   37) = (   0.1418795  -0.5738101   0.3269264), wk =   0.0333333
        k(   38) = (   0.1419943  -0.5738783  -0.4907077), wk =   0.0333333
        k(   39) = (   0.1419714  -0.5738647  -0.3271808), wk =   0.0333333
        k(   40) = (   0.1419484  -0.5738510  -0.1636540), wk =   0.0333333
        k(   41) = (   0.1727144  -0.3679906  -0.0000977), wk =   0.0333333
        k(   42) = (   0.1726914  -0.3679770   0.1634291), wk =   0.0333333
        k(   43) = (   0.1726685  -0.3679633   0.3269559), wk =   0.0333333
        k(   44) = (   0.1727833  -0.3680315  -0.4906781), wk =   0.0333333
        k(   45) = (   0.1727603  -0.3680179  -0.3271513), wk =   0.0333333
        k(   46) = (   0.1727374  -0.3680042  -0.1636245), wk =   0.0333333
        k(   47) = (  -0.4070067   0.3242877   0.0001364), wk =   0.0166667
        k(   48) = (  -0.4070297   0.3243013   0.1636632), wk =   0.0333333
        k(   49) = (  -0.4070526   0.3243149   0.3271900), wk =   0.0333333
        k(   50) = (  -0.4069378   0.3242467  -0.4904441), wk =   0.0166667
        k(   51) = (  -0.3762177   0.5301344   0.0001659), wk =   0.0333333
        k(   52) = (  -0.3762407   0.5301481   0.1636927), wk =   0.0333333
        k(   53) = (  -0.3762637   0.5301617   0.3272195), wk =   0.0333333
        k(   54) = (  -0.3761489   0.5300935  -0.4904146), wk =   0.0333333
        k(   55) = (  -0.3761718   0.5301072  -0.3268878), wk =   0.0333333
        k(   56) = (  -0.3761948   0.5301208  -0.1633609), wk =   0.0333333
        k(   57) = (  -0.3454288   0.7359812   0.0001954), wk =   0.0333333
        k(   58) = (  -0.3454517   0.7359948   0.1637222), wk =   0.0333333
        k(   59) = (  -0.3454747   0.7360085   0.3272490), wk =   0.0333333
        k(   60) = (  -0.3453599   0.7359403  -0.4903851), wk =   0.0333333
        k(   61) = (  -0.3453829   0.7359539  -0.3268582), wk =   0.0333333
        k(   62) = (  -0.3454058   0.7359676  -0.1633314), wk =   0.0333333

     Check: negative/imaginary core charge=   -0.000010    0.000000
     extrapolated charge   15.99465, renormalised to   16.00000

[...]

     Threshold (ethr) on eigenvalues was too large:
     Diagonalizing with lowered threshold

     CG style diagonalization
     ethr =  2.15E-08,  avg # of iterations =  3.8

[...]

     Total force =     0.000057     Total SCF correction =     0.000009
     SCF correction compared to forces is large: reduce conv_thr to get better values

[...]

     bfgs converged in  22 scf cycles and  21 bfgs steps
     (criteria: energy < 0.10E-03, force < 0.10E-02, cell < 0.50E+00)

     End of BFGS Geometry Optimization

     Final enthalpy =    -188.8407224713 Ry
Begin final coordinates
     new unit-cell volume =    318.79335 a.u.^3 (    47.24030 Ang^3 )

CELL_PARAMETERS (alat=  6.64401868)
   1.097668049  -0.164180667   0.000167793
   0.691699323   0.868137453   0.000024718
   0.000201034  -0.000176226   1.019200876

ATOMIC_POSITIONS (crystal)
Na       0.765603519   0.509287752   0.288893816
Cl       0.098870212   0.842771023   0.788587241
End final coordinates

     A final scf calculation at the relaxed structure.
     The G-vectors are recalculated for the final unit cell
     Results may differ from those at the preceding step.

     bravais-lattice index     =            0
     lattice parameter (alat)  =       6.6440  a.u.
     unit-cell volume          =     318.7934 (a.u.)^3
     number of atoms/cell      =            2
     number of atomic types    =            2
     number of electrons       =        16.00
     number of Kohn-Sham states=            8
     kinetic-energy cutoff     =      60.0000  Ry
     charge density cutoff     =     240.0000  Ry
     convergence threshold     =      1.0E-10
     mixing beta               =       0.7000
     number of iterations used =            8  plain     mixing
     Exchange-correlation      =  SLA  PW   PBX  PBC ( 1 4 3 4 0)
     EXX-fraction              =        0.00

     celldm(1)=   6.644019  celldm(2)=   0.000000  celldm(3)=   0.000000
     celldm(4)=   0.000000  celldm(5)=   0.000000  celldm(6)=   0.000000

     crystal axes: (cart. coord. in units of alat)
               a(1) = (   1.097668  -0.164181   0.000168 )
               a(2) = (   0.691699   0.868137   0.000025 )
               a(3) = (   0.000201  -0.000176   1.019201 )

     reciprocal axes: (cart. coord. in units 2 pi/alat)
               b(1) = (  0.814013 -0.648575 -0.000273 )
               b(2) = (  0.153945  1.029234  0.000148 )
               b(3) = ( -0.000138  0.000082  0.981161 )

     PseudoPot. # 1 for Na read from file:
     /projects/e20438/bin/espresso/pseudo/Na.pbe-spn-kjpaw_psl.0.2.UPF
     MD5 check sum: af6cebf537ceac8ff9d4cdfd6fc7ff14
     Pseudo is Projector augmented-wave, Zval =  9.0
     Generated using "atomic" code by A. Dal Corso  v.5.0.2 svn rev. 9415
     Shape of augmentation charge: PSQ
     Using radial grid of 1121 points,  4 beta functions with:
                l(1) =   0
                l(2) =   0
                l(3) =   1
                l(4) =   1
     Q(r) pseudized with 0 coefficients

     PseudoPot. # 2 for Cl read from file:
     /projects/e20438/bin/espresso/pseudo/Cl.pbe-n-kjpaw_psl.0.1.UPF
     MD5 check sum: 39501d8aaca1fada178cfed307344fc1
     Pseudo is Projector augmented-wave + core cor, Zval =  7.0
     Generated using "atomic" code by A. Dal Corso  v.5.0.2 svn rev. 9415
     Shape of augmentation charge: PSQ
     Using radial grid of 1157 points,  4 beta functions with:
                l(1) =   0
                l(2) =   0
                l(3) =   1
                l(4) =   1
     Q(r) pseudized with 0 coefficients

     atomic species   valence    mass     pseudopotential
        Na             9.00    22.98977     Na( 1.00)
        Cl             7.00    35.45270     Cl( 1.00)

     No symmetry found

   Cartesian axes

     site n.     atom                  positions (alat units)
         1           Na  tau(   1) = (   1.1927106   0.3163836   0.2945819  )
         2           Cl  tau(   2) = (   0.6916294   0.7152695   0.8037662  )

     number of k points=    62
                       cart. coord. in units 2pi/alat
        k(    1) = (   0.0000000   0.0000000   0.0000000), wk =   0.0166667
        k(    2) = (  -0.0000230   0.0000136   0.1635268), wk =   0.0333333
        k(    3) = (  -0.0000459   0.0000273   0.3270536), wk =   0.0333333
        k(    4) = (   0.0000689  -0.0000409  -0.4905804), wk =   0.0166667
        k(    5) = (   0.0307890   0.2058468   0.0000295), wk =   0.0333333
        k(    6) = (   0.0307660   0.2058604   0.1635563), wk =   0.0333333
        k(    7) = (   0.0307430   0.2058740   0.3270832), wk =   0.0333333
        k(    8) = (   0.0308578   0.2058059  -0.4905509), wk =   0.0333333
        k(    9) = (   0.0308349   0.2058195  -0.3270241), wk =   0.0333333
        k(   10) = (   0.0308119   0.2058331  -0.1634973), wk =   0.0333333
        k(   11) = (   0.0615779   0.4116936   0.0000590), wk =   0.0333333
        k(   12) = (   0.0615550   0.4117072   0.1635859), wk =   0.0333333
        k(   13) = (   0.0615320   0.4117208   0.3271127), wk =   0.0333333
        k(   14) = (   0.0616468   0.4116526  -0.4905214), wk =   0.0333333
        k(   15) = (   0.0616238   0.4116663  -0.3269946), wk =   0.0333333
        k(   16) = (   0.0616009   0.4116799  -0.1634678), wk =   0.0333333
        k(   17) = (   0.2035034  -0.1621438  -0.0000682), wk =   0.0333333
        k(   18) = (   0.2034804  -0.1621302   0.1634586), wk =   0.0333333
        k(   19) = (   0.2034574  -0.1621166   0.3269855), wk =   0.0333333
        k(   20) = (   0.2035722  -0.1621847  -0.4906486), wk =   0.0333333
        k(   21) = (   0.2035493  -0.1621711  -0.3271218), wk =   0.0333333
        k(   22) = (   0.2035263  -0.1621575  -0.1635950), wk =   0.0333333
        k(   23) = (   0.2342923   0.0437029  -0.0000387), wk =   0.0333333
        k(   24) = (   0.2342694   0.0437166   0.1634882), wk =   0.0333333
        k(   25) = (   0.2342464   0.0437302   0.3270150), wk =   0.0333333
        k(   26) = (   0.2343612   0.0436620  -0.4906191), wk =   0.0333333
        k(   27) = (   0.2343382   0.0436757  -0.3270923), wk =   0.0333333
        k(   28) = (   0.2343153   0.0436893  -0.1635655), wk =   0.0333333
        k(   29) = (   0.2650813   0.2495497  -0.0000091), wk =   0.0333333
        k(   30) = (   0.2650583   0.2495634   0.1635177), wk =   0.0333333
        k(   31) = (   0.2650354   0.2495770   0.3270445), wk =   0.0333333
        k(   32) = (   0.2651501   0.2495088  -0.4905896), wk =   0.0333333
        k(   33) = (   0.2651272   0.2495225  -0.3270628), wk =   0.0333333
        k(   34) = (   0.2651042   0.2495361  -0.1635360), wk =   0.0333333
        k(   35) = (   0.1419254  -0.5738374  -0.0001272), wk =   0.0333333
        k(   36) = (   0.1419025  -0.5738237   0.1633996), wk =   0.0333333
        k(   37) = (   0.1418795  -0.5738101   0.3269264), wk =   0.0333333
        k(   38) = (   0.1419943  -0.5738783  -0.4907077), wk =   0.0333333
        k(   39) = (   0.1419714  -0.5738647  -0.3271808), wk =   0.0333333
        k(   40) = (   0.1419484  -0.5738510  -0.1636540), wk =   0.0333333
        k(   41) = (   0.1727144  -0.3679906  -0.0000977), wk =   0.0333333
        k(   42) = (   0.1726914  -0.3679770   0.1634291), wk =   0.0333333
        k(   43) = (   0.1726685  -0.3679633   0.3269559), wk =   0.0333333
        k(   44) = (   0.1727833  -0.3680315  -0.4906781), wk =   0.0333333
        k(   45) = (   0.1727603  -0.3680179  -0.3271513), wk =   0.0333333
        k(   46) = (   0.1727374  -0.3680042  -0.1636245), wk =   0.0333333
        k(   47) = (  -0.4070067   0.3242877   0.0001364), wk =   0.0166667
        k(   48) = (  -0.4070297   0.3243013   0.1636632), wk =   0.0333333
        k(   49) = (  -0.4070526   0.3243149   0.3271900), wk =   0.0333333
        k(   50) = (  -0.4069378   0.3242467  -0.4904441), wk =   0.0166667
        k(   51) = (  -0.3762177   0.5301344   0.0001659), wk =   0.0333333
        k(   52) = (  -0.3762407   0.5301481   0.1636927), wk =   0.0333333
        k(   53) = (  -0.3762637   0.5301617   0.3272195), wk =   0.0333333
        k(   54) = (  -0.3761489   0.5300935  -0.4904146), wk =   0.0333333
        k(   55) = (  -0.3761718   0.5301072  -0.3268878), wk =   0.0333333
        k(   56) = (  -0.3761948   0.5301208  -0.1633609), wk =   0.0333333
        k(   57) = (  -0.3454288   0.7359812   0.0001954), wk =   0.0333333
        k(   58) = (  -0.3454517   0.7359948   0.1637222), wk =   0.0333333
        k(   59) = (  -0.3454747   0.7360085   0.3272490), wk =   0.0333333
        k(   60) = (  -0.3453599   0.7359403  -0.4903851), wk =   0.0333333
        k(   61) = (  -0.3453829   0.7359539  -0.3268582), wk =   0.0333333
        k(   62) = (  -0.3454058   0.7359676  -0.1633314), wk =   0.0333333

     Largest allocated arrays     est. size (Mb)     dimensions
     Largest temporary arrays     est. size (Mb)     dimensions

     Check: negative/imaginary core charge=   -0.000005    0.000000

     Initial potential from superposition of free atoms

     starting charge   15.49915, renormalised to   16.00000
     Starting wfc are   12 randomized atomic wfcs
     Checking if some PAW data can be deallocated...

     Writing output data file NaCl_pegs+pwscf.save

     Self-consistent Calculation

[...]

     iteration # 16     ecut=    60.00 Ry     beta=0.70
     CG style diagonalization
     ethr =  2.79E-11,  avg # of iterations =  4.8

     total energy              =    -188.84075379 Ry
     Harris-Foulkes estimate   =    -188.84075379 Ry
     estimated scf accuracy    <          1.2E-10 Ry

     iteration # 17     ecut=    60.00 Ry     beta=0.70
     CG style diagonalization
     c_bands:  1 eigenvalues not converged
     c_bands:  1 eigenvalues not converged
     c_bands:  1 eigenvalues not converged
     c_bands:  1 eigenvalues not converged
     c_bands:  1 eigenvalues not converged
     ethr =  7.78E-13,  avg # of iterations =  8.9

     End of self-consistent calculation

[...]

          k = 0.1727-0.3680-0.1636 (  2505 PWs)   bands (ev):

[...]

          k =-0.3454 0.7360-0.1633 (  2501 PWs)   bands (ev):

   -48.4374 -20.3738 -20.3586 -20.3356 -11.4969  -0.8432   0.3275   0.5053

!    total energy              =    -188.84075382 Ry
     Harris-Foulkes estimate   =    -188.84075380 Ry
     estimated scf accuracy    <          4.6E-12 Ry

     total all-electron energy =     -1248.127746 Ry

     The total energy is the sum of the following terms:

     one-electron contribution =     -83.55931809 Ry
     hartree contribution      =      43.30398846 Ry
     xc contribution           =     -24.66650709 Ry
     ewald contribution        =     -67.29994184 Ry
     one-center paw contrib.   =     -56.61897526 Ry

     convergence has been achieved in  17 iterations

     Forces acting on atoms (Ry/au):

     atom    1 type  1   force =     0.00000361    0.00000545   -0.00000806
     atom    2 type  2   force =    -0.00000361   -0.00000545    0.00000806

     Total force =     0.000015     Total SCF correction =     0.000001

     entering subroutine stress ...

          total   stress  (Ry/bohr**3)                   (kbar)     P=   -0.10
  -0.00000205  -0.00000076  -0.00000012         -0.30     -0.11     -0.02
  -0.00000076  -0.00000252   0.00000008         -0.11     -0.37      0.01
  -0.00000012   0.00000008   0.00000248         -0.02      0.01      0.36

     Writing output data file NaCl_pegs+pwscf.save

     General routines

     Parallel routines

     PAW routines

   This run was terminated on:  12:20: 5  14Mar2018

   JOB DONE.