     Program PWSCF v.5.0.2 starts on 23Mar2018 at  2:16:44

     Current dimensions of program PWSCF are:
     Max number of different atomic species (ntypx) = 10
     Max number of k-points (npk) =  40000
     Max angular momentum in pseudopotentials (lmaxx) =  3
     Waiting for input...
     Reading input from standard input

     Subspace diagonalization in iterative solution of the eigenvalue problem:
     a serial algorithm will be used

     bravais-lattice index     =            0
     lattice parameter (alat)  =       9.9235  a.u.
     unit-cell volume          =    1361.0366 (a.u.)^3
     number of atoms/cell      =           12
     number of atomic types    =            2
     number of electrons       =       176.00
     number of Kohn-Sham states=          106
     kinetic-energy cutoff     =      40.0000  Ry
     charge density cutoff     =     160.0000  Ry
     convergence threshold     =      1.0E-04
     mixing beta               =       0.7000
     number of iterations used =            8  plain     mixing
     Exchange-correlation      = SLA-PZ-NOGX-NOGC ( 1 1 0 0 0)
     EXX-fraction              =        0.00
     nstep                     =           50

     celldm(1)=   9.923489  celldm(2)=   0.000000  celldm(3)=   0.000000
     celldm(4)=   0.000000  celldm(5)=   0.000000  celldm(6)=   0.000000

     crystal axes: (cart. coord. in units of alat)
               a(1) = (   1.000000   0.000000   0.000000 )
               a(2) = (  -0.500000   0.866025   0.000000 )
               a(3) = (   0.000000   0.000000   1.608222 )

     reciprocal axes: (cart. coord. in units 2 pi/alat)
               b(1) = (  1.000000  0.577350  0.000000 )
               b(2) = (  0.000000  1.154701  0.000000 )
               b(3) = (  0.000000  0.000000  0.621805 )

     PseudoPot. # 1 for Dy read from file:
     /home/cwx6513/pp.La/Dy.UPF
     MD5 check sum: 9597327bec62616a94a14d07f3fd9936
     Pseudo is Norm-conserving, Zval = 20.0
     Generated in analytical, separable form
     Using radial grid of 1265 points,  6 beta functions with:
                l(1) =   0
                l(2) =   0
                l(3) =   1
                l(4) =   1
                l(5) =   2
                l(6) =   3

     PseudoPot. # 2 for Ce read from file:
     /home/cwx6513/pp.La/Ce.UPF
     MD5 check sum: 44451aa79a44a00cf2bc029dc19922f6
     Pseudo is Norm-conserving, Zval = 12.0
     Generated in analytical, separable form
     Using radial grid of 1255 points,  6 beta functions with:
                l(1) =   0
                l(2) =   0
                l(3) =   1
                l(4) =   1
                l(5) =   2
                l(6) =   3

     atomic species   valence    mass     pseudopotential
        Mg            20.00    24.30500     Dy( 1.00)
        Zn            12.00    65.39000     Ce( 1.00)

     24 Sym. Ops., with inversion, found (12 have fractional translation)

   Cartesian axes

     site n.     atom                  positions (alat units)
         1           Mg  tau(   1) = (  -0.0000005   0.5773506   0.1003820  )
         2           Mg  tau(   2) = (   0.5000005   0.2886748   0.9044931  )
         3           Mg  tau(   3) = (   0.5000005   0.2886748   1.5078402  )
         4           Mg  tau(   4) = (  -0.0000005   0.5773506   0.7037291  )
         5           Zn  tau(   5) = (   0.0000000   0.0000000   0.0000000  )
         6           Zn  tau(   6) = (   0.0000000   0.0000000   0.8041111  )
         7           Zn  tau(   7) = (   0.0000000   0.2950739   1.2061667  )
         8           Zn  tau(   8) = (   0.7444585   0.1475370   0.4020556  )
         9           Zn  tau(   9) = (   0.2555415   0.1475370   0.4020556  )
        10           Zn  tau(  10) = (   0.2444585   0.7184884   1.2061667  )
        11           Zn  tau(  11) = (  -0.2444585   0.7184884   1.2061667  )
        12           Zn  tau(  12) = (   0.5000000   0.5709515   0.4020556  )

     number of k points=    12  gaussian smearing, width (Ry)=  0.1000
                       cart. coord. in units 2pi/alat
        k(    1) = (   0.0000000   0.0000000   0.0000000), wk =   0.0833333
        k(    2) = (   0.0000000   0.0000000   0.1554512), wk =   0.1666667
        k(    3) = (   0.0000000   0.0000000  -0.3109023), wk =   0.0833333
        k(    4) = (   0.0000000   0.3849002   0.0000000), wk =   0.1666667
        k(    5) = (   0.0000000   0.3849002   0.1554512), wk =   0.3333333
        k(    6) = (   0.0000000   0.3849002  -0.3109023), wk =   0.1666667
        k(    7) = (  -0.5000000  -0.2886751   0.0000000), wk =   0.0833333
        k(    8) = (  -0.5000000  -0.2886751   0.1554512), wk =   0.1666667
        k(    9) = (  -0.5000000  -0.2886751  -0.3109023), wk =   0.0833333
        k(   10) = (  -0.5000000   0.0962250   0.0000000), wk =   0.1666667
        k(   11) = (  -0.5000000   0.0962250   0.1554512), wk =   0.3333333
        k(   12) = (  -0.5000000   0.0962250  -0.3109023), wk =   0.1666667

     Largest allocated arrays     est. size (Mb)     dimensions
     Largest temporary arrays     est. size (Mb)     dimensions

     Initial potential from superposition of free atoms

     Starting from uniform charge
     Starting wfc are    0 randomized atomic wfcs

     Self-consistent Calculation

     iteration #  1     ecut=    40.00 Ry     beta=0.70
     CG style diagonalization
     ethr =  1.00E-02,  avg # of iterations = 17.5

     total energy              =    -410.54527880 Ry
     Harris-Foulkes estimate   =   -2139.44189895 Ry
     estimated scf accuracy    <    2054.51210350 Ry

[...]

     iteration #  3     ecut=    40.00 Ry     beta=0.70
     CG style diagonalization
     c_bands:  1 eigenvalues not converged
     c_bands:  1 eigenvalues not converged
     ethr =  1.00E-02,  avg # of iterations = 11.7

[...]

     End of self-consistent calculation

          k = 0.0000 0.0000 0.0000 (  5769 PWs)   bands (ev):

   -54.5560 -54.5557 -54.5450 -54.5426 -21.5534 -21.5400 -21.5388 -21.5388
   -21.5172 -21.5172 -21.4671 -21.4462 -21.4447 -21.4447 -21.4433 -21.4433
   -11.4923 -10.9321  -9.4973  -8.7173  -8.7172  -8.7081  -8.6910  -8.6909
     2.3752   3.4949   4.4851   5.8899   5.8900   6.2098   6.2098   6.4085
     6.4086   7.4909   8.6221   8.6222   8.7198   8.7198   9.5679  10.8440
    11.2546  11.2585  11.2586  11.2719  11.8900  11.8900  12.1124  12.1124
    18.5726  18.7258  18.7258  18.7805  19.2424  19.2425  19.3261  19.3261
    19.3271  19.3271  19.3763  19.5401  19.8300  19.8300  20.1086  20.1086
    20.2094  20.2406  20.2406  20.2684  20.2684  21.1945  21.6451  22.9542
    22.9542  23.7604  25.0819  25.0819  25.1800  25.3955  25.6981  25.7478
    25.7478  26.7803  26.8986  26.8986  27.8156  27.8156  28.4811  28.4812
    29.0935  29.2459  29.2459  29.7797  31.3144  31.6669  31.8409  31.8411
    32.6558  33.2545  33.2547  33.3849  33.3854  33.5140  33.8900  33.8904
    33.9293  34.0589

[...]

          k =-0.5000-0.2887 0.0000 (  5800 PWs)   bands (ev):

[...]

     the Fermi energy is    28.8870 ev

!    total energy              =   -1657.63641964 Ry
     Harris-Foulkes estimate   =   -1657.63642745 Ry
     estimated scf accuracy    <       0.00000395 Ry

     The total energy is the sum of the following terms:

     one-electron contribution =     -72.35909003 Ry
     hartree contribution      =     196.71629671 Ry
     xc contribution           =    -182.90598295 Ry
     ewald contribution        =   -1598.63193067 Ry
     smearing contrib. (-TS)   =      -0.45571271 Ry

     convergence has been achieved in  12 iterations

     Forces acting on atoms (Ry/au):

     atom    1 type  1   force =     0.00000000    0.00000000    0.02122546
     atom    2 type  1   force =     0.00000000    0.00000000    0.02122546
     atom    3 type  1   force =     0.00000000    0.00000000   -0.02122546
     atom    4 type  1   force =     0.00000000    0.00000000   -0.02122546
     atom    5 type  2   force =     0.00000000    0.00000000    0.00000000
     atom    6 type  2   force =     0.00000000    0.00000000    0.00000000
     atom    7 type  2   force =     0.00000000    0.05059699    0.00000000
     atom    8 type  2   force =    -0.04381828    0.02529850    0.00000000
     atom    9 type  2   force =     0.04381828    0.02529850    0.00000000
     atom   10 type  2   force =    -0.04381828   -0.02529850    0.00000000
     atom   11 type  2   force =     0.04381828   -0.02529850    0.00000000
     atom   12 type  2   force =     0.00000000   -0.05059699    0.00000000

     Total force =     0.131005     Total SCF correction =     0.000000

     entering subroutine stress ...

          total   stress  (Ry/bohr**3)                   (kbar)     P= 1102.55
   0.00746373   0.00000000   0.00000000       1097.95      0.00      0.00
   0.00000000   0.00746373   0.00000000          0.00   1097.95      0.00
   0.00000000   0.00000000   0.00755758          0.00      0.00   1111.76

     BFGS Geometry Optimization

     number of scf cycles    =   1
     number of bfgs steps    =   0

     enthalpy new            =   -1657.6364196436 Ry

     new trust radius        =       0.5000000000 bohr
     new conv_thr            =       0.0001000000 Ry

     new unit-cell volume =   1654.29114 a.u.^3 (   245.14065 Ang^3 )

CELL_PARAMETERS (alat=  9.92348860)
   1.066923385   0.000000000   0.000000000
  -0.533461693   0.923982755   0.000000000
   0.000000000   0.000000000   1.717203317

ATOMIC_POSITIONS (crystal)
Mg       0.333333000   0.666667000   0.062895011
Mg       0.666667000   0.333333000   0.562895011
Mg       0.666667000   0.333333000   0.937104989
Mg       0.333333000   0.666667000   0.437104989
Zn       0.000000000   0.000000000   0.000000000
Zn       0.000000000   0.000000000   0.500000000
Zn       0.171416801   0.342833601   0.750000000
Zn       0.828583199   0.171416801   0.250000000
Zn       0.342833601   0.171416801   0.250000000
Zn       0.657166399   0.828583199   0.750000000
Zn       0.171416801   0.828583199   0.750000000
Zn       0.828583199   0.657166399   0.250000000

     Writing output data file Prototype-La-hP12-MgZn2.save
     NEW-OLD atomic charge density approx. for the potential
     NEW k-points:
        k(    1) = (   0.0000000   0.0000000   0.0000000), wk =   0.0833333
        k(    2) = (   0.0000000   0.0000000   0.1455856), wk =   0.1666667
        k(    3) = (   0.0000000   0.0000000  -0.2911711), wk =   0.0833333
        k(    4) = (   0.0000000   0.3607571   0.0000000), wk =   0.1666667
        k(    5) = (   0.0000000   0.3607571   0.1455856), wk =   0.3333333
        k(    6) = (   0.0000000   0.3607571  -0.2911711), wk =   0.1666667
        k(    7) = (  -0.4686372  -0.2705678   0.0000000), wk =   0.0833333
        k(    8) = (  -0.4686372  -0.2705678   0.1455856), wk =   0.1666667
        k(    9) = (  -0.4686372  -0.2705678  -0.2911711), wk =   0.0833333
        k(   10) = (  -0.4686372   0.0901893   0.0000000), wk =   0.1666667
        k(   11) = (  -0.4686372   0.0901893   0.1455856), wk =   0.3333333
        k(   12) = (  -0.4686372   0.0901893  -0.2911711), wk =   0.1666667

[...]

     enthalpy old            =   -1657.6364196436 Ry
     enthalpy new            =   -1658.7945971755 Ry

     CASE: enthalpy_new < enthalpy_old

     small trust_radius: resetting bfgs history

[...]

     number of scf cycles    =   3
     number of bfgs steps    =   2

     enthalpy old            =   -1658.7945971755 Ry
     enthalpy new            =   -1658.8286223204 Ry

     CASE: enthalpy_new < enthalpy_old

     Message from routine bfgs:
     history already reset at previous step: stopping
     small trust_radius: resetting bfgs history

     new trust radius        =       0.1438986602 bohr
     new conv_thr            =       0.0000076633 Ry

     new unit-cell volume =   1720.15307 a.u.^3 (   254.90038 Ang^3 )

[...]

ATOMIC_POSITIONS (crystal)
Mg       0.333333000   0.666667000   0.062421630
Mg       0.666667000   0.333333000   0.562421630
Mg       0.666667000   0.333333000   0.937578370
Mg       0.333333000   0.666667000   0.437578370
Zn       0.000000000   0.000000000   0.000000000
Zn       0.000000000   0.000000000   0.500000000
Zn       0.172050347   0.344100695   0.750000000
Zn       0.827949653   0.172050347   0.250000000
Zn       0.344100695   0.172050347   0.250000000
Zn       0.655899305   0.827949653   0.750000000
Zn       0.172050347   0.827949653   0.750000000
Zn       0.827949653   0.655899305   0.250000000

     Writing output data file Prototype-La-hP12-MgZn2.save
     NEW-OLD atomic charge density approx. for the potential
     NEW k-points:
        k(    1) = (   0.0000000   0.0000000   0.0000000), wk =   0.0833333
        k(    2) = (   0.0000000   0.0000000   0.1439214), wk =   0.1666667
        k(    3) = (   0.0000000   0.0000000  -0.2878427), wk =   0.0833333
        k(    4) = (   0.0000000   0.3558228   0.0000000), wk =   0.1666667
        k(    5) = (   0.0000000   0.3558228   0.1439214), wk =   0.3333333
        k(    6) = (   0.0000000   0.3558228  -0.2878427), wk =   0.1666667
        k(    7) = (  -0.4622274  -0.2668671   0.0000000), wk =   0.0833333
        k(    8) = (  -0.4622274  -0.2668671   0.1439214), wk =   0.1666667
        k(    9) = (  -0.4622274  -0.2668671  -0.2878427), wk =   0.0833333
        k(   10) = (  -0.4622274   0.0889557   0.0000000), wk =   0.1666667
        k(   11) = (  -0.4622274   0.0889557   0.1439214), wk =   0.3333333
        k(   12) = (  -0.4622274   0.0889557  -0.2878427), wk =   0.1666667

[...]

     The maximum number of steps has been reached.

     End of BFGS Geometry Optimization
Begin final coordinates
     new unit-cell volume =   1720.15307 a.u.^3 (   254.90038 Ang^3 )

CELL_PARAMETERS (alat=  9.92348860)
   1.081718575   0.000000000   0.000000000
  -0.540859287   0.936795765   0.000000000
   0.000000000   0.000000000   1.737059777

ATOMIC_POSITIONS (crystal)
Mg       0.333333000   0.666667000   0.062421630
Mg       0.666667000   0.333333000   0.562421630
Mg       0.666667000   0.333333000   0.937578370
Mg       0.333333000   0.666667000   0.437578370
Zn       0.000000000   0.000000000   0.000000000
Zn       0.000000000   0.000000000   0.500000000
Zn       0.172050347   0.344100695   0.750000000
Zn       0.827949653   0.172050347   0.250000000
Zn       0.344100695   0.172050347   0.250000000
Zn       0.655899305   0.827949653   0.750000000
Zn       0.172050347   0.827949653   0.750000000
Zn       0.827949653   0.655899305   0.250000000
End final coordinates

     A final scf calculation at the relaxed structure.
     The G-vectors are recalculated for the final unit cell
     Results may differ from those at the preceding step.

     bravais-lattice index     =            0
     lattice parameter (alat)  =       9.9235  a.u.
     unit-cell volume          =    1720.1531 (a.u.)^3
     number of atoms/cell      =           12
     number of atomic types    =            2
     number of electrons       =       176.00
     number of Kohn-Sham states=          106
     kinetic-energy cutoff     =      40.0000  Ry
     charge density cutoff     =     160.0000  Ry
     convergence threshold     =      7.7E-06
     mixing beta               =       0.7000
     number of iterations used =            8  plain     mixing
     Exchange-correlation      = SLA-PZ-NOGX-NOGC ( 1 1 0 0 0)
     EXX-fraction              =        0.00

     celldm(1)=   9.923489  celldm(2)=   0.000000  celldm(3)=   0.000000
     celldm(4)=   0.000000  celldm(5)=   0.000000  celldm(6)=   0.000000

     crystal axes: (cart. coord. in units of alat)
               a(1) = (   1.081719   0.000000   0.000000 )
               a(2) = (  -0.540859   0.936796   0.000000 )
               a(3) = (   0.000000   0.000000   1.737060 )

     reciprocal axes: (cart. coord. in units 2 pi/alat)
               b(1) = (  0.924455  0.533734  0.000000 )
               b(2) = (  0.000000  1.067469  0.000000 )
               b(3) = (  0.000000  0.000000  0.575685 )

     PseudoPot. # 1 for Dy read from file:
     /home/cwx6513/pp.La/Dy.UPF
     MD5 check sum: 9597327bec62616a94a14d07f3fd9936
     Pseudo is Norm-conserving, Zval = 20.0
     Generated in analytical, separable form
     Using radial grid of 1265 points,  6 beta functions with:
                l(1) =   0
                l(2) =   0
                l(3) =   1
                l(4) =   1
                l(5) =   2
                l(6) =   3

     PseudoPot. # 2 for Ce read from file:
     /home/cwx6513/pp.La/Ce.UPF
     MD5 check sum: 44451aa79a44a00cf2bc029dc19922f6
     Pseudo is Norm-conserving, Zval = 12.0
     Generated in analytical, separable form
     Using radial grid of 1255 points,  6 beta functions with:
                l(1) =   0
                l(2) =   0
                l(3) =   1
                l(4) =   1
                l(5) =   2
                l(6) =   3

     atomic species   valence    mass     pseudopotential
        Mg            20.00    24.30500     Dy( 1.00)
        Zn            12.00    65.39000     Ce( 1.00)

     24 Sym. Ops., with inversion, found (12 have fractional translation)

   Cartesian axes

     site n.     atom                  positions (alat units)
         1           Mg  tau(   1) = (  -0.0000005   0.6245308   0.1084301  )
         2           Mg  tau(   2) = (   0.5408598   0.3122649   0.9769600  )
         3           Mg  tau(   3) = (   0.5408598   0.3122649   1.6286297  )
         4           Mg  tau(   4) = (  -0.0000005   0.6245308   0.7600998  )
         5           Zn  tau(   5) = (   0.0000000   0.0000000   0.0000000  )
         6           Zn  tau(   6) = (   0.0000000   0.0000000   0.8685299  )
         7           Zn  tau(   7) = (   0.0000000   0.3223521   1.3027948  )
         8           Zn  tau(   8) = (   0.8025535   0.1611760   0.4342649  )
         9           Zn  tau(   9) = (   0.2791651   0.1611760   0.4342649  )
        10           Zn  tau(  10) = (   0.2616942   0.7756197   1.3027948  )
        11           Zn  tau(  11) = (  -0.2616942   0.7756197   1.3027948  )
        12           Zn  tau(  12) = (   0.5408593   0.6144437   0.4342649  )

     number of k points=    12  gaussian smearing, width (Ry)=  0.1000
                       cart. coord. in units 2pi/alat
        k(    1) = (   0.0000000   0.0000000   0.0000000), wk =   0.0833333
        k(    2) = (   0.0000000   0.0000000   0.1439214), wk =   0.1666667
        k(    3) = (   0.0000000   0.0000000  -0.2878427), wk =   0.0833333
        k(    4) = (   0.0000000   0.3558228   0.0000000), wk =   0.1666667
        k(    5) = (   0.0000000   0.3558228   0.1439214), wk =   0.3333333
        k(    6) = (   0.0000000   0.3558228  -0.2878427), wk =   0.1666667
        k(    7) = (  -0.4622274  -0.2668671   0.0000000), wk =   0.0833333
        k(    8) = (  -0.4622274  -0.2668671   0.1439214), wk =   0.1666667
        k(    9) = (  -0.4622274  -0.2668671  -0.2878427), wk =   0.0833333
        k(   10) = (  -0.4622274   0.0889557   0.0000000), wk =   0.1666667
        k(   11) = (  -0.4622274   0.0889557   0.1439214), wk =   0.3333333
        k(   12) = (  -0.4622274   0.0889557  -0.2878427), wk =   0.1666667

     Largest allocated arrays     est. size (Mb)     dimensions
     Largest temporary arrays     est. size (Mb)     dimensions

     Initial potential from superposition of free atoms

     Starting from uniform charge
     Starting wfc are    0 randomized atomic wfcs

     Writing output data file Prototype-La-hP12-MgZn2.save

     Self-consistent Calculation

[...]

     iteration # 11     ecut=    40.00 Ry     beta=0.70
     CG style diagonalization
     c_bands:  1 eigenvalues not converged
     ethr =  2.29E-07,  avg # of iterations =  4.7

     total energy              =   -1659.72965024 Ry
     Harris-Foulkes estimate   =   -1659.72971237 Ry
     estimated scf accuracy    <       0.00013506 Ry

     iteration # 12     ecut=    40.00 Ry     beta=0.70
     CG style diagonalization
     ethr =  7.67E-08,  avg # of iterations =  3.5

     End of self-consistent calculation

[...]

          k = 0.0000 0.3558-0.2878 (  7348 PWs)   bands (ev):

[...]

          k =-0.4622 0.0890-0.2878 (  7354 PWs)   bands (ev):

   -60.3783 -60.3783 -60.3740 -60.3740 -27.2703 -27.2703 -27.2619 -27.2619
   -27.2574 -27.2574 -27.2507 -27.2507 -27.2481 -27.2481 -27.2405 -27.2405
   -16.2788 -16.2788 -15.8992 -15.8992 -15.2947 -15.2947 -15.2050 -15.2050
    -0.4180  -0.4180   0.5531   0.5531   1.1987   1.1987   1.3306   1.3306
     1.5439   1.5439   1.8467   1.8467   2.4212   2.4212   2.9345   2.9345
     3.3011   3.3011   3.5997   3.5997   4.1247   4.1247   4.2437   4.2437
    13.4602  13.4602  13.5431  13.5431  13.6142  13.6142  13.7951  13.7951
    13.9163  13.9163  14.0309  14.0309  14.1082  14.1082  14.1799  14.1799
    14.4550  14.4550  14.5497  14.5497  16.8605  16.8605  17.4681  17.4682
    19.2764  19.2764  19.5163  19.5163  20.2577  20.2577  20.2915  20.2915
    20.6673  20.6673  21.1227  21.1227  21.5267  21.5267  21.8255  21.8255
    22.0002  22.0002  22.9585  22.9585  23.5831  23.5831  23.6550  23.6550
    24.3973  24.3973  24.5413  24.5414  24.9261  24.9263  25.4630  25.4630
    26.0161  26.0165

     the Fermi energy is    22.1863 ev

!    total energy              =   -1659.72967800 Ry
     Harris-Foulkes estimate   =   -1659.72967982 Ry
     estimated scf accuracy    <       0.00000235 Ry

     The total energy is the sum of the following terms:

     one-electron contribution =    -243.05790010 Ry
     hartree contribution      =     241.25501856 Ry
     xc contribution           =    -178.85401275 Ry
     ewald contribution        =   -1478.51593566 Ry
     smearing contrib. (-TS)   =      -0.55684804 Ry

     convergence has been achieved in  12 iterations

     Forces acting on atoms (Ry/au):

     atom    1 type  1   force =     0.00000000    0.00000000    0.01240256
     atom    2 type  1   force =     0.00000000    0.00000000    0.01240256
     atom    3 type  1   force =     0.00000000    0.00000000   -0.01240256
     atom    4 type  1   force =     0.00000000    0.00000000   -0.01240256
     atom    5 type  2   force =     0.00000000    0.00000000    0.00000000
     atom    6 type  2   force =     0.00000000    0.00000000    0.00000000
     atom    7 type  2   force =     0.00000000   -0.00226454    0.00000000
     atom    8 type  2   force =     0.00196115   -0.00113227    0.00000000
     atom    9 type  2   force =    -0.00196115   -0.00113227    0.00000000
     atom   10 type  2   force =     0.00196115    0.00113227    0.00000000
     atom   11 type  2   force =    -0.00196115    0.00113227    0.00000000
     atom   12 type  2   force =     0.00000000    0.00226454    0.00000000

     Total force =     0.025418     Total SCF correction =     0.000000

     entering subroutine stress ...

          total   stress  (Ry/bohr**3)                   (kbar)     P=  228.33
   0.00156718   0.00000000   0.00000000        230.54      0.00      0.00
   0.00000000   0.00156718   0.00000000          0.00    230.54      0.00
   0.00000000   0.00000000   0.00152202          0.00      0.00    223.90

     Writing output data file Prototype-La-hP12-MgZn2.save

     General routines

     Parallel routines

   This run was terminated on:   2:35:13  23Mar2018

   JOB DONE.