     Program PWSCF v.5.0.2 starts on 22Mar2018 at 17:31: 3

     Current dimensions of program PWSCF are:
     Max number of different atomic species (ntypx) = 10
     Max number of k-points (npk) =  40000
     Max angular momentum in pseudopotentials (lmaxx) =  3
     Waiting for input...
     Reading input from standard input

     Subspace diagonalization in iterative solution of the eigenvalue problem:
     a serial algorithm will be used

     bravais-lattice index     =            0
     lattice parameter (alat)  =       8.5346  a.u.
     unit-cell volume          =     621.6493 (a.u.)^3
     number of atoms/cell      =            8
     number of atomic types    =            2
     number of electrons       =       154.00
     number of Kohn-Sham states=           92
     kinetic-energy cutoff     =      40.0000  Ry
     charge density cutoff     =     160.0000  Ry
     convergence threshold     =      1.0E-04
     mixing beta               =       0.7000
     number of iterations used =            8  plain     mixing
     Exchange-correlation      = SLA-PZ-NOGX-NOGC ( 1 1 0 0 0)
     EXX-fraction              =        0.00
     nstep                     =           50

     celldm(1)=   8.534573  celldm(2)=   0.000000  celldm(3)=   0.000000
     celldm(4)=   0.000000  celldm(5)=   0.000000  celldm(6)=   0.000000

     crystal axes: (cart. coord. in units of alat)
               a(1) = (   1.000000   0.000000   0.000000 )
               a(2) = (   0.000000   1.000000   0.000000 )
               a(3) = (   0.000000   0.000000   1.000000 )

     reciprocal axes: (cart. coord. in units 2 pi/alat)
               b(1) = (  1.000000  0.000000  0.000000 )
               b(2) = (  0.000000  1.000000  0.000000 )
               b(3) = (  0.000000  0.000000  1.000000 )

     PseudoPot. # 1 for Tb read from file:
     /home/cwx6513/pp.La/Tb.UPF
     MD5 check sum: 3d6088a3f0cf7fd2e110c43f7f8e95c2
     Pseudo is Norm-conserving, Zval = 19.0
     Generated in analytical, separable form
     Using radial grid of 1263 points,  6 beta functions with:
                l(1) =   0
                l(2) =   0
                l(3) =   1
                l(4) =   1
                l(5) =   2
                l(6) =   3

     PseudoPot. # 2 for Dy read from file:
     /home/cwx6513/pp.La/Dy.UPF
     MD5 check sum: 9597327bec62616a94a14d07f3fd9936
     Pseudo is Norm-conserving, Zval = 20.0
     Generated in analytical, separable form
     Using radial grid of 1265 points,  6 beta functions with:
                l(1) =   0
                l(2) =   0
                l(3) =   1
                l(4) =   1
                l(5) =   2
                l(6) =   3

     atomic species   valence    mass     pseudopotential
        Cr            19.00    51.99610     Tb( 1.00)
        Si            20.00    28.08550     Dy( 1.00)

     48 Sym. Ops., with inversion, found (24 have fractional translation)

   Cartesian axes

     site n.     atom                  positions (alat units)
         1           Cr  tau(   1) = (   0.0000000   0.5000000   0.2500000  )
         2           Cr  tau(   2) = (   0.0000000   0.5000000   0.7500000  )
         3           Cr  tau(   3) = (   0.5000000   0.7500000   0.0000000  )
         4           Cr  tau(   4) = (   0.5000000   0.2500000   0.0000000  )
         5           Cr  tau(   5) = (   0.7500000   0.0000000   0.5000000  )
         6           Cr  tau(   6) = (   0.2500000   0.0000000   0.5000000  )
         7           Si  tau(   7) = (   0.5000000   0.5000000   0.5000000  )
         8           Si  tau(   8) = (   0.0000000   0.0000000   0.0000000  )

     number of k points=    48  gaussian smearing, width (Ry)=  0.1000
                       cart. coord. in units 2pi/alat
        k(    1) = (   0.0000000   0.0000000   0.0000000), wk =   0.0095238
        k(    2) = (   0.0000000   0.0000000   0.1428571), wk =   0.0190476
        k(    3) = (   0.0000000   0.0000000   0.2857143), wk =   0.0190476
        k(    4) = (   0.0000000   0.0000000   0.4285714), wk =   0.0190476
        k(    5) = (   0.0000000   0.1666667   0.0000000), wk =   0.0190476
        k(    6) = (   0.0000000   0.1666667   0.1428571), wk =   0.0380952
        k(    7) = (   0.0000000   0.1666667   0.2857143), wk =   0.0380952
        k(    8) = (   0.0000000   0.1666667   0.4285714), wk =   0.0380952
        k(    9) = (   0.0000000   0.3333333   0.0000000), wk =   0.0190476
        k(   10) = (   0.0000000   0.3333333   0.1428571), wk =   0.0380952
        k(   11) = (   0.0000000   0.3333333   0.2857143), wk =   0.0380952
        k(   12) = (   0.0000000   0.3333333   0.4285714), wk =   0.0380952
        k(   13) = (   0.0000000  -0.5000000   0.0000000), wk =   0.0095238
        k(   14) = (   0.0000000  -0.5000000   0.1428571), wk =   0.0190476
        k(   15) = (   0.0000000  -0.5000000   0.2857143), wk =   0.0190476
        k(   16) = (   0.0000000  -0.5000000   0.4285714), wk =   0.0190476
        k(   17) = (   0.2000000   0.0000000   0.0000000), wk =   0.0190476
        k(   18) = (   0.2000000   0.0000000   0.1428571), wk =   0.0380952
        k(   19) = (   0.2000000   0.0000000   0.2857143), wk =   0.0380952
        k(   20) = (   0.2000000   0.0000000   0.4285714), wk =   0.0380952
        k(   21) = (   0.2000000   0.1666667   0.0000000), wk =   0.0380952
        k(   22) = (   0.2000000   0.1666667   0.1428571), wk =   0.0761905
        k(   23) = (   0.2000000   0.1666667   0.2857143), wk =   0.0761905
        k(   24) = (   0.2000000   0.1666667   0.4285714), wk =   0.0761905
        k(   25) = (   0.2000000   0.3333333   0.0000000), wk =   0.0380952
        k(   26) = (   0.2000000   0.3333333   0.1428571), wk =   0.0761905
        k(   27) = (   0.2000000   0.3333333   0.2857143), wk =   0.0761905
        k(   28) = (   0.2000000   0.3333333   0.4285714), wk =   0.0761905
        k(   29) = (   0.2000000  -0.5000000   0.0000000), wk =   0.0190476
        k(   30) = (   0.2000000  -0.5000000   0.1428571), wk =   0.0380952
        k(   31) = (   0.2000000  -0.5000000   0.2857143), wk =   0.0380952
        k(   32) = (   0.2000000  -0.5000000   0.4285714), wk =   0.0380952
        k(   33) = (   0.4000000   0.0000000   0.0000000), wk =   0.0190476
        k(   34) = (   0.4000000   0.0000000   0.1428571), wk =   0.0380952
        k(   35) = (   0.4000000   0.0000000   0.2857143), wk =   0.0380952
        k(   36) = (   0.4000000   0.0000000   0.4285714), wk =   0.0380952
        k(   37) = (   0.4000000   0.1666667   0.0000000), wk =   0.0380952
        k(   38) = (   0.4000000   0.1666667   0.1428571), wk =   0.0761905
        k(   39) = (   0.4000000   0.1666667   0.2857143), wk =   0.0761905
        k(   40) = (   0.4000000   0.1666667   0.4285714), wk =   0.0761905
        k(   41) = (   0.4000000   0.3333333   0.0000000), wk =   0.0380952
        k(   42) = (   0.4000000   0.3333333   0.1428571), wk =   0.0761905
        k(   43) = (   0.4000000   0.3333333   0.2857143), wk =   0.0761905
        k(   44) = (   0.4000000   0.3333333   0.4285714), wk =   0.0761905
        k(   45) = (   0.4000000  -0.5000000   0.0000000), wk =   0.0190476
        k(   46) = (   0.4000000  -0.5000000   0.1428571), wk =   0.0380952
        k(   47) = (   0.4000000  -0.5000000   0.2857143), wk =   0.0380952
        k(   48) = (   0.4000000  -0.5000000   0.4285714), wk =   0.0380952

     Largest allocated arrays     est. size (Mb)     dimensions
     Largest temporary arrays     est. size (Mb)     dimensions

     Initial potential from superposition of free atoms

     Starting from uniform charge
     Starting wfc are    0 randomized atomic wfcs

     Self-consistent Calculation

     iteration #  1     ecut=    40.00 Ry     beta=0.70
     CG style diagonalization
     c_bands:  1 eigenvalues not converged
     c_bands:  4 eigenvalues not converged
     c_bands:  1 eigenvalues not converged
     c_bands:  4 eigenvalues not converged
     c_bands:  5 eigenvalues not converged
     c_bands:  3 eigenvalues not converged
     c_bands:  2 eigenvalues not converged
     c_bands:  3 eigenvalues not converged
     c_bands:  1 eigenvalues not converged
     c_bands:  2 eigenvalues not converged
     c_bands:  2 eigenvalues not converged
     c_bands:  4 eigenvalues not converged
     c_bands:  4 eigenvalues not converged
     c_bands:  3 eigenvalues not converged
     c_bands:  3 eigenvalues not converged
     c_bands:  5 eigenvalues not converged
     c_bands:  4 eigenvalues not converged
     c_bands:  5 eigenvalues not converged
     c_bands:  3 eigenvalues not converged
     c_bands:  4 eigenvalues not converged
     c_bands:  4 eigenvalues not converged
     c_bands:  5 eigenvalues not converged
     c_bands:  3 eigenvalues not converged
     c_bands:  3 eigenvalues not converged
     c_bands:  5 eigenvalues not converged
     c_bands:  5 eigenvalues not converged
     c_bands:  4 eigenvalues not converged
     c_bands:  3 eigenvalues not converged
     c_bands:  3 eigenvalues not converged
     c_bands:  1 eigenvalues not converged
     ethr =  1.00E-02,  avg # of iterations = 13.4

     total energy              =   -1770.24424833 Ry
     Harris-Foulkes estimate   =   -2103.66642429 Ry
     estimated scf accuracy    <     437.67940431 Ry

     iteration #  2     ecut=    40.00 Ry     beta=0.70
     CG style diagonalization
     ethr =  1.00E-02,  avg # of iterations =  7.7

[...]

     End of self-consistent calculation

          k = 0.0000 0.0000 0.0000 (  2601 PWs)   bands (ev):

   -38.2408 -38.2339 -31.4199 -31.2305 -31.2305 -30.4518 -30.4518 -30.4518
    -5.7675  -5.7675  -5.7675  -5.6540  -5.6540  -5.6540  -2.6811  -2.6811
    -2.2467  -0.2307  -0.2307  -0.2307   0.6308   0.6308   0.6308   0.8149
     0.8149   0.8149   0.9970   0.9970   0.9970   2.5106   2.5106   2.5106
    30.4307  30.4307  31.2979  31.4638  31.4638  31.4638  32.0474  32.5787
    32.5787  32.5787  33.2711  33.6243  33.7125  33.7125  33.9464  33.9464
    34.1394  34.1394  34.1394  34.3179  34.3179  34.3179  38.3880  38.3880
    38.3880  39.0377  39.0377  39.2162  39.2162  39.2162  39.2417  39.2417
    39.2417  41.4809  41.4809  42.6276  42.6276  42.6276  43.6523  43.6523
    43.6523  48.3729  48.3729  48.3729  49.8485  50.9121  50.9121  52.0065
    52.0065  52.0065  52.2020  53.5433  53.5433  53.5433  56.1392  56.1387
    56.3185  56.3180  56.2728  56.2367

[...]

     the Fermi energy is    48.8811 ev

!    total energy              =   -1890.47767871 Ry
     Harris-Foulkes estimate   =   -1890.47771743 Ry
     estimated scf accuracy    <       0.00004476 Ry

     The total energy is the sum of the following terms:

     one-electron contribution =     149.41429045 Ry
     hartree contribution      =     151.31802422 Ry
     xc contribution           =    -188.64309416 Ry
     ewald contribution        =   -2002.45384104 Ry
     smearing contrib. (-TS)   =      -0.11305818 Ry

     convergence has been achieved in   7 iterations

     Forces acting on atoms (Ry/au):

     atom    1 type  1   force =     0.00000000    0.00000000    0.00000000
     atom    2 type  1   force =     0.00000000    0.00000000    0.00000000
[...]
        k(   47) = (   0.3635474  -0.4544343   0.2596767), wk =   0.0380952
        k(   48) = (   0.3635474  -0.4544343   0.3895151), wk =   0.0380952

[...]

     enthalpy old            =   -1890.4776787051 Ry
     enthalpy new            =   -1893.6521094612 Ry

     CASE: enthalpy_new < enthalpy_old

     small trust_radius: resetting bfgs history

     new trust radius        =       0.3282054692 bohr
     new conv_thr            =       0.0000010000 Ry

[...]

     number of scf cycles    =   3
     number of bfgs steps    =   2

     enthalpy old            =   -1893.6521094612 Ry
     enthalpy new            =   -1893.2828732819 Ry

     CASE: enthalpy_new > enthalpy_old

     new trust radius        =       0.0787443972 bohr

     trust_radius < trust_radius_min

     resetting bfgs history

     Message from routine bfgs:
     history already reset at previous step: stopping
     new conv_thr            =       0.0000010000 Ry

     new unit-cell volume =    969.40391 a.u.^3 (   143.65084 Ang^3 )

[...]

ATOMIC_POSITIONS (crystal)
Cr       0.000000000   0.500000000   0.250000000
Cr       0.000000000   0.500000000   0.750000000
Cr       0.500000000   0.750000000   0.000000000
Cr       0.500000000   0.250000000   0.000000000
Cr       0.750000000   0.000000000   0.500000000
Cr       0.250000000   0.000000000   0.500000000
Si       0.500000000   0.500000000   0.500000000
Si       0.000000000   0.000000000   0.000000000

     Writing output data file Prototype-La-cP8-Cr3Si.save
     NEW-OLD atomic charge density approx. for the potential
     NEW k-points:
        k(    1) = (   0.0000000   0.0000000   0.0000000), wk =   0.0095238
        k(    2) = (   0.0000000   0.0000000   0.1231919), wk =   0.0190476
        k(    3) = (   0.0000000   0.0000000   0.2463838), wk =   0.0190476
        k(    4) = (   0.0000000   0.0000000   0.3695757), wk =   0.0190476
        k(    5) = (   0.0000000   0.1437239   0.0000000), wk =   0.0190476
        k(    6) = (   0.0000000   0.1437239   0.1231919), wk =   0.0380952
        k(    7) = (   0.0000000   0.1437239   0.2463838), wk =   0.0380952
        k(    8) = (   0.0000000   0.1437239   0.3695757), wk =   0.0380952
        k(    9) = (   0.0000000   0.2874478   0.0000000), wk =   0.0190476
        k(   10) = (   0.0000000   0.2874478   0.1231919), wk =   0.0380952
        k(   11) = (   0.0000000   0.2874478   0.2463838), wk =   0.0380952
        k(   12) = (   0.0000000   0.2874478   0.3695757), wk =   0.0380952
        k(   13) = (   0.0000000  -0.4311717   0.0000000), wk =   0.0095238
        k(   14) = (   0.0000000  -0.4311717   0.1231919), wk =   0.0190476
        k(   15) = (   0.0000000  -0.4311717   0.2463838), wk =   0.0190476
        k(   16) = (   0.0000000  -0.4311717   0.3695757), wk =   0.0190476
        k(   17) = (   0.1724687   0.0000000   0.0000000), wk =   0.0190476
        k(   18) = (   0.1724687   0.0000000   0.1231919), wk =   0.0380952
        k(   19) = (   0.1724687   0.0000000   0.2463838), wk =   0.0380952
        k(   20) = (   0.1724687   0.0000000   0.3695757), wk =   0.0380952
        k(   21) = (   0.1724687   0.1437239   0.0000000), wk =   0.0380952
        k(   22) = (   0.1724687   0.1437239   0.1231919), wk =   0.0761905
        k(   23) = (   0.1724687   0.1437239   0.2463838), wk =   0.0761905
        k(   24) = (   0.1724687   0.1437239   0.3695757), wk =   0.0761905
        k(   25) = (   0.1724687   0.2874478   0.0000000), wk =   0.0380952
        k(   26) = (   0.1724687   0.2874478   0.1231919), wk =   0.0761905
        k(   27) = (   0.1724687   0.2874478   0.2463838), wk =   0.0761905
        k(   28) = (   0.1724687   0.2874478   0.3695757), wk =   0.0761905
        k(   29) = (   0.1724687  -0.4311717   0.0000000), wk =   0.0190476
        k(   30) = (   0.1724687  -0.4311717   0.1231919), wk =   0.0380952
        k(   31) = (   0.1724687  -0.4311717   0.2463838), wk =   0.0380952
        k(   32) = (   0.1724687  -0.4311717   0.3695757), wk =   0.0380952
        k(   33) = (   0.3449373   0.0000000   0.0000000), wk =   0.0190476
        k(   34) = (   0.3449373   0.0000000   0.1231919), wk =   0.0380952
        k(   35) = (   0.3449373   0.0000000   0.2463838), wk =   0.0380952
        k(   36) = (   0.3449373   0.0000000   0.3695757), wk =   0.0380952
        k(   37) = (   0.3449373   0.1437239   0.0000000), wk =   0.0380952
        k(   38) = (   0.3449373   0.1437239   0.1231919), wk =   0.0761905
        k(   39) = (   0.3449373   0.1437239   0.2463838), wk =   0.0761905
        k(   40) = (   0.3449373   0.1437239   0.3695757), wk =   0.0761905
        k(   41) = (   0.3449373   0.2874478   0.0000000), wk =   0.0380952
        k(   42) = (   0.3449373   0.2874478   0.1231919), wk =   0.0761905
        k(   43) = (   0.3449373   0.2874478   0.2463838), wk =   0.0761905
        k(   44) = (   0.3449373   0.2874478   0.3695757), wk =   0.0761905
        k(   45) = (   0.3449373  -0.4311717   0.0000000), wk =   0.0190476
        k(   46) = (   0.3449373  -0.4311717   0.1231919), wk =   0.0380952
        k(   47) = (   0.3449373  -0.4311717   0.2463838), wk =   0.0380952
        k(   48) = (   0.3449373  -0.4311717   0.3695757), wk =   0.0380952

[...]

     The maximum number of steps has been reached.

     End of BFGS Geometry Optimization
Begin final coordinates
     new unit-cell volume =    969.40391 a.u.^3 (   143.65084 Ang^3 )

CELL_PARAMETERS (alat=  8.53457320)
   1.159630907   0.000000000   0.000000000
   0.000000000   1.159630907   0.000000000
   0.000000000   0.000000000   1.159630907

ATOMIC_POSITIONS (crystal)
Cr       0.000000000   0.500000000   0.250000000
Cr       0.000000000   0.500000000   0.750000000
Cr       0.500000000   0.750000000   0.000000000
Cr       0.500000000   0.250000000   0.000000000
Cr       0.750000000   0.000000000   0.500000000
Cr       0.250000000   0.000000000   0.500000000
Si       0.500000000   0.500000000   0.500000000
Si       0.000000000   0.000000000   0.000000000
End final coordinates

     A final scf calculation at the relaxed structure.
     The G-vectors are recalculated for the final unit cell
     Results may differ from those at the preceding step.

     bravais-lattice index     =            0
     lattice parameter (alat)  =       8.5346  a.u.
     unit-cell volume          =     969.4039 (a.u.)^3
     number of atoms/cell      =            8
     number of atomic types    =            2
     number of electrons       =       154.00
     number of Kohn-Sham states=           92
     kinetic-energy cutoff     =      40.0000  Ry
     charge density cutoff     =     160.0000  Ry
     convergence threshold     =      1.0E-06
     mixing beta               =       0.7000
     number of iterations used =            8  plain     mixing
     Exchange-correlation      = SLA-PZ-NOGX-NOGC ( 1 1 0 0 0)
     EXX-fraction              =        0.00

     celldm(1)=   8.534573  celldm(2)=   0.000000  celldm(3)=   0.000000
     celldm(4)=   0.000000  celldm(5)=   0.000000  celldm(6)=   0.000000

     crystal axes: (cart. coord. in units of alat)
               a(1) = (   1.159631   0.000000   0.000000 )
               a(2) = (   0.000000   1.159631   0.000000 )
               a(3) = (   0.000000   0.000000   1.159631 )

     reciprocal axes: (cart. coord. in units 2 pi/alat)
               b(1) = (  0.862343  0.000000  0.000000 )
               b(2) = (  0.000000  0.862343  0.000000 )
               b(3) = (  0.000000  0.000000  0.862343 )

     PseudoPot. # 1 for Tb read from file:
     /home/cwx6513/pp.La/Tb.UPF
     MD5 check sum: 3d6088a3f0cf7fd2e110c43f7f8e95c2
     Pseudo is Norm-conserving, Zval = 19.0
     Generated in analytical, separable form
     Using radial grid of 1263 points,  6 beta functions with:
                l(1) =   0
                l(2) =   0
                l(3) =   1
                l(4) =   1
                l(5) =   2
                l(6) =   3

     PseudoPot. # 2 for Dy read from file:
     /home/cwx6513/pp.La/Dy.UPF
     MD5 check sum: 9597327bec62616a94a14d07f3fd9936
     Pseudo is Norm-conserving, Zval = 20.0
     Generated in analytical, separable form
     Using radial grid of 1265 points,  6 beta functions with:
                l(1) =   0
                l(2) =   0
                l(3) =   1
                l(4) =   1
                l(5) =   2
                l(6) =   3

     atomic species   valence    mass     pseudopotential
        Cr            19.00    51.99610     Tb( 1.00)
        Si            20.00    28.08550     Dy( 1.00)

     48 Sym. Ops., with inversion, found (24 have fractional translation)

   Cartesian axes

     site n.     atom                  positions (alat units)
         1           Cr  tau(   1) = (   0.0000000   0.5798155   0.2899077  )
         2           Cr  tau(   2) = (   0.0000000   0.5798155   0.8697232  )
         3           Cr  tau(   3) = (   0.5798155   0.8697232   0.0000000  )
         4           Cr  tau(   4) = (   0.5798155   0.2899077   0.0000000  )
         5           Cr  tau(   5) = (   0.8697232   0.0000000   0.5798155  )
         6           Cr  tau(   6) = (   0.2899077   0.0000000   0.5798155  )
         7           Si  tau(   7) = (   0.5798155   0.5798155   0.5798155  )
         8           Si  tau(   8) = (   0.0000000   0.0000000   0.0000000  )

     number of k points=    48  gaussian smearing, width (Ry)=  0.1000
                       cart. coord. in units 2pi/alat
        k(    1) = (   0.0000000   0.0000000   0.0000000), wk =   0.0095238
        k(    2) = (   0.0000000   0.0000000   0.1231919), wk =   0.0190476
        k(    3) = (   0.0000000   0.0000000   0.2463838), wk =   0.0190476
        k(    4) = (   0.0000000   0.0000000   0.3695757), wk =   0.0190476
        k(    5) = (   0.0000000   0.1437239   0.0000000), wk =   0.0190476
        k(    6) = (   0.0000000   0.1437239   0.1231919), wk =   0.0380952
        k(    7) = (   0.0000000   0.1437239   0.2463838), wk =   0.0380952
        k(    8) = (   0.0000000   0.1437239   0.3695757), wk =   0.0380952
        k(    9) = (   0.0000000   0.2874478   0.0000000), wk =   0.0190476
        k(   10) = (   0.0000000   0.2874478   0.1231919), wk =   0.0380952
        k(   11) = (   0.0000000   0.2874478   0.2463838), wk =   0.0380952
        k(   12) = (   0.0000000   0.2874478   0.3695757), wk =   0.0380952
        k(   13) = (   0.0000000  -0.4311717   0.0000000), wk =   0.0095238
        k(   14) = (   0.0000000  -0.4311717   0.1231919), wk =   0.0190476
        k(   15) = (   0.0000000  -0.4311717   0.2463838), wk =   0.0190476
        k(   16) = (   0.0000000  -0.4311717   0.3695757), wk =   0.0190476
        k(   17) = (   0.1724687   0.0000000   0.0000000), wk =   0.0190476
        k(   18) = (   0.1724687   0.0000000   0.1231919), wk =   0.0380952
        k(   19) = (   0.1724687   0.0000000   0.2463838), wk =   0.0380952
        k(   20) = (   0.1724687   0.0000000   0.3695757), wk =   0.0380952
        k(   21) = (   0.1724687   0.1437239   0.0000000), wk =   0.0380952
        k(   22) = (   0.1724687   0.1437239   0.1231919), wk =   0.0761905
        k(   23) = (   0.1724687   0.1437239   0.2463838), wk =   0.0761905
        k(   24) = (   0.1724687   0.1437239   0.3695757), wk =   0.0761905
        k(   25) = (   0.1724687   0.2874478   0.0000000), wk =   0.0380952
        k(   26) = (   0.1724687   0.2874478   0.1231919), wk =   0.0761905
        k(   27) = (   0.1724687   0.2874478   0.2463838), wk =   0.0761905
        k(   28) = (   0.1724687   0.2874478   0.3695757), wk =   0.0761905
        k(   29) = (   0.1724687  -0.4311717   0.0000000), wk =   0.0190476
        k(   30) = (   0.1724687  -0.4311717   0.1231919), wk =   0.0380952
        k(   31) = (   0.1724687  -0.4311717   0.2463838), wk =   0.0380952
        k(   32) = (   0.1724687  -0.4311717   0.3695757), wk =   0.0380952
        k(   33) = (   0.3449373   0.0000000   0.0000000), wk =   0.0190476
        k(   34) = (   0.3449373   0.0000000   0.1231919), wk =   0.0380952
        k(   35) = (   0.3449373   0.0000000   0.2463838), wk =   0.0380952
        k(   36) = (   0.3449373   0.0000000   0.3695757), wk =   0.0380952
        k(   37) = (   0.3449373   0.1437239   0.0000000), wk =   0.0380952
        k(   38) = (   0.3449373   0.1437239   0.1231919), wk =   0.0761905
        k(   39) = (   0.3449373   0.1437239   0.2463838), wk =   0.0761905
        k(   40) = (   0.3449373   0.1437239   0.3695757), wk =   0.0761905
        k(   41) = (   0.3449373   0.2874478   0.0000000), wk =   0.0380952
        k(   42) = (   0.3449373   0.2874478   0.1231919), wk =   0.0761905
        k(   43) = (   0.3449373   0.2874478   0.2463838), wk =   0.0761905
        k(   44) = (   0.3449373   0.2874478   0.3695757), wk =   0.0761905
        k(   45) = (   0.3449373  -0.4311717   0.0000000), wk =   0.0190476
        k(   46) = (   0.3449373  -0.4311717   0.1231919), wk =   0.0380952
        k(   47) = (   0.3449373  -0.4311717   0.2463838), wk =   0.0380952
        k(   48) = (   0.3449373  -0.4311717   0.3695757), wk =   0.0380952

     Largest allocated arrays     est. size (Mb)     dimensions
     Largest temporary arrays     est. size (Mb)     dimensions

     Initial potential from superposition of free atoms

     Starting from uniform charge
     Starting wfc are    0 randomized atomic wfcs

     Writing output data file Prototype-La-cP8-Cr3Si.save

     Self-consistent Calculation

[...]

     iteration #  9     ecut=    40.00 Ry     beta=0.70
     CG style diagonalization
     c_bands:  1 eigenvalues not converged
     ethr =  1.11E-07,  avg # of iterations =  3.8

[...]

     total energy              =   -1897.11122684 Ry
     Harris-Foulkes estimate   =   -1897.11122895 Ry
     estimated scf accuracy    <       0.00000378 Ry

     iteration # 11     ecut=    40.00 Ry     beta=0.70
     CG style diagonalization
     ethr =  2.45E-09,  avg # of iterations =  3.6

     End of self-consistent calculation

[...]

          k = 0.3449-0.4312 0.3696 (  4150 PWs)   bands (ev):

   -54.8751 -54.8750 -47.4332 -47.4274 -47.4104 -47.4100 -47.3942 -47.3879
   -21.8347 -21.8346 -21.8320 -21.8319 -21.8308 -21.8308 -16.2160 -16.1573
   -16.0027 -16.0016 -15.9098 -15.9086 -15.8608 -15.8274 -15.7706 -15.7590
   -15.7360 -15.7272 -15.7041 -15.6944 -15.6886 -15.6875 -15.6815 -15.6812
    17.8756  17.8879  17.9625  18.0076  18.0530  18.0546  18.1391  18.1495
    18.1920  18.1992  19.5491  19.5496  20.2471  20.2505  20.3819  20.5430
    20.6057  20.6372  20.9006  21.0125  21.3403  21.3734  21.6922  21.7156
    21.7711  21.8265  22.1429  22.1942  22.6040  22.8032  22.8812  22.8962
    23.0298  23.1182  23.3149  23.3219  23.4802  23.5610  23.6830  23.7225
    24.8341  24.8855  25.7160  25.9477  26.1541  26.4824  27.2649  27.3363
    34.7277  34.7361  35.4757  35.8178  36.3000  36.5184  37.5805  37.7334
    37.8442  37.8894  38.0576  38.0755

     the Fermi energy is    28.4442 ev

!    total energy              =   -1897.11122769 Ry
     Harris-Foulkes estimate   =   -1897.11122772 Ry
     estimated scf accuracy    <       0.00000004 Ry

     The total energy is the sum of the following terms:

     one-electron contribution =    -238.26042703 Ry
     hartree contribution      =     249.49075317 Ry
     xc contribution           =    -181.39984576 Ry
     ewald contribution        =   -1726.80275159 Ry
     smearing contrib. (-TS)   =      -0.13895649 Ry

     convergence has been achieved in  11 iterations

     Forces acting on atoms (Ry/au):

     atom    1 type  1   force =     0.00000000    0.00000000    0.00000000
     atom    2 type  1   force =     0.00000000    0.00000000    0.00000000
     atom    3 type  1   force =     0.00000000    0.00000000    0.00000000
     atom    4 type  1   force =     0.00000000    0.00000000    0.00000000
     atom    5 type  1   force =     0.00000000    0.00000000    0.00000000
     atom    6 type  1   force =     0.00000000    0.00000000    0.00000000
     atom    7 type  2   force =     0.00000000    0.00000000    0.00000000
     atom    8 type  2   force =     0.00000000    0.00000000    0.00000000

     Total force =     0.000000     Total SCF correction =     0.000000

     entering subroutine stress ...

          total   stress  (Ry/bohr**3)                   (kbar)     P=   93.77
   0.00063744   0.00000000   0.00000000         93.77      0.00      0.00
   0.00000000   0.00063744   0.00000000          0.00     93.77      0.00
   0.00000000   0.00000000   0.00063744          0.00      0.00     93.77

     Writing output data file Prototype-La-cP8-Cr3Si.save

     General routines

     Parallel routines

   This run was terminated on:  17:48:59  22Mar2018

   JOB DONE.