     Program PWSCF v.5.0.2 starts on 22Mar2018 at 17:31: 7

     Current dimensions of program PWSCF are:
     Max number of different atomic species (ntypx) = 10
     Max number of k-points (npk) =  40000
     Max angular momentum in pseudopotentials (lmaxx) =  3
     Waiting for input...
     Reading input from standard input

     Subspace diagonalization in iterative solution of the eigenvalue problem:
     a serial algorithm will be used

     bravais-lattice index     =            0
     lattice parameter (alat)  =       8.8008  a.u.
     unit-cell volume          =    1116.9454 (a.u.)^3
     number of atoms/cell      =           16
     number of atomic types    =            2
     number of electrons       =       308.00
     number of Kohn-Sham states=          185
     kinetic-energy cutoff     =      40.0000  Ry
     charge density cutoff     =     160.0000  Ry
     convergence threshold     =      1.0E-04
     mixing beta               =       0.7000
     number of iterations used =            8  plain     mixing
     Exchange-correlation      = SLA-PZ-NOGX-NOGC ( 1 1 0 0 0)
     EXX-fraction              =        0.00
     nstep                     =           50

     celldm(1)=   8.800765  celldm(2)=   0.000000  celldm(3)=   0.000000
     celldm(4)=   0.000000  celldm(5)=   0.000000  celldm(6)=   0.000000

     crystal axes: (cart. coord. in units of alat)
               a(1) = (   1.000000   0.000000   0.000000 )
               a(2) = (   0.000000   1.083771   0.000000 )
               a(3) = (   0.000000   0.000000   1.511935 )

     reciprocal axes: (cart. coord. in units 2 pi/alat)
               b(1) = (  1.000000  0.000000  0.000000 )
               b(2) = (  0.000000  0.922704  0.000000 )
               b(3) = (  0.000000  0.000000  0.661404 )

     PseudoPot. # 1 for Tb read from file:
     /home/jld5415/pp.La/Tb.UPF
     MD5 check sum: 3d6088a3f0cf7fd2e110c43f7f8e95c2
     Pseudo is Norm-conserving, Zval = 19.0
     Generated in analytical, separable form
     Using radial grid of 1263 points,  6 beta functions with:
                l(1) =   0
                l(2) =   0
                l(3) =   1
                l(4) =   1
                l(5) =   2
                l(6) =   3

     PseudoPot. # 2 for Dy read from file:
     /home/jld5415/pp.La/Dy.UPF
     MD5 check sum: 9597327bec62616a94a14d07f3fd9936
     Pseudo is Norm-conserving, Zval = 20.0
     Generated in analytical, separable form
     Using radial grid of 1265 points,  6 beta functions with:
                l(1) =   0
                l(2) =   0
                l(3) =   1
                l(4) =   1
                l(5) =   2
                l(6) =   3

     atomic species   valence    mass     pseudopotential
        Fe            19.00    55.84500     Tb( 1.00)
        C             20.00    12.01070     Dy( 1.00)

      8 Sym. Ops., with inversion, found ( 6 have fractional translation)

   Cartesian axes

     site n.     atom                  positions (alat units)
         1           Fe  tau(   1) = (   0.3472940   0.1827628   1.3947267  )
         2           Fe  tau(   2) = (   0.1527060   0.7246484   0.8731757  )
         3           Fe  tau(   3) = (   0.8472940   0.3591227   0.6387592  )
         4           Fe  tau(   4) = (   0.3396640   0.4879235   0.3779837  )
         5           Fe  tau(   5) = (   0.1527060   0.7246484   1.3947267  )
         6           Fe  tau(   6) = (   0.3472940   0.1827628   0.8731757  )
         7           Fe  tau(   7) = (   0.1603360   1.0298091   0.3779837  )
         8           Fe  tau(   8) = (   0.6527060   0.9010083   0.6387592  )
         9           Fe  tau(   9) = (   0.8472940   0.3591227   0.1172082  )
        10           Fe  tau(  10) = (   0.6603360   0.5958476   1.1339512  )
        11           Fe  tau(  11) = (   0.6527060   0.9010083   0.1172082  )
        12           Fe  tau(  12) = (   0.8396640   0.0539620   1.1339512  )
        13           C   tau(  13) = (   0.0000000   0.0000000   0.0000000  )
        14           C   tau(  14) = (   0.5000000   0.5418856   0.0000000  )
        15           C   tau(  15) = (   0.5000000   0.5418856   0.7559674  )
        16           C   tau(  16) = (   0.0000000   0.0000000   0.7559674  )

     number of k points=    12  gaussian smearing, width (Ry)=  0.1000
                       cart. coord. in units 2pi/alat
        k(    1) = (   0.0000000   0.0000000   0.0000000), wk =   0.0833333
        k(    2) = (   0.0000000   0.0000000   0.1653510), wk =   0.1666667
        k(    3) = (   0.0000000   0.0000000  -0.3307021), wk =   0.0833333
        k(    4) = (   0.0000000   0.3075680   0.0000000), wk =   0.1666667
        k(    5) = (   0.0000000   0.3075680   0.1653510), wk =   0.3333333
        k(    6) = (   0.0000000   0.3075680  -0.3307021), wk =   0.1666667
        k(    7) = (  -0.5000000   0.0000000   0.0000000), wk =   0.0833333
        k(    8) = (  -0.5000000   0.0000000   0.1653510), wk =   0.1666667
        k(    9) = (  -0.5000000   0.0000000  -0.3307021), wk =   0.0833333
        k(   10) = (  -0.5000000   0.3075680   0.0000000), wk =   0.1666667
        k(   11) = (  -0.5000000   0.3075680   0.1653510), wk =   0.3333333
        k(   12) = (  -0.5000000   0.3075680  -0.3307021), wk =   0.1666667

     Largest allocated arrays     est. size (Mb)     dimensions
     Largest temporary arrays     est. size (Mb)     dimensions

     Initial potential from superposition of free atoms

     Starting from uniform charge
     Starting wfc are    0 randomized atomic wfcs

     Self-consistent Calculation

     iteration #  1     ecut=    40.00 Ry     beta=0.70
     CG style diagonalization
     ethr =  1.00E-02,  avg # of iterations = 21.9

     total energy              =   -2898.27033946 Ry
     Harris-Foulkes estimate   =   -4569.61436952 Ry
     estimated scf accuracy    <    2006.46047733 Ry

     iteration #  2     ecut=    40.00 Ry     beta=0.70
     CG style diagonalization
     c_bands:  5 eigenvalues not converged
     c_bands:  3 eigenvalues not converged
     c_bands:  5 eigenvalues not converged
     c_bands:  5 eigenvalues not converged
     c_bands:  4 eigenvalues not converged
     c_bands:  4 eigenvalues not converged
     ethr =  1.00E-02,  avg # of iterations = 14.5

[...]

     End of self-consistent calculation

          k = 0.0000 0.0000 0.0000 (  4785 PWs)   bands (ev):

   -38.2510 -38.1248 -37.8970 -37.7857 -27.9547 -27.9399 -27.7925 -27.7849
   -27.6913 -27.6193 -27.5230 -27.5015 -27.4114 -26.9873 -26.9594 -26.8161
    -9.0224  -8.9722  -8.8646  -8.8520  -8.3552  -8.2420  -6.0007  -5.9010
    -5.8596  -5.7492  -5.7169  -5.6068   0.9868   1.0901   1.2801   1.6529
     1.8559   2.4658   2.4741   2.9468   2.9598   3.0043   3.9044   3.9679
     4.0260   4.1130   4.3178   4.3665   4.4915   4.4978   4.5579   4.5598
     4.9101   5.0209   5.0876   5.1832   5.1996   5.2380   5.2710   5.2724
     5.3097   5.3945   6.3204   6.3408   6.3698   6.4532   6.5063   6.6435
    28.1121  28.4412  29.0880  29.2479  29.3175  29.3816  29.4288  29.5237
    30.6711  31.0328  31.3512  31.9828  33.2937  33.7634  34.5268  34.5651
    34.6107  35.5230  35.8193  36.3598  36.4905  36.6979  36.7816  36.8037
    36.8433  36.9555  37.0072  37.1958  37.8505  38.3409  38.5326  38.9925
    39.0175  39.1768  39.2686  39.3431  39.3635  39.5640  39.6301  40.1811
    40.2105  40.6068  41.1785  41.2948  41.5000  41.5729  41.6358  41.7186
    41.9222  42.0627  42.2099  42.2428  42.4599  42.4687  42.7386  43.3389
    43.3898  43.7954  44.0128  44.6513  45.0782  45.1002  45.1206  45.5246
    45.7570  46.0435  46.0735  46.0845  46.2262  46.3699  46.5014  46.6275
    46.9514  47.7844  49.1297  49.4109  49.4336  49.4500  49.9594  50.2202
    50.6077  51.1792  51.5317  51.7061  52.9087  53.6144  54.1121  54.3145
    54.5254  54.6022  54.7659  54.8078  55.1538  56.2179  56.3388  56.5426
    56.6086  56.6565  56.9235  56.9912  57.3871  57.4746  57.5056  57.5219
    57.9900  58.2130  58.3403  59.1133  59.6131  59.7886  60.0051  60.4527
    60.5065  60.5343  61.2490  61.6736  61.8447  62.0720  62.3563  62.3675
    62.4845

[...]

          k =-0.5000 0.0000 0.0000 (  4798 PWs)   bands (ev):

[...]

     the Fermi energy is    54.3072 ev

!    total energy              =   -3753.95608705 Ry
     Harris-Foulkes estimate   =   -3753.95609281 Ry
     estimated scf accuracy    <       0.00000712 Ry

     The total energy is the sum of the following terms:

     one-electron contribution =     101.87186905 Ry
     hartree contribution      =     445.99651205 Ry
     xc contribution           =    -388.82659026 Ry
     ewald contribution        =   -3912.77030355 Ry
     smearing contrib. (-TS)   =      -0.22757434 Ry

     convergence has been achieved in  10 iterations

     Forces acting on atoms (Ry/au):

     atom    1 type  1   force =     1.12120202   -1.18260617   -1.53334690
     atom    2 type  1   force =    -1.12120202   -1.18260617    1.53334690
     atom    3 type  1   force =     1.12120202    1.18260617   -1.53334690
     atom    4 type  1   force =    -1.85893752   -0.70547485    0.00000000
     atom    5 type  1   force =    -1.12120202   -1.18260617   -1.53334690
     atom    6 type  1   force =     1.12120202   -1.18260617    1.53334690
     atom    7 type  1   force =     1.85893752   -0.70547485    0.00000000
     atom    8 type  1   force =    -1.12120202    1.18260617   -1.53334690
     atom    9 type  1   force =     1.12120202    1.18260617    1.53334690
     atom   10 type  1   force =     1.85893752    0.70547485    0.00000000
     atom   11 type  1   force =    -1.12120202    1.18260617    1.53334690
     atom   12 type  1   force =    -1.85893752    0.70547485    0.00000000
     atom   13 type  2   force =     0.00000000    0.00000000    0.00000000
     atom   14 type  2   force =     0.00000000    0.00000000    0.00000000
     atom   15 type  2   force =     0.00000000    0.00000000    0.00000000
     atom   16 type  2   force =     0.00000000    0.00000000    0.00000000

     Total force =     7.474477     Total SCF correction =     0.000000

     entering subroutine stress ...

          total   stress  (Ry/bohr**3)                   (kbar)     P=12737.48
   0.08699926   0.00000000   0.00000000      12798.03      0.00      0.00
   0.00000000   0.08793823   0.00000000          0.00  12936.16      0.00
   0.00000000   0.00000000   0.08482548          0.00      0.00  12478.26

     BFGS Geometry Optimization

     number of scf cycles    =   1
     number of bfgs steps    =   0

     enthalpy new            =   -3753.9560870504 Ry

     new trust radius        =       0.5000000000 bohr
     new conv_thr            =       0.0001000000 Ry

     new unit-cell volume =   1382.37385 a.u.^3 (   204.84667 Ang^3 )

CELL_PARAMETERS (alat=  8.80076499)
   1.074005137   0.000000000   0.000000000
   0.000000000   1.164841411   0.000000000
   0.000000000   0.000000000   1.621030100

ATOMIC_POSITIONS (crystal)
Fe       0.351628807   0.164417205   0.918557033
Fe       0.148371193   0.664417205   0.581442967
Fe       0.851628807   0.335582795   0.418557033
Fe       0.332476950   0.447692309   0.250000000
Fe       0.148371193   0.664417205   0.918557033
Fe       0.351628807   0.164417205   0.581442967
Fe       0.167523050   0.947692309   0.250000000
Fe       0.648371193   0.835582795   0.418557033
Fe       0.851628807   0.335582795   0.081442967
Fe       0.667523050   0.552307691   0.750000000
Fe       0.648371193   0.835582795   0.081442967
Fe       0.832476950   0.052307691   0.750000000
C        0.000000000   0.000000000   0.000000000
C        0.500000000   0.500000000   0.000000000
C        0.500000000   0.500000000   0.500000000
C        0.000000000   0.000000000   0.500000000

     Writing output data file Prototype-La-oP16-Fe3C.save
     NEW-OLD atomic charge density approx. for the potential
     NEW k-points:
        k(    1) = (   0.0000000   0.0000000   0.0000000), wk =   0.0833333
        k(    2) = (   0.0000000   0.0000000   0.1542229), wk =   0.1666667
        k(    3) = (   0.0000000   0.0000000  -0.3084458), wk =   0.0833333
        k(    4) = (   0.0000000   0.2861620   0.0000000), wk =   0.1666667
        k(    5) = (   0.0000000   0.2861620   0.1542229), wk =   0.3333333
        k(    6) = (   0.0000000   0.2861620  -0.3084458), wk =   0.1666667
        k(    7) = (  -0.4655471   0.0000000   0.0000000), wk =   0.0833333
        k(    8) = (  -0.4655471   0.0000000   0.1542229), wk =   0.1666667
        k(    9) = (  -0.4655471   0.0000000  -0.3084458), wk =   0.0833333
        k(   10) = (  -0.4655471   0.2861620   0.0000000), wk =   0.1666667
        k(   11) = (  -0.4655471   0.2861620   0.1542229), wk =   0.3333333
        k(   12) = (  -0.4655471   0.2861620  -0.3084458), wk =   0.1666667

[...]

          total   stress  (Ry/bohr**3)                   (kbar)     P= 5246.40
   0.03618150   0.00000000   0.00000000       5322.48      0.00      0.00
   0.00000000   0.03528498   0.00000000          0.00   5190.60      0.00
   0.00000000   0.00000000   0.03552649          0.00      0.00   5226.13

[...]

     enthalpy old            =   -3753.9560870504 Ry
     enthalpy new            =   -3770.8607624191 Ry

     CASE: enthalpy_new < enthalpy_old

     small trust_radius: resetting bfgs history

     new trust radius        =       6.7261931710 bohr
     new conv_thr            =       0.0001000000 Ry

[...]

          total   stress  (Ry/bohr**3)                   (kbar)     P=-3010.36
  -0.02076724   0.00000000   0.00000000      -3054.97      0.00      0.00
   0.00000000  -0.02031389   0.00000000          0.00  -2988.28      0.00
   0.00000000   0.00000000  -0.02031098          0.00      0.00  -2987.85

     number of scf cycles    =   3
     number of bfgs steps    =   2

     enthalpy old            =   -3770.8607624191 Ry
     enthalpy new            =   -3662.3011047750 Ry

     CASE: enthalpy_new > enthalpy_old

     new trust radius        =       2.6683656648 bohr

     trust_radius < trust_radius_min

     resetting bfgs history

     Message from routine bfgs:
     history already reset at previous step: stopping
     new conv_thr            =       0.0001000000 Ry

     new unit-cell volume =   1590.55064 a.u.^3 (   235.69528 Ang^3 )

[...]

ATOMIC_POSITIONS (crystal)
Fe       0.353625983   0.162535464   0.916874444
Fe       0.146374017   0.662535464   0.583125556
Fe       0.853625983   0.337464536   0.416874444
Fe       0.329193798   0.446532658   0.250000000
Fe       0.146374017   0.662535464   0.916874444
Fe       0.353625983   0.162535464   0.583125556
Fe       0.170806202   0.946532658   0.250000000
Fe       0.646374017   0.837464536   0.416874444
Fe       0.853625983   0.337464536   0.083125556
Fe       0.670806202   0.553467342   0.750000000
Fe       0.646374017   0.837464536   0.083125556
Fe       0.829193798   0.053467342   0.750000000
C        0.000000000   0.000000000   0.000000000
C        0.500000000   0.500000000   0.000000000
C        0.500000000   0.500000000   0.500000000
C        0.000000000   0.000000000   0.500000000

     Writing output data file Prototype-La-oP16-Fe3C.save
     NEW-OLD atomic charge density approx. for the potential
     NEW k-points:
        k(    1) = (   0.0000000   0.0000000   0.0000000), wk =   0.0833333
        k(    2) = (   0.0000000   0.0000000   0.1472288), wk =   0.1666667
        k(    3) = (   0.0000000   0.0000000  -0.2944575), wk =   0.0833333
        k(    4) = (   0.0000000   0.2733471   0.0000000), wk =   0.1666667
        k(    5) = (   0.0000000   0.2733471   0.1472288), wk =   0.3333333
        k(    6) = (   0.0000000   0.2733471  -0.2944575), wk =   0.1666667
        k(    7) = (  -0.4437061   0.0000000   0.0000000), wk =   0.0833333
        k(    8) = (  -0.4437061   0.0000000   0.1472288), wk =   0.1666667
        k(    9) = (  -0.4437061   0.0000000  -0.2944575), wk =   0.0833333
        k(   10) = (  -0.4437061   0.2733471   0.0000000), wk =   0.1666667
        k(   11) = (  -0.4437061   0.2733471   0.1472288), wk =   0.3333333
        k(   12) = (  -0.4437061   0.2733471  -0.2944575), wk =   0.1666667

[...]

     The maximum number of steps has been reached.

     End of BFGS Geometry Optimization
Begin final coordinates
     new unit-cell volume =   1590.55064 a.u.^3 (   235.69528 Ang^3 )

CELL_PARAMETERS (alat=  8.80076499)
   1.126872123   0.000000000   0.000000000
   0.000000000   1.219450628   0.000000000
   0.000000000   0.000000000   1.698037868

ATOMIC_POSITIONS (crystal)
Fe       0.353625983   0.162535464   0.916874444
Fe       0.146374017   0.662535464   0.583125556
Fe       0.853625983   0.337464536   0.416874444
Fe       0.329193798   0.446532658   0.250000000
Fe       0.146374017   0.662535464   0.916874444
Fe       0.353625983   0.162535464   0.583125556
Fe       0.170806202   0.946532658   0.250000000
Fe       0.646374017   0.837464536   0.416874444
Fe       0.853625983   0.337464536   0.083125556
Fe       0.670806202   0.553467342   0.750000000
Fe       0.646374017   0.837464536   0.083125556
Fe       0.829193798   0.053467342   0.750000000
C        0.000000000   0.000000000   0.000000000
C        0.500000000   0.500000000   0.000000000
C        0.500000000   0.500000000   0.500000000
C        0.000000000   0.000000000   0.500000000
End final coordinates

     A final scf calculation at the relaxed structure.
     The G-vectors are recalculated for the final unit cell
     Results may differ from those at the preceding step.

     bravais-lattice index     =            0
     lattice parameter (alat)  =       8.8008  a.u.
     unit-cell volume          =    1590.5506 (a.u.)^3
     number of atoms/cell      =           16
     number of atomic types    =            2
     number of electrons       =       308.00
     number of Kohn-Sham states=          185
     kinetic-energy cutoff     =      40.0000  Ry
     charge density cutoff     =     160.0000  Ry
     convergence threshold     =      1.0E-04
     mixing beta               =       0.7000
     number of iterations used =            8  plain     mixing
     Exchange-correlation      = SLA-PZ-NOGX-NOGC ( 1 1 0 0 0)
     EXX-fraction              =        0.00

     celldm(1)=   8.800765  celldm(2)=   0.000000  celldm(3)=   0.000000
     celldm(4)=   0.000000  celldm(5)=   0.000000  celldm(6)=   0.000000

     crystal axes: (cart. coord. in units of alat)
               a(1) = (   1.126872   0.000000   0.000000 )
               a(2) = (   0.000000   1.219451   0.000000 )
               a(3) = (   0.000000   0.000000   1.698038 )

     reciprocal axes: (cart. coord. in units 2 pi/alat)
               b(1) = (  0.887412  0.000000  0.000000 )
               b(2) = (  0.000000  0.820041  0.000000 )
               b(3) = (  0.000000  0.000000  0.588915 )

     PseudoPot. # 1 for Tb read from file:
     /home/jld5415/pp.La/Tb.UPF
     MD5 check sum: 3d6088a3f0cf7fd2e110c43f7f8e95c2
     Pseudo is Norm-conserving, Zval = 19.0
     Generated in analytical, separable form
     Using radial grid of 1263 points,  6 beta functions with:
                l(1) =   0
                l(2) =   0
                l(3) =   1
                l(4) =   1
                l(5) =   2
                l(6) =   3

     PseudoPot. # 2 for Dy read from file:
     /home/jld5415/pp.La/Dy.UPF
     MD5 check sum: 9597327bec62616a94a14d07f3fd9936
     Pseudo is Norm-conserving, Zval = 20.0
     Generated in analytical, separable form
     Using radial grid of 1265 points,  6 beta functions with:
                l(1) =   0
                l(2) =   0
                l(3) =   1
                l(4) =   1
                l(5) =   2
                l(6) =   3

     atomic species   valence    mass     pseudopotential
        Fe            19.00    55.84500     Tb( 1.00)
        C             20.00    12.01070     Dy( 1.00)

      8 Sym. Ops., with inversion, found ( 6 have fractional translation)

   Cartesian axes

     site n.     atom                  positions (alat units)
         1           Fe  tau(   1) = (   0.3984913   0.1982040   1.5568875  )
         2           Fe  tau(   2) = (   0.1649448   0.8079293   0.9901693  )
         3           Fe  tau(   3) = (   0.9619273   0.4115213   0.7078686  )
         4           Fe  tau(   4) = (   0.3709593   0.5445245   0.4245095  )
         5           Fe  tau(   5) = (   0.1649448   0.8079293   1.5568875  )
         6           Fe  tau(   6) = (   0.3984913   0.1982040   0.9901693  )
         7           Fe  tau(   7) = (   0.1924767   1.1542498   0.4245095  )
         8           Fe  tau(   8) = (   0.7283809   1.0212467   0.7078686  )
         9           Fe  tau(   9) = (   0.9619273   0.4115213   0.1411503  )
        10           Fe  tau(  10) = (   0.7559128   0.6749261   1.2735284  )
        11           Fe  tau(  11) = (   0.7283809   1.0212467   0.1411503  )
        12           Fe  tau(  12) = (   0.9343954   0.0652008   1.2735284  )
        13           C   tau(  13) = (   0.0000000   0.0000000   0.0000000  )
        14           C   tau(  14) = (   0.5634361   0.6097253   0.0000000  )
        15           C   tau(  15) = (   0.5634361   0.6097253   0.8490189  )
        16           C   tau(  16) = (   0.0000000   0.0000000   0.8490189  )

     number of k points=    12  gaussian smearing, width (Ry)=  0.1000
                       cart. coord. in units 2pi/alat
        k(    1) = (   0.0000000   0.0000000   0.0000000), wk =   0.0833333
        k(    2) = (   0.0000000   0.0000000   0.1472288), wk =   0.1666667
        k(    3) = (   0.0000000   0.0000000  -0.2944575), wk =   0.0833333
        k(    4) = (   0.0000000   0.2733471   0.0000000), wk =   0.1666667
        k(    5) = (   0.0000000   0.2733471   0.1472288), wk =   0.3333333
        k(    6) = (   0.0000000   0.2733471  -0.2944575), wk =   0.1666667
        k(    7) = (  -0.4437061   0.0000000   0.0000000), wk =   0.0833333
        k(    8) = (  -0.4437061   0.0000000   0.1472288), wk =   0.1666667
        k(    9) = (  -0.4437061   0.0000000  -0.2944575), wk =   0.0833333
        k(   10) = (  -0.4437061   0.2733471   0.0000000), wk =   0.1666667
        k(   11) = (  -0.4437061   0.2733471   0.1472288), wk =   0.3333333
        k(   12) = (  -0.4437061   0.2733471  -0.2944575), wk =   0.1666667

     Largest allocated arrays     est. size (Mb)     dimensions
     Largest temporary arrays     est. size (Mb)     dimensions

     Initial potential from superposition of free atoms

     Starting from uniform charge
     Starting wfc are    0 randomized atomic wfcs

     Writing output data file Prototype-La-oP16-Fe3C.save

     Self-consistent Calculation

[...]

     iteration #  9     ecut=    40.00 Ry     beta=0.70
     CG style diagonalization
     c_bands:  2 eigenvalues not converged
     ethr =  8.12E-07,  avg # of iterations =  3.7

     total energy              =   -3782.15140300 Ry
     Harris-Foulkes estimate   =   -3782.15165076 Ry
     estimated scf accuracy    <       0.00046429 Ry

     iteration # 10     ecut=    40.00 Ry     beta=0.70
     CG style diagonalization
     ethr =  1.51E-07,  avg # of iterations =  3.5

     End of self-consistent calculation

[...]

          k = 0.0000 0.2733-0.2945 (  6768 PWs)   bands (ev):

[...]

          k =-0.4437 0.2733-0.2945 (  6824 PWs)   bands (ev):

   -50.2079 -50.2079 -50.2079 -50.2079 -41.5393 -41.5393 -41.5373 -41.5373
   -41.4270 -41.4270 -41.4222 -41.4222 -41.3591 -41.3591 -41.3421 -41.3421
   -18.4768 -18.4768 -18.4749 -18.4749 -18.0774 -18.0774 -18.0694 -18.0694
   -17.9015 -17.9015 -17.9010 -17.9010 -10.9160 -10.9160 -10.9139 -10.9139
   -10.3944 -10.3944 -10.3694 -10.3694 -10.2648 -10.2648 -10.2503 -10.2503
    -9.9408  -9.9408  -9.8936  -9.8936  -9.7981  -9.7981  -9.7675  -9.7675
    -9.6557  -9.6557  -9.5981  -9.5981  -9.5830  -9.5830  -9.5427  -9.5427
    -9.4874  -9.4874  -9.3941  -9.3941  -9.3154  -9.3154  -9.3101  -9.3101
    19.2846  19.2846  19.3000  19.3000  19.8239  19.8239  19.8808  19.8808
    20.1700  20.1700  20.2504  20.2504  20.8653  20.8653  21.0053  21.0053
    21.3169  21.3169  21.3837  21.3837  24.5350  24.5350  24.7763  24.7763
    25.3690  25.3690  25.6330  25.6330  25.7460  25.7460  25.8771  25.8771
    26.0903  26.0903  26.1391  26.1391  26.3736  26.3736  26.5884  26.5884
    26.9597  26.9597  26.9772  26.9772  27.4470  27.4470  27.5388  27.5388
    27.9445  27.9445  28.0543  28.0543  28.5152  28.5152  28.7367  28.7367
    28.7674  28.7674  28.9749  28.9749  29.5967  29.5967  29.6715  29.6715
    29.9817  29.9817  30.2877  30.2877  30.2913  30.2913  30.7002  30.7002
    30.9466  30.9466  31.0706  31.0706  31.5689  31.5689  32.0467  32.0467
    32.3425  32.3425  32.6229  32.6229  33.1700  33.1700  33.5576  33.5576
    34.8958  34.8958  37.0714  37.0714  39.5088  39.5088  39.6177  39.6178
    39.7917  39.7917  40.5216  40.5216  42.0138  42.0138  42.0435  42.0435
    42.5174  42.5174  42.7811  42.7812  43.8475  43.8475  43.9971  43.9971
    44.5945  44.5946  44.6039  44.6040  45.0940  45.0947  45.1521  45.1522
    45.4435

     the Fermi energy is    36.3284 ev

!    total energy              =   -3782.15151876 Ry
     Harris-Foulkes estimate   =   -3782.15155213 Ry
     estimated scf accuracy    <       0.00003864 Ry

     The total energy is the sum of the following terms:

     one-electron contribution =    -465.10041022 Ry
     hartree contribution      =     561.93114045 Ry
     xc contribution           =    -372.59110994 Ry
     ewald contribution        =   -3506.18285317 Ry
     smearing contrib. (-TS)   =      -0.20828588 Ry

     convergence has been achieved in  10 iterations

     Forces acting on atoms (Ry/au):

     atom    1 type  1   force =     0.45795437   -0.47058636   -0.57741253
     atom    2 type  1   force =    -0.45795437   -0.47058636    0.57741253
     atom    3 type  1   force =     0.45795437    0.47058636   -0.57741253
     atom    4 type  1   force =    -0.75945036   -0.27826258    0.00000000
     atom    5 type  1   force =    -0.45795437   -0.47058636   -0.57741253
     atom    6 type  1   force =     0.45795437   -0.47058636    0.57741253
     atom    7 type  1   force =     0.75945036   -0.27826258    0.00000000
     atom    8 type  1   force =    -0.45795437    0.47058636   -0.57741253
     atom    9 type  1   force =     0.45795437    0.47058636    0.57741253
     atom   10 type  1   force =     0.75945036    0.27826258    0.00000000
     atom   11 type  1   force =    -0.45795437    0.47058636    0.57741253
     atom   12 type  1   force =    -0.75945036    0.27826258    0.00000000
     atom   13 type  2   force =     0.00000000    0.00000000    0.00000000
     atom   14 type  2   force =     0.00000000    0.00000000    0.00000000
     atom   15 type  2   force =     0.00000000    0.00000000    0.00000000
     atom   16 type  2   force =     0.00000000    0.00000000    0.00000000

     Total force =     2.955235     Total SCF correction =     0.000000

     entering subroutine stress ...

          total   stress  (Ry/bohr**3)                   (kbar)     P= 3165.32
   0.02189130   0.00000000   0.00000000       3220.32      0.00      0.00
   0.00000000   0.02111699   0.00000000          0.00   3106.42      0.00
   0.00000000   0.00000000   0.02154397          0.00      0.00   3169.23

     Writing output data file Prototype-La-oP16-Fe3C.save

     General routines

     Parallel routines

   This run was terminated on:  18:45:27  22Mar2018

   JOB DONE.