     Program PWSCF v.5.0.2 starts on 22Mar2018 at 17:31: 5

     Current dimensions of program PWSCF are:
     Max number of different atomic species (ntypx) = 10
     Max number of k-points (npk) =  40000
     Max angular momentum in pseudopotentials (lmaxx) =  3
     Waiting for input...
     Reading input from standard input

     Subspace diagonalization in iterative solution of the eigenvalue problem:
     a serial algorithm will be used

     bravais-lattice index     =            0
     lattice parameter (alat)  =      12.0168  a.u.
     unit-cell volume          =    1187.3413 (a.u.)^3
     number of atoms/cell      =            8
     number of atomic types    =            2
     number of electrons       =       154.00
     number of Kohn-Sham states=           92
     kinetic-energy cutoff     =      40.0000  Ry
     charge density cutoff     =     160.0000  Ry
     convergence threshold     =      1.0E-04
     mixing beta               =       0.7000
     number of iterations used =            8  plain     mixing
     Exchange-correlation      = SLA-PZ-NOGX-NOGC ( 1 1 0 0 0)
     EXX-fraction              =        0.00
     nstep                     =           50

     celldm(1)=  12.016801  celldm(2)=   0.000000  celldm(3)=   0.000000
     celldm(4)=   0.000000  celldm(5)=   0.000000  celldm(6)=   0.000000

     crystal axes: (cart. coord. in units of alat)
               a(1) = (   1.000000   0.000000   0.000000 )
               a(2) = (  -0.500000   0.866025   0.000000 )
               a(3) = (   0.000000   0.000000   0.790093 )

     reciprocal axes: (cart. coord. in units 2 pi/alat)
               b(1) = (  1.000000  0.577350  0.000000 )
               b(2) = (  0.000000  1.154701  0.000000 )
               b(3) = (  0.000000  0.000000  1.265674 )

     PseudoPot. # 1 for Tb read from file:
     /home/cwx6513/pp.La/Tb.UPF
     MD5 check sum: 3d6088a3f0cf7fd2e110c43f7f8e95c2
     Pseudo is Norm-conserving, Zval = 19.0
     Generated in analytical, separable form
     Using radial grid of 1263 points,  6 beta functions with:
                l(1) =   0
                l(2) =   0
                l(3) =   1
                l(4) =   1
                l(5) =   2
                l(6) =   3

     PseudoPot. # 2 for Dy read from file:
     /home/cwx6513/pp.La/Dy.UPF
     MD5 check sum: 9597327bec62616a94a14d07f3fd9936
     Pseudo is Norm-conserving, Zval = 20.0
     Generated in analytical, separable form
     Using radial grid of 1265 points,  6 beta functions with:
                l(1) =   0
                l(2) =   0
                l(3) =   1
                l(4) =   1
                l(5) =   2
                l(6) =   3

     atomic species   valence    mass     pseudopotential
        Mg            19.00    24.30500     Tb( 1.00)
        Cd            20.00   112.41100     Dy( 1.00)

     24 Sym. Ops., with inversion, found (12 have fractional translation)

   Cartesian axes

     site n.     atom                  positions (alat units)
         1           Mg  tau(   1) = (   0.2478935   0.7204716   0.1975233  )
         2           Mg  tau(   2) = (   0.7478935   0.1455538   0.5925699  )
         3           Mg  tau(   3) = (   0.2521065   0.1455538   0.5925699  )
         4           Mg  tau(   4) = (  -0.2478935   0.7204716   0.1975233  )
         5           Mg  tau(   5) = (   0.0000000   0.2911075   0.1975233  )
         6           Mg  tau(   6) = (   0.5000000   0.5749179   0.5925699  )
         7           Cd  tau(   7) = (   0.5000005   0.2886748   0.1975233  )
         8           Cd  tau(   8) = (  -0.0000005   0.5773506   0.5925699  )

     number of k points=    64  gaussian smearing, width (Ry)=  0.1000
                       cart. coord. in units 2pi/alat
        k(    1) = (   0.0000000   0.0000000   0.0000000), wk =   0.0095238
        k(    2) = (   0.0000000   0.0000000   0.1808105), wk =   0.0190476
        k(    3) = (   0.0000000   0.0000000   0.3616210), wk =   0.0190476
        k(    4) = (   0.0000000   0.0000000   0.5424315), wk =   0.0190476
        k(    5) = (   0.0000000   0.1924501   0.0000000), wk =   0.0190476
        k(    6) = (   0.0000000   0.1924501   0.1808105), wk =   0.0380952
        k(    7) = (   0.0000000   0.1924501   0.3616210), wk =   0.0380952
        k(    8) = (   0.0000000   0.1924501   0.5424315), wk =   0.0380952
        k(    9) = (   0.0000000   0.3849002   0.0000000), wk =   0.0190476
        k(   10) = (   0.0000000   0.3849002   0.1808105), wk =   0.0380952
        k(   11) = (   0.0000000   0.3849002   0.3616210), wk =   0.0380952
        k(   12) = (   0.0000000   0.3849002   0.5424315), wk =   0.0380952
        k(   13) = (   0.0000000  -0.5773503   0.0000000), wk =   0.0095238
        k(   14) = (   0.0000000  -0.5773503   0.1808105), wk =   0.0190476
        k(   15) = (   0.0000000  -0.5773503   0.3616210), wk =   0.0190476
        k(   16) = (   0.0000000  -0.5773503   0.5424315), wk =   0.0190476
        k(   17) = (   0.2000000   0.1154701   0.0000000), wk =   0.0190476
        k(   18) = (   0.2000000   0.1154701   0.1808105), wk =   0.0380952
        k(   19) = (   0.2000000   0.1154701   0.3616210), wk =   0.0380952
        k(   20) = (   0.2000000   0.1154701   0.5424315), wk =   0.0380952
        k(   21) = (   0.2000000   0.3079201   0.0000000), wk =   0.0190476
        k(   22) = (   0.2000000   0.3079201   0.1808105), wk =   0.0380952
        k(   23) = (   0.2000000   0.3079201   0.3616210), wk =   0.0380952
        k(   24) = (   0.2000000   0.3079201   0.5424315), wk =   0.0380952
        k(   25) = (   0.2000000   0.5003702   0.0000000), wk =   0.0190476
        k(   26) = (   0.2000000   0.5003702   0.1808105), wk =   0.0380952
        k(   27) = (   0.2000000   0.5003702   0.3616210), wk =   0.0380952
        k(   28) = (   0.2000000   0.5003702   0.5424315), wk =   0.0380952
        k(   29) = (   0.2000000  -0.4618802   0.0000000), wk =   0.0190476
        k(   30) = (   0.2000000  -0.4618802   0.1808105), wk =   0.0380952
        k(   31) = (   0.2000000  -0.4618802   0.3616210), wk =   0.0380952
        k(   32) = (   0.2000000  -0.4618802   0.5424315), wk =   0.0380952
        k(   33) = (   0.2000000  -0.2694301   0.0000000), wk =   0.0190476
        k(   34) = (   0.2000000  -0.2694301   0.1808105), wk =   0.0380952
        k(   35) = (   0.2000000  -0.2694301   0.3616210), wk =   0.0380952
        k(   36) = (   0.2000000  -0.2694301   0.5424315), wk =   0.0380952
        k(   37) = (   0.2000000  -0.0769800   0.0000000), wk =   0.0190476
        k(   38) = (   0.2000000  -0.0769800   0.1808105), wk =   0.0380952
        k(   39) = (   0.2000000  -0.0769800   0.3616210), wk =   0.0380952
        k(   40) = (   0.2000000  -0.0769800   0.5424315), wk =   0.0380952
        k(   41) = (   0.4000000   0.2309401   0.0000000), wk =   0.0190476
        k(   42) = (   0.4000000   0.2309401   0.1808105), wk =   0.0380952
        k(   43) = (   0.4000000   0.2309401   0.3616210), wk =   0.0380952
        k(   44) = (   0.4000000   0.2309401   0.5424315), wk =   0.0380952
        k(   45) = (   0.4000000   0.4233902   0.0000000), wk =   0.0190476
        k(   46) = (   0.4000000   0.4233902   0.1808105), wk =   0.0380952
        k(   47) = (   0.4000000   0.4233902   0.3616210), wk =   0.0380952
        k(   48) = (   0.4000000   0.4233902   0.5424315), wk =   0.0380952
        k(   49) = (   0.4000000   0.6158403   0.0000000), wk =   0.0190476
        k(   50) = (   0.4000000   0.6158403   0.1808105), wk =   0.0380952
        k(   51) = (   0.4000000   0.6158403   0.3616210), wk =   0.0380952
        k(   52) = (   0.4000000   0.6158403   0.5424315), wk =   0.0380952
        k(   53) = (   0.4000000  -0.3464102   0.0000000), wk =   0.0190476
        k(   54) = (   0.4000000  -0.3464102   0.1808105), wk =   0.0380952
        k(   55) = (   0.4000000  -0.3464102   0.3616210), wk =   0.0380952
        k(   56) = (   0.4000000  -0.3464102   0.5424315), wk =   0.0380952
        k(   57) = (   0.4000000  -0.1539601   0.0000000), wk =   0.0190476
        k(   58) = (   0.4000000  -0.1539601   0.1808105), wk =   0.0380952
        k(   59) = (   0.4000000  -0.1539601   0.3616210), wk =   0.0380952
        k(   60) = (   0.4000000  -0.1539601   0.5424315), wk =   0.0380952
        k(   61) = (   0.4000000   0.0384900   0.0000000), wk =   0.0190476
        k(   62) = (   0.4000000   0.0384900   0.1808105), wk =   0.0380952
        k(   63) = (   0.4000000   0.0384900   0.3616210), wk =   0.0380952
        k(   64) = (   0.4000000   0.0384900   0.5424315), wk =   0.0380952

     Largest allocated arrays     est. size (Mb)     dimensions
     Largest temporary arrays     est. size (Mb)     dimensions

     Initial potential from superposition of free atoms

     Starting from uniform charge
     Starting wfc are    0 randomized atomic wfcs

     Self-consistent Calculation

     iteration #  1     ecut=    40.00 Ry     beta=0.70
     CG style diagonalization
     c_bands:  5 eigenvalues not converged
     c_bands:  3 eigenvalues not converged
     c_bands:  5 eigenvalues not converged
     c_bands:  5 eigenvalues not converged
     c_bands:  5 eigenvalues not converged
     c_bands:  4 eigenvalues not converged
     c_bands:  5 eigenvalues not converged
     c_bands:  3 eigenvalues not converged
     c_bands:  5 eigenvalues not converged
     c_bands:  1 eigenvalues not converged
     c_bands:  5 eigenvalues not converged
     c_bands:  4 eigenvalues not converged
     c_bands:  4 eigenvalues not converged
     c_bands:  5 eigenvalues not converged
     c_bands:  4 eigenvalues not converged
     c_bands:  2 eigenvalues not converged
     c_bands:  2 eigenvalues not converged
     c_bands:  5 eigenvalues not converged
     c_bands:  4 eigenvalues not converged
     c_bands:  4 eigenvalues not converged
     c_bands:  4 eigenvalues not converged
     c_bands:  5 eigenvalues not converged
     c_bands:  5 eigenvalues not converged
     c_bands:  2 eigenvalues not converged
     c_bands:  3 eigenvalues not converged
     c_bands:  4 eigenvalues not converged
     c_bands:  4 eigenvalues not converged
     c_bands:  4 eigenvalues not converged
     c_bands:  2 eigenvalues not converged
     c_bands:  4 eigenvalues not converged
     ethr =  1.00E-02,  avg # of iterations = 14.0

     total energy              =   -1712.62470841 Ry
     Harris-Foulkes estimate   =   -2337.11732610 Ry
     estimated scf accuracy    <     801.35556046 Ry

     iteration #  2     ecut=    40.00 Ry     beta=0.70
     CG style diagonalization
     ethr =  1.00E-02,  avg # of iterations =  8.1

[...]

     End of self-consistent calculation

          k = 0.0000 0.0000 0.0000 (  5047 PWs)   bands (ev):

   -60.5320 -60.5295 -53.0161 -52.9995 -52.9968 -52.9967 -52.9905 -52.9904
   -27.4429 -27.4363 -27.4155 -27.4155 -27.4104 -27.4104 -21.5402 -21.4950
   -21.4367 -21.4176 -21.4175 -21.3927 -21.3927 -21.3843 -21.3843 -21.3180
   -21.2468 -21.2468 -21.1791 -21.1790 -21.1754 -21.1712 -21.1668 -21.1668
    12.8600  12.8765  12.8765  12.9507  12.9849  13.0857  13.0857  13.2477
[...]
        k(   17) = (   0.2026572   0.1170042   0.0000000), wk =   0.0190476
        k(   18) = (   0.2026572   0.1170042   0.1794962), wk =   0.0380952
        k(   19) = (   0.2026572   0.1170042   0.3589923), wk =   0.0380952
        k(   20) = (   0.2026572   0.1170042   0.5384885), wk =   0.0380952
        k(   21) = (   0.2026572   0.3120112   0.0000000), wk =   0.0190476
        k(   22) = (   0.2026572   0.3120112   0.1794962), wk =   0.0380952
        k(   23) = (   0.2026572   0.3120112   0.3589923), wk =   0.0380952
        k(   24) = (   0.2026572   0.3120112   0.5384885), wk =   0.0380952
        k(   25) = (   0.2026572   0.5070182   0.0000000), wk =   0.0190476
        k(   26) = (   0.2026572   0.5070182   0.1794962), wk =   0.0380952
        k(   27) = (   0.2026572   0.5070182   0.3589923), wk =   0.0380952
        k(   28) = (   0.2026572   0.5070182   0.5384885), wk =   0.0380952
        k(   29) = (   0.2026572  -0.4680168   0.0000000), wk =   0.0190476
        k(   30) = (   0.2026572  -0.4680168   0.1794962), wk =   0.0380952
        k(   31) = (   0.2026572  -0.4680168   0.3589923), wk =   0.0380952
        k(   32) = (   0.2026572  -0.4680168   0.5384885), wk =   0.0380952
        k(   33) = (   0.2026572  -0.2730098   0.0000000), wk =   0.0190476
        k(   34) = (   0.2026572  -0.2730098   0.1794962), wk =   0.0380952
        k(   35) = (   0.2026572  -0.2730098   0.3589923), wk =   0.0380952
        k(   36) = (   0.2026572  -0.2730098   0.5384885), wk =   0.0380952
        k(   37) = (   0.2026572  -0.0780028   0.0000000), wk =   0.0190476
        k(   38) = (   0.2026572  -0.0780028   0.1794962), wk =   0.0380952
        k(   39) = (   0.2026572  -0.0780028   0.3589923), wk =   0.0380952
        k(   40) = (   0.2026572  -0.0780028   0.5384885), wk =   0.0380952
        k(   41) = (   0.4053144   0.2340084   0.0000000), wk =   0.0190476
        k(   42) = (   0.4053144   0.2340084   0.1794962), wk =   0.0380952
        k(   43) = (   0.4053144   0.2340084   0.3589923), wk =   0.0380952
        k(   44) = (   0.4053144   0.2340084   0.5384885), wk =   0.0380952
        k(   45) = (   0.4053144   0.4290154   0.0000000), wk =   0.0190476
        k(   46) = (   0.4053144   0.4290154   0.1794962), wk =   0.0380952
        k(   47) = (   0.4053144   0.4290154   0.3589923), wk =   0.0380952
        k(   48) = (   0.4053144   0.4290154   0.5384885), wk =   0.0380952
        k(   49) = (   0.4053144   0.6240224   0.0000000), wk =   0.0190476
        k(   50) = (   0.4053144   0.6240224   0.1794962), wk =   0.0380952
        k(   51) = (   0.4053144   0.6240224   0.3589923), wk =   0.0380952
        k(   52) = (   0.4053144   0.6240224   0.5384885), wk =   0.0380952
        k(   53) = (   0.4053144  -0.3510126   0.0000000), wk =   0.0190476
        k(   54) = (   0.4053144  -0.3510126   0.1794962), wk =   0.0380952
        k(   55) = (   0.4053144  -0.3510126   0.3589923), wk =   0.0380952
        k(   56) = (   0.4053144  -0.3510126   0.5384885), wk =   0.0380952
        k(   57) = (   0.4053144  -0.1560056   0.0000000), wk =   0.0190476
        k(   58) = (   0.4053144  -0.1560056   0.1794962), wk =   0.0380952
        k(   59) = (   0.4053144  -0.1560056   0.3589923), wk =   0.0380952
        k(   60) = (   0.4053144  -0.1560056   0.5384885), wk =   0.0380952
        k(   61) = (   0.4053144   0.0390014   0.0000000), wk =   0.0190476
        k(   62) = (   0.4053144   0.0390014   0.1794962), wk =   0.0380952
        k(   63) = (   0.4053144   0.0390014   0.3589923), wk =   0.0380952
        k(   64) = (   0.4053144   0.0390014   0.5384885), wk =   0.0380952

[...]

     The maximum number of steps has been reached.

     End of BFGS Geometry Optimization
Begin final coordinates
     new unit-cell volume =   1164.87665 a.u.^3 (   172.61691 Ang^3 )

CELL_PARAMETERS (alat= 12.01680127)
   0.986888136   0.000000000   0.000000000
  -0.493444068   0.854670196   0.000000000
   0.000000000   0.000000000   0.795878578

ATOMIC_POSITIONS (crystal)
Mg       0.668927725   0.834463863   0.250000000
Mg       0.834463863   0.165536137   0.750000000
Mg       0.331072275   0.165536137   0.750000000
Mg       0.165536137   0.834463863   0.250000000
Mg       0.165536137   0.331072275   0.250000000
Mg       0.834463863   0.668927725   0.750000000
Cd       0.666667000   0.333333000   0.250000000
Cd       0.333333000   0.666667000   0.750000000
End final coordinates

     A final scf calculation at the relaxed structure.
     The G-vectors are recalculated for the final unit cell
     Results may differ from those at the preceding step.

     bravais-lattice index     =            0
     lattice parameter (alat)  =      12.0168  a.u.
     unit-cell volume          =    1164.8766 (a.u.)^3
     number of atoms/cell      =            8
     number of atomic types    =            2
     number of electrons       =       154.00
     number of Kohn-Sham states=           92
     kinetic-energy cutoff     =      40.0000  Ry
     charge density cutoff     =     160.0000  Ry
     convergence threshold     =      4.6E-05
     mixing beta               =       0.7000
     number of iterations used =            8  plain     mixing
     Exchange-correlation      = SLA-PZ-NOGX-NOGC ( 1 1 0 0 0)
     EXX-fraction              =        0.00

     celldm(1)=  12.016801  celldm(2)=   0.000000  celldm(3)=   0.000000
     celldm(4)=   0.000000  celldm(5)=   0.000000  celldm(6)=   0.000000

     crystal axes: (cart. coord. in units of alat)
               a(1) = (   0.986888   0.000000   0.000000 )
               a(2) = (  -0.493444   0.854670   0.000000 )
               a(3) = (   0.000000   0.000000   0.795879 )

     reciprocal axes: (cart. coord. in units 2 pi/alat)
               b(1) = (  1.013286  0.585021  0.000000 )
               b(2) = (  0.000000  1.170042  0.000000 )
               b(3) = (  0.000000  0.000000  1.256473 )

     PseudoPot. # 1 for Tb read from file:
     /home/cwx6513/pp.La/Tb.UPF
     MD5 check sum: 3d6088a3f0cf7fd2e110c43f7f8e95c2
     Pseudo is Norm-conserving, Zval = 19.0
     Generated in analytical, separable form
     Using radial grid of 1263 points,  6 beta functions with:
                l(1) =   0
                l(2) =   0
                l(3) =   1
                l(4) =   1
                l(5) =   2
                l(6) =   3

     PseudoPot. # 2 for Dy read from file:
     /home/cwx6513/pp.La/Dy.UPF
     MD5 check sum: 9597327bec62616a94a14d07f3fd9936
     Pseudo is Norm-conserving, Zval = 20.0
     Generated in analytical, separable form
     Using radial grid of 1265 points,  6 beta functions with:
                l(1) =   0
                l(2) =   0
                l(3) =   1
                l(4) =   1
                l(5) =   2
                l(6) =   3

     atomic species   valence    mass     pseudopotential
        Mg            19.00    24.30500     Tb( 1.00)
        Cd            20.00   112.41100     Dy( 1.00)

     24 Sym. Ops., with inversion, found (12 have fractional translation)

   Cartesian axes

     site n.     atom                  positions (alat units)
         1           Mg  tau(   1) = (   0.2483956   0.7131914   0.1989696  )
         2           Mg  tau(   2) = (   0.7418397   0.1414788   0.5969089  )
         3           Mg  tau(   3) = (   0.2450485   0.1414788   0.5969089  )
         4           Mg  tau(   4) = (  -0.2483956   0.7131914   0.1989696  )
         5           Mg  tau(   5) = (   0.0000000   0.2829576   0.1989696  )
         6           Mg  tau(   6) = (   0.4934441   0.5717126   0.5969089  )
         7           Cd  tau(   7) = (   0.4934446   0.2848898   0.1989696  )
         8           Cd  tau(   8) = (  -0.0000005   0.5697804   0.5969089  )

     number of k points=    64  gaussian smearing, width (Ry)=  0.1000
                       cart. coord. in units 2pi/alat
        k(    1) = (   0.0000000   0.0000000   0.0000000), wk =   0.0095238
        k(    2) = (   0.0000000   0.0000000   0.1794962), wk =   0.0190476
        k(    3) = (   0.0000000   0.0000000   0.3589923), wk =   0.0190476
        k(    4) = (   0.0000000   0.0000000   0.5384885), wk =   0.0190476
        k(    5) = (   0.0000000   0.1950070   0.0000000), wk =   0.0190476
        k(    6) = (   0.0000000   0.1950070   0.1794962), wk =   0.0380952
        k(    7) = (   0.0000000   0.1950070   0.3589923), wk =   0.0380952
        k(    8) = (   0.0000000   0.1950070   0.5384885), wk =   0.0380952
        k(    9) = (   0.0000000   0.3900140   0.0000000), wk =   0.0190476
        k(   10) = (   0.0000000   0.3900140   0.1794962), wk =   0.0380952
        k(   11) = (   0.0000000   0.3900140   0.3589923), wk =   0.0380952
        k(   12) = (   0.0000000   0.3900140   0.5384885), wk =   0.0380952
        k(   13) = (   0.0000000  -0.5850210   0.0000000), wk =   0.0095238
        k(   14) = (   0.0000000  -0.5850210   0.1794962), wk =   0.0190476
        k(   15) = (   0.0000000  -0.5850210   0.3589923), wk =   0.0190476
        k(   16) = (   0.0000000  -0.5850210   0.5384885), wk =   0.0190476
        k(   17) = (   0.2026572   0.1170042   0.0000000), wk =   0.0190476
        k(   18) = (   0.2026572   0.1170042   0.1794962), wk =   0.0380952
        k(   19) = (   0.2026572   0.1170042   0.3589923), wk =   0.0380952
        k(   20) = (   0.2026572   0.1170042   0.5384885), wk =   0.0380952
        k(   21) = (   0.2026572   0.3120112   0.0000000), wk =   0.0190476
        k(   22) = (   0.2026572   0.3120112   0.1794962), wk =   0.0380952
        k(   23) = (   0.2026572   0.3120112   0.3589923), wk =   0.0380952
        k(   24) = (   0.2026572   0.3120112   0.5384885), wk =   0.0380952
        k(   25) = (   0.2026572   0.5070182   0.0000000), wk =   0.0190476
        k(   26) = (   0.2026572   0.5070182   0.1794962), wk =   0.0380952
        k(   27) = (   0.2026572   0.5070182   0.3589923), wk =   0.0380952
        k(   28) = (   0.2026572   0.5070182   0.5384885), wk =   0.0380952
        k(   29) = (   0.2026572  -0.4680168   0.0000000), wk =   0.0190476
        k(   30) = (   0.2026572  -0.4680168   0.1794962), wk =   0.0380952
        k(   31) = (   0.2026572  -0.4680168   0.3589923), wk =   0.0380952
        k(   32) = (   0.2026572  -0.4680168   0.5384885), wk =   0.0380952
        k(   33) = (   0.2026572  -0.2730098   0.0000000), wk =   0.0190476
        k(   34) = (   0.2026572  -0.2730098   0.1794962), wk =   0.0380952
        k(   35) = (   0.2026572  -0.2730098   0.3589923), wk =   0.0380952
        k(   36) = (   0.2026572  -0.2730098   0.5384885), wk =   0.0380952
        k(   37) = (   0.2026572  -0.0780028   0.0000000), wk =   0.0190476
        k(   38) = (   0.2026572  -0.0780028   0.1794962), wk =   0.0380952
        k(   39) = (   0.2026572  -0.0780028   0.3589923), wk =   0.0380952
        k(   40) = (   0.2026572  -0.0780028   0.5384885), wk =   0.0380952
        k(   41) = (   0.4053144   0.2340084   0.0000000), wk =   0.0190476
        k(   42) = (   0.4053144   0.2340084   0.1794962), wk =   0.0380952
        k(   43) = (   0.4053144   0.2340084   0.3589923), wk =   0.0380952
        k(   44) = (   0.4053144   0.2340084   0.5384885), wk =   0.0380952
        k(   45) = (   0.4053144   0.4290154   0.0000000), wk =   0.0190476
        k(   46) = (   0.4053144   0.4290154   0.1794962), wk =   0.0380952
        k(   47) = (   0.4053144   0.4290154   0.3589923), wk =   0.0380952
        k(   48) = (   0.4053144   0.4290154   0.5384885), wk =   0.0380952
        k(   49) = (   0.4053144   0.6240224   0.0000000), wk =   0.0190476
        k(   50) = (   0.4053144   0.6240224   0.1794962), wk =   0.0380952
        k(   51) = (   0.4053144   0.6240224   0.3589923), wk =   0.0380952
        k(   52) = (   0.4053144   0.6240224   0.5384885), wk =   0.0380952
        k(   53) = (   0.4053144  -0.3510126   0.0000000), wk =   0.0190476
        k(   54) = (   0.4053144  -0.3510126   0.1794962), wk =   0.0380952
        k(   55) = (   0.4053144  -0.3510126   0.3589923), wk =   0.0380952
        k(   56) = (   0.4053144  -0.3510126   0.5384885), wk =   0.0380952
        k(   57) = (   0.4053144  -0.1560056   0.0000000), wk =   0.0190476
        k(   58) = (   0.4053144  -0.1560056   0.1794962), wk =   0.0380952
        k(   59) = (   0.4053144  -0.1560056   0.3589923), wk =   0.0380952
        k(   60) = (   0.4053144  -0.1560056   0.5384885), wk =   0.0380952
        k(   61) = (   0.4053144   0.0390014   0.0000000), wk =   0.0190476
        k(   62) = (   0.4053144   0.0390014   0.1794962), wk =   0.0380952
        k(   63) = (   0.4053144   0.0390014   0.3589923), wk =   0.0380952
        k(   64) = (   0.4053144   0.0390014   0.5384885), wk =   0.0380952

     Largest allocated arrays     est. size (Mb)     dimensions
     Largest temporary arrays     est. size (Mb)     dimensions

     Initial potential from superposition of free atoms

     Starting from uniform charge
     Starting wfc are    0 randomized atomic wfcs

     Writing output data file Prototype-La-hP8-Mg3Cd.save

     Self-consistent Calculation

[...]

     negative rho (up, down):  0.184E-01 0.000E+00

[...]

     iteration #  9     ecut=    40.00 Ry     beta=0.70
     CG style diagonalization
     c_bands:  1 eigenvalues not converged
     c_bands:  1 eigenvalues not converged
     c_bands:  1 eigenvalues not converged
     c_bands:  1 eigenvalues not converged
     c_bands:  1 eigenvalues not converged
     c_bands:  1 eigenvalues not converged
     c_bands:  1 eigenvalues not converged
     c_bands:  1 eigenvalues not converged
     ethr =  4.57E-06,  avg # of iterations =  3.5

[...]

     total energy              =   -1897.93956658 Ry
     Harris-Foulkes estimate   =   -1897.93971691 Ry
     estimated scf accuracy    <       0.00030468 Ry

     iteration # 11     ecut=    40.00 Ry     beta=0.70
     CG style diagonalization
     ethr =  1.98E-07,  avg # of iterations =  3.5

     End of self-consistent calculation

[...]

          k = 0.4053 0.0390 0.5385 (  4975 PWs)   bands (ev):

   -60.0459 -60.0452 -52.5285 -52.5204 -52.5162 -52.5139 -52.5117 -52.5112
   -26.9438 -26.9431 -26.9377 -26.9371 -26.9355 -26.9330 -21.0122 -21.0071
   -20.9933 -20.9874 -20.9599 -20.9577 -20.8564 -20.8421 -20.8207 -20.8123
   -20.7861 -20.7748 -20.7620 -20.7575 -20.7514 -20.7302 -20.7045 -20.7002
    13.5446  13.5941  13.6743  13.6932  13.8050  13.8389  13.9515  13.9913
    14.0604  14.1492  14.7204  14.8102  15.2561  15.4617  15.5332  15.5618
    15.8621  15.9113  16.1559  16.2206  16.2967  16.3759  16.6206  16.6650
    16.8686  16.9452  16.9944  17.1986  17.4566  17.5102  17.5884  17.6900
    17.9420  18.1191  18.2312  18.3077  18.4803  18.5776  18.6952  18.9166
    19.1949  19.2580  19.8984  20.3988  21.0610  21.5041  23.6215  23.9677
    25.9268  26.3229  27.9386  28.4351  28.8770  29.0298  29.4267  30.0670
    30.6327  31.2623  31.6582  31.7212

     the Fermi energy is    22.4437 ev

!    total energy              =   -1897.93962117 Ry
     Harris-Foulkes estimate   =   -1897.93962996 Ry
     estimated scf accuracy    <       0.00001130 Ry

     The total energy is the sum of the following terms:

     one-electron contribution =    -383.20948956 Ry
     hartree contribution      =     292.74346511 Ry
     xc contribution           =    -179.49512031 Ry
     ewald contribution        =   -1627.83014216 Ry
     smearing contrib. (-TS)   =      -0.14833425 Ry

     convergence has been achieved in  11 iterations

     Forces acting on atoms (Ry/au):

     atom    1 type  1   force =     0.00278931    0.00161041    0.00000000
     atom    2 type  1   force =     0.00278931   -0.00161041    0.00000000
     atom    3 type  1   force =    -0.00278931   -0.00161041    0.00000000
     atom    4 type  1   force =    -0.00278931    0.00161041    0.00000000
     atom    5 type  1   force =     0.00000000   -0.00322082    0.00000000
     atom    6 type  1   force =     0.00000000    0.00322082    0.00000000
     atom    7 type  2   force =     0.00000000    0.00000000    0.00000000
     atom    8 type  2   force =     0.00000000    0.00000000    0.00000000

     Total force =     0.007889     Total SCF correction =     0.000000

     entering subroutine stress ...

          total   stress  (Ry/bohr**3)                   (kbar)     P= -445.38
  -0.00307191   0.00000000   0.00000000       -451.89      0.00      0.00
   0.00000000  -0.00307191   0.00000000          0.00   -451.89      0.00
   0.00000000   0.00000000  -0.00293907          0.00      0.00   -432.35

     Writing output data file Prototype-La-hP8-Mg3Cd.save

     General routines

     Parallel routines

   This run was terminated on:  18:29:15  22Mar2018

   JOB DONE.