     Program PWSCF v.5.0.2 starts on 22Mar2018 at 17:31: 7

     Current dimensions of program PWSCF are:
     Max number of different atomic species (ntypx) = 10
     Max number of k-points (npk) =  40000
     Max angular momentum in pseudopotentials (lmaxx) =  3
     Waiting for input...
     Reading input from standard input

     Subspace diagonalization in iterative solution of the eigenvalue problem:
     a serial algorithm will be used

     bravais-lattice index     =            0
     lattice parameter (alat)  =      13.3930  a.u.
     unit-cell volume          =    1134.0956 (a.u.)^3
     number of atoms/cell      =            4
     number of atomic types    =            2
     number of electrons       =        78.00
     number of Kohn-Sham states=           47
     kinetic-energy cutoff     =      40.0000  Ry
     charge density cutoff     =     160.0000  Ry
     convergence threshold     =      1.0E-04
     mixing beta               =       0.7000
     number of iterations used =            8  plain     mixing
     Exchange-correlation      = SLA-PZ-NOGX-NOGC ( 1 1 0 0 0)
     EXX-fraction              =        0.00
     nstep                     =           50

     celldm(1)=  13.392972  celldm(2)=   0.000000  celldm(3)=   0.000000
     celldm(4)=   0.000000  celldm(5)=   0.000000  celldm(6)=   0.000000

     crystal axes: (cart. coord. in units of alat)
               a(1) = (   1.000000   0.000000   0.000000 )
               a(2) = (  -0.776311   0.630350   0.000000 )
               a(3) = (   0.000000   0.000000   0.748922 )

     reciprocal axes: (cart. coord. in units 2 pi/alat)
               b(1) = (  1.000000  1.231554  0.000000 )
               b(2) = (  0.000000  1.586419  0.000000 )
               b(3) = (  0.000000  0.000000  1.335252 )

     PseudoPot. # 1 for Tb read from file:
     /home/jld5415/pp.La/Tb.UPF
     MD5 check sum: 3d6088a3f0cf7fd2e110c43f7f8e95c2
     Pseudo is Norm-conserving, Zval = 19.0
     Generated in analytical, separable form
     Using radial grid of 1263 points,  6 beta functions with:
                l(1) =   0
                l(2) =   0
                l(3) =   1
                l(4) =   1
                l(5) =   2
                l(6) =   3

     PseudoPot. # 2 for Dy read from file:
     /home/jld5415/pp.La/Dy.UPF
     MD5 check sum: 9597327bec62616a94a14d07f3fd9936
     Pseudo is Norm-conserving, Zval = 20.0
     Generated in analytical, separable form
     Using radial grid of 1265 points,  6 beta functions with:
                l(1) =   0
                l(2) =   0
                l(3) =   1
                l(4) =   1
                l(5) =   2
                l(6) =   3

     atomic species   valence    mass     pseudopotential
        Tl            19.00   204.38300     Tb( 1.00)
        I             20.00   126.90400     Dy( 1.00)

      2 Sym. Ops., with inversion, found
          (note:  2 additional sym.ops. were found but ignored
           their fractional translations are incommensurate with FFT grid)

   Cartesian axes

     site n.     atom                  positions (alat units)
         1           Tl  tau(   1) = (  -0.0906317   0.3870269   0.5616917  )
         2           Tl  tau(   2) = (   0.3143210   0.2433234   0.1872306  )
         3           I   tau(   3) = (  -0.5408004   0.5467760   0.5616917  )
         4           I   tau(   4) = (   0.7644896   0.0835744   0.1872306  )

     number of k points=   106  gaussian smearing, width (Ry)=  0.1000

     Number of k-points >= 100: set verbosity='high' to print them.

     Largest allocated arrays     est. size (Mb)     dimensions
     Largest temporary arrays     est. size (Mb)     dimensions

     Initial potential from superposition of free atoms

     Starting from uniform charge
     Starting wfc are    0 randomized atomic wfcs

     Self-consistent Calculation

     iteration #  1     ecut=    40.00 Ry     beta=0.70
     CG style diagonalization
     c_bands:  5 eigenvalues not converged
     c_bands:  5 eigenvalues not converged
     ethr =  1.00E-02,  avg # of iterations = 18.5

     total energy              =    -884.01673560 Ry
     Harris-Foulkes estimate   =   -1333.97098656 Ry
     estimated scf accuracy    <     570.48687183 Ry

     iteration #  2     ecut=    40.00 Ry     beta=0.70
     CG style diagonalization
     ethr =  1.00E-02,  avg # of iterations =  6.8

[...]

     End of self-consistent calculation

     Number of k-points >= 100: set verbosity='high' to print the bands.

     the Fermi energy is     8.9473 ev

!    total energy              =    -980.00347782 Ry
     Harris-Foulkes estimate   =    -980.00348486 Ry
     estimated scf accuracy    <       0.00000804 Ry

     The total energy is the sum of the following terms:

     one-electron contribution =    -483.95734309 Ry
     hartree contribution      =     256.47451069 Ry
     xc contribution           =     -90.33023963 Ry
     ewald contribution        =    -662.06920379 Ry
     smearing contrib. (-TS)   =      -0.12120200 Ry

     convergence has been achieved in  11 iterations

     Forces acting on atoms (Ry/au):

     atom    1 type  1   force =    -0.00296708    0.00083424    0.00191423
     atom    2 type  1   force =     0.00296708   -0.00083424   -0.00191423
     atom    3 type  2   force =     0.00141134   -0.00078421    0.00209950
     atom    4 type  2   force =    -0.00141134    0.00078421   -0.00209950

     Total force =     0.006353     Total SCF correction =     0.000000

     entering subroutine stress ...

          total   stress  (Ry/bohr**3)                   (kbar)     P= -399.68
  -0.00268973  -0.00000588   0.00000004       -395.67     -0.86      0.01
  -0.00000588  -0.00270399  -0.00000002         -0.86   -397.77      0.00
   0.00000004  -0.00000002  -0.00275715          0.01      0.00   -405.59

     BFGS Geometry Optimization

     number of scf cycles    =   1
     number of bfgs steps    =   0

     enthalpy new            =    -980.0034778241 Ry

     new trust radius        =       0.4642530957 bohr
     new conv_thr            =       0.0001000000 Ry

     new unit-cell volume =    918.33982 a.u.^3 (   136.08392 Ang^3 )

CELL_PARAMETERS (alat= 13.39297219)
   0.932756764  -0.000146955   0.000000921
  -0.724201736   0.587853007  -0.000000964
   0.000000690  -0.000000296   0.697300000

ATOMIC_POSITIONS (crystal)
Tl       0.385868172   0.614085817   0.750190845
Tl       0.614131828   0.385914183   0.249809155
I        0.132617267   0.867323109   0.750209316
I        0.867382733   0.132676891   0.249790684

     Writing output data file Prototype-La-oS8-TlI.save
     NEW-OLD atomic charge density approx. for the potential
     NEW k-points: (use verbosity='high' to print them)

[...]

     enthalpy old            =    -980.0034778241 Ry
     enthalpy new            =    -980.5063764494 Ry

     CASE: enthalpy_new < enthalpy_old

     small trust_radius: resetting bfgs history

[...]

     number of scf cycles    =   3
     number of bfgs steps    =   2

     enthalpy old            =    -980.5063764494 Ry
     enthalpy new            =    -980.6994350155 Ry

     CASE: enthalpy_new < enthalpy_old

     Message from routine bfgs:
     history already reset at previous step: stopping
     small trust_radius: resetting bfgs history

     new trust radius        =       0.1601615670 bohr
     new conv_thr            =       0.0000324240 Ry

     new unit-cell volume =    728.71573 a.u.^3 (   107.98453 Ang^3 )

[...]

ATOMIC_POSITIONS (crystal)
Tl       0.387840774   0.612101456   0.751175747
Tl       0.612159226   0.387898544   0.248824253
I        0.131359987   0.868588331   0.750951011
I        0.868640013   0.131411669   0.249048989

     Writing output data file Prototype-La-oS8-TlI.save
     NEW-OLD atomic charge density approx. for the potential
     NEW k-points: (use verbosity='high' to print them)

[...]

     The maximum number of steps has been reached.

     End of BFGS Geometry Optimization
Begin final coordinates
     new unit-cell volume =    728.71573 a.u.^3 (   107.98453 Ang^3 )

CELL_PARAMETERS (alat= 13.39297219)
   0.864969720  -0.001097746  -0.000059671
  -0.672177247   0.544438042   0.000059685
  -0.000044535   0.000015820   0.645147326

ATOMIC_POSITIONS (crystal)
Tl       0.387840774   0.612101456   0.751175747
Tl       0.612159226   0.387898544   0.248824253
I        0.131359987   0.868588331   0.750951011
I        0.868640013   0.131411669   0.249048989
End final coordinates

     A final scf calculation at the relaxed structure.
     The G-vectors are recalculated for the final unit cell
     Results may differ from those at the preceding step.

     bravais-lattice index     =            0
     lattice parameter (alat)  =      13.3930  a.u.
     unit-cell volume          =     728.7157 (a.u.)^3
     number of atoms/cell      =            4
     number of atomic types    =            2
     number of electrons       =        78.00
     number of Kohn-Sham states=           47
     kinetic-energy cutoff     =      40.0000  Ry
     charge density cutoff     =     160.0000  Ry
     convergence threshold     =      3.2E-05
     mixing beta               =       0.7000
     number of iterations used =            8  plain     mixing
     Exchange-correlation      = SLA-PZ-NOGX-NOGC ( 1 1 0 0 0)
     EXX-fraction              =        0.00

     celldm(1)=  13.392972  celldm(2)=   0.000000  celldm(3)=   0.000000
     celldm(4)=   0.000000  celldm(5)=   0.000000  celldm(6)=   0.000000

     crystal axes: (cart. coord. in units of alat)
               a(1) = (   0.864970  -0.001098  -0.000060 )
               a(2) = (  -0.672177   0.544438   0.000060 )
               a(3) = (  -0.000045   0.000016   0.645147 )

     reciprocal axes: (cart. coord. in units 2 pi/alat)
               b(1) = (  1.157924  1.429603  0.000045 )
               b(2) = (  0.002335  1.839639 -0.000045 )
               b(3) = (  0.000107 -0.000038  1.550034 )

     PseudoPot. # 1 for Tb read from file:
     /home/jld5415/pp.La/Tb.UPF
     MD5 check sum: 3d6088a3f0cf7fd2e110c43f7f8e95c2
     Pseudo is Norm-conserving, Zval = 19.0
     Generated in analytical, separable form
     Using radial grid of 1263 points,  6 beta functions with:
                l(1) =   0
                l(2) =   0
                l(3) =   1
                l(4) =   1
                l(5) =   2
                l(6) =   3

     PseudoPot. # 2 for Dy read from file:
     /home/jld5415/pp.La/Dy.UPF
     MD5 check sum: 9597327bec62616a94a14d07f3fd9936
     Pseudo is Norm-conserving, Zval = 20.0
     Generated in analytical, separable form
     Using radial grid of 1265 points,  6 beta functions with:
                l(1) =   0
                l(2) =   0
                l(3) =   1
                l(4) =   1
                l(5) =   2
                l(6) =   3

     atomic species   valence    mass     pseudopotential
        Tl            19.00   204.38300     Tb( 1.00)
        I             20.00   126.90400     Dy( 1.00)

      2 Sym. Ops., with inversion, found
          (note:  2 additional sym.ops. were found but ignored
           their fractional translations are incommensurate with FFT grid)

   Cartesian axes

     site n.     atom                  positions (alat units)
         1           Tl  tau(   1) = (  -0.0760036   0.3328375   0.4846324  )
         2           Tl  tau(   2) = (   0.2687515   0.2105187   0.1605149  )
         3           I   tau(   3) = (  -0.4702563   0.4727602   0.4845180  )
         4           I   tau(   4) = (   0.6630043   0.0705959   0.1606293  )

     number of k points=   106  gaussian smearing, width (Ry)=  0.1000

     Number of k-points >= 100: set verbosity='high' to print them.

     Largest allocated arrays     est. size (Mb)     dimensions
     Largest temporary arrays     est. size (Mb)     dimensions

     Initial potential from superposition of free atoms

     Starting from uniform charge
     Starting wfc are    0 randomized atomic wfcs

     Writing output data file Prototype-La-oS8-TlI.save

     Self-consistent Calculation

[...]

     iteration #  9     ecut=    40.00 Ry     beta=0.70
     CG style diagonalization
     c_bands:  1 eigenvalues not converged
     c_bands:  1 eigenvalues not converged
     ethr =  9.86E-07,  avg # of iterations =  4.0

[...]

     total energy              =    -980.14368237 Ry
     Harris-Foulkes estimate   =    -980.14369559 Ry
     estimated scf accuracy    <       0.00003543 Ry

     iteration # 11     ecut=    40.00 Ry     beta=0.70
     CG style diagonalization
     ethr =  4.54E-08,  avg # of iterations =  3.5

     End of self-consistent calculation

     Number of k-points >= 100: set verbosity='high' to print the bands.

     the Fermi energy is    17.1207 ev

!    total energy              =    -980.14367845 Ry
     Harris-Foulkes estimate   =    -980.14368765 Ry
     estimated scf accuracy    <       0.00000974 Ry

     The total energy is the sum of the following terms:

     one-electron contribution =    -314.09765801 Ry
     hartree contribution      =     192.40639172 Ry
     xc contribution           =     -91.08918932 Ry
     ewald contribution        =    -767.26882390 Ry
     smearing contrib. (-TS)   =      -0.09439895 Ry

     convergence has been achieved in  11 iterations

     Forces acting on atoms (Ry/au):

     atom    1 type  1   force =     0.02558481   -0.00911327   -0.00390635
     atom    2 type  1   force =    -0.02558481    0.00911327    0.00390635
     atom    3 type  2   force =    -0.01217091    0.00435800   -0.00373353
     atom    4 type  2   force =     0.01217091   -0.00435800    0.00373353

     Total force =     0.043219     Total SCF correction =     0.000000

     entering subroutine stress ...

          total   stress  (Ry/bohr**3)                   (kbar)     P= -471.93
  -0.00322242  -0.00001390  -0.00000209       -474.03     -2.05     -0.31
  -0.00001390  -0.00325490   0.00000056         -2.05   -478.81      0.08
  -0.00000209   0.00000056  -0.00314709         -0.31      0.08   -462.95

     Writing output data file Prototype-La-oS8-TlI.save

     General routines

     Parallel routines

   This run was terminated on:  18:20:26  22Mar2018

   JOB DONE.