     Program PWSCF v.5.0.2 starts on 22Mar2018 at 17:31: 3

     Current dimensions of program PWSCF are:
     Max number of different atomic species (ntypx) = 10
     Max number of k-points (npk) =  40000
     Max angular momentum in pseudopotentials (lmaxx) =  3
     Waiting for input...
     Reading input from standard input

     Subspace diagonalization in iterative solution of the eigenvalue problem:
     a serial algorithm will be used

     bravais-lattice index     =            0
     lattice parameter (alat)  =       9.9235  a.u.
     unit-cell volume          =    1361.0366 (a.u.)^3
     number of atoms/cell      =           12
     number of atomic types    =            2
     number of electrons       =       236.00
     number of Kohn-Sham states=          142
     kinetic-energy cutoff     =      40.0000  Ry
     charge density cutoff     =     160.0000  Ry
     convergence threshold     =      1.0E-04
     mixing beta               =       0.7000
     number of iterations used =            8  plain     mixing
     Exchange-correlation      = SLA-PZ-NOGX-NOGC ( 1 1 0 0 0)
     EXX-fraction              =        0.00
     nstep                     =           50

     celldm(1)=   9.923489  celldm(2)=   0.000000  celldm(3)=   0.000000
     celldm(4)=   0.000000  celldm(5)=   0.000000  celldm(6)=   0.000000

     crystal axes: (cart. coord. in units of alat)
               a(1) = (   1.000000   0.000000   0.000000 )
               a(2) = (  -0.500000   0.866025   0.000000 )
               a(3) = (   0.000000   0.000000   1.608222 )

     reciprocal axes: (cart. coord. in units 2 pi/alat)
               b(1) = (  1.000000  0.577350  0.000000 )
               b(2) = (  0.000000  1.154701  0.000000 )
               b(3) = (  0.000000  0.000000  0.621805 )

     PseudoPot. # 1 for Tb read from file:
     /home/cwx6513/pp.La/Tb.UPF
     MD5 check sum: 3d6088a3f0cf7fd2e110c43f7f8e95c2
     Pseudo is Norm-conserving, Zval = 19.0
     Generated in analytical, separable form
     Using radial grid of 1263 points,  6 beta functions with:
                l(1) =   0
                l(2) =   0
                l(3) =   1
                l(4) =   1
                l(5) =   2
                l(6) =   3

     PseudoPot. # 2 for Dy read from file:
     /home/cwx6513/pp.La/Dy.UPF
     MD5 check sum: 9597327bec62616a94a14d07f3fd9936
     Pseudo is Norm-conserving, Zval = 20.0
     Generated in analytical, separable form
     Using radial grid of 1265 points,  6 beta functions with:
                l(1) =   0
                l(2) =   0
                l(3) =   1
                l(4) =   1
                l(5) =   2
                l(6) =   3

     atomic species   valence    mass     pseudopotential
        Mg            19.00    24.30500     Tb( 1.00)
        Zn            20.00    65.39000     Dy( 1.00)

     24 Sym. Ops., with inversion, found (12 have fractional translation)

   Cartesian axes

     site n.     atom                  positions (alat units)
         1           Mg  tau(   1) = (  -0.0000005   0.5773506   0.1003820  )
         2           Mg  tau(   2) = (   0.5000005   0.2886748   0.9044931  )
         3           Mg  tau(   3) = (   0.5000005   0.2886748   1.5078402  )
         4           Mg  tau(   4) = (  -0.0000005   0.5773506   0.7037291  )
         5           Zn  tau(   5) = (   0.0000000   0.0000000   0.0000000  )
         6           Zn  tau(   6) = (   0.0000000   0.0000000   0.8041111  )
         7           Zn  tau(   7) = (   0.0000000   0.2950739   1.2061667  )
         8           Zn  tau(   8) = (   0.7444585   0.1475370   0.4020556  )
         9           Zn  tau(   9) = (   0.2555415   0.1475370   0.4020556  )
        10           Zn  tau(  10) = (   0.2444585   0.7184884   1.2061667  )
        11           Zn  tau(  11) = (  -0.2444585   0.7184884   1.2061667  )
        12           Zn  tau(  12) = (   0.5000000   0.5709515   0.4020556  )

     number of k points=    12  gaussian smearing, width (Ry)=  0.1000
                       cart. coord. in units 2pi/alat
        k(    1) = (   0.0000000   0.0000000   0.0000000), wk =   0.0833333
        k(    2) = (   0.0000000   0.0000000   0.1554512), wk =   0.1666667
        k(    3) = (   0.0000000   0.0000000  -0.3109023), wk =   0.0833333
        k(    4) = (   0.0000000   0.3849002   0.0000000), wk =   0.1666667
        k(    5) = (   0.0000000   0.3849002   0.1554512), wk =   0.3333333
        k(    6) = (   0.0000000   0.3849002  -0.3109023), wk =   0.1666667
        k(    7) = (  -0.5000000  -0.2886751   0.0000000), wk =   0.0833333
        k(    8) = (  -0.5000000  -0.2886751   0.1554512), wk =   0.1666667
        k(    9) = (  -0.5000000  -0.2886751  -0.3109023), wk =   0.0833333
        k(   10) = (  -0.5000000   0.0962250   0.0000000), wk =   0.1666667
        k(   11) = (  -0.5000000   0.0962250   0.1554512), wk =   0.3333333
        k(   12) = (  -0.5000000   0.0962250  -0.3109023), wk =   0.1666667

     Largest allocated arrays     est. size (Mb)     dimensions
     Largest temporary arrays     est. size (Mb)     dimensions

     Initial potential from superposition of free atoms

     Starting from uniform charge
     Starting wfc are    0 randomized atomic wfcs

     Self-consistent Calculation

     iteration #  1     ecut=    40.00 Ry     beta=0.70
     CG style diagonalization
     c_bands:  1 eigenvalues not converged
     c_bands:  1 eigenvalues not converged
     ethr =  1.00E-02,  avg # of iterations = 19.0

     total energy              =   -2347.84671765 Ry
     Harris-Foulkes estimate   =   -3640.25505432 Ry
     estimated scf accuracy    <    1591.71217899 Ry

     iteration #  2     ecut=    40.00 Ry     beta=0.70
     CG style diagonalization
     ethr =  1.00E-02,  avg # of iterations = 17.8

[...]

     End of self-consistent calculation

          k = 0.0000 0.0000 0.0000 (  5769 PWs)   bands (ev):

   -52.9176 -52.8801 -52.7574 -52.7168 -52.7168 -52.7111 -52.7111 -52.6921
   -44.2653 -44.2610 -44.2593 -44.2489 -21.1457 -20.9081 -20.5364 -20.1740
   -20.1740 -20.1211 -20.1211 -20.0236 -20.0236 -19.8554 -19.8502 -19.6878
   -19.6877 -19.6452 -19.6452 -19.3617 -19.3587 -19.3587 -19.3116 -19.3113
   -19.3112 -19.3007 -19.3007 -19.2998 -12.7486 -12.7370 -12.7209 -12.7209
   -12.6972 -12.6971 -12.6246 -12.5891 -12.5809 -12.5809 -12.5759 -12.5759
    15.5722  16.2845  16.6958  17.7355  17.7355  18.1013  18.1014  18.2486
    18.3525  18.3525  18.8503  18.8503  18.9106  19.2731  19.4991  19.7182
    19.7182  20.2628  20.2628  21.0600  21.0915  21.0915  21.2382  21.3305
    21.3305  21.7913  22.5069  22.5069  22.5174  22.5174  22.5508  22.5508
    22.6840  22.7888  22.8017  22.8017  23.0266  23.4810  23.4810  23.8232
    23.8232  23.9653  24.1622  24.1623  24.2085  24.2085  24.8742  25.0465
    25.0465  25.0512  25.1134  25.1134  25.5389  25.5389  25.8325  25.8351
    25.9038  25.9038  26.4960  26.4960  26.6012  26.6012  26.6182  28.9866
    29.2228  31.0013  31.0014  31.3300  32.0350  32.0351  32.8339  33.6991
    33.9893  33.9894  34.1153  34.4201  35.1270  35.1270  36.0921  36.1651
    36.1652  36.1777  36.1778  37.1270  37.9200  37.9200  38.2647  38.4756
    38.5064  38.9670  38.9669  39.2449  39.2531  39.2634

[...]

          k =-0.5000-0.2887 0.0000 (  5800 PWs)   bands (ev):

[...]

     the Fermi energy is    32.3177 ev

!    total energy              =   -2999.83575526 Ry
     Harris-Foulkes estimate   =   -2999.83579783 Ry
     estimated scf accuracy    <       0.00006928 Ry

     The total energy is the sum of the following terms:

     one-electron contribution =    -386.27835355 Ry
     hartree contribution      =     406.87110542 Ry
     xc contribution           =    -283.35454812 Ry
     ewald contribution        =   -2736.92022110 Ry
     smearing contrib. (-TS)   =      -0.15373791 Ry

     convergence has been achieved in   9 iterations

     Forces acting on atoms (Ry/au):

     atom    1 type  1   force =     0.00000000    0.00000000    0.02534608
     atom    2 type  1   force =     0.00000000    0.00000000    0.02534608
     atom    3 type  1   force =     0.00000000    0.00000000   -0.02534608
     atom    4 type  1   force =     0.00000000    0.00000000   -0.02534608
     atom    5 type  2   force =     0.00000000    0.00000000    0.00000000
     atom    6 type  2   force =     0.00000000    0.00000000    0.00000000
     atom    7 type  2   force =     0.00000000    0.05876104    0.00000000
     atom    8 type  2   force =    -0.05088856    0.02938052    0.00000000
     atom    9 type  2   force =     0.05088856    0.02938052    0.00000000
     atom   10 type  2   force =    -0.05088856   -0.02938052    0.00000000
     atom   11 type  2   force =     0.05088856   -0.02938052    0.00000000
     atom   12 type  2   force =     0.00000000   -0.05876104    0.00000000

     Total force =     0.152600     Total SCF correction =     0.000000

     entering subroutine stress ...

          total   stress  (Ry/bohr**3)                   (kbar)     P=  739.48
   0.00509591   0.00000000   0.00000000        749.63      0.00      0.00
   0.00000000   0.00509591   0.00000000          0.00    749.63      0.00
   0.00000000   0.00000000   0.00488875          0.00      0.00    719.16

     BFGS Geometry Optimization

     number of scf cycles    =   1
     number of bfgs steps    =   0

     enthalpy new            =   -2999.8357552595 Ry

     new trust radius        =       0.5000000000 bohr
     new conv_thr            =       0.0001000000 Ry

     new unit-cell volume =   1652.62713 a.u.^3 (   244.89407 Ang^3 )

CELL_PARAMETERS (alat=  9.92348860)
   1.067764947   0.000000000   0.000000000
  -0.533882474   0.924711570   0.000000000
   0.000000000   0.000000000   1.712772970

ATOMIC_POSITIONS (crystal)
Mg       0.333333000   0.666667000   0.063262780
Mg       0.666667000   0.333333000   0.563262780
Mg       0.666667000   0.333333000   0.936737220
Mg       0.333333000   0.666667000   0.436737220
Zn       0.000000000   0.000000000   0.000000000
Zn       0.000000000   0.000000000   0.500000000
Zn       0.172179477   0.344358954   0.750000000
Zn       0.827820523   0.172179477   0.250000000
Zn       0.344358954   0.172179477   0.250000000
Zn       0.655641046   0.827820523   0.750000000
Zn       0.172179477   0.827820523   0.750000000
Zn       0.827820523   0.655641046   0.250000000

     Writing output data file Prototype-La-hP12-MgZn2.save
     NEW-OLD atomic charge density approx. for the potential
     NEW k-points:
        k(    1) = (   0.0000000   0.0000000   0.0000000), wk =   0.0833333
        k(    2) = (   0.0000000   0.0000000   0.1459621), wk =   0.1666667
        k(    3) = (   0.0000000   0.0000000  -0.2919243), wk =   0.0833333
        k(    4) = (   0.0000000   0.3604728   0.0000000), wk =   0.1666667
        k(    5) = (   0.0000000   0.3604728   0.1459621), wk =   0.3333333
        k(    6) = (   0.0000000   0.3604728  -0.2919243), wk =   0.1666667
        k(    7) = (  -0.4682679  -0.2703546   0.0000000), wk =   0.0833333
        k(    8) = (  -0.4682679  -0.2703546   0.1459621), wk =   0.1666667
        k(    9) = (  -0.4682679  -0.2703546  -0.2919243), wk =   0.0833333
        k(   10) = (  -0.4682679   0.0901182   0.0000000), wk =   0.1666667
        k(   11) = (  -0.4682679   0.0901182   0.1459621), wk =   0.3333333
        k(   12) = (  -0.4682679   0.0901182  -0.2919243), wk =   0.1666667

[...]

     enthalpy old            =   -2999.8357552595 Ry
     enthalpy new            =   -2999.9756130630 Ry

     CASE: enthalpy_new < enthalpy_old

     small trust_radius: resetting bfgs history

     new trust radius        =       0.6259306010 bohr
     new conv_thr            =       0.0000072585 Ry

[...]

     number of scf cycles    =   3
     number of bfgs steps    =   2

     enthalpy old            =   -2999.9756130630 Ry
     enthalpy new            =   -2999.5441119295 Ry

     CASE: enthalpy_new > enthalpy_old

     new trust radius        =       0.2163223918 bohr

     trust_radius < trust_radius_min

     resetting bfgs history

     Message from routine bfgs:
     history already reset at previous step: stopping
     new conv_thr            =       0.0000072585 Ry

     new unit-cell volume =   1365.45260 a.u.^3 (   202.33920 Ang^3 )

[...]

ATOMIC_POSITIONS (crystal)
Mg       0.333333000   0.666667000   0.062876241
Mg       0.666667000   0.333333000   0.562876241
Mg       0.666667000   0.333333000   0.937123759
Mg       0.333333000   0.666667000   0.437123759
Zn       0.000000000   0.000000000   0.000000000
Zn       0.000000000   0.000000000   0.500000000
Zn       0.172224766   0.344449531   0.750000000
Zn       0.827775234   0.172224766   0.250000000
Zn       0.344449531   0.172224766   0.250000000
Zn       0.655550469   0.827775234   0.750000000
Zn       0.172224766   0.827775234   0.750000000
Zn       0.827775234   0.655550469   0.250000000

     Writing output data file Prototype-La-hP12-MgZn2.save
     NEW-OLD atomic charge density approx. for the potential
     NEW k-points:
        k(    1) = (   0.0000000   0.0000000   0.0000000), wk =   0.0833333
        k(    2) = (   0.0000000   0.0000000   0.1558932), wk =   0.1666667
        k(    3) = (   0.0000000   0.0000000  -0.3117863), wk =   0.0833333
        k(    4) = (   0.0000000   0.3837321   0.0000000), wk =   0.1666667
        k(    5) = (   0.0000000   0.3837321   0.1558932), wk =   0.3333333
        k(    6) = (   0.0000000   0.3837321  -0.3117863), wk =   0.1666667
        k(    7) = (  -0.4984826  -0.2877991   0.0000000), wk =   0.0833333
        k(    8) = (  -0.4984826  -0.2877991   0.1558932), wk =   0.1666667
        k(    9) = (  -0.4984826  -0.2877991  -0.3117863), wk =   0.0833333
        k(   10) = (  -0.4984826   0.0959330   0.0000000), wk =   0.1666667
        k(   11) = (  -0.4984826   0.0959330   0.1558932), wk =   0.3333333
        k(   12) = (  -0.4984826   0.0959330  -0.3117863), wk =   0.1666667

[...]

     The maximum number of steps has been reached.

     End of BFGS Geometry Optimization
Begin final coordinates
     new unit-cell volume =   1365.45260 a.u.^3 (   202.33920 Ang^3 )

CELL_PARAMETERS (alat=  9.92348860)
   1.003043965   0.000000000   0.000000000
  -0.501521982   0.868661554   0.000000000
   0.000000000   0.000000000   1.603662348

ATOMIC_POSITIONS (crystal)
Mg       0.333333000   0.666667000   0.062876241
Mg       0.666667000   0.333333000   0.562876241
Mg       0.666667000   0.333333000   0.937123759
Mg       0.333333000   0.666667000   0.437123759
Zn       0.000000000   0.000000000   0.000000000
Zn       0.000000000   0.000000000   0.500000000
Zn       0.172224766   0.344449531   0.750000000
Zn       0.827775234   0.172224766   0.250000000
Zn       0.344449531   0.172224766   0.250000000
Zn       0.655550469   0.827775234   0.750000000
Zn       0.172224766   0.827775234   0.750000000
Zn       0.827775234   0.655550469   0.250000000
End final coordinates

     A final scf calculation at the relaxed structure.
     The G-vectors are recalculated for the final unit cell
     Results may differ from those at the preceding step.

     bravais-lattice index     =            0
     lattice parameter (alat)  =       9.9235  a.u.
     unit-cell volume          =    1365.4526 (a.u.)^3
     number of atoms/cell      =           12
     number of atomic types    =            2
     number of electrons       =       236.00
     number of Kohn-Sham states=          142
     kinetic-energy cutoff     =      40.0000  Ry
     charge density cutoff     =     160.0000  Ry
     convergence threshold     =      7.3E-06
     mixing beta               =       0.7000
     number of iterations used =            8  plain     mixing
     Exchange-correlation      = SLA-PZ-NOGX-NOGC ( 1 1 0 0 0)
     EXX-fraction              =        0.00

     celldm(1)=   9.923489  celldm(2)=   0.000000  celldm(3)=   0.000000
     celldm(4)=   0.000000  celldm(5)=   0.000000  celldm(6)=   0.000000

     crystal axes: (cart. coord. in units of alat)
               a(1) = (   1.003044   0.000000   0.000000 )
               a(2) = (  -0.501522   0.868662   0.000000 )
               a(3) = (   0.000000   0.000000   1.603662 )

     reciprocal axes: (cart. coord. in units 2 pi/alat)
               b(1) = (  0.996965  0.575598  0.000000 )
               b(2) = (  0.000000  1.151196  0.000000 )
               b(3) = (  0.000000  0.000000  0.623573 )

     PseudoPot. # 1 for Tb read from file:
     /home/cwx6513/pp.La/Tb.UPF
     MD5 check sum: 3d6088a3f0cf7fd2e110c43f7f8e95c2
     Pseudo is Norm-conserving, Zval = 19.0
     Generated in analytical, separable form
     Using radial grid of 1263 points,  6 beta functions with:
                l(1) =   0
                l(2) =   0
                l(3) =   1
                l(4) =   1
                l(5) =   2
                l(6) =   3

     PseudoPot. # 2 for Dy read from file:
     /home/cwx6513/pp.La/Dy.UPF
     MD5 check sum: 9597327bec62616a94a14d07f3fd9936
     Pseudo is Norm-conserving, Zval = 20.0
     Generated in analytical, separable form
     Using radial grid of 1265 points,  6 beta functions with:
                l(1) =   0
                l(2) =   0
                l(3) =   1
                l(4) =   1
                l(5) =   2
                l(6) =   3

     atomic species   valence    mass     pseudopotential
        Mg            19.00    24.30500     Tb( 1.00)
        Zn            20.00    65.39000     Dy( 1.00)

     24 Sym. Ops., with inversion, found (12 have fractional translation)

   Cartesian axes

     site n.     atom                  positions (alat units)
         1           Mg  tau(   1) = (  -0.0000005   0.5791080   0.1008323  )
         2           Mg  tau(   2) = (   0.5015225   0.2895536   0.9026634  )
         3           Mg  tau(   3) = (   0.5015225   0.2895536   1.5028301  )
         4           Mg  tau(   4) = (  -0.0000005   0.5791080   0.7009989  )
         5           Zn  tau(   5) = (   0.0000000   0.0000000   0.0000000  )
         6           Zn  tau(   6) = (   0.0000000   0.0000000   0.8018312  )
         7           Zn  tau(   7) = (   0.0000000   0.2992101   1.2027468  )
         8           Zn  tau(   8) = (   0.7439204   0.1496050   0.4009156  )
         9           Zn  tau(   9) = (   0.2591235   0.1496050   0.4009156  )
        10           Zn  tau(  10) = (   0.2423985   0.7190565   1.2027468  )
        11           Zn  tau(  11) = (  -0.2423985   0.7190565   1.2027468  )
        12           Zn  tau(  12) = (   0.5015220   0.5694515   0.4009156  )

     number of k points=    12  gaussian smearing, width (Ry)=  0.1000
                       cart. coord. in units 2pi/alat
        k(    1) = (   0.0000000   0.0000000   0.0000000), wk =   0.0833333
        k(    2) = (   0.0000000   0.0000000   0.1558932), wk =   0.1666667
        k(    3) = (   0.0000000   0.0000000  -0.3117863), wk =   0.0833333
        k(    4) = (   0.0000000   0.3837321   0.0000000), wk =   0.1666667
        k(    5) = (   0.0000000   0.3837321   0.1558932), wk =   0.3333333
        k(    6) = (   0.0000000   0.3837321  -0.3117863), wk =   0.1666667
        k(    7) = (  -0.4984826  -0.2877991   0.0000000), wk =   0.0833333
        k(    8) = (  -0.4984826  -0.2877991   0.1558932), wk =   0.1666667
        k(    9) = (  -0.4984826  -0.2877991  -0.3117863), wk =   0.0833333
        k(   10) = (  -0.4984826   0.0959330   0.0000000), wk =   0.1666667
        k(   11) = (  -0.4984826   0.0959330   0.1558932), wk =   0.3333333
        k(   12) = (  -0.4984826   0.0959330  -0.3117863), wk =   0.1666667

     Largest allocated arrays     est. size (Mb)     dimensions
     Largest temporary arrays     est. size (Mb)     dimensions

     Initial potential from superposition of free atoms

     Starting from uniform charge
     Starting wfc are    0 randomized atomic wfcs

     Writing output data file Prototype-La-hP12-MgZn2.save

     Self-consistent Calculation

[...]

     iteration #  9     ecut=    40.00 Ry     beta=0.70
     CG style diagonalization
     c_bands:  1 eigenvalues not converged
     ethr =  8.06E-07,  avg # of iterations =  4.0

[...]

     total energy              =   -2999.89197389 Ry
     Harris-Foulkes estimate   =   -2999.89198207 Ry
     estimated scf accuracy    <       0.00001651 Ry

     iteration # 11     ecut=    40.00 Ry     beta=0.70
     CG style diagonalization
     ethr =  7.00E-09,  avg # of iterations =  3.9

     End of self-consistent calculation

[...]

          k = 0.0000 0.3837-0.3118 (  5836 PWs)   bands (ev):

[...]

          k =-0.4985 0.0959-0.3118 (  5844 PWs)   bands (ev):

   -52.9534 -52.9534 -52.8914 -52.8914 -52.8154 -52.8154 -52.7954 -52.7954
   -44.3801 -44.3800 -44.3757 -44.3756 -20.7971 -20.7971 -20.4880 -20.4880
   -20.1440 -20.1440 -20.0851 -20.0851 -20.0172 -20.0172 -19.9656 -19.9656
   -19.7997 -19.7997 -19.6760 -19.6760 -19.5658 -19.5658 -19.5097 -19.5097
   -19.4817 -19.4817 -19.4562 -19.4561 -12.8649 -12.8649 -12.8389 -12.8389
   -12.8018 -12.8017 -12.7523 -12.7523 -12.7096 -12.7096 -12.6956 -12.6956
    17.0778  17.0778  17.9861  17.9861  18.3762  18.3762  18.6624  18.6624
    18.8139  18.8139  19.0959  19.0959  19.6130  19.6130  19.6566  19.6566
    20.0677  20.0677  20.2171  20.2172  20.5060  20.5060  20.8518  20.8518
    21.0835  21.0835  21.3822  21.3823  21.6940  21.6940  21.9396  21.9396
    22.2179  22.2179  22.3879  22.3879  22.4999  22.4999  22.9040  22.9040
    23.4113  23.4113  24.0999  24.0999  24.3909  24.3909  24.5315  24.5315
    24.7829  24.7829  25.0041  25.0041  25.2676  25.2676  25.5586  25.5587
    25.9387  25.9387  26.1611  26.1611  26.2674  26.2674  26.7389  26.7389
    27.9219  27.9219  29.8446  29.8447  31.8432  31.8432  32.7158  32.7158
    34.0098  34.0098  34.8109  34.8109  36.6684  36.6685  37.6280  37.6280
    38.0756  38.0756  38.5208  38.5208  38.8406  38.8407  39.2042  39.2042
    39.5383  39.5384  39.9731  39.9732  40.1652  40.1655

     the Fermi energy is    32.1975 ev

!    total energy              =   -2999.89197913 Ry
     Harris-Foulkes estimate   =   -2999.89197984 Ry
     estimated scf accuracy    <       0.00000083 Ry

     The total energy is the sum of the following terms:

     one-electron contribution =    -388.24118580 Ry
     hartree contribution      =     406.94845797 Ry
     xc contribution           =    -283.28139435 Ry
     ewald contribution        =   -2735.16480024 Ry
     smearing contrib. (-TS)   =      -0.15305671 Ry

     convergence has been achieved in  11 iterations

     Forces acting on atoms (Ry/au):

     atom    1 type  1   force =     0.00000000    0.00000000    0.01248375
     atom    2 type  1   force =     0.00000000    0.00000000    0.01248375
     atom    3 type  1   force =     0.00000000    0.00000000   -0.01248375
     atom    4 type  1   force =     0.00000000    0.00000000   -0.01248375
     atom    5 type  2   force =     0.00000000    0.00000000    0.00000000
     atom    6 type  2   force =     0.00000000    0.00000000    0.00000000
     atom    7 type  2   force =     0.00000000   -0.02204437    0.00000000
     atom    8 type  2   force =     0.01909098   -0.01102218    0.00000000
     atom    9 type  2   force =    -0.01909098   -0.01102218    0.00000000
     atom   10 type  2   force =     0.01909098    0.01102218    0.00000000
     atom   11 type  2   force =    -0.01909098    0.01102218    0.00000000
     atom   12 type  2   force =     0.00000000    0.02204437    0.00000000

     Total force =     0.059490     Total SCF correction =     0.000000

     entering subroutine stress ...

          total   stress  (Ry/bohr**3)                   (kbar)     P=  718.02
   0.00499971   0.00000000   0.00000000        735.48      0.00      0.00
   0.00000000   0.00499971   0.00000000          0.00    735.48      0.00
   0.00000000   0.00000000   0.00464348          0.00      0.00    683.08

     Writing output data file Prototype-La-hP12-MgZn2.save

     General routines

     Parallel routines

   This run was terminated on:  17:57:30  22Mar2018

   JOB DONE.