     Program PWSCF v.5.0.2 starts on 22Mar2018 at 17:31: 6

     Current dimensions of program PWSCF are:
     Max number of different atomic species (ntypx) = 10
     Max number of k-points (npk) =  40000
     Max angular momentum in pseudopotentials (lmaxx) =  3
     Waiting for input...
     Reading input from standard input

     Subspace diagonalization in iterative solution of the eigenvalue problem:
     a serial algorithm will be used

     bravais-lattice index     =            0
     lattice parameter (alat)  =       7.0151  a.u.
     unit-cell volume          =     862.2778 (a.u.)^3
     number of atoms/cell      =           12
     number of atomic types    =            2
     number of electrons       =       232.00
     number of Kohn-Sham states=          139
     kinetic-energy cutoff     =      40.0000  Ry
     charge density cutoff     =     160.0000  Ry
     convergence threshold     =      1.0E-04
     mixing beta               =       0.7000
     number of iterations used =            8  plain     mixing
     Exchange-correlation      = SLA-PZ-NOGX-NOGC ( 1 1 0 0 0)
     EXX-fraction              =        0.00
     nstep                     =           50

     celldm(1)=   7.015105  celldm(2)=   0.000000  celldm(3)=   0.000000
     celldm(4)=   0.000000  celldm(5)=   0.000000  celldm(6)=   0.000000

     crystal axes: (cart. coord. in units of alat)
               a(1) = (   1.000000   0.000000   0.000000 )
               a(2) = (   0.000000   1.315963   0.000000 )
               a(3) = (   0.000000   0.000000   1.898020 )

     reciprocal axes: (cart. coord. in units 2 pi/alat)
               b(1) = (  1.000000  0.000000  0.000000 )
               b(2) = (  0.000000  0.759900  0.000000 )
               b(3) = (  0.000000  0.000000  0.526865 )

     PseudoPot. # 1 for Tb read from file:
     /home/cwx6513/pp.La/Tb.UPF
     MD5 check sum: 3d6088a3f0cf7fd2e110c43f7f8e95c2
     Pseudo is Norm-conserving, Zval = 19.0
     Generated in analytical, separable form
     Using radial grid of 1263 points,  6 beta functions with:
                l(1) =   0
                l(2) =   0
                l(3) =   1
                l(4) =   1
                l(5) =   2
                l(6) =   3

     PseudoPot. # 2 for Dy read from file:
     /home/cwx6513/pp.La/Dy.UPF
     MD5 check sum: 9597327bec62616a94a14d07f3fd9936
     Pseudo is Norm-conserving, Zval = 20.0
     Generated in analytical, separable form
     Using radial grid of 1265 points,  6 beta functions with:
                l(1) =   0
                l(2) =   0
                l(3) =   1
                l(4) =   1
                l(5) =   2
                l(6) =   3

     atomic species   valence    mass     pseudopotential
        Co            19.00    58.93320     Tb( 1.00)
        Si            20.00    28.08550     Dy( 1.00)

      8 Sym. Ops., with inversion, found ( 6 have fractional translation)

   Cartesian axes

     site n.     atom                  positions (alat units)
         1           Co  tau(   1) = (   0.7500000   1.0875135   0.8270358  )
         2           Co  tau(   2) = (   0.2500000   0.2284499   1.0709846  )
         3           Co  tau(   3) = (   0.7500000   0.4295318   0.1219744  )
         4           Co  tau(   4) = (   0.2500000   0.8864316   1.7760460  )
         5           Co  tau(   5) = (   0.2500000   0.7067855   0.5358966  )
         6           Co  tau(   6) = (   0.7500000   0.6091779   1.3621238  )
         7           Co  tau(   7) = (   0.2500000   0.0488038   0.4131136  )
         8           Co  tau(   8) = (   0.7500000   1.2671596   1.4849068  )
         9           Si  tau(   9) = (   0.2500000   0.2669484   1.6960710  )
        10           Si  tau(  10) = (   0.7500000   1.0490149   0.2019494  )
        11           Si  tau(  11) = (   0.2500000   0.9249301   1.1509596  )
        12           Si  tau(  12) = (   0.7500000   0.3910333   0.7470608  )

     number of k points=    12  gaussian smearing, width (Ry)=  0.1000
                       cart. coord. in units 2pi/alat
        k(    1) = (   0.0000000   0.0000000   0.0000000), wk =   0.0833333
        k(    2) = (   0.0000000   0.0000000   0.1317162), wk =   0.1666667
        k(    3) = (   0.0000000   0.0000000  -0.2634324), wk =   0.0833333
        k(    4) = (   0.0000000   0.2532999   0.0000000), wk =   0.1666667
        k(    5) = (   0.0000000   0.2532999   0.1317162), wk =   0.3333333
        k(    6) = (   0.0000000   0.2532999  -0.2634324), wk =   0.1666667
        k(    7) = (  -0.5000000   0.0000000   0.0000000), wk =   0.0833333
        k(    8) = (  -0.5000000   0.0000000   0.1317162), wk =   0.1666667
        k(    9) = (  -0.5000000   0.0000000  -0.2634324), wk =   0.0833333
        k(   10) = (  -0.5000000   0.2532999   0.0000000), wk =   0.1666667
        k(   11) = (  -0.5000000   0.2532999   0.1317162), wk =   0.3333333
        k(   12) = (  -0.5000000   0.2532999  -0.2634324), wk =   0.1666667

     Largest allocated arrays     est. size (Mb)     dimensions
     Largest temporary arrays     est. size (Mb)     dimensions

     Initial potential from superposition of free atoms

     Starting from uniform charge
     Starting wfc are    0 randomized atomic wfcs

     Self-consistent Calculation

     iteration #  1     ecut=    40.00 Ry     beta=0.70
     CG style diagonalization
     c_bands:  2 eigenvalues not converged
     c_bands:  4 eigenvalues not converged
     c_bands:  5 eigenvalues not converged
     c_bands:  1 eigenvalues not converged
     c_bands:  5 eigenvalues not converged
     ethr =  1.00E-02,  avg # of iterations = 13.8

     total energy              =   -2699.67747199 Ry
     Harris-Foulkes estimate   =   -3154.38725347 Ry
     estimated scf accuracy    <     601.54882601 Ry

     iteration #  2     ecut=    40.00 Ry     beta=0.70
     CG style diagonalization
     ethr =  1.00E-02,  avg # of iterations =  7.5

[...]

     End of self-consistent calculation

          k = 0.0000 0.0000 0.0000 (  3675 PWs)   bands (ev):

   -34.7182 -34.6629 -34.6544 -34.6510 -27.4301 -27.2739 -27.2716 -27.1473
   -27.0809 -26.9482 -26.8764 -26.8728  -2.9613  -2.6657  -2.6162  -2.5804
    -2.5708  -2.5112  -2.3836  -2.3667  -2.3221  -2.2560  -2.0467  -1.9555
     2.4602   2.7393   2.8954   3.1463   3.4395   3.4506   3.5951   3.6187
     3.8552   3.8864   3.9662   4.0089   4.1274   4.1512   4.3384   4.4580
     4.4657   4.4935   4.5483   4.6874   5.0910   5.1464   5.2930   5.4057
    32.4046  32.4699  32.5452  33.2243  33.3128  33.3196  33.4350  33.6963
    33.7546  34.4465  34.6842  35.0337  35.1340  35.1387  35.1495  35.4973
    35.7861  37.2916  37.2921  37.3462  37.3564  37.6980  37.7109  38.5145
    38.5258  38.6841  38.9408  39.2576  39.4098  39.5310  39.7148  39.7714
    39.9935  40.3692  40.5135  40.5518  41.2054  41.7283  41.7737  41.8850
    41.9085  42.1549  42.7278  43.4783  43.7841  44.0424  44.2993  44.4760
    45.1831  45.4282  45.5130  45.7962  45.9320  46.0285  46.2140  46.4305
    46.7818  47.0269  47.0722  47.6252  47.8779  47.8955  48.2997  50.1587
    51.5617  51.7419  52.4548  53.3738  55.3827  55.6740  55.8408  56.0632
    56.8816  57.1316  57.5195  57.8241  57.8405  57.8777  57.9711  58.2584
    58.2657  58.3059  58.9856  59.0200  59.4092  59.4153  60.1142  60.2876
    60.7104  60.7951  60.9223

[...]

          k =-0.5000 0.0000 0.0000 (  3722 PWs)   bands (ev):

[...]

     the Fermi energy is    53.6925 ev

!    total energy              =   -2863.30017662 Ry
     Harris-Foulkes estimate   =   -2863.30019385 Ry
     estimated scf accuracy    <       0.00001944 Ry

     The total energy is the sum of the following terms:

     one-electron contribution =     322.18526175 Ry
     hartree contribution      =     210.65131927 Ry
     xc contribution           =    -287.63611703 Ry
     ewald contribution        =   -3108.38410327 Ry
     smearing contrib. (-TS)   =      -0.11653734 Ry

     convergence has been achieved in   9 iterations

     Forces acting on atoms (Ry/au):

     atom    1 type  1   force =     0.00000000   -0.07492945   -0.05139591
     atom    2 type  1   force =     0.00000000    0.07492945    0.05139591
     atom    3 type  1   force =     0.00000000   -0.07492945    0.05139591
     atom    4 type  1   force =     0.00000000    0.07492945   -0.05139591
     atom    5 type  1   force =     0.00000000    0.13556266   -0.21486616
     atom    6 type  1   force =     0.00000000   -0.13556266    0.21486616
     atom    7 type  1   force =     0.00000000    0.13556266    0.21486616
     atom    8 type  1   force =     0.00000000   -0.13556266   -0.21486616
     atom    9 type  2   force =     0.00000000   -0.19373171    0.00747602
     atom   10 type  2   force =     0.00000000    0.19373171   -0.00747602
     atom   11 type  2   force =     0.00000000   -0.19373171   -0.00747602
     atom   12 type  2   force =     0.00000000    0.19373171    0.00747602

     Total force =     0.664495     Total SCF correction =     0.000000

     entering subroutine stress ...

          total   stress  (Ry/bohr**3)                   (kbar)     P= 7233.47
   0.05240562   0.00000000   0.00000000       7709.13      0.00      0.00
   0.00000000   0.04633083   0.00000000          0.00   6815.50      0.00
   0.00000000   0.00000000   0.04877999          0.00      0.00   7175.78

     BFGS Geometry Optimization

     number of scf cycles    =   1
     number of bfgs steps    =   0

     enthalpy new            =   -2863.3001766249 Ry

     new trust radius        =       0.5000000000 bohr
     new conv_thr            =       0.0001000000 Ry

     new unit-cell volume =   1085.84765 a.u.^3 (   160.90602 Ang^3 )

CELL_PARAMETERS (alat=  7.01510508)
   1.085136619   0.000000000   0.000000000
   0.000000000   1.415012896   0.000000000
   0.000000000   0.000000000   2.048431922

ATOMIC_POSITIONS (crystal)
Co       0.750000000   0.825873560   0.435485163
Co       0.250000000   0.174126440   0.564514837
Co       0.750000000   0.325873560   0.064514837
Co       0.250000000   0.674126440   0.935485163
Co       0.250000000   0.538040247   0.281296348
Co       0.750000000   0.461959753   0.718703652
Co       0.250000000   0.038040247   0.218703652
Co       0.750000000   0.961959753   0.781296348
Si       0.250000000   0.201490293   0.893636487
Si       0.750000000   0.798509707   0.106363513
Si       0.250000000   0.701490293   0.606363513
Si       0.750000000   0.298509707   0.393636487

     Writing output data file Prototype-La-oP12-Co2Si.save
     NEW-OLD atomic charge density approx. for the potential
     NEW k-points:
        k(    1) = (   0.0000000   0.0000000   0.0000000), wk =   0.0833333
        k(    2) = (   0.0000000   0.0000000   0.1220446), wk =   0.1666667
        k(    3) = (   0.0000000   0.0000000  -0.2440891), wk =   0.0833333
        k(    4) = (   0.0000000   0.2355691   0.0000000), wk =   0.1666667
        k(    5) = (   0.0000000   0.2355691   0.1220446), wk =   0.3333333
        k(    6) = (   0.0000000   0.2355691  -0.2440891), wk =   0.1666667
        k(    7) = (  -0.4607715   0.0000000   0.0000000), wk =   0.0833333
        k(    8) = (  -0.4607715   0.0000000   0.1220446), wk =   0.1666667
        k(    9) = (  -0.4607715   0.0000000  -0.2440891), wk =   0.0833333
        k(   10) = (  -0.4607715   0.2355691   0.0000000), wk =   0.1666667
        k(   11) = (  -0.4607715   0.2355691   0.1220446), wk =   0.3333333
        k(   12) = (  -0.4607715   0.2355691  -0.2440891), wk =   0.1666667

[...]

     enthalpy old            =   -2863.3001766249 Ry
     enthalpy new            =   -2869.6543520368 Ry

     CASE: enthalpy_new < enthalpy_old

     small trust_radius: resetting bfgs history

     new trust radius        =       2.2862375039 bohr
     new conv_thr            =       0.0001000000 Ry

[...]

          total   stress  (Ry/bohr**3)                   (kbar)     P=-1932.35
  -0.01406871   0.00000000   0.00000000      -2069.58      0.00      0.00
   0.00000000  -0.01236622   0.00000000          0.00  -1819.13      0.00
   0.00000000   0.00000000  -0.01297257          0.00      0.00  -1908.33

     number of scf cycles    =   3
     number of bfgs steps    =   2

     enthalpy old            =   -2869.6543520368 Ry
     enthalpy new            =   -2857.9989140244 Ry

     CASE: enthalpy_new > enthalpy_old

     new trust radius        =       0.6943224066 bohr

     trust_radius < trust_radius_min

     resetting bfgs history

     Message from routine bfgs:
     history already reset at previous step: stopping
     new conv_thr            =       0.0001000000 Ry

     new unit-cell volume =   1293.25308 a.u.^3 (   191.64033 Ang^3 )

[...]

ATOMIC_POSITIONS (crystal)
Co       0.750000000   0.825493285   0.435239459
Co       0.250000000   0.174506715   0.564760541
Co       0.750000000   0.325493285   0.064760541
Co       0.250000000   0.674506715   0.935239459
Co       0.250000000   0.539233105   0.279816251
Co       0.750000000   0.460766895   0.720183749
Co       0.250000000   0.039233105   0.220183749
Co       0.750000000   0.960766895   0.779816251
Si       0.250000000   0.199969211   0.893649623
Si       0.750000000   0.800030789   0.106350377
Si       0.250000000   0.699969211   0.606350377
Si       0.750000000   0.300030789   0.393649623

     Writing output data file Prototype-La-oP12-Co2Si.save
     NEW-OLD atomic charge density approx. for the potential
     NEW k-points:
        k(    1) = (   0.0000000   0.0000000   0.0000000), wk =   0.0833333
        k(    2) = (   0.0000000   0.0000000   0.1151832), wk =   0.1666667
        k(    3) = (   0.0000000   0.0000000  -0.2303664), wk =   0.0833333
        k(    4) = (   0.0000000   0.2236826   0.0000000), wk =   0.1666667
        k(    5) = (   0.0000000   0.2236826   0.1151832), wk =   0.3333333
        k(    6) = (   0.0000000   0.2236826  -0.2303664), wk =   0.1666667
        k(    7) = (  -0.4317043   0.0000000   0.0000000), wk =   0.0833333
        k(    8) = (  -0.4317043   0.0000000   0.1151832), wk =   0.1666667
        k(    9) = (  -0.4317043   0.0000000  -0.2303664), wk =   0.0833333
        k(   10) = (  -0.4317043   0.2236826   0.0000000), wk =   0.1666667
        k(   11) = (  -0.4317043   0.2236826   0.1151832), wk =   0.3333333
        k(   12) = (  -0.4317043   0.2236826  -0.2303664), wk =   0.1666667

[...]

     The maximum number of steps has been reached.

     End of BFGS Geometry Optimization
Begin final coordinates
     new unit-cell volume =   1293.25308 a.u.^3 (   191.64033 Ang^3 )

CELL_PARAMETERS (alat=  7.01510508)
   1.158200299   0.000000000   0.000000000
   0.000000000   1.490206617   0.000000000
   0.000000000   0.000000000   2.170455158

ATOMIC_POSITIONS (crystal)
Co       0.750000000   0.825493285   0.435239459
Co       0.250000000   0.174506715   0.564760541
Co       0.750000000   0.325493285   0.064760541
Co       0.250000000   0.674506715   0.935239459
Co       0.250000000   0.539233105   0.279816251
Co       0.750000000   0.460766895   0.720183749
Co       0.250000000   0.039233105   0.220183749
Co       0.750000000   0.960766895   0.779816251
Si       0.250000000   0.199969211   0.893649623
Si       0.750000000   0.800030789   0.106350377
Si       0.250000000   0.699969211   0.606350377
Si       0.750000000   0.300030789   0.393649623
End final coordinates

     A final scf calculation at the relaxed structure.
     The G-vectors are recalculated for the final unit cell
     Results may differ from those at the preceding step.

     bravais-lattice index     =            0
     lattice parameter (alat)  =       7.0151  a.u.
     unit-cell volume          =    1293.2531 (a.u.)^3
     number of atoms/cell      =           12
     number of atomic types    =            2
     number of electrons       =       232.00
     number of Kohn-Sham states=          139
     kinetic-energy cutoff     =      40.0000  Ry
     charge density cutoff     =     160.0000  Ry
     convergence threshold     =      1.0E-04
     mixing beta               =       0.7000
     number of iterations used =            8  plain     mixing
     Exchange-correlation      = SLA-PZ-NOGX-NOGC ( 1 1 0 0 0)
     EXX-fraction              =        0.00

     celldm(1)=   7.015105  celldm(2)=   0.000000  celldm(3)=   0.000000
     celldm(4)=   0.000000  celldm(5)=   0.000000  celldm(6)=   0.000000

     crystal axes: (cart. coord. in units of alat)
               a(1) = (   1.158200   0.000000   0.000000 )
               a(2) = (   0.000000   1.490207   0.000000 )
               a(3) = (   0.000000   0.000000   2.170455 )

     reciprocal axes: (cart. coord. in units 2 pi/alat)
               b(1) = (  0.863409  0.000000  0.000000 )
               b(2) = (  0.000000  0.671048  0.000000 )
               b(3) = (  0.000000  0.000000  0.460733 )

     PseudoPot. # 1 for Tb read from file:
     /home/cwx6513/pp.La/Tb.UPF
     MD5 check sum: 3d6088a3f0cf7fd2e110c43f7f8e95c2
     Pseudo is Norm-conserving, Zval = 19.0
     Generated in analytical, separable form
     Using radial grid of 1263 points,  6 beta functions with:
                l(1) =   0
                l(2) =   0
                l(3) =   1
                l(4) =   1
                l(5) =   2
                l(6) =   3

     PseudoPot. # 2 for Dy read from file:
     /home/cwx6513/pp.La/Dy.UPF
     MD5 check sum: 9597327bec62616a94a14d07f3fd9936
     Pseudo is Norm-conserving, Zval = 20.0
     Generated in analytical, separable form
     Using radial grid of 1265 points,  6 beta functions with:
                l(1) =   0
                l(2) =   0
                l(3) =   1
                l(4) =   1
                l(5) =   2
                l(6) =   3

     atomic species   valence    mass     pseudopotential
        Co            19.00    58.93320     Tb( 1.00)
        Si            20.00    28.08550     Dy( 1.00)

      8 Sym. Ops., with inversion, found ( 6 have fractional translation)

   Cartesian axes

     site n.     atom                  positions (alat units)
         1           Co  tau(   1) = (   0.8686502   1.2301556   0.9446677  )
         2           Co  tau(   2) = (   0.2895501   0.2600511   1.2257874  )
         3           Co  tau(   3) = (   0.8686502   0.4850522   0.1405599  )
         4           Co  tau(   4) = (   0.2895501   1.0051544   2.0298953  )
         5           Co  tau(   5) = (   0.2895501   0.8035687   0.6073286  )
         6           Co  tau(   6) = (   0.8686502   0.6866379   1.5631265  )
         7           Co  tau(   7) = (   0.2895501   0.0584654   0.4778990  )
         8           Co  tau(   8) = (   0.8686502   1.4317412   1.6925562  )
         9           Si  tau(   9) = (   0.2895501   0.2979954   1.9396264  )
        10           Si  tau(  10) = (   0.8686502   1.1922112   0.2308287  )
        11           Si  tau(  11) = (   0.2895501   1.0430987   1.3160563  )
        12           Si  tau(  12) = (   0.8686502   0.4471079   0.8543989  )

     number of k points=    12  gaussian smearing, width (Ry)=  0.1000
                       cart. coord. in units 2pi/alat
        k(    1) = (   0.0000000   0.0000000   0.0000000), wk =   0.0833333
        k(    2) = (   0.0000000   0.0000000   0.1151832), wk =   0.1666667
        k(    3) = (   0.0000000   0.0000000  -0.2303664), wk =   0.0833333
        k(    4) = (   0.0000000   0.2236826   0.0000000), wk =   0.1666667
        k(    5) = (   0.0000000   0.2236826   0.1151832), wk =   0.3333333
        k(    6) = (   0.0000000   0.2236826  -0.2303664), wk =   0.1666667
        k(    7) = (  -0.4317043   0.0000000   0.0000000), wk =   0.0833333
        k(    8) = (  -0.4317043   0.0000000   0.1151832), wk =   0.1666667
        k(    9) = (  -0.4317043   0.0000000  -0.2303664), wk =   0.0833333
        k(   10) = (  -0.4317043   0.2236826   0.0000000), wk =   0.1666667
        k(   11) = (  -0.4317043   0.2236826   0.1151832), wk =   0.3333333
        k(   12) = (  -0.4317043   0.2236826  -0.2303664), wk =   0.1666667

     Largest allocated arrays     est. size (Mb)     dimensions
     Largest temporary arrays     est. size (Mb)     dimensions

     Initial potential from superposition of free atoms

     Starting from uniform charge
     Starting wfc are    0 randomized atomic wfcs

     Writing output data file Prototype-La-oP12-Co2Si.save

     Self-consistent Calculation

[...]

     iteration #  6     ecut=    40.00 Ry     beta=0.70
     CG style diagonalization
     ethr =  2.56E-04,  avg # of iterations =  3.8

[...]

     total energy              =   -2875.61863371 Ry
     Harris-Foulkes estimate   =   -2875.61969994 Ry
     estimated scf accuracy    <       0.00180056 Ry

     iteration #  9     ecut=    40.00 Ry     beta=0.70
     CG style diagonalization
     c_bands:  3 eigenvalues not converged
     c_bands:  1 eigenvalues not converged
     c_bands:  1 eigenvalues not converged
     c_bands:  1 eigenvalues not converged
     ethr =  7.76E-07,  avg # of iterations =  3.7

     End of self-consistent calculation

[...]

          k = 0.0000 0.2237-0.2304 (  5508 PWs)   bands (ev):

[...]

          k =-0.4317 0.2237-0.2304 (  5532 PWs)   bands (ev):

   -51.0012 -51.0012 -51.0007 -51.0007 -43.5987 -43.5987 -43.5981 -43.5981
   -43.5260 -43.5260 -43.4979 -43.4979 -18.1132 -18.1132 -18.1066 -18.1066
   -18.0982 -18.0982 -18.0896 -18.0896 -17.9928 -17.9928 -17.9863 -17.9863
   -12.3338 -12.3338 -12.2506 -12.2506 -12.2051 -12.2051 -12.1737 -12.1737
   -12.1672 -12.1672 -12.0391 -12.0391 -11.9782 -11.9782 -11.9087 -11.9087
   -11.8819 -11.8819 -11.8562 -11.8562 -11.8053 -11.8053 -11.7472 -11.7472
    20.6629  20.6629  20.9591  20.9591  21.0679  21.0679  21.2735  21.2735
    21.3119  21.3119  21.5287  21.5287  21.6028  21.6028  21.7055  21.7055
    22.2426  22.2426  22.6487  22.6487  23.0783  23.0783  23.2265  23.2265
    23.6299  23.6299  23.9077  23.9077  23.9867  23.9867  24.0795  24.0795
    24.5068  24.5068  24.9967  24.9967  25.0939  25.0939  25.4708  25.4708
    25.7133  25.7133  25.9233  25.9233  26.0151  26.0151  26.4544  26.4544
    26.5498  26.5498  26.8607  26.8607  27.3770  27.3770  27.7403  27.7403
    28.3176  28.3176  28.4793  28.4793  29.0986  29.0986  29.3270  29.3270
    30.6084  30.6084  31.0046  31.0046  32.8227  32.8227  35.9252  35.9252
    37.0820  37.0820  37.5852  37.5852  38.9136  38.9136  39.6142  39.6143
    40.0439  40.0440  41.0563  41.0564  41.4794  41.4794  42.3528  42.3532
    42.5457  42.5500  42.5866

     the Fermi energy is    33.2060 ev

!    total energy              =   -2875.61900652 Ry
     Harris-Foulkes estimate   =   -2875.61906546 Ry
     estimated scf accuracy    <       0.00006856 Ry

     The total energy is the sum of the following terms:

     one-electron contribution =    -221.21662657 Ry
     hartree contribution      =     338.66854718 Ry
     xc contribution           =    -276.22770423 Ry
     ewald contribution        =   -2716.71276731 Ry
     smearing contrib. (-TS)   =      -0.13045559 Ry

     convergence has been achieved in   9 iterations

     Forces acting on atoms (Ry/au):

     atom    1 type  1   force =     0.00000000   -0.04336011   -0.01921906
     atom    2 type  1   force =     0.00000000    0.04336011    0.01921906
     atom    3 type  1   force =     0.00000000   -0.04336011    0.01921906
     atom    4 type  1   force =     0.00000000    0.04336011   -0.01921906
     atom    5 type  1   force =     0.00000000    0.03764013   -0.05743881
     atom    6 type  1   force =     0.00000000   -0.03764013    0.05743881
     atom    7 type  1   force =     0.00000000    0.03764013    0.05743881
     atom    8 type  1   force =     0.00000000   -0.03764013   -0.05743881
     atom    9 type  2   force =     0.00000000   -0.08407026   -0.00221580
     atom   10 type  2   force =     0.00000000    0.08407026    0.00221580
     atom   11 type  2   force =     0.00000000   -0.08407026    0.00221580
     atom   12 type  2   force =     0.00000000    0.08407026   -0.00221580

     Total force =     0.236966     Total SCF correction =     0.000000

     entering subroutine stress ...

          total   stress  (Ry/bohr**3)                   (kbar)     P=  736.47
   0.00538569   0.00000000   0.00000000        792.26      0.00      0.00
   0.00000000   0.00464129   0.00000000          0.00    682.76      0.00
   0.00000000   0.00000000   0.00499231          0.00      0.00    734.39

     Writing output data file Prototype-La-oP12-Co2Si.save

     General routines

     Parallel routines

   This run was terminated on:  17:49:18  22Mar2018

   JOB DONE.