     Program PWSCF v.5.0.2 starts on 22Mar2018 at 21:16:43

     Current dimensions of program PWSCF are:
     Max number of different atomic species (ntypx) = 10
     Max number of k-points (npk) =  40000
     Max angular momentum in pseudopotentials (lmaxx) =  3
     Waiting for input...
     Reading input from standard input

     Subspace diagonalization in iterative solution of the eigenvalue problem:
     a serial algorithm will be used

     bravais-lattice index     =            0
     lattice parameter (alat)  =       7.0151  a.u.
     unit-cell volume          =     862.2778 (a.u.)^3
     number of atoms/cell      =           12
     number of atomic types    =            2
     number of electrons       =       228.00
     number of Kohn-Sham states=          137
     kinetic-energy cutoff     =      40.0000  Ry
     charge density cutoff     =     160.0000  Ry
     convergence threshold     =      1.0E-04
     mixing beta               =       0.7000
     number of iterations used =            8  plain     mixing
     Exchange-correlation      = SLA-PZ-NOGX-NOGC ( 1 1 0 0 0)
     EXX-fraction              =        0.00
     nstep                     =           50

     celldm(1)=   7.015105  celldm(2)=   0.000000  celldm(3)=   0.000000
     celldm(4)=   0.000000  celldm(5)=   0.000000  celldm(6)=   0.000000

     crystal axes: (cart. coord. in units of alat)
               a(1) = (   1.000000   0.000000   0.000000 )
               a(2) = (   0.000000   1.315963   0.000000 )
               a(3) = (   0.000000   0.000000   1.898020 )

     reciprocal axes: (cart. coord. in units 2 pi/alat)
               b(1) = (  1.000000  0.000000  0.000000 )
               b(2) = (  0.000000  0.759900  0.000000 )
               b(3) = (  0.000000  0.000000  0.526865 )

     PseudoPot. # 1 for Eu read from file:
     /home/cwx6513/pp.La/Eu.UPF
     MD5 check sum: 5efdbbfc50c6a10138933a6429836ad2
     Pseudo is Norm-conserving, Zval = 17.0
     Generated in analytical, separable form
     Using radial grid of 1261 points,  6 beta functions with:
                l(1) =   0
                l(2) =   0
                l(3) =   1
                l(4) =   1
                l(5) =   2
                l(6) =   3

     PseudoPot. # 2 for Tm read from file:
     /home/cwx6513/pp.La/Tm.UPF
     MD5 check sum: 245516e0878b5372ceeb9443ded2c4e1
     Pseudo is Norm-conserving, Zval = 23.0
     Generated in analytical, separable form
     Using radial grid of 1269 points,  6 beta functions with:
                l(1) =   0
                l(2) =   0
                l(3) =   1
                l(4) =   1
                l(5) =   2
                l(6) =   3

     atomic species   valence    mass     pseudopotential
        Co            17.00    58.93320     Eu( 1.00)
        Si            23.00    28.08550     Tm( 1.00)

      8 Sym. Ops., with inversion, found ( 6 have fractional translation)

   Cartesian axes

     site n.     atom                  positions (alat units)
         1           Co  tau(   1) = (   0.7500000   1.0875135   0.8270358  )
         2           Co  tau(   2) = (   0.2500000   0.2284499   1.0709846  )
         3           Co  tau(   3) = (   0.7500000   0.4295318   0.1219744  )
         4           Co  tau(   4) = (   0.2500000   0.8864316   1.7760460  )
         5           Co  tau(   5) = (   0.2500000   0.7067855   0.5358966  )
         6           Co  tau(   6) = (   0.7500000   0.6091779   1.3621238  )
         7           Co  tau(   7) = (   0.2500000   0.0488038   0.4131136  )
         8           Co  tau(   8) = (   0.7500000   1.2671596   1.4849068  )
         9           Si  tau(   9) = (   0.2500000   0.2669484   1.6960710  )
        10           Si  tau(  10) = (   0.7500000   1.0490149   0.2019494  )
        11           Si  tau(  11) = (   0.2500000   0.9249301   1.1509596  )
        12           Si  tau(  12) = (   0.7500000   0.3910333   0.7470608  )

     number of k points=    12  gaussian smearing, width (Ry)=  0.1000
                       cart. coord. in units 2pi/alat
        k(    1) = (   0.0000000   0.0000000   0.0000000), wk =   0.0833333
        k(    2) = (   0.0000000   0.0000000   0.1317162), wk =   0.1666667
        k(    3) = (   0.0000000   0.0000000  -0.2634324), wk =   0.0833333
        k(    4) = (   0.0000000   0.2532999   0.0000000), wk =   0.1666667
        k(    5) = (   0.0000000   0.2532999   0.1317162), wk =   0.3333333
        k(    6) = (   0.0000000   0.2532999  -0.2634324), wk =   0.1666667
        k(    7) = (  -0.5000000   0.0000000   0.0000000), wk =   0.0833333
        k(    8) = (  -0.5000000   0.0000000   0.1317162), wk =   0.1666667
        k(    9) = (  -0.5000000   0.0000000  -0.2634324), wk =   0.0833333
        k(   10) = (  -0.5000000   0.2532999   0.0000000), wk =   0.1666667
        k(   11) = (  -0.5000000   0.2532999   0.1317162), wk =   0.3333333
        k(   12) = (  -0.5000000   0.2532999  -0.2634324), wk =   0.1666667

     Largest allocated arrays     est. size (Mb)     dimensions
     Largest temporary arrays     est. size (Mb)     dimensions

     Initial potential from superposition of free atoms

     Starting from uniform charge
     Starting wfc are    0 randomized atomic wfcs

     Self-consistent Calculation

     iteration #  1     ecut=    40.00 Ry     beta=0.70
     CG style diagonalization
     c_bands:  2 eigenvalues not converged
     c_bands:  3 eigenvalues not converged
     c_bands:  1 eigenvalues not converged
     c_bands:  3 eigenvalues not converged
     c_bands:  5 eigenvalues not converged
     c_bands:  3 eigenvalues not converged
     ethr =  1.00E-02,  avg # of iterations = 14.9

     total energy              =   -1967.36793402 Ry
     Harris-Foulkes estimate   =   -3385.56836363 Ry
     estimated scf accuracy    <    1708.86333611 Ry

[...]

     iteration #  4     ecut=    40.00 Ry     beta=0.70
     CG style diagonalization
     ethr =  1.00E-02,  avg # of iterations =  4.5

[...]

     End of self-consistent calculation

          k = 0.0000 0.0000 0.0000 (  3675 PWs)   bands (ev):

   -61.4364 -61.4174 -61.4170 -61.3956 -20.6142 -20.5976 -20.5918 -20.5857
   -20.5646 -20.5577 -20.5513 -20.5346 -20.4253 -20.3960 -20.3513 -20.3260
   -14.5135 -13.9180 -13.8532 -13.7846 -13.6092 -13.2866 -13.1797 -13.1747
    10.0945  10.5892  10.9524  10.9717  11.1391  11.1980  11.5516  11.6408
    11.9906  11.9947  12.4174  12.4274  12.6582  12.7840  12.9780  13.0879
    13.2497  13.2859  13.4543  13.8609  13.9187  14.2650  14.8034  15.0013
    26.3889  26.5663  26.7455  26.8547  26.9124  26.9713  26.9788  27.1100
    27.2257  27.2694  27.4697  27.6695  27.8001  27.8362  28.1846  28.2101
    28.2720  28.3588  28.4533  28.4876  34.2987  34.7645  37.0964  37.1607
    38.1776  38.4939  39.8881  39.9817  40.3148  40.6251  40.6553  40.6793
    40.7178  40.9023  40.9761  41.0975  42.0130  42.0487  42.0967  42.9188
    43.4793  43.7097  44.7928  44.9585  45.0487  45.0660  45.8331  46.4552
    46.5659  46.7908  46.8813  47.1226  47.1454  47.5177  48.6766  49.0679
    49.1805  49.2086  49.3124  49.6714  49.8203  50.3380  51.0617  51.6984
    52.3027  52.7154  54.1248  54.4980  54.8843  55.1027  55.4661  55.4846
    56.2484  56.8144  57.1134  57.2442  57.6798  57.6915  57.8602  58.2170
    58.2832  58.2925  58.3250  58.5344  58.5443  59.1128  59.6238  60.1625
    60.4956

[...]

          k =-0.5000 0.0000 0.0000 (  3722 PWs)   bands (ev):

[...]

     the Fermi energy is    53.0097 ev

!    total energy              =   -2857.24710457 Ry
     Harris-Foulkes estimate   =   -2857.24716521 Ry
     estimated scf accuracy    <       0.00006740 Ry

     The total energy is the sum of the following terms:

     one-electron contribution =     210.56849315 Ry
     hartree contribution      =     247.79403442 Ry
     xc contribution           =    -282.79806071 Ry
     ewald contribution        =   -3032.59845411 Ry
     smearing contrib. (-TS)   =      -0.21311732 Ry

     convergence has been achieved in  10 iterations

     Forces acting on atoms (Ry/au):

     atom    1 type  1   force =     0.00000000   -0.02936231   -0.02318073
     atom    2 type  1   force =     0.00000000    0.02936231    0.02318073
     atom    3 type  1   force =     0.00000000   -0.02936231    0.02318073
     atom    4 type  1   force =     0.00000000    0.02936231   -0.02318073
     atom    5 type  1   force =     0.00000000    0.11449167   -0.22834700
     atom    6 type  1   force =     0.00000000   -0.11449167    0.22834700
     atom    7 type  1   force =     0.00000000    0.11449167    0.22834700
     atom    8 type  1   force =     0.00000000   -0.11449167   -0.22834700
     atom    9 type  2   force =     0.00000000   -0.15734189    0.04137748
     atom   10 type  2   force =     0.00000000    0.15734189   -0.04137748
     atom   11 type  2   force =     0.00000000   -0.15734189   -0.04137748
     atom   12 type  2   force =     0.00000000    0.15734189    0.04137748

     Total force =     0.610307     Total SCF correction =     0.000000

     entering subroutine stress ...

          total   stress  (Ry/bohr**3)                   (kbar)     P= 7069.77
   0.05092109   0.00000000   0.00000000       7490.75      0.00      0.00
   0.00000000   0.04574846   0.00000000          0.00   6729.83      0.00
   0.00000000   0.00000000   0.04750835          0.00      0.00   6988.72

     BFGS Geometry Optimization

     number of scf cycles    =   1
     number of bfgs steps    =   0

     enthalpy new            =   -2857.2471045696 Ry

     new trust radius        =       0.5000000000 bohr
     new conv_thr            =       0.0001000000 Ry

     new unit-cell volume =   1087.26586 a.u.^3 (   161.11617 Ang^3 )

CELL_PARAMETERS (alat=  7.01510508)
   1.085136619   0.000000000   0.000000000
   0.000000000   1.416619214   0.000000000
   0.000000000   0.000000000   2.048781575

ATOMIC_POSITIONS (crystal)
Co       0.750000000   0.826188289   0.435619568
Co       0.250000000   0.173811711   0.564380432
Co       0.750000000   0.326188289   0.064380432
Co       0.250000000   0.673811711   0.935619568
Co       0.250000000   0.537915420   0.281198065
Co       0.750000000   0.462084580   0.718801935
Co       0.250000000   0.037915420   0.218801935
Co       0.750000000   0.962084580   0.781198065
Si       0.250000000   0.201714157   0.893807830
Si       0.750000000   0.798285843   0.106192170
Si       0.250000000   0.701714157   0.606192170
Si       0.750000000   0.298285843   0.393807830

     Writing output data file Prototype-La-oP12-Co2Si.save
     NEW-OLD atomic charge density approx. for the potential
     NEW k-points:
        k(    1) = (   0.0000000   0.0000000   0.0000000), wk =   0.0833333
        k(    2) = (   0.0000000   0.0000000   0.1220237), wk =   0.1666667
        k(    3) = (   0.0000000   0.0000000  -0.2440475), wk =   0.0833333
        k(    4) = (   0.0000000   0.2353020   0.0000000), wk =   0.1666667
        k(    5) = (   0.0000000   0.2353020   0.1220237), wk =   0.3333333
        k(    6) = (   0.0000000   0.2353020  -0.2440475), wk =   0.1666667
        k(    7) = (  -0.4607715   0.0000000   0.0000000), wk =   0.0833333
        k(    8) = (  -0.4607715   0.0000000   0.1220237), wk =   0.1666667
        k(    9) = (  -0.4607715   0.0000000  -0.2440475), wk =   0.0833333
        k(   10) = (  -0.4607715   0.2353020   0.0000000), wk =   0.1666667
        k(   11) = (  -0.4607715   0.2353020   0.1220237), wk =   0.3333333
        k(   12) = (  -0.4607715   0.2353020  -0.2440475), wk =   0.1666667

[...]

     enthalpy old            =   -2857.2471045696 Ry
     enthalpy new            =   -2863.5109522395 Ry

     CASE: enthalpy_new < enthalpy_old

     small trust_radius: resetting bfgs history

     new trust radius        =       2.1274133091 bohr
     new conv_thr            =       0.0001000000 Ry

[...]

          total   stress  (Ry/bohr**3)                   (kbar)     P=-2746.52
  -0.01960629   0.00000000   0.00000000      -2884.18      0.00      0.00
   0.00000000  -0.01791155   0.00000000          0.00  -2634.88      0.00
   0.00000000   0.00000000  -0.01849352          0.00      0.00  -2720.49

     number of scf cycles    =   3
     number of bfgs steps    =   2

     enthalpy old            =   -2863.5109522396 Ry
     enthalpy new            =   -2848.1346937827 Ry

     CASE: enthalpy_new > enthalpy_old

     new trust radius        =       0.5329059915 bohr

     trust_radius < trust_radius_min

     resetting bfgs history

     Message from routine bfgs:
     history already reset at previous step: stopping
     new conv_thr            =       0.0001000000 Ry

     new unit-cell volume =   1302.43114 a.u.^3 (   193.00038 Ang^3 )

[...]

ATOMIC_POSITIONS (crystal)
Co       0.750000000   0.825520745   0.435471518
Co       0.250000000   0.174479255   0.564528482
Co       0.750000000   0.325520745   0.064528482
Co       0.250000000   0.674479255   0.935471518
Co       0.250000000   0.538836313   0.280279620
Co       0.750000000   0.461163687   0.719720380
Co       0.250000000   0.038836313   0.219720380
Co       0.750000000   0.961163687   0.780279620
Si       0.250000000   0.199712182   0.894089259
Si       0.750000000   0.800287818   0.105910741
Si       0.250000000   0.699712182   0.605910741
Si       0.750000000   0.300287818   0.394089259

     Writing output data file Prototype-La-oP12-Co2Si.save
     NEW-OLD atomic charge density approx. for the potential
     NEW k-points:
        k(    1) = (   0.0000000   0.0000000   0.0000000), wk =   0.0833333
        k(    2) = (   0.0000000   0.0000000   0.1149560), wk =   0.1666667
        k(    3) = (   0.0000000   0.0000000  -0.2299121), wk =   0.0833333
        k(    4) = (   0.0000000   0.2225280   0.0000000), wk =   0.1666667
        k(    5) = (   0.0000000   0.2225280   0.1149560), wk =   0.3333333
        k(    6) = (   0.0000000   0.2225280  -0.2299121), wk =   0.1666667
        k(    7) = (  -0.4317377   0.0000000   0.0000000), wk =   0.0833333
        k(    8) = (  -0.4317377   0.0000000   0.1149560), wk =   0.1666667
        k(    9) = (  -0.4317377   0.0000000  -0.2299121), wk =   0.0833333
        k(   10) = (  -0.4317377   0.2225280   0.0000000), wk =   0.1666667
        k(   11) = (  -0.4317377   0.2225280   0.1149560), wk =   0.3333333
        k(   12) = (  -0.4317377   0.2225280  -0.2299121), wk =   0.1666667

[...]

     The maximum number of steps has been reached.

     End of BFGS Geometry Optimization
Begin final coordinates
     new unit-cell volume =   1302.43114 a.u.^3 (   193.00038 Ang^3 )

CELL_PARAMETERS (alat=  7.01510508)
   1.158110455   0.000000000   0.000000000
   0.000000000   1.497938580   0.000000000
   0.000000000   0.000000000   2.174744490

ATOMIC_POSITIONS (crystal)
Co       0.750000000   0.825520745   0.435471518
Co       0.250000000   0.174479255   0.564528482
Co       0.750000000   0.325520745   0.064528482
Co       0.250000000   0.674479255   0.935471518
Co       0.250000000   0.538836313   0.280279620
Co       0.750000000   0.461163687   0.719720380
Co       0.250000000   0.038836313   0.219720380
Co       0.750000000   0.961163687   0.780279620
Si       0.250000000   0.199712182   0.894089259
Si       0.750000000   0.800287818   0.105910741
Si       0.250000000   0.699712182   0.605910741
Si       0.750000000   0.300287818   0.394089259
End final coordinates

     A final scf calculation at the relaxed structure.
     The G-vectors are recalculated for the final unit cell
     Results may differ from those at the preceding step.

     bravais-lattice index     =            0
     lattice parameter (alat)  =       7.0151  a.u.
     unit-cell volume          =    1302.4311 (a.u.)^3
     number of atoms/cell      =           12
     number of atomic types    =            2
     number of electrons       =       228.00
     number of Kohn-Sham states=          137
     kinetic-energy cutoff     =      40.0000  Ry
     charge density cutoff     =     160.0000  Ry
     convergence threshold     =      1.0E-04
     mixing beta               =       0.7000
     number of iterations used =            8  plain     mixing
     Exchange-correlation      = SLA-PZ-NOGX-NOGC ( 1 1 0 0 0)
     EXX-fraction              =        0.00

     celldm(1)=   7.015105  celldm(2)=   0.000000  celldm(3)=   0.000000
     celldm(4)=   0.000000  celldm(5)=   0.000000  celldm(6)=   0.000000

     crystal axes: (cart. coord. in units of alat)
               a(1) = (   1.158110   0.000000   0.000000 )
               a(2) = (   0.000000   1.497939   0.000000 )
               a(3) = (   0.000000   0.000000   2.174744 )

     reciprocal axes: (cart. coord. in units 2 pi/alat)
               b(1) = (  0.863475  0.000000  0.000000 )
               b(2) = (  0.000000  0.667584  0.000000 )
               b(3) = (  0.000000  0.000000  0.459824 )

     PseudoPot. # 1 for Eu read from file:
     /home/cwx6513/pp.La/Eu.UPF
     MD5 check sum: 5efdbbfc50c6a10138933a6429836ad2
     Pseudo is Norm-conserving, Zval = 17.0
     Generated in analytical, separable form
     Using radial grid of 1261 points,  6 beta functions with:
                l(1) =   0
                l(2) =   0
                l(3) =   1
                l(4) =   1
                l(5) =   2
                l(6) =   3

     PseudoPot. # 2 for Tm read from file:
     /home/cwx6513/pp.La/Tm.UPF
     MD5 check sum: 245516e0878b5372ceeb9443ded2c4e1
     Pseudo is Norm-conserving, Zval = 23.0
     Generated in analytical, separable form
     Using radial grid of 1269 points,  6 beta functions with:
                l(1) =   0
                l(2) =   0
                l(3) =   1
                l(4) =   1
                l(5) =   2
                l(6) =   3

     atomic species   valence    mass     pseudopotential
        Co            17.00    58.93320     Eu( 1.00)
        Si            23.00    28.08550     Tm( 1.00)

      8 Sym. Ops., with inversion, found ( 6 have fractional translation)

   Cartesian axes

     site n.     atom                  positions (alat units)
         1           Co  tau(   1) = (   0.8685828   1.2365794   0.9470393  )
         2           Co  tau(   2) = (   0.2895276   0.2613592   1.2277052  )
         3           Co  tau(   3) = (   0.8685828   0.4876101   0.1403330  )
         4           Co  tau(   4) = (   0.2895276   1.0103285   2.0344115  )
         5           Co  tau(   5) = (   0.2895276   0.8071437   0.6095366  )
         6           Co  tau(   6) = (   0.8685828   0.6907949   1.5652079  )
         7           Co  tau(   7) = (   0.2895276   0.0581744   0.4778357  )
         8           Co  tau(   8) = (   0.8685828   1.4397642   1.6969088  )
         9           Si  tau(   9) = (   0.2895276   0.2991566   1.9444157  )
        10           Si  tau(  10) = (   0.8685828   1.1987820   0.2303288  )
        11           Si  tau(  11) = (   0.2895276   1.0481259   1.3177010  )
        12           Si  tau(  12) = (   0.8685828   0.4498127   0.8570434  )

     number of k points=    12  gaussian smearing, width (Ry)=  0.1000
                       cart. coord. in units 2pi/alat
        k(    1) = (   0.0000000   0.0000000   0.0000000), wk =   0.0833333
        k(    2) = (   0.0000000   0.0000000   0.1149560), wk =   0.1666667
        k(    3) = (   0.0000000   0.0000000  -0.2299121), wk =   0.0833333
        k(    4) = (   0.0000000   0.2225280   0.0000000), wk =   0.1666667
        k(    5) = (   0.0000000   0.2225280   0.1149560), wk =   0.3333333
        k(    6) = (   0.0000000   0.2225280  -0.2299121), wk =   0.1666667
        k(    7) = (  -0.4317377   0.0000000   0.0000000), wk =   0.0833333
        k(    8) = (  -0.4317377   0.0000000   0.1149560), wk =   0.1666667
        k(    9) = (  -0.4317377   0.0000000  -0.2299121), wk =   0.0833333
        k(   10) = (  -0.4317377   0.2225280   0.0000000), wk =   0.1666667
        k(   11) = (  -0.4317377   0.2225280   0.1149560), wk =   0.3333333
        k(   12) = (  -0.4317377   0.2225280  -0.2299121), wk =   0.1666667

     Largest allocated arrays     est. size (Mb)     dimensions
     Largest temporary arrays     est. size (Mb)     dimensions

     Initial potential from superposition of free atoms

     Starting from uniform charge
     Starting wfc are    0 randomized atomic wfcs

     Writing output data file Prototype-La-oP12-Co2Si.save

     Self-consistent Calculation

[...]

     iteration #  9     ecut=    40.00 Ry     beta=0.70
     CG style diagonalization
     c_bands:  2 eigenvalues not converged
     c_bands:  1 eigenvalues not converged
     c_bands:  1 eigenvalues not converged
     c_bands:  1 eigenvalues not converged
     c_bands:  1 eigenvalues not converged
     c_bands:  1 eigenvalues not converged
     c_bands:  1 eigenvalues not converged
     ethr =  5.04E-06,  avg # of iterations =  4.6

[...]

     total energy              =   -2869.34475647 Ry
     Harris-Foulkes estimate   =   -2869.34498153 Ry
     estimated scf accuracy    <       0.00044664 Ry

     iteration # 11     ecut=    40.00 Ry     beta=0.70
     CG style diagonalization
     ethr =  1.96E-07,  avg # of iterations =  4.1

     End of self-consistent calculation

[...]

          k = 0.0000 0.2225-0.2299 (  5550 PWs)   bands (ev):

[...]

          k =-0.4317 0.2225-0.2299 (  5556 PWs)   bands (ev):

   -78.7580 -78.7580 -78.7491 -78.7491 -37.4809 -37.4809 -37.4791 -37.4791
   -37.4684 -37.4684 -37.4644 -37.4644 -37.4492 -37.4492 -37.4490 -37.4490
   -30.4246 -30.4246 -30.4222 -30.4222 -30.2569 -30.2569 -30.1950 -30.1950
    -3.9305  -3.9305  -3.7925  -3.7925  -3.7617  -3.7617  -3.7038  -3.7038
    -3.6074  -3.6074  -3.3798  -3.3798  -3.2425  -3.2425  -3.0877  -3.0877
    -3.0408  -3.0408  -3.0077  -3.0077  -2.8930  -2.8930  -2.7840  -2.7840
    11.2355  11.2355  11.2357  11.2357  11.2730  11.2730  11.3278  11.3278
    11.3605  11.3605  11.3648  11.3648  11.4055  11.4055  11.4234  11.4234
    11.5466  11.5466  11.5897  11.5897  20.9407  20.9407  21.1550  21.1550
    24.4273  24.4273  24.9090  24.9090  25.7214  25.7214  26.2128  26.2128
    26.2422  26.2422  26.6772  26.6772  26.7993  26.7993  26.9028  26.9028
    27.1550  27.1550  27.7365  27.7365  28.0342  28.0342  28.7173  28.7173
    28.9458  28.9458  29.1145  29.1145  29.7751  29.7751  30.1981  30.1981
    30.2962  30.2962  30.4735  30.4735  30.8778  30.8778  31.5983  31.5983
    32.9487  32.9487  33.4701  33.4701  34.4890  34.4890  36.4042  36.4042
    37.1868  37.1868  37.3995  37.3996  38.9248  38.9249  38.9907  38.9908
    39.7509  39.7510  39.8743  39.8745  40.2315  40.2314  41.5662  41.5789
    41.5809

     the Fermi energy is    33.3891 ev

!    total energy              =   -2869.34495136 Ry
     Harris-Foulkes estimate   =   -2869.34496280 Ry
     estimated scf accuracy    <       0.00001403 Ry

     The total energy is the sum of the following terms:

     one-electron contribution =    -324.52848759 Ry
     hartree contribution      =     370.10007360 Ry
     xc contribution           =    -270.36991797 Ry
     ewald contribution        =   -2644.23531050 Ry
     smearing contrib. (-TS)   =      -0.31130891 Ry

     convergence has been achieved in  11 iterations

     Forces acting on atoms (Ry/au):

     atom    1 type  1   force =     0.00000000   -0.00765644   -0.00339235
     atom    2 type  1   force =     0.00000000    0.00765644    0.00339235
     atom    3 type  1   force =     0.00000000   -0.00765644    0.00339235
     atom    4 type  1   force =     0.00000000    0.00765644   -0.00339235
     atom    5 type  1   force =     0.00000000    0.02678344   -0.05156005
     atom    6 type  1   force =     0.00000000   -0.02678344    0.05156005
     atom    7 type  1   force =     0.00000000    0.02678344    0.05156005
     atom    8 type  1   force =     0.00000000   -0.02678344   -0.05156005
     atom    9 type  2   force =     0.00000000   -0.04823195    0.00724396
     atom   10 type  2   force =     0.00000000    0.04823195   -0.00724396
     atom   11 type  2   force =     0.00000000   -0.04823195   -0.00724396
     atom   12 type  2   force =     0.00000000    0.04823195    0.00724396

     Total force =     0.152640     Total SCF correction =     0.000000

     entering subroutine stress ...

          total   stress  (Ry/bohr**3)                   (kbar)     P=  685.13
   0.00486403   0.00000000   0.00000000        715.52      0.00      0.00
   0.00000000   0.00445584   0.00000000          0.00    655.48      0.00
   0.00000000   0.00000000   0.00465247          0.00      0.00    684.40

     Writing output data file Prototype-La-oP12-Co2Si.save

     General routines

     Parallel routines

   This run was terminated on:  21:38:50  22Mar2018

   JOB DONE.