     Program PWSCF v.5.0.2 starts on 22Mar2018 at 21:16:43

     Current dimensions of program PWSCF are:
     Max number of different atomic species (ntypx) = 10
     Max number of k-points (npk) =  40000
     Max angular momentum in pseudopotentials (lmaxx) =  3
     Waiting for input...
     Reading input from standard input

     Subspace diagonalization in iterative solution of the eigenvalue problem:
     a serial algorithm will be used

     bravais-lattice index     =            0
     lattice parameter (alat)  =      12.0168  a.u.
     unit-cell volume          =    1187.3413 (a.u.)^3
     number of atoms/cell      =            8
     number of atomic types    =            2
     number of electrons       =       148.00
     number of Kohn-Sham states=           89
     kinetic-energy cutoff     =      40.0000  Ry
     charge density cutoff     =     160.0000  Ry
     convergence threshold     =      1.0E-04
     mixing beta               =       0.7000
     number of iterations used =            8  plain     mixing
     Exchange-correlation      = SLA-PZ-NOGX-NOGC ( 1 1 0 0 0)
     EXX-fraction              =        0.00
     nstep                     =           50

     celldm(1)=  12.016801  celldm(2)=   0.000000  celldm(3)=   0.000000
     celldm(4)=   0.000000  celldm(5)=   0.000000  celldm(6)=   0.000000

     crystal axes: (cart. coord. in units of alat)
               a(1) = (   1.000000   0.000000   0.000000 )
               a(2) = (  -0.500000   0.866025   0.000000 )
               a(3) = (   0.000000   0.000000   0.790093 )

     reciprocal axes: (cart. coord. in units 2 pi/alat)
               b(1) = (  1.000000  0.577350  0.000000 )
               b(2) = (  0.000000  1.154701  0.000000 )
               b(3) = (  0.000000  0.000000  1.265674 )

     PseudoPot. # 1 for Eu read from file:
     /home/cwx6513/pp.La/Eu.UPF
     MD5 check sum: 5efdbbfc50c6a10138933a6429836ad2
     Pseudo is Norm-conserving, Zval = 17.0
     Generated in analytical, separable form
     Using radial grid of 1261 points,  6 beta functions with:
                l(1) =   0
                l(2) =   0
                l(3) =   1
                l(4) =   1
                l(5) =   2
                l(6) =   3

     PseudoPot. # 2 for Tm read from file:
     /home/cwx6513/pp.La/Tm.UPF
     MD5 check sum: 245516e0878b5372ceeb9443ded2c4e1
     Pseudo is Norm-conserving, Zval = 23.0
     Generated in analytical, separable form
     Using radial grid of 1269 points,  6 beta functions with:
                l(1) =   0
                l(2) =   0
                l(3) =   1
                l(4) =   1
                l(5) =   2
                l(6) =   3

     atomic species   valence    mass     pseudopotential
        Mg            17.00    24.30500     Eu( 1.00)
        Cd            23.00   112.41100     Tm( 1.00)

     24 Sym. Ops., with inversion, found (12 have fractional translation)

   Cartesian axes

     site n.     atom                  positions (alat units)
         1           Mg  tau(   1) = (   0.2478935   0.7204716   0.1975233  )
         2           Mg  tau(   2) = (   0.7478935   0.1455538   0.5925699  )
         3           Mg  tau(   3) = (   0.2521065   0.1455538   0.5925699  )
         4           Mg  tau(   4) = (  -0.2478935   0.7204716   0.1975233  )
         5           Mg  tau(   5) = (   0.0000000   0.2911075   0.1975233  )
         6           Mg  tau(   6) = (   0.5000000   0.5749179   0.5925699  )
         7           Cd  tau(   7) = (   0.5000005   0.2886748   0.1975233  )
         8           Cd  tau(   8) = (  -0.0000005   0.5773506   0.5925699  )

     number of k points=    64  gaussian smearing, width (Ry)=  0.1000
                       cart. coord. in units 2pi/alat
        k(    1) = (   0.0000000   0.0000000   0.0000000), wk =   0.0095238
        k(    2) = (   0.0000000   0.0000000   0.1808105), wk =   0.0190476
        k(    3) = (   0.0000000   0.0000000   0.3616210), wk =   0.0190476
        k(    4) = (   0.0000000   0.0000000   0.5424315), wk =   0.0190476
        k(    5) = (   0.0000000   0.1924501   0.0000000), wk =   0.0190476
        k(    6) = (   0.0000000   0.1924501   0.1808105), wk =   0.0380952
        k(    7) = (   0.0000000   0.1924501   0.3616210), wk =   0.0380952
        k(    8) = (   0.0000000   0.1924501   0.5424315), wk =   0.0380952
        k(    9) = (   0.0000000   0.3849002   0.0000000), wk =   0.0190476
        k(   10) = (   0.0000000   0.3849002   0.1808105), wk =   0.0380952
        k(   11) = (   0.0000000   0.3849002   0.3616210), wk =   0.0380952
        k(   12) = (   0.0000000   0.3849002   0.5424315), wk =   0.0380952
        k(   13) = (   0.0000000  -0.5773503   0.0000000), wk =   0.0095238
        k(   14) = (   0.0000000  -0.5773503   0.1808105), wk =   0.0190476
        k(   15) = (   0.0000000  -0.5773503   0.3616210), wk =   0.0190476
        k(   16) = (   0.0000000  -0.5773503   0.5424315), wk =   0.0190476
        k(   17) = (   0.2000000   0.1154701   0.0000000), wk =   0.0190476
        k(   18) = (   0.2000000   0.1154701   0.1808105), wk =   0.0380952
        k(   19) = (   0.2000000   0.1154701   0.3616210), wk =   0.0380952
        k(   20) = (   0.2000000   0.1154701   0.5424315), wk =   0.0380952
        k(   21) = (   0.2000000   0.3079201   0.0000000), wk =   0.0190476
        k(   22) = (   0.2000000   0.3079201   0.1808105), wk =   0.0380952
        k(   23) = (   0.2000000   0.3079201   0.3616210), wk =   0.0380952
        k(   24) = (   0.2000000   0.3079201   0.5424315), wk =   0.0380952
        k(   25) = (   0.2000000   0.5003702   0.0000000), wk =   0.0190476
        k(   26) = (   0.2000000   0.5003702   0.1808105), wk =   0.0380952
        k(   27) = (   0.2000000   0.5003702   0.3616210), wk =   0.0380952
        k(   28) = (   0.2000000   0.5003702   0.5424315), wk =   0.0380952
        k(   29) = (   0.2000000  -0.4618802   0.0000000), wk =   0.0190476
        k(   30) = (   0.2000000  -0.4618802   0.1808105), wk =   0.0380952
        k(   31) = (   0.2000000  -0.4618802   0.3616210), wk =   0.0380952
        k(   32) = (   0.2000000  -0.4618802   0.5424315), wk =   0.0380952
        k(   33) = (   0.2000000  -0.2694301   0.0000000), wk =   0.0190476
        k(   34) = (   0.2000000  -0.2694301   0.1808105), wk =   0.0380952
        k(   35) = (   0.2000000  -0.2694301   0.3616210), wk =   0.0380952
        k(   36) = (   0.2000000  -0.2694301   0.5424315), wk =   0.0380952
        k(   37) = (   0.2000000  -0.0769800   0.0000000), wk =   0.0190476
        k(   38) = (   0.2000000  -0.0769800   0.1808105), wk =   0.0380952
        k(   39) = (   0.2000000  -0.0769800   0.3616210), wk =   0.0380952
        k(   40) = (   0.2000000  -0.0769800   0.5424315), wk =   0.0380952
        k(   41) = (   0.4000000   0.2309401   0.0000000), wk =   0.0190476
        k(   42) = (   0.4000000   0.2309401   0.1808105), wk =   0.0380952
        k(   43) = (   0.4000000   0.2309401   0.3616210), wk =   0.0380952
        k(   44) = (   0.4000000   0.2309401   0.5424315), wk =   0.0380952
        k(   45) = (   0.4000000   0.4233902   0.0000000), wk =   0.0190476
        k(   46) = (   0.4000000   0.4233902   0.1808105), wk =   0.0380952
        k(   47) = (   0.4000000   0.4233902   0.3616210), wk =   0.0380952
        k(   48) = (   0.4000000   0.4233902   0.5424315), wk =   0.0380952
        k(   49) = (   0.4000000   0.6158403   0.0000000), wk =   0.0190476
        k(   50) = (   0.4000000   0.6158403   0.1808105), wk =   0.0380952
        k(   51) = (   0.4000000   0.6158403   0.3616210), wk =   0.0380952
        k(   52) = (   0.4000000   0.6158403   0.5424315), wk =   0.0380952
        k(   53) = (   0.4000000  -0.3464102   0.0000000), wk =   0.0190476
        k(   54) = (   0.4000000  -0.3464102   0.1808105), wk =   0.0380952
        k(   55) = (   0.4000000  -0.3464102   0.3616210), wk =   0.0380952
        k(   56) = (   0.4000000  -0.3464102   0.5424315), wk =   0.0380952
        k(   57) = (   0.4000000  -0.1539601   0.0000000), wk =   0.0190476
        k(   58) = (   0.4000000  -0.1539601   0.1808105), wk =   0.0380952
        k(   59) = (   0.4000000  -0.1539601   0.3616210), wk =   0.0380952
        k(   60) = (   0.4000000  -0.1539601   0.5424315), wk =   0.0380952
        k(   61) = (   0.4000000   0.0384900   0.0000000), wk =   0.0190476
        k(   62) = (   0.4000000   0.0384900   0.1808105), wk =   0.0380952
        k(   63) = (   0.4000000   0.0384900   0.3616210), wk =   0.0380952
        k(   64) = (   0.4000000   0.0384900   0.5424315), wk =   0.0380952

     Largest allocated arrays     est. size (Mb)     dimensions
     Largest temporary arrays     est. size (Mb)     dimensions

     Initial potential from superposition of free atoms

     Starting from uniform charge
     Starting wfc are    0 randomized atomic wfcs

     Self-consistent Calculation

     iteration #  1     ecut=    40.00 Ry     beta=0.70
     CG style diagonalization
     ethr =  1.00E-02,  avg # of iterations = 17.9

     total energy              =   -1182.73123236 Ry
     Harris-Foulkes estimate   =   -2342.59682387 Ry
     estimated scf accuracy    <    1400.14237712 Ry

     iteration #  2     ecut=    40.00 Ry     beta=0.70
     CG style diagonalization
     c_bands:  3 eigenvalues not converged
     c_bands:  5 eigenvalues not converged
     c_bands:  4 eigenvalues not converged
     c_bands:  4 eigenvalues not converged
     c_bands:  1 eigenvalues not converged
     c_bands:  5 eigenvalues not converged
     c_bands:  5 eigenvalues not converged
     c_bands:  1 eigenvalues not converged
     c_bands:  4 eigenvalues not converged
     c_bands:  5 eigenvalues not converged
     c_bands:  4 eigenvalues not converged
     c_bands:  5 eigenvalues not converged
     c_bands:  3 eigenvalues not converged
     c_bands:  5 eigenvalues not converged
     c_bands:  5 eigenvalues not converged
     c_bands:  1 eigenvalues not converged
     c_bands:  3 eigenvalues not converged
     c_bands:  2 eigenvalues not converged
     c_bands:  4 eigenvalues not converged
     c_bands:  4 eigenvalues not converged
     c_bands:  3 eigenvalues not converged
     c_bands:  3 eigenvalues not converged
     c_bands:  5 eigenvalues not converged
     c_bands:  4 eigenvalues not converged
     c_bands:  4 eigenvalues not converged
     c_bands:  3 eigenvalues not converged
     c_bands:  3 eigenvalues not converged
     c_bands:  3 eigenvalues not converged
     c_bands:  3 eigenvalues not converged
     c_bands:  5 eigenvalues not converged
     c_bands:  5 eigenvalues not converged
     c_bands:  5 eigenvalues not converged
     c_bands:  5 eigenvalues not converged
     c_bands:  5 eigenvalues not converged
     c_bands:  5 eigenvalues not converged
     c_bands:  5 eigenvalues not converged
     c_bands:  5 eigenvalues not converged
     c_bands:  3 eigenvalues not converged
     c_bands:  3 eigenvalues not converged
     c_bands:  5 eigenvalues not converged
     ethr =  1.00E-02,  avg # of iterations = 14.2

[...]

     End of self-consistent calculation

          k = 0.0000 0.0000 0.0000 (  5047 PWs)   bands (ev):

[...]
        k(   12) = (   0.0000000   0.3913718   0.5430988), wk =   0.0380952
        k(   13) = (   0.0000000  -0.5870576   0.0000000), wk =   0.0095238
        k(   14) = (   0.0000000  -0.5870576   0.1810329), wk =   0.0190476
        k(   15) = (   0.0000000  -0.5870576   0.3620659), wk =   0.0190476
        k(   16) = (   0.0000000  -0.5870576   0.5430988), wk =   0.0190476
        k(   17) = (   0.2033627   0.1174115   0.0000000), wk =   0.0190476
        k(   18) = (   0.2033627   0.1174115   0.1810329), wk =   0.0380952
        k(   19) = (   0.2033627   0.1174115   0.3620659), wk =   0.0380952
        k(   20) = (   0.2033627   0.1174115   0.5430988), wk =   0.0380952
        k(   21) = (   0.2033627   0.3130974   0.0000000), wk =   0.0190476
        k(   22) = (   0.2033627   0.3130974   0.1810329), wk =   0.0380952
        k(   23) = (   0.2033627   0.3130974   0.3620659), wk =   0.0380952
        k(   24) = (   0.2033627   0.3130974   0.5430988), wk =   0.0380952
        k(   25) = (   0.2033627   0.5087833   0.0000000), wk =   0.0190476
        k(   26) = (   0.2033627   0.5087833   0.1810329), wk =   0.0380952
        k(   27) = (   0.2033627   0.5087833   0.3620659), wk =   0.0380952
        k(   28) = (   0.2033627   0.5087833   0.5430988), wk =   0.0380952
        k(   29) = (   0.2033627  -0.4696461   0.0000000), wk =   0.0190476
        k(   30) = (   0.2033627  -0.4696461   0.1810329), wk =   0.0380952
        k(   31) = (   0.2033627  -0.4696461   0.3620659), wk =   0.0380952
        k(   32) = (   0.2033627  -0.4696461   0.5430988), wk =   0.0380952
        k(   33) = (   0.2033627  -0.2739602   0.0000000), wk =   0.0190476
        k(   34) = (   0.2033627  -0.2739602   0.1810329), wk =   0.0380952
        k(   35) = (   0.2033627  -0.2739602   0.3620659), wk =   0.0380952
        k(   36) = (   0.2033627  -0.2739602   0.5430988), wk =   0.0380952
        k(   37) = (   0.2033627  -0.0782744   0.0000000), wk =   0.0190476
        k(   38) = (   0.2033627  -0.0782744   0.1810329), wk =   0.0380952
        k(   39) = (   0.2033627  -0.0782744   0.3620659), wk =   0.0380952
        k(   40) = (   0.2033627  -0.0782744   0.5430988), wk =   0.0380952
        k(   41) = (   0.4067255   0.2348231   0.0000000), wk =   0.0190476
        k(   42) = (   0.4067255   0.2348231   0.1810329), wk =   0.0380952
        k(   43) = (   0.4067255   0.2348231   0.3620659), wk =   0.0380952
        k(   44) = (   0.4067255   0.2348231   0.5430988), wk =   0.0380952
        k(   45) = (   0.4067255   0.4305089   0.0000000), wk =   0.0190476
        k(   46) = (   0.4067255   0.4305089   0.1810329), wk =   0.0380952
        k(   47) = (   0.4067255   0.4305089   0.3620659), wk =   0.0380952
        k(   48) = (   0.4067255   0.4305089   0.5430988), wk =   0.0380952
        k(   49) = (   0.4067255   0.6261948   0.0000000), wk =   0.0190476
        k(   50) = (   0.4067255   0.6261948   0.1810329), wk =   0.0380952
        k(   51) = (   0.4067255   0.6261948   0.3620659), wk =   0.0380952
        k(   52) = (   0.4067255   0.6261948   0.5430988), wk =   0.0380952
        k(   53) = (   0.4067255  -0.3522346   0.0000000), wk =   0.0190476
        k(   54) = (   0.4067255  -0.3522346   0.1810329), wk =   0.0380952
        k(   55) = (   0.4067255  -0.3522346   0.3620659), wk =   0.0380952
        k(   56) = (   0.4067255  -0.3522346   0.5430988), wk =   0.0380952
        k(   57) = (   0.4067255  -0.1565487   0.0000000), wk =   0.0190476
        k(   58) = (   0.4067255  -0.1565487   0.1810329), wk =   0.0380952
        k(   59) = (   0.4067255  -0.1565487   0.3620659), wk =   0.0380952
        k(   60) = (   0.4067255  -0.1565487   0.5430988), wk =   0.0380952
        k(   61) = (   0.4067255   0.0391372   0.0000000), wk =   0.0190476
        k(   62) = (   0.4067255   0.0391372   0.1810329), wk =   0.0380952
        k(   63) = (   0.4067255   0.0391372   0.3620659), wk =   0.0380952
        k(   64) = (   0.4067255   0.0391372   0.5430988), wk =   0.0380952

[...]

     The maximum number of steps has been reached.

     End of BFGS Geometry Optimization
Begin final coordinates
     new unit-cell volume =   1146.98808 a.u.^3 (   169.96610 Ang^3 )

CELL_PARAMETERS (alat= 12.01680127)
   0.983464352   0.000000000   0.000000000
  -0.491732176   0.851705112   0.000000000
   0.000000000   0.000000000   0.789122436

ATOMIC_POSITIONS (crystal)
Mg       0.669800382   0.834900191   0.250000000
Mg       0.834900191   0.165099809   0.750000000
Mg       0.330199618   0.165099809   0.750000000
Mg       0.165099809   0.834900191   0.250000000
Mg       0.165099809   0.330199618   0.250000000
Mg       0.834900191   0.669800382   0.750000000
Cd       0.666667000   0.333333000   0.250000000
Cd       0.333333000   0.666667000   0.750000000
End final coordinates

     A final scf calculation at the relaxed structure.
     The G-vectors are recalculated for the final unit cell
     Results may differ from those at the preceding step.

     bravais-lattice index     =            0
     lattice parameter (alat)  =      12.0168  a.u.
     unit-cell volume          =    1146.9881 (a.u.)^3
     number of atoms/cell      =            8
     number of atomic types    =            2
     number of electrons       =       148.00
     number of Kohn-Sham states=           89
     kinetic-energy cutoff     =      40.0000  Ry
     charge density cutoff     =     160.0000  Ry
     convergence threshold     =      3.3E-05
     mixing beta               =       0.7000
     number of iterations used =            8  plain     mixing
     Exchange-correlation      = SLA-PZ-NOGX-NOGC ( 1 1 0 0 0)
     EXX-fraction              =        0.00

     celldm(1)=  12.016801  celldm(2)=   0.000000  celldm(3)=   0.000000
     celldm(4)=   0.000000  celldm(5)=   0.000000  celldm(6)=   0.000000

     crystal axes: (cart. coord. in units of alat)
               a(1) = (   0.983464   0.000000   0.000000 )
               a(2) = (  -0.491732   0.851705   0.000000 )
               a(3) = (   0.000000   0.000000   0.789122 )

     reciprocal axes: (cart. coord. in units 2 pi/alat)
               b(1) = (  1.016814  0.587058  0.000000 )
               b(2) = (  0.000000  1.174115  0.000000 )
               b(3) = (  0.000000  0.000000  1.267230 )

     PseudoPot. # 1 for Eu read from file:
     /home/cwx6513/pp.La/Eu.UPF
     MD5 check sum: 5efdbbfc50c6a10138933a6429836ad2
     Pseudo is Norm-conserving, Zval = 17.0
     Generated in analytical, separable form
     Using radial grid of 1261 points,  6 beta functions with:
                l(1) =   0
                l(2) =   0
                l(3) =   1
                l(4) =   1
                l(5) =   2
                l(6) =   3

     PseudoPot. # 2 for Tm read from file:
     /home/cwx6513/pp.La/Tm.UPF
     MD5 check sum: 245516e0878b5372ceeb9443ded2c4e1
     Pseudo is Norm-conserving, Zval = 23.0
     Generated in analytical, separable form
     Using radial grid of 1269 points,  6 beta functions with:
                l(1) =   0
                l(2) =   0
                l(3) =   1
                l(4) =   1
                l(5) =   2
                l(6) =   3

     atomic species   valence    mass     pseudopotential
        Mg            17.00    24.30500     Eu( 1.00)
        Cd            23.00   112.41100     Tm( 1.00)

     24 Sym. Ops., with inversion, found (12 have fractional translation)

   Cartesian axes

     site n.     atom                  positions (alat units)
         1           Mg  tau(   1) = (   0.2481775   0.7110888   0.1972806  )
         2           Mg  tau(   2) = (   0.7399097   0.1406164   0.5918418  )
         3           Mg  tau(   3) = (   0.2435547   0.1406164   0.5918418  )
         4           Mg  tau(   4) = (  -0.2481775   0.7110888   0.1972806  )
         5           Mg  tau(   5) = (   0.0000000   0.2812327   0.1972806  )
         6           Mg  tau(   6) = (   0.4917322   0.5704724   0.5918418  )
         7           Cd  tau(   7) = (   0.4917327   0.2839014   0.1972806  )
         8           Cd  tau(   8) = (  -0.0000005   0.5678037   0.5918418  )

     number of k points=    64  gaussian smearing, width (Ry)=  0.1000
                       cart. coord. in units 2pi/alat
        k(    1) = (   0.0000000   0.0000000   0.0000000), wk =   0.0095238
        k(    2) = (   0.0000000   0.0000000   0.1810329), wk =   0.0190476
        k(    3) = (   0.0000000   0.0000000   0.3620659), wk =   0.0190476
        k(    4) = (   0.0000000   0.0000000   0.5430988), wk =   0.0190476
        k(    5) = (   0.0000000   0.1956859   0.0000000), wk =   0.0190476
        k(    6) = (   0.0000000   0.1956859   0.1810329), wk =   0.0380952
        k(    7) = (   0.0000000   0.1956859   0.3620659), wk =   0.0380952
        k(    8) = (   0.0000000   0.1956859   0.5430988), wk =   0.0380952
        k(    9) = (   0.0000000   0.3913718   0.0000000), wk =   0.0190476
        k(   10) = (   0.0000000   0.3913718   0.1810329), wk =   0.0380952
        k(   11) = (   0.0000000   0.3913718   0.3620659), wk =   0.0380952
        k(   12) = (   0.0000000   0.3913718   0.5430988), wk =   0.0380952
        k(   13) = (   0.0000000  -0.5870576   0.0000000), wk =   0.0095238
        k(   14) = (   0.0000000  -0.5870576   0.1810329), wk =   0.0190476
        k(   15) = (   0.0000000  -0.5870576   0.3620659), wk =   0.0190476
        k(   16) = (   0.0000000  -0.5870576   0.5430988), wk =   0.0190476
        k(   17) = (   0.2033627   0.1174115   0.0000000), wk =   0.0190476
        k(   18) = (   0.2033627   0.1174115   0.1810329), wk =   0.0380952
        k(   19) = (   0.2033627   0.1174115   0.3620659), wk =   0.0380952
        k(   20) = (   0.2033627   0.1174115   0.5430988), wk =   0.0380952
        k(   21) = (   0.2033627   0.3130974   0.0000000), wk =   0.0190476
        k(   22) = (   0.2033627   0.3130974   0.1810329), wk =   0.0380952
        k(   23) = (   0.2033627   0.3130974   0.3620659), wk =   0.0380952
        k(   24) = (   0.2033627   0.3130974   0.5430988), wk =   0.0380952
        k(   25) = (   0.2033627   0.5087833   0.0000000), wk =   0.0190476
        k(   26) = (   0.2033627   0.5087833   0.1810329), wk =   0.0380952
        k(   27) = (   0.2033627   0.5087833   0.3620659), wk =   0.0380952
        k(   28) = (   0.2033627   0.5087833   0.5430988), wk =   0.0380952
        k(   29) = (   0.2033627  -0.4696461   0.0000000), wk =   0.0190476
        k(   30) = (   0.2033627  -0.4696461   0.1810329), wk =   0.0380952
        k(   31) = (   0.2033627  -0.4696461   0.3620659), wk =   0.0380952
        k(   32) = (   0.2033627  -0.4696461   0.5430988), wk =   0.0380952
        k(   33) = (   0.2033627  -0.2739602   0.0000000), wk =   0.0190476
        k(   34) = (   0.2033627  -0.2739602   0.1810329), wk =   0.0380952
        k(   35) = (   0.2033627  -0.2739602   0.3620659), wk =   0.0380952
        k(   36) = (   0.2033627  -0.2739602   0.5430988), wk =   0.0380952
        k(   37) = (   0.2033627  -0.0782744   0.0000000), wk =   0.0190476
        k(   38) = (   0.2033627  -0.0782744   0.1810329), wk =   0.0380952
        k(   39) = (   0.2033627  -0.0782744   0.3620659), wk =   0.0380952
        k(   40) = (   0.2033627  -0.0782744   0.5430988), wk =   0.0380952
        k(   41) = (   0.4067255   0.2348231   0.0000000), wk =   0.0190476
        k(   42) = (   0.4067255   0.2348231   0.1810329), wk =   0.0380952
        k(   43) = (   0.4067255   0.2348231   0.3620659), wk =   0.0380952
        k(   44) = (   0.4067255   0.2348231   0.5430988), wk =   0.0380952
        k(   45) = (   0.4067255   0.4305089   0.0000000), wk =   0.0190476
        k(   46) = (   0.4067255   0.4305089   0.1810329), wk =   0.0380952
        k(   47) = (   0.4067255   0.4305089   0.3620659), wk =   0.0380952
        k(   48) = (   0.4067255   0.4305089   0.5430988), wk =   0.0380952
        k(   49) = (   0.4067255   0.6261948   0.0000000), wk =   0.0190476
        k(   50) = (   0.4067255   0.6261948   0.1810329), wk =   0.0380952
        k(   51) = (   0.4067255   0.6261948   0.3620659), wk =   0.0380952
        k(   52) = (   0.4067255   0.6261948   0.5430988), wk =   0.0380952
        k(   53) = (   0.4067255  -0.3522346   0.0000000), wk =   0.0190476
        k(   54) = (   0.4067255  -0.3522346   0.1810329), wk =   0.0380952
        k(   55) = (   0.4067255  -0.3522346   0.3620659), wk =   0.0380952
        k(   56) = (   0.4067255  -0.3522346   0.5430988), wk =   0.0380952
        k(   57) = (   0.4067255  -0.1565487   0.0000000), wk =   0.0190476
        k(   58) = (   0.4067255  -0.1565487   0.1810329), wk =   0.0380952
        k(   59) = (   0.4067255  -0.1565487   0.3620659), wk =   0.0380952
        k(   60) = (   0.4067255  -0.1565487   0.5430988), wk =   0.0380952
        k(   61) = (   0.4067255   0.0391372   0.0000000), wk =   0.0190476
        k(   62) = (   0.4067255   0.0391372   0.1810329), wk =   0.0380952
        k(   63) = (   0.4067255   0.0391372   0.3620659), wk =   0.0380952
        k(   64) = (   0.4067255   0.0391372   0.5430988), wk =   0.0380952

     Largest allocated arrays     est. size (Mb)     dimensions
     Largest temporary arrays     est. size (Mb)     dimensions

     Initial potential from superposition of free atoms

     Starting from uniform charge
     Starting wfc are    0 randomized atomic wfcs

     Writing output data file Prototype-La-hP8-Mg3Cd.save

     Self-consistent Calculation

[...]

     iteration #  9     ecut=    40.00 Ry     beta=0.70
     CG style diagonalization
     ethr =  5.76E-06,  avg # of iterations =  3.4

     total energy              =   -1786.04334740 Ry
     Harris-Foulkes estimate   =   -1786.04354147 Ry
     estimated scf accuracy    <       0.00038795 Ry

     iteration # 10     ecut=    40.00 Ry     beta=0.70
     CG style diagonalization
     c_bands:  1 eigenvalues not converged
     ethr =  2.62E-07,  avg # of iterations =  4.3

     End of self-consistent calculation

[...]

          k = 0.4067 0.0391 0.5431 (  4895 PWs)   bands (ev):

   -88.0872 -88.0806 -46.7063 -46.7023 -46.7018 -46.6977 -46.6799 -46.6766
   -39.4841 -39.4673 -39.4513 -39.4439 -39.4370 -39.4312 -12.5133 -12.5004
   -12.4859 -12.4734 -12.4206 -12.4111 -12.2262 -12.1870 -12.1379 -12.1364
   -12.0860 -12.0479 -12.0186 -12.0102 -11.9969 -11.9646 -11.9321 -11.9254
     2.4860   2.4872   2.4902   2.4922   2.5038   2.5054   2.5117   2.5119
     2.5203   2.5214  12.9552  13.0611  16.9923  17.0950  17.7776  17.8240
    17.8980  18.1266  18.3722  18.4679  18.6363  18.8368  18.9822  19.0732
    19.2513  19.2843  19.6820  19.7444  20.1451  20.2946  20.3615  21.0594
    21.1249  21.2722  21.6039  21.6806  21.7671  21.7918  22.0809  22.1604
    22.7839  22.8149  23.1026  23.2918  23.5807  23.7237  24.9297  25.0402
    26.2774  26.5755  28.7289  29.2585  29.9776  30.0501  30.3361  30.9440
    31.2919

     the Fermi energy is    23.2408 ev

!    total energy              =   -1786.04349590 Ry
     Harris-Foulkes estimate   =   -1786.04350941 Ry
     estimated scf accuracy    <       0.00001651 Ry

     The total energy is the sum of the following terms:

     one-electron contribution =    -364.82001444 Ry
     hartree contribution      =     273.52173318 Ry
     xc contribution           =    -168.50860612 Ry
     ewald contribution        =   -1525.79419194 Ry
     smearing contrib. (-TS)   =      -0.44241659 Ry

     convergence has been achieved in  10 iterations

     Forces acting on atoms (Ry/au):

     atom    1 type  1   force =     0.00961075    0.00554877    0.00000000
     atom    2 type  1   force =     0.00961075   -0.00554877    0.00000000
     atom    3 type  1   force =    -0.00961075   -0.00554877    0.00000000
     atom    4 type  1   force =    -0.00961075    0.00554877    0.00000000
     atom    5 type  1   force =     0.00000000   -0.01109754    0.00000000
     atom    6 type  1   force =     0.00000000    0.01109754    0.00000000
     atom    7 type  2   force =     0.00000000    0.00000000    0.00000000
     atom    8 type  2   force =     0.00000000    0.00000000    0.00000000

     Total force =     0.027183     Total SCF correction =     0.000000

     entering subroutine stress ...

          total   stress  (Ry/bohr**3)                   (kbar)     P= -436.10
  -0.00297681   0.00000000   0.00000000       -437.90      0.00      0.00
   0.00000000  -0.00297681   0.00000000          0.00   -437.90      0.00
   0.00000000   0.00000000  -0.00294002          0.00      0.00   -432.49

     Writing output data file Prototype-La-hP8-Mg3Cd.save

     General routines

     Parallel routines

   This run was terminated on:  22:27:25  22Mar2018

   JOB DONE.