     Program PWSCF v.5.0.2 starts on 22Mar2018 at 21:16:42

     Current dimensions of program PWSCF are:
     Max number of different atomic species (ntypx) = 10
     Max number of k-points (npk) =  40000
     Max angular momentum in pseudopotentials (lmaxx) =  3
     Waiting for input...
     Reading input from standard input

     Subspace diagonalization in iterative solution of the eigenvalue problem:
     a serial algorithm will be used

     bravais-lattice index     =            0
     lattice parameter (alat)  =       9.9235  a.u.
     unit-cell volume          =    1361.0366 (a.u.)^3
     number of atoms/cell      =           12
     number of atomic types    =            2
     number of electrons       =       252.00
     number of Kohn-Sham states=          151
     kinetic-energy cutoff     =      40.0000  Ry
     charge density cutoff     =     160.0000  Ry
     convergence threshold     =      1.0E-04
     mixing beta               =       0.7000
     number of iterations used =            8  plain     mixing
     Exchange-correlation      = SLA-PZ-NOGX-NOGC ( 1 1 0 0 0)
     EXX-fraction              =        0.00
     nstep                     =           50

     celldm(1)=   9.923489  celldm(2)=   0.000000  celldm(3)=   0.000000
     celldm(4)=   0.000000  celldm(5)=   0.000000  celldm(6)=   0.000000

     crystal axes: (cart. coord. in units of alat)
               a(1) = (   1.000000   0.000000   0.000000 )
               a(2) = (  -0.500000   0.866025   0.000000 )
               a(3) = (   0.000000   0.000000   1.608222 )

     reciprocal axes: (cart. coord. in units 2 pi/alat)
               b(1) = (  1.000000  0.577350  0.000000 )
               b(2) = (  0.000000  1.154701  0.000000 )
               b(3) = (  0.000000  0.000000  0.621805 )

     PseudoPot. # 1 for Eu read from file:
     /home/cwx6513/pp.La/Eu.UPF
     MD5 check sum: 5efdbbfc50c6a10138933a6429836ad2
     Pseudo is Norm-conserving, Zval = 17.0
     Generated in analytical, separable form
     Using radial grid of 1261 points,  6 beta functions with:
                l(1) =   0
                l(2) =   0
                l(3) =   1
                l(4) =   1
                l(5) =   2
                l(6) =   3

     PseudoPot. # 2 for Tm read from file:
     /home/cwx6513/pp.La/Tm.UPF
     MD5 check sum: 245516e0878b5372ceeb9443ded2c4e1
     Pseudo is Norm-conserving, Zval = 23.0
     Generated in analytical, separable form
     Using radial grid of 1269 points,  6 beta functions with:
                l(1) =   0
                l(2) =   0
                l(3) =   1
                l(4) =   1
                l(5) =   2
                l(6) =   3

     atomic species   valence    mass     pseudopotential
        Mg            17.00    24.30500     Eu( 1.00)
        Zn            23.00    65.39000     Tm( 1.00)

     24 Sym. Ops., with inversion, found (12 have fractional translation)

   Cartesian axes

     site n.     atom                  positions (alat units)
         1           Mg  tau(   1) = (  -0.0000005   0.5773506   0.1003820  )
         2           Mg  tau(   2) = (   0.5000005   0.2886748   0.9044931  )
         3           Mg  tau(   3) = (   0.5000005   0.2886748   1.5078402  )
         4           Mg  tau(   4) = (  -0.0000005   0.5773506   0.7037291  )
         5           Zn  tau(   5) = (   0.0000000   0.0000000   0.0000000  )
         6           Zn  tau(   6) = (   0.0000000   0.0000000   0.8041111  )
         7           Zn  tau(   7) = (   0.0000000   0.2950739   1.2061667  )
         8           Zn  tau(   8) = (   0.7444585   0.1475370   0.4020556  )
         9           Zn  tau(   9) = (   0.2555415   0.1475370   0.4020556  )
        10           Zn  tau(  10) = (   0.2444585   0.7184884   1.2061667  )
        11           Zn  tau(  11) = (  -0.2444585   0.7184884   1.2061667  )
        12           Zn  tau(  12) = (   0.5000000   0.5709515   0.4020556  )

     number of k points=    12  gaussian smearing, width (Ry)=  0.1000
                       cart. coord. in units 2pi/alat
        k(    1) = (   0.0000000   0.0000000   0.0000000), wk =   0.0833333
        k(    2) = (   0.0000000   0.0000000   0.1554512), wk =   0.1666667
        k(    3) = (   0.0000000   0.0000000  -0.3109023), wk =   0.0833333
        k(    4) = (   0.0000000   0.3849002   0.0000000), wk =   0.1666667
        k(    5) = (   0.0000000   0.3849002   0.1554512), wk =   0.3333333
        k(    6) = (   0.0000000   0.3849002  -0.3109023), wk =   0.1666667
        k(    7) = (  -0.5000000  -0.2886751   0.0000000), wk =   0.0833333
        k(    8) = (  -0.5000000  -0.2886751   0.1554512), wk =   0.1666667
        k(    9) = (  -0.5000000  -0.2886751  -0.3109023), wk =   0.0833333
        k(   10) = (  -0.5000000   0.0962250   0.0000000), wk =   0.1666667
        k(   11) = (  -0.5000000   0.0962250   0.1554512), wk =   0.3333333
        k(   12) = (  -0.5000000   0.0962250  -0.3109023), wk =   0.1666667

     Largest allocated arrays     est. size (Mb)     dimensions
     Largest temporary arrays     est. size (Mb)     dimensions

     Initial potential from superposition of free atoms

     Starting from uniform charge
     Starting wfc are    0 randomized atomic wfcs

     Self-consistent Calculation

     iteration #  1     ecut=    40.00 Ry     beta=0.70
     CG style diagonalization
     ethr =  1.00E-02,  avg # of iterations = 20.5

     total energy              =   -2170.08697835 Ry
     Harris-Foulkes estimate   =   -4869.06188300 Ry
     estimated scf accuracy    <    3227.22544122 Ry

[...]

     iteration #  3     ecut=    40.00 Ry     beta=0.70
     CG style diagonalization
     c_bands:  2 eigenvalues not converged
     c_bands:  1 eigenvalues not converged
     c_bands:  1 eigenvalues not converged
     c_bands:  1 eigenvalues not converged
     c_bands:  2 eigenvalues not converged
     c_bands:  1 eigenvalues not converged
     ethr =  1.00E-02,  avg # of iterations = 13.0

[...]

     End of self-consistent calculation

          k = 0.0000 0.0000 0.0000 (  5769 PWs)   bands (ev):

   -78.4140 -78.3843 -78.3843 -78.3708 -78.3683 -78.3683 -78.3180 -78.2848
   -37.8497 -37.7419 -37.4760 -37.3367 -37.3367 -37.3214 -37.3214 -37.2384
   -37.1936 -37.1935 -37.1409 -37.0850 -37.0850 -37.0017 -37.0017 -36.9967
   -36.9967 -36.9451 -36.9410 -36.9410 -36.9092 -36.8941 -36.8672 -36.8672
   -28.7932 -28.7783 -28.7545 -28.7372  -1.8303  -1.8219  -1.8118  -1.8118
    -1.7855  -1.7854  -1.5899  -1.5733  -1.5628  -1.5628  -1.5472  -1.5472
     8.1482   8.5547   8.9156   9.4840   9.4840   9.5900   9.5900   9.9198
     9.9198  10.0067  10.2537  10.2538  10.7958  11.0902  11.1542  11.1542
    11.3372  11.3372  11.7140  11.9442  11.9442  12.0961  12.0961  12.2624
    12.2701  12.2701  12.3614  12.3787  12.4315  12.4315  12.4779  12.4780
    12.5878  12.5879  13.1429  13.1430  13.3932  13.3933  13.7258  13.7283
    15.9834  17.6515  20.2334  22.8867  23.6871  24.4453  24.4454  25.3704
    25.7780  25.7781  25.9857  25.9858  26.4010  26.4011  27.0716  27.0717
    28.5369  28.5369  28.6304  29.4398  30.7936  31.1135  31.1135  31.3080
    31.3081  31.5749  31.5750  31.7413  31.8424  31.9530  31.9530  31.9994
    31.9995  32.7127  33.5031  34.0626  34.0626  34.8977  34.8977  35.0521
    35.2187  36.0896  36.0896  36.9849  36.9849  37.0991  37.1814  37.2192
    37.2383  37.2383  37.9020  38.3509  38.3808  38.3808  38.4597  38.4597
    38.6480  38.6480  39.1184  39.2732  39.9008  39.9358  39.9362

[...]

          k =-0.5000-0.2887 0.0000 (  5800 PWs)   bands (ev):

[...]

     the Fermi energy is    34.9198 ev

!    total energy              =   -3634.90310655 Ry
     Harris-Foulkes estimate   =   -3634.90310978 Ry
     estimated scf accuracy    <       0.00000373 Ry

     The total energy is the sum of the following terms:

     one-electron contribution =    -801.55975153 Ry
     hartree contribution      =     600.53343057 Ry
     xc contribution           =    -317.51009575 Ry
     ewald contribution        =   -3116.01078554 Ry
     smearing contrib. (-TS)   =      -0.35590431 Ry

     convergence has been achieved in  11 iterations

     Forces acting on atoms (Ry/au):

     atom    1 type  1   force =     0.00000000    0.00000000    0.01308369
     atom    2 type  1   force =     0.00000000    0.00000000    0.01308369
     atom    3 type  1   force =     0.00000000    0.00000000   -0.01308369
     atom    4 type  1   force =     0.00000000    0.00000000   -0.01308369
     atom    5 type  2   force =     0.00000000    0.00000000    0.00000000
     atom    6 type  2   force =     0.00000000    0.00000000    0.00000000
     atom    7 type  2   force =     0.00000000    0.18275264    0.00000000
     atom    8 type  2   force =    -0.15826843    0.09137632    0.00000000
     atom    9 type  2   force =     0.15826843    0.09137632    0.00000000
     atom   10 type  2   force =    -0.15826843   -0.09137632    0.00000000
     atom   11 type  2   force =     0.15826843   -0.09137632    0.00000000
     atom   12 type  2   force =     0.00000000   -0.18275264    0.00000000

     Total force =     0.448415     Total SCF correction =     0.000000

     entering subroutine stress ...

          total   stress  (Ry/bohr**3)                   (kbar)     P= 1018.84
   0.00697001   0.00000000   0.00000000       1025.32      0.00      0.00
   0.00000000   0.00697001   0.00000000          0.00   1025.32      0.00
   0.00000000   0.00000000   0.00683773          0.00      0.00   1005.87

     BFGS Geometry Optimization

     number of scf cycles    =   1
     number of bfgs steps    =   0

     enthalpy new            =   -3634.9031065539 Ry

     new trust radius        =       0.5000000000 bohr
     new conv_thr            =       0.0001000000 Ry

     new unit-cell volume =   1654.90626 a.u.^3 (   245.23180 Ang^3 )

CELL_PARAMETERS (alat=  9.92348860)
   1.067764947   0.000000000   0.000000000
  -0.533882474   0.924711570   0.000000000
   0.000000000   0.000000000   1.715135047

ATOMIC_POSITIONS (crystal)
Mg       0.333333000   0.666667000   0.062736824
Mg       0.666667000   0.333333000   0.562736824
Mg       0.666667000   0.333333000   0.937263176
Mg       0.333333000   0.666667000   0.437263176
Zn       0.000000000   0.000000000   0.000000000
Zn       0.000000000   0.000000000   0.500000000
Zn       0.174495949   0.348991898   0.750000000
Zn       0.825504051   0.174495949   0.250000000
Zn       0.348991898   0.174495949   0.250000000
Zn       0.651008102   0.825504051   0.750000000
Zn       0.174495949   0.825504051   0.750000000
Zn       0.825504051   0.651008102   0.250000000

     Writing output data file Prototype-La-hP12-MgZn2.save
     NEW-OLD atomic charge density approx. for the potential
     NEW k-points:
        k(    1) = (   0.0000000   0.0000000   0.0000000), wk =   0.0833333
        k(    2) = (   0.0000000   0.0000000   0.1457611), wk =   0.1666667
        k(    3) = (   0.0000000   0.0000000  -0.2915222), wk =   0.0833333
        k(    4) = (   0.0000000   0.3604728   0.0000000), wk =   0.1666667
        k(    5) = (   0.0000000   0.3604728   0.1457611), wk =   0.3333333
        k(    6) = (   0.0000000   0.3604728  -0.2915222), wk =   0.1666667
        k(    7) = (  -0.4682679  -0.2703546   0.0000000), wk =   0.0833333
        k(    8) = (  -0.4682679  -0.2703546   0.1457611), wk =   0.1666667
        k(    9) = (  -0.4682679  -0.2703546  -0.2915222), wk =   0.0833333
        k(   10) = (  -0.4682679   0.0901182   0.0000000), wk =   0.1666667
        k(   11) = (  -0.4682679   0.0901182   0.1457611), wk =   0.3333333
        k(   12) = (  -0.4682679   0.0901182  -0.2915222), wk =   0.1666667

[...]

     enthalpy old            =   -3634.9031065539 Ry
     enthalpy new            =   -3635.3218142099 Ry

     CASE: enthalpy_new < enthalpy_old

     small trust_radius: resetting bfgs history

     new trust radius        =       0.7053310635 bohr
     new conv_thr            =       0.0000410229 Ry

[...]

     number of scf cycles    =   3
     number of bfgs steps    =   2

     enthalpy old            =   -3635.3218142099 Ry
     enthalpy new            =   -3634.4813992429 Ry

     CASE: enthalpy_new > enthalpy_old

     new trust radius        =       0.1989124645 bohr

     trust_radius < trust_radius_min

     resetting bfgs history

     Message from routine bfgs:
     history already reset at previous step: stopping
     new conv_thr            =       0.0000410229 Ry

     new unit-cell volume =   1390.46661 a.u.^3 (   206.04589 Ang^3 )

[...]

ATOMIC_POSITIONS (crystal)
Mg       0.333333000   0.666667000   0.062875754
Mg       0.666667000   0.333333000   0.562875754
Mg       0.666667000   0.333333000   0.937124246
Mg       0.333333000   0.666667000   0.437124246
Zn       0.000000000   0.000000000   0.000000000
Zn       0.000000000   0.000000000   0.500000000
Zn       0.172712832   0.345425664   0.750000000
Zn       0.827287168   0.172712832   0.250000000
Zn       0.345425664   0.172712832   0.250000000
Zn       0.654574336   0.827287168   0.750000000
Zn       0.172712832   0.827287168   0.750000000
Zn       0.827287168   0.654574336   0.250000000

     Writing output data file Prototype-La-hP12-MgZn2.save
     NEW-OLD atomic charge density approx. for the potential
     NEW k-points:
        k(    1) = (   0.0000000   0.0000000   0.0000000), wk =   0.0833333
        k(    2) = (   0.0000000   0.0000000   0.1555882), wk =   0.1666667
        k(    3) = (   0.0000000   0.0000000  -0.3111764), wk =   0.0833333
        k(    4) = (   0.0000000   0.3806373   0.0000000), wk =   0.1666667
        k(    5) = (   0.0000000   0.3806373   0.1555882), wk =   0.3333333
        k(    6) = (   0.0000000   0.3806373  -0.3111764), wk =   0.1666667
        k(    7) = (  -0.4944624  -0.2854780   0.0000000), wk =   0.0833333
        k(    8) = (  -0.4944624  -0.2854780   0.1555882), wk =   0.1666667
        k(    9) = (  -0.4944624  -0.2854780  -0.3111764), wk =   0.0833333
        k(   10) = (  -0.4944624   0.0951593   0.0000000), wk =   0.1666667
        k(   11) = (  -0.4944624   0.0951593   0.1555882), wk =   0.3333333
        k(   12) = (  -0.4944624   0.0951593  -0.3111764), wk =   0.1666667

[...]

     The maximum number of steps has been reached.

     End of BFGS Geometry Optimization
Begin final coordinates
     new unit-cell volume =   1390.46661 a.u.^3 (   206.04589 Ang^3 )

CELL_PARAMETERS (alat=  9.92348860)
   1.011199231   0.000000000   0.000000000
  -0.505599616   0.875724222   0.000000000
   0.000000000   0.000000000   1.606805635

ATOMIC_POSITIONS (crystal)
Mg       0.333333000   0.666667000   0.062875754
Mg       0.666667000   0.333333000   0.562875754
Mg       0.666667000   0.333333000   0.937124246
Mg       0.333333000   0.666667000   0.437124246
Zn       0.000000000   0.000000000   0.000000000
Zn       0.000000000   0.000000000   0.500000000
Zn       0.172712832   0.345425664   0.750000000
Zn       0.827287168   0.172712832   0.250000000
Zn       0.345425664   0.172712832   0.250000000
Zn       0.654574336   0.827287168   0.750000000
Zn       0.172712832   0.827287168   0.750000000
Zn       0.827287168   0.654574336   0.250000000
End final coordinates

     A final scf calculation at the relaxed structure.
     The G-vectors are recalculated for the final unit cell
     Results may differ from those at the preceding step.

     bravais-lattice index     =            0
     lattice parameter (alat)  =       9.9235  a.u.
     unit-cell volume          =    1390.4666 (a.u.)^3
     number of atoms/cell      =           12
     number of atomic types    =            2
     number of electrons       =       252.00
     number of Kohn-Sham states=          151
     kinetic-energy cutoff     =      40.0000  Ry
     charge density cutoff     =     160.0000  Ry
     convergence threshold     =      4.1E-05
     mixing beta               =       0.7000
     number of iterations used =            8  plain     mixing
     Exchange-correlation      = SLA-PZ-NOGX-NOGC ( 1 1 0 0 0)
     EXX-fraction              =        0.00

     celldm(1)=   9.923489  celldm(2)=   0.000000  celldm(3)=   0.000000
     celldm(4)=   0.000000  celldm(5)=   0.000000  celldm(6)=   0.000000

     crystal axes: (cart. coord. in units of alat)
               a(1) = (   1.011199   0.000000   0.000000 )
               a(2) = (  -0.505600   0.875724   0.000000 )
               a(3) = (   0.000000   0.000000   1.606806 )

     reciprocal axes: (cart. coord. in units 2 pi/alat)
               b(1) = (  0.988925  0.570956  0.000000 )
               b(2) = (  0.000000  1.141912  0.000000 )
               b(3) = (  0.000000  0.000000  0.622353 )

     PseudoPot. # 1 for Eu read from file:
     /home/cwx6513/pp.La/Eu.UPF
     MD5 check sum: 5efdbbfc50c6a10138933a6429836ad2
     Pseudo is Norm-conserving, Zval = 17.0
     Generated in analytical, separable form
     Using radial grid of 1261 points,  6 beta functions with:
                l(1) =   0
                l(2) =   0
                l(3) =   1
                l(4) =   1
                l(5) =   2
                l(6) =   3

     PseudoPot. # 2 for Tm read from file:
     /home/cwx6513/pp.La/Tm.UPF
     MD5 check sum: 245516e0878b5372ceeb9443ded2c4e1
     Pseudo is Norm-conserving, Zval = 23.0
     Generated in analytical, separable form
     Using radial grid of 1269 points,  6 beta functions with:
                l(1) =   0
                l(2) =   0
                l(3) =   1
                l(4) =   1
                l(5) =   2
                l(6) =   3

     atomic species   valence    mass     pseudopotential
        Mg            17.00    24.30500     Eu( 1.00)
        Zn            23.00    65.39000     Tm( 1.00)

     24 Sym. Ops., with inversion, found (12 have fractional translation)

   Cartesian axes

     site n.     atom                  positions (alat units)
         1           Mg  tau(   1) = (  -0.0000005   0.5838164   0.1010291  )
         2           Mg  tau(   2) = (   0.5056001   0.2919078   0.9044319  )
         3           Mg  tau(   3) = (   0.5056001   0.2919078   1.5057765  )
         4           Mg  tau(   4) = (  -0.0000005   0.5838164   0.7023737  )
         5           Zn  tau(   5) = (   0.0000000   0.0000000   0.0000000  )
         6           Zn  tau(   6) = (   0.0000000   0.0000000   0.8034028  )
         7           Zn  tau(   7) = (   0.0000000   0.3024976   1.2051042  )
         8           Zn  tau(   8) = (   0.7492286   0.1512488   0.4017014  )
         9           Zn  tau(   9) = (   0.2619706   0.1512488   0.4017014  )
        10           Zn  tau(  10) = (   0.2436290   0.7244754   1.2051042  )
        11           Zn  tau(  11) = (  -0.2436290   0.7244754   1.2051042  )
        12           Zn  tau(  12) = (   0.5055996   0.5732266   0.4017014  )

     number of k points=    12  gaussian smearing, width (Ry)=  0.1000
                       cart. coord. in units 2pi/alat
        k(    1) = (   0.0000000   0.0000000   0.0000000), wk =   0.0833333
        k(    2) = (   0.0000000   0.0000000   0.1555882), wk =   0.1666667
        k(    3) = (   0.0000000   0.0000000  -0.3111764), wk =   0.0833333
        k(    4) = (   0.0000000   0.3806373   0.0000000), wk =   0.1666667
        k(    5) = (   0.0000000   0.3806373   0.1555882), wk =   0.3333333
        k(    6) = (   0.0000000   0.3806373  -0.3111764), wk =   0.1666667
        k(    7) = (  -0.4944624  -0.2854780   0.0000000), wk =   0.0833333
        k(    8) = (  -0.4944624  -0.2854780   0.1555882), wk =   0.1666667
        k(    9) = (  -0.4944624  -0.2854780  -0.3111764), wk =   0.0833333
        k(   10) = (  -0.4944624   0.0951593   0.0000000), wk =   0.1666667
        k(   11) = (  -0.4944624   0.0951593   0.1555882), wk =   0.3333333
        k(   12) = (  -0.4944624   0.0951593  -0.3111764), wk =   0.1666667

     Largest allocated arrays     est. size (Mb)     dimensions
     Largest temporary arrays     est. size (Mb)     dimensions

     Initial potential from superposition of free atoms

     Starting from uniform charge
     Starting wfc are    0 randomized atomic wfcs

     Writing output data file Prototype-La-hP12-MgZn2.save

     Self-consistent Calculation

[...]

     iteration # 10     ecut=    40.00 Ry     beta=0.70
     CG style diagonalization
     c_bands:  1 eigenvalues not converged
     c_bands:  1 eigenvalues not converged
     ethr =  3.23E-07,  avg # of iterations =  4.1

     total energy              =   -3635.36313516 Ry
     Harris-Foulkes estimate   =   -3635.36319705 Ry
     estimated scf accuracy    <       0.00011693 Ry

     iteration # 11     ecut=    40.00 Ry     beta=0.70
     CG style diagonalization
     ethr =  4.64E-08,  avg # of iterations =  3.7

     End of self-consistent calculation

[...]

          k = 0.0000 0.3806-0.3112 (  5924 PWs)   bands (ev):

[...]

          k =-0.4945 0.0952-0.3112 (  5958 PWs)   bands (ev):

   -79.1593 -79.1593 -79.1359 -79.1359 -79.1294 -79.1294 -79.0425 -79.0425
   -38.3404 -38.3404 -38.1825 -38.1824 -38.0077 -38.0077 -37.9867 -37.9867
   -37.8945 -37.8944 -37.8699 -37.8699 -37.8287 -37.8287 -37.7811 -37.7810
   -37.7127 -37.7127 -37.7001 -37.7001 -37.6538 -37.6538 -37.6422 -37.6422
   -29.5154 -29.5152 -29.4958 -29.4956  -2.5759  -2.5758  -2.5345  -2.5345
    -2.4641  -2.4640  -2.3598  -2.3596  -2.2874  -2.2872  -2.2677  -2.2677
     8.6080   8.6080   9.0833   9.0833   9.2990   9.2990   9.4778   9.4778
     9.5475   9.5475  10.0416  10.0416  10.2961  10.2961  10.5120  10.5120
    10.7063  10.7063  10.7538  10.7538  10.9583  10.9583  11.0570  11.0570
    11.2379  11.2379  11.4571  11.4571  11.5666  11.5666  11.7575  11.7575
    11.7706  11.7706  11.8236  11.8236  12.0229  12.0229  12.4496  12.4496
    17.1347  17.1348  19.1220  19.1221  22.4627  22.4627  22.9098  22.9098
    25.7046  25.7046  26.6347  26.6348  27.0542  27.0542  27.7367  27.7367
    27.9373  27.9373  28.5798  28.5798  29.4854  29.4854  29.9156  29.9156
    30.2993  30.2993  30.4260  30.4261  31.2734  31.2734  31.4455  31.4456
    31.9886  31.9886  33.0625  33.0626  33.7955  33.7955  34.5793  34.5793
    35.3131  35.3131  35.6947  35.6947  36.1819  36.1819  36.7707  36.7707
    37.1947  37.1948  37.7099  37.7100  38.1291  38.1293  38.6687  38.6688
    39.2795  39.2798  39.3997  39.3998  39.8314  39.8314  40.5710

     the Fermi energy is    34.0641 ev

!    total energy              =   -3635.36316211 Ry
     Harris-Foulkes estimate   =   -3635.36316659 Ry
     estimated scf accuracy    <       0.00000513 Ry

     The total energy is the sum of the following terms:

     one-electron contribution =    -828.80243791 Ry
     hartree contribution      =     607.27257911 Ry
     xc contribution           =    -317.02346935 Ry
     ewald contribution        =   -3096.45145697 Ry
     smearing contrib. (-TS)   =      -0.35837699 Ry

     convergence has been achieved in  11 iterations

     Forces acting on atoms (Ry/au):

     atom    1 type  1   force =     0.00000000    0.00000000    0.01813739
     atom    2 type  1   force =     0.00000000    0.00000000    0.01813739
     atom    3 type  1   force =     0.00000000    0.00000000   -0.01813739
     atom    4 type  1   force =     0.00000000    0.00000000   -0.01813739
     atom    5 type  2   force =     0.00000000    0.00000000    0.00000000
     atom    6 type  2   force =     0.00000000    0.00000000    0.00000000
     atom    7 type  2   force =     0.00000000    0.04850667    0.00000000
     atom    8 type  2   force =    -0.04200801    0.02425333    0.00000000
     atom    9 type  2   force =     0.04200801    0.02425333    0.00000000
     atom   10 type  2   force =    -0.04200801   -0.02425333    0.00000000
     atom   11 type  2   force =     0.04200801   -0.02425333    0.00000000
     atom   12 type  2   force =     0.00000000   -0.04850667    0.00000000

     Total force =     0.124231     Total SCF correction =     0.000000

     entering subroutine stress ...

          total   stress  (Ry/bohr**3)                   (kbar)     P=  870.93
   0.00602966   0.00000000   0.00000000        886.99      0.00      0.00
   0.00000000   0.00602966   0.00000000          0.00    886.99      0.00
   0.00000000   0.00000000   0.00570216          0.00      0.00    838.82

     Writing output data file Prototype-La-hP12-MgZn2.save

     General routines

     Parallel routines

   This run was terminated on:  21:49:37  22Mar2018

   JOB DONE.