     Program PWSCF v.5.0.2 starts on 22Mar2018 at 12: 4:18

     Current dimensions of program PWSCF are:
     Max number of different atomic species (ntypx) = 10
     Max number of k-points (npk) =  40000
     Max angular momentum in pseudopotentials (lmaxx) =  3
     Waiting for input...
     Reading input from standard input

     Subspace diagonalization in iterative solution of the eigenvalue problem:
     a serial algorithm will be used

     bravais-lattice index     =            0
     lattice parameter (alat)  =       7.0151  a.u.
     unit-cell volume          =     862.2778 (a.u.)^3
     number of atoms/cell      =           12
     number of atomic types    =            2
     number of electrons       =       240.00
     number of Kohn-Sham states=          144
     kinetic-energy cutoff     =      40.0000  Ry
     charge density cutoff     =     160.0000  Ry
     convergence threshold     =      1.0E-04
     mixing beta               =       0.7000
     number of iterations used =            8  plain     mixing
     Exchange-correlation      = SLA-PZ-NOGX-NOGC ( 1 1 0 0 0)
     EXX-fraction              =        0.00
     nstep                     =           50

     celldm(1)=   7.015105  celldm(2)=   0.000000  celldm(3)=   0.000000
     celldm(4)=   0.000000  celldm(5)=   0.000000  celldm(6)=   0.000000

     crystal axes: (cart. coord. in units of alat)
               a(1) = (   1.000000   0.000000   0.000000 )
               a(2) = (   0.000000   1.315963   0.000000 )
               a(3) = (   0.000000   0.000000   1.898020 )

     reciprocal axes: (cart. coord. in units 2 pi/alat)
               b(1) = (  1.000000  0.000000  0.000000 )
               b(2) = (  0.000000  0.759900  0.000000 )
               b(3) = (  0.000000  0.000000  0.526865 )

     PseudoPot. # 1 for Yb read from file:
     /home/jld5415/pp.La/Yb.UPF
     MD5 check sum: 3e859b81cc28c53ec6aa3a2e888efcdf
     Pseudo is Norm-conserving, Zval = 24.0
     Generated in analytical, separable form
     Using radial grid of 1269 points,  6 beta functions with:
                l(1) =   0
                l(2) =   0
                l(3) =   1
                l(4) =   1
                l(5) =   2
                l(6) =   3

     PseudoPot. # 2 for Ce read from file:
     /home/jld5415/pp.La/Ce.UPF
     MD5 check sum: 44451aa79a44a00cf2bc029dc19922f6
     Pseudo is Norm-conserving, Zval = 12.0
     Generated in analytical, separable form
     Using radial grid of 1255 points,  6 beta functions with:
                l(1) =   0
                l(2) =   0
                l(3) =   1
                l(4) =   1
                l(5) =   2
                l(6) =   3

     atomic species   valence    mass     pseudopotential
        Co            24.00    58.93320     Yb( 1.00)
        Si            12.00    28.08550     Ce( 1.00)

      8 Sym. Ops., with inversion, found ( 6 have fractional translation)

   Cartesian axes

     site n.     atom                  positions (alat units)
         1           Co  tau(   1) = (   0.7500000   1.0875135   0.8270358  )
         2           Co  tau(   2) = (   0.2500000   0.2284499   1.0709846  )
         3           Co  tau(   3) = (   0.7500000   0.4295318   0.1219744  )
         4           Co  tau(   4) = (   0.2500000   0.8864316   1.7760460  )
         5           Co  tau(   5) = (   0.2500000   0.7067855   0.5358966  )
         6           Co  tau(   6) = (   0.7500000   0.6091779   1.3621238  )
         7           Co  tau(   7) = (   0.2500000   0.0488038   0.4131136  )
         8           Co  tau(   8) = (   0.7500000   1.2671596   1.4849068  )
         9           Si  tau(   9) = (   0.2500000   0.2669484   1.6960710  )
        10           Si  tau(  10) = (   0.7500000   1.0490149   0.2019494  )
        11           Si  tau(  11) = (   0.2500000   0.9249301   1.1509596  )
        12           Si  tau(  12) = (   0.7500000   0.3910333   0.7470608  )

     number of k points=    12  gaussian smearing, width (Ry)=  0.1000
                       cart. coord. in units 2pi/alat
        k(    1) = (   0.0000000   0.0000000   0.0000000), wk =   0.0833333
        k(    2) = (   0.0000000   0.0000000   0.1317162), wk =   0.1666667
        k(    3) = (   0.0000000   0.0000000  -0.2634324), wk =   0.0833333
        k(    4) = (   0.0000000   0.2532999   0.0000000), wk =   0.1666667
        k(    5) = (   0.0000000   0.2532999   0.1317162), wk =   0.3333333
        k(    6) = (   0.0000000   0.2532999  -0.2634324), wk =   0.1666667
        k(    7) = (  -0.5000000   0.0000000   0.0000000), wk =   0.0833333
        k(    8) = (  -0.5000000   0.0000000   0.1317162), wk =   0.1666667
        k(    9) = (  -0.5000000   0.0000000  -0.2634324), wk =   0.0833333
        k(   10) = (  -0.5000000   0.2532999   0.0000000), wk =   0.1666667
        k(   11) = (  -0.5000000   0.2532999   0.1317162), wk =   0.3333333
        k(   12) = (  -0.5000000   0.2532999  -0.2634324), wk =   0.1666667

     Largest allocated arrays     est. size (Mb)     dimensions
     Largest temporary arrays     est. size (Mb)     dimensions

     Initial potential from superposition of free atoms

     Starting from uniform charge
     Starting wfc are    0 randomized atomic wfcs

     Self-consistent Calculation

     iteration #  1     ecut=    40.00 Ry     beta=0.70
     CG style diagonalization
     ethr =  1.00E-02,  avg # of iterations = 18.1

     total energy              =   -2682.19692737 Ry
     Harris-Foulkes estimate   =   -4436.97584255 Ry
     estimated scf accuracy    <    2144.64357250 Ry

     iteration #  2     ecut=    40.00 Ry     beta=0.70
     CG style diagonalization
     c_bands:  3 eigenvalues not converged
     c_bands:  3 eigenvalues not converged
     c_bands:  5 eigenvalues not converged
     c_bands:  2 eigenvalues not converged
     c_bands:  1 eigenvalues not converged
     c_bands:  1 eigenvalues not converged
     c_bands:  3 eigenvalues not converged
     c_bands:  1 eigenvalues not converged
     c_bands:  1 eigenvalues not converged
     c_bands:  3 eigenvalues not converged
     c_bands:  4 eigenvalues not converged
     c_bands:  2 eigenvalues not converged
     ethr =  1.00E-02,  avg # of iterations = 13.8

[...]

     End of self-consistent calculation

          k = 0.0000 0.0000 0.0000 (  3675 PWs)   bands (ev):

   -71.8097 -71.7755 -71.7478 -71.7282 -71.7207 -71.7131 -71.6662 -71.6623
   -31.1100 -31.0513 -30.9885 -30.9427 -30.9051 -30.8831 -30.8622 -30.8369
   -30.7944 -30.7881 -30.7766 -30.7605 -30.7593 -30.7184 -30.7068 -30.6886
   -30.6794 -30.6581 -30.6523 -30.6354 -30.6255 -30.5776 -30.5586 -30.5444
    11.9736  12.4567  12.6295  12.8275  21.8143  22.4225  22.7433  23.0199
    23.1199  23.5244  23.5469  23.5633  23.6060  23.6328  23.6630  23.7270
    24.3888  24.5450  24.5995  24.6047  24.7722  25.4351  25.4447  25.4649
    25.7204  25.8438  25.9385  26.0396  26.0597  26.1537  26.3299  26.3791
    26.4429  26.5757  26.7287  26.8613  27.1043  27.2030  27.4188  27.5861
    27.6666  27.8774  28.2678  28.3502  28.9094  29.1133  29.2124  29.6279
    30.5604  32.0438  32.2677  33.0691  33.5352  33.5925  34.4042  34.4572
    34.5234  36.5077  39.3957  39.8981  41.0795  42.5809  42.9113  43.2488
    44.1072  44.3332  45.1321  45.5491  46.2518  46.5031  46.8104  47.0612
    47.2276  47.2533  48.0297  48.4073  48.4424  48.9509  50.9535  50.9963
    51.1448  52.0717  52.4206  52.4393  53.1901  53.4262  53.9359  55.0090
    55.0476  55.2615  55.6391  56.0722  56.4119  56.7287  56.7293  57.0761
    57.4336  57.4732  57.9983  58.1150  58.4297  59.0399  59.0935  59.3189
    59.8745  60.2265  60.2669  60.3134  60.7818  61.1832  61.3063  61.6150

[...]

          k =-0.5000 0.0000 0.0000 (  3722 PWs)   bands (ev):

[...]

     the Fermi energy is    54.2379 ev

!    total energy              =   -3567.30057564 Ry
     Harris-Foulkes estimate   =   -3567.30059996 Ry
     estimated scf accuracy    <       0.00002900 Ry

     The total energy is the sum of the following terms:

     one-electron contribution =    -197.77498128 Ry
     hartree contribution      =     425.46301262 Ry
     xc contribution           =    -314.92904559 Ry
     ewald contribution        =   -3479.70323086 Ry
     smearing contrib. (-TS)   =      -0.35633053 Ry

     convergence has been achieved in  11 iterations

     Forces acting on atoms (Ry/au):

     atom    1 type  1   force =     0.00000000   -0.08777359   -0.12002329
     atom    2 type  1   force =     0.00000000    0.08777359    0.12002329
     atom    3 type  1   force =     0.00000000   -0.08777359    0.12002329
     atom    4 type  1   force =     0.00000000    0.08777359   -0.12002329
     atom    5 type  1   force =     0.00000000    0.14912556   -0.17548948
     atom    6 type  1   force =     0.00000000   -0.14912556    0.17548948
     atom    7 type  1   force =     0.00000000    0.14912556    0.17548948
     atom    8 type  1   force =     0.00000000   -0.14912556   -0.17548948
     atom    9 type  2   force =     0.00000000   -0.20731700   -0.03513322
     atom   10 type  2   force =     0.00000000    0.20731700    0.03513322
     atom   11 type  2   force =     0.00000000   -0.20731700    0.03513322
     atom   12 type  2   force =     0.00000000    0.20731700   -0.03513322

     Total force =     0.690969     Total SCF correction =     0.000000

     entering subroutine stress ...

          total   stress  (Ry/bohr**3)                   (kbar)     P= 7276.70
   0.05295163   0.00000000   0.00000000       7789.45      0.00      0.00
   0.00000000   0.04631574   0.00000000          0.00   6813.28      0.00
   0.00000000   0.00000000   0.04913063          0.00      0.00   7227.36

     BFGS Geometry Optimization

     number of scf cycles    =   1
     number of bfgs steps    =   0

     enthalpy new            =   -3567.3005756441 Ry

     new trust radius        =       0.5000000000 bohr
     new conv_thr            =       0.0001000000 Ry

     new unit-cell volume =   1084.78467 a.u.^3 (   160.74850 Ang^3 )

CELL_PARAMETERS (alat=  7.01510508)
   1.085136619   0.000000000   0.000000000
   0.000000000   1.413959641   0.000000000
   0.000000000   0.000000000   2.047951017

ATOMIC_POSITIONS (crystal)
Co       0.750000000   0.825789519   0.435156268
Co       0.250000000   0.174210481   0.564843732
Co       0.750000000   0.325789519   0.064843732
Co       0.250000000   0.674210481   0.935156268
Co       0.250000000   0.538124894   0.281497357
Co       0.750000000   0.461875106   0.718502643
Co       0.250000000   0.038124894   0.218502643
Co       0.750000000   0.961875106   0.781497357
Si       0.250000000   0.201409711   0.893430301
Si       0.750000000   0.798590289   0.106569699
Si       0.250000000   0.701409711   0.606569699
Si       0.750000000   0.298590289   0.393430301

     Writing output data file Prototype-La-oP12-Co2Si.save
     NEW-OLD atomic charge density approx. for the potential
     NEW k-points:
        k(    1) = (   0.0000000   0.0000000   0.0000000), wk =   0.0833333
        k(    2) = (   0.0000000   0.0000000   0.1220732), wk =   0.1666667
        k(    3) = (   0.0000000   0.0000000  -0.2441465), wk =   0.0833333
        k(    4) = (   0.0000000   0.2357446   0.0000000), wk =   0.1666667
        k(    5) = (   0.0000000   0.2357446   0.1220732), wk =   0.3333333
        k(    6) = (   0.0000000   0.2357446  -0.2441465), wk =   0.1666667
        k(    7) = (  -0.4607715   0.0000000   0.0000000), wk =   0.0833333
        k(    8) = (  -0.4607715   0.0000000   0.1220732), wk =   0.1666667
        k(    9) = (  -0.4607715   0.0000000  -0.2441465), wk =   0.0833333
        k(   10) = (  -0.4607715   0.2357446   0.0000000), wk =   0.1666667
        k(   11) = (  -0.4607715   0.2357446   0.1220732), wk =   0.3333333
        k(   12) = (  -0.4607715   0.2357446  -0.2441465), wk =   0.1666667

[...]

     enthalpy old            =   -3567.3005756441 Ry
     enthalpy new            =   -3574.3660924895 Ry

     CASE: enthalpy_new < enthalpy_old

     small trust_radius: resetting bfgs history

     new trust radius        =       3.0064077999 bohr
     new conv_thr            =       0.0001000000 Ry

[...]

          total   stress  (Ry/bohr**3)                   (kbar)     P=-5955.92
  -0.04273350   0.00000000   0.00000000      -6286.31      0.00      0.00
   0.00000000  -0.03801772   0.00000000          0.00  -5592.60      0.00
   0.00000000   0.00000000  -0.04071132          0.00      0.00  -5988.84

     number of scf cycles    =   3
     number of bfgs steps    =   2

     enthalpy old            =   -3574.3660924895 Ry
     enthalpy new            =   -3526.3129290584 Ry

     CASE: enthalpy_new > enthalpy_old

     new trust radius        =       0.6111123563 bohr

     trust_radius < trust_radius_min

     resetting bfgs history

     Message from routine bfgs:
     history already reset at previous step: stopping
     new conv_thr            =       0.0001000000 Ry

     new unit-cell volume =   1292.06319 a.u.^3 (   191.46401 Ang^3 )

[...]

ATOMIC_POSITIONS (crystal)
Co       0.750000000   0.825319777   0.435059414
Co       0.250000000   0.174680223   0.564940586
Co       0.750000000   0.325319777   0.064940586
Co       0.250000000   0.674680223   0.935059414
Co       0.250000000   0.539091807   0.280909545
Co       0.750000000   0.460908193   0.719090455
Co       0.250000000   0.039091807   0.219090455
Co       0.750000000   0.960908193   0.780909545
Si       0.250000000   0.200139865   0.893463465
Si       0.750000000   0.799860135   0.106536535
Si       0.250000000   0.700139865   0.606536535
Si       0.750000000   0.299860135   0.393463465

     Writing output data file Prototype-La-oP12-Co2Si.save
     NEW-OLD atomic charge density approx. for the potential
     NEW k-points:
        k(    1) = (   0.0000000   0.0000000   0.0000000), wk =   0.0833333
        k(    2) = (   0.0000000   0.0000000   0.1150392), wk =   0.1666667
        k(    3) = (   0.0000000   0.0000000  -0.2300783), wk =   0.0833333
        k(    4) = (   0.0000000   0.2234961   0.0000000), wk =   0.1666667
        k(    5) = (   0.0000000   0.2234961   0.1150392), wk =   0.3333333
        k(    6) = (   0.0000000   0.2234961  -0.2300783), wk =   0.1666667
        k(    7) = (  -0.4330040   0.0000000   0.0000000), wk =   0.0833333
        k(    8) = (  -0.4330040   0.0000000   0.1150392), wk =   0.1666667
        k(    9) = (  -0.4330040   0.0000000  -0.2300783), wk =   0.0833333
        k(   10) = (  -0.4330040   0.2234961   0.0000000), wk =   0.1666667
        k(   11) = (  -0.4330040   0.2234961   0.1150392), wk =   0.3333333
        k(   12) = (  -0.4330040   0.2234961  -0.2300783), wk =   0.1666667

[...]

     The maximum number of steps has been reached.

     End of BFGS Geometry Optimization
Begin final coordinates
     new unit-cell volume =   1292.06319 a.u.^3 (   191.46401 Ang^3 )

CELL_PARAMETERS (alat=  7.01510508)
   1.154723634   0.000000000   0.000000000
   0.000000000   1.491450470   0.000000000
   0.000000000   0.000000000   2.173173108

ATOMIC_POSITIONS (crystal)
Co       0.750000000   0.825319777   0.435059414
Co       0.250000000   0.174680223   0.564940586
Co       0.750000000   0.325319777   0.064940586
Co       0.250000000   0.674680223   0.935059414
Co       0.250000000   0.539091807   0.280909545
Co       0.750000000   0.460908193   0.719090455
Co       0.250000000   0.039091807   0.219090455
Co       0.750000000   0.960908193   0.780909545
Si       0.250000000   0.200139865   0.893463465
Si       0.750000000   0.799860135   0.106536535
Si       0.250000000   0.700139865   0.606536535
Si       0.750000000   0.299860135   0.393463465
End final coordinates

     A final scf calculation at the relaxed structure.
     The G-vectors are recalculated for the final unit cell
     Results may differ from those at the preceding step.

     bravais-lattice index     =            0
     lattice parameter (alat)  =       7.0151  a.u.
     unit-cell volume          =    1292.0632 (a.u.)^3
     number of atoms/cell      =           12
     number of atomic types    =            2
     number of electrons       =       240.00
     number of Kohn-Sham states=          144
     kinetic-energy cutoff     =      40.0000  Ry
     charge density cutoff     =     160.0000  Ry
     convergence threshold     =      1.0E-04
     mixing beta               =       0.7000
     number of iterations used =            8  plain     mixing
     Exchange-correlation      = SLA-PZ-NOGX-NOGC ( 1 1 0 0 0)
     EXX-fraction              =        0.00

     celldm(1)=   7.015105  celldm(2)=   0.000000  celldm(3)=   0.000000
     celldm(4)=   0.000000  celldm(5)=   0.000000  celldm(6)=   0.000000

     crystal axes: (cart. coord. in units of alat)
               a(1) = (   1.154724   0.000000   0.000000 )
               a(2) = (   0.000000   1.491450   0.000000 )
               a(3) = (   0.000000   0.000000   2.173173 )

     reciprocal axes: (cart. coord. in units 2 pi/alat)
               b(1) = (  0.866008  0.000000  0.000000 )
               b(2) = (  0.000000  0.670488  0.000000 )
               b(3) = (  0.000000  0.000000  0.460157 )

     PseudoPot. # 1 for Yb read from file:
     /home/jld5415/pp.La/Yb.UPF
     MD5 check sum: 3e859b81cc28c53ec6aa3a2e888efcdf
     Pseudo is Norm-conserving, Zval = 24.0
     Generated in analytical, separable form
     Using radial grid of 1269 points,  6 beta functions with:
                l(1) =   0
                l(2) =   0
                l(3) =   1
                l(4) =   1
                l(5) =   2
                l(6) =   3

     PseudoPot. # 2 for Ce read from file:
     /home/jld5415/pp.La/Ce.UPF
     MD5 check sum: 44451aa79a44a00cf2bc029dc19922f6
     Pseudo is Norm-conserving, Zval = 12.0
     Generated in analytical, separable form
     Using radial grid of 1255 points,  6 beta functions with:
                l(1) =   0
                l(2) =   0
                l(3) =   1
                l(4) =   1
                l(5) =   2
                l(6) =   3

     atomic species   valence    mass     pseudopotential
        Co            24.00    58.93320     Yb( 1.00)
        Si            12.00    28.08550     Ce( 1.00)

      8 Sym. Ops., with inversion, found ( 6 have fractional translation)

   Cartesian axes

     site n.     atom                  positions (alat units)
         1           Co  tau(   1) = (   0.8660427   1.2309236   0.9454594  )
         2           Co  tau(   2) = (   0.2886809   0.2605269   1.2277137  )
         3           Co  tau(   3) = (   0.8660427   0.4851983   0.1411271  )
         4           Co  tau(   4) = (   0.2886809   1.0062521   2.0320460  )
         5           Co  tau(   5) = (   0.2886809   0.8040287   0.6104651  )
         6           Co  tau(   6) = (   0.8660427   0.6874217   1.5627080  )
         7           Co  tau(   7) = (   0.2886809   0.0583035   0.4761215  )
         8           Co  tau(   8) = (   0.8660427   1.4331470   1.6970516  )
         9           Si  tau(   9) = (   0.2886809   0.2984987   1.9416508  )
        10           Si  tau(  10) = (   0.8660427   1.1929518   0.2315223  )
        11           Si  tau(  11) = (   0.2886809   1.0442239   1.3181089  )
        12           Si  tau(  12) = (   0.8660427   0.4472265   0.8550642  )

     number of k points=    12  gaussian smearing, width (Ry)=  0.1000
                       cart. coord. in units 2pi/alat
        k(    1) = (   0.0000000   0.0000000   0.0000000), wk =   0.0833333
        k(    2) = (   0.0000000   0.0000000   0.1150392), wk =   0.1666667
        k(    3) = (   0.0000000   0.0000000  -0.2300783), wk =   0.0833333
        k(    4) = (   0.0000000   0.2234961   0.0000000), wk =   0.1666667
        k(    5) = (   0.0000000   0.2234961   0.1150392), wk =   0.3333333
        k(    6) = (   0.0000000   0.2234961  -0.2300783), wk =   0.1666667
        k(    7) = (  -0.4330040   0.0000000   0.0000000), wk =   0.0833333
        k(    8) = (  -0.4330040   0.0000000   0.1150392), wk =   0.1666667
        k(    9) = (  -0.4330040   0.0000000  -0.2300783), wk =   0.0833333
        k(   10) = (  -0.4330040   0.2234961   0.0000000), wk =   0.1666667
        k(   11) = (  -0.4330040   0.2234961   0.1150392), wk =   0.3333333
        k(   12) = (  -0.4330040   0.2234961  -0.2300783), wk =   0.1666667

     Largest allocated arrays     est. size (Mb)     dimensions
     Largest temporary arrays     est. size (Mb)     dimensions

     Initial potential from superposition of free atoms

     Starting from uniform charge
     Starting wfc are    0 randomized atomic wfcs

     Writing output data file Prototype-La-oP12-Co2Si.save

     Self-consistent Calculation

[...]

     iteration #  6     ecut=    40.00 Ry     beta=0.70
     CG style diagonalization
     ethr =  1.92E-03,  avg # of iterations =  4.0

[...]

     total energy              =   -3581.51300707 Ry
     Harris-Foulkes estimate   =   -3581.51351879 Ry
     estimated scf accuracy    <       0.00094956 Ry

     iteration # 11     ecut=    40.00 Ry     beta=0.70
     CG style diagonalization
     c_bands:  1 eigenvalues not converged
     ethr =  3.96E-07,  avg # of iterations =  3.9

     End of self-consistent calculation

[...]

          k = 0.0000 0.2235-0.2301 (  5502 PWs)   bands (ev):

[...]

          k =-0.4330 0.2235-0.2301 (  5536 PWs)   bands (ev):

   -88.8685 -88.8685 -88.8639 -88.8639 -88.7505 -88.7505 -88.7233 -88.7233
   -47.7471 -47.7471 -47.7102 -47.7102 -47.7040 -47.7040 -47.7036 -47.7036
   -47.6693 -47.6693 -47.6648 -47.6648 -47.5990 -47.5990 -47.5937 -47.5937
   -47.5829 -47.5829 -47.5801 -47.5801 -47.5562 -47.5562 -47.5521 -47.5521
    -2.3360  -2.3360  -2.3131  -2.3131   9.1762   9.1762   9.2832   9.2832
     9.4066   9.4066   9.4844   9.4844   9.5659   9.5659   9.6447   9.6447
     9.6490   9.6490   9.7314   9.7314   9.7939   9.7939   9.9021   9.9021
     9.9913   9.9913  10.0671  10.0671  10.0687  10.0687  10.2117  10.2117
    10.2299  10.2299  10.2633  10.2633  10.3594  10.3594  10.4444  10.4444
    10.5630  10.5630  10.7386  10.7386  13.5500  13.5500  13.9474  13.9474
    14.8091  14.8091  15.1920  15.1920  15.7927  15.7927  16.1329  16.1329
    22.0644  22.0644  22.1134  22.1134  24.3029  24.3029  24.3695  24.3695
    28.4239  28.4239  28.4806  28.4806  29.2250  29.2250  29.2425  29.2425
    29.9862  29.9862  31.6320  31.6320  32.2522  32.2522  32.9558  32.9558
    33.0885  33.0885  34.0026  34.0026  35.1445  35.1445  35.7138  35.7138
    36.7422  36.7422  36.9467  36.9467  38.5489  38.5490  38.6074  38.6074
    39.7075  39.7075  40.1979  40.1979  40.2526  40.2526  40.8825  40.8827
    41.3667  41.3668  41.8101  41.8103  42.0212  42.0213  42.6874  42.6878

     the Fermi energy is    36.2161 ev

!    total energy              =   -3581.51325283 Ry
     Harris-Foulkes estimate   =   -3581.51328532 Ry
     estimated scf accuracy    <       0.00004136 Ry

     The total energy is the sum of the following terms:

     one-electron contribution =    -822.60680148 Ry
     hartree contribution      =     585.08448495 Ry
     xc contribution           =    -302.68817595 Ry
     ewald contribution        =   -3040.89315908 Ry
     smearing contrib. (-TS)   =      -0.40960127 Ry

     convergence has been achieved in  11 iterations

     Forces acting on atoms (Ry/au):

     atom    1 type  1   force =     0.00000000   -0.04966916    0.00412985
     atom    2 type  1   force =     0.00000000    0.04966916   -0.00412985
     atom    3 type  1   force =     0.00000000   -0.04966916   -0.00412985
     atom    4 type  1   force =     0.00000000    0.04966916    0.00412985
     atom    5 type  1   force =     0.00000000    0.06816593   -0.05760271
     atom    6 type  1   force =     0.00000000   -0.06816593    0.05760271
     atom    7 type  1   force =     0.00000000    0.06816593    0.05760271
     atom    8 type  1   force =     0.00000000   -0.06816593   -0.05760271
     atom    9 type  2   force =     0.00000000   -0.09564573    0.00466467
     atom   10 type  2   force =     0.00000000    0.09564573   -0.00466467
     atom   11 type  2   force =     0.00000000   -0.09564573   -0.00466467
     atom   12 type  2   force =     0.00000000    0.09564573    0.00466467

     Total force =     0.280133     Total SCF correction =     0.000000

     entering subroutine stress ...

          total   stress  (Ry/bohr**3)                   (kbar)     P= 1443.01
   0.01014398   0.00000000   0.00000000       1492.23      0.00      0.00
   0.00000000   0.00935212   0.00000000          0.00   1375.74      0.00
   0.00000000   0.00000000   0.00993210          0.00      0.00   1461.06

     Writing output data file Prototype-La-oP12-Co2Si.save

     General routines

     Parallel routines

   This run was terminated on:  12:28:12  22Mar2018

   JOB DONE.