     Program PWSCF v.5.0.2 starts on 22Mar2018 at 12: 4:18

     Current dimensions of program PWSCF are:
     Max number of different atomic species (ntypx) = 10
     Max number of k-points (npk) =  40000
     Max angular momentum in pseudopotentials (lmaxx) =  3
     Waiting for input...
     Reading input from standard input

     Subspace diagonalization in iterative solution of the eigenvalue problem:
     a serial algorithm will be used

     bravais-lattice index     =            0
     lattice parameter (alat)  =      13.3930  a.u.
     unit-cell volume          =    1134.0956 (a.u.)^3
     number of atoms/cell      =            4
     number of atomic types    =            2
     number of electrons       =        72.00
     number of Kohn-Sham states=           43
     kinetic-energy cutoff     =      40.0000  Ry
     charge density cutoff     =     160.0000  Ry
     convergence threshold     =      1.0E-04
     mixing beta               =       0.7000
     number of iterations used =            8  plain     mixing
     Exchange-correlation      = SLA-PZ-NOGX-NOGC ( 1 1 0 0 0)
     EXX-fraction              =        0.00
     nstep                     =           50

     celldm(1)=  13.392972  celldm(2)=   0.000000  celldm(3)=   0.000000
     celldm(4)=   0.000000  celldm(5)=   0.000000  celldm(6)=   0.000000

     crystal axes: (cart. coord. in units of alat)
               a(1) = (   1.000000   0.000000   0.000000 )
               a(2) = (  -0.776311   0.630350   0.000000 )
               a(3) = (   0.000000   0.000000   0.748922 )

     reciprocal axes: (cart. coord. in units 2 pi/alat)
               b(1) = (  1.000000  1.231554  0.000000 )
               b(2) = (  0.000000  1.586419  0.000000 )
               b(3) = (  0.000000  0.000000  1.335252 )

     PseudoPot. # 1 for Yb read from file:
     /home/jld5415/pp.La/Yb.UPF
     MD5 check sum: 3e859b81cc28c53ec6aa3a2e888efcdf
     Pseudo is Norm-conserving, Zval = 24.0
     Generated in analytical, separable form
     Using radial grid of 1269 points,  6 beta functions with:
                l(1) =   0
                l(2) =   0
                l(3) =   1
                l(4) =   1
                l(5) =   2
                l(6) =   3

     PseudoPot. # 2 for Ce read from file:
     /home/jld5415/pp.La/Ce.UPF
     MD5 check sum: 44451aa79a44a00cf2bc029dc19922f6
     Pseudo is Norm-conserving, Zval = 12.0
     Generated in analytical, separable form
     Using radial grid of 1255 points,  6 beta functions with:
                l(1) =   0
                l(2) =   0
                l(3) =   1
                l(4) =   1
                l(5) =   2
                l(6) =   3

     atomic species   valence    mass     pseudopotential
        Tl            24.00   204.38300     Yb( 1.00)
        I             12.00   126.90400     Ce( 1.00)

      2 Sym. Ops., with inversion, found
          (note:  2 additional sym.ops. were found but ignored
           their fractional translations are incommensurate with FFT grid)

   Cartesian axes

     site n.     atom                  positions (alat units)
         1           Tl  tau(   1) = (  -0.0906317   0.3870269   0.5616917  )
         2           Tl  tau(   2) = (   0.3143210   0.2433234   0.1872306  )
         3           I   tau(   3) = (  -0.5408004   0.5467760   0.5616917  )
         4           I   tau(   4) = (   0.7644896   0.0835744   0.1872306  )

     number of k points=   106  gaussian smearing, width (Ry)=  0.1000

     Number of k-points >= 100: set verbosity='high' to print them.

     Largest allocated arrays     est. size (Mb)     dimensions
     Largest temporary arrays     est. size (Mb)     dimensions

     Initial potential from superposition of free atoms

     Starting from uniform charge
     Starting wfc are    0 randomized atomic wfcs

     Self-consistent Calculation

     iteration #  1     ecut=    40.00 Ry     beta=0.70
     CG style diagonalization
     ethr =  1.00E-02,  avg # of iterations = 20.2

     total energy              =    -491.07127930 Ry
     Harris-Foulkes estimate   =   -1589.13488728 Ry
     estimated scf accuracy    <    1312.65787356 Ry

     iteration #  2     ecut=    40.00 Ry     beta=0.70
     CG style diagonalization
     c_bands:  1 eigenvalues not converged
     c_bands:  1 eigenvalues not converged
     c_bands:  1 eigenvalues not converged
     c_bands:  1 eigenvalues not converged
     c_bands:  1 eigenvalues not converged
     c_bands:  1 eigenvalues not converged
     c_bands:  2 eigenvalues not converged
     c_bands:  1 eigenvalues not converged
     c_bands:  1 eigenvalues not converged
     ethr =  1.00E-02,  avg # of iterations = 14.1

[...]

     End of self-consistent calculation

     Number of k-points >= 100: set verbosity='high' to print the bands.

     the Fermi energy is    11.2106 ev

!    total energy              =    -974.10225625 Ry
     Harris-Foulkes estimate   =    -974.10227143 Ry
     estimated scf accuracy    <       0.00001854 Ry

     The total energy is the sum of the following terms:

     one-electron contribution =    -572.65123528 Ry
     hartree contribution      =     280.22025437 Ry
     xc contribution           =     -82.06561906 Ry
     ewald contribution        =    -599.29926660 Ry
     smearing contrib. (-TS)   =      -0.30638968 Ry

     convergence has been achieved in  10 iterations

     Forces acting on atoms (Ry/au):

     atom    1 type  1   force =    -0.02166555    0.00888573   -0.01854894
     atom    2 type  1   force =     0.02166555   -0.00888573    0.01854894
     atom    3 type  2   force =    -0.00320653    0.00150925   -0.00662245
     atom    4 type  2   force =     0.00320653   -0.00150925    0.00662245

     Total force =     0.043562     Total SCF correction =     0.000000

     entering subroutine stress ...

          total   stress  (Ry/bohr**3)                   (kbar)     P= -353.28
  -0.00233832  -0.00005672  -0.00000027       -343.98     -8.34     -0.04
  -0.00005672  -0.00247816   0.00000002         -8.34   -364.55      0.00
  -0.00000027   0.00000002  -0.00238811         -0.04      0.00   -351.30

     BFGS Geometry Optimization

     number of scf cycles    =   1
     number of bfgs steps    =   0

     enthalpy new            =    -974.1022562466 Ry

     new trust radius        =       0.4173854588 bohr
     new conv_thr            =       0.0001000000 Ry

     new unit-cell volume =    941.84133 a.u.^3 (   139.56648 Ang^3 )

CELL_PARAMETERS (alat= 13.39297219)
   0.941542030  -0.001418028  -0.000006713
  -0.731823054   0.592398548   0.000005521
  -0.000005028   0.000000367   0.704209562

ATOMIC_POSITIONS (crystal)
Tl       0.385212409   0.615039529   0.748150708
Tl       0.614787591   0.384960471   0.251849292
I        0.132483365   0.867594773   0.749339755
I        0.867516635   0.132405227   0.250660245

     Writing output data file Prototype-La-oS8-TlI.save
     NEW-OLD atomic charge density approx. for the potential
     NEW k-points: (use verbosity='high' to print them)

[...]

     enthalpy old            =    -974.1022562466 Ry
     enthalpy new            =    -974.4906332238 Ry

     CASE: enthalpy_new < enthalpy_old

     small trust_radius: resetting bfgs history

[...]

     number of scf cycles    =   3
     number of bfgs steps    =   2

     enthalpy old            =    -974.4906332238 Ry
     enthalpy new            =    -974.6242909738 Ry

     CASE: enthalpy_new < enthalpy_old

     Message from routine bfgs:
     history already reset at previous step: stopping
     small trust_radius: resetting bfgs history

     new trust radius        =       0.1473164074 bohr
     new conv_thr            =       0.0000320483 Ry

     new unit-cell volume =    786.24153 a.u.^3 (   116.50897 Ang^3 )

[...]

ATOMIC_POSITIONS (crystal)
Tl       0.385994331   0.614266685   0.747613138
Tl       0.614005669   0.385733315   0.252386862
I        0.129909400   0.870187383   0.748788868
I        0.870090600   0.129812617   0.251211132

     Writing output data file Prototype-La-oS8-TlI.save
     NEW-OLD atomic charge density approx. for the potential
     NEW k-points: (use verbosity='high' to print them)

[...]

     The maximum number of steps has been reached.

     End of BFGS Geometry Optimization
Begin final coordinates
     new unit-cell volume =    786.24153 a.u.^3 (   116.50897 Ang^3 )

CELL_PARAMETERS (alat= 13.39297219)
   0.887948111  -0.005517075  -0.000199717
  -0.692801347   0.555447114   0.000198506
  -0.000148988   0.000051441   0.668765069

ATOMIC_POSITIONS (crystal)
Tl       0.385994331   0.614266685   0.747613138
Tl       0.614005669   0.385733315   0.252386862
I        0.129909400   0.870187383   0.748788868
I        0.870090600   0.129812617   0.251211132
End final coordinates

     A final scf calculation at the relaxed structure.
     The G-vectors are recalculated for the final unit cell
     Results may differ from those at the preceding step.

     bravais-lattice index     =            0
     lattice parameter (alat)  =      13.3930  a.u.
     unit-cell volume          =     786.2415 (a.u.)^3
     number of atoms/cell      =            4
     number of atomic types    =            2
     number of electrons       =        72.00
     number of Kohn-Sham states=           43
     kinetic-energy cutoff     =      40.0000  Ry
     charge density cutoff     =     160.0000  Ry
     convergence threshold     =      3.2E-05
     mixing beta               =       0.7000
     number of iterations used =            8  plain     mixing
     Exchange-correlation      = SLA-PZ-NOGX-NOGC ( 1 1 0 0 0)
     EXX-fraction              =        0.00

     celldm(1)=  13.392972  celldm(2)=   0.000000  celldm(3)=   0.000000
     celldm(4)=   0.000000  celldm(5)=   0.000000  celldm(6)=   0.000000

     crystal axes: (cart. coord. in units of alat)
               a(1) = (   0.887948  -0.005517  -0.000200 )
               a(2) = (  -0.692801   0.555447   0.000199 )
               a(3) = (  -0.000149   0.000051   0.668765 )

     reciprocal axes: (cart. coord. in units 2 pi/alat)
               b(1) = (  1.134988  1.415654  0.000144 )
               b(2) = (  0.011273  1.814413 -0.000137 )
               b(3) = (  0.000336 -0.000116  1.495293 )

     PseudoPot. # 1 for Yb read from file:
     /home/jld5415/pp.La/Yb.UPF
     MD5 check sum: 3e859b81cc28c53ec6aa3a2e888efcdf
     Pseudo is Norm-conserving, Zval = 24.0
     Generated in analytical, separable form
     Using radial grid of 1269 points,  6 beta functions with:
                l(1) =   0
                l(2) =   0
                l(3) =   1
                l(4) =   1
                l(5) =   2
                l(6) =   3

     PseudoPot. # 2 for Ce read from file:
     /home/jld5415/pp.La/Ce.UPF
     MD5 check sum: 44451aa79a44a00cf2bc029dc19922f6
     Pseudo is Norm-conserving, Zval = 12.0
     Generated in analytical, separable form
     Using radial grid of 1255 points,  6 beta functions with:
                l(1) =   0
                l(2) =   0
                l(3) =   1
                l(4) =   1
                l(5) =   2
                l(6) =   3

     atomic species   valence    mass     pseudopotential
        Tl            24.00   204.38300     Yb( 1.00)
        I             12.00   126.90400     Ce( 1.00)

      2 Sym. Ops., with inversion, found
          (note:  2 additional sym.ops. were found but ignored
           their fractional translations are incommensurate with FFT grid)

   Cartesian axes

     site n.     atom                  positions (alat units)
         1           Tl  tau(   1) = (  -0.0829332   0.3391016   0.5000224  )
         2           Tl  tau(   2) = (   0.2779310   0.2108799   0.1687415  )
         3           I   tau(   3) = (  -0.4876257   0.4826649   0.5009106  )
         4           I   tau(   4) = (   0.6826235   0.0673166   0.1678532  )

     number of k points=   106  gaussian smearing, width (Ry)=  0.1000

     Number of k-points >= 100: set verbosity='high' to print them.

     Largest allocated arrays     est. size (Mb)     dimensions
     Largest temporary arrays     est. size (Mb)     dimensions

     Initial potential from superposition of free atoms

     Starting from uniform charge
     Starting wfc are    0 randomized atomic wfcs

     Writing output data file Prototype-La-oS8-TlI.save

     Self-consistent Calculation

[...]

     iteration #  9     ecut=    40.00 Ry     beta=0.70
     CG style diagonalization
     c_bands:  1 eigenvalues not converged
     c_bands:  1 eigenvalues not converged
     c_bands:  1 eigenvalues not converged
     ethr =  6.79E-06,  avg # of iterations =  3.8

[...]

     total energy              =    -974.13794250 Ry
     Harris-Foulkes estimate   =    -974.13796216 Ry
     estimated scf accuracy    <       0.00003263 Ry

     iteration # 12     ecut=    40.00 Ry     beta=0.70
     CG style diagonalization
     ethr =  4.53E-08,  avg # of iterations =  3.8

     End of self-consistent calculation

     Number of k-points >= 100: set verbosity='high' to print the bands.

     the Fermi energy is    17.7324 ev

!    total energy              =    -974.13795207 Ry
     Harris-Foulkes estimate   =    -974.13795366 Ry
     estimated scf accuracy    <       0.00000183 Ry

     The total energy is the sum of the following terms:

     one-electron contribution =    -448.41854691 Ry
     hartree contribution      =     235.08022925 Ry
     xc contribution           =     -83.20795255 Ry
     ewald contribution        =    -677.37482743 Ry
     smearing contrib. (-TS)   =      -0.21685444 Ry

     convergence has been achieved in  12 iterations

     Forces acting on atoms (Ry/au):

     atom    1 type  1   force =     0.01303829   -0.00474818    0.00765139
     atom    2 type  1   force =    -0.01303829    0.00474818   -0.00765139
     atom    3 type  2   force =    -0.03965829    0.01393680    0.00623825
     atom    4 type  2   force =     0.03965829   -0.01393680   -0.00623825

     Total force =     0.064141     Total SCF correction =     0.000000

     entering subroutine stress ...

          total   stress  (Ry/bohr**3)                   (kbar)     P= -259.49
  -0.00181350  -0.00010588  -0.00000408       -266.77    -15.58     -0.60
  -0.00010588  -0.00207090   0.00000149        -15.58   -304.64      0.22
  -0.00000408   0.00000149  -0.00140758         -0.60      0.22   -207.06

     Writing output data file Prototype-La-oS8-TlI.save

     General routines

     Parallel routines

   This run was terminated on:  12:44:59  22Mar2018

   JOB DONE.