     Program PWSCF v.5.0.2 starts on 22Mar2018 at 12: 4:16

     Current dimensions of program PWSCF are:
     Max number of different atomic species (ntypx) = 10
     Max number of k-points (npk) =  40000
     Max angular momentum in pseudopotentials (lmaxx) =  3
     Waiting for input...
     Reading input from standard input

     Subspace diagonalization in iterative solution of the eigenvalue problem:
     a serial algorithm will be used

     bravais-lattice index     =            0
     lattice parameter (alat)  =       9.9235  a.u.
     unit-cell volume          =    1361.0366 (a.u.)^3
     number of atoms/cell      =           12
     number of atomic types    =            2
     number of electrons       =       192.00
     number of Kohn-Sham states=          115
     kinetic-energy cutoff     =      40.0000  Ry
     charge density cutoff     =     160.0000  Ry
     convergence threshold     =      1.0E-04
     mixing beta               =       0.7000
     number of iterations used =            8  plain     mixing
     Exchange-correlation      = SLA-PZ-NOGX-NOGC ( 1 1 0 0 0)
     EXX-fraction              =        0.00
     nstep                     =           50

     celldm(1)=   9.923489  celldm(2)=   0.000000  celldm(3)=   0.000000
     celldm(4)=   0.000000  celldm(5)=   0.000000  celldm(6)=   0.000000

     crystal axes: (cart. coord. in units of alat)
               a(1) = (   1.000000   0.000000   0.000000 )
               a(2) = (  -0.500000   0.866025   0.000000 )
               a(3) = (   0.000000   0.000000   1.608222 )

     reciprocal axes: (cart. coord. in units 2 pi/alat)
               b(1) = (  1.000000  0.577350  0.000000 )
               b(2) = (  0.000000  1.154701  0.000000 )
               b(3) = (  0.000000  0.000000  0.621805 )

     PseudoPot. # 1 for Yb read from file:
     /home/jld5415/pp.La/Yb.UPF
     MD5 check sum: 3e859b81cc28c53ec6aa3a2e888efcdf
     Pseudo is Norm-conserving, Zval = 24.0
     Generated in analytical, separable form
     Using radial grid of 1269 points,  6 beta functions with:
                l(1) =   0
                l(2) =   0
                l(3) =   1
                l(4) =   1
                l(5) =   2
                l(6) =   3

     PseudoPot. # 2 for Ce read from file:
     /home/jld5415/pp.La/Ce.UPF
     MD5 check sum: 44451aa79a44a00cf2bc029dc19922f6
     Pseudo is Norm-conserving, Zval = 12.0
     Generated in analytical, separable form
     Using radial grid of 1255 points,  6 beta functions with:
                l(1) =   0
                l(2) =   0
                l(3) =   1
                l(4) =   1
                l(5) =   2
                l(6) =   3

     atomic species   valence    mass     pseudopotential
        Mg            24.00    24.30500     Yb( 1.00)
        Zn            12.00    65.39000     Ce( 1.00)

     24 Sym. Ops., with inversion, found (12 have fractional translation)

   Cartesian axes

     site n.     atom                  positions (alat units)
         1           Mg  tau(   1) = (  -0.0000005   0.5773506   0.1003820  )
         2           Mg  tau(   2) = (   0.5000005   0.2886748   0.9044931  )
         3           Mg  tau(   3) = (   0.5000005   0.2886748   1.5078402  )
         4           Mg  tau(   4) = (  -0.0000005   0.5773506   0.7037291  )
         5           Zn  tau(   5) = (   0.0000000   0.0000000   0.0000000  )
         6           Zn  tau(   6) = (   0.0000000   0.0000000   0.8041111  )
         7           Zn  tau(   7) = (   0.0000000   0.2950739   1.2061667  )
         8           Zn  tau(   8) = (   0.7444585   0.1475370   0.4020556  )
         9           Zn  tau(   9) = (   0.2555415   0.1475370   0.4020556  )
        10           Zn  tau(  10) = (   0.2444585   0.7184884   1.2061667  )
        11           Zn  tau(  11) = (  -0.2444585   0.7184884   1.2061667  )
        12           Zn  tau(  12) = (   0.5000000   0.5709515   0.4020556  )

     number of k points=    12  gaussian smearing, width (Ry)=  0.1000
                       cart. coord. in units 2pi/alat
        k(    1) = (   0.0000000   0.0000000   0.0000000), wk =   0.0833333
        k(    2) = (   0.0000000   0.0000000   0.1554512), wk =   0.1666667
        k(    3) = (   0.0000000   0.0000000  -0.3109023), wk =   0.0833333
        k(    4) = (   0.0000000   0.3849002   0.0000000), wk =   0.1666667
        k(    5) = (   0.0000000   0.3849002   0.1554512), wk =   0.3333333
        k(    6) = (   0.0000000   0.3849002  -0.3109023), wk =   0.1666667
        k(    7) = (  -0.5000000  -0.2886751   0.0000000), wk =   0.0833333
        k(    8) = (  -0.5000000  -0.2886751   0.1554512), wk =   0.1666667
        k(    9) = (  -0.5000000  -0.2886751  -0.3109023), wk =   0.0833333
        k(   10) = (  -0.5000000   0.0962250   0.0000000), wk =   0.1666667
        k(   11) = (  -0.5000000   0.0962250   0.1554512), wk =   0.3333333
        k(   12) = (  -0.5000000   0.0962250  -0.3109023), wk =   0.1666667

     Largest allocated arrays     est. size (Mb)     dimensions
     Largest temporary arrays     est. size (Mb)     dimensions

     Initial potential from superposition of free atoms

     Starting from uniform charge
     Starting wfc are    0 randomized atomic wfcs

     Self-consistent Calculation

     iteration #  1     ecut=    40.00 Ry     beta=0.70
     CG style diagonalization
     c_bands:  1 eigenvalues not converged
     c_bands:  1 eigenvalues not converged
     ethr =  1.00E-02,  avg # of iterations = 13.4

     total energy              =    -574.68516596 Ry
     Harris-Foulkes estimate   =   -3264.90583195 Ry
     estimated scf accuracy    <    3163.42931220 Ry

     iteration #  2     ecut=    40.00 Ry     beta=0.70
     CG style diagonalization
     ethr =  1.00E-02,  avg # of iterations = 22.3

[...]

     End of self-consistent calculation

          k = 0.0000 0.0000 0.0000 (  5769 PWs)   bands (ev):

   -93.7636 -93.7411 -93.7339 -93.6694 -52.5794 -52.5700 -52.5593 -52.5579
   -52.5579 -52.5476 -52.5476 -52.5458 -52.5375 -52.5375 -52.5326 -52.5326
    -9.5471  -9.0001  -7.5132  -6.7629  -6.7629  -6.7335  -6.7335  -6.7223
     4.2829   5.0392   5.0606   5.0606   5.0784   5.0784   5.1424   5.1424
     5.2006   5.2006   5.2230   5.2814   5.3981   5.3981   5.4019   5.4019
     5.5122   5.5257   5.5257   5.5606   5.5606   5.6305   6.7255   8.0584
     8.0584   8.1111   8.1111   8.6920   8.6921   8.9665  10.6159  10.6159
    10.8802  10.8803  11.6379  12.7745  13.1038  13.1250  13.1705  13.1706
    13.9213  13.9213  14.0592  14.0592  15.7176  17.9460  17.9763  20.7494
    21.8980  21.8981  22.3338  23.8730  23.8731  24.7520  25.3063  25.7408
    26.6065  26.6065  26.7305  27.1798  27.1799  27.2305  27.3401  27.3401
    29.1198  29.1199  29.3725  29.3726  30.3145  30.3145  31.1664  31.7748
    31.7749  31.7948  31.8755  32.5060  33.4359  33.4360  33.4421  33.4560
    33.4563  34.1197  34.1201  34.2165  34.4967  34.7481  34.7490  34.8349
    34.8347  34.8599  35.9943

[...]

          k =-0.5000-0.2887 0.0000 (  5800 PWs)   bands (ev):

[...]

     the Fermi energy is    31.0315 ev

!    total energy              =   -2253.61046790 Ry
     Harris-Foulkes estimate   =   -2253.61048116 Ry
     estimated scf accuracy    <       0.00001472 Ry

     The total energy is the sum of the following terms:

     one-electron contribution =    -437.21504372 Ry
     hartree contribution      =     360.84437638 Ry
     xc contribution           =    -215.20979582 Ry
     ewald contribution        =   -1961.55270340 Ry
     smearing contrib. (-TS)   =      -0.47730134 Ry

     convergence has been achieved in  11 iterations

     Forces acting on atoms (Ry/au):

     atom    1 type  1   force =     0.00000000    0.00000000    0.02592506
     atom    2 type  1   force =     0.00000000    0.00000000    0.02592506
     atom    3 type  1   force =     0.00000000    0.00000000   -0.02592506
     atom    4 type  1   force =     0.00000000    0.00000000   -0.02592506
     atom    5 type  2   force =     0.00000000    0.00000000    0.00000000
     atom    6 type  2   force =     0.00000000    0.00000000    0.00000000
     atom    7 type  2   force =     0.00000000    0.05581689    0.00000000
     atom    8 type  2   force =    -0.04833884    0.02790844    0.00000000
     atom    9 type  2   force =     0.04833884    0.02790844    0.00000000
     atom   10 type  2   force =    -0.04833884   -0.02790844    0.00000000
     atom   11 type  2   force =     0.04833884   -0.02790844    0.00000000
     atom   12 type  2   force =     0.00000000   -0.05581689    0.00000000

     Total force =     0.146224     Total SCF correction =     0.000000

     entering subroutine stress ...

          total   stress  (Ry/bohr**3)                   (kbar)     P= 1148.15
   0.00753790   0.00000000   0.00000000       1108.86      0.00      0.00
   0.00000000   0.00753790   0.00000000          0.00   1108.86      0.00
   0.00000000   0.00000000   0.00833911          0.00      0.00   1226.72

     BFGS Geometry Optimization

     number of scf cycles    =   1
     number of bfgs steps    =   0

     enthalpy new            =   -2253.6104678954 Ry

     new trust radius        =       0.5000000000 bohr
     new conv_thr            =       0.0001000000 Ry

     new unit-cell volume =   1636.75747 a.u.^3 (   242.54243 Ang^3 )

CELL_PARAMETERS (alat=  9.92348860)
   1.061254214   0.000000000   0.000000000
  -0.530627107   0.919073109   0.000000000
   0.000000000   0.000000000   1.717203317

ATOMIC_POSITIONS (crystal)
Mg       0.333333000   0.666667000   0.062946025
Mg       0.666667000   0.333333000   0.562946025
Mg       0.666667000   0.333333000   0.937053975
Mg       0.333333000   0.666667000   0.437053975
Zn       0.000000000   0.000000000   0.000000000
Zn       0.000000000   0.000000000   0.500000000
Zn       0.171416568   0.342833135   0.750000000
Zn       0.828583432   0.171416568   0.250000000
Zn       0.342833135   0.171416568   0.250000000
Zn       0.657166865   0.828583432   0.750000000
Zn       0.171416568   0.828583432   0.750000000
Zn       0.828583432   0.657166865   0.250000000

     Writing output data file Prototype-La-hP12-MgZn2.save
     NEW-OLD atomic charge density approx. for the potential
     NEW k-points:
        k(    1) = (   0.0000000   0.0000000   0.0000000), wk =   0.0833333
        k(    2) = (   0.0000000   0.0000000   0.1455856), wk =   0.1666667
        k(    3) = (   0.0000000   0.0000000  -0.2911711), wk =   0.0833333
        k(    4) = (   0.0000000   0.3626842   0.0000000), wk =   0.1666667
        k(    5) = (   0.0000000   0.3626842   0.1455856), wk =   0.3333333
        k(    6) = (   0.0000000   0.3626842  -0.2911711), wk =   0.1666667
        k(    7) = (  -0.4711406  -0.2720132   0.0000000), wk =   0.0833333
        k(    8) = (  -0.4711406  -0.2720132   0.1455856), wk =   0.1666667
        k(    9) = (  -0.4711406  -0.2720132  -0.2911711), wk =   0.0833333
        k(   10) = (  -0.4711406   0.0906711   0.0000000), wk =   0.1666667
        k(   11) = (  -0.4711406   0.0906711   0.1455856), wk =   0.3333333
        k(   12) = (  -0.4711406   0.0906711  -0.2911711), wk =   0.1666667

[...]

     enthalpy old            =   -2253.6104678954 Ry
     enthalpy new            =   -2254.7219294401 Ry

     CASE: enthalpy_new < enthalpy_old

     small trust_radius: resetting bfgs history

[...]

     number of scf cycles    =   3
     number of bfgs steps    =   2

     enthalpy old            =   -2254.7219294401 Ry
     enthalpy new            =   -2254.7242881740 Ry

     CASE: enthalpy_new < enthalpy_old

     Message from routine bfgs:
     history already reset at previous step: stopping
     small trust_radius: resetting bfgs history

     new trust radius        =       0.1868352201 bohr
     new conv_thr            =       0.0000181491 Ry

     new unit-cell volume =   1644.66830 a.u.^3 (   243.71469 Ang^3 )

[...]

ATOMIC_POSITIONS (crystal)
Mg       0.333333000   0.666667000   0.063695593
Mg       0.666667000   0.333333000   0.563695593
Mg       0.666667000   0.333333000   0.936304407
Mg       0.333333000   0.666667000   0.436304407
Zn       0.000000000   0.000000000   0.000000000
Zn       0.000000000   0.000000000   0.500000000
Zn       0.171645987   0.343291973   0.750000000
Zn       0.828354013   0.171645987   0.250000000
Zn       0.343291973   0.171645987   0.250000000
Zn       0.656708027   0.828354013   0.750000000
Zn       0.171645987   0.828354013   0.750000000
Zn       0.828354013   0.656708027   0.250000000

     Writing output data file Prototype-La-hP12-MgZn2.save
     NEW-OLD atomic charge density approx. for the potential
     NEW k-points:
        k(    1) = (   0.0000000   0.0000000   0.0000000), wk =   0.0833333
        k(    2) = (   0.0000000   0.0000000   0.1449952), wk =   0.1666667
        k(    3) = (   0.0000000   0.0000000  -0.2899903), wk =   0.0833333
        k(    4) = (   0.0000000   0.3625468   0.0000000), wk =   0.1666667
        k(    5) = (   0.0000000   0.3625468   0.1449952), wk =   0.3333333
        k(    6) = (   0.0000000   0.3625468  -0.2899903), wk =   0.1666667
        k(    7) = (  -0.4709621  -0.2719101   0.0000000), wk =   0.0833333
        k(    8) = (  -0.4709621  -0.2719101   0.1449952), wk =   0.1666667
        k(    9) = (  -0.4709621  -0.2719101  -0.2899903), wk =   0.0833333
        k(   10) = (  -0.4709621   0.0906367   0.0000000), wk =   0.1666667
        k(   11) = (  -0.4709621   0.0906367   0.1449952), wk =   0.3333333
        k(   12) = (  -0.4709621   0.0906367  -0.2899903), wk =   0.1666667

[...]

     The maximum number of steps has been reached.

     End of BFGS Geometry Optimization
Begin final coordinates
     new unit-cell volume =   1644.66830 a.u.^3 (   243.71469 Ang^3 )

CELL_PARAMETERS (alat=  9.92348860)
   1.061656568   0.000000000   0.000000000
  -0.530828284   0.919421558   0.000000000
   0.000000000   0.000000000   1.724195328

ATOMIC_POSITIONS (crystal)
Mg       0.333333000   0.666667000   0.063695593
Mg       0.666667000   0.333333000   0.563695593
Mg       0.666667000   0.333333000   0.936304407
Mg       0.333333000   0.666667000   0.436304407
Zn       0.000000000   0.000000000   0.000000000
Zn       0.000000000   0.000000000   0.500000000
Zn       0.171645987   0.343291973   0.750000000
Zn       0.828354013   0.171645987   0.250000000
Zn       0.343291973   0.171645987   0.250000000
Zn       0.656708027   0.828354013   0.750000000
Zn       0.171645987   0.828354013   0.750000000
Zn       0.828354013   0.656708027   0.250000000
End final coordinates

     A final scf calculation at the relaxed structure.
     The G-vectors are recalculated for the final unit cell
     Results may differ from those at the preceding step.

     bravais-lattice index     =            0
     lattice parameter (alat)  =       9.9235  a.u.
     unit-cell volume          =    1644.6683 (a.u.)^3
     number of atoms/cell      =           12
     number of atomic types    =            2
     number of electrons       =       192.00
     number of Kohn-Sham states=          115
     kinetic-energy cutoff     =      40.0000  Ry
     charge density cutoff     =     160.0000  Ry
     convergence threshold     =      1.8E-05
     mixing beta               =       0.7000
     number of iterations used =            8  plain     mixing
     Exchange-correlation      = SLA-PZ-NOGX-NOGC ( 1 1 0 0 0)
     EXX-fraction              =        0.00

     celldm(1)=   9.923489  celldm(2)=   0.000000  celldm(3)=   0.000000
     celldm(4)=   0.000000  celldm(5)=   0.000000  celldm(6)=   0.000000

     crystal axes: (cart. coord. in units of alat)
               a(1) = (   1.061657   0.000000   0.000000 )
               a(2) = (  -0.530828   0.919422   0.000000 )
               a(3) = (   0.000000   0.000000   1.724195 )

     reciprocal axes: (cart. coord. in units 2 pi/alat)
               b(1) = (  0.941924  0.543820  0.000000 )
               b(2) = (  0.000000  1.087640  0.000000 )
               b(3) = (  0.000000  0.000000  0.579981 )

     PseudoPot. # 1 for Yb read from file:
     /home/jld5415/pp.La/Yb.UPF
     MD5 check sum: 3e859b81cc28c53ec6aa3a2e888efcdf
     Pseudo is Norm-conserving, Zval = 24.0
     Generated in analytical, separable form
     Using radial grid of 1269 points,  6 beta functions with:
                l(1) =   0
                l(2) =   0
                l(3) =   1
                l(4) =   1
                l(5) =   2
                l(6) =   3

     PseudoPot. # 2 for Ce read from file:
     /home/jld5415/pp.La/Ce.UPF
     MD5 check sum: 44451aa79a44a00cf2bc029dc19922f6
     Pseudo is Norm-conserving, Zval = 12.0
     Generated in analytical, separable form
     Using radial grid of 1255 points,  6 beta functions with:
                l(1) =   0
                l(2) =   0
                l(3) =   1
                l(4) =   1
                l(5) =   2
                l(6) =   3

     atomic species   valence    mass     pseudopotential
        Mg            24.00    24.30500     Yb( 1.00)
        Zn            12.00    65.39000     Ce( 1.00)

     24 Sym. Ops., with inversion, found (12 have fractional translation)

   Cartesian axes

     site n.     atom                  positions (alat units)
         1           Mg  tau(   1) = (  -0.0000005   0.6129480   0.1098236  )
         2           Mg  tau(   2) = (   0.5308288   0.3064735   0.9719213  )
         3           Mg  tau(   3) = (   0.5308288   0.3064735   1.6143717  )
         4           Mg  tau(   4) = (  -0.0000005   0.6129480   0.7522740  )
         5           Zn  tau(   5) = (   0.0000000   0.0000000   0.0000000  )
         6           Zn  tau(   6) = (   0.0000000   0.0000000   0.8620977  )
         7           Zn  tau(   7) = (   0.0000000   0.3156300   1.2931465  )
         8           Zn  tau(   8) = (   0.7883129   0.1578150   0.4310488  )
         9           Zn  tau(   9) = (   0.2733436   0.1578150   0.4310488  )
        10           Zn  tau(  10) = (   0.2574847   0.7616065   1.2931465  )
        11           Zn  tau(  11) = (  -0.2574847   0.7616065   1.2931465  )
        12           Zn  tau(  12) = (   0.5308283   0.6037915   0.4310488  )

     number of k points=    12  gaussian smearing, width (Ry)=  0.1000
                       cart. coord. in units 2pi/alat
        k(    1) = (   0.0000000   0.0000000   0.0000000), wk =   0.0833333
        k(    2) = (   0.0000000   0.0000000   0.1449952), wk =   0.1666667
        k(    3) = (   0.0000000   0.0000000  -0.2899903), wk =   0.0833333
        k(    4) = (   0.0000000   0.3625468   0.0000000), wk =   0.1666667
        k(    5) = (   0.0000000   0.3625468   0.1449952), wk =   0.3333333
        k(    6) = (   0.0000000   0.3625468  -0.2899903), wk =   0.1666667
        k(    7) = (  -0.4709621  -0.2719101   0.0000000), wk =   0.0833333
        k(    8) = (  -0.4709621  -0.2719101   0.1449952), wk =   0.1666667
        k(    9) = (  -0.4709621  -0.2719101  -0.2899903), wk =   0.0833333
        k(   10) = (  -0.4709621   0.0906367   0.0000000), wk =   0.1666667
        k(   11) = (  -0.4709621   0.0906367   0.1449952), wk =   0.3333333
        k(   12) = (  -0.4709621   0.0906367  -0.2899903), wk =   0.1666667

     Largest allocated arrays     est. size (Mb)     dimensions
     Largest temporary arrays     est. size (Mb)     dimensions

     Initial potential from superposition of free atoms

     Starting from uniform charge
     Starting wfc are    0 randomized atomic wfcs

     Writing output data file Prototype-La-hP12-MgZn2.save

     Self-consistent Calculation

[...]

     iteration # 11     ecut=    40.00 Ry     beta=0.70
     CG style diagonalization
     c_bands:  1 eigenvalues not converged
     c_bands:  1 eigenvalues not converged
     ethr =  4.54E-07,  avg # of iterations =  3.4

     total energy              =   -2255.77952234 Ry
     Harris-Foulkes estimate   =   -2255.77967021 Ry
     estimated scf accuracy    <       0.00029443 Ry

     iteration # 12     ecut=    40.00 Ry     beta=0.70
     CG style diagonalization
     ethr =  1.53E-07,  avg # of iterations =  3.8

     End of self-consistent calculation

[...]

          k = 0.0000 0.3625-0.2900 (  7022 PWs)   bands (ev):

[...]

          k =-0.4710 0.0906-0.2900 (  7034 PWs)   bands (ev):

   -99.0839 -99.0838 -99.0778 -99.0778 -57.8634 -57.8633 -57.8598 -57.8597
   -57.8502 -57.8502 -57.8484 -57.8483 -57.8450 -57.8450 -57.8407 -57.8406
   -13.4745 -13.4745 -13.0317 -13.0316 -12.3301 -12.3301 -12.2430 -12.2430
     0.1125   0.1126   0.1407   0.1407   0.1715   0.1716   0.1868   0.1868
     0.2136   0.2137   0.2718   0.2718   0.2864   0.2865   0.3127   0.3128
     0.3445   0.3446   0.3758   0.3758   2.2427   2.2427   3.2705   3.2705
     3.8312   3.8312   4.0079   4.0079   4.2610   4.2610   4.6251   4.6251
     5.2342   5.2342   5.8458   5.8459   6.2303   6.2303   6.5356   6.5356
     7.1835   7.1835   7.3303   7.3303  13.1728  13.1728  13.7405  13.7405
    18.7657  18.7657  19.1764  19.1764  19.9759  19.9759  20.9436  20.9436
    21.2764  21.2764  22.2127  22.2127  22.7052  22.7052  23.3735  23.3735
    23.7450  23.7450  24.3209  24.3209  24.7014  24.7014  24.9623  24.9623
    25.1785  25.1785  25.9509  25.9509  26.1808  26.1808  26.9287  26.9288
    26.9976  26.9976  27.7109  27.7109  28.1202  28.1202  28.6775  28.6776
    28.8733  28.8735  29.5050

     the Fermi energy is    25.3290 ev

!    total energy              =   -2255.77961051 Ry
     Harris-Foulkes estimate   =   -2255.77961185 Ry
     estimated scf accuracy    <       0.00000169 Ry

     The total energy is the sum of the following terms:

     one-electron contribution =    -610.93223988 Ry
     hartree contribution      =     408.75673339 Ry
     xc contribution           =    -211.57145112 Ry
     ewald contribution        =   -1841.48487674 Ry
     smearing contrib. (-TS)   =      -0.54777617 Ry

     convergence has been achieved in  12 iterations

     Forces acting on atoms (Ry/au):

     atom    1 type  1   force =     0.00000000    0.00000000    0.00776314
     atom    2 type  1   force =     0.00000000    0.00000000    0.00776314
     atom    3 type  1   force =     0.00000000    0.00000000   -0.00776314
     atom    4 type  1   force =     0.00000000    0.00000000   -0.00776314
     atom    5 type  2   force =     0.00000000    0.00000000    0.00000000
     atom    6 type  2   force =     0.00000000    0.00000000    0.00000000
     atom    7 type  2   force =     0.00000000    0.00623439    0.00000000
     atom    8 type  2   force =    -0.00539914    0.00311720    0.00000000
     atom    9 type  2   force =     0.00539914    0.00311720    0.00000000
     atom   10 type  2   force =    -0.00539914   -0.00311720    0.00000000
     atom   11 type  2   force =     0.00539914   -0.00311720    0.00000000
     atom   12 type  2   force =     0.00000000   -0.00623439    0.00000000

     Total force =     0.021778     Total SCF correction =     0.000000

     entering subroutine stress ...

          total   stress  (Ry/bohr**3)                   (kbar)     P=  326.74
   0.00215715   0.00000000   0.00000000        317.33      0.00      0.00
   0.00000000   0.00215715   0.00000000          0.00    317.33      0.00
   0.00000000   0.00000000   0.00234918          0.00      0.00    345.58

     Writing output data file Prototype-La-hP12-MgZn2.save

     General routines

     Parallel routines

   This run was terminated on:  12:32:28  22Mar2018

   JOB DONE.