     Program PWSCF v.5.0.2 starts on 12Mar2018 at 20:53:55

     Current dimensions of program PWSCF are:
     Max number of different atomic species (ntypx) = 10
     Max number of k-points (npk) =  40000
     Max angular momentum in pseudopotentials (lmaxx) =  3
     Waiting for input...
     Reading input from standard input
               file Na.pbe-spn-kjpaw_psl.0.2.UPF: wavefunction(s)  2P 3P renormalized
               file Cl.pbe-n-kjpaw_psl.0.1.UPF: wavefunction(s)  3S 3P renormalized

     bravais-lattice index     =            0
     lattice parameter (alat)  =       6.6440  a.u.
     unit-cell volume          =     279.8595 (a.u.)^3
     number of atoms/cell      =            2
     number of atomic types    =            2
     number of electrons       =        16.00
     number of Kohn-Sham states=            8
     kinetic-energy cutoff     =      60.0000  Ry
     charge density cutoff     =     240.0000  Ry
     convergence threshold     =      1.0E-08
     mixing beta               =       0.7000
     number of iterations used =            8  plain     mixing
     Exchange-correlation      =  SLA  PW   PBX  PBC ( 1 4 3 4 0)
     EXX-fraction              =        0.00
     nstep                     =           50

     celldm(1)=   6.644019  celldm(2)=   0.000000  celldm(3)=   0.000000
     celldm(4)=   0.000000  celldm(5)=   0.000000  celldm(6)=   0.000000

     crystal axes: (cart. coord. in units of alat)
               a(1) = (   1.000000   0.000000   0.000000 )
               a(2) = (   0.774489   0.970445   0.000000 )
               a(3) = (  -0.000002  -0.000045   0.983279 )

     reciprocal axes: (cart. coord. in units 2 pi/alat)
               b(1) = (  1.000000 -0.798077 -0.000035 )
               b(2) = (  0.000000  1.030455  0.000048 )
               b(3) = (  0.000000  0.000000  1.017005 )

     PseudoPot. # 1 for Na read from file:
     /projects/e20438/bin/espresso/pseudo/Na.pbe-spn-kjpaw_psl.0.2.UPF
     MD5 check sum: af6cebf537ceac8ff9d4cdfd6fc7ff14
     Pseudo is Projector augmented-wave, Zval =  9.0
     Generated using "atomic" code by A. Dal Corso  v.5.0.2 svn rev. 9415
     Shape of augmentation charge: PSQ
     Using radial grid of 1121 points,  4 beta functions with:
                l(1) =   0
                l(2) =   0
                l(3) =   1
                l(4) =   1
     Q(r) pseudized with 0 coefficients

     PseudoPot. # 2 for Cl read from file:
     /projects/e20438/bin/espresso/pseudo/Cl.pbe-n-kjpaw_psl.0.1.UPF
     MD5 check sum: 39501d8aaca1fada178cfed307344fc1
     Pseudo is Projector augmented-wave + core cor, Zval =  7.0
     Generated using "atomic" code by A. Dal Corso  v.5.0.2 svn rev. 9415
     Shape of augmentation charge: PSQ
     Using radial grid of 1157 points,  4 beta functions with:
                l(1) =   0
                l(2) =   0
                l(3) =   1
                l(4) =   1
     Q(r) pseudized with 0 coefficients

     atomic species   valence    mass     pseudopotential
        Na             9.00    22.98977     Na( 1.00)
        Cl             7.00    35.45270     Cl( 1.00)

     No symmetry found

   Cartesian axes

     site n.     atom                  positions (alat units)
         1           Na  tau(   1) = (   1.2058136   0.4584297   0.2839037  )
         2           Cl  tau(   2) = (   0.7058134   0.8536196   0.7755607  )

     number of k points=   128

     Number of k-points >= 100: set verbosity='high' to print them.

     Largest allocated arrays     est. size (Mb)     dimensions
     Largest temporary arrays     est. size (Mb)     dimensions

     Check: negative/imaginary core charge=   -0.000006    0.000000

     Initial potential from superposition of free atoms

     starting charge   15.49915, renormalised to   16.00000
     Starting wfc are   12 randomized atomic wfcs
     Checking if some PAW data can be deallocated...

     Self-consistent Calculation

     iteration #  1     ecut=    60.00 Ry     beta=0.70
     CG style diagonalization
     ethr =  1.00E-02,  avg # of iterations =  2.0

     total energy              =    -188.74450501 Ry
     Harris-Foulkes estimate   =    -188.90501062 Ry
     estimated scf accuracy    <       0.19256603 Ry

[...]

     iteration #  8     ecut=    60.00 Ry     beta=0.70
     CG style diagonalization
     c_bands:  1 eigenvalues not converged
     ethr =  1.40E-07,  avg # of iterations =  5.8

[...]

     End of self-consistent calculation

     Number of k-points >= 100: set verbosity='high' to print the bands.

!    total energy              =    -188.82984551 Ry
     Harris-Foulkes estimate   =    -188.82984551 Ry
     estimated scf accuracy    <          2.4E-10 Ry

     total all-electron energy =     -1248.116838 Ry

     The total energy is the sum of the following terms:

     one-electron contribution =     -77.17181600 Ry
     hartree contribution      =      40.73601258 Ry
     xc contribution           =     -24.70028901 Ry
     ewald contribution        =     -71.07132516 Ry
     one-center paw contrib.   =     -56.62242792 Ry

     convergence has been achieved in  23 iterations

     Forces acting on atoms (Ry/au):

     atom    1 type  1   force =     0.00024763   -0.00026132    0.00000030
     atom    2 type  2   force =    -0.00024763    0.00026132   -0.00000030

     Total force =     0.000509     Total SCF correction =     0.000012

     entering subroutine stress ...

          total   stress  (Ry/bohr**3)                   (kbar)     P=   27.02
   0.00018964  -0.00008109   0.00000002         27.90    -11.93      0.00
  -0.00008109   0.00016915   0.00000002        -11.93     24.88      0.00
   0.00000002   0.00000002   0.00019220          0.00      0.00     28.27

     BFGS Geometry Optimization

     number of scf cycles    =   1
     number of bfgs steps    =   0

     enthalpy new            =    -188.8298455058 Ry

     new trust radius        =       0.0172518294 bohr
     new conv_thr            =       0.0000000100 Ry

     new unit-cell volume =    283.73101 a.u.^3 (    42.04460 Ang^3 )

CELL_PARAMETERS (alat=  6.64401868)
   1.004741026  -0.002027247   0.000000562
   0.776193990   0.972978424   0.000000812
  -0.000001238  -0.000045306   0.988003394

ATOMIC_POSITIONS (crystal)
Na       0.840010197   0.472364369   0.288731635
Cl       0.024463534   0.879694406   0.788749422

     Writing output data file NaCl_pegs+pwscf.save
     NEW-OLD atomic charge density approx. for the potential
     NEW k-points: (use verbosity='high' to print them)

     Check: negative/imaginary core charge=   -0.000005    0.000000
     extrapolated charge   16.21149, renormalised to   16.00000

[...]

     enthalpy old            =    -188.8298455058 Ry
     enthalpy new            =    -188.8305880296 Ry

     CASE: enthalpy_new < enthalpy_old

     WARNING: bfgs curvature condition failed, Theta= 0.952
     new trust radius        =       0.0189914943 bohr
     new conv_thr            =            1.0E-10 Ry

[...]

     negative rho (up, down):  0.982E-01 0.000E+00

[...]

     WARNING: bfgs curvature condition failed, Theta= 0.948
     new trust radius        =       0.0090144165 bohr
     new conv_thr            =       0.0000000001 Ry

[...]

     number of scf cycles    =  22
     number of bfgs steps    =  21

     enthalpy old            =    -188.8407635085 Ry
     enthalpy new            =    -188.8407645198 Ry

     CASE: enthalpy_new < enthalpy_old

     new trust radius        =       0.0016349669 bohr
     new conv_thr            =            1.0E-10 Ry

     new unit-cell volume =    318.87471 a.u.^3 (    47.25236 Ang^3 )

[...]

ATOMIC_POSITIONS (crystal)
Na       0.765697367   0.509143382   0.288893907
Cl       0.098776364   0.842915393   0.788587151

     Writing output data file NaCl_pegs+pwscf.save
     NEW-OLD atomic charge density approx. for the potential
     NEW k-points: (use verbosity='high' to print them)

     Check: negative/imaginary core charge=   -0.000010    0.000000
     extrapolated charge   16.00970, renormalised to   16.00000

[...]

     Threshold (ethr) on eigenvalues was too large:
     Diagonalizing with lowered threshold

     CG style diagonalization
     ethr =  7.05E-08,  avg # of iterations =  4.0

[...]

     bfgs converged in  23 scf cycles and  22 bfgs steps
     (criteria: energy < 0.10E-03, force < 0.10E-02, cell < 0.50E+00)

     End of BFGS Geometry Optimization

     Final enthalpy =    -188.8407648941 Ry
Begin final coordinates
     new unit-cell volume =    318.87471 a.u.^3 (    47.25236 Ang^3 )

CELL_PARAMETERS (alat=  6.64401868)
   1.097205117  -0.164450062   0.000171602
   0.691528125   0.868307982   0.000028012
   0.000202755  -0.000175337   1.019515092

ATOMIC_POSITIONS (crystal)
Na       0.765697367   0.509143382   0.288893907
Cl       0.098776364   0.842915393   0.788587151
End final coordinates

     A final scf calculation at the relaxed structure.
     The G-vectors are recalculated for the final unit cell
     Results may differ from those at the preceding step.

     bravais-lattice index     =            0
     lattice parameter (alat)  =       6.6440  a.u.
     unit-cell volume          =     318.8747 (a.u.)^3
     number of atoms/cell      =            2
     number of atomic types    =            2
     number of electrons       =        16.00
     number of Kohn-Sham states=            8
     kinetic-energy cutoff     =      60.0000  Ry
     charge density cutoff     =     240.0000  Ry
     convergence threshold     =      1.0E-10
     mixing beta               =       0.7000
     number of iterations used =            8  plain     mixing
     Exchange-correlation      =  SLA  PW   PBX  PBC ( 1 4 3 4 0)
     EXX-fraction              =        0.00

     celldm(1)=   6.644019  celldm(2)=   0.000000  celldm(3)=   0.000000
     celldm(4)=   0.000000  celldm(5)=   0.000000  celldm(6)=   0.000000

     crystal axes: (cart. coord. in units of alat)
               a(1) = (   1.097205  -0.164450   0.000172 )
               a(2) = (   0.691528   0.868308   0.000028 )
               a(3) = (   0.000203  -0.000175   1.019515 )

     reciprocal axes: (cart. coord. in units 2 pi/alat)
               b(1) = (  0.814217 -0.648449 -0.000273 )
               b(2) = (  0.154206  1.028854  0.000146 )
               b(3) = ( -0.000141  0.000081  0.980858 )

     PseudoPot. # 1 for Na read from file:
     /projects/e20438/bin/espresso/pseudo/Na.pbe-spn-kjpaw_psl.0.2.UPF
     MD5 check sum: af6cebf537ceac8ff9d4cdfd6fc7ff14
     Pseudo is Projector augmented-wave, Zval =  9.0
     Generated using "atomic" code by A. Dal Corso  v.5.0.2 svn rev. 9415
     Shape of augmentation charge: PSQ
     Using radial grid of 1121 points,  4 beta functions with:
                l(1) =   0
                l(2) =   0
                l(3) =   1
                l(4) =   1
     Q(r) pseudized with 0 coefficients

     PseudoPot. # 2 for Cl read from file:
     /projects/e20438/bin/espresso/pseudo/Cl.pbe-n-kjpaw_psl.0.1.UPF
     MD5 check sum: 39501d8aaca1fada178cfed307344fc1
     Pseudo is Projector augmented-wave + core cor, Zval =  7.0
     Generated using "atomic" code by A. Dal Corso  v.5.0.2 svn rev. 9415
     Shape of augmentation charge: PSQ
     Using radial grid of 1157 points,  4 beta functions with:
                l(1) =   0
                l(2) =   0
                l(3) =   1
                l(4) =   1
     Q(r) pseudized with 0 coefficients

     atomic species   valence    mass     pseudopotential
        Na             9.00    22.98977     Na( 1.00)
        Cl             7.00    35.45270     Cl( 1.00)

     No symmetry found

   Cartesian axes

     site n.     atom                  positions (alat units)
         1           Na  tau(   1) = (   1.1922726   0.3161236   0.2946774  )
         2           Cl  tau(   2) = (   0.6914375   0.7155281   0.8040171  )

     number of k points=   128

     Number of k-points >= 100: set verbosity='high' to print them.

     Largest allocated arrays     est. size (Mb)     dimensions
     Largest temporary arrays     est. size (Mb)     dimensions

     Check: negative/imaginary core charge=   -0.000005    0.000000

     Initial potential from superposition of free atoms

     starting charge   15.49915, renormalised to   16.00000
     Starting wfc are   12 randomized atomic wfcs
     Checking if some PAW data can be deallocated...

     Writing output data file NaCl_pegs+pwscf.save

     Self-consistent Calculation

[...]

     iteration # 29     ecut=    60.00 Ry     beta=0.70
     CG style diagonalization
     c_bands:  1 eigenvalues not converged
     c_bands:  1 eigenvalues not converged
     ethr =  1.22E-11,  avg # of iterations =  5.4

[...]

     total energy              =    -188.84079618 Ry
     Harris-Foulkes estimate   =    -188.84079620 Ry
     estimated scf accuracy    <          4.4E-10 Ry

     iteration # 36     ecut=    60.00 Ry     beta=0.70
     CG style diagonalization
     ethr =  2.73E-12,  avg # of iterations =  4.4

     End of self-consistent calculation

     Number of k-points >= 100: set verbosity='high' to print the bands.

!    total energy              =    -188.84079617 Ry
     Harris-Foulkes estimate   =    -188.84079618 Ry
     estimated scf accuracy    <          3.5E-11 Ry

     total all-electron energy =     -1248.127789 Ry

     The total energy is the sum of the following terms:

     one-electron contribution =     -83.56606798 Ry
     hartree contribution      =      43.30590233 Ry
     xc contribution           =     -24.66624916 Ry
     ewald contribution        =     -67.29540687 Ry
     one-center paw contrib.   =     -56.61897450 Ry

     convergence has been achieved in  36 iterations

     Forces acting on atoms (Ry/au):

     atom    1 type  1   force =    -0.00000839    0.00002526   -0.00000744
     atom    2 type  2   force =     0.00000839   -0.00002526    0.00000744

     Total force =     0.000039     Total SCF correction =     0.000002

     entering subroutine stress ...

          total   stress  (Ry/bohr**3)                   (kbar)     P=   -0.32
  -0.00000352  -0.00000043  -0.00000012         -0.52     -0.06     -0.02
  -0.00000043  -0.00000359   0.00000008         -0.06     -0.53      0.01
  -0.00000012   0.00000008   0.00000065         -0.02      0.01      0.10

     Writing output data file NaCl_pegs+pwscf.save

     General routines

     Parallel routines

     PAW routines

   This run was terminated on:  21: 9:23  12Mar2018

   JOB DONE.