     Program PWSCF v.5.0.2 starts on 22Mar2018 at 21:11:54

     Current dimensions of program PWSCF are:
     Max number of different atomic species (ntypx) = 10
     Max number of k-points (npk) =  40000
     Max angular momentum in pseudopotentials (lmaxx) =  3
     Waiting for input...
     Reading input from standard input

     Subspace diagonalization in iterative solution of the eigenvalue problem:
     a serial algorithm will be used

     bravais-lattice index     =            0
     lattice parameter (alat)  =      12.0168  a.u.
     unit-cell volume          =    1187.3413 (a.u.)^3
     number of atoms/cell      =            8
     number of atomic types    =            2
     number of electrons       =       126.00
     number of Kohn-Sham states=           76
     kinetic-energy cutoff     =      40.0000  Ry
     charge density cutoff     =     160.0000  Ry
     convergence threshold     =      1.0E-04
     mixing beta               =       0.7000
     number of iterations used =            8  plain     mixing
     Exchange-correlation      = SLA-PZ-NOGX-NOGC ( 1 1 0 0 0)
     EXX-fraction              =        0.00
     nstep                     =           50

     celldm(1)=  12.016801  celldm(2)=   0.000000  celldm(3)=   0.000000
     celldm(4)=   0.000000  celldm(5)=   0.000000  celldm(6)=   0.000000

     crystal axes: (cart. coord. in units of alat)
               a(1) = (   1.000000   0.000000   0.000000 )
               a(2) = (  -0.500000   0.866025   0.000000 )
               a(3) = (   0.000000   0.000000   0.790093 )

     reciprocal axes: (cart. coord. in units 2 pi/alat)
               b(1) = (  1.000000  0.577350  0.000000 )
               b(2) = (  0.000000  1.154701  0.000000 )
               b(3) = (  0.000000  0.000000  1.265674 )

     PseudoPot. # 1 for Eu read from file:
     /home/cwx6513/pp.La/Eu.UPF
     MD5 check sum: 5efdbbfc50c6a10138933a6429836ad2
     Pseudo is Norm-conserving, Zval = 17.0
     Generated in analytical, separable form
     Using radial grid of 1261 points,  6 beta functions with:
                l(1) =   0
                l(2) =   0
                l(3) =   1
                l(4) =   1
                l(5) =   2
                l(6) =   3

     PseudoPot. # 2 for Ce read from file:
     /home/cwx6513/pp.La/Ce.UPF
     MD5 check sum: 44451aa79a44a00cf2bc029dc19922f6
     Pseudo is Norm-conserving, Zval = 12.0
     Generated in analytical, separable form
     Using radial grid of 1255 points,  6 beta functions with:
                l(1) =   0
                l(2) =   0
                l(3) =   1
                l(4) =   1
                l(5) =   2
                l(6) =   3

     atomic species   valence    mass     pseudopotential
        Mg            17.00    24.30500     Eu( 1.00)
        Cd            12.00   112.41100     Ce( 1.00)

     24 Sym. Ops., with inversion, found (12 have fractional translation)

   Cartesian axes

     site n.     atom                  positions (alat units)
         1           Mg  tau(   1) = (   0.2478935   0.7204716   0.1975233  )
         2           Mg  tau(   2) = (   0.7478935   0.1455538   0.5925699  )
         3           Mg  tau(   3) = (   0.2521065   0.1455538   0.5925699  )
         4           Mg  tau(   4) = (  -0.2478935   0.7204716   0.1975233  )
         5           Mg  tau(   5) = (   0.0000000   0.2911075   0.1975233  )
         6           Mg  tau(   6) = (   0.5000000   0.5749179   0.5925699  )
         7           Cd  tau(   7) = (   0.5000005   0.2886748   0.1975233  )
         8           Cd  tau(   8) = (  -0.0000005   0.5773506   0.5925699  )

     number of k points=    64  gaussian smearing, width (Ry)=  0.1000
                       cart. coord. in units 2pi/alat
        k(    1) = (   0.0000000   0.0000000   0.0000000), wk =   0.0095238
        k(    2) = (   0.0000000   0.0000000   0.1808105), wk =   0.0190476
        k(    3) = (   0.0000000   0.0000000   0.3616210), wk =   0.0190476
        k(    4) = (   0.0000000   0.0000000   0.5424315), wk =   0.0190476
        k(    5) = (   0.0000000   0.1924501   0.0000000), wk =   0.0190476
        k(    6) = (   0.0000000   0.1924501   0.1808105), wk =   0.0380952
        k(    7) = (   0.0000000   0.1924501   0.3616210), wk =   0.0380952
        k(    8) = (   0.0000000   0.1924501   0.5424315), wk =   0.0380952
        k(    9) = (   0.0000000   0.3849002   0.0000000), wk =   0.0190476
        k(   10) = (   0.0000000   0.3849002   0.1808105), wk =   0.0380952
        k(   11) = (   0.0000000   0.3849002   0.3616210), wk =   0.0380952
        k(   12) = (   0.0000000   0.3849002   0.5424315), wk =   0.0380952
        k(   13) = (   0.0000000  -0.5773503   0.0000000), wk =   0.0095238
        k(   14) = (   0.0000000  -0.5773503   0.1808105), wk =   0.0190476
        k(   15) = (   0.0000000  -0.5773503   0.3616210), wk =   0.0190476
        k(   16) = (   0.0000000  -0.5773503   0.5424315), wk =   0.0190476
        k(   17) = (   0.2000000   0.1154701   0.0000000), wk =   0.0190476
        k(   18) = (   0.2000000   0.1154701   0.1808105), wk =   0.0380952
        k(   19) = (   0.2000000   0.1154701   0.3616210), wk =   0.0380952
        k(   20) = (   0.2000000   0.1154701   0.5424315), wk =   0.0380952
        k(   21) = (   0.2000000   0.3079201   0.0000000), wk =   0.0190476
        k(   22) = (   0.2000000   0.3079201   0.1808105), wk =   0.0380952
        k(   23) = (   0.2000000   0.3079201   0.3616210), wk =   0.0380952
        k(   24) = (   0.2000000   0.3079201   0.5424315), wk =   0.0380952
        k(   25) = (   0.2000000   0.5003702   0.0000000), wk =   0.0190476
        k(   26) = (   0.2000000   0.5003702   0.1808105), wk =   0.0380952
        k(   27) = (   0.2000000   0.5003702   0.3616210), wk =   0.0380952
        k(   28) = (   0.2000000   0.5003702   0.5424315), wk =   0.0380952
        k(   29) = (   0.2000000  -0.4618802   0.0000000), wk =   0.0190476
        k(   30) = (   0.2000000  -0.4618802   0.1808105), wk =   0.0380952
        k(   31) = (   0.2000000  -0.4618802   0.3616210), wk =   0.0380952
        k(   32) = (   0.2000000  -0.4618802   0.5424315), wk =   0.0380952
        k(   33) = (   0.2000000  -0.2694301   0.0000000), wk =   0.0190476
        k(   34) = (   0.2000000  -0.2694301   0.1808105), wk =   0.0380952
        k(   35) = (   0.2000000  -0.2694301   0.3616210), wk =   0.0380952
        k(   36) = (   0.2000000  -0.2694301   0.5424315), wk =   0.0380952
        k(   37) = (   0.2000000  -0.0769800   0.0000000), wk =   0.0190476
        k(   38) = (   0.2000000  -0.0769800   0.1808105), wk =   0.0380952
        k(   39) = (   0.2000000  -0.0769800   0.3616210), wk =   0.0380952
        k(   40) = (   0.2000000  -0.0769800   0.5424315), wk =   0.0380952
        k(   41) = (   0.4000000   0.2309401   0.0000000), wk =   0.0190476
        k(   42) = (   0.4000000   0.2309401   0.1808105), wk =   0.0380952
        k(   43) = (   0.4000000   0.2309401   0.3616210), wk =   0.0380952
        k(   44) = (   0.4000000   0.2309401   0.5424315), wk =   0.0380952
        k(   45) = (   0.4000000   0.4233902   0.0000000), wk =   0.0190476
        k(   46) = (   0.4000000   0.4233902   0.1808105), wk =   0.0380952
        k(   47) = (   0.4000000   0.4233902   0.3616210), wk =   0.0380952
        k(   48) = (   0.4000000   0.4233902   0.5424315), wk =   0.0380952
        k(   49) = (   0.4000000   0.6158403   0.0000000), wk =   0.0190476
        k(   50) = (   0.4000000   0.6158403   0.1808105), wk =   0.0380952
        k(   51) = (   0.4000000   0.6158403   0.3616210), wk =   0.0380952
        k(   52) = (   0.4000000   0.6158403   0.5424315), wk =   0.0380952
        k(   53) = (   0.4000000  -0.3464102   0.0000000), wk =   0.0190476
        k(   54) = (   0.4000000  -0.3464102   0.1808105), wk =   0.0380952
        k(   55) = (   0.4000000  -0.3464102   0.3616210), wk =   0.0380952
        k(   56) = (   0.4000000  -0.3464102   0.5424315), wk =   0.0380952
        k(   57) = (   0.4000000  -0.1539601   0.0000000), wk =   0.0190476
        k(   58) = (   0.4000000  -0.1539601   0.1808105), wk =   0.0380952
        k(   59) = (   0.4000000  -0.1539601   0.3616210), wk =   0.0380952
        k(   60) = (   0.4000000  -0.1539601   0.5424315), wk =   0.0380952
        k(   61) = (   0.4000000   0.0384900   0.0000000), wk =   0.0190476
        k(   62) = (   0.4000000   0.0384900   0.1808105), wk =   0.0380952
        k(   63) = (   0.4000000   0.0384900   0.3616210), wk =   0.0380952
        k(   64) = (   0.4000000   0.0384900   0.5424315), wk =   0.0380952

     Largest allocated arrays     est. size (Mb)     dimensions
     Largest temporary arrays     est. size (Mb)     dimensions

     Initial potential from superposition of free atoms

     Starting from uniform charge
     Starting wfc are    0 randomized atomic wfcs

     Self-consistent Calculation

     iteration #  1     ecut=    40.00 Ry     beta=0.70
     CG style diagonalization
     ethr =  1.00E-02,  avg # of iterations = 16.0

     total energy              =    -973.65975920 Ry
     Harris-Foulkes estimate   =   -1466.91852960 Ry
     estimated scf accuracy    <     625.64737438 Ry

     iteration #  2     ecut=    40.00 Ry     beta=0.70
     CG style diagonalization
     c_bands:  4 eigenvalues not converged
     c_bands:  1 eigenvalues not converged
     c_bands:  2 eigenvalues not converged
     ethr =  1.00E-02,  avg # of iterations = 16.6

[...]

     negative rho (up, down):  0.129E-04 0.000E+00

[...]

     End of self-consistent calculation

          k = 0.0000 0.0000 0.0000 (  5047 PWs)   bands (ev):

   -42.0100 -41.9499 -41.9498 -41.9400 -41.9158 -41.9158 -17.3102 -17.3021
   -15.0093 -14.9698 -14.8411 -14.8145 -14.8144 -14.7897 -14.7896 -14.7685
   -14.7685 -14.6408 -14.5029 -14.5029 -14.4083 -14.4083 -14.4076 -14.4070
   -14.3968 -14.3968   0.7854   0.8033   0.8033   0.8417   0.8566   0.8566
    14.5130  15.0347  15.0347  15.0817  15.1130  15.7195  15.7195  15.8033
    15.8398  15.8398  16.1189  17.0983  17.5343  17.5343  17.9512  17.9512
    17.9589  18.5477  18.5477  18.7104  18.7881  18.7881  19.0764  19.0765
    19.1274  19.1274  19.4676  19.4676  20.4352  20.6050  20.9877  21.3697
    21.4083  22.7285  23.1746  23.1746  23.2780  23.2780  23.2946  23.2946
    24.6198  24.6199  26.1345  26.1348

[...]

     the Fermi energy is    20.6067 ev

!    total energy              =   -1205.81291749 Ry
     Harris-Foulkes estimate   =   -1205.81296146 Ry
     estimated scf accuracy    <       0.00004874 Ry

     The total energy is the sum of the following terms:

     one-electron contribution =    -136.89256926 Ry
     hartree contribution      =     152.98898776 Ry
     xc contribution           =    -128.78311978 Ry
     ewald contribution        =   -1092.68234356 Ry
     smearing contrib. (-TS)   =      -0.44387265 Ry

     convergence has been achieved in  13 iterations

     Forces acting on atoms (Ry/au):

     atom    1 type  1   force =     0.04071293    0.02350562    0.00000000
     atom    2 type  1   force =     0.04071293   -0.02350562    0.00000000
[...]
        k(   11) = (   0.0000000   0.4019338   0.3719019), wk =   0.0380952
        k(   12) = (   0.0000000   0.4019338   0.5578528), wk =   0.0380952
        k(   13) = (   0.0000000  -0.6029006   0.0000000), wk =   0.0095238
        k(   14) = (   0.0000000  -0.6029006   0.1859509), wk =   0.0190476
        k(   15) = (   0.0000000  -0.6029006   0.3719019), wk =   0.0190476
        k(   16) = (   0.0000000  -0.6029006   0.5578528), wk =   0.0190476
        k(   17) = (   0.2088509   0.1205801   0.0000000), wk =   0.0190476
        k(   18) = (   0.2088509   0.1205801   0.1859509), wk =   0.0380952
        k(   19) = (   0.2088509   0.1205801   0.3719019), wk =   0.0380952
        k(   20) = (   0.2088509   0.1205801   0.5578528), wk =   0.0380952
        k(   21) = (   0.2088509   0.3215470   0.0000000), wk =   0.0190476
        k(   22) = (   0.2088509   0.3215470   0.1859509), wk =   0.0380952
        k(   23) = (   0.2088509   0.3215470   0.3719019), wk =   0.0380952
        k(   24) = (   0.2088509   0.3215470   0.5578528), wk =   0.0380952
        k(   25) = (   0.2088509   0.5225139   0.0000000), wk =   0.0190476
        k(   26) = (   0.2088509   0.5225139   0.1859509), wk =   0.0380952
        k(   27) = (   0.2088509   0.5225139   0.3719019), wk =   0.0380952
        k(   28) = (   0.2088509   0.5225139   0.5578528), wk =   0.0380952
        k(   29) = (   0.2088509  -0.4823205   0.0000000), wk =   0.0190476
        k(   30) = (   0.2088509  -0.4823205   0.1859509), wk =   0.0380952
        k(   31) = (   0.2088509  -0.4823205   0.3719019), wk =   0.0380952
        k(   32) = (   0.2088509  -0.4823205   0.5578528), wk =   0.0380952
        k(   33) = (   0.2088509  -0.2813536   0.0000000), wk =   0.0190476
        k(   34) = (   0.2088509  -0.2813536   0.1859509), wk =   0.0380952
        k(   35) = (   0.2088509  -0.2813536   0.3719019), wk =   0.0380952
        k(   36) = (   0.2088509  -0.2813536   0.5578528), wk =   0.0380952
        k(   37) = (   0.2088509  -0.0803868   0.0000000), wk =   0.0190476
        k(   38) = (   0.2088509  -0.0803868   0.1859509), wk =   0.0380952
        k(   39) = (   0.2088509  -0.0803868   0.3719019), wk =   0.0380952
        k(   40) = (   0.2088509  -0.0803868   0.5578528), wk =   0.0380952
        k(   41) = (   0.4177018   0.2411603   0.0000000), wk =   0.0190476
        k(   42) = (   0.4177018   0.2411603   0.1859509), wk =   0.0380952
        k(   43) = (   0.4177018   0.2411603   0.3719019), wk =   0.0380952
        k(   44) = (   0.4177018   0.2411603   0.5578528), wk =   0.0380952
        k(   45) = (   0.4177018   0.4421271   0.0000000), wk =   0.0190476
        k(   46) = (   0.4177018   0.4421271   0.1859509), wk =   0.0380952
        k(   47) = (   0.4177018   0.4421271   0.3719019), wk =   0.0380952
        k(   48) = (   0.4177018   0.4421271   0.5578528), wk =   0.0380952
        k(   49) = (   0.4177018   0.6430940   0.0000000), wk =   0.0190476
        k(   50) = (   0.4177018   0.6430940   0.1859509), wk =   0.0380952
        k(   51) = (   0.4177018   0.6430940   0.3719019), wk =   0.0380952
        k(   52) = (   0.4177018   0.6430940   0.5578528), wk =   0.0380952
        k(   53) = (   0.4177018  -0.3617404   0.0000000), wk =   0.0190476
        k(   54) = (   0.4177018  -0.3617404   0.1859509), wk =   0.0380952
        k(   55) = (   0.4177018  -0.3617404   0.3719019), wk =   0.0380952
        k(   56) = (   0.4177018  -0.3617404   0.5578528), wk =   0.0380952
        k(   57) = (   0.4177018  -0.1607735   0.0000000), wk =   0.0190476
        k(   58) = (   0.4177018  -0.1607735   0.1859509), wk =   0.0380952
        k(   59) = (   0.4177018  -0.1607735   0.3719019), wk =   0.0380952
        k(   60) = (   0.4177018  -0.1607735   0.5578528), wk =   0.0380952
        k(   61) = (   0.4177018   0.0401934   0.0000000), wk =   0.0190476
        k(   62) = (   0.4177018   0.0401934   0.1859509), wk =   0.0380952
        k(   63) = (   0.4177018   0.0401934   0.3719019), wk =   0.0380952
        k(   64) = (   0.4177018   0.0401934   0.5578528), wk =   0.0380952

[...]

     The maximum number of steps has been reached.

     End of BFGS Geometry Optimization
Begin final coordinates
     new unit-cell volume =   1058.73697 a.u.^3 (   156.88863 Ang^3 )

CELL_PARAMETERS (alat= 12.01680127)
   0.957620921   0.000000000   0.000000000
  -0.478810460   0.829324044   0.000000000
   0.000000000   0.000000000   0.768251751

ATOMIC_POSITIONS (crystal)
Mg       0.673529224   0.836764612   0.250000000
Mg       0.836764612   0.163235388   0.750000000
Mg       0.326470776   0.163235388   0.750000000
Mg       0.163235388   0.836764612   0.250000000
Mg       0.163235388   0.326470776   0.250000000
Mg       0.836764612   0.673529224   0.750000000
Cd       0.666667000   0.333333000   0.250000000
Cd       0.333333000   0.666667000   0.750000000
End final coordinates

     A final scf calculation at the relaxed structure.
     The G-vectors are recalculated for the final unit cell
     Results may differ from those at the preceding step.

     bravais-lattice index     =            0
     lattice parameter (alat)  =      12.0168  a.u.
     unit-cell volume          =    1058.7370 (a.u.)^3
     number of atoms/cell      =            8
     number of atomic types    =            2
     number of electrons       =       126.00
     number of Kohn-Sham states=           76
     kinetic-energy cutoff     =      40.0000  Ry
     charge density cutoff     =     160.0000  Ry
     convergence threshold     =      3.5E-06
     mixing beta               =       0.7000
     number of iterations used =            8  plain     mixing
     Exchange-correlation      = SLA-PZ-NOGX-NOGC ( 1 1 0 0 0)
     EXX-fraction              =        0.00

     celldm(1)=  12.016801  celldm(2)=   0.000000  celldm(3)=   0.000000
     celldm(4)=   0.000000  celldm(5)=   0.000000  celldm(6)=   0.000000

     crystal axes: (cart. coord. in units of alat)
               a(1) = (   0.957621   0.000000   0.000000 )
               a(2) = (  -0.478810   0.829324   0.000000 )
               a(3) = (   0.000000   0.000000   0.768252 )

     reciprocal axes: (cart. coord. in units 2 pi/alat)
               b(1) = (  1.044255  0.602901  0.000000 )
               b(2) = (  0.000000  1.205801  0.000000 )
               b(3) = (  0.000000  0.000000  1.301657 )

     PseudoPot. # 1 for Eu read from file:
     /home/cwx6513/pp.La/Eu.UPF
     MD5 check sum: 5efdbbfc50c6a10138933a6429836ad2
     Pseudo is Norm-conserving, Zval = 17.0
     Generated in analytical, separable form
     Using radial grid of 1261 points,  6 beta functions with:
                l(1) =   0
                l(2) =   0
                l(3) =   1
                l(4) =   1
                l(5) =   2
                l(6) =   3

     PseudoPot. # 2 for Ce read from file:
     /home/cwx6513/pp.La/Ce.UPF
     MD5 check sum: 44451aa79a44a00cf2bc029dc19922f6
     Pseudo is Norm-conserving, Zval = 12.0
     Generated in analytical, separable form
     Using radial grid of 1255 points,  6 beta functions with:
                l(1) =   0
                l(2) =   0
                l(3) =   1
                l(4) =   1
                l(5) =   2
                l(6) =   3

     atomic species   valence    mass     pseudopotential
        Mg            17.00    24.30500     Eu( 1.00)
        Cd            12.00   112.41100     Ce( 1.00)

     24 Sym. Ops., with inversion, found (12 have fractional translation)

   Cartesian axes

     site n.     atom                  positions (alat units)
         1           Mg  tau(   1) = (   0.2443340   0.6939490   0.1920629  )
         2           Mg  tau(   2) = (   0.7231445   0.1353750   0.5761888  )
         3           Mg  tau(   3) = (   0.2344764   0.1353750   0.5761888  )
         4           Mg  tau(   4) = (  -0.2443340   0.6939490   0.1920629  )
         5           Mg  tau(   5) = (   0.0000000   0.2707501   0.1920629  )
         6           Mg  tau(   6) = (   0.4788105   0.5585740   0.5761888  )
         7           Cd  tau(   7) = (   0.4788109   0.2764411   0.1920629  )
         8           Cd  tau(   8) = (  -0.0000005   0.5528830   0.5761888  )

     number of k points=    64  gaussian smearing, width (Ry)=  0.1000
                       cart. coord. in units 2pi/alat
        k(    1) = (   0.0000000   0.0000000   0.0000000), wk =   0.0095238
        k(    2) = (   0.0000000   0.0000000   0.1859509), wk =   0.0190476
        k(    3) = (   0.0000000   0.0000000   0.3719019), wk =   0.0190476
        k(    4) = (   0.0000000   0.0000000   0.5578528), wk =   0.0190476
        k(    5) = (   0.0000000   0.2009669   0.0000000), wk =   0.0190476
        k(    6) = (   0.0000000   0.2009669   0.1859509), wk =   0.0380952
        k(    7) = (   0.0000000   0.2009669   0.3719019), wk =   0.0380952
        k(    8) = (   0.0000000   0.2009669   0.5578528), wk =   0.0380952
        k(    9) = (   0.0000000   0.4019338   0.0000000), wk =   0.0190476
        k(   10) = (   0.0000000   0.4019338   0.1859509), wk =   0.0380952
        k(   11) = (   0.0000000   0.4019338   0.3719019), wk =   0.0380952
        k(   12) = (   0.0000000   0.4019338   0.5578528), wk =   0.0380952
        k(   13) = (   0.0000000  -0.6029006   0.0000000), wk =   0.0095238
        k(   14) = (   0.0000000  -0.6029006   0.1859509), wk =   0.0190476
        k(   15) = (   0.0000000  -0.6029006   0.3719019), wk =   0.0190476
        k(   16) = (   0.0000000  -0.6029006   0.5578528), wk =   0.0190476
        k(   17) = (   0.2088509   0.1205801   0.0000000), wk =   0.0190476
        k(   18) = (   0.2088509   0.1205801   0.1859509), wk =   0.0380952
        k(   19) = (   0.2088509   0.1205801   0.3719019), wk =   0.0380952
        k(   20) = (   0.2088509   0.1205801   0.5578528), wk =   0.0380952
        k(   21) = (   0.2088509   0.3215470   0.0000000), wk =   0.0190476
        k(   22) = (   0.2088509   0.3215470   0.1859509), wk =   0.0380952
        k(   23) = (   0.2088509   0.3215470   0.3719019), wk =   0.0380952
        k(   24) = (   0.2088509   0.3215470   0.5578528), wk =   0.0380952
        k(   25) = (   0.2088509   0.5225139   0.0000000), wk =   0.0190476
        k(   26) = (   0.2088509   0.5225139   0.1859509), wk =   0.0380952
        k(   27) = (   0.2088509   0.5225139   0.3719019), wk =   0.0380952
        k(   28) = (   0.2088509   0.5225139   0.5578528), wk =   0.0380952
        k(   29) = (   0.2088509  -0.4823205   0.0000000), wk =   0.0190476
        k(   30) = (   0.2088509  -0.4823205   0.1859509), wk =   0.0380952
        k(   31) = (   0.2088509  -0.4823205   0.3719019), wk =   0.0380952
        k(   32) = (   0.2088509  -0.4823205   0.5578528), wk =   0.0380952
        k(   33) = (   0.2088509  -0.2813536   0.0000000), wk =   0.0190476
        k(   34) = (   0.2088509  -0.2813536   0.1859509), wk =   0.0380952
        k(   35) = (   0.2088509  -0.2813536   0.3719019), wk =   0.0380952
        k(   36) = (   0.2088509  -0.2813536   0.5578528), wk =   0.0380952
        k(   37) = (   0.2088509  -0.0803868   0.0000000), wk =   0.0190476
        k(   38) = (   0.2088509  -0.0803868   0.1859509), wk =   0.0380952
        k(   39) = (   0.2088509  -0.0803868   0.3719019), wk =   0.0380952
        k(   40) = (   0.2088509  -0.0803868   0.5578528), wk =   0.0380952
        k(   41) = (   0.4177018   0.2411603   0.0000000), wk =   0.0190476
        k(   42) = (   0.4177018   0.2411603   0.1859509), wk =   0.0380952
        k(   43) = (   0.4177018   0.2411603   0.3719019), wk =   0.0380952
        k(   44) = (   0.4177018   0.2411603   0.5578528), wk =   0.0380952
        k(   45) = (   0.4177018   0.4421271   0.0000000), wk =   0.0190476
        k(   46) = (   0.4177018   0.4421271   0.1859509), wk =   0.0380952
        k(   47) = (   0.4177018   0.4421271   0.3719019), wk =   0.0380952
        k(   48) = (   0.4177018   0.4421271   0.5578528), wk =   0.0380952
        k(   49) = (   0.4177018   0.6430940   0.0000000), wk =   0.0190476
        k(   50) = (   0.4177018   0.6430940   0.1859509), wk =   0.0380952
        k(   51) = (   0.4177018   0.6430940   0.3719019), wk =   0.0380952
        k(   52) = (   0.4177018   0.6430940   0.5578528), wk =   0.0380952
        k(   53) = (   0.4177018  -0.3617404   0.0000000), wk =   0.0190476
        k(   54) = (   0.4177018  -0.3617404   0.1859509), wk =   0.0380952
        k(   55) = (   0.4177018  -0.3617404   0.3719019), wk =   0.0380952
        k(   56) = (   0.4177018  -0.3617404   0.5578528), wk =   0.0380952
        k(   57) = (   0.4177018  -0.1607735   0.0000000), wk =   0.0190476
        k(   58) = (   0.4177018  -0.1607735   0.1859509), wk =   0.0380952
        k(   59) = (   0.4177018  -0.1607735   0.3719019), wk =   0.0380952
        k(   60) = (   0.4177018  -0.1607735   0.5578528), wk =   0.0380952
        k(   61) = (   0.4177018   0.0401934   0.0000000), wk =   0.0190476
        k(   62) = (   0.4177018   0.0401934   0.1859509), wk =   0.0380952
        k(   63) = (   0.4177018   0.0401934   0.3719019), wk =   0.0380952
        k(   64) = (   0.4177018   0.0401934   0.5578528), wk =   0.0380952

     Largest allocated arrays     est. size (Mb)     dimensions
     Largest temporary arrays     est. size (Mb)     dimensions

     Initial potential from superposition of free atoms

     Starting from uniform charge
     Starting wfc are    0 randomized atomic wfcs

     Writing output data file Prototype-La-hP8-Mg3Cd.save

     Self-consistent Calculation

[...]

     iteration # 11     ecut=    40.00 Ry     beta=0.70
     CG style diagonalization
     c_bands:  2 eigenvalues not converged
     c_bands:  1 eigenvalues not converged
     c_bands:  1 eigenvalues not converged
     ethr =  1.41E-06,  avg # of iterations =  4.5

[...]

     total energy              =   -1205.70173772 Ry
     Harris-Foulkes estimate   =   -1205.70173893 Ry
     estimated scf accuracy    <       0.00000493 Ry

     iteration # 15     ecut=    40.00 Ry     beta=0.70
     CG style diagonalization
     ethr =  3.59E-09,  avg # of iterations =  3.2

     End of self-consistent calculation

[...]

          k = 0.4177 0.0402 0.5579 (  4514 PWs)   bands (ev):

   -39.1196 -39.0928 -39.0671 -39.0562 -39.0447 -39.0360 -14.1115 -14.1083
   -12.2319 -12.2206 -12.1739 -12.1496 -12.1333 -12.1017 -11.8664 -11.8014
   -11.7397 -11.7275 -11.6830 -11.6402 -11.6015 -11.5977 -11.5700 -11.5389
   -11.4984 -11.4936   3.8772   3.8836   3.9482   3.9671   3.9968   4.0036
    17.7692  17.8966  17.9684  18.1940  18.2688  18.3569  18.6420  18.8509
    18.8791  18.9826  19.1152  19.4135  19.5365  19.7783  19.9471  20.1252
    20.3860  20.6750  21.1139  21.2686  21.3764  21.4591  21.6510  21.7320
    21.8681  21.9758  22.5271  22.5685  22.8994  23.0119  23.5765  23.7326
    24.0371  24.3360  25.4979  25.6202  26.0958  26.1419  26.5489  26.8270
    27.4257  27.5512  27.9701  28.2039

     the Fermi energy is    23.7456 ev

!    total energy              =   -1205.70173709 Ry
     Harris-Foulkes estimate   =   -1205.70173806 Ry
     estimated scf accuracy    <       0.00000113 Ry

     The total energy is the sum of the following terms:

     one-electron contribution =     -81.58135893 Ry
     hartree contribution      =     139.03506801 Ry
     xc contribution           =    -129.96488090 Ry
     ewald contribution        =   -1132.81231853 Ry
     smearing contrib. (-TS)   =      -0.37824674 Ry

     convergence has been achieved in  15 iterations

     Forces acting on atoms (Ry/au):

     atom    1 type  1   force =    -0.01216317   -0.00702241    0.00000000
     atom    2 type  1   force =    -0.01216317    0.00702241    0.00000000
     atom    3 type  1   force =     0.01216317    0.00702241    0.00000000
     atom    4 type  1   force =     0.01216317   -0.00702241    0.00000000
     atom    5 type  1   force =     0.00000000    0.01404482    0.00000000
     atom    6 type  1   force =     0.00000000   -0.01404482    0.00000000
     atom    7 type  2   force =     0.00000000    0.00000000    0.00000000
     atom    8 type  2   force =     0.00000000    0.00000000    0.00000000

     Total force =     0.034403     Total SCF correction =     0.000000

     entering subroutine stress ...

          total   stress  (Ry/bohr**3)                   (kbar)     P=  -35.82
  -0.00029794   0.00000000   0.00000000        -43.83      0.00      0.00
   0.00000000  -0.00029794   0.00000000          0.00    -43.83      0.00
   0.00000000   0.00000000  -0.00013466          0.00      0.00    -19.81

     Writing output data file Prototype-La-hP8-Mg3Cd.save

     General routines

     Parallel routines

   This run was terminated on:  22:26: 2  22Mar2018

   JOB DONE.