     Program PWSCF v.5.0.2 starts on 22Mar2018 at 21:11:53

     Current dimensions of program PWSCF are:
     Max number of different atomic species (ntypx) = 10
     Max number of k-points (npk) =  40000
     Max angular momentum in pseudopotentials (lmaxx) =  3
     Waiting for input...
     Reading input from standard input

     Subspace diagonalization in iterative solution of the eigenvalue problem:
     a serial algorithm will be used

     bravais-lattice index     =            0
     lattice parameter (alat)  =       9.9235  a.u.
     unit-cell volume          =    1361.0366 (a.u.)^3
     number of atoms/cell      =           12
     number of atomic types    =            2
     number of electrons       =       164.00
     number of Kohn-Sham states=           98
     kinetic-energy cutoff     =      40.0000  Ry
     charge density cutoff     =     160.0000  Ry
     convergence threshold     =      1.0E-04
     mixing beta               =       0.7000
     number of iterations used =            8  plain     mixing
     Exchange-correlation      = SLA-PZ-NOGX-NOGC ( 1 1 0 0 0)
     EXX-fraction              =        0.00
     nstep                     =           50

     celldm(1)=   9.923489  celldm(2)=   0.000000  celldm(3)=   0.000000
     celldm(4)=   0.000000  celldm(5)=   0.000000  celldm(6)=   0.000000

     crystal axes: (cart. coord. in units of alat)
               a(1) = (   1.000000   0.000000   0.000000 )
               a(2) = (  -0.500000   0.866025   0.000000 )
               a(3) = (   0.000000   0.000000   1.608222 )

     reciprocal axes: (cart. coord. in units 2 pi/alat)
               b(1) = (  1.000000  0.577350  0.000000 )
               b(2) = (  0.000000  1.154701  0.000000 )
               b(3) = (  0.000000  0.000000  0.621805 )

     PseudoPot. # 1 for Eu read from file:
     /home/cwx6513/pp.La/Eu.UPF
     MD5 check sum: 5efdbbfc50c6a10138933a6429836ad2
     Pseudo is Norm-conserving, Zval = 17.0
     Generated in analytical, separable form
     Using radial grid of 1261 points,  6 beta functions with:
                l(1) =   0
                l(2) =   0
                l(3) =   1
                l(4) =   1
                l(5) =   2
                l(6) =   3

     PseudoPot. # 2 for Ce read from file:
     /home/cwx6513/pp.La/Ce.UPF
     MD5 check sum: 44451aa79a44a00cf2bc029dc19922f6
     Pseudo is Norm-conserving, Zval = 12.0
     Generated in analytical, separable form
     Using radial grid of 1255 points,  6 beta functions with:
                l(1) =   0
                l(2) =   0
                l(3) =   1
                l(4) =   1
                l(5) =   2
                l(6) =   3

     atomic species   valence    mass     pseudopotential
        Mg            17.00    24.30500     Eu( 1.00)
        Zn            12.00    65.39000     Ce( 1.00)

     24 Sym. Ops., with inversion, found (12 have fractional translation)

   Cartesian axes

     site n.     atom                  positions (alat units)
         1           Mg  tau(   1) = (  -0.0000005   0.5773506   0.1003820  )
         2           Mg  tau(   2) = (   0.5000005   0.2886748   0.9044931  )
         3           Mg  tau(   3) = (   0.5000005   0.2886748   1.5078402  )
         4           Mg  tau(   4) = (  -0.0000005   0.5773506   0.7037291  )
         5           Zn  tau(   5) = (   0.0000000   0.0000000   0.0000000  )
         6           Zn  tau(   6) = (   0.0000000   0.0000000   0.8041111  )
         7           Zn  tau(   7) = (   0.0000000   0.2950739   1.2061667  )
         8           Zn  tau(   8) = (   0.7444585   0.1475370   0.4020556  )
         9           Zn  tau(   9) = (   0.2555415   0.1475370   0.4020556  )
        10           Zn  tau(  10) = (   0.2444585   0.7184884   1.2061667  )
        11           Zn  tau(  11) = (  -0.2444585   0.7184884   1.2061667  )
        12           Zn  tau(  12) = (   0.5000000   0.5709515   0.4020556  )

     number of k points=    12  gaussian smearing, width (Ry)=  0.1000
                       cart. coord. in units 2pi/alat
        k(    1) = (   0.0000000   0.0000000   0.0000000), wk =   0.0833333
        k(    2) = (   0.0000000   0.0000000   0.1554512), wk =   0.1666667
        k(    3) = (   0.0000000   0.0000000  -0.3109023), wk =   0.0833333
        k(    4) = (   0.0000000   0.3849002   0.0000000), wk =   0.1666667
        k(    5) = (   0.0000000   0.3849002   0.1554512), wk =   0.3333333
        k(    6) = (   0.0000000   0.3849002  -0.3109023), wk =   0.1666667
        k(    7) = (  -0.5000000  -0.2886751   0.0000000), wk =   0.0833333
        k(    8) = (  -0.5000000  -0.2886751   0.1554512), wk =   0.1666667
        k(    9) = (  -0.5000000  -0.2886751  -0.3109023), wk =   0.0833333
        k(   10) = (  -0.5000000   0.0962250   0.0000000), wk =   0.1666667
        k(   11) = (  -0.5000000   0.0962250   0.1554512), wk =   0.3333333
        k(   12) = (  -0.5000000   0.0962250  -0.3109023), wk =   0.1666667

     Largest allocated arrays     est. size (Mb)     dimensions
     Largest temporary arrays     est. size (Mb)     dimensions

     Initial potential from superposition of free atoms

     Starting from uniform charge
     Starting wfc are    0 randomized atomic wfcs

     Self-consistent Calculation

     iteration #  1     ecut=    40.00 Ry     beta=0.70
     CG style diagonalization
     c_bands:  1 eigenvalues not converged
     c_bands:  3 eigenvalues not converged
     c_bands:  1 eigenvalues not converged
     c_bands:  1 eigenvalues not converged
     ethr =  1.00E-02,  avg # of iterations = 13.3

     total energy              =   -1010.26772946 Ry
     Harris-Foulkes estimate   =   -1513.04908664 Ry
     estimated scf accuracy    <     634.31693730 Ry

[...]

     iteration #  4     ecut=    40.00 Ry     beta=0.70
     CG style diagonalization
     ethr =  1.00E-02,  avg # of iterations =  4.8

[...]

     End of self-consistent calculation

          k = 0.0000 0.0000 0.0000 (  5769 PWs)   bands (ev):

   -35.2279 -35.2143 -35.1903 -35.1735 -12.4563 -11.9542 -10.5353  -9.7238
    -9.6807  -9.6807  -9.6554  -9.6554  -8.1590  -8.1512  -8.1511  -8.1158
    -8.1158  -8.0716  -7.9421  -7.9399  -7.9166  -7.9165  -7.9014  -7.9014
     1.3980   2.5407   3.5462   5.0983   5.0983   5.4345   5.4346   5.5662
     5.5662   6.7220   7.7601   7.7601   7.8381   7.8382   8.5256   9.9970
    10.3477  10.3477  10.3833  10.3994  10.9577  10.9577  11.1866  11.1866
    20.0241  21.0717  21.4217  22.2635  22.2635  22.7453  22.8346  22.8346
    22.9497  23.0847  23.0848  23.2018  23.3290  23.3290  23.4260  23.4260
    23.6921  23.6921  23.8034  24.1997  24.4058  24.4058  24.8590  24.8591
    25.1607  25.1607  25.7810  25.7810  25.9380  26.0135  26.0135  26.3391
    27.2824  27.2824  27.5637  28.6256  28.6256  28.7042  28.7042  29.4447
    29.9530  29.9530  30.7555  31.0995  31.5460  31.8097  32.0517  32.0519
    32.2374  32.8313

[...]

          k =-0.5000-0.2887 0.0000 (  5800 PWs)   bands (ev):

[...]

     the Fermi energy is    27.9074 ev

!    total energy              =   -1316.57640232 Ry
     Harris-Foulkes estimate   =   -1316.57643882 Ry
     estimated scf accuracy    <       0.00004340 Ry

     The total energy is the sum of the following terms:

     one-electron contribution =      94.97132594 Ry
     hartree contribution      =     107.51472387 Ry
     xc contribution           =    -159.71278093 Ry
     ewald contribution        =   -1358.79387250 Ry
     smearing contrib. (-TS)   =      -0.55579871 Ry

     convergence has been achieved in  10 iterations

     Forces acting on atoms (Ry/au):

     atom    1 type  1   force =     0.00000000    0.00000000   -0.00768078
     atom    2 type  1   force =     0.00000000    0.00000000   -0.00768078
     atom    3 type  1   force =     0.00000000    0.00000000    0.00768078
     atom    4 type  1   force =     0.00000000    0.00000000    0.00768078
     atom    5 type  2   force =     0.00000000    0.00000000    0.00000000
     atom    6 type  2   force =     0.00000000    0.00000000    0.00000000
     atom    7 type  2   force =     0.00000000    0.08928189    0.00000000
     atom    8 type  2   force =    -0.07732039    0.04464095    0.00000000
     atom    9 type  2   force =     0.07732039    0.04464095    0.00000000
     atom   10 type  2   force =    -0.07732039   -0.04464095    0.00000000
     atom   11 type  2   force =     0.07732039   -0.04464095    0.00000000
     atom   12 type  2   force =     0.00000000   -0.08928189    0.00000000

     Total force =     0.219234     Total SCF correction =     0.000000

     entering subroutine stress ...

          total   stress  (Ry/bohr**3)                   (kbar)     P=  966.56
   0.00658953   0.00000000   0.00000000        969.35      0.00      0.00
   0.00000000   0.00658953   0.00000000          0.00    969.35      0.00
   0.00000000   0.00000000   0.00653249          0.00      0.00    960.96

     BFGS Geometry Optimization

     number of scf cycles    =   1
     number of bfgs steps    =   0

     enthalpy new            =   -1316.5764023192 Ry

     new trust radius        =       0.5000000000 bohr
     new conv_thr            =       0.0001000000 Ry

     new unit-cell volume =   1655.99168 a.u.^3 (   245.39265 Ang^3 )

CELL_PARAMETERS (alat=  9.92348860)
   1.067764947   0.000000000   0.000000000
  -0.533882474   0.924711570   0.000000000
   0.000000000   0.000000000   1.716259978

ATOMIC_POSITIONS (crystal)
Mg       0.333333000   0.666667000   0.062220027
Mg       0.666667000   0.333333000   0.562220027
Mg       0.666667000   0.333333000   0.937779973
Mg       0.333333000   0.666667000   0.437779973
Zn       0.000000000   0.000000000   0.000000000
Zn       0.000000000   0.000000000   0.500000000
Zn       0.172497728   0.344995457   0.750000000
Zn       0.827502272   0.172497728   0.250000000
Zn       0.344995457   0.172497728   0.250000000
Zn       0.655004543   0.827502272   0.750000000
Zn       0.172497728   0.827502272   0.750000000
Zn       0.827502272   0.655004543   0.250000000

     Writing output data file Prototype-La-hP12-MgZn2.save
     NEW-OLD atomic charge density approx. for the potential
     NEW k-points:
        k(    1) = (   0.0000000   0.0000000   0.0000000), wk =   0.0833333
        k(    2) = (   0.0000000   0.0000000   0.1456656), wk =   0.1666667
        k(    3) = (   0.0000000   0.0000000  -0.2913312), wk =   0.0833333
        k(    4) = (   0.0000000   0.3604728   0.0000000), wk =   0.1666667
        k(    5) = (   0.0000000   0.3604728   0.1456656), wk =   0.3333333
        k(    6) = (   0.0000000   0.3604728  -0.2913312), wk =   0.1666667
        k(    7) = (  -0.4682679  -0.2703546   0.0000000), wk =   0.0833333
        k(    8) = (  -0.4682679  -0.2703546   0.1456656), wk =   0.1666667
        k(    9) = (  -0.4682679  -0.2703546  -0.2913312), wk =   0.0833333
        k(   10) = (  -0.4682679   0.0901182   0.0000000), wk =   0.1666667
        k(   11) = (  -0.4682679   0.0901182   0.1456656), wk =   0.3333333
        k(   12) = (  -0.4682679   0.0901182  -0.2913312), wk =   0.1666667

[...]

     enthalpy old            =   -1316.5764023192 Ry
     enthalpy new            =   -1317.5491929270 Ry

     CASE: enthalpy_new < enthalpy_old

     small trust_radius: resetting bfgs history

[...]

     number of scf cycles    =   3
     number of bfgs steps    =   2

     enthalpy old            =   -1317.5491929270 Ry
     enthalpy new            =   -1317.5627499644 Ry

     CASE: enthalpy_new < enthalpy_old

     Message from routine bfgs:
     history already reset at previous step: stopping
     small trust_radius: resetting bfgs history

     new trust radius        =       0.0987801996 bohr
     new conv_thr            =       0.0000026576 Ry

     new unit-cell volume =   1696.62440 a.u.^3 (   251.41379 Ang^3 )

[...]

ATOMIC_POSITIONS (crystal)
Mg       0.333333000   0.666667000   0.062092514
Mg       0.666667000   0.333333000   0.562092514
Mg       0.666667000   0.333333000   0.937907486
Mg       0.333333000   0.666667000   0.437907486
Zn       0.000000000   0.000000000   0.000000000
Zn       0.000000000   0.000000000   0.500000000
Zn       0.173388066   0.346776132   0.750000000
Zn       0.826611934   0.173388066   0.250000000
Zn       0.346776132   0.173388066   0.250000000
Zn       0.653223868   0.826611934   0.750000000
Zn       0.173388066   0.826611934   0.750000000
Zn       0.826611934   0.653223868   0.250000000

     Writing output data file Prototype-La-hP12-MgZn2.save
     NEW-OLD atomic charge density approx. for the potential
     NEW k-points:
        k(    1) = (   0.0000000   0.0000000   0.0000000), wk =   0.0833333
        k(    2) = (   0.0000000   0.0000000   0.1451627), wk =   0.1666667
        k(    3) = (   0.0000000   0.0000000  -0.2903254), wk =   0.0833333
        k(    4) = (   0.0000000   0.3567464   0.0000000), wk =   0.1666667
        k(    5) = (   0.0000000   0.3567464   0.1451627), wk =   0.3333333
        k(    6) = (   0.0000000   0.3567464  -0.2903254), wk =   0.1666667
        k(    7) = (  -0.4634272  -0.2675598   0.0000000), wk =   0.0833333
        k(    8) = (  -0.4634272  -0.2675598   0.1451627), wk =   0.1666667
        k(    9) = (  -0.4634272  -0.2675598  -0.2903254), wk =   0.0833333
        k(   10) = (  -0.4634272   0.0891866   0.0000000), wk =   0.1666667
        k(   11) = (  -0.4634272   0.0891866   0.1451627), wk =   0.3333333
        k(   12) = (  -0.4634272   0.0891866  -0.2903254), wk =   0.1666667

[...]

     The maximum number of steps has been reached.

     End of BFGS Geometry Optimization
Begin final coordinates
     new unit-cell volume =   1696.62440 a.u.^3 (   251.41379 Ang^3 )

CELL_PARAMETERS (alat=  9.92348860)
   1.078918130   0.000000000   0.000000000
  -0.539459065   0.934370509   0.000000000
   0.000000000   0.000000000   1.722205495

ATOMIC_POSITIONS (crystal)
Mg       0.333333000   0.666667000   0.062092514
Mg       0.666667000   0.333333000   0.562092514
Mg       0.666667000   0.333333000   0.937907486
Mg       0.333333000   0.666667000   0.437907486
Zn       0.000000000   0.000000000   0.000000000
Zn       0.000000000   0.000000000   0.500000000
Zn       0.173388066   0.346776132   0.750000000
Zn       0.826611934   0.173388066   0.250000000
Zn       0.346776132   0.173388066   0.250000000
Zn       0.653223868   0.826611934   0.750000000
Zn       0.173388066   0.826611934   0.750000000
Zn       0.826611934   0.653223868   0.250000000
End final coordinates

     A final scf calculation at the relaxed structure.
     The G-vectors are recalculated for the final unit cell
     Results may differ from those at the preceding step.

     bravais-lattice index     =            0
     lattice parameter (alat)  =       9.9235  a.u.
     unit-cell volume          =    1696.6244 (a.u.)^3
     number of atoms/cell      =           12
     number of atomic types    =            2
     number of electrons       =       164.00
     number of Kohn-Sham states=           98
     kinetic-energy cutoff     =      40.0000  Ry
     charge density cutoff     =     160.0000  Ry
     convergence threshold     =      2.7E-06
     mixing beta               =       0.7000
     number of iterations used =            8  plain     mixing
     Exchange-correlation      = SLA-PZ-NOGX-NOGC ( 1 1 0 0 0)
     EXX-fraction              =        0.00

     celldm(1)=   9.923489  celldm(2)=   0.000000  celldm(3)=   0.000000
     celldm(4)=   0.000000  celldm(5)=   0.000000  celldm(6)=   0.000000

     crystal axes: (cart. coord. in units of alat)
               a(1) = (   1.078918   0.000000   0.000000 )
               a(2) = (  -0.539459   0.934371   0.000000 )
               a(3) = (   0.000000   0.000000   1.722205 )

     reciprocal axes: (cart. coord. in units 2 pi/alat)
               b(1) = (  0.926854  0.535120  0.000000 )
               b(2) = (  0.000000  1.070239  0.000000 )
               b(3) = (  0.000000  0.000000  0.580651 )

     PseudoPot. # 1 for Eu read from file:
     /home/cwx6513/pp.La/Eu.UPF
     MD5 check sum: 5efdbbfc50c6a10138933a6429836ad2
     Pseudo is Norm-conserving, Zval = 17.0
     Generated in analytical, separable form
     Using radial grid of 1261 points,  6 beta functions with:
                l(1) =   0
                l(2) =   0
                l(3) =   1
                l(4) =   1
                l(5) =   2
                l(6) =   3

     PseudoPot. # 2 for Ce read from file:
     /home/cwx6513/pp.La/Ce.UPF
     MD5 check sum: 44451aa79a44a00cf2bc029dc19922f6
     Pseudo is Norm-conserving, Zval = 12.0
     Generated in analytical, separable form
     Using radial grid of 1255 points,  6 beta functions with:
                l(1) =   0
                l(2) =   0
                l(3) =   1
                l(4) =   1
                l(5) =   2
                l(6) =   3

     atomic species   valence    mass     pseudopotential
        Mg            17.00    24.30500     Eu( 1.00)
        Zn            12.00    65.39000     Ce( 1.00)

     24 Sym. Ops., with inversion, found (12 have fractional translation)

   Cartesian axes

     site n.     atom                  positions (alat units)
         1           Mg  tau(   1) = (  -0.0000005   0.6229140   0.1069361  )
         2           Mg  tau(   2) = (   0.5394596   0.3114565   0.9680388  )
         3           Mg  tau(   3) = (   0.5394596   0.3114565   1.6152694  )
         4           Mg  tau(   4) = (  -0.0000005   0.6229140   0.7541667  )
         5           Zn  tau(   5) = (   0.0000000   0.0000000   0.0000000  )
         6           Zn  tau(   6) = (   0.0000000   0.0000000   0.8611027  )
         7           Zn  tau(   7) = (   0.0000000   0.3240174   1.2916541  )
         8           Zn  tau(   8) = (   0.7983108   0.1620087   0.4305514  )
         9           Zn  tau(   9) = (   0.2806073   0.1620087   0.4305514  )
        10           Zn  tau(  10) = (   0.2588518   0.7723618   1.2916541  )
        11           Zn  tau(  11) = (  -0.2588518   0.7723618   1.2916541  )
        12           Zn  tau(  12) = (   0.5394591   0.6103531   0.4305514  )

     number of k points=    12  gaussian smearing, width (Ry)=  0.1000
                       cart. coord. in units 2pi/alat
        k(    1) = (   0.0000000   0.0000000   0.0000000), wk =   0.0833333
        k(    2) = (   0.0000000   0.0000000   0.1451627), wk =   0.1666667
        k(    3) = (   0.0000000   0.0000000  -0.2903254), wk =   0.0833333
        k(    4) = (   0.0000000   0.3567464   0.0000000), wk =   0.1666667
        k(    5) = (   0.0000000   0.3567464   0.1451627), wk =   0.3333333
        k(    6) = (   0.0000000   0.3567464  -0.2903254), wk =   0.1666667
        k(    7) = (  -0.4634272  -0.2675598   0.0000000), wk =   0.0833333
        k(    8) = (  -0.4634272  -0.2675598   0.1451627), wk =   0.1666667
        k(    9) = (  -0.4634272  -0.2675598  -0.2903254), wk =   0.0833333
        k(   10) = (  -0.4634272   0.0891866   0.0000000), wk =   0.1666667
        k(   11) = (  -0.4634272   0.0891866   0.1451627), wk =   0.3333333
        k(   12) = (  -0.4634272   0.0891866  -0.2903254), wk =   0.1666667

     Largest allocated arrays     est. size (Mb)     dimensions
     Largest temporary arrays     est. size (Mb)     dimensions

     Initial potential from superposition of free atoms

     Starting from uniform charge
     Starting wfc are    0 randomized atomic wfcs

     Writing output data file Prototype-La-hP12-MgZn2.save

     Self-consistent Calculation

[...]

     negative rho (up, down):  0.137E-05 0.000E+00

[...]

     iteration # 11     ecut=    40.00 Ry     beta=0.70
     CG style diagonalization
     c_bands:  1 eigenvalues not converged
     c_bands:  1 eigenvalues not converged
     c_bands:  1 eigenvalues not converged
     c_bands:  1 eigenvalues not converged
     c_bands:  1 eigenvalues not converged
     ethr =  1.84E-06,  avg # of iterations =  3.2

[...]

     total energy              =   -1318.17668325 Ry
     Harris-Foulkes estimate   =   -1318.17668968 Ry
     estimated scf accuracy    <       0.00001688 Ry

     iteration # 14     ecut=    40.00 Ry     beta=0.70
     CG style diagonalization
     ethr =  1.03E-08,  avg # of iterations =  4.4

     End of self-consistent calculation

[...]

          k = 0.0000 0.3567-0.2903 (  7246 PWs)   bands (ev):

[...]

          k =-0.4634 0.0892-0.2903 (  7256 PWs)   bands (ev):

   -40.8588 -40.8587 -40.8515 -40.8515 -16.8347 -16.8347 -16.4521 -16.4520
   -15.7832 -15.7832 -15.7201 -15.7201 -13.6396 -13.6396 -13.5945 -13.5945
   -13.5644 -13.5644 -13.5320 -13.5320 -13.5166 -13.5166 -13.4980 -13.4980
    -1.0117  -1.0117  -0.0182  -0.0182   0.7279   0.7279   0.8696   0.8696
     1.0667   1.0667   1.3560   1.3560   2.0425   2.0425   2.4945   2.4945
     2.8711   2.8711   3.1676   3.1676   3.6773   3.6773   3.8012   3.8012
    16.8902  16.8902  17.2419  17.2419  17.5128  17.5128  17.7472  17.7472
    17.7923  17.7924  18.1545  18.1545  18.4367  18.4367  18.6472  18.6473
    18.8938  18.8938  19.3062  19.3062  19.4986  19.4986  19.7302  19.7302
    20.1653  20.1653  20.3402  20.3402  20.8261  20.8261  21.2597  21.2597
    21.5605  21.5605  21.6881  21.6881  22.3423  22.3423  22.6867  22.6867
    22.8708  22.8708  23.7328  23.7328  24.0987  24.0988  24.5153  24.5156
    24.8530  24.8534

     the Fermi energy is    21.6907 ev

!    total energy              =   -1318.17669481 Ry
     Harris-Foulkes estimate   =   -1318.17669198 Ry
     estimated scf accuracy    <       0.00000159 Ry

     The total energy is the sum of the following terms:

     one-electron contribution =     -36.59606145 Ry
     hartree contribution      =     137.38432111 Ry
     xc contribution           =    -155.71764152 Ry
     ewald contribution        =   -1262.55642370 Ry
     smearing contrib. (-TS)   =      -0.69088925 Ry

     convergence has been achieved in  14 iterations

     Forces acting on atoms (Ry/au):

     atom    1 type  1   force =     0.00000000    0.00000000    0.00538279
     atom    2 type  1   force =     0.00000000    0.00000000    0.00538279
     atom    3 type  1   force =     0.00000000    0.00000000   -0.00538279
     atom    4 type  1   force =     0.00000000    0.00000000   -0.00538279
     atom    5 type  2   force =     0.00000000    0.00000000    0.00000000
     atom    6 type  2   force =     0.00000000    0.00000000    0.00000000
     atom    7 type  2   force =     0.00000000    0.00259614    0.00000000
     atom    8 type  2   force =    -0.00224833    0.00129807    0.00000000
     atom    9 type  2   force =     0.00224833    0.00129807    0.00000000
     atom   10 type  2   force =    -0.00224833   -0.00129807    0.00000000
     atom   11 type  2   force =     0.00224833   -0.00129807    0.00000000
     atom   12 type  2   force =     0.00000000   -0.00259614    0.00000000

     Total force =     0.012503     Total SCF correction =     0.000000

     entering subroutine stress ...

          total   stress  (Ry/bohr**3)                   (kbar)     P=  188.30
   0.00133161   0.00000000   0.00000000        195.89      0.00      0.00
   0.00000000   0.00133161   0.00000000          0.00    195.89      0.00
   0.00000000   0.00000000   0.00117681          0.00      0.00    173.12

     Writing output data file Prototype-La-hP12-MgZn2.save

     General routines

     Parallel routines

   This run was terminated on:  21:32:24  22Mar2018

   JOB DONE.