     Program PWSCF v.5.0.2 starts on 22Mar2018 at 21:11:54

     Current dimensions of program PWSCF are:
     Max number of different atomic species (ntypx) = 10
     Max number of k-points (npk) =  40000
     Max angular momentum in pseudopotentials (lmaxx) =  3
     Waiting for input...
     Reading input from standard input

     Subspace diagonalization in iterative solution of the eigenvalue problem:
     a serial algorithm will be used

     bravais-lattice index     =            0
     lattice parameter (alat)  =       7.0151  a.u.
     unit-cell volume          =     862.2778 (a.u.)^3
     number of atoms/cell      =           12
     number of atomic types    =            2
     number of electrons       =       184.00
     number of Kohn-Sham states=          110
     kinetic-energy cutoff     =      40.0000  Ry
     charge density cutoff     =     160.0000  Ry
     convergence threshold     =      1.0E-04
     mixing beta               =       0.7000
     number of iterations used =            8  plain     mixing
     Exchange-correlation      = SLA-PZ-NOGX-NOGC ( 1 1 0 0 0)
     EXX-fraction              =        0.00
     nstep                     =           50

     celldm(1)=   7.015105  celldm(2)=   0.000000  celldm(3)=   0.000000
     celldm(4)=   0.000000  celldm(5)=   0.000000  celldm(6)=   0.000000

     crystal axes: (cart. coord. in units of alat)
               a(1) = (   1.000000   0.000000   0.000000 )
               a(2) = (   0.000000   1.315963   0.000000 )
               a(3) = (   0.000000   0.000000   1.898020 )

     reciprocal axes: (cart. coord. in units 2 pi/alat)
               b(1) = (  1.000000  0.000000  0.000000 )
               b(2) = (  0.000000  0.759900  0.000000 )
               b(3) = (  0.000000  0.000000  0.526865 )

     PseudoPot. # 1 for Eu read from file:
     /home/cwx6513/pp.La/Eu.UPF
     MD5 check sum: 5efdbbfc50c6a10138933a6429836ad2
     Pseudo is Norm-conserving, Zval = 17.0
     Generated in analytical, separable form
     Using radial grid of 1261 points,  6 beta functions with:
                l(1) =   0
                l(2) =   0
                l(3) =   1
                l(4) =   1
                l(5) =   2
                l(6) =   3

     PseudoPot. # 2 for Ce read from file:
     /home/cwx6513/pp.La/Ce.UPF
     MD5 check sum: 44451aa79a44a00cf2bc029dc19922f6
     Pseudo is Norm-conserving, Zval = 12.0
     Generated in analytical, separable form
     Using radial grid of 1255 points,  6 beta functions with:
                l(1) =   0
                l(2) =   0
                l(3) =   1
                l(4) =   1
                l(5) =   2
                l(6) =   3

     atomic species   valence    mass     pseudopotential
        Co            17.00    58.93320     Eu( 1.00)
        Si            12.00    28.08550     Ce( 1.00)

      8 Sym. Ops., with inversion, found ( 6 have fractional translation)

   Cartesian axes

     site n.     atom                  positions (alat units)
         1           Co  tau(   1) = (   0.7500000   1.0875135   0.8270358  )
         2           Co  tau(   2) = (   0.2500000   0.2284499   1.0709846  )
         3           Co  tau(   3) = (   0.7500000   0.4295318   0.1219744  )
         4           Co  tau(   4) = (   0.2500000   0.8864316   1.7760460  )
         5           Co  tau(   5) = (   0.2500000   0.7067855   0.5358966  )
         6           Co  tau(   6) = (   0.7500000   0.6091779   1.3621238  )
         7           Co  tau(   7) = (   0.2500000   0.0488038   0.4131136  )
         8           Co  tau(   8) = (   0.7500000   1.2671596   1.4849068  )
         9           Si  tau(   9) = (   0.2500000   0.2669484   1.6960710  )
        10           Si  tau(  10) = (   0.7500000   1.0490149   0.2019494  )
        11           Si  tau(  11) = (   0.2500000   0.9249301   1.1509596  )
        12           Si  tau(  12) = (   0.7500000   0.3910333   0.7470608  )

     number of k points=    12  gaussian smearing, width (Ry)=  0.1000
                       cart. coord. in units 2pi/alat
        k(    1) = (   0.0000000   0.0000000   0.0000000), wk =   0.0833333
        k(    2) = (   0.0000000   0.0000000   0.1317162), wk =   0.1666667
        k(    3) = (   0.0000000   0.0000000  -0.2634324), wk =   0.0833333
        k(    4) = (   0.0000000   0.2532999   0.0000000), wk =   0.1666667
        k(    5) = (   0.0000000   0.2532999   0.1317162), wk =   0.3333333
        k(    6) = (   0.0000000   0.2532999  -0.2634324), wk =   0.1666667
        k(    7) = (  -0.5000000   0.0000000   0.0000000), wk =   0.0833333
        k(    8) = (  -0.5000000   0.0000000   0.1317162), wk =   0.1666667
        k(    9) = (  -0.5000000   0.0000000  -0.2634324), wk =   0.0833333
        k(   10) = (  -0.5000000   0.2532999   0.0000000), wk =   0.1666667
        k(   11) = (  -0.5000000   0.2532999   0.1317162), wk =   0.3333333
        k(   12) = (  -0.5000000   0.2532999  -0.2634324), wk =   0.1666667

     Largest allocated arrays     est. size (Mb)     dimensions
     Largest temporary arrays     est. size (Mb)     dimensions

     Initial potential from superposition of free atoms

     Starting from uniform charge
     Starting wfc are    0 randomized atomic wfcs

     Self-consistent Calculation

     iteration #  1     ecut=    40.00 Ry     beta=0.70
     CG style diagonalization
     c_bands:  1 eigenvalues not converged
     c_bands:  1 eigenvalues not converged
     c_bands:  1 eigenvalues not converged
     ethr =  1.00E-02,  avg # of iterations = 11.3

     total energy              =   -1586.86418222 Ry
     Harris-Foulkes estimate   =   -1841.70673282 Ry
     estimated scf accuracy    <     334.99119253 Ry

[...]

     iteration #  3     ecut=    40.00 Ry     beta=0.70
     CG style diagonalization
     ethr =  1.00E-02,  avg # of iterations =  6.5

[...]

     End of self-consistent calculation

          k = 0.0000 0.0000 0.0000 (  3675 PWs)   bands (ev):

   -19.4367 -18.8907 -18.8636 -18.5818 -18.4456 -18.2013 -18.1579 -18.1201
     3.6692   4.3131   4.4653   5.6022   5.8664   6.2602   6.7587   6.7918
     6.8836   7.0296   7.1091   7.2509   7.7779   7.8736   8.0553   8.0624
     8.1591   8.4319   8.6310   8.6986   8.8368   9.1636   9.3993   9.4490
     9.7970   9.9318  10.3980  10.6642  22.7201  23.4487  23.5295  23.7456
    24.2369  24.3052  24.6610  24.7389  24.8131  25.0617  25.6693  25.8892
    32.9944  33.2342  33.2752  33.9400  34.0210  34.2724  34.5977  35.0136
    35.5364  36.4880  36.7570  37.2015  37.3860  37.9304  38.1380  38.5351
    39.1498  39.4823  39.7678  39.8074  39.8883  39.9106  40.7747  40.8782
    41.2286  41.2586  41.6738  42.7131  42.9152  43.0429  43.4605  44.0953
    44.3765  44.5402  44.6656  44.7912  45.2484  45.2990  45.4413  46.3848
    46.9285  47.0755  48.0718  48.3234  48.6549  48.7069  48.9877  49.2763
    49.4799  49.6086  50.0483  50.5745  51.5828  52.2688  52.2813  52.5316
    52.9888  53.1471  53.3879  53.4601  53.7334  54.1497

[...]

          k =-0.5000 0.0000 0.0000 (  3722 PWs)   bands (ev):

[...]

     the Fermi energy is    47.7158 ev

!    total energy              =   -1698.47290653 Ry
     Harris-Foulkes estimate   =   -1698.47295187 Ry
     estimated scf accuracy    <       0.00005288 Ry

     The total energy is the sum of the following terms:

     one-electron contribution =     396.24391395 Ry
     hartree contribution      =      91.92216414 Ry
     xc contribution           =    -202.93496730 Ry
     ewald contribution        =   -1983.32076940 Ry
     smearing contrib. (-TS)   =      -0.38324792 Ry

     convergence has been achieved in   9 iterations

     Forces acting on atoms (Ry/au):

     atom    1 type  1   force =     0.00000000   -0.06028859   -0.11704372
     atom    2 type  1   force =     0.00000000    0.06028859    0.11704372
     atom    3 type  1   force =     0.00000000   -0.06028859    0.11704372
     atom    4 type  1   force =     0.00000000    0.06028859   -0.11704372
     atom    5 type  1   force =     0.00000000    0.14855412   -0.18713031
     atom    6 type  1   force =     0.00000000   -0.14855412    0.18713031
     atom    7 type  1   force =     0.00000000    0.14855412    0.18713031
     atom    8 type  1   force =     0.00000000   -0.14855412   -0.18713031
     atom    9 type  2   force =     0.00000000   -0.16119144   -0.02933751
     atom   10 type  2   force =     0.00000000    0.16119144    0.02933751
     atom   11 type  2   force =     0.00000000   -0.16119144    0.02933751
     atom   12 type  2   force =     0.00000000    0.16119144   -0.02933751

     Total force =     0.636438     Total SCF correction =     0.000000

     entering subroutine stress ...

          total   stress  (Ry/bohr**3)                   (kbar)     P= 6429.52
   0.04463805   0.00000000   0.00000000       6566.48      0.00      0.00
   0.00000000   0.04218254   0.00000000          0.00   6205.27      0.00
   0.00000000   0.00000000   0.04430050          0.00      0.00   6516.83

     BFGS Geometry Optimization

     number of scf cycles    =   1
     number of bfgs steps    =   0

     enthalpy new            =   -1698.4729065340 Ry

     new trust radius        =       0.5000000000 bohr
     new conv_thr            =       0.0001000000 Ry

     new unit-cell volume =   1096.38815 a.u.^3 (   162.46796 Ang^3 )

CELL_PARAMETERS (alat=  7.01510508)
   1.085136619   0.000000000   0.000000000
   0.000000000   1.421837003   0.000000000
   0.000000000   0.000000000   2.058389507

ATOMIC_POSITIONS (crystal)
Co       0.750000000   0.825902772   0.435065368
Co       0.250000000   0.174097228   0.564934632
Co       0.750000000   0.325902772   0.064934632
Co       0.250000000   0.674097228   0.935065368
Co       0.250000000   0.538313659   0.281272789
Co       0.750000000   0.461686341   0.718727211
Co       0.250000000   0.038313659   0.218727211
Co       0.750000000   0.961686341   0.781272789
Si       0.250000000   0.201521905   0.893431903
Si       0.750000000   0.798478095   0.106568097
Si       0.250000000   0.701521905   0.606568097
Si       0.750000000   0.298478095   0.393431903

     Writing output data file Prototype-La-oP12-Co2Si.save
     NEW-OLD atomic charge density approx. for the potential
     NEW k-points:
        k(    1) = (   0.0000000   0.0000000   0.0000000), wk =   0.0833333
        k(    2) = (   0.0000000   0.0000000   0.1214542), wk =   0.1666667
        k(    3) = (   0.0000000   0.0000000  -0.2429084), wk =   0.0833333
        k(    4) = (   0.0000000   0.2344385   0.0000000), wk =   0.1666667
        k(    5) = (   0.0000000   0.2344385   0.1214542), wk =   0.3333333
        k(    6) = (   0.0000000   0.2344385  -0.2429084), wk =   0.1666667
        k(    7) = (  -0.4607715   0.0000000   0.0000000), wk =   0.0833333
        k(    8) = (  -0.4607715   0.0000000   0.1214542), wk =   0.1666667
        k(    9) = (  -0.4607715   0.0000000  -0.2429084), wk =   0.0833333
        k(   10) = (  -0.4607715   0.2344385   0.0000000), wk =   0.1666667
        k(   11) = (  -0.4607715   0.2344385   0.1214542), wk =   0.3333333
        k(   12) = (  -0.4607715   0.2344385  -0.2429084), wk =   0.1666667

[...]

     enthalpy old            =   -1698.4729065340 Ry
     enthalpy new            =   -1704.7963128193 Ry

     CASE: enthalpy_new < enthalpy_old

     small trust_radius: resetting bfgs history

     new trust radius        =       2.4524823666 bohr
     new conv_thr            =       0.0001000000 Ry

[...]

          total   stress  (Ry/bohr**3)                   (kbar)     P=-1303.34
  -0.00905314   0.00000000   0.00000000      -1331.76      0.00      0.00
   0.00000000  -0.00863577   0.00000000          0.00  -1270.37      0.00
   0.00000000   0.00000000  -0.00889083          0.00      0.00  -1307.89

     number of scf cycles    =   3
     number of bfgs steps    =   2

     enthalpy old            =   -1704.7963128193 Ry
     enthalpy new            =   -1696.2508920440 Ry

     CASE: enthalpy_new > enthalpy_old

     new trust radius        =       0.9320717333 bohr

     trust_radius < trust_radius_min

     resetting bfgs history

     Message from routine bfgs:
     history already reset at previous step: stopping
     new conv_thr            =       0.0001000000 Ry

     new unit-cell volume =   1310.92773 a.u.^3 (   194.25944 Ang^3 )

[...]

ATOMIC_POSITIONS (crystal)
Co       0.750000000   0.825411071   0.434464961
Co       0.250000000   0.174588929   0.565535039
Co       0.750000000   0.325411071   0.065535039
Co       0.250000000   0.674588929   0.934464961
Co       0.250000000   0.539439786   0.280287672
Co       0.750000000   0.460560214   0.719712328
Co       0.250000000   0.039439786   0.219712328
Co       0.750000000   0.960560214   0.780287672
Si       0.250000000   0.200392864   0.893275348
Si       0.750000000   0.799607136   0.106724652
Si       0.250000000   0.700392864   0.606724652
Si       0.750000000   0.299607136   0.393275348

     Writing output data file Prototype-La-oP12-Co2Si.save
     NEW-OLD atomic charge density approx. for the potential
     NEW k-points:
        k(    1) = (   0.0000000   0.0000000   0.0000000), wk =   0.0833333
        k(    2) = (   0.0000000   0.0000000   0.1143044), wk =   0.1666667
        k(    3) = (   0.0000000   0.0000000  -0.2286089), wk =   0.0833333
        k(    4) = (   0.0000000   0.2220159   0.0000000), wk =   0.1666667
        k(    5) = (   0.0000000   0.2220159   0.1143044), wk =   0.3333333
        k(    6) = (   0.0000000   0.2220159  -0.2286089), wk =   0.1666667
        k(    7) = (  -0.4323798   0.0000000   0.0000000), wk =   0.0833333
        k(    8) = (  -0.4323798   0.0000000   0.1143044), wk =   0.1666667
        k(    9) = (  -0.4323798   0.0000000  -0.2286089), wk =   0.0833333
        k(   10) = (  -0.4323798   0.2220159   0.0000000), wk =   0.1666667
        k(   11) = (  -0.4323798   0.2220159   0.1143044), wk =   0.3333333
        k(   12) = (  -0.4323798   0.2220159  -0.2286089), wk =   0.1666667

[...]

     The maximum number of steps has been reached.

     End of BFGS Geometry Optimization
Begin final coordinates
     new unit-cell volume =   1310.92773 a.u.^3 (   194.25944 Ang^3 )

CELL_PARAMETERS (alat=  7.01510508)
   1.156390793   0.000000000   0.000000000
   0.000000000   1.501394114   0.000000000
   0.000000000   0.000000000   2.187141460

ATOMIC_POSITIONS (crystal)
Co       0.750000000   0.825411071   0.434464961
Co       0.250000000   0.174588929   0.565535039
Co       0.750000000   0.325411071   0.065535039
Co       0.250000000   0.674588929   0.934464961
Co       0.250000000   0.539439786   0.280287672
Co       0.750000000   0.460560214   0.719712328
Co       0.250000000   0.039439786   0.219712328
Co       0.750000000   0.960560214   0.780287672
Si       0.250000000   0.200392864   0.893275348
Si       0.750000000   0.799607136   0.106724652
Si       0.250000000   0.700392864   0.606724652
Si       0.750000000   0.299607136   0.393275348
End final coordinates

     A final scf calculation at the relaxed structure.
     The G-vectors are recalculated for the final unit cell
     Results may differ from those at the preceding step.

     bravais-lattice index     =            0
     lattice parameter (alat)  =       7.0151  a.u.
     unit-cell volume          =    1310.9277 (a.u.)^3
     number of atoms/cell      =           12
     number of atomic types    =            2
     number of electrons       =       184.00
     number of Kohn-Sham states=          110
     kinetic-energy cutoff     =      40.0000  Ry
     charge density cutoff     =     160.0000  Ry
     convergence threshold     =      1.0E-04
     mixing beta               =       0.7000
     number of iterations used =            8  plain     mixing
     Exchange-correlation      = SLA-PZ-NOGX-NOGC ( 1 1 0 0 0)
     EXX-fraction              =        0.00

     celldm(1)=   7.015105  celldm(2)=   0.000000  celldm(3)=   0.000000
     celldm(4)=   0.000000  celldm(5)=   0.000000  celldm(6)=   0.000000

     crystal axes: (cart. coord. in units of alat)
               a(1) = (   1.156391   0.000000   0.000000 )
               a(2) = (   0.000000   1.501394   0.000000 )
               a(3) = (   0.000000   0.000000   2.187141 )

     reciprocal axes: (cart. coord. in units 2 pi/alat)
               b(1) = (  0.864760  0.000000  0.000000 )
               b(2) = (  0.000000  0.666048  0.000000 )
               b(3) = (  0.000000  0.000000  0.457218 )

     PseudoPot. # 1 for Eu read from file:
     /home/cwx6513/pp.La/Eu.UPF
     MD5 check sum: 5efdbbfc50c6a10138933a6429836ad2
     Pseudo is Norm-conserving, Zval = 17.0
     Generated in analytical, separable form
     Using radial grid of 1261 points,  6 beta functions with:
                l(1) =   0
                l(2) =   0
                l(3) =   1
                l(4) =   1
                l(5) =   2
                l(6) =   3

     PseudoPot. # 2 for Ce read from file:
     /home/cwx6513/pp.La/Ce.UPF
     MD5 check sum: 44451aa79a44a00cf2bc029dc19922f6
     Pseudo is Norm-conserving, Zval = 12.0
     Generated in analytical, separable form
     Using radial grid of 1255 points,  6 beta functions with:
                l(1) =   0
                l(2) =   0
                l(3) =   1
                l(4) =   1
                l(5) =   2
                l(6) =   3

     atomic species   valence    mass     pseudopotential
        Co            17.00    58.93320     Eu( 1.00)
        Si            12.00    28.08550     Ce( 1.00)

      8 Sym. Ops., with inversion, found ( 6 have fractional translation)

   Cartesian axes

     site n.     atom                  positions (alat units)
         1           Co  tau(   1) = (   0.8672931   1.2392673   0.9502363  )
         2           Co  tau(   2) = (   0.2890977   0.2621268   1.2369051  )
         3           Co  tau(   3) = (   0.8672931   0.4885703   0.1433344  )
         4           Co  tau(   4) = (   0.2890977   1.0128238   2.0438071  )
         5           Co  tau(   5) = (   0.2890977   0.8099117   0.6130288  )
         6           Co  tau(   6) = (   0.8672931   0.6914824   1.5741127  )
         7           Co  tau(   7) = (   0.2890977   0.0592147   0.4805419  )
         8           Co  tau(   8) = (   0.8672931   1.4421795   1.7065995  )
         9           Si  tau(   9) = (   0.2890977   0.3008687   1.9537195  )
        10           Si  tau(  10) = (   0.8672931   1.2005254   0.2334219  )
        11           Si  tau(  11) = (   0.2890977   1.0515657   1.3269926  )
        12           Si  tau(  12) = (   0.8672931   0.4498284   0.8601488  )

     number of k points=    12  gaussian smearing, width (Ry)=  0.1000
                       cart. coord. in units 2pi/alat
        k(    1) = (   0.0000000   0.0000000   0.0000000), wk =   0.0833333
        k(    2) = (   0.0000000   0.0000000   0.1143044), wk =   0.1666667
        k(    3) = (   0.0000000   0.0000000  -0.2286089), wk =   0.0833333
        k(    4) = (   0.0000000   0.2220159   0.0000000), wk =   0.1666667
        k(    5) = (   0.0000000   0.2220159   0.1143044), wk =   0.3333333
        k(    6) = (   0.0000000   0.2220159  -0.2286089), wk =   0.1666667
        k(    7) = (  -0.4323798   0.0000000   0.0000000), wk =   0.0833333
        k(    8) = (  -0.4323798   0.0000000   0.1143044), wk =   0.1666667
        k(    9) = (  -0.4323798   0.0000000  -0.2286089), wk =   0.0833333
        k(   10) = (  -0.4323798   0.2220159   0.0000000), wk =   0.1666667
        k(   11) = (  -0.4323798   0.2220159   0.1143044), wk =   0.3333333
        k(   12) = (  -0.4323798   0.2220159  -0.2286089), wk =   0.1666667

     Largest allocated arrays     est. size (Mb)     dimensions
     Largest temporary arrays     est. size (Mb)     dimensions

     Initial potential from superposition of free atoms

     Starting from uniform charge
     Starting wfc are    0 randomized atomic wfcs

     Writing output data file Prototype-La-oP12-Co2Si.save

     Self-consistent Calculation

[...]

     iteration # 10     ecut=    40.00 Ry     beta=0.70
     CG style diagonalization
     c_bands:  1 eigenvalues not converged
     c_bands:  1 eigenvalues not converged
     ethr =  1.54E-06,  avg # of iterations =  3.3

     total energy              =   -1708.90913620 Ry
     Harris-Foulkes estimate   =   -1708.90937426 Ry
     estimated scf accuracy    <       0.00045554 Ry

     iteration # 11     ecut=    40.00 Ry     beta=0.70
     CG style diagonalization
     ethr =  2.48E-07,  avg # of iterations =  4.1

     End of self-consistent calculation

[...]

          k = 0.0000 0.2220-0.2286 (  5572 PWs)   bands (ev):

[...]

          k =-0.4324 0.2220-0.2286 (  5600 PWs)   bands (ev):

   -33.6236 -33.6236 -33.6169 -33.6169 -33.5104 -33.5104 -33.4533 -33.4533
    -8.9024  -8.9024  -8.7697  -8.7697  -7.0733  -7.0733  -6.8826  -6.8826
    -6.8585  -6.8585  -6.6521  -6.6521  -6.4576  -6.4576  -6.4383  -6.4383
    -6.2596  -6.2596  -6.2426  -6.2426  -6.1068  -6.1068  -6.0370  -6.0370
    -6.0159  -6.0159  -5.9667  -5.9667   9.0528   9.0528   9.2115   9.2115
     9.4483   9.4483   9.4805   9.4805   9.6397   9.6397   9.6557   9.6557
    22.3224  22.3224  22.8714  22.8714  22.9892  22.9892  23.5499  23.5499
    23.7277  23.7277  23.8343  23.8343  23.9542  23.9542  24.4838  24.4838
    24.5064  24.5064  24.7916  24.7916  24.8183  24.8183  25.2700  25.2700
    25.4577  25.4577  26.1367  26.1367  26.1765  26.1765  26.5662  26.5662
    26.6956  26.6956  27.7484  27.7484  27.9184  27.9184  28.3596  28.3596
    28.7847  28.7847  29.0558  29.0558  30.4260  30.4260  31.2400  31.2400
    31.4835  31.4835  31.5711  31.5711  32.4476  32.4476  32.4763  32.4765
    33.3440  33.3441  33.9200  33.9201  34.5761  34.5763

     the Fermi energy is    30.0721 ev

!    total energy              =   -1708.90928288 Ry
     Harris-Foulkes estimate   =   -1708.90934179 Ry
     estimated scf accuracy    <       0.00006542 Ry

     The total energy is the sum of the following terms:

     one-electron contribution =      51.04164543 Ry
     hartree contribution      =     156.92623546 Ry
     xc contribution           =    -191.35972194 Ry
     ewald contribution        =   -1725.09105700 Ry
     smearing contrib. (-TS)   =      -0.42638484 Ry

     convergence has been achieved in  11 iterations

     Forces acting on atoms (Ry/au):

     atom    1 type  1   force =     0.00000000   -0.00663428   -0.01272022
     atom    2 type  1   force =     0.00000000    0.00663428    0.01272022
     atom    3 type  1   force =     0.00000000   -0.00663428    0.01272022
     atom    4 type  1   force =     0.00000000    0.00663428   -0.01272022
     atom    5 type  1   force =     0.00000000    0.04976797   -0.07895610
     atom    6 type  1   force =     0.00000000   -0.04976797    0.07895610
     atom    7 type  1   force =     0.00000000    0.04976797    0.07895610
     atom    8 type  1   force =     0.00000000   -0.04976797   -0.07895610
     atom    9 type  2   force =     0.00000000   -0.04493074    0.00085511
     atom   10 type  2   force =     0.00000000    0.04493074   -0.00085511
     atom   11 type  2   force =     0.00000000   -0.04493074   -0.00085511
     atom   12 type  2   force =     0.00000000    0.04493074    0.00085511

     Total force =     0.209153     Total SCF correction =     0.000000

     entering subroutine stress ...

          total   stress  (Ry/bohr**3)                   (kbar)     P=  945.88
   0.00678721   0.00000000   0.00000000        998.43      0.00      0.00
   0.00000000   0.00598941   0.00000000          0.00    881.07      0.00
   0.00000000   0.00000000   0.00651328          0.00      0.00    958.14

     Writing output data file Prototype-La-oP12-Co2Si.save

     General routines

     Parallel routines

   This run was terminated on:  21:30:13  22Mar2018

   JOB DONE.