     Program PWSCF v.5.0.2 starts on 22Mar2018 at 16:17:23

     Current dimensions of program PWSCF are:
     Max number of different atomic species (ntypx) = 10
     Max number of k-points (npk) =  40000
     Max angular momentum in pseudopotentials (lmaxx) =  3
     Waiting for input...
     Reading input from standard input

     Subspace diagonalization in iterative solution of the eigenvalue problem:
     a serial algorithm will be used

     bravais-lattice index     =            0
     lattice parameter (alat)  =       7.0151  a.u.
     unit-cell volume          =     862.2778 (a.u.)^3
     number of atoms/cell      =           12
     number of atomic types    =            2
     number of electrons       =       184.00
     number of Kohn-Sham states=          110
     kinetic-energy cutoff     =      40.0000  Ry
     charge density cutoff     =     160.0000  Ry
     convergence threshold     =      1.0E-04
     mixing beta               =       0.7000
     number of iterations used =            8  plain     mixing
     Exchange-correlation      = SLA-PZ-NOGX-NOGC ( 1 1 0 0 0)
     EXX-fraction              =        0.00
     nstep                     =           50

     celldm(1)=   7.015105  celldm(2)=   0.000000  celldm(3)=   0.000000
     celldm(4)=   0.000000  celldm(5)=   0.000000  celldm(6)=   0.000000

     crystal axes: (cart. coord. in units of alat)
               a(1) = (   1.000000   0.000000   0.000000 )
               a(2) = (   0.000000   1.315963   0.000000 )
               a(3) = (   0.000000   0.000000   1.898020 )

     reciprocal axes: (cart. coord. in units 2 pi/alat)
               b(1) = (  1.000000  0.000000  0.000000 )
               b(2) = (  0.000000  0.759900  0.000000 )
               b(3) = (  0.000000  0.000000  0.526865 )

     PseudoPot. # 1 for Pr read from file:
     /home/cwx6513/pp.La/Pr.UPF
     MD5 check sum: 70e2b4b153859e92c8c91247dfc63203
     Pseudo is Norm-conserving, Zval = 13.0
     Generated in analytical, separable form
     Using radial grid of 1255 points,  6 beta functions with:
                l(1) =   0
                l(2) =   0
                l(3) =   1
                l(4) =   1
                l(5) =   2
                l(6) =   3

     PseudoPot. # 2 for Dy read from file:
     /home/cwx6513/pp.La/Dy.UPF
     MD5 check sum: 9597327bec62616a94a14d07f3fd9936
     Pseudo is Norm-conserving, Zval = 20.0
     Generated in analytical, separable form
     Using radial grid of 1265 points,  6 beta functions with:
                l(1) =   0
                l(2) =   0
                l(3) =   1
                l(4) =   1
                l(5) =   2
                l(6) =   3

     atomic species   valence    mass     pseudopotential
        Co            13.00    58.93320     Pr( 1.00)
        Si            20.00    28.08550     Dy( 1.00)

      8 Sym. Ops., with inversion, found ( 6 have fractional translation)

   Cartesian axes

     site n.     atom                  positions (alat units)
         1           Co  tau(   1) = (   0.7500000   1.0875135   0.8270358  )
         2           Co  tau(   2) = (   0.2500000   0.2284499   1.0709846  )
         3           Co  tau(   3) = (   0.7500000   0.4295318   0.1219744  )
         4           Co  tau(   4) = (   0.2500000   0.8864316   1.7760460  )
         5           Co  tau(   5) = (   0.2500000   0.7067855   0.5358966  )
         6           Co  tau(   6) = (   0.7500000   0.6091779   1.3621238  )
         7           Co  tau(   7) = (   0.2500000   0.0488038   0.4131136  )
         8           Co  tau(   8) = (   0.7500000   1.2671596   1.4849068  )
         9           Si  tau(   9) = (   0.2500000   0.2669484   1.6960710  )
        10           Si  tau(  10) = (   0.7500000   1.0490149   0.2019494  )
        11           Si  tau(  11) = (   0.2500000   0.9249301   1.1509596  )
        12           Si  tau(  12) = (   0.7500000   0.3910333   0.7470608  )

     number of k points=    12  gaussian smearing, width (Ry)=  0.1000
                       cart. coord. in units 2pi/alat
        k(    1) = (   0.0000000   0.0000000   0.0000000), wk =   0.0833333
        k(    2) = (   0.0000000   0.0000000   0.1317162), wk =   0.1666667
        k(    3) = (   0.0000000   0.0000000  -0.2634324), wk =   0.0833333
        k(    4) = (   0.0000000   0.2532999   0.0000000), wk =   0.1666667
        k(    5) = (   0.0000000   0.2532999   0.1317162), wk =   0.3333333
        k(    6) = (   0.0000000   0.2532999  -0.2634324), wk =   0.1666667
        k(    7) = (  -0.5000000   0.0000000   0.0000000), wk =   0.0833333
        k(    8) = (  -0.5000000   0.0000000   0.1317162), wk =   0.1666667
        k(    9) = (  -0.5000000   0.0000000  -0.2634324), wk =   0.0833333
        k(   10) = (  -0.5000000   0.2532999   0.0000000), wk =   0.1666667
        k(   11) = (  -0.5000000   0.2532999   0.1317162), wk =   0.3333333
        k(   12) = (  -0.5000000   0.2532999  -0.2634324), wk =   0.1666667

     Largest allocated arrays     est. size (Mb)     dimensions
     Largest temporary arrays     est. size (Mb)     dimensions

     Initial potential from superposition of free atoms

     starting charge  103.92434, renormalised to  184.00000
     Starting wfc are  160 randomized atomic wfcs

     Self-consistent Calculation

     iteration #  1     ecut=    40.00 Ry     beta=0.70
     CG style diagonalization
     ethr =  1.00E-02,  avg # of iterations = 17.8

     total energy              =    -333.13322882 Ry
     Harris-Foulkes estimate   =   -3013.57250226 Ry
     estimated scf accuracy    <    3199.95604231 Ry

[...]

     iteration #  3     ecut=    40.00 Ry     beta=0.70
     CG style diagonalization
     c_bands:  1 eigenvalues not converged
     c_bands:  1 eigenvalues not converged
     c_bands:  1 eigenvalues not converged
     ethr =  1.00E-02,  avg # of iterations = 13.0

[...]

     End of self-consistent calculation

          k = 0.0000 0.0000 0.0000 (  3675 PWs)   bands (ev):

   -39.3038 -39.2824 -39.2809 -39.2789  -7.1407  -7.1382  -7.0576  -7.0010
    -6.9698  -6.9499  -6.9396  -6.8928  -6.7873  -6.6675  -6.5165  -6.4624
     0.3462   1.9986   2.4703   2.8431   3.3206   3.8428   3.8515   4.0612
    16.8995  17.6554  18.4354  18.6643  18.9545  18.9588  19.5797  20.1557
    20.5326  20.9570  21.0132  21.2924  21.3098  22.1250  22.3605  22.8258
    22.9809  23.2094  23.6374  24.3221  24.9607  25.4384  25.9272  26.6008
    30.3980  31.0928  31.7655  31.8059  31.8276  32.0369  32.2385  32.5857
    32.6399  33.3392  33.8533  33.9232  34.2660  35.3767  35.4940  35.6514
    35.8817  36.1452  36.4552  36.6147  37.0827  39.7328  40.2118  41.1618
    41.5744  41.9245  42.1981  42.1999  42.5082  42.7622  43.2029  43.3984
    43.4281  44.4601  44.8177  44.8283  45.0858  45.2528  45.6958  46.3983
    46.8385  47.0414  47.9762  48.3446  48.5146  48.8450  49.2220  50.3254
    50.4133  50.7340  50.9335  50.9484  51.4238  51.6822  52.6434  52.9647
    53.0784  53.0919  53.7099  53.7686  53.8589  54.0131

[...]

          k =-0.5000 0.0000 0.0000 (  3722 PWs)   bands (ev):

[...]

     the Fermi energy is    47.7606 ev

!    total energy              =   -1771.74413004 Ry
     Harris-Foulkes estimate   =   -1771.74417740 Ry
     estimated scf accuracy    <       0.00005395 Ry

     The total energy is the sum of the following terms:

     one-electron contribution =     299.17310264 Ry
     hartree contribution      =     133.87989307 Ry
     xc contribution           =    -205.50495170 Ry
     ewald contribution        =   -1998.91423168 Ry
     smearing contrib. (-TS)   =      -0.37794236 Ry

     convergence has been achieved in  11 iterations

     Forces acting on atoms (Ry/au):

     atom    1 type  1   force =     0.00000000   -0.08174112   -0.07121428
     atom    2 type  1   force =     0.00000000    0.08174112    0.07121428
     atom    3 type  1   force =     0.00000000   -0.08174112    0.07121428
     atom    4 type  1   force =     0.00000000    0.08174112   -0.07121428
     atom    5 type  1   force =     0.00000000    0.17343305   -0.30017692
     atom    6 type  1   force =     0.00000000   -0.17343305    0.30017692
     atom    7 type  1   force =     0.00000000    0.17343305    0.30017692
     atom    8 type  1   force =     0.00000000   -0.17343305   -0.30017692
     atom    9 type  2   force =     0.00000000   -0.21255770   -0.02338084
     atom   10 type  2   force =     0.00000000    0.21255770    0.02338084
     atom   11 type  2   force =     0.00000000   -0.21255770    0.02338084
     atom   12 type  2   force =     0.00000000    0.21255770   -0.02338084

     Total force =     0.843008     Total SCF correction =     0.032993

     entering subroutine stress ...

          total   stress  (Ry/bohr**3)                   (kbar)     P= 6740.39
   0.04996872   0.00000000   0.00000000       7350.65      0.00      0.00
   0.00000000   0.04290625   0.00000000          0.00   6311.73      0.00
   0.00000000   0.00000000   0.04458572          0.00      0.00   6558.78

     BFGS Geometry Optimization

     number of scf cycles    =   1
     number of bfgs steps    =   0

     enthalpy new            =   -1771.7441300378 Ry

     new trust radius        =       0.5000000000 bohr
     new conv_thr            =       0.0001000000 Ry

     new unit-cell volume =   1080.36739 a.u.^3 (   160.09393 Ang^3 )

CELL_PARAMETERS (alat=  7.01510508)
   1.085136619   0.000000000   0.000000000
   0.000000000   1.412165037   0.000000000
   0.000000000   0.000000000   2.042203668

ATOMIC_POSITIONS (crystal)
Co       0.750000000   0.825797551   0.435371489
Co       0.250000000   0.174202449   0.564628511
Co       0.750000000   0.325797551   0.064628511
Co       0.250000000   0.674202449   0.935371489
Co       0.250000000   0.538366360   0.280808543
Co       0.750000000   0.461633640   0.719191457
Co       0.250000000   0.038366360   0.219191457
Co       0.750000000   0.961633640   0.780808543
Si       0.250000000   0.201284804   0.893480325
Si       0.750000000   0.798715196   0.106519675
Si       0.250000000   0.701284804   0.606519675
Si       0.750000000   0.298715196   0.393480325

     Writing output data file Prototype-La-oP12-Co2Si.save
     NEW-OLD atomic charge density approx. for the potential
     NEW k-points:
        k(    1) = (   0.0000000   0.0000000   0.0000000), wk =   0.0833333
        k(    2) = (   0.0000000   0.0000000   0.1224168), wk =   0.1666667
        k(    3) = (   0.0000000   0.0000000  -0.2448336), wk =   0.0833333
        k(    4) = (   0.0000000   0.2360442   0.0000000), wk =   0.1666667
        k(    5) = (   0.0000000   0.2360442   0.1224168), wk =   0.3333333
        k(    6) = (   0.0000000   0.2360442  -0.2448336), wk =   0.1666667
        k(    7) = (  -0.4607715   0.0000000   0.0000000), wk =   0.0833333
        k(    8) = (  -0.4607715   0.0000000   0.1224168), wk =   0.1666667
        k(    9) = (  -0.4607715   0.0000000  -0.2448336), wk =   0.0833333
        k(   10) = (  -0.4607715   0.2360442   0.0000000), wk =   0.1666667
        k(   11) = (  -0.4607715   0.2360442   0.1224168), wk =   0.3333333
        k(   12) = (  -0.4607715   0.2360442  -0.2448336), wk =   0.1666667
     Check: negative starting charge=   -0.010732

     negative rho (up, down):  0.112E-01 0.000E+00
     extrapolated charge  204.97880, renormalised to  184.00000

[...]

     negative rho (up, down):  0.237E-02 0.000E+00

[...]

     enthalpy old            =   -1771.7441300378 Ry
     enthalpy new            =   -1778.3250978176 Ry

     CASE: enthalpy_new < enthalpy_old

     small trust_radius: resetting bfgs history

     new trust radius        =       3.1907855310 bohr
     new conv_thr            =       0.0001000000 Ry

[...]

     Writing output data file Prototype-La-oP12-Co2Si.save
     Check: negative starting charge=   -0.010732
     NEW-OLD atomic charge density approx. for the potential
     NEW k-points:
        k(    1) = (   0.0000000   0.0000000   0.0000000), wk =   0.0833333
        k(    2) = (   0.0000000   0.0000000   0.0854708), wk =   0.1666667
        k(    3) = (   0.0000000   0.0000000  -0.1709416), wk =   0.0833333
        k(    4) = (   0.0000000   0.1676303   0.0000000), wk =   0.1666667
        k(    5) = (   0.0000000   0.1676303   0.0854708), wk =   0.3333333
        k(    6) = (   0.0000000   0.1676303  -0.1709416), wk =   0.1666667
        k(    7) = (  -0.3102044   0.0000000   0.0000000), wk =   0.0833333
        k(    8) = (  -0.3102044   0.0000000   0.0854708), wk =   0.1666667
        k(    9) = (  -0.3102044   0.0000000  -0.1709416), wk =   0.0833333
        k(   10) = (  -0.3102044   0.1676303   0.0000000), wk =   0.1666667
        k(   11) = (  -0.3102044   0.1676303   0.0854708), wk =   0.3333333
        k(   12) = (  -0.3102044   0.1676303  -0.1709416), wk =   0.1666667
     Check: negative starting charge=   -0.004246

[...]

          total   stress  (Ry/bohr**3)                   (kbar)     P=-1584.03
  -0.01160252   0.00000000   0.00000000      -1706.79      0.00      0.00
   0.00000000  -0.01017909   0.00000000          0.00  -1497.40      0.00
   0.00000000   0.00000000  -0.01052249          0.00      0.00  -1547.91

     number of scf cycles    =   3
     number of bfgs steps    =   2

     enthalpy old            =   -1778.3250978176 Ry
     enthalpy new            =   -1765.5163516495 Ry

     CASE: enthalpy_new > enthalpy_old

     new trust radius        =       1.2406743360 bohr

     trust_radius < trust_radius_min

     resetting bfgs history

     Message from routine bfgs:
     history already reset at previous step: stopping
     new conv_thr            =       0.0001000000 Ry

     new unit-cell volume =   1272.92505 a.u.^3 (   188.62803 Ang^3 )

[...]

ATOMIC_POSITIONS (crystal)
Co       0.750000000   0.825354297   0.435165566
Co       0.250000000   0.174645703   0.564834434
Co       0.750000000   0.325354297   0.064834434
Co       0.250000000   0.674645703   0.935165566
Co       0.250000000   0.539349697   0.279661349
Co       0.750000000   0.460650303   0.720338651
Co       0.250000000   0.039349697   0.220338651
Co       0.750000000   0.960650303   0.779661349
Si       0.250000000   0.200225588   0.893456906
Si       0.750000000   0.799774412   0.106543094
Si       0.250000000   0.700225588   0.606543094
Si       0.750000000   0.299774412   0.393456906

     Writing output data file Prototype-La-oP12-Co2Si.save
     Check: negative starting charge=   -0.004246
     NEW-OLD atomic charge density approx. for the potential
     NEW k-points:
        k(    1) = (   0.0000000   0.0000000   0.0000000), wk =   0.0833333
        k(    2) = (   0.0000000   0.0000000   0.1161397), wk =   0.1666667
        k(    3) = (   0.0000000   0.0000000  -0.2322793), wk =   0.0833333
        k(    4) = (   0.0000000   0.2249488   0.0000000), wk =   0.1666667
        k(    5) = (   0.0000000   0.2249488   0.1161397), wk =   0.3333333
        k(    6) = (   0.0000000   0.2249488  -0.2322793), wk =   0.1666667
        k(    7) = (  -0.4325379   0.0000000   0.0000000), wk =   0.0833333
        k(    8) = (  -0.4325379   0.0000000   0.1161397), wk =   0.1666667
        k(    9) = (  -0.4325379   0.0000000  -0.2322793), wk =   0.0833333
        k(   10) = (  -0.4325379   0.2249488   0.0000000), wk =   0.1666667
        k(   11) = (  -0.4325379   0.2249488   0.1161397), wk =   0.3333333
        k(   12) = (  -0.4325379   0.2249488  -0.2322793), wk =   0.1666667
     Check: negative starting charge=   -0.022654

     negative rho (up, down):  0.721E+02 0.000E+00
     extrapolated charge   23.69102, renormalised to  184.00000

[...]

     The maximum number of steps has been reached.

     End of BFGS Geometry Optimization
Begin final coordinates
     new unit-cell volume =   1272.92505 a.u.^3 (   188.62803 Ang^3 )

CELL_PARAMETERS (alat=  7.01510508)
   1.155967956   0.000000000   0.000000000
   0.000000000   1.481818515   0.000000000
   0.000000000   0.000000000   2.152580889

ATOMIC_POSITIONS (crystal)
Co       0.750000000   0.825354297   0.435165566
Co       0.250000000   0.174645703   0.564834434
Co       0.750000000   0.325354297   0.064834434
Co       0.250000000   0.674645703   0.935165566
Co       0.250000000   0.539349697   0.279661349
Co       0.750000000   0.460650303   0.720338651
Co       0.250000000   0.039349697   0.220338651
Co       0.750000000   0.960650303   0.779661349
Si       0.250000000   0.200225588   0.893456906
Si       0.750000000   0.799774412   0.106543094
Si       0.250000000   0.700225588   0.606543094
Si       0.750000000   0.299774412   0.393456906
End final coordinates

     A final scf calculation at the relaxed structure.
     The G-vectors are recalculated for the final unit cell
     Results may differ from those at the preceding step.

     bravais-lattice index     =            0
     lattice parameter (alat)  =       7.0151  a.u.
     unit-cell volume          =    1272.9251 (a.u.)^3
     number of atoms/cell      =           12
     number of atomic types    =            2
     number of electrons       =       184.00
     number of Kohn-Sham states=          110
     kinetic-energy cutoff     =      40.0000  Ry
     charge density cutoff     =     160.0000  Ry
     convergence threshold     =      1.0E-04
     mixing beta               =       0.7000
     number of iterations used =            8  plain     mixing
     Exchange-correlation      = SLA-PZ-NOGX-NOGC ( 1 1 0 0 0)
     EXX-fraction              =        0.00

     celldm(1)=   7.015105  celldm(2)=   0.000000  celldm(3)=   0.000000
     celldm(4)=   0.000000  celldm(5)=   0.000000  celldm(6)=   0.000000

     crystal axes: (cart. coord. in units of alat)
               a(1) = (   1.155968   0.000000   0.000000 )
               a(2) = (   0.000000   1.481819   0.000000 )
               a(3) = (   0.000000   0.000000   2.152581 )

     reciprocal axes: (cart. coord. in units 2 pi/alat)
               b(1) = (  0.865076  0.000000  0.000000 )
               b(2) = (  0.000000  0.674846  0.000000 )
               b(3) = (  0.000000  0.000000  0.464559 )

     PseudoPot. # 1 for Pr read from file:
     /home/cwx6513/pp.La/Pr.UPF
     MD5 check sum: 70e2b4b153859e92c8c91247dfc63203
     Pseudo is Norm-conserving, Zval = 13.0
     Generated in analytical, separable form
     Using radial grid of 1255 points,  6 beta functions with:
                l(1) =   0
                l(2) =   0
                l(3) =   1
                l(4) =   1
                l(5) =   2
                l(6) =   3

     PseudoPot. # 2 for Dy read from file:
     /home/cwx6513/pp.La/Dy.UPF
     MD5 check sum: 9597327bec62616a94a14d07f3fd9936
     Pseudo is Norm-conserving, Zval = 20.0
     Generated in analytical, separable form
     Using radial grid of 1265 points,  6 beta functions with:
                l(1) =   0
                l(2) =   0
                l(3) =   1
                l(4) =   1
                l(5) =   2
                l(6) =   3

     atomic species   valence    mass     pseudopotential
        Co            13.00    58.93320     Pr( 1.00)
        Si            20.00    28.08550     Dy( 1.00)

      8 Sym. Ops., with inversion, found ( 6 have fractional translation)

   Cartesian axes

     site n.     atom                  positions (alat units)
         1           Co  tau(   1) = (   0.8669760   1.2230253   0.9367291  )
         2           Co  tau(   2) = (   0.2889920   0.2587932   1.2158518  )
         3           Co  tau(   3) = (   0.8669760   0.4821160   0.1395614  )
         4           Co  tau(   4) = (   0.2889920   0.9997025   2.0130195  )
         5           Co  tau(   5) = (   0.2889920   0.7992184   0.6019937  )
         6           Co  tau(   6) = (   0.8669760   0.6826001   1.5505872  )
         7           Co  tau(   7) = (   0.2889920   0.0583091   0.4742968  )
         8           Co  tau(   8) = (   0.8669760   1.4235094   1.6782841  )
         9           Si  tau(   9) = (   0.2889920   0.2966980   1.9232383  )
        10           Si  tau(  10) = (   0.8669760   1.1851205   0.2293426  )
        11           Si  tau(  11) = (   0.2889920   1.0376072   1.3056331  )
        12           Si  tau(  12) = (   0.8669760   0.4442113   0.8469478  )

     number of k points=    12  gaussian smearing, width (Ry)=  0.1000
                       cart. coord. in units 2pi/alat
        k(    1) = (   0.0000000   0.0000000   0.0000000), wk =   0.0833333
        k(    2) = (   0.0000000   0.0000000   0.1161397), wk =   0.1666667
        k(    3) = (   0.0000000   0.0000000  -0.2322793), wk =   0.0833333
        k(    4) = (   0.0000000   0.2249488   0.0000000), wk =   0.1666667
        k(    5) = (   0.0000000   0.2249488   0.1161397), wk =   0.3333333
        k(    6) = (   0.0000000   0.2249488  -0.2322793), wk =   0.1666667
        k(    7) = (  -0.4325379   0.0000000   0.0000000), wk =   0.0833333
        k(    8) = (  -0.4325379   0.0000000   0.1161397), wk =   0.1666667
        k(    9) = (  -0.4325379   0.0000000  -0.2322793), wk =   0.0833333
        k(   10) = (  -0.4325379   0.2249488   0.0000000), wk =   0.1666667
        k(   11) = (  -0.4325379   0.2249488   0.1161397), wk =   0.3333333
        k(   12) = (  -0.4325379   0.2249488  -0.2322793), wk =   0.1666667

     Largest allocated arrays     est. size (Mb)     dimensions
     Largest temporary arrays     est. size (Mb)     dimensions

     Initial potential from superposition of free atoms
     Check: negative starting charge=   -0.000899

     starting charge  103.92434, renormalised to  184.00000

     negative rho (up, down):  0.159E-02 0.000E+00
     Starting wfc are  160 randomized atomic wfcs

     Writing output data file Prototype-La-oP12-Co2Si.save

     Self-consistent Calculation

[...]

     negative rho (up, down):  0.494E-04 0.000E+00

[...]

     iteration #  9     ecut=    40.00 Ry     beta=0.70
     CG style diagonalization
     ethr =  6.11E-05,  avg # of iterations =  4.0

[...]

     total energy              =   -1782.67784812 Ry
     Harris-Foulkes estimate   =   -1782.67887742 Ry
     estimated scf accuracy    <       0.00224703 Ry

     iteration # 11     ecut=    40.00 Ry     beta=0.70
     CG style diagonalization
     c_bands:  1 eigenvalues not converged
     c_bands:  1 eigenvalues not converged
     ethr =  1.22E-06,  avg # of iterations =  3.7

     End of self-consistent calculation

[...]

          k = 0.0000 0.2249-0.2323 (  5452 PWs)   bands (ev):

[...]

          k =-0.4325 0.2249-0.2323 (  5448 PWs)   bands (ev):

   -52.7028 -52.7028 -52.7015 -52.7015 -19.8539 -19.8539 -19.8422 -19.8422
   -19.8040 -19.8040 -19.8025 -19.8025 -19.6731 -19.6731 -19.6628 -19.6628
   -11.6913 -11.6913 -11.5597 -11.5597 -11.4034 -11.4034 -11.2473 -11.2473
     6.2528   6.2528   6.6626   6.6626   6.8129   6.8130   7.1070   7.1070
     7.1318   7.1318   8.0444   8.0444   8.4759   8.4759   8.7607   8.7607
     9.0361   9.0361   9.0493   9.0493   9.3666   9.3666   9.5231   9.5231
    20.2378  20.2378  20.3937  20.3937  20.5860  20.5860  20.7231  20.7231
    20.9938  20.9938  21.1095  21.1095  21.3493  21.3493  21.3862  21.3862
    21.7185  21.7185  21.7294  21.7294  25.1485  25.1485  26.1202  26.1202
    27.7037  27.7037  27.9224  27.9224  27.9836  27.9836  28.2904  28.2904
    28.2993  28.2993  29.4271  29.4271  29.6417  29.6417  30.1998  30.1998
    30.4277  30.4277  31.0414  31.0414  31.4474  31.4474  32.4856  32.4856
    32.5583  32.5583  32.9699  32.9700  33.7077  33.7077  34.7893  34.7894
    34.8662  34.8664  35.2495  35.2499  35.8587  35.8600

     the Fermi energy is    31.5705 ev

!    total energy              =   -1782.67824803 Ry
     Harris-Foulkes estimate   =   -1782.67831281 Ry
     estimated scf accuracy    <       0.00008283 Ry

     The total energy is the sum of the following terms:

     one-electron contribution =     -28.26320052 Ry
     hartree contribution      =     197.27549874 Ry
     xc contribution           =    -194.60745162 Ry
     ewald contribution        =   -1756.56873387 Ry
     smearing contrib. (-TS)   =      -0.51436075 Ry

     convergence has been achieved in  11 iterations

     Forces acting on atoms (Ry/au):

     atom    1 type  1   force =     0.00000000   -0.03901527   -0.00942705
     atom    2 type  1   force =     0.00000000    0.03901527    0.00942705
     atom    3 type  1   force =     0.00000000   -0.03901527    0.00942705
     atom    4 type  1   force =     0.00000000    0.03901527   -0.00942705
     atom    5 type  1   force =     0.00000000    0.06783975   -0.11863278
     atom    6 type  1   force =     0.00000000   -0.06783975    0.11863278
     atom    7 type  1   force =     0.00000000    0.06783975    0.11863278
     atom    8 type  1   force =     0.00000000   -0.06783975   -0.11863278
     atom    9 type  2   force =     0.00000000   -0.05678805   -0.00781584
     atom   10 type  2   force =     0.00000000    0.05678805    0.00781584
     atom   11 type  2   force =     0.00000000   -0.05678805    0.00781584
     atom   12 type  2   force =     0.00000000    0.05678805   -0.00781584

     Total force =     0.307070     Total SCF correction =     0.013515

     entering subroutine stress ...

          total   stress  (Ry/bohr**3)                   (kbar)     P= 1396.05
   0.01039152   0.00000000   0.00000000       1528.64      0.00      0.00
   0.00000000   0.00875834   0.00000000          0.00   1288.40      0.00
   0.00000000   0.00000000   0.00932059          0.00      0.00   1371.11

     Writing output data file Prototype-La-oP12-Co2Si.save

     General routines

     Parallel routines

   This run was terminated on:  16:50: 0  22Mar2018

   JOB DONE.