     Program PWSCF v.5.0.2 starts on 22Mar2018 at 16:17:20

     Current dimensions of program PWSCF are:
     Max number of different atomic species (ntypx) = 10
     Max number of k-points (npk) =  40000
     Max angular momentum in pseudopotentials (lmaxx) =  3
     Waiting for input...
     Reading input from standard input

     Subspace diagonalization in iterative solution of the eigenvalue problem:
     a serial algorithm will be used

     bravais-lattice index     =            0
     lattice parameter (alat)  =       8.5346  a.u.
     unit-cell volume          =     621.6493 (a.u.)^3
     number of atoms/cell      =            8
     number of atomic types    =            2
     number of electrons       =       118.00
     number of Kohn-Sham states=           71
     kinetic-energy cutoff     =      40.0000  Ry
     charge density cutoff     =     160.0000  Ry
     convergence threshold     =      1.0E-04
     mixing beta               =       0.7000
     number of iterations used =            8  plain     mixing
     Exchange-correlation      = SLA-PZ-NOGX-NOGC ( 1 1 0 0 0)
     EXX-fraction              =        0.00
     nstep                     =           50

     celldm(1)=   8.534573  celldm(2)=   0.000000  celldm(3)=   0.000000
     celldm(4)=   0.000000  celldm(5)=   0.000000  celldm(6)=   0.000000

     crystal axes: (cart. coord. in units of alat)
               a(1) = (   1.000000   0.000000   0.000000 )
               a(2) = (   0.000000   1.000000   0.000000 )
               a(3) = (   0.000000   0.000000   1.000000 )

     reciprocal axes: (cart. coord. in units 2 pi/alat)
               b(1) = (  1.000000  0.000000  0.000000 )
               b(2) = (  0.000000  1.000000  0.000000 )
               b(3) = (  0.000000  0.000000  1.000000 )

     PseudoPot. # 1 for Pr read from file:
     /home/cwx6513/pp.La/Pr.UPF
     MD5 check sum: 70e2b4b153859e92c8c91247dfc63203
     Pseudo is Norm-conserving, Zval = 13.0
     Generated in analytical, separable form
     Using radial grid of 1255 points,  6 beta functions with:
                l(1) =   0
                l(2) =   0
                l(3) =   1
                l(4) =   1
                l(5) =   2
                l(6) =   3

     PseudoPot. # 2 for Dy read from file:
     /home/cwx6513/pp.La/Dy.UPF
     MD5 check sum: 9597327bec62616a94a14d07f3fd9936
     Pseudo is Norm-conserving, Zval = 20.0
     Generated in analytical, separable form
     Using radial grid of 1265 points,  6 beta functions with:
                l(1) =   0
                l(2) =   0
                l(3) =   1
                l(4) =   1
                l(5) =   2
                l(6) =   3

     atomic species   valence    mass     pseudopotential
        Cr            13.00    51.99610     Pr( 1.00)
        Si            20.00    28.08550     Dy( 1.00)

     48 Sym. Ops., with inversion, found (24 have fractional translation)

   Cartesian axes

     site n.     atom                  positions (alat units)
         1           Cr  tau(   1) = (   0.0000000   0.5000000   0.2500000  )
         2           Cr  tau(   2) = (   0.0000000   0.5000000   0.7500000  )
         3           Cr  tau(   3) = (   0.5000000   0.7500000   0.0000000  )
         4           Cr  tau(   4) = (   0.5000000   0.2500000   0.0000000  )
         5           Cr  tau(   5) = (   0.7500000   0.0000000   0.5000000  )
         6           Cr  tau(   6) = (   0.2500000   0.0000000   0.5000000  )
         7           Si  tau(   7) = (   0.5000000   0.5000000   0.5000000  )
         8           Si  tau(   8) = (   0.0000000   0.0000000   0.0000000  )

     number of k points=    48  gaussian smearing, width (Ry)=  0.1000
                       cart. coord. in units 2pi/alat
        k(    1) = (   0.0000000   0.0000000   0.0000000), wk =   0.0095238
        k(    2) = (   0.0000000   0.0000000   0.1428571), wk =   0.0190476
        k(    3) = (   0.0000000   0.0000000   0.2857143), wk =   0.0190476
        k(    4) = (   0.0000000   0.0000000   0.4285714), wk =   0.0190476
        k(    5) = (   0.0000000   0.1666667   0.0000000), wk =   0.0190476
        k(    6) = (   0.0000000   0.1666667   0.1428571), wk =   0.0380952
        k(    7) = (   0.0000000   0.1666667   0.2857143), wk =   0.0380952
        k(    8) = (   0.0000000   0.1666667   0.4285714), wk =   0.0380952
        k(    9) = (   0.0000000   0.3333333   0.0000000), wk =   0.0190476
        k(   10) = (   0.0000000   0.3333333   0.1428571), wk =   0.0380952
        k(   11) = (   0.0000000   0.3333333   0.2857143), wk =   0.0380952
        k(   12) = (   0.0000000   0.3333333   0.4285714), wk =   0.0380952
        k(   13) = (   0.0000000  -0.5000000   0.0000000), wk =   0.0095238
        k(   14) = (   0.0000000  -0.5000000   0.1428571), wk =   0.0190476
        k(   15) = (   0.0000000  -0.5000000   0.2857143), wk =   0.0190476
        k(   16) = (   0.0000000  -0.5000000   0.4285714), wk =   0.0190476
        k(   17) = (   0.2000000   0.0000000   0.0000000), wk =   0.0190476
        k(   18) = (   0.2000000   0.0000000   0.1428571), wk =   0.0380952
        k(   19) = (   0.2000000   0.0000000   0.2857143), wk =   0.0380952
        k(   20) = (   0.2000000   0.0000000   0.4285714), wk =   0.0380952
        k(   21) = (   0.2000000   0.1666667   0.0000000), wk =   0.0380952
        k(   22) = (   0.2000000   0.1666667   0.1428571), wk =   0.0761905
        k(   23) = (   0.2000000   0.1666667   0.2857143), wk =   0.0761905
        k(   24) = (   0.2000000   0.1666667   0.4285714), wk =   0.0761905
        k(   25) = (   0.2000000   0.3333333   0.0000000), wk =   0.0380952
        k(   26) = (   0.2000000   0.3333333   0.1428571), wk =   0.0761905
        k(   27) = (   0.2000000   0.3333333   0.2857143), wk =   0.0761905
        k(   28) = (   0.2000000   0.3333333   0.4285714), wk =   0.0761905
        k(   29) = (   0.2000000  -0.5000000   0.0000000), wk =   0.0190476
        k(   30) = (   0.2000000  -0.5000000   0.1428571), wk =   0.0380952
        k(   31) = (   0.2000000  -0.5000000   0.2857143), wk =   0.0380952
        k(   32) = (   0.2000000  -0.5000000   0.4285714), wk =   0.0380952
        k(   33) = (   0.4000000   0.0000000   0.0000000), wk =   0.0190476
        k(   34) = (   0.4000000   0.0000000   0.1428571), wk =   0.0380952
        k(   35) = (   0.4000000   0.0000000   0.2857143), wk =   0.0380952
        k(   36) = (   0.4000000   0.0000000   0.4285714), wk =   0.0380952
        k(   37) = (   0.4000000   0.1666667   0.0000000), wk =   0.0380952
        k(   38) = (   0.4000000   0.1666667   0.1428571), wk =   0.0761905
        k(   39) = (   0.4000000   0.1666667   0.2857143), wk =   0.0761905
        k(   40) = (   0.4000000   0.1666667   0.4285714), wk =   0.0761905
        k(   41) = (   0.4000000   0.3333333   0.0000000), wk =   0.0380952
        k(   42) = (   0.4000000   0.3333333   0.1428571), wk =   0.0761905
        k(   43) = (   0.4000000   0.3333333   0.2857143), wk =   0.0761905
        k(   44) = (   0.4000000   0.3333333   0.4285714), wk =   0.0761905
        k(   45) = (   0.4000000  -0.5000000   0.0000000), wk =   0.0190476
        k(   46) = (   0.4000000  -0.5000000   0.1428571), wk =   0.0380952
        k(   47) = (   0.4000000  -0.5000000   0.2857143), wk =   0.0380952
        k(   48) = (   0.4000000  -0.5000000   0.4285714), wk =   0.0380952

     Largest allocated arrays     est. size (Mb)     dimensions
     Largest temporary arrays     est. size (Mb)     dimensions

     Initial potential from superposition of free atoms

     starting charge   77.94326, renormalised to  118.00000
     Starting wfc are  120 randomized atomic wfcs

     Self-consistent Calculation

     iteration #  1     ecut=    40.00 Ry     beta=0.70
     CG style diagonalization
     c_bands:  3 eigenvalues not converged
     c_bands:  2 eigenvalues not converged
     c_bands:  2 eigenvalues not converged
     c_bands:  3 eigenvalues not converged
     c_bands:  2 eigenvalues not converged
     c_bands:  5 eigenvalues not converged
     c_bands:  2 eigenvalues not converged
     c_bands:  5 eigenvalues not converged
     c_bands:  4 eigenvalues not converged
     c_bands:  4 eigenvalues not converged
     c_bands:  3 eigenvalues not converged
     c_bands:  5 eigenvalues not converged
     c_bands:  5 eigenvalues not converged
     c_bands:  2 eigenvalues not converged
     c_bands:  5 eigenvalues not converged
     c_bands:  1 eigenvalues not converged
     c_bands:  5 eigenvalues not converged
     c_bands:  5 eigenvalues not converged
     c_bands:  4 eigenvalues not converged
     c_bands:  2 eigenvalues not converged
     c_bands:  5 eigenvalues not converged
     c_bands:  3 eigenvalues not converged
     c_bands:  5 eigenvalues not converged
     c_bands:  2 eigenvalues not converged
     ethr =  1.00E-02,  avg # of iterations = 15.2

     total energy              =     116.44080091 Ry
     Harris-Foulkes estimate   =   -1779.49689664 Ry
     estimated scf accuracy    <    2244.60805907 Ry

     iteration #  2     ecut=    40.00 Ry     beta=0.70
     CG style diagonalization
     ethr =  1.00E-02,  avg # of iterations = 19.9

[...]

     End of self-consistent calculation

          k = 0.0000 0.0000 0.0000 (  2601 PWs)   bands (ev):

   -42.6709 -42.6492 -10.0561 -10.0561 -10.0561  -9.9787  -9.9787  -9.9787
    -4.0170  -2.2665  -2.2665   0.8135   0.8135   0.8135  11.7975  11.7975
    13.1434  15.2228  15.2228  15.2228  17.7986  17.7986  17.7986  19.6504
    19.6504  19.6504  20.0156  20.0156  20.0156  25.4087  25.4087  25.4087
    29.7766  29.7766  31.0071  31.0071  31.5017  31.5017  31.5017  32.2122
    32.2122  32.2122  33.4207  33.7467  33.7467  33.7467  34.1817  35.4140
    37.7549  37.7549  37.7549  39.2511  39.2511  40.5421  42.1327  42.1327
    42.1327  42.4304  42.4304  44.7912  44.7912  44.7912  45.4304  45.4304
    45.4304  47.8961  49.1865  49.1866  49.8244  49.8249  49.8252

[...]

     the Fermi energy is    43.4976 ev

!    total energy              =   -1071.89155632 Ry
     Harris-Foulkes estimate   =   -1071.89158460 Ry
     estimated scf accuracy    <       0.00003489 Ry

     The total energy is the sum of the following terms:

     one-electron contribution =     177.02137914 Ry
     hartree contribution      =      79.13683249 Ry
     xc contribution           =    -127.21893495 Ry
     ewald contribution        =   -1200.57935706 Ry
     smearing contrib. (-TS)   =      -0.25147593 Ry

     convergence has been achieved in  11 iterations

     Forces acting on atoms (Ry/au):

     atom    1 type  1   force =     0.00000000    0.00000000    0.00000000
     atom    2 type  1   force =     0.00000000    0.00000000    0.00000000
     atom    3 type  1   force =     0.00000000    0.00000000    0.00000000
     atom    4 type  1   force =     0.00000000    0.00000000    0.00000000
     atom    5 type  1   force =     0.00000000    0.00000000    0.00000000
     atom    6 type  1   force =     0.00000000    0.00000000    0.00000000
     atom    7 type  2   force =     0.00000000    0.00000000    0.00000000
[...]
   0.00000000   0.00000000  -0.00812685          0.00      0.00  -1195.50

     number of scf cycles    =   3
     number of bfgs steps    =   2

     enthalpy old            =   -1075.8317234756 Ry
     enthalpy new            =   -1073.9400136093 Ry

     CASE: enthalpy_new > enthalpy_old

     new trust radius        =       0.4659624778 bohr

     trust_radius < trust_radius_min

     resetting bfgs history

     Message from routine bfgs:
     history already reset at previous step: stopping
     new conv_thr            =       0.0000010000 Ry

     new unit-cell volume =   1040.07975 a.u.^3 (   154.12392 Ang^3 )

[...]

ATOMIC_POSITIONS (crystal)
Cr       0.000000000   0.500000000   0.250000000
Cr       0.000000000   0.500000000   0.750000000
Cr       0.500000000   0.750000000   0.000000000
Cr       0.500000000   0.250000000   0.000000000
Cr       0.750000000   0.000000000   0.500000000
Cr       0.250000000   0.000000000   0.500000000
Si       0.500000000   0.500000000   0.500000000
Si       0.000000000   0.000000000   0.000000000

     Writing output data file Prototype-La-cP8-Cr3Si.save
     Check: negative starting charge=   -0.045534
     NEW-OLD atomic charge density approx. for the potential
     NEW k-points:
        k(    1) = (   0.0000000   0.0000000   0.0000000), wk =   0.0095238
        k(    2) = (   0.0000000   0.0000000   0.1203358), wk =   0.0190476
        k(    3) = (   0.0000000   0.0000000   0.2406716), wk =   0.0190476
        k(    4) = (   0.0000000   0.0000000   0.3610074), wk =   0.0190476
        k(    5) = (   0.0000000   0.1403918   0.0000000), wk =   0.0190476
        k(    6) = (   0.0000000   0.1403918   0.1203358), wk =   0.0380952
        k(    7) = (   0.0000000   0.1403918   0.2406716), wk =   0.0380952
        k(    8) = (   0.0000000   0.1403918   0.3610074), wk =   0.0380952
        k(    9) = (   0.0000000   0.2807836   0.0000000), wk =   0.0190476
        k(   10) = (   0.0000000   0.2807836   0.1203358), wk =   0.0380952
        k(   11) = (   0.0000000   0.2807836   0.2406716), wk =   0.0380952
        k(   12) = (   0.0000000   0.2807836   0.3610074), wk =   0.0380952
        k(   13) = (   0.0000000  -0.4211753   0.0000000), wk =   0.0095238
        k(   14) = (   0.0000000  -0.4211753   0.1203358), wk =   0.0190476
        k(   15) = (   0.0000000  -0.4211753   0.2406716), wk =   0.0190476
        k(   16) = (   0.0000000  -0.4211753   0.3610074), wk =   0.0190476
        k(   17) = (   0.1684701   0.0000000   0.0000000), wk =   0.0190476
        k(   18) = (   0.1684701   0.0000000   0.1203358), wk =   0.0380952
        k(   19) = (   0.1684701   0.0000000   0.2406716), wk =   0.0380952
        k(   20) = (   0.1684701   0.0000000   0.3610074), wk =   0.0380952
        k(   21) = (   0.1684701   0.1403918   0.0000000), wk =   0.0380952
        k(   22) = (   0.1684701   0.1403918   0.1203358), wk =   0.0761905
        k(   23) = (   0.1684701   0.1403918   0.2406716), wk =   0.0761905
        k(   24) = (   0.1684701   0.1403918   0.3610074), wk =   0.0761905
        k(   25) = (   0.1684701   0.2807836   0.0000000), wk =   0.0380952
        k(   26) = (   0.1684701   0.2807836   0.1203358), wk =   0.0761905
        k(   27) = (   0.1684701   0.2807836   0.2406716), wk =   0.0761905
        k(   28) = (   0.1684701   0.2807836   0.3610074), wk =   0.0761905
        k(   29) = (   0.1684701  -0.4211753   0.0000000), wk =   0.0190476
        k(   30) = (   0.1684701  -0.4211753   0.1203358), wk =   0.0380952
        k(   31) = (   0.1684701  -0.4211753   0.2406716), wk =   0.0380952
        k(   32) = (   0.1684701  -0.4211753   0.3610074), wk =   0.0380952
        k(   33) = (   0.3369403   0.0000000   0.0000000), wk =   0.0190476
        k(   34) = (   0.3369403   0.0000000   0.1203358), wk =   0.0380952
        k(   35) = (   0.3369403   0.0000000   0.2406716), wk =   0.0380952
        k(   36) = (   0.3369403   0.0000000   0.3610074), wk =   0.0380952
        k(   37) = (   0.3369403   0.1403918   0.0000000), wk =   0.0380952
        k(   38) = (   0.3369403   0.1403918   0.1203358), wk =   0.0761905
        k(   39) = (   0.3369403   0.1403918   0.2406716), wk =   0.0761905
        k(   40) = (   0.3369403   0.1403918   0.3610074), wk =   0.0761905
        k(   41) = (   0.3369403   0.2807836   0.0000000), wk =   0.0380952
        k(   42) = (   0.3369403   0.2807836   0.1203358), wk =   0.0761905
        k(   43) = (   0.3369403   0.2807836   0.2406716), wk =   0.0761905
        k(   44) = (   0.3369403   0.2807836   0.3610074), wk =   0.0761905
        k(   45) = (   0.3369403  -0.4211753   0.0000000), wk =   0.0190476
        k(   46) = (   0.3369403  -0.4211753   0.1203358), wk =   0.0380952
        k(   47) = (   0.3369403  -0.4211753   0.2406716), wk =   0.0380952
        k(   48) = (   0.3369403  -0.4211753   0.3610074), wk =   0.0380952
     Check: negative starting charge=   -0.020884

     negative rho (up, down):  0.378E+01 0.000E+00
     extrapolated charge   85.89186, renormalised to  118.00000

[...]

     The maximum number of steps has been reached.

     End of BFGS Geometry Optimization
Begin final coordinates
     new unit-cell volume =   1040.07975 a.u.^3 (   154.12392 Ang^3 )

CELL_PARAMETERS (alat=  8.53457320)
   1.187154034   0.000000000   0.000000000
   0.000000000   1.187154034   0.000000000
   0.000000000   0.000000000   1.187154034

ATOMIC_POSITIONS (crystal)
Cr       0.000000000   0.500000000   0.250000000
Cr       0.000000000   0.500000000   0.750000000
Cr       0.500000000   0.750000000   0.000000000
Cr       0.500000000   0.250000000   0.000000000
Cr       0.750000000   0.000000000   0.500000000
Cr       0.250000000   0.000000000   0.500000000
Si       0.500000000   0.500000000   0.500000000
Si       0.000000000   0.000000000   0.000000000
End final coordinates

     A final scf calculation at the relaxed structure.
     The G-vectors are recalculated for the final unit cell
     Results may differ from those at the preceding step.

     bravais-lattice index     =            0
     lattice parameter (alat)  =       8.5346  a.u.
     unit-cell volume          =    1040.0797 (a.u.)^3
     number of atoms/cell      =            8
     number of atomic types    =            2
     number of electrons       =       118.00
     number of Kohn-Sham states=           71
     kinetic-energy cutoff     =      40.0000  Ry
     charge density cutoff     =     160.0000  Ry
     convergence threshold     =      1.0E-06
     mixing beta               =       0.7000
     number of iterations used =            8  plain     mixing
     Exchange-correlation      = SLA-PZ-NOGX-NOGC ( 1 1 0 0 0)
     EXX-fraction              =        0.00

     celldm(1)=   8.534573  celldm(2)=   0.000000  celldm(3)=   0.000000
     celldm(4)=   0.000000  celldm(5)=   0.000000  celldm(6)=   0.000000

     crystal axes: (cart. coord. in units of alat)
               a(1) = (   1.187154   0.000000   0.000000 )
               a(2) = (   0.000000   1.187154   0.000000 )
               a(3) = (   0.000000   0.000000   1.187154 )

     reciprocal axes: (cart. coord. in units 2 pi/alat)
               b(1) = (  0.842351  0.000000  0.000000 )
               b(2) = (  0.000000  0.842351  0.000000 )
               b(3) = (  0.000000  0.000000  0.842351 )

     PseudoPot. # 1 for Pr read from file:
     /home/cwx6513/pp.La/Pr.UPF
     MD5 check sum: 70e2b4b153859e92c8c91247dfc63203
     Pseudo is Norm-conserving, Zval = 13.0
     Generated in analytical, separable form
     Using radial grid of 1255 points,  6 beta functions with:
                l(1) =   0
                l(2) =   0
                l(3) =   1
                l(4) =   1
                l(5) =   2
                l(6) =   3

     PseudoPot. # 2 for Dy read from file:
     /home/cwx6513/pp.La/Dy.UPF
     MD5 check sum: 9597327bec62616a94a14d07f3fd9936
     Pseudo is Norm-conserving, Zval = 20.0
     Generated in analytical, separable form
     Using radial grid of 1265 points,  6 beta functions with:
                l(1) =   0
                l(2) =   0
                l(3) =   1
                l(4) =   1
                l(5) =   2
                l(6) =   3

     atomic species   valence    mass     pseudopotential
        Cr            13.00    51.99610     Pr( 1.00)
        Si            20.00    28.08550     Dy( 1.00)

     48 Sym. Ops., with inversion, found (24 have fractional translation)

   Cartesian axes

     site n.     atom                  positions (alat units)
         1           Cr  tau(   1) = (   0.0000000   0.5935770   0.2967885  )
         2           Cr  tau(   2) = (   0.0000000   0.5935770   0.8903655  )
         3           Cr  tau(   3) = (   0.5935770   0.8903655   0.0000000  )
         4           Cr  tau(   4) = (   0.5935770   0.2967885   0.0000000  )
         5           Cr  tau(   5) = (   0.8903655   0.0000000   0.5935770  )
         6           Cr  tau(   6) = (   0.2967885   0.0000000   0.5935770  )
         7           Si  tau(   7) = (   0.5935770   0.5935770   0.5935770  )
         8           Si  tau(   8) = (   0.0000000   0.0000000   0.0000000  )

     number of k points=    48  gaussian smearing, width (Ry)=  0.1000
                       cart. coord. in units 2pi/alat
        k(    1) = (   0.0000000   0.0000000   0.0000000), wk =   0.0095238
        k(    2) = (   0.0000000   0.0000000   0.1203358), wk =   0.0190476
        k(    3) = (   0.0000000   0.0000000   0.2406716), wk =   0.0190476
        k(    4) = (   0.0000000   0.0000000   0.3610074), wk =   0.0190476
        k(    5) = (   0.0000000   0.1403918   0.0000000), wk =   0.0190476
        k(    6) = (   0.0000000   0.1403918   0.1203358), wk =   0.0380952
        k(    7) = (   0.0000000   0.1403918   0.2406716), wk =   0.0380952
        k(    8) = (   0.0000000   0.1403918   0.3610074), wk =   0.0380952
        k(    9) = (   0.0000000   0.2807836   0.0000000), wk =   0.0190476
        k(   10) = (   0.0000000   0.2807836   0.1203358), wk =   0.0380952
        k(   11) = (   0.0000000   0.2807836   0.2406716), wk =   0.0380952
        k(   12) = (   0.0000000   0.2807836   0.3610074), wk =   0.0380952
        k(   13) = (   0.0000000  -0.4211753   0.0000000), wk =   0.0095238
        k(   14) = (   0.0000000  -0.4211753   0.1203358), wk =   0.0190476
        k(   15) = (   0.0000000  -0.4211753   0.2406716), wk =   0.0190476
        k(   16) = (   0.0000000  -0.4211753   0.3610074), wk =   0.0190476
        k(   17) = (   0.1684701   0.0000000   0.0000000), wk =   0.0190476
        k(   18) = (   0.1684701   0.0000000   0.1203358), wk =   0.0380952
        k(   19) = (   0.1684701   0.0000000   0.2406716), wk =   0.0380952
        k(   20) = (   0.1684701   0.0000000   0.3610074), wk =   0.0380952
        k(   21) = (   0.1684701   0.1403918   0.0000000), wk =   0.0380952
        k(   22) = (   0.1684701   0.1403918   0.1203358), wk =   0.0761905
        k(   23) = (   0.1684701   0.1403918   0.2406716), wk =   0.0761905
        k(   24) = (   0.1684701   0.1403918   0.3610074), wk =   0.0761905
        k(   25) = (   0.1684701   0.2807836   0.0000000), wk =   0.0380952
        k(   26) = (   0.1684701   0.2807836   0.1203358), wk =   0.0761905
        k(   27) = (   0.1684701   0.2807836   0.2406716), wk =   0.0761905
        k(   28) = (   0.1684701   0.2807836   0.3610074), wk =   0.0761905
        k(   29) = (   0.1684701  -0.4211753   0.0000000), wk =   0.0190476
        k(   30) = (   0.1684701  -0.4211753   0.1203358), wk =   0.0380952
        k(   31) = (   0.1684701  -0.4211753   0.2406716), wk =   0.0380952
        k(   32) = (   0.1684701  -0.4211753   0.3610074), wk =   0.0380952
        k(   33) = (   0.3369403   0.0000000   0.0000000), wk =   0.0190476
        k(   34) = (   0.3369403   0.0000000   0.1203358), wk =   0.0380952
        k(   35) = (   0.3369403   0.0000000   0.2406716), wk =   0.0380952
        k(   36) = (   0.3369403   0.0000000   0.3610074), wk =   0.0380952
        k(   37) = (   0.3369403   0.1403918   0.0000000), wk =   0.0380952
        k(   38) = (   0.3369403   0.1403918   0.1203358), wk =   0.0761905
        k(   39) = (   0.3369403   0.1403918   0.2406716), wk =   0.0761905
        k(   40) = (   0.3369403   0.1403918   0.3610074), wk =   0.0761905
        k(   41) = (   0.3369403   0.2807836   0.0000000), wk =   0.0380952
        k(   42) = (   0.3369403   0.2807836   0.1203358), wk =   0.0761905
        k(   43) = (   0.3369403   0.2807836   0.2406716), wk =   0.0761905
        k(   44) = (   0.3369403   0.2807836   0.3610074), wk =   0.0761905
        k(   45) = (   0.3369403  -0.4211753   0.0000000), wk =   0.0190476
        k(   46) = (   0.3369403  -0.4211753   0.1203358), wk =   0.0380952
        k(   47) = (   0.3369403  -0.4211753   0.2406716), wk =   0.0380952
        k(   48) = (   0.3369403  -0.4211753   0.3610074), wk =   0.0380952

     Largest allocated arrays     est. size (Mb)     dimensions
     Largest temporary arrays     est. size (Mb)     dimensions

     Initial potential from superposition of free atoms
     Check: negative starting charge=   -0.001078

     starting charge   77.94326, renormalised to  118.00000

     negative rho (up, down):  0.163E-02 0.000E+00
     Starting wfc are  120 randomized atomic wfcs

     Writing output data file Prototype-La-cP8-Cr3Si.save

     Self-consistent Calculation

[...]

     negative rho (up, down):  0.318E-04 0.000E+00

[...]

     iteration # 16     ecut=    40.00 Ry     beta=0.70
     CG style diagonalization
     c_bands:  1 eigenvalues not converged
     c_bands:  1 eigenvalues not converged
     c_bands:  1 eigenvalues not converged
     c_bands:  1 eigenvalues not converged
     c_bands:  1 eigenvalues not converged
     ethr =  2.03E-06,  avg # of iterations =  3.5

[...]

     total energy              =   -1078.36177176 Ry
     Harris-Foulkes estimate   =   -1078.36177247 Ry
     estimated scf accuracy    <       0.00000174 Ry

     iteration # 21     ecut=    40.00 Ry     beta=0.70
     CG style diagonalization
     ethr =  1.16E-09,  avg # of iterations =  3.4

     End of self-consistent calculation

[...]

          k = 0.3369-0.4212 0.3610 (  4456 PWs)   bands (ev):

   -58.2121 -58.2120 -25.1498 -25.1497 -25.1458 -25.1458 -25.1415 -25.1414
   -18.1651 -18.1333 -18.0294 -18.0278 -17.9279 -17.8926   0.7060   0.8770
     1.0730   1.0830   1.3168   1.3217   1.6341   1.7087   2.0338   2.0693
     2.1842   2.2021   2.3467   2.3574   2.4039   2.4186   2.4231   2.4723
    15.6057  15.6164  15.6691  15.6759  15.7315  15.7659  15.7853  15.7888
    15.8071  15.8189  19.8186  19.8189  21.4230  21.4538  21.9192  21.9700
    22.0365  22.0665  23.1339  23.1518  23.4182  23.4226  23.5098  23.5843
    24.9679  25.0187  25.1958  25.3557  25.4148  25.5582  26.1112  26.1722
    26.8539  26.9375  27.7018  27.7091  27.7667  27.8806  28.1196

     the Fermi energy is    24.8179 ev

!    total energy              =   -1078.36177189 Ry
     Harris-Foulkes estimate   =   -1078.36177202 Ry
     estimated scf accuracy    <       0.00000015 Ry

     The total energy is the sum of the following terms:

     one-electron contribution =     -79.82112198 Ry
     hartree contribution      =     132.09876653 Ry
     xc contribution           =    -118.91988521 Ry
     ewald contribution        =   -1011.30882993 Ry
     smearing contrib. (-TS)   =      -0.41070130 Ry

     convergence has been achieved in  21 iterations

     Forces acting on atoms (Ry/au):

     atom    1 type  1   force =     0.00000000    0.00000000    0.00000000
     atom    2 type  1   force =     0.00000000    0.00000000    0.00000000
     atom    3 type  1   force =     0.00000000    0.00000000    0.00000000
     atom    4 type  1   force =     0.00000000    0.00000000    0.00000000
     atom    5 type  1   force =     0.00000000    0.00000000    0.00000000
     atom    6 type  1   force =     0.00000000    0.00000000    0.00000000
     atom    7 type  2   force =     0.00000000    0.00000000    0.00000000
     atom    8 type  2   force =     0.00000000    0.00000000    0.00000000

     Total force =     0.000000     Total SCF correction =     0.000000

     entering subroutine stress ...

          total   stress  (Ry/bohr**3)                   (kbar)     P=  407.38
   0.00276933   0.00000000   0.00000000        407.38      0.00      0.00
   0.00000000   0.00276933   0.00000000          0.00    407.38      0.00
   0.00000000   0.00000000   0.00276933          0.00      0.00    407.38

     Writing output data file Prototype-La-cP8-Cr3Si.save

     General routines

     Parallel routines

   This run was terminated on:  16:50: 8  22Mar2018

   JOB DONE.