     Program PWSCF v.5.0.2 starts on 22Mar2018 at 22:50:27

     Current dimensions of program PWSCF are:
     Max number of different atomic species (ntypx) = 10
     Max number of k-points (npk) =  40000
     Max angular momentum in pseudopotentials (lmaxx) =  3
     Waiting for input...
     Reading input from standard input

     Subspace diagonalization in iterative solution of the eigenvalue problem:
     a serial algorithm will be used

     bravais-lattice index     =            0
     lattice parameter (alat)  =       7.0151  a.u.
     unit-cell volume          =     862.2778 (a.u.)^3
     number of atoms/cell      =           12
     number of atomic types    =            2
     number of electrons       =       236.00
     number of Kohn-Sham states=          142
     kinetic-energy cutoff     =      40.0000  Ry
     charge density cutoff     =     160.0000  Ry
     convergence threshold     =      1.0E-04
     mixing beta               =       0.7000
     number of iterations used =            8  plain     mixing
     Exchange-correlation      = SLA-PZ-NOGX-NOGC ( 1 1 0 0 0)
     EXX-fraction              =        0.00
     nstep                     =           50

     celldm(1)=   7.015105  celldm(2)=   0.000000  celldm(3)=   0.000000
     celldm(4)=   0.000000  celldm(5)=   0.000000  celldm(6)=   0.000000

     crystal axes: (cart. coord. in units of alat)
               a(1) = (   1.000000   0.000000   0.000000 )
               a(2) = (   0.000000   1.315963   0.000000 )
               a(3) = (   0.000000   0.000000   1.898020 )

     reciprocal axes: (cart. coord. in units 2 pi/alat)
               b(1) = (  1.000000  0.000000  0.000000 )
               b(2) = (  0.000000  0.759900  0.000000 )
               b(3) = (  0.000000  0.000000  0.526865 )

     PseudoPot. # 1 for Gd read from file:
     /home/cwx6513/pp.La/Gd.UPF
     MD5 check sum: 09a8be538722f05520810cb6aac0efd2
     Pseudo is Norm-conserving, Zval = 18.0
     Generated in analytical, separable form
     Using radial grid of 1263 points,  6 beta functions with:
                l(1) =   0
                l(2) =   0
                l(3) =   1
                l(4) =   1
                l(5) =   2
                l(6) =   3

     PseudoPot. # 2 for Tm read from file:
     /home/cwx6513/pp.La/Tm.UPF
     MD5 check sum: 245516e0878b5372ceeb9443ded2c4e1
     Pseudo is Norm-conserving, Zval = 23.0
     Generated in analytical, separable form
     Using radial grid of 1269 points,  6 beta functions with:
                l(1) =   0
                l(2) =   0
                l(3) =   1
                l(4) =   1
                l(5) =   2
                l(6) =   3

     atomic species   valence    mass     pseudopotential
        Co            18.00    58.93320     Gd( 1.00)
        Si            23.00    28.08550     Tm( 1.00)

      8 Sym. Ops., with inversion, found ( 6 have fractional translation)

   Cartesian axes

     site n.     atom                  positions (alat units)
         1           Co  tau(   1) = (   0.7500000   1.0875135   0.8270358  )
         2           Co  tau(   2) = (   0.2500000   0.2284499   1.0709846  )
         3           Co  tau(   3) = (   0.7500000   0.4295318   0.1219744  )
         4           Co  tau(   4) = (   0.2500000   0.8864316   1.7760460  )
         5           Co  tau(   5) = (   0.2500000   0.7067855   0.5358966  )
         6           Co  tau(   6) = (   0.7500000   0.6091779   1.3621238  )
         7           Co  tau(   7) = (   0.2500000   0.0488038   0.4131136  )
         8           Co  tau(   8) = (   0.7500000   1.2671596   1.4849068  )
         9           Si  tau(   9) = (   0.2500000   0.2669484   1.6960710  )
        10           Si  tau(  10) = (   0.7500000   1.0490149   0.2019494  )
        11           Si  tau(  11) = (   0.2500000   0.9249301   1.1509596  )
        12           Si  tau(  12) = (   0.7500000   0.3910333   0.7470608  )

     number of k points=    12  gaussian smearing, width (Ry)=  0.1000
                       cart. coord. in units 2pi/alat
        k(    1) = (   0.0000000   0.0000000   0.0000000), wk =   0.0833333
        k(    2) = (   0.0000000   0.0000000   0.1317162), wk =   0.1666667
        k(    3) = (   0.0000000   0.0000000  -0.2634324), wk =   0.0833333
        k(    4) = (   0.0000000   0.2532999   0.0000000), wk =   0.1666667
        k(    5) = (   0.0000000   0.2532999   0.1317162), wk =   0.3333333
        k(    6) = (   0.0000000   0.2532999  -0.2634324), wk =   0.1666667
        k(    7) = (  -0.5000000   0.0000000   0.0000000), wk =   0.0833333
        k(    8) = (  -0.5000000   0.0000000   0.1317162), wk =   0.1666667
        k(    9) = (  -0.5000000   0.0000000  -0.2634324), wk =   0.0833333
        k(   10) = (  -0.5000000   0.2532999   0.0000000), wk =   0.1666667
        k(   11) = (  -0.5000000   0.2532999   0.1317162), wk =   0.3333333
        k(   12) = (  -0.5000000   0.2532999  -0.2634324), wk =   0.1666667

     Largest allocated arrays     est. size (Mb)     dimensions
     Largest temporary arrays     est. size (Mb)     dimensions

     Initial potential from superposition of free atoms

     Starting from uniform charge
     Starting wfc are    0 randomized atomic wfcs

     Self-consistent Calculation

     iteration #  1     ecut=    40.00 Ry     beta=0.70
     CG style diagonalization
     c_bands:  3 eigenvalues not converged
     c_bands:  4 eigenvalues not converged
     c_bands:  1 eigenvalues not converged
     c_bands:  1 eigenvalues not converged
     c_bands:  1 eigenvalues not converged
     c_bands:  4 eigenvalues not converged
     c_bands:  4 eigenvalues not converged
     c_bands:  3 eigenvalues not converged
     ethr =  1.00E-02,  avg # of iterations = 13.2

     total energy              =   -2209.33092489 Ry
     Harris-Foulkes estimate   =   -3571.97038044 Ry
     estimated scf accuracy    <    1649.18398279 Ry

     iteration #  2     ecut=    40.00 Ry     beta=0.70
     CG style diagonalization
     ethr =  1.00E-02,  avg # of iterations = 16.7

[...]

     End of self-consistent calculation

          k = 0.0000 0.0000 0.0000 (  3675 PWs)   bands (ev):

   -60.7263 -60.7073 -60.7071 -60.6856 -20.4714 -20.3774 -20.0468 -19.9960
   -19.9227 -19.9152 -19.8884 -19.8577 -19.8544 -19.8270 -19.6739 -19.6366
   -19.6236 -19.3513 -19.1880 -18.9033 -18.8336 -18.7845 -18.7097 -18.6419
     6.9760   7.4047   7.6339   7.6692   7.8685   7.8711   8.1280   8.2142
     8.5143   8.5178   8.8308   8.8799   9.0383   9.1297   9.2688   9.3064
     9.4993   9.5154   9.6759   9.9484   9.9715  10.2955  10.7392  10.8714
    26.9944  27.1024  27.1666  27.3610  27.4170  27.4424  27.5576  27.5801
    27.6935  27.7877  27.9564  27.9974  28.0390  28.2961  28.4170  28.7043
    28.7888  28.8044  28.8313  28.9247  33.7452  34.5709  36.6696  36.7839
    37.7109  37.9910  39.0160  39.3625  39.6935  39.8634  39.8731  39.8951
    39.9238  40.1588  40.4601  40.5166  41.1102  41.2995  41.3493  41.9173
    42.4221  43.0017  43.6985  43.8514  43.9882  44.0430  44.7738  45.3570
    45.4347  45.6628  45.7744  45.9583  45.9854  46.3708  47.4159  47.9045
    47.9236  47.9418  48.0156  48.2986  48.4461  49.2705  49.9748  49.9975
    50.6106  51.3381  52.6434  53.9122  54.2813  54.4529  54.9875  55.3792
    56.3153  56.3782  56.4615  57.1322  57.4504  57.5480  57.6687  57.8220
    57.9390  58.1283  58.1560  58.2815  58.9536  59.1407  59.2254  59.9312
    60.0292  60.0613  60.2956  60.3248  60.4591  61.3320

[...]

          k =-0.5000 0.0000 0.0000 (  3722 PWs)   bands (ev):

[...]

     the Fermi energy is    54.6983 ev

!    total energy              =   -3065.79330866 Ry
     Harris-Foulkes estimate   =   -3065.79336120 Ry
     estimated scf accuracy    <       0.00005871 Ry

     The total energy is the sum of the following terms:

     one-electron contribution =     203.10499165 Ry
     hartree contribution      =     265.43955856 Ry
     xc contribution           =    -297.31874646 Ry
     ewald contribution        =   -3236.75696155 Ry
     smearing contrib. (-TS)   =      -0.26215086 Ry

     convergence has been achieved in  10 iterations

     Forces acting on atoms (Ry/au):

     atom    1 type  1   force =     0.00000000   -0.08427152   -0.02923888
     atom    2 type  1   force =     0.00000000    0.08427152    0.02923888
     atom    3 type  1   force =     0.00000000   -0.08427152    0.02923888
     atom    4 type  1   force =     0.00000000    0.08427152   -0.02923888
     atom    5 type  1   force =     0.00000000    0.13414784   -0.23377628
     atom    6 type  1   force =     0.00000000   -0.13414784    0.23377628
     atom    7 type  1   force =     0.00000000    0.13414784    0.23377628
     atom    8 type  1   force =     0.00000000   -0.13414784   -0.23377628
     atom    9 type  2   force =     0.00000000   -0.16461277    0.02339513
     atom   10 type  2   force =     0.00000000    0.16461277   -0.02339513
     atom   11 type  2   force =     0.00000000   -0.16461277   -0.02339513
     atom   12 type  2   force =     0.00000000    0.16461277    0.02339513

     Total force =     0.658022     Total SCF correction =     0.000000

     entering subroutine stress ...

          total   stress  (Ry/bohr**3)                   (kbar)     P= 7348.18
   0.05195486   0.00000000   0.00000000       7642.82      0.00      0.00
   0.00000000   0.04776216   0.00000000          0.00   7026.06      0.00
   0.00000000   0.00000000   0.05013868          0.00      0.00   7375.65

     BFGS Geometry Optimization

     number of scf cycles    =   1
     number of bfgs steps    =   0

     enthalpy new            =   -3065.7933086646 Ry

     new trust radius        =       0.5000000000 bohr
     new conv_thr            =       0.0001000000 Ry

     new unit-cell volume =   1091.81564 a.u.^3 (   161.79038 Ang^3 )

CELL_PARAMETERS (alat=  7.01510508)
   1.085136619   0.000000000   0.000000000
   0.000000000   1.418958823   0.000000000
   0.000000000   0.000000000   2.053962717

ATOMIC_POSITIONS (crystal)
Co       0.750000000   0.825802653   0.435592062
Co       0.250000000   0.174197347   0.564407938
Co       0.750000000   0.325802653   0.064407938
Co       0.250000000   0.674197347   0.935592062
Co       0.250000000   0.538038480   0.281194158
Co       0.750000000   0.461961520   0.718805842
Co       0.250000000   0.038038480   0.218805842
Co       0.750000000   0.961961520   0.781194158
Si       0.250000000   0.201685212   0.893715170
Si       0.750000000   0.798314788   0.106284830
Si       0.250000000   0.701685212   0.606284830
Si       0.750000000   0.298314788   0.393715170

     Writing output data file Prototype-La-oP12-Co2Si.save
     NEW-OLD atomic charge density approx. for the potential
     NEW k-points:
        k(    1) = (   0.0000000   0.0000000   0.0000000), wk =   0.0833333
        k(    2) = (   0.0000000   0.0000000   0.1217159), wk =   0.1666667
        k(    3) = (   0.0000000   0.0000000  -0.2434319), wk =   0.0833333
        k(    4) = (   0.0000000   0.2349140   0.0000000), wk =   0.1666667
        k(    5) = (   0.0000000   0.2349140   0.1217159), wk =   0.3333333
        k(    6) = (   0.0000000   0.2349140  -0.2434319), wk =   0.1666667
        k(    7) = (  -0.4607715   0.0000000   0.0000000), wk =   0.0833333
        k(    8) = (  -0.4607715   0.0000000   0.1217159), wk =   0.1666667
        k(    9) = (  -0.4607715   0.0000000  -0.2434319), wk =   0.0833333
        k(   10) = (  -0.4607715   0.2349140   0.0000000), wk =   0.1666667
        k(   11) = (  -0.4607715   0.2349140   0.1217159), wk =   0.3333333
        k(   12) = (  -0.4607715   0.2349140  -0.2434319), wk =   0.1666667

[...]

     enthalpy old            =   -3065.7933086646 Ry
     enthalpy new            =   -3072.6287786181 Ry

     CASE: enthalpy_new < enthalpy_old

     small trust_radius: resetting bfgs history

     new trust radius        =       2.3945290061 bohr
     new conv_thr            =       0.0001000000 Ry

[...]

          total   stress  (Ry/bohr**3)                   (kbar)     P=-2839.06
  -0.02014358   0.00000000   0.00000000      -2963.22      0.00      0.00
   0.00000000  -0.01835269   0.00000000          0.00  -2699.77      0.00
   0.00000000   0.00000000  -0.01940246          0.00      0.00  -2854.20

     number of scf cycles    =   3
     number of bfgs steps    =   2

     enthalpy old            =   -3072.6287786182 Ry
     enthalpy new            =   -3054.1377689840 Ry

     CASE: enthalpy_new > enthalpy_old

     new trust radius        =       0.6374329435 bohr

     trust_radius < trust_radius_min

     resetting bfgs history

     Message from routine bfgs:
     history already reset at previous step: stopping
     new conv_thr            =       0.0001000000 Ry

     new unit-cell volume =   1307.37770 a.u.^3 (   193.73338 Ang^3 )

[...]

ATOMIC_POSITIONS (crystal)
Co       0.750000000   0.825362355   0.435569373
Co       0.250000000   0.174637645   0.564430627
Co       0.750000000   0.325362355   0.064430627
Co       0.250000000   0.674637645   0.935569373
Co       0.250000000   0.539062378   0.279966194
Co       0.750000000   0.460937622   0.720033806
Co       0.250000000   0.039062378   0.220033806
Co       0.750000000   0.960937622   0.779966194
Si       0.250000000   0.200476732   0.893955961
Si       0.750000000   0.799523268   0.106044039
Si       0.250000000   0.700476732   0.606044039
Si       0.750000000   0.299523268   0.393955961

     Writing output data file Prototype-La-oP12-Co2Si.save
     NEW-OLD atomic charge density approx. for the potential
     NEW k-points:
        k(    1) = (   0.0000000   0.0000000   0.0000000), wk =   0.0833333
        k(    2) = (   0.0000000   0.0000000   0.1144974), wk =   0.1666667
        k(    3) = (   0.0000000   0.0000000  -0.2289948), wk =   0.0833333
        k(    4) = (   0.0000000   0.2222920   0.0000000), wk =   0.1666667
        k(    5) = (   0.0000000   0.2222920   0.1144974), wk =   0.3333333
        k(    6) = (   0.0000000   0.2222920  -0.2289948), wk =   0.1666667
        k(    7) = (  -0.4322856   0.0000000   0.0000000), wk =   0.0833333
        k(    8) = (  -0.4322856   0.0000000   0.1144974), wk =   0.1666667
        k(    9) = (  -0.4322856   0.0000000  -0.2289948), wk =   0.0833333
        k(   10) = (  -0.4322856   0.2222920   0.0000000), wk =   0.1666667
        k(   11) = (  -0.4322856   0.2222920   0.1144974), wk =   0.3333333
        k(   12) = (  -0.4322856   0.2222920  -0.2289948), wk =   0.1666667

[...]

     The maximum number of steps has been reached.

     End of BFGS Geometry Optimization
Begin final coordinates
     new unit-cell volume =   1307.37770 a.u.^3 (   193.73338 Ang^3 )

CELL_PARAMETERS (alat=  7.01510508)
   1.156642754   0.000000000   0.000000000
   0.000000000   1.499529284   0.000000000
   0.000000000   0.000000000   2.183455458

ATOMIC_POSITIONS (crystal)
Co       0.750000000   0.825362355   0.435569373
Co       0.250000000   0.174637645   0.564430627
Co       0.750000000   0.325362355   0.064430627
Co       0.250000000   0.674637645   0.935569373
Co       0.250000000   0.539062378   0.279966194
Co       0.750000000   0.460937622   0.720033806
Co       0.250000000   0.039062378   0.220033806
Co       0.750000000   0.960937622   0.779966194
Si       0.250000000   0.200476732   0.893955961
Si       0.750000000   0.799523268   0.106044039
Si       0.250000000   0.700476732   0.606044039
Si       0.750000000   0.299523268   0.393955961
End final coordinates

     A final scf calculation at the relaxed structure.
     The G-vectors are recalculated for the final unit cell
     Results may differ from those at the preceding step.

     bravais-lattice index     =            0
     lattice parameter (alat)  =       7.0151  a.u.
     unit-cell volume          =    1307.3777 (a.u.)^3
     number of atoms/cell      =           12
     number of atomic types    =            2
     number of electrons       =       236.00
     number of Kohn-Sham states=          142
     kinetic-energy cutoff     =      40.0000  Ry
     charge density cutoff     =     160.0000  Ry
     convergence threshold     =      1.0E-04
     mixing beta               =       0.7000
     number of iterations used =            8  plain     mixing
     Exchange-correlation      = SLA-PZ-NOGX-NOGC ( 1 1 0 0 0)
     EXX-fraction              =        0.00

     celldm(1)=   7.015105  celldm(2)=   0.000000  celldm(3)=   0.000000
     celldm(4)=   0.000000  celldm(5)=   0.000000  celldm(6)=   0.000000

     crystal axes: (cart. coord. in units of alat)
               a(1) = (   1.156643   0.000000   0.000000 )
               a(2) = (   0.000000   1.499529   0.000000 )
               a(3) = (   0.000000   0.000000   2.183455 )

     reciprocal axes: (cart. coord. in units 2 pi/alat)
               b(1) = (  0.864571  0.000000  0.000000 )
               b(2) = (  0.000000  0.666876  0.000000 )
               b(3) = (  0.000000  0.000000  0.457990 )

     PseudoPot. # 1 for Gd read from file:
     /home/cwx6513/pp.La/Gd.UPF
     MD5 check sum: 09a8be538722f05520810cb6aac0efd2
     Pseudo is Norm-conserving, Zval = 18.0
     Generated in analytical, separable form
     Using radial grid of 1263 points,  6 beta functions with:
                l(1) =   0
                l(2) =   0
                l(3) =   1
                l(4) =   1
                l(5) =   2
                l(6) =   3

     PseudoPot. # 2 for Tm read from file:
     /home/cwx6513/pp.La/Tm.UPF
     MD5 check sum: 245516e0878b5372ceeb9443ded2c4e1
     Pseudo is Norm-conserving, Zval = 23.0
     Generated in analytical, separable form
     Using radial grid of 1269 points,  6 beta functions with:
                l(1) =   0
                l(2) =   0
                l(3) =   1
                l(4) =   1
                l(5) =   2
                l(6) =   3

     atomic species   valence    mass     pseudopotential
        Co            18.00    58.93320     Gd( 1.00)
        Si            23.00    28.08550     Tm( 1.00)

      8 Sym. Ops., with inversion, found ( 6 have fractional translation)

   Cartesian axes

     site n.     atom                  positions (alat units)
         1           Co  tau(   1) = (   0.8674821   1.2376550   0.9510463  )
         2           Co  tau(   2) = (   0.2891607   0.2618743   1.2324091  )
         3           Co  tau(   3) = (   0.8674821   0.4878904   0.1406814  )
         4           Co  tau(   4) = (   0.2891607   1.0116389   2.0427741  )
         5           Co  tau(   5) = (   0.2891607   0.8083398   0.6112937  )
         6           Co  tau(   6) = (   0.8674821   0.6911895   1.5721617  )
         7           Co  tau(   7) = (   0.2891607   0.0585752   0.4804340  )
         8           Co  tau(   8) = (   0.8674821   1.4409541   1.7030214  )
         9           Si  tau(   9) = (   0.2891607   0.3006207   1.9519130  )
        10           Si  tau(  10) = (   0.8674821   1.1989086   0.2315424  )
        11           Si  tau(  11) = (   0.2891607   1.0503854   1.3232702  )
        12           Si  tau(  12) = (   0.8674821   0.4491439   0.8601853  )

     number of k points=    12  gaussian smearing, width (Ry)=  0.1000
                       cart. coord. in units 2pi/alat
        k(    1) = (   0.0000000   0.0000000   0.0000000), wk =   0.0833333
        k(    2) = (   0.0000000   0.0000000   0.1144974), wk =   0.1666667
        k(    3) = (   0.0000000   0.0000000  -0.2289948), wk =   0.0833333
        k(    4) = (   0.0000000   0.2222920   0.0000000), wk =   0.1666667
        k(    5) = (   0.0000000   0.2222920   0.1144974), wk =   0.3333333
        k(    6) = (   0.0000000   0.2222920  -0.2289948), wk =   0.1666667
        k(    7) = (  -0.4322856   0.0000000   0.0000000), wk =   0.0833333
        k(    8) = (  -0.4322856   0.0000000   0.1144974), wk =   0.1666667
        k(    9) = (  -0.4322856   0.0000000  -0.2289948), wk =   0.0833333
        k(   10) = (  -0.4322856   0.2222920   0.0000000), wk =   0.1666667
        k(   11) = (  -0.4322856   0.2222920   0.1144974), wk =   0.3333333
        k(   12) = (  -0.4322856   0.2222920  -0.2289948), wk =   0.1666667

     Largest allocated arrays     est. size (Mb)     dimensions
     Largest temporary arrays     est. size (Mb)     dimensions

     Initial potential from superposition of free atoms

     Starting from uniform charge
     Starting wfc are    0 randomized atomic wfcs

     Writing output data file Prototype-La-oP12-Co2Si.save

     Self-consistent Calculation

[...]

     iteration #  7     ecut=    40.00 Ry     beta=0.70
     CG style diagonalization
     ethr =  5.73E-04,  avg # of iterations =  4.2

[...]

     total energy              =   -3078.68257664 Ry
     Harris-Foulkes estimate   =   -3078.68299015 Ry
     estimated scf accuracy    <       0.00076561 Ry

     iteration # 11     ecut=    40.00 Ry     beta=0.70
     CG style diagonalization
     c_bands:  1 eigenvalues not converged
     ethr =  3.24E-07,  avg # of iterations =  4.3

     End of self-consistent calculation

[...]

          k = 0.0000 0.2223-0.2290 (  5564 PWs)   bands (ev):

[...]

          k =-0.4323 0.2223-0.2290 (  5576 PWs)   bands (ev):

   -78.5869 -78.5869 -78.5831 -78.5831 -37.3437 -37.3437 -37.3397 -37.3397
   -37.3030 -37.3030 -37.3023 -37.3023 -37.2736 -37.2736 -37.2708 -37.2708
   -36.0626 -36.0626 -36.0602 -36.0602 -35.8342 -35.8342 -35.7930 -35.7930
    -7.5927  -7.5927  -7.5049  -7.5049  -7.4931  -7.4931  -7.4609  -7.4609
    -7.3249  -7.3249  -7.2260  -7.2260  -7.0908  -7.0908  -6.9626  -6.9626
    -6.9427  -6.9427  -6.8853  -6.8853  -6.7786  -6.7786  -6.6587  -6.6587
    11.3460  11.3460  11.3557  11.3557  11.4133  11.4133  11.4526  11.4526
    11.4950  11.4950  11.4963  11.4963  11.5400  11.5400  11.5507  11.5507
    11.6880  11.6880  11.7386  11.7386  20.6926  20.6926  20.8381  20.8381
    23.8139  23.8139  24.3459  24.3459  25.0370  25.0370  25.4744  25.4744
    25.5139  25.5139  25.9132  25.9132  25.9962  25.9962  26.1152  26.1152
    26.3206  26.3206  26.8376  26.8376  27.1503  27.1503  27.7029  27.7029
    27.8941  27.8941  28.0426  28.0426  28.6321  28.6321  29.0335  29.0335
    29.1164  29.1164  29.3386  29.3386  29.6297  29.6297  30.3226  30.3226
    31.5891  31.5891  32.0559  32.0559  33.1151  33.1151  35.2843  35.2843
    36.1154  36.1154  36.2985  36.2985  37.8741  37.8741  38.4283  38.4282
    39.3266  39.3266  39.7328  39.7326  40.0796  40.0797  41.0916  41.0915
    41.1182  41.1182  41.6364  41.6362  41.9859  41.9861

     the Fermi energy is    34.2827 ev

!    total energy              =   -3078.68294795 Ry
     Harris-Foulkes estimate   =   -3078.68299393 Ry
     estimated scf accuracy    <       0.00005204 Ry

     The total energy is the sum of the following terms:

     one-electron contribution =    -378.52937186 Ry
     hartree contribution      =     403.87853290 Ry
     xc contribution           =    -285.16006775 Ry
     ewald contribution        =   -2818.64419488 Ry
     smearing contrib. (-TS)   =      -0.22784637 Ry

     convergence has been achieved in  11 iterations

     Forces acting on atoms (Ry/au):

     atom    1 type  1   force =     0.00000000   -0.02020107   -0.01343676
     atom    2 type  1   force =     0.00000000    0.02020107    0.01343676
     atom    3 type  1   force =     0.00000000   -0.02020107    0.01343676
     atom    4 type  1   force =     0.00000000    0.02020107   -0.01343676
     atom    5 type  1   force =     0.00000000    0.03703165   -0.07202054
     atom    6 type  1   force =     0.00000000   -0.03703165    0.07202054
     atom    7 type  1   force =     0.00000000    0.03703165    0.07202054
     atom    8 type  1   force =     0.00000000   -0.03703165   -0.07202054
     atom    9 type  2   force =     0.00000000   -0.05252862   -0.00400476
     atom   10 type  2   force =     0.00000000    0.05252862    0.00400476
     atom   11 type  2   force =     0.00000000   -0.05252862    0.00400476
     atom   12 type  2   force =     0.00000000    0.05252862   -0.00400476

     Total force =     0.199221     Total SCF correction =     0.000000

     entering subroutine stress ...

          total   stress  (Ry/bohr**3)                   (kbar)     P=  852.87
   0.00601259   0.00000000   0.00000000        884.48      0.00      0.00
   0.00000000   0.00551971   0.00000000          0.00    811.98      0.00
   0.00000000   0.00000000   0.00586085          0.00      0.00    862.16

     Writing output data file Prototype-La-oP12-Co2Si.save

     General routines

     Parallel routines

   This run was terminated on:  23:10:11  22Mar2018

   JOB DONE.