     Program PWSCF v.5.0.2 starts on 22Mar2018 at 18:47:17

     Current dimensions of program PWSCF are:
     Max number of different atomic species (ntypx) = 10
     Max number of k-points (npk) =  40000
     Max angular momentum in pseudopotentials (lmaxx) =  3
     Waiting for input...
     Reading input from standard input

     Subspace diagonalization in iterative solution of the eigenvalue problem:
     a serial algorithm will be used

     bravais-lattice index     =            0
     lattice parameter (alat)  =       7.0151  a.u.
     unit-cell volume          =     862.2778 (a.u.)^3
     number of atoms/cell      =           12
     number of atomic types    =            2
     number of electrons       =       220.00
     number of Kohn-Sham states=          132
     kinetic-energy cutoff     =      40.0000  Ry
     charge density cutoff     =     160.0000  Ry
     convergence threshold     =      1.0E-04
     mixing beta               =       0.7000
     number of iterations used =            8  plain     mixing
     Exchange-correlation      = SLA-PZ-NOGX-NOGC ( 1 1 0 0 0)
     EXX-fraction              =        0.00
     nstep                     =           50

     celldm(1)=   7.015105  celldm(2)=   0.000000  celldm(3)=   0.000000
     celldm(4)=   0.000000  celldm(5)=   0.000000  celldm(6)=   0.000000

     crystal axes: (cart. coord. in units of alat)
               a(1) = (   1.000000   0.000000   0.000000 )
               a(2) = (   0.000000   1.315963   0.000000 )
               a(3) = (   0.000000   0.000000   1.898020 )

     reciprocal axes: (cart. coord. in units 2 pi/alat)
               b(1) = (  1.000000  0.000000  0.000000 )
               b(2) = (  0.000000  0.759900  0.000000 )
               b(3) = (  0.000000  0.000000  0.526865 )

     PseudoPot. # 1 for Sm read from file:
     /home/cwx6513/pp.La/Sm.UPF
     MD5 check sum: 5079e8b144a06bfcdbc14fb02b96ab09
     Pseudo is Norm-conserving, Zval = 16.0
     Generated in analytical, separable form
     Using radial grid of 1259 points,  6 beta functions with:
                l(1) =   0
                l(2) =   0
                l(3) =   1
                l(4) =   1
                l(5) =   2
                l(6) =   3

     PseudoPot. # 2 for Tm read from file:
     /home/cwx6513/pp.La/Tm.UPF
     MD5 check sum: 245516e0878b5372ceeb9443ded2c4e1
     Pseudo is Norm-conserving, Zval = 23.0
     Generated in analytical, separable form
     Using radial grid of 1269 points,  6 beta functions with:
                l(1) =   0
                l(2) =   0
                l(3) =   1
                l(4) =   1
                l(5) =   2
                l(6) =   3

     atomic species   valence    mass     pseudopotential
        Co            16.00    58.93320     Sm( 1.00)
        Si            23.00    28.08550     Tm( 1.00)

      8 Sym. Ops., with inversion, found ( 6 have fractional translation)

   Cartesian axes

     site n.     atom                  positions (alat units)
         1           Co  tau(   1) = (   0.7500000   1.0875135   0.8270358  )
         2           Co  tau(   2) = (   0.2500000   0.2284499   1.0709846  )
         3           Co  tau(   3) = (   0.7500000   0.4295318   0.1219744  )
         4           Co  tau(   4) = (   0.2500000   0.8864316   1.7760460  )
         5           Co  tau(   5) = (   0.2500000   0.7067855   0.5358966  )
         6           Co  tau(   6) = (   0.7500000   0.6091779   1.3621238  )
         7           Co  tau(   7) = (   0.2500000   0.0488038   0.4131136  )
         8           Co  tau(   8) = (   0.7500000   1.2671596   1.4849068  )
         9           Si  tau(   9) = (   0.2500000   0.2669484   1.6960710  )
        10           Si  tau(  10) = (   0.7500000   1.0490149   0.2019494  )
        11           Si  tau(  11) = (   0.2500000   0.9249301   1.1509596  )
        12           Si  tau(  12) = (   0.7500000   0.3910333   0.7470608  )

     number of k points=    12  gaussian smearing, width (Ry)=  0.1000
                       cart. coord. in units 2pi/alat
        k(    1) = (   0.0000000   0.0000000   0.0000000), wk =   0.0833333
        k(    2) = (   0.0000000   0.0000000   0.1317162), wk =   0.1666667
        k(    3) = (   0.0000000   0.0000000  -0.2634324), wk =   0.0833333
        k(    4) = (   0.0000000   0.2532999   0.0000000), wk =   0.1666667
        k(    5) = (   0.0000000   0.2532999   0.1317162), wk =   0.3333333
        k(    6) = (   0.0000000   0.2532999  -0.2634324), wk =   0.1666667
        k(    7) = (  -0.5000000   0.0000000   0.0000000), wk =   0.0833333
        k(    8) = (  -0.5000000   0.0000000   0.1317162), wk =   0.1666667
        k(    9) = (  -0.5000000   0.0000000  -0.2634324), wk =   0.0833333
        k(   10) = (  -0.5000000   0.2532999   0.0000000), wk =   0.1666667
        k(   11) = (  -0.5000000   0.2532999   0.1317162), wk =   0.3333333
        k(   12) = (  -0.5000000   0.2532999  -0.2634324), wk =   0.1666667

     Largest allocated arrays     est. size (Mb)     dimensions
     Largest temporary arrays     est. size (Mb)     dimensions

     Initial potential from superposition of free atoms

     Starting from uniform charge
     Starting wfc are    0 randomized atomic wfcs

     Self-consistent Calculation

     iteration #  1     ecut=    40.00 Ry     beta=0.70
     CG style diagonalization
     ethr =  1.00E-02,  avg # of iterations = 16.9

     total energy              =   -1811.98590900 Ry
     Harris-Foulkes estimate   =   -3220.06767156 Ry
     estimated scf accuracy    <    1695.65056718 Ry

     iteration #  2     ecut=    40.00 Ry     beta=0.70
     CG style diagonalization
     c_bands:  1 eigenvalues not converged
     c_bands:  2 eigenvalues not converged
     c_bands:  3 eigenvalues not converged
     c_bands:  3 eigenvalues not converged
     c_bands:  4 eigenvalues not converged
     c_bands:  5 eigenvalues not converged
     c_bands:  2 eigenvalues not converged
     ethr =  1.00E-02,  avg # of iterations = 13.6

[...]

     End of self-consistent calculation

          k = 0.0000 0.0000 0.0000 (  3675 PWs)   bands (ev):

   -61.9679 -61.9490 -61.9484 -61.9271 -21.1371 -21.1327 -21.1054 -21.0959
   -21.0820 -21.0754 -21.0730 -21.0721 -20.9454 -20.9179 -20.8814 -20.8472
    -9.5323  -8.7508  -8.6968  -8.4214  -8.2360  -7.8681  -7.8457  -7.8257
    12.2918  12.8736  13.3171  13.4434  13.5860  13.5918  14.1613  14.1708
    14.6307  14.6800  15.0545  15.1053  15.3170  15.6170  15.9098  15.9975
    16.0045  16.2442  16.4189  16.9207  17.0375  17.4308  17.9528  18.2309
    25.8903  26.1711  26.4092  26.4219  26.5170  26.5195  26.6381  26.7768
    26.8199  26.8824  27.1327  27.4565  27.4608  27.8108  27.8768  27.9536
    27.9849  28.1567  28.2506  28.3242  34.8579  34.9067  37.2760  37.6134
    38.3955  38.8241  40.3154  40.5276  40.7235  41.1533  41.1595  41.2282
    41.3254  41.3886  41.4157  41.4996  42.4393  42.7050  42.8246  43.7049
    44.1504  44.3891  45.6546  45.7037  45.8115  46.0046  46.5308  47.2676
    47.4990  47.6961  47.7259  48.0051  48.1495  48.4251  49.4995  49.8592
    50.1408  50.2093  50.2484  50.5213  51.0507  51.1247  52.0862  53.0646
    53.4795  53.7987  54.3241  54.4727  55.3181  55.6161  55.9379  56.0634
    56.4504  56.8527  57.0384  57.0684  57.8400  57.9895  58.0218  58.1062
    58.3199  58.3633  58.4443  58.4671

[...]

          k =-0.5000 0.0000 0.0000 (  3722 PWs)   bands (ev):

[...]

     the Fermi energy is    51.5326 ev

!    total energy              =   -2668.93298131 Ry
     Harris-Foulkes estimate   =   -2668.93302180 Ry
     estimated scf accuracy    <       0.00004467 Ry

     The total energy is the sum of the following terms:

     one-electron contribution =     200.55315046 Ry
     hartree contribution      =     237.20256685 Ry
     xc contribution           =    -268.55297474 Ry
     ewald contribution        =   -2837.87315180 Ry
     smearing contrib. (-TS)   =      -0.26257209 Ry

     convergence has been achieved in  10 iterations

     Forces acting on atoms (Ry/au):

     atom    1 type  1   force =     0.00000000   -0.01218733   -0.05686319
     atom    2 type  1   force =     0.00000000    0.01218733    0.05686319
     atom    3 type  1   force =     0.00000000   -0.01218733    0.05686319
     atom    4 type  1   force =     0.00000000    0.01218733   -0.05686319
     atom    5 type  1   force =     0.00000000    0.12780936   -0.27901194
     atom    6 type  1   force =     0.00000000   -0.12780936    0.27901194
     atom    7 type  1   force =     0.00000000    0.12780936    0.27901194
     atom    8 type  1   force =     0.00000000   -0.12780936   -0.27901194
     atom    9 type  2   force =     0.00000000   -0.17709696    0.03621058
     atom   10 type  2   force =     0.00000000    0.17709696   -0.03621058
     atom   11 type  2   force =     0.00000000   -0.17709696   -0.03621058
     atom   12 type  2   force =     0.00000000    0.17709696    0.03621058

     Total force =     0.721774     Total SCF correction =     0.000000

     entering subroutine stress ...

          total   stress  (Ry/bohr**3)                   (kbar)     P= 7132.91
   0.05171360   0.00000000   0.00000000       7607.33      0.00      0.00
   0.00000000   0.04567034   0.00000000          0.00   6718.34      0.00
   0.00000000   0.00000000   0.04808178          0.00      0.00   7073.07

     BFGS Geometry Optimization

     number of scf cycles    =   1
     number of bfgs steps    =   0

     enthalpy new            =   -2668.9329813086 Ry

     new trust radius        =       0.5000000000 bohr
     new conv_thr            =       0.0001000000 Ry

     new unit-cell volume =   1085.67715 a.u.^3 (   160.88075 Ang^3 )

CELL_PARAMETERS (alat=  7.01510508)
   1.085136619   0.000000000   0.000000000
   0.000000000   1.414907419   0.000000000
   0.000000000   0.000000000   2.048262965

ATOMIC_POSITIONS (crystal)
Co       0.750000000   0.826314063   0.435454766
Co       0.250000000   0.173685937   0.564545234
Co       0.750000000   0.326314063   0.064545234
Co       0.250000000   0.673685937   0.935454766
Co       0.250000000   0.537997709   0.280965063
Co       0.750000000   0.462002291   0.719034937
Co       0.250000000   0.037997709   0.219034937
Co       0.750000000   0.962002291   0.780965063
Si       0.250000000   0.201590705   0.893779090
Si       0.750000000   0.798409295   0.106220910
Si       0.250000000   0.701590705   0.606220910
Si       0.750000000   0.298409295   0.393779090

     Writing output data file Prototype-La-oP12-Co2Si.save
     NEW-OLD atomic charge density approx. for the potential
     NEW k-points:
        k(    1) = (   0.0000000   0.0000000   0.0000000), wk =   0.0833333
        k(    2) = (   0.0000000   0.0000000   0.1220546), wk =   0.1666667
        k(    3) = (   0.0000000   0.0000000  -0.2441093), wk =   0.0833333
        k(    4) = (   0.0000000   0.2355867   0.0000000), wk =   0.1666667
        k(    5) = (   0.0000000   0.2355867   0.1220546), wk =   0.3333333
        k(    6) = (   0.0000000   0.2355867  -0.2441093), wk =   0.1666667
        k(    7) = (  -0.4607715   0.0000000   0.0000000), wk =   0.0833333
        k(    8) = (  -0.4607715   0.0000000   0.1220546), wk =   0.1666667
        k(    9) = (  -0.4607715   0.0000000  -0.2441093), wk =   0.0833333
        k(   10) = (  -0.4607715   0.2355867   0.0000000), wk =   0.1666667
        k(   11) = (  -0.4607715   0.2355867   0.1220546), wk =   0.3333333
        k(   12) = (  -0.4607715   0.2355867  -0.2441093), wk =   0.1666667

[...]

     enthalpy old            =   -2668.9329813086 Ry
     enthalpy new            =   -2675.5318280644 Ry

     CASE: enthalpy_new < enthalpy_old

     small trust_radius: resetting bfgs history

     new trust radius        =       2.5840015989 bohr
     new conv_thr            =       0.0001000000 Ry

[...]

          total   stress  (Ry/bohr**3)                   (kbar)     P=-2707.35
  -0.01960277   0.00000000   0.00000000      -2883.67      0.00      0.00
   0.00000000  -0.01738958   0.00000000          0.00  -2558.10      0.00
   0.00000000   0.00000000  -0.01822017          0.00      0.00  -2680.28

     number of scf cycles    =   3
     number of bfgs steps    =   2

     enthalpy old            =   -2675.5318280644 Ry
     enthalpy new            =   -2656.5679930612 Ry

     CASE: enthalpy_new > enthalpy_old

     new trust radius        =       0.7181421042 bohr

     trust_radius < trust_radius_min

     resetting bfgs history

     Message from routine bfgs:
     history already reset at previous step: stopping
     new conv_thr            =       0.0001000000 Ry

     new unit-cell volume =   1292.37635 a.u.^3 (   191.51041 Ang^3 )

[...]

ATOMIC_POSITIONS (crystal)
Co       0.750000000   0.826284163   0.435389596
Co       0.250000000   0.173715837   0.564610404
Co       0.750000000   0.326284163   0.064610404
Co       0.250000000   0.673715837   0.935389596
Co       0.250000000   0.538752565   0.279654214
Co       0.750000000   0.461247435   0.720345786
Co       0.250000000   0.038752565   0.220345786
Co       0.750000000   0.961247435   0.779654214
Si       0.250000000   0.200414533   0.894009597
Si       0.750000000   0.799585467   0.105990403
Si       0.250000000   0.700414533   0.605990403
Si       0.750000000   0.299585467   0.394009597

     Writing output data file Prototype-La-oP12-Co2Si.save
     NEW-OLD atomic charge density approx. for the potential
     NEW k-points:
        k(    1) = (   0.0000000   0.0000000   0.0000000), wk =   0.0833333
        k(    2) = (   0.0000000   0.0000000   0.1152338), wk =   0.1666667
        k(    3) = (   0.0000000   0.0000000  -0.2304677), wk =   0.0833333
        k(    4) = (   0.0000000   0.2234712   0.0000000), wk =   0.1666667
        k(    5) = (   0.0000000   0.2234712   0.1152338), wk =   0.3333333
        k(    6) = (   0.0000000   0.2234712  -0.2304677), wk =   0.1666667
        k(    7) = (  -0.4322159   0.0000000   0.0000000), wk =   0.0833333
        k(    8) = (  -0.4322159   0.0000000   0.1152338), wk =   0.1666667
        k(    9) = (  -0.4322159   0.0000000  -0.2304677), wk =   0.0833333
        k(   10) = (  -0.4322159   0.2234712   0.0000000), wk =   0.1666667
        k(   11) = (  -0.4322159   0.2234712   0.1152338), wk =   0.3333333
        k(   12) = (  -0.4322159   0.2234712  -0.2304677), wk =   0.1666667

[...]

     The maximum number of steps has been reached.

     End of BFGS Geometry Optimization
Begin final coordinates
     new unit-cell volume =   1292.37635 a.u.^3 (   191.51041 Ang^3 )

CELL_PARAMETERS (alat=  7.01510508)
   1.156829288   0.000000000   0.000000000
   0.000000000   1.491616632   0.000000000
   0.000000000   0.000000000   2.169501570

ATOMIC_POSITIONS (crystal)
Co       0.750000000   0.826284163   0.435389596
Co       0.250000000   0.173715837   0.564610404
Co       0.750000000   0.326284163   0.064610404
Co       0.250000000   0.673715837   0.935389596
Co       0.250000000   0.538752565   0.279654214
Co       0.750000000   0.461247435   0.720345786
Co       0.250000000   0.038752565   0.220345786
Co       0.750000000   0.961247435   0.779654214
Si       0.250000000   0.200414533   0.894009597
Si       0.750000000   0.799585467   0.105990403
Si       0.250000000   0.700414533   0.605990403
Si       0.750000000   0.299585467   0.394009597
End final coordinates

     A final scf calculation at the relaxed structure.
     The G-vectors are recalculated for the final unit cell
     Results may differ from those at the preceding step.

     bravais-lattice index     =            0
     lattice parameter (alat)  =       7.0151  a.u.
     unit-cell volume          =    1292.3764 (a.u.)^3
     number of atoms/cell      =           12
     number of atomic types    =            2
     number of electrons       =       220.00
     number of Kohn-Sham states=          132
     kinetic-energy cutoff     =      40.0000  Ry
     charge density cutoff     =     160.0000  Ry
     convergence threshold     =      1.0E-04
     mixing beta               =       0.7000
     number of iterations used =            8  plain     mixing
     Exchange-correlation      = SLA-PZ-NOGX-NOGC ( 1 1 0 0 0)
     EXX-fraction              =        0.00

     celldm(1)=   7.015105  celldm(2)=   0.000000  celldm(3)=   0.000000
     celldm(4)=   0.000000  celldm(5)=   0.000000  celldm(6)=   0.000000

     crystal axes: (cart. coord. in units of alat)
               a(1) = (   1.156829   0.000000   0.000000 )
               a(2) = (   0.000000   1.491617   0.000000 )
               a(3) = (   0.000000   0.000000   2.169502 )

     reciprocal axes: (cart. coord. in units 2 pi/alat)
               b(1) = (  0.864432  0.000000  0.000000 )
               b(2) = (  0.000000  0.670414  0.000000 )
               b(3) = (  0.000000  0.000000  0.460935 )

     PseudoPot. # 1 for Sm read from file:
     /home/cwx6513/pp.La/Sm.UPF
     MD5 check sum: 5079e8b144a06bfcdbc14fb02b96ab09
     Pseudo is Norm-conserving, Zval = 16.0
     Generated in analytical, separable form
     Using radial grid of 1259 points,  6 beta functions with:
                l(1) =   0
                l(2) =   0
                l(3) =   1
                l(4) =   1
                l(5) =   2
                l(6) =   3

     PseudoPot. # 2 for Tm read from file:
     /home/cwx6513/pp.La/Tm.UPF
     MD5 check sum: 245516e0878b5372ceeb9443ded2c4e1
     Pseudo is Norm-conserving, Zval = 23.0
     Generated in analytical, separable form
     Using radial grid of 1269 points,  6 beta functions with:
                l(1) =   0
                l(2) =   0
                l(3) =   1
                l(4) =   1
                l(5) =   2
                l(6) =   3

     atomic species   valence    mass     pseudopotential
        Co            16.00    58.93320     Sm( 1.00)
        Si            23.00    28.08550     Tm( 1.00)

      8 Sym. Ops., with inversion, found ( 6 have fractional translation)

   Cartesian axes

     site n.     atom                  positions (alat units)
         1           Co  tau(   1) = (   0.8676220   1.2324992   0.9445784  )
         2           Co  tau(   2) = (   0.2892073   0.2591174   1.2249232  )
         3           Co  tau(   3) = (   0.8676220   0.4866909   0.1401724  )
         4           Co  tau(   4) = (   0.2892073   1.0049257   2.0293292  )
         5           Co  tau(   5) = (   0.2892073   0.8036123   0.6067103  )
         6           Co  tau(   6) = (   0.8676220   0.6880043   1.5627913  )
         7           Co  tau(   7) = (   0.2892073   0.0578040   0.4780405  )
         8           Co  tau(   8) = (   0.8676220   1.4338127   1.6914610  )
         9           Si  tau(   9) = (   0.2892073   0.2989417   1.9395552  )
        10           Si  tau(  10) = (   0.8676220   1.1926750   0.2299463  )
        11           Si  tau(  11) = (   0.2892073   1.0447500   1.3146971  )
        12           Si  tau(  12) = (   0.8676220   0.4468667   0.8548044  )

     number of k points=    12  gaussian smearing, width (Ry)=  0.1000
                       cart. coord. in units 2pi/alat
        k(    1) = (   0.0000000   0.0000000   0.0000000), wk =   0.0833333
        k(    2) = (   0.0000000   0.0000000   0.1152338), wk =   0.1666667
        k(    3) = (   0.0000000   0.0000000  -0.2304677), wk =   0.0833333
        k(    4) = (   0.0000000   0.2234712   0.0000000), wk =   0.1666667
        k(    5) = (   0.0000000   0.2234712   0.1152338), wk =   0.3333333
        k(    6) = (   0.0000000   0.2234712  -0.2304677), wk =   0.1666667
        k(    7) = (  -0.4322159   0.0000000   0.0000000), wk =   0.0833333
        k(    8) = (  -0.4322159   0.0000000   0.1152338), wk =   0.1666667
        k(    9) = (  -0.4322159   0.0000000  -0.2304677), wk =   0.0833333
        k(   10) = (  -0.4322159   0.2234712   0.0000000), wk =   0.1666667
        k(   11) = (  -0.4322159   0.2234712   0.1152338), wk =   0.3333333
        k(   12) = (  -0.4322159   0.2234712  -0.2304677), wk =   0.1666667

     Largest allocated arrays     est. size (Mb)     dimensions
     Largest temporary arrays     est. size (Mb)     dimensions

     Initial potential from superposition of free atoms

     Starting from uniform charge
     Starting wfc are    0 randomized atomic wfcs

     Writing output data file Prototype-La-oP12-Co2Si.save

     Self-consistent Calculation

[...]

     iteration #  7     ecut=    40.00 Ry     beta=0.70
     CG style diagonalization
     ethr =  4.55E-04,  avg # of iterations =  3.9

[...]

     total energy              =   -2680.72982175 Ry
     Harris-Foulkes estimate   =   -2680.72989206 Ry
     estimated scf accuracy    <       0.00013232 Ry

     iteration # 11     ecut=    40.00 Ry     beta=0.70
     CG style diagonalization
     c_bands:  1 eigenvalues not converged
     ethr =  6.01E-08,  avg # of iterations =  3.9

     End of self-consistent calculation

[...]

          k = 0.0000 0.2235-0.2305 (  5506 PWs)   bands (ev):

[...]

          k =-0.4322 0.2235-0.2305 (  5536 PWs)   bands (ev):

   -78.5117 -78.5117 -78.5078 -78.5078 -37.2420 -37.2420 -37.2420 -37.2420
   -37.2299 -37.2299 -37.2269 -37.2269 -37.2130 -37.2130 -37.2111 -37.2111
   -24.6943 -24.6943 -24.6584 -24.6584 -24.5915 -24.5915 -24.5257 -24.5257
    -0.9098  -0.9098  -0.6934  -0.6934  -0.6563  -0.6563  -0.5470  -0.5470
    -0.5081  -0.5081  -0.0997  -0.0997   0.0487   0.0487   0.2091   0.2091
     0.3202   0.3202   0.3308   0.3308   0.4702   0.4702   0.5513   0.5513
    11.4549  11.4549  11.4559  11.4559  11.4951  11.4951  11.5468  11.5468
    11.6002  11.6002  11.6061  11.6061  11.6542  11.6542  11.6803  11.6803
    11.7851  11.7851  11.8191  11.8191  21.3077  21.3077  21.6331  21.6331
    25.0977  25.0977  25.5125  25.5125  26.3283  26.3283  26.8836  26.8836
    26.9139  26.9139  27.3990  27.3990  27.5344  27.5344  27.6607  27.6607
    27.9453  27.9453  28.5571  28.5571  28.8591  28.8591  29.6785  29.6785
    29.9350  29.9350  30.1472  30.1472  30.8373  30.8373  31.3344  31.3344
    31.4049  31.4049  31.5852  31.5852  32.0637  32.0637  32.8080  32.8080
    34.3026  34.3026  34.8806  34.8806  35.8930  35.8930  37.5051  37.5052
    38.3298  38.3299  38.5026  38.5026  39.3969  39.3970  39.7896  39.7896
    40.1624  40.1626  40.2452  40.2454

     the Fermi energy is    33.1688 ev

!    total energy              =   -2680.72985463 Ry
     Harris-Foulkes estimate   =   -2680.72986020 Ry
     estimated scf accuracy    <       0.00000668 Ry

     The total energy is the sum of the following terms:

     one-electron contribution =    -288.44759120 Ry
     hartree contribution      =     345.46050870 Ry
     xc contribution           =    -256.21349699 Ry
     ewald contribution        =   -2481.11724709 Ry
     smearing contrib. (-TS)   =      -0.41202804 Ry

     convergence has been achieved in  11 iterations

     Forces acting on atoms (Ry/au):

     atom    1 type  1   force =     0.00000000   -0.01665510    0.00413402
     atom    2 type  1   force =     0.00000000    0.01665510   -0.00413402
     atom    3 type  1   force =     0.00000000   -0.01665510   -0.00413402
     atom    4 type  1   force =     0.00000000    0.01665510    0.00413402
     atom    5 type  1   force =     0.00000000    0.02584755   -0.07437078
     atom    6 type  1   force =     0.00000000   -0.02584755    0.07437078
     atom    7 type  1   force =     0.00000000    0.02584755    0.07437078
     atom    8 type  1   force =     0.00000000   -0.02584755   -0.07437078
     atom    9 type  2   force =     0.00000000   -0.07449379    0.01641483
     atom   10 type  2   force =     0.00000000    0.07449379   -0.01641483
     atom   11 type  2   force =     0.00000000   -0.07449379   -0.01641483
     atom   12 type  2   force =     0.00000000    0.07449379    0.01641483

     Total force =     0.221922     Total SCF correction =     0.000000

     entering subroutine stress ...

          total   stress  (Ry/bohr**3)                   (kbar)     P=  922.28
   0.00657743   0.00000000   0.00000000        967.57      0.00      0.00
   0.00000000   0.00600706   0.00000000          0.00    883.67      0.00
   0.00000000   0.00000000   0.00622419          0.00      0.00    915.61

     Writing output data file Prototype-La-oP12-Co2Si.save

     General routines

     Parallel routines

   This run was terminated on:  19: 3:48  22Mar2018

   JOB DONE.