     Program PWSCF v.5.0.2 starts on 22Mar2018 at 21:13:25

     Current dimensions of program PWSCF are:
     Max number of different atomic species (ntypx) = 10
     Max number of k-points (npk) =  40000
     Max angular momentum in pseudopotentials (lmaxx) =  3
     Waiting for input...
     Reading input from standard input

     Subspace diagonalization in iterative solution of the eigenvalue problem:
     a serial algorithm will be used

     bravais-lattice index     =            0
     lattice parameter (alat)  =       7.0151  a.u.
     unit-cell volume          =     862.2778 (a.u.)^3
     number of atoms/cell      =           12
     number of atomic types    =            2
     number of electrons       =       208.00
     number of Kohn-Sham states=          125
     kinetic-energy cutoff     =      40.0000  Ry
     charge density cutoff     =     160.0000  Ry
     convergence threshold     =      1.0E-04
     mixing beta               =       0.7000
     number of iterations used =            8  plain     mixing
     Exchange-correlation      = SLA-PZ-NOGX-NOGC ( 1 1 0 0 0)
     EXX-fraction              =        0.00
     nstep                     =           50

     celldm(1)=   7.015105  celldm(2)=   0.000000  celldm(3)=   0.000000
     celldm(4)=   0.000000  celldm(5)=   0.000000  celldm(6)=   0.000000

     crystal axes: (cart. coord. in units of alat)
               a(1) = (   1.000000   0.000000   0.000000 )
               a(2) = (   0.000000   1.315963   0.000000 )
               a(3) = (   0.000000   0.000000   1.898020 )

     reciprocal axes: (cart. coord. in units 2 pi/alat)
               b(1) = (  1.000000  0.000000  0.000000 )
               b(2) = (  0.000000  0.759900  0.000000 )
               b(3) = (  0.000000  0.000000  0.526865 )

     PseudoPot. # 1 for Eu read from file:
     /home/cwx6513/pp.La/Eu.UPF
     MD5 check sum: 5efdbbfc50c6a10138933a6429836ad2
     Pseudo is Norm-conserving, Zval = 17.0
     Generated in analytical, separable form
     Using radial grid of 1261 points,  6 beta functions with:
                l(1) =   0
                l(2) =   0
                l(3) =   1
                l(4) =   1
                l(5) =   2
                l(6) =   3

     PseudoPot. # 2 for Gd read from file:
     /home/cwx6513/pp.La/Gd.UPF
     MD5 check sum: 09a8be538722f05520810cb6aac0efd2
     Pseudo is Norm-conserving, Zval = 18.0
     Generated in analytical, separable form
     Using radial grid of 1263 points,  6 beta functions with:
                l(1) =   0
                l(2) =   0
                l(3) =   1
                l(4) =   1
                l(5) =   2
                l(6) =   3

     atomic species   valence    mass     pseudopotential
        Co            17.00    58.93320     Eu( 1.00)
        Si            18.00    28.08550     Gd( 1.00)

      8 Sym. Ops., with inversion, found ( 6 have fractional translation)

   Cartesian axes

     site n.     atom                  positions (alat units)
         1           Co  tau(   1) = (   0.7500000   1.0875135   0.8270358  )
         2           Co  tau(   2) = (   0.2500000   0.2284499   1.0709846  )
         3           Co  tau(   3) = (   0.7500000   0.4295318   0.1219744  )
         4           Co  tau(   4) = (   0.2500000   0.8864316   1.7760460  )
         5           Co  tau(   5) = (   0.2500000   0.7067855   0.5358966  )
         6           Co  tau(   6) = (   0.7500000   0.6091779   1.3621238  )
         7           Co  tau(   7) = (   0.2500000   0.0488038   0.4131136  )
         8           Co  tau(   8) = (   0.7500000   1.2671596   1.4849068  )
         9           Si  tau(   9) = (   0.2500000   0.2669484   1.6960710  )
        10           Si  tau(  10) = (   0.7500000   1.0490149   0.2019494  )
        11           Si  tau(  11) = (   0.2500000   0.9249301   1.1509596  )
        12           Si  tau(  12) = (   0.7500000   0.3910333   0.7470608  )

     number of k points=    12  gaussian smearing, width (Ry)=  0.1000
                       cart. coord. in units 2pi/alat
        k(    1) = (   0.0000000   0.0000000   0.0000000), wk =   0.0833333
        k(    2) = (   0.0000000   0.0000000   0.1317162), wk =   0.1666667
        k(    3) = (   0.0000000   0.0000000  -0.2634324), wk =   0.0833333
        k(    4) = (   0.0000000   0.2532999   0.0000000), wk =   0.1666667
        k(    5) = (   0.0000000   0.2532999   0.1317162), wk =   0.3333333
        k(    6) = (   0.0000000   0.2532999  -0.2634324), wk =   0.1666667
        k(    7) = (  -0.5000000   0.0000000   0.0000000), wk =   0.0833333
        k(    8) = (  -0.5000000   0.0000000   0.1317162), wk =   0.1666667
        k(    9) = (  -0.5000000   0.0000000  -0.2634324), wk =   0.0833333
        k(   10) = (  -0.5000000   0.2532999   0.0000000), wk =   0.1666667
        k(   11) = (  -0.5000000   0.2532999   0.1317162), wk =   0.3333333
        k(   12) = (  -0.5000000   0.2532999  -0.2634324), wk =   0.1666667

     Largest allocated arrays     est. size (Mb)     dimensions
     Largest temporary arrays     est. size (Mb)     dimensions

     Initial potential from superposition of free atoms

     Starting from uniform charge
     Starting wfc are    0 randomized atomic wfcs

     Self-consistent Calculation

     iteration #  1     ecut=    40.00 Ry     beta=0.70
     CG style diagonalization
     c_bands:  1 eigenvalues not converged
     c_bands:  1 eigenvalues not converged
     c_bands:  2 eigenvalues not converged
     ethr =  1.00E-02,  avg # of iterations = 11.1

     total energy              =   -2113.51178878 Ry
     Harris-Foulkes estimate   =   -2357.67626005 Ry
     estimated scf accuracy    <     333.54437536 Ry

     iteration #  2     ecut=    40.00 Ry     beta=0.70
     CG style diagonalization
     ethr =  1.00E-02,  avg # of iterations =  6.0

[...]

     End of self-consistent calculation

          k = 0.0000 0.0000 0.0000 (  3675 PWs)   bands (ev):

   -23.1858 -23.0118 -22.9641 -22.9316 -16.9562 -16.8740 -16.6348 -16.3865
   -16.3111 -16.2130 -16.1829 -16.1435   3.5570   4.2974   4.3806   4.4022
     4.4482   4.6166   4.6176   4.6343   4.9186   4.9771   5.3214   5.5362
     8.1641   8.2879   8.5031   8.8865   9.6198   9.7082   9.8419   9.9258
     9.9761  10.3869  10.5387  10.5765  10.6575  10.7459  10.8271  10.9553
    11.2139  11.2159  11.3329  11.4099  12.2574  12.2782  12.2825  12.4352
    33.2081  33.3453  33.4461  34.3043  34.3058  34.4869  34.4893  34.8851
    34.8853  35.7598  36.2395  36.3909  36.8012  37.0639  37.0770  37.7583
    37.9046  38.9756  39.0636  39.2319  39.3165  40.1790  40.2468  40.3960
    40.3962  40.7750  40.9528  41.3652  41.5950  41.7187  41.8996  41.9926
    42.1018  42.8016  42.9582  42.9929  43.1884  43.9353  44.1372  44.2803
    44.4267  44.4594  45.2382  46.0233  46.5361  46.8590  47.0036  47.4754
    47.6143  48.4777  48.5828  48.5873  48.9950  49.0613  49.1250  49.2463
    50.1757  50.2523  50.3871  50.9694  51.1232  51.1237  51.8556  53.0928
    54.7359  54.7369  54.9704  55.8216  55.9687  56.8507  57.1032  57.1616
    57.2795  57.4943  57.5324  58.1254  58.4949

[...]

          k =-0.5000 0.0000 0.0000 (  3722 PWs)   bands (ev):

[...]

     the Fermi energy is    49.2220 ev

!    total energy              =   -2195.30641065 Ry
     Harris-Foulkes estimate   =   -2195.30642445 Ry
     estimated scf accuracy    <       0.00001613 Ry

     The total energy is the sum of the following terms:

     one-electron contribution =     422.31753170 Ry
     hartree contribution      =     122.96799657 Ry
     xc contribution           =    -241.52615018 Ry
     ewald contribution        =   -2498.64927622 Ry
     smearing contrib. (-TS)   =      -0.41651252 Ry

     convergence has been achieved in   9 iterations

     Forces acting on atoms (Ry/au):

     atom    1 type  1   force =     0.00000000   -0.06194253   -0.07108990
     atom    2 type  1   force =     0.00000000    0.06194253    0.07108990
     atom    3 type  1   force =     0.00000000   -0.06194253    0.07108990
     atom    4 type  1   force =     0.00000000    0.06194253   -0.07108990
     atom    5 type  1   force =     0.00000000    0.16842930   -0.26084031
     atom    6 type  1   force =     0.00000000   -0.16842930    0.26084031
     atom    7 type  1   force =     0.00000000    0.16842930    0.26084031
     atom    8 type  1   force =     0.00000000   -0.16842930   -0.26084031
     atom    9 type  2   force =     0.00000000   -0.20234706   -0.02067680
     atom   10 type  2   force =     0.00000000    0.20234706    0.02067680
     atom   11 type  2   force =     0.00000000   -0.20234706    0.02067680
     atom   12 type  2   force =     0.00000000    0.20234706   -0.02067680

     Total force =     0.765947     Total SCF correction =     0.000000

     entering subroutine stress ...

          total   stress  (Ry/bohr**3)                   (kbar)     P= 6502.45
   0.04693667   0.00000000   0.00000000       6904.62      0.00      0.00
   0.00000000   0.04147433   0.00000000          0.00   6101.08      0.00
   0.00000000   0.00000000   0.04419730          0.00      0.00   6501.65

     BFGS Geometry Optimization

     number of scf cycles    =   1
     number of bfgs steps    =   0

     enthalpy new            =   -2195.3064106476 Ry

     new trust radius        =       0.5000000000 bohr
     new conv_thr            =       0.0001000000 Ry

     new unit-cell volume =   1086.73512 a.u.^3 (   161.03753 Ang^3 )

CELL_PARAMETERS (alat=  7.01510508)
   1.085136619   0.000000000   0.000000000
   0.000000000   1.414961580   0.000000000
   0.000000000   0.000000000   2.050180475

ATOMIC_POSITIONS (crystal)
Co       0.750000000   0.825914173   0.435348620
Co       0.250000000   0.174085827   0.564651380
Co       0.750000000   0.325914173   0.064651380
Co       0.250000000   0.674085827   0.935348620
Co       0.250000000   0.538409743   0.280923641
Co       0.750000000   0.461590257   0.719076359
Co       0.250000000   0.038409743   0.219076359
Co       0.750000000   0.961590257   0.780923641
Si       0.250000000   0.201263686   0.893487329
Si       0.750000000   0.798736314   0.106512671
Si       0.250000000   0.701263686   0.606512671
Si       0.750000000   0.298736314   0.393487329

     Writing output data file Prototype-La-oP12-Co2Si.save
     NEW-OLD atomic charge density approx. for the potential
     NEW k-points:
        k(    1) = (   0.0000000   0.0000000   0.0000000), wk =   0.0833333
        k(    2) = (   0.0000000   0.0000000   0.1219405), wk =   0.1666667
        k(    3) = (   0.0000000   0.0000000  -0.2438810), wk =   0.0833333
        k(    4) = (   0.0000000   0.2355777   0.0000000), wk =   0.1666667
        k(    5) = (   0.0000000   0.2355777   0.1219405), wk =   0.3333333
        k(    6) = (   0.0000000   0.2355777  -0.2438810), wk =   0.1666667
        k(    7) = (  -0.4607715   0.0000000   0.0000000), wk =   0.0833333
        k(    8) = (  -0.4607715   0.0000000   0.1219405), wk =   0.1666667
        k(    9) = (  -0.4607715   0.0000000  -0.2438810), wk =   0.0833333
        k(   10) = (  -0.4607715   0.2355777   0.0000000), wk =   0.1666667
        k(   11) = (  -0.4607715   0.2355777   0.1219405), wk =   0.3333333
        k(   12) = (  -0.4607715   0.2355777  -0.2438810), wk =   0.1666667

[...]

     enthalpy old            =   -2195.3064106476 Ry
     enthalpy new            =   -2201.1444435893 Ry

     CASE: enthalpy_new < enthalpy_old

     small trust_radius: resetting bfgs history

     new trust radius        =       2.1148167325 bohr
     new conv_thr            =       0.0001000000 Ry

[...]

          total   stress  (Ry/bohr**3)                   (kbar)     P=-1489.38
  -0.01043925   0.00000000   0.00000000      -1535.67      0.00      0.00
   0.00000000  -0.00979693   0.00000000          0.00  -1441.18      0.00
   0.00000000   0.00000000  -0.01013771          0.00      0.00  -1491.31

     number of scf cycles    =   3
     number of bfgs steps    =   2

     enthalpy old            =   -2201.1444435893 Ry
     enthalpy new            =   -2192.5876797380 Ry

     CASE: enthalpy_new > enthalpy_old

     new trust radius        =       0.6958517072 bohr

     trust_radius < trust_radius_min

     resetting bfgs history

     Message from routine bfgs:
     history already reset at previous step: stopping
     new conv_thr            =       0.0001000000 Ry

     new unit-cell volume =   1300.54342 a.u.^3 (   192.72065 Ang^3 )

[...]

ATOMIC_POSITIONS (crystal)
Co       0.750000000   0.825229991   0.435122436
Co       0.250000000   0.174770009   0.564877564
Co       0.750000000   0.325229991   0.064877564
Co       0.250000000   0.674770009   0.935122436
Co       0.250000000   0.540072730   0.279441074
Co       0.750000000   0.459927270   0.720558926
Co       0.250000000   0.040072730   0.220558926
Co       0.750000000   0.959927270   0.779441074
Si       0.250000000   0.199353202   0.893501357
Si       0.750000000   0.800646798   0.106498643
Si       0.250000000   0.699353202   0.606498643
Si       0.750000000   0.300646798   0.393501357

     Writing output data file Prototype-La-oP12-Co2Si.save
     NEW-OLD atomic charge density approx. for the potential
     NEW k-points:
        k(    1) = (   0.0000000   0.0000000   0.0000000), wk =   0.0833333
        k(    2) = (   0.0000000   0.0000000   0.1147396), wk =   0.1666667
        k(    3) = (   0.0000000   0.0000000  -0.2294792), wk =   0.0833333
        k(    4) = (   0.0000000   0.2233156   0.0000000), wk =   0.1666667
        k(    5) = (   0.0000000   0.2233156   0.1147396), wk =   0.3333333
        k(    6) = (   0.0000000   0.2233156  -0.2294792), wk =   0.1666667
        k(    7) = (  -0.4316523   0.0000000   0.0000000), wk =   0.0833333
        k(    8) = (  -0.4316523   0.0000000   0.1147396), wk =   0.1666667
        k(    9) = (  -0.4316523   0.0000000  -0.2294792), wk =   0.0833333
        k(   10) = (  -0.4316523   0.2233156   0.0000000), wk =   0.1666667
        k(   11) = (  -0.4316523   0.2233156   0.1147396), wk =   0.3333333
        k(   12) = (  -0.4316523   0.2233156  -0.2294792), wk =   0.1666667

[...]

     The maximum number of steps has been reached.

     End of BFGS Geometry Optimization
Begin final coordinates
     new unit-cell volume =   1300.54342 a.u.^3 (   192.72065 Ang^3 )

CELL_PARAMETERS (alat=  7.01510508)
   1.158339648   0.000000000   0.000000000
   0.000000000   1.492656084   0.000000000
   0.000000000   0.000000000   2.178846501

ATOMIC_POSITIONS (crystal)
Co       0.750000000   0.825229991   0.435122436
Co       0.250000000   0.174770009   0.564877564
Co       0.750000000   0.325229991   0.064877564
Co       0.250000000   0.674770009   0.935122436
Co       0.250000000   0.540072730   0.279441074
Co       0.750000000   0.459927270   0.720558926
Co       0.250000000   0.040072730   0.220558926
Co       0.750000000   0.959927270   0.779441074
Si       0.250000000   0.199353202   0.893501357
Si       0.750000000   0.800646798   0.106498643
Si       0.250000000   0.699353202   0.606498643
Si       0.750000000   0.300646798   0.393501357
End final coordinates

     A final scf calculation at the relaxed structure.
     The G-vectors are recalculated for the final unit cell
     Results may differ from those at the preceding step.

     bravais-lattice index     =            0
     lattice parameter (alat)  =       7.0151  a.u.
     unit-cell volume          =    1300.5434 (a.u.)^3
     number of atoms/cell      =           12
     number of atomic types    =            2
     number of electrons       =       208.00
     number of Kohn-Sham states=          125
     kinetic-energy cutoff     =      40.0000  Ry
     charge density cutoff     =     160.0000  Ry
     convergence threshold     =      1.0E-04
     mixing beta               =       0.7000
     number of iterations used =            8  plain     mixing
     Exchange-correlation      = SLA-PZ-NOGX-NOGC ( 1 1 0 0 0)
     EXX-fraction              =        0.00

     celldm(1)=   7.015105  celldm(2)=   0.000000  celldm(3)=   0.000000
     celldm(4)=   0.000000  celldm(5)=   0.000000  celldm(6)=   0.000000

     crystal axes: (cart. coord. in units of alat)
               a(1) = (   1.158340   0.000000   0.000000 )
               a(2) = (   0.000000   1.492656   0.000000 )
               a(3) = (   0.000000   0.000000   2.178847 )

     reciprocal axes: (cart. coord. in units 2 pi/alat)
               b(1) = (  0.863305  0.000000  0.000000 )
               b(2) = (  0.000000  0.669947  0.000000 )
               b(3) = (  0.000000  0.000000  0.458958 )

     PseudoPot. # 1 for Eu read from file:
     /home/cwx6513/pp.La/Eu.UPF
     MD5 check sum: 5efdbbfc50c6a10138933a6429836ad2
     Pseudo is Norm-conserving, Zval = 17.0
     Generated in analytical, separable form
     Using radial grid of 1261 points,  6 beta functions with:
                l(1) =   0
                l(2) =   0
                l(3) =   1
                l(4) =   1
                l(5) =   2
                l(6) =   3

     PseudoPot. # 2 for Gd read from file:
     /home/cwx6513/pp.La/Gd.UPF
     MD5 check sum: 09a8be538722f05520810cb6aac0efd2
     Pseudo is Norm-conserving, Zval = 18.0
     Generated in analytical, separable form
     Using radial grid of 1263 points,  6 beta functions with:
                l(1) =   0
                l(2) =   0
                l(3) =   1
                l(4) =   1
                l(5) =   2
                l(6) =   3

     atomic species   valence    mass     pseudopotential
        Co            17.00    58.93320     Eu( 1.00)
        Si            18.00    28.08550     Gd( 1.00)

      8 Sym. Ops., with inversion, found ( 6 have fractional translation)

   Cartesian axes

     site n.     atom                  positions (alat units)
         1           Co  tau(   1) = (   0.8687547   1.2317846   0.9480650  )
         2           Co  tau(   2) = (   0.2895849   0.2608715   1.2307815  )
         3           Co  tau(   3) = (   0.8687547   0.4854565   0.1413583  )
         4           Co  tau(   4) = (   0.2895849   1.0071996   2.0374882  )
         5           Co  tau(   5) = (   0.2895849   0.8061428   0.6088592  )
         6           Co  tau(   6) = (   0.8687547   0.6865132   1.5699873  )
         7           Co  tau(   7) = (   0.2895849   0.0598148   0.4805640  )
         8           Co  tau(   8) = (   0.8687547   1.4328413   1.6982825  )
         9           Si  tau(   9) = (   0.2895849   0.2975658   1.9468023  )
        10           Si  tau(  10) = (   0.8687547   1.1950903   0.2320442  )
        11           Si  tau(  11) = (   0.2895849   1.0438938   1.3214674  )
        12           Si  tau(  12) = (   0.8687547   0.4487623   0.8573791  )

     number of k points=    12  gaussian smearing, width (Ry)=  0.1000
                       cart. coord. in units 2pi/alat
        k(    1) = (   0.0000000   0.0000000   0.0000000), wk =   0.0833333
        k(    2) = (   0.0000000   0.0000000   0.1147396), wk =   0.1666667
        k(    3) = (   0.0000000   0.0000000  -0.2294792), wk =   0.0833333
        k(    4) = (   0.0000000   0.2233156   0.0000000), wk =   0.1666667
        k(    5) = (   0.0000000   0.2233156   0.1147396), wk =   0.3333333
        k(    6) = (   0.0000000   0.2233156  -0.2294792), wk =   0.1666667
        k(    7) = (  -0.4316523   0.0000000   0.0000000), wk =   0.0833333
        k(    8) = (  -0.4316523   0.0000000   0.1147396), wk =   0.1666667
        k(    9) = (  -0.4316523   0.0000000  -0.2294792), wk =   0.0833333
        k(   10) = (  -0.4316523   0.2233156   0.0000000), wk =   0.1666667
        k(   11) = (  -0.4316523   0.2233156   0.1147396), wk =   0.3333333
        k(   12) = (  -0.4316523   0.2233156  -0.2294792), wk =   0.1666667

     Largest allocated arrays     est. size (Mb)     dimensions
     Largest temporary arrays     est. size (Mb)     dimensions

     Initial potential from superposition of free atoms

     Starting from uniform charge
     Starting wfc are    0 randomized atomic wfcs

     Writing output data file Prototype-La-oP12-Co2Si.save

     Self-consistent Calculation

[...]

     iteration #  6     ecut=    40.00 Ry     beta=0.70
     CG style diagonalization
     ethr =  2.75E-04,  avg # of iterations =  3.5

[...]

     total energy              =   -2205.39752338 Ry
     Harris-Foulkes estimate   =   -2205.39763315 Ry
     estimated scf accuracy    <       0.00036542 Ry

     iteration # 10     ecut=    40.00 Ry     beta=0.70
     CG style diagonalization
     c_bands:  1 eigenvalues not converged
     c_bands:  1 eigenvalues not converged
     ethr =  1.76E-07,  avg # of iterations =  3.6

     End of self-consistent calculation

[...]

          k = 0.0000 0.2233-0.2295 (  5542 PWs)   bands (ev):

[...]

          k =-0.4317 0.2233-0.2295 (  5552 PWs)   bands (ev):

   -38.7073 -38.7073 -38.7048 -38.7048 -32.9269 -32.9269 -32.8613 -32.8613
   -32.8140 -32.8140 -32.8107 -32.8107 -10.0627 -10.0627 -10.0282 -10.0282
    -9.9841  -9.9841  -9.9471  -9.9471  -9.7844  -9.7844  -9.7435  -9.7435
    -6.2166  -6.2166  -6.0345  -6.0345  -5.9695  -5.9695  -5.9005  -5.9005
    -5.8264  -5.8264  -5.6502  -5.6502  -5.5275  -5.5275  -5.4671  -5.4671
    -5.4089  -5.4089  -5.4061  -5.4061  -5.3017  -5.3017  -5.2692  -5.2692
    22.0288  22.0288  22.4985  22.4985  22.5980  22.5980  22.9060  22.9060
    22.9479  22.9479  23.3701  23.3701  23.4598  23.4598  23.6407  23.6407
    24.0774  24.0774  24.5366  24.5366  24.5900  24.5900  24.7356  24.7356
    25.0786  25.0786  25.2829  25.2829  25.3916  25.3916  25.7523  25.7523
    26.0377  26.0377  26.7808  26.7808  26.8583  26.8583  27.4810  27.4810
    27.5938  27.5938  27.8085  27.8085  28.0486  28.0486  28.5758  28.5758
    28.6768  28.6768  28.9395  28.9395  29.7787  29.7787  30.0168  30.0168
    30.8986  30.8986  31.0754  31.0754  31.8792  31.8792  31.9620  31.9620
    33.0842  33.0842  33.5855  33.5855  34.9950  34.9950  38.1873  38.1873
    38.9517  38.9518  39.9179  39.9179  40.0297

     the Fermi energy is    30.5389 ev

!    total energy              =   -2205.39751968 Ry
     Harris-Foulkes estimate   =   -2205.39759064 Ry
     estimated scf accuracy    <       0.00008083 Ry

     The total energy is the sum of the following terms:

     one-electron contribution =      -5.24419965 Ry
     hartree contribution      =     209.71897765 Ry
     xc contribution           =    -229.39189434 Ry
     ewald contribution        =   -2179.77917033 Ry
     smearing contrib. (-TS)   =      -0.70123302 Ry

     convergence has been achieved in  10 iterations

     Forces acting on atoms (Ry/au):

     atom    1 type  1   force =     0.00000000   -0.02405659   -0.01410498
     atom    2 type  1   force =     0.00000000    0.02405659    0.01410498
     atom    3 type  1   force =     0.00000000   -0.02405659    0.01410498
     atom    4 type  1   force =     0.00000000    0.02405659   -0.01410498
     atom    5 type  1   force =     0.00000000    0.05803769   -0.06902483
     atom    6 type  1   force =     0.00000000   -0.05803769    0.06902483
     atom    7 type  1   force =     0.00000000    0.05803769    0.06902483
     atom    8 type  1   force =     0.00000000   -0.05803769   -0.06902483
     atom    9 type  2   force =     0.00000000   -0.05708072   -0.01163674
     atom   10 type  2   force =     0.00000000    0.05708072    0.01163674
     atom   11 type  2   force =     0.00000000   -0.05708072    0.01163674
     atom   12 type  2   force =     0.00000000    0.05708072   -0.01163674

     Total force =     0.221848     Total SCF correction =     0.000000

     entering subroutine stress ...

          total   stress  (Ry/bohr**3)                   (kbar)     P=  645.88
   0.00465204   0.00000000   0.00000000        684.34      0.00      0.00
   0.00000000   0.00406685   0.00000000          0.00    598.25      0.00
   0.00000000   0.00000000   0.00445296          0.00      0.00    655.05

     Writing output data file Prototype-La-oP12-Co2Si.save

     General routines

     Parallel routines

   This run was terminated on:  21:27:32  22Mar2018

   JOB DONE.