     Program PWSCF v.5.0.2 starts on 22Mar2018 at 21:13:24

     Current dimensions of program PWSCF are:
     Max number of different atomic species (ntypx) = 10
     Max number of k-points (npk) =  40000
     Max angular momentum in pseudopotentials (lmaxx) =  3
     Waiting for input...
     Reading input from standard input

     Subspace diagonalization in iterative solution of the eigenvalue problem:
     a serial algorithm will be used

     bravais-lattice index     =            0
     lattice parameter (alat)  =      12.0168  a.u.
     unit-cell volume          =    1187.3413 (a.u.)^3
     number of atoms/cell      =            8
     number of atomic types    =            2
     number of electrons       =       138.00
     number of Kohn-Sham states=           83
     kinetic-energy cutoff     =      40.0000  Ry
     charge density cutoff     =     160.0000  Ry
     convergence threshold     =      1.0E-04
     mixing beta               =       0.7000
     number of iterations used =            8  plain     mixing
     Exchange-correlation      = SLA-PZ-NOGX-NOGC ( 1 1 0 0 0)
     EXX-fraction              =        0.00
     nstep                     =           50

     celldm(1)=  12.016801  celldm(2)=   0.000000  celldm(3)=   0.000000
     celldm(4)=   0.000000  celldm(5)=   0.000000  celldm(6)=   0.000000

     crystal axes: (cart. coord. in units of alat)
               a(1) = (   1.000000   0.000000   0.000000 )
               a(2) = (  -0.500000   0.866025   0.000000 )
               a(3) = (   0.000000   0.000000   0.790093 )

     reciprocal axes: (cart. coord. in units 2 pi/alat)
               b(1) = (  1.000000  0.577350  0.000000 )
               b(2) = (  0.000000  1.154701  0.000000 )
               b(3) = (  0.000000  0.000000  1.265674 )

     PseudoPot. # 1 for Eu read from file:
     /home/cwx6513/pp.La/Eu.UPF
     MD5 check sum: 5efdbbfc50c6a10138933a6429836ad2
     Pseudo is Norm-conserving, Zval = 17.0
     Generated in analytical, separable form
     Using radial grid of 1261 points,  6 beta functions with:
                l(1) =   0
                l(2) =   0
                l(3) =   1
                l(4) =   1
                l(5) =   2
                l(6) =   3

     PseudoPot. # 2 for Gd read from file:
     /home/cwx6513/pp.La/Gd.UPF
     MD5 check sum: 09a8be538722f05520810cb6aac0efd2
     Pseudo is Norm-conserving, Zval = 18.0
     Generated in analytical, separable form
     Using radial grid of 1263 points,  6 beta functions with:
                l(1) =   0
                l(2) =   0
                l(3) =   1
                l(4) =   1
                l(5) =   2
                l(6) =   3

     atomic species   valence    mass     pseudopotential
        Mg            17.00    24.30500     Eu( 1.00)
        Cd            18.00   112.41100     Gd( 1.00)

     24 Sym. Ops., with inversion, found (12 have fractional translation)

   Cartesian axes

     site n.     atom                  positions (alat units)
         1           Mg  tau(   1) = (   0.2478935   0.7204716   0.1975233  )
         2           Mg  tau(   2) = (   0.7478935   0.1455538   0.5925699  )
         3           Mg  tau(   3) = (   0.2521065   0.1455538   0.5925699  )
         4           Mg  tau(   4) = (  -0.2478935   0.7204716   0.1975233  )
         5           Mg  tau(   5) = (   0.0000000   0.2911075   0.1975233  )
         6           Mg  tau(   6) = (   0.5000000   0.5749179   0.5925699  )
         7           Cd  tau(   7) = (   0.5000005   0.2886748   0.1975233  )
         8           Cd  tau(   8) = (  -0.0000005   0.5773506   0.5925699  )

     number of k points=    64  gaussian smearing, width (Ry)=  0.1000
                       cart. coord. in units 2pi/alat
        k(    1) = (   0.0000000   0.0000000   0.0000000), wk =   0.0095238
        k(    2) = (   0.0000000   0.0000000   0.1808105), wk =   0.0190476
        k(    3) = (   0.0000000   0.0000000   0.3616210), wk =   0.0190476
        k(    4) = (   0.0000000   0.0000000   0.5424315), wk =   0.0190476
        k(    5) = (   0.0000000   0.1924501   0.0000000), wk =   0.0190476
        k(    6) = (   0.0000000   0.1924501   0.1808105), wk =   0.0380952
        k(    7) = (   0.0000000   0.1924501   0.3616210), wk =   0.0380952
        k(    8) = (   0.0000000   0.1924501   0.5424315), wk =   0.0380952
        k(    9) = (   0.0000000   0.3849002   0.0000000), wk =   0.0190476
        k(   10) = (   0.0000000   0.3849002   0.1808105), wk =   0.0380952
        k(   11) = (   0.0000000   0.3849002   0.3616210), wk =   0.0380952
        k(   12) = (   0.0000000   0.3849002   0.5424315), wk =   0.0380952
        k(   13) = (   0.0000000  -0.5773503   0.0000000), wk =   0.0095238
        k(   14) = (   0.0000000  -0.5773503   0.1808105), wk =   0.0190476
        k(   15) = (   0.0000000  -0.5773503   0.3616210), wk =   0.0190476
        k(   16) = (   0.0000000  -0.5773503   0.5424315), wk =   0.0190476
        k(   17) = (   0.2000000   0.1154701   0.0000000), wk =   0.0190476
        k(   18) = (   0.2000000   0.1154701   0.1808105), wk =   0.0380952
        k(   19) = (   0.2000000   0.1154701   0.3616210), wk =   0.0380952
        k(   20) = (   0.2000000   0.1154701   0.5424315), wk =   0.0380952
        k(   21) = (   0.2000000   0.3079201   0.0000000), wk =   0.0190476
        k(   22) = (   0.2000000   0.3079201   0.1808105), wk =   0.0380952
        k(   23) = (   0.2000000   0.3079201   0.3616210), wk =   0.0380952
        k(   24) = (   0.2000000   0.3079201   0.5424315), wk =   0.0380952
        k(   25) = (   0.2000000   0.5003702   0.0000000), wk =   0.0190476
        k(   26) = (   0.2000000   0.5003702   0.1808105), wk =   0.0380952
        k(   27) = (   0.2000000   0.5003702   0.3616210), wk =   0.0380952
        k(   28) = (   0.2000000   0.5003702   0.5424315), wk =   0.0380952
        k(   29) = (   0.2000000  -0.4618802   0.0000000), wk =   0.0190476
        k(   30) = (   0.2000000  -0.4618802   0.1808105), wk =   0.0380952
        k(   31) = (   0.2000000  -0.4618802   0.3616210), wk =   0.0380952
        k(   32) = (   0.2000000  -0.4618802   0.5424315), wk =   0.0380952
        k(   33) = (   0.2000000  -0.2694301   0.0000000), wk =   0.0190476
        k(   34) = (   0.2000000  -0.2694301   0.1808105), wk =   0.0380952
        k(   35) = (   0.2000000  -0.2694301   0.3616210), wk =   0.0380952
        k(   36) = (   0.2000000  -0.2694301   0.5424315), wk =   0.0380952
        k(   37) = (   0.2000000  -0.0769800   0.0000000), wk =   0.0190476
        k(   38) = (   0.2000000  -0.0769800   0.1808105), wk =   0.0380952
        k(   39) = (   0.2000000  -0.0769800   0.3616210), wk =   0.0380952
        k(   40) = (   0.2000000  -0.0769800   0.5424315), wk =   0.0380952
        k(   41) = (   0.4000000   0.2309401   0.0000000), wk =   0.0190476
        k(   42) = (   0.4000000   0.2309401   0.1808105), wk =   0.0380952
        k(   43) = (   0.4000000   0.2309401   0.3616210), wk =   0.0380952
        k(   44) = (   0.4000000   0.2309401   0.5424315), wk =   0.0380952
        k(   45) = (   0.4000000   0.4233902   0.0000000), wk =   0.0190476
        k(   46) = (   0.4000000   0.4233902   0.1808105), wk =   0.0380952
        k(   47) = (   0.4000000   0.4233902   0.3616210), wk =   0.0380952
        k(   48) = (   0.4000000   0.4233902   0.5424315), wk =   0.0380952
        k(   49) = (   0.4000000   0.6158403   0.0000000), wk =   0.0190476
        k(   50) = (   0.4000000   0.6158403   0.1808105), wk =   0.0380952
        k(   51) = (   0.4000000   0.6158403   0.3616210), wk =   0.0380952
        k(   52) = (   0.4000000   0.6158403   0.5424315), wk =   0.0380952
        k(   53) = (   0.4000000  -0.3464102   0.0000000), wk =   0.0190476
        k(   54) = (   0.4000000  -0.3464102   0.1808105), wk =   0.0380952
        k(   55) = (   0.4000000  -0.3464102   0.3616210), wk =   0.0380952
        k(   56) = (   0.4000000  -0.3464102   0.5424315), wk =   0.0380952
        k(   57) = (   0.4000000  -0.1539601   0.0000000), wk =   0.0190476
        k(   58) = (   0.4000000  -0.1539601   0.1808105), wk =   0.0380952
        k(   59) = (   0.4000000  -0.1539601   0.3616210), wk =   0.0380952
        k(   60) = (   0.4000000  -0.1539601   0.5424315), wk =   0.0380952
        k(   61) = (   0.4000000   0.0384900   0.0000000), wk =   0.0190476
        k(   62) = (   0.4000000   0.0384900   0.1808105), wk =   0.0380952
        k(   63) = (   0.4000000   0.0384900   0.3616210), wk =   0.0380952
        k(   64) = (   0.4000000   0.0384900   0.5424315), wk =   0.0380952

     Largest allocated arrays     est. size (Mb)     dimensions
     Largest temporary arrays     est. size (Mb)     dimensions

     Initial potential from superposition of free atoms

     Starting from uniform charge
     Starting wfc are    0 randomized atomic wfcs

     Self-consistent Calculation

     iteration #  1     ecut=    40.00 Ry     beta=0.70
     CG style diagonalization
     c_bands:  1 eigenvalues not converged
     c_bands:  2 eigenvalues not converged
     c_bands:  5 eigenvalues not converged
     c_bands:  2 eigenvalues not converged
     c_bands:  4 eigenvalues not converged
     c_bands:  1 eigenvalues not converged
     c_bands:  1 eigenvalues not converged
     c_bands:  1 eigenvalues not converged
     c_bands:  1 eigenvalues not converged
     c_bands:  4 eigenvalues not converged
     c_bands:  2 eigenvalues not converged
     c_bands:  2 eigenvalues not converged
     c_bands:  1 eigenvalues not converged
     c_bands:  1 eigenvalues not converged
     c_bands:  3 eigenvalues not converged
     c_bands:  1 eigenvalues not converged
     c_bands:  3 eigenvalues not converged
     c_bands:  2 eigenvalues not converged
     c_bands:  1 eigenvalues not converged
     c_bands:  1 eigenvalues not converged
     c_bands:  4 eigenvalues not converged
     c_bands:  1 eigenvalues not converged
     c_bands:  1 eigenvalues not converged
     c_bands:  5 eigenvalues not converged
     c_bands:  2 eigenvalues not converged
     c_bands:  3 eigenvalues not converged
     c_bands:  2 eigenvalues not converged
     c_bands:  1 eigenvalues not converged
     c_bands:  2 eigenvalues not converged
     c_bands:  2 eigenvalues not converged
     c_bands:  2 eigenvalues not converged
     c_bands:  1 eigenvalues not converged
     c_bands:  1 eigenvalues not converged
     c_bands:  3 eigenvalues not converged
     c_bands:  2 eigenvalues not converged
     c_bands:  3 eigenvalues not converged
     c_bands:  1 eigenvalues not converged
     c_bands:  1 eigenvalues not converged
     c_bands:  3 eigenvalues not converged
     c_bands:  2 eigenvalues not converged
     c_bands:  1 eigenvalues not converged
     ethr =  1.00E-02,  avg # of iterations = 10.8

     total energy              =   -1347.95910004 Ry
     Harris-Foulkes estimate   =   -1734.04545212 Ry
     estimated scf accuracy    <     507.43524399 Ry

     iteration #  2     ecut=    40.00 Ry     beta=0.70
     CG style diagonalization
     ethr =  1.00E-02,  avg # of iterations =  8.1

[...]

     End of self-consistent calculation

[...]
        k(   11) = (   0.0000000   0.3981094   0.3659559), wk =   0.0380952
        k(   12) = (   0.0000000   0.3981094   0.5489338), wk =   0.0380952
        k(   13) = (   0.0000000  -0.5971641   0.0000000), wk =   0.0095238
        k(   14) = (   0.0000000  -0.5971641   0.1829779), wk =   0.0190476
        k(   15) = (   0.0000000  -0.5971641   0.3659559), wk =   0.0190476
        k(   16) = (   0.0000000  -0.5971641   0.5489338), wk =   0.0190476
        k(   17) = (   0.2068637   0.1194328   0.0000000), wk =   0.0190476
        k(   18) = (   0.2068637   0.1194328   0.1829779), wk =   0.0380952
        k(   19) = (   0.2068637   0.1194328   0.3659559), wk =   0.0380952
        k(   20) = (   0.2068637   0.1194328   0.5489338), wk =   0.0380952
        k(   21) = (   0.2068637   0.3184875   0.0000000), wk =   0.0190476
        k(   22) = (   0.2068637   0.3184875   0.1829779), wk =   0.0380952
        k(   23) = (   0.2068637   0.3184875   0.3659559), wk =   0.0380952
        k(   24) = (   0.2068637   0.3184875   0.5489338), wk =   0.0380952
        k(   25) = (   0.2068637   0.5175423   0.0000000), wk =   0.0190476
        k(   26) = (   0.2068637   0.5175423   0.1829779), wk =   0.0380952
        k(   27) = (   0.2068637   0.5175423   0.3659559), wk =   0.0380952
        k(   28) = (   0.2068637   0.5175423   0.5489338), wk =   0.0380952
        k(   29) = (   0.2068637  -0.4777313   0.0000000), wk =   0.0190476
        k(   30) = (   0.2068637  -0.4777313   0.1829779), wk =   0.0380952
        k(   31) = (   0.2068637  -0.4777313   0.3659559), wk =   0.0380952
        k(   32) = (   0.2068637  -0.4777313   0.5489338), wk =   0.0380952
        k(   33) = (   0.2068637  -0.2786766   0.0000000), wk =   0.0190476
        k(   34) = (   0.2068637  -0.2786766   0.1829779), wk =   0.0380952
        k(   35) = (   0.2068637  -0.2786766   0.3659559), wk =   0.0380952
        k(   36) = (   0.2068637  -0.2786766   0.5489338), wk =   0.0380952
        k(   37) = (   0.2068637  -0.0796219   0.0000000), wk =   0.0190476
        k(   38) = (   0.2068637  -0.0796219   0.1829779), wk =   0.0380952
        k(   39) = (   0.2068637  -0.0796219   0.3659559), wk =   0.0380952
        k(   40) = (   0.2068637  -0.0796219   0.5489338), wk =   0.0380952
        k(   41) = (   0.4137275   0.2388657   0.0000000), wk =   0.0190476
        k(   42) = (   0.4137275   0.2388657   0.1829779), wk =   0.0380952
        k(   43) = (   0.4137275   0.2388657   0.3659559), wk =   0.0380952
        k(   44) = (   0.4137275   0.2388657   0.5489338), wk =   0.0380952
        k(   45) = (   0.4137275   0.4379204   0.0000000), wk =   0.0190476
        k(   46) = (   0.4137275   0.4379204   0.1829779), wk =   0.0380952
        k(   47) = (   0.4137275   0.4379204   0.3659559), wk =   0.0380952
        k(   48) = (   0.4137275   0.4379204   0.5489338), wk =   0.0380952
        k(   49) = (   0.4137275   0.6369751   0.0000000), wk =   0.0190476
        k(   50) = (   0.4137275   0.6369751   0.1829779), wk =   0.0380952
        k(   51) = (   0.4137275   0.6369751   0.3659559), wk =   0.0380952
        k(   52) = (   0.4137275   0.6369751   0.5489338), wk =   0.0380952
        k(   53) = (   0.4137275  -0.3582985   0.0000000), wk =   0.0190476
        k(   54) = (   0.4137275  -0.3582985   0.1829779), wk =   0.0380952
        k(   55) = (   0.4137275  -0.3582985   0.3659559), wk =   0.0380952
        k(   56) = (   0.4137275  -0.3582985   0.5489338), wk =   0.0380952
        k(   57) = (   0.4137275  -0.1592438   0.0000000), wk =   0.0190476
        k(   58) = (   0.4137275  -0.1592438   0.1829779), wk =   0.0380952
        k(   59) = (   0.4137275  -0.1592438   0.3659559), wk =   0.0380952
        k(   60) = (   0.4137275  -0.1592438   0.5489338), wk =   0.0380952
        k(   61) = (   0.4137275   0.0398109   0.0000000), wk =   0.0190476
        k(   62) = (   0.4137275   0.0398109   0.1829779), wk =   0.0380952
        k(   63) = (   0.4137275   0.0398109   0.3659559), wk =   0.0380952
        k(   64) = (   0.4137275   0.0398109   0.5489338), wk =   0.0380952

[...]

     The maximum number of steps has been reached.

     End of BFGS Geometry Optimization
Begin final coordinates
     new unit-cell volume =   1096.70998 a.u.^3 (   162.51565 Ang^3 )

CELL_PARAMETERS (alat= 12.01680127)
   0.966820048   0.000000000   0.000000000
  -0.483410024   0.837290723   0.000000000
   0.000000000   0.000000000   0.780734247

ATOMIC_POSITIONS (crystal)
Mg       0.666644047   0.833322023   0.250000000
Mg       0.833322023   0.166677977   0.750000000
Mg       0.333355953   0.166677977   0.750000000
Mg       0.166677977   0.833322023   0.250000000
Mg       0.166677977   0.333355953   0.250000000
Mg       0.833322023   0.666644047   0.750000000
Cd       0.666667000   0.333333000   0.250000000
Cd       0.333333000   0.666667000   0.750000000
End final coordinates

     A final scf calculation at the relaxed structure.
     The G-vectors are recalculated for the final unit cell
     Results may differ from those at the preceding step.

     bravais-lattice index     =            0
     lattice parameter (alat)  =      12.0168  a.u.
     unit-cell volume          =    1096.7100 (a.u.)^3
     number of atoms/cell      =            8
     number of atomic types    =            2
     number of electrons       =       138.00
     number of Kohn-Sham states=           83
     kinetic-energy cutoff     =      40.0000  Ry
     charge density cutoff     =     160.0000  Ry
     convergence threshold     =      8.9E-06
     mixing beta               =       0.7000
     number of iterations used =            8  plain     mixing
     Exchange-correlation      = SLA-PZ-NOGX-NOGC ( 1 1 0 0 0)
     EXX-fraction              =        0.00

     celldm(1)=  12.016801  celldm(2)=   0.000000  celldm(3)=   0.000000
     celldm(4)=   0.000000  celldm(5)=   0.000000  celldm(6)=   0.000000

     crystal axes: (cart. coord. in units of alat)
               a(1) = (   0.966820   0.000000   0.000000 )
               a(2) = (  -0.483410   0.837291   0.000000 )
               a(3) = (   0.000000   0.000000   0.780734 )

     reciprocal axes: (cart. coord. in units 2 pi/alat)
               b(1) = (  1.034319  0.597164  0.000000 )
               b(2) = (  0.000000  1.194328  0.000000 )
               b(3) = (  0.000000  0.000000  1.280846 )

     PseudoPot. # 1 for Eu read from file:
     /home/cwx6513/pp.La/Eu.UPF
     MD5 check sum: 5efdbbfc50c6a10138933a6429836ad2
     Pseudo is Norm-conserving, Zval = 17.0
     Generated in analytical, separable form
     Using radial grid of 1261 points,  6 beta functions with:
                l(1) =   0
                l(2) =   0
                l(3) =   1
                l(4) =   1
                l(5) =   2
                l(6) =   3

     PseudoPot. # 2 for Gd read from file:
     /home/cwx6513/pp.La/Gd.UPF
     MD5 check sum: 09a8be538722f05520810cb6aac0efd2
     Pseudo is Norm-conserving, Zval = 18.0
     Generated in analytical, separable form
     Using radial grid of 1263 points,  6 beta functions with:
                l(1) =   0
                l(2) =   0
                l(3) =   1
                l(4) =   1
                l(5) =   2
                l(6) =   3

     atomic species   valence    mass     pseudopotential
        Mg            17.00    24.30500     Eu( 1.00)
        Cd            18.00   112.41100     Gd( 1.00)

     24 Sym. Ops., with inversion, found (12 have fractional translation)

   Cartesian axes

     site n.     atom                  positions (alat units)
         1           Mg  tau(   1) = (   0.2416886   0.6977328   0.1951836  )
         2           Mg  tau(   2) = (   0.7250986   0.1395579   0.5855507  )
         3           Mg  tau(   3) = (   0.2417214   0.1395579   0.5855507  )
         4           Mg  tau(   4) = (  -0.2416886   0.6977328   0.1951836  )
         5           Mg  tau(   5) = (   0.0000000   0.2791158   0.1951836  )
         6           Mg  tau(   6) = (   0.4834100   0.5581749   0.5855507  )
         7           Cd  tau(   7) = (   0.4834105   0.2790966   0.1951836  )
         8           Cd  tau(   8) = (  -0.0000005   0.5581941   0.5855507  )

     number of k points=    64  gaussian smearing, width (Ry)=  0.1000
                       cart. coord. in units 2pi/alat
        k(    1) = (   0.0000000   0.0000000   0.0000000), wk =   0.0095238
        k(    2) = (   0.0000000   0.0000000   0.1829779), wk =   0.0190476
        k(    3) = (   0.0000000   0.0000000   0.3659559), wk =   0.0190476
        k(    4) = (   0.0000000   0.0000000   0.5489338), wk =   0.0190476
        k(    5) = (   0.0000000   0.1990547   0.0000000), wk =   0.0190476
        k(    6) = (   0.0000000   0.1990547   0.1829779), wk =   0.0380952
        k(    7) = (   0.0000000   0.1990547   0.3659559), wk =   0.0380952
        k(    8) = (   0.0000000   0.1990547   0.5489338), wk =   0.0380952
        k(    9) = (   0.0000000   0.3981094   0.0000000), wk =   0.0190476
        k(   10) = (   0.0000000   0.3981094   0.1829779), wk =   0.0380952
        k(   11) = (   0.0000000   0.3981094   0.3659559), wk =   0.0380952
        k(   12) = (   0.0000000   0.3981094   0.5489338), wk =   0.0380952
        k(   13) = (   0.0000000  -0.5971641   0.0000000), wk =   0.0095238
        k(   14) = (   0.0000000  -0.5971641   0.1829779), wk =   0.0190476
        k(   15) = (   0.0000000  -0.5971641   0.3659559), wk =   0.0190476
        k(   16) = (   0.0000000  -0.5971641   0.5489338), wk =   0.0190476
        k(   17) = (   0.2068637   0.1194328   0.0000000), wk =   0.0190476
        k(   18) = (   0.2068637   0.1194328   0.1829779), wk =   0.0380952
        k(   19) = (   0.2068637   0.1194328   0.3659559), wk =   0.0380952
        k(   20) = (   0.2068637   0.1194328   0.5489338), wk =   0.0380952
        k(   21) = (   0.2068637   0.3184875   0.0000000), wk =   0.0190476
        k(   22) = (   0.2068637   0.3184875   0.1829779), wk =   0.0380952
        k(   23) = (   0.2068637   0.3184875   0.3659559), wk =   0.0380952
        k(   24) = (   0.2068637   0.3184875   0.5489338), wk =   0.0380952
        k(   25) = (   0.2068637   0.5175423   0.0000000), wk =   0.0190476
        k(   26) = (   0.2068637   0.5175423   0.1829779), wk =   0.0380952
        k(   27) = (   0.2068637   0.5175423   0.3659559), wk =   0.0380952
        k(   28) = (   0.2068637   0.5175423   0.5489338), wk =   0.0380952
        k(   29) = (   0.2068637  -0.4777313   0.0000000), wk =   0.0190476
        k(   30) = (   0.2068637  -0.4777313   0.1829779), wk =   0.0380952
        k(   31) = (   0.2068637  -0.4777313   0.3659559), wk =   0.0380952
        k(   32) = (   0.2068637  -0.4777313   0.5489338), wk =   0.0380952
        k(   33) = (   0.2068637  -0.2786766   0.0000000), wk =   0.0190476
        k(   34) = (   0.2068637  -0.2786766   0.1829779), wk =   0.0380952
        k(   35) = (   0.2068637  -0.2786766   0.3659559), wk =   0.0380952
        k(   36) = (   0.2068637  -0.2786766   0.5489338), wk =   0.0380952
        k(   37) = (   0.2068637  -0.0796219   0.0000000), wk =   0.0190476
        k(   38) = (   0.2068637  -0.0796219   0.1829779), wk =   0.0380952
        k(   39) = (   0.2068637  -0.0796219   0.3659559), wk =   0.0380952
        k(   40) = (   0.2068637  -0.0796219   0.5489338), wk =   0.0380952
        k(   41) = (   0.4137275   0.2388657   0.0000000), wk =   0.0190476
        k(   42) = (   0.4137275   0.2388657   0.1829779), wk =   0.0380952
        k(   43) = (   0.4137275   0.2388657   0.3659559), wk =   0.0380952
        k(   44) = (   0.4137275   0.2388657   0.5489338), wk =   0.0380952
        k(   45) = (   0.4137275   0.4379204   0.0000000), wk =   0.0190476
        k(   46) = (   0.4137275   0.4379204   0.1829779), wk =   0.0380952
        k(   47) = (   0.4137275   0.4379204   0.3659559), wk =   0.0380952
        k(   48) = (   0.4137275   0.4379204   0.5489338), wk =   0.0380952
        k(   49) = (   0.4137275   0.6369751   0.0000000), wk =   0.0190476
        k(   50) = (   0.4137275   0.6369751   0.1829779), wk =   0.0380952
        k(   51) = (   0.4137275   0.6369751   0.3659559), wk =   0.0380952
        k(   52) = (   0.4137275   0.6369751   0.5489338), wk =   0.0380952
        k(   53) = (   0.4137275  -0.3582985   0.0000000), wk =   0.0190476
        k(   54) = (   0.4137275  -0.3582985   0.1829779), wk =   0.0380952
        k(   55) = (   0.4137275  -0.3582985   0.3659559), wk =   0.0380952
        k(   56) = (   0.4137275  -0.3582985   0.5489338), wk =   0.0380952
        k(   57) = (   0.4137275  -0.1592438   0.0000000), wk =   0.0190476
        k(   58) = (   0.4137275  -0.1592438   0.1829779), wk =   0.0380952
        k(   59) = (   0.4137275  -0.1592438   0.3659559), wk =   0.0380952
        k(   60) = (   0.4137275  -0.1592438   0.5489338), wk =   0.0380952
        k(   61) = (   0.4137275   0.0398109   0.0000000), wk =   0.0190476
        k(   62) = (   0.4137275   0.0398109   0.1829779), wk =   0.0380952
        k(   63) = (   0.4137275   0.0398109   0.3659559), wk =   0.0380952
        k(   64) = (   0.4137275   0.0398109   0.5489338), wk =   0.0380952

     Largest allocated arrays     est. size (Mb)     dimensions
     Largest temporary arrays     est. size (Mb)     dimensions

     Initial potential from superposition of free atoms

     Starting from uniform charge
     Starting wfc are    0 randomized atomic wfcs

     Writing output data file Prototype-La-hP8-Mg3Cd.save

     Self-consistent Calculation

[...]

     iteration #  5     ecut=    40.00 Ry     beta=0.70
     CG style diagonalization
     ethr =  5.40E-04,  avg # of iterations =  3.7

[...]

     total energy              =   -1453.76156929 Ry
     Harris-Foulkes estimate   =   -1453.76176633 Ry
     estimated scf accuracy    <       0.00046792 Ry

     iteration # 10     ecut=    40.00 Ry     beta=0.70
     CG style diagonalization
     c_bands:  1 eigenvalues not converged
     ethr =  3.39E-07,  avg # of iterations =  3.3

     End of self-consistent calculation

[...]

          k = 0.4137 0.0398 0.5489 (  4675 PWs)   bands (ev):

   -45.5146 -45.5145 -40.1237 -40.1057 -40.0847 -40.0746 -40.0654 -40.0580
   -16.4773 -16.4762 -16.4743 -16.4740 -16.4679 -16.4638 -13.1294 -13.1205
   -13.0803 -13.0636 -12.9996 -12.9761 -12.8248 -12.7761 -12.7189 -12.7135
   -12.6670 -12.6254 -12.5818 -12.5709 -12.5614 -12.5285 -12.5041 -12.4989
    16.6983  16.7238  16.8480  17.0183  17.0463  17.2156  17.3552  17.5039
    17.6091  17.6483  17.8025  18.0022  18.0861  18.1622  18.2034  18.3296
    18.8909  19.0422  19.3956  19.6171  19.6821  19.8333  19.9488  20.0497
    20.1884  20.2696  20.6418  20.7501  20.8213  20.8998  21.0272  21.1800
    21.7251  22.1356  22.3519  22.5143  22.6968  22.8468  22.9360  23.0518
    23.3194  23.4042  23.6626  24.2702  24.9116  25.3437  27.6164  27.9088
    30.5689  30.8305  31.9410

     the Fermi energy is    22.7244 ev

!    total energy              =   -1453.76162604 Ry
     Harris-Foulkes estimate   =   -1453.76163280 Ry
     estimated scf accuracy    <       0.00000851 Ry

     The total energy is the sum of the following terms:

     one-electron contribution =    -144.28028456 Ry
     hartree contribution      =     173.47247087 Ry
     xc contribution           =    -148.59242601 Ry
     ewald contribution        =   -1333.76301935 Ry
     smearing contrib. (-TS)   =      -0.59836699 Ry

     convergence has been achieved in  10 iterations

     Forces acting on atoms (Ry/au):

     atom    1 type  1   force =     0.00915468    0.00528546    0.00000000
     atom    2 type  1   force =     0.00915468   -0.00528546    0.00000000
     atom    3 type  1   force =    -0.00915468   -0.00528546    0.00000000
     atom    4 type  1   force =    -0.00915468    0.00528546    0.00000000
     atom    5 type  1   force =     0.00000000   -0.01057091    0.00000000
     atom    6 type  1   force =     0.00000000    0.01057091    0.00000000
     atom    7 type  2   force =     0.00000000    0.00000000    0.00000000
     atom    8 type  2   force =     0.00000000    0.00000000    0.00000000

     Total force =     0.025893     Total SCF correction =     0.000000

     entering subroutine stress ...

          total   stress  (Ry/bohr**3)                   (kbar)     P= -325.76
  -0.00225695   0.00000000   0.00000000       -332.01      0.00      0.00
   0.00000000  -0.00225695   0.00000000          0.00   -332.01      0.00
   0.00000000   0.00000000  -0.00212962          0.00      0.00   -313.28

     Writing output data file Prototype-La-hP8-Mg3Cd.save

     General routines

     Parallel routines

   This run was terminated on:  22: 5:41  22Mar2018

   JOB DONE.