     Program PWSCF v.5.0.2 starts on 22Mar2018 at 17:34:48

     Current dimensions of program PWSCF are:
     Max number of different atomic species (ntypx) = 10
     Max number of k-points (npk) =  40000
     Max angular momentum in pseudopotentials (lmaxx) =  3
     Waiting for input...
     Reading input from standard input

     Subspace diagonalization in iterative solution of the eigenvalue problem:
     a serial algorithm will be used

     bravais-lattice index     =            0
     lattice parameter (alat)  =      12.0168  a.u.
     unit-cell volume          =    1187.3413 (a.u.)^3
     number of atoms/cell      =            8
     number of atomic types    =            2
     number of electrons       =       156.00
     number of Kohn-Sham states=           94
     kinetic-energy cutoff     =      40.0000  Ry
     charge density cutoff     =     160.0000  Ry
     convergence threshold     =      1.0E-04
     mixing beta               =       0.7000
     number of iterations used =            8  plain     mixing
     Exchange-correlation      = SLA-PZ-NOGX-NOGC ( 1 1 0 0 0)
     EXX-fraction              =        0.00
     nstep                     =           50

     celldm(1)=  12.016801  celldm(2)=   0.000000  celldm(3)=   0.000000
     celldm(4)=   0.000000  celldm(5)=   0.000000  celldm(6)=   0.000000

     crystal axes: (cart. coord. in units of alat)
               a(1) = (   1.000000   0.000000   0.000000 )
               a(2) = (  -0.500000   0.866025   0.000000 )
               a(3) = (   0.000000   0.000000   0.790093 )

     reciprocal axes: (cart. coord. in units 2 pi/alat)
               b(1) = (  1.000000  0.577350  0.000000 )
               b(2) = (  0.000000  1.154701  0.000000 )
               b(3) = (  0.000000  0.000000  1.265674 )

     PseudoPot. # 1 for Tb read from file:
     /home/cwx6513/pp.La/Tb.UPF
     MD5 check sum: 3d6088a3f0cf7fd2e110c43f7f8e95c2
     Pseudo is Norm-conserving, Zval = 19.0
     Generated in analytical, separable form
     Using radial grid of 1263 points,  6 beta functions with:
                l(1) =   0
                l(2) =   0
                l(3) =   1
                l(4) =   1
                l(5) =   2
                l(6) =   3

     PseudoPot. # 2 for Ho read from file:
     /home/cwx6513/pp.La/Ho.UPF
     MD5 check sum: f307ee11bce99f5b724fa279e3790763
     Pseudo is Norm-conserving, Zval = 21.0
     Generated in analytical, separable form
     Using radial grid of 1265 points,  6 beta functions with:
                l(1) =   0
                l(2) =   0
                l(3) =   1
                l(4) =   1
                l(5) =   2
                l(6) =   3

     atomic species   valence    mass     pseudopotential
        Mg            19.00    24.30500     Tb( 1.00)
        Cd            21.00   112.41100     Ho( 1.00)

     24 Sym. Ops., with inversion, found (12 have fractional translation)

   Cartesian axes

     site n.     atom                  positions (alat units)
         1           Mg  tau(   1) = (   0.2478935   0.7204716   0.1975233  )
         2           Mg  tau(   2) = (   0.7478935   0.1455538   0.5925699  )
         3           Mg  tau(   3) = (   0.2521065   0.1455538   0.5925699  )
         4           Mg  tau(   4) = (  -0.2478935   0.7204716   0.1975233  )
         5           Mg  tau(   5) = (   0.0000000   0.2911075   0.1975233  )
         6           Mg  tau(   6) = (   0.5000000   0.5749179   0.5925699  )
         7           Cd  tau(   7) = (   0.5000005   0.2886748   0.1975233  )
         8           Cd  tau(   8) = (  -0.0000005   0.5773506   0.5925699  )

     number of k points=    64  gaussian smearing, width (Ry)=  0.1000
                       cart. coord. in units 2pi/alat
        k(    1) = (   0.0000000   0.0000000   0.0000000), wk =   0.0095238
        k(    2) = (   0.0000000   0.0000000   0.1808105), wk =   0.0190476
        k(    3) = (   0.0000000   0.0000000   0.3616210), wk =   0.0190476
        k(    4) = (   0.0000000   0.0000000   0.5424315), wk =   0.0190476
        k(    5) = (   0.0000000   0.1924501   0.0000000), wk =   0.0190476
        k(    6) = (   0.0000000   0.1924501   0.1808105), wk =   0.0380952
        k(    7) = (   0.0000000   0.1924501   0.3616210), wk =   0.0380952
        k(    8) = (   0.0000000   0.1924501   0.5424315), wk =   0.0380952
        k(    9) = (   0.0000000   0.3849002   0.0000000), wk =   0.0190476
        k(   10) = (   0.0000000   0.3849002   0.1808105), wk =   0.0380952
        k(   11) = (   0.0000000   0.3849002   0.3616210), wk =   0.0380952
        k(   12) = (   0.0000000   0.3849002   0.5424315), wk =   0.0380952
        k(   13) = (   0.0000000  -0.5773503   0.0000000), wk =   0.0095238
        k(   14) = (   0.0000000  -0.5773503   0.1808105), wk =   0.0190476
        k(   15) = (   0.0000000  -0.5773503   0.3616210), wk =   0.0190476
        k(   16) = (   0.0000000  -0.5773503   0.5424315), wk =   0.0190476
        k(   17) = (   0.2000000   0.1154701   0.0000000), wk =   0.0190476
        k(   18) = (   0.2000000   0.1154701   0.1808105), wk =   0.0380952
        k(   19) = (   0.2000000   0.1154701   0.3616210), wk =   0.0380952
        k(   20) = (   0.2000000   0.1154701   0.5424315), wk =   0.0380952
        k(   21) = (   0.2000000   0.3079201   0.0000000), wk =   0.0190476
        k(   22) = (   0.2000000   0.3079201   0.1808105), wk =   0.0380952
        k(   23) = (   0.2000000   0.3079201   0.3616210), wk =   0.0380952
        k(   24) = (   0.2000000   0.3079201   0.5424315), wk =   0.0380952
        k(   25) = (   0.2000000   0.5003702   0.0000000), wk =   0.0190476
        k(   26) = (   0.2000000   0.5003702   0.1808105), wk =   0.0380952
        k(   27) = (   0.2000000   0.5003702   0.3616210), wk =   0.0380952
        k(   28) = (   0.2000000   0.5003702   0.5424315), wk =   0.0380952
        k(   29) = (   0.2000000  -0.4618802   0.0000000), wk =   0.0190476
        k(   30) = (   0.2000000  -0.4618802   0.1808105), wk =   0.0380952
        k(   31) = (   0.2000000  -0.4618802   0.3616210), wk =   0.0380952
        k(   32) = (   0.2000000  -0.4618802   0.5424315), wk =   0.0380952
        k(   33) = (   0.2000000  -0.2694301   0.0000000), wk =   0.0190476
        k(   34) = (   0.2000000  -0.2694301   0.1808105), wk =   0.0380952
        k(   35) = (   0.2000000  -0.2694301   0.3616210), wk =   0.0380952
        k(   36) = (   0.2000000  -0.2694301   0.5424315), wk =   0.0380952
        k(   37) = (   0.2000000  -0.0769800   0.0000000), wk =   0.0190476
        k(   38) = (   0.2000000  -0.0769800   0.1808105), wk =   0.0380952
        k(   39) = (   0.2000000  -0.0769800   0.3616210), wk =   0.0380952
        k(   40) = (   0.2000000  -0.0769800   0.5424315), wk =   0.0380952
        k(   41) = (   0.4000000   0.2309401   0.0000000), wk =   0.0190476
        k(   42) = (   0.4000000   0.2309401   0.1808105), wk =   0.0380952
        k(   43) = (   0.4000000   0.2309401   0.3616210), wk =   0.0380952
        k(   44) = (   0.4000000   0.2309401   0.5424315), wk =   0.0380952
        k(   45) = (   0.4000000   0.4233902   0.0000000), wk =   0.0190476
        k(   46) = (   0.4000000   0.4233902   0.1808105), wk =   0.0380952
        k(   47) = (   0.4000000   0.4233902   0.3616210), wk =   0.0380952
        k(   48) = (   0.4000000   0.4233902   0.5424315), wk =   0.0380952
        k(   49) = (   0.4000000   0.6158403   0.0000000), wk =   0.0190476
        k(   50) = (   0.4000000   0.6158403   0.1808105), wk =   0.0380952
        k(   51) = (   0.4000000   0.6158403   0.3616210), wk =   0.0380952
        k(   52) = (   0.4000000   0.6158403   0.5424315), wk =   0.0380952
        k(   53) = (   0.4000000  -0.3464102   0.0000000), wk =   0.0190476
        k(   54) = (   0.4000000  -0.3464102   0.1808105), wk =   0.0380952
        k(   55) = (   0.4000000  -0.3464102   0.3616210), wk =   0.0380952
        k(   56) = (   0.4000000  -0.3464102   0.5424315), wk =   0.0380952
        k(   57) = (   0.4000000  -0.1539601   0.0000000), wk =   0.0190476
        k(   58) = (   0.4000000  -0.1539601   0.1808105), wk =   0.0380952
        k(   59) = (   0.4000000  -0.1539601   0.3616210), wk =   0.0380952
        k(   60) = (   0.4000000  -0.1539601   0.5424315), wk =   0.0380952
        k(   61) = (   0.4000000   0.0384900   0.0000000), wk =   0.0190476
        k(   62) = (   0.4000000   0.0384900   0.1808105), wk =   0.0380952
        k(   63) = (   0.4000000   0.0384900   0.3616210), wk =   0.0380952
        k(   64) = (   0.4000000   0.0384900   0.5424315), wk =   0.0380952

     Largest allocated arrays     est. size (Mb)     dimensions
     Largest temporary arrays     est. size (Mb)     dimensions

     Initial potential from superposition of free atoms

     Starting from uniform charge
     Starting wfc are    0 randomized atomic wfcs

     Self-consistent Calculation

     iteration #  1     ecut=    40.00 Ry     beta=0.70
     CG style diagonalization
     c_bands:  1 eigenvalues not converged
     c_bands:  1 eigenvalues not converged
     c_bands:  1 eigenvalues not converged
     c_bands:  1 eigenvalues not converged
     c_bands:  1 eigenvalues not converged
     c_bands:  1 eigenvalues not converged
     c_bands:  1 eigenvalues not converged
     c_bands:  1 eigenvalues not converged
     c_bands:  1 eigenvalues not converged
     c_bands:  1 eigenvalues not converged
     c_bands:  2 eigenvalues not converged
     c_bands:  1 eigenvalues not converged
     c_bands:  1 eigenvalues not converged
     c_bands:  1 eigenvalues not converged
     c_bands:  1 eigenvalues not converged
     c_bands:  1 eigenvalues not converged
     c_bands:  1 eigenvalues not converged
     c_bands:  1 eigenvalues not converged
     c_bands:  1 eigenvalues not converged
     c_bands:  1 eigenvalues not converged
     ethr =  1.00E-02,  avg # of iterations = 12.1

     total energy              =   -1604.79473526 Ry
     Harris-Foulkes estimate   =   -2436.14777185 Ry
     estimated scf accuracy    <    1040.35095648 Ry

[...]

     iteration #  4     ecut=    40.00 Ry     beta=0.70
     CG style diagonalization
     ethr =  1.00E-02,  avg # of iterations =  6.3

[...]

     End of self-consistent calculation

          k = 0.0000 0.0000 0.0000 (  5047 PWs)   bands (ev):

   -69.2949 -69.2912 -52.6573 -52.6406 -52.6379 -52.6378 -52.6316 -52.6315
   -33.4328 -33.4261 -33.4092 -33.4092 -33.4005 -33.4006 -21.1941 -21.1371
   -21.0789 -21.0686 -21.0685 -21.0484 -21.0483 -21.0350 -21.0349 -20.9716
   -20.8975 -20.8974 -20.8276 -20.8243 -20.8209 -20.8209 -20.8125 -20.8124
    10.3600  10.3624  10.3624  10.3912  10.3912  10.3992  10.4799  10.4799
    10.6330  10.6330  12.5229  13.7022  14.6720  15.0186  15.3349  15.3848
    15.3849  15.4873  15.4873  15.9468  15.9469  16.0421  16.5028  16.5029
    16.5400  16.9245  16.9284  16.9285  17.1462  17.1462  17.7902  17.7902
    18.0677  18.0677  18.1910  18.1910  18.2519  18.2519  18.9041  19.1826
    19.2017  20.4193  20.7477  21.0935  21.0935  21.1507  22.5053  22.5054
    24.1659  26.1083  26.1085  26.5828  26.8757  26.9181  27.8710  27.8711
[...]
        k(   16) = (   0.0000000  -0.5833878   0.5396006), wk =   0.0190476
        k(   17) = (   0.2020915   0.1166776   0.0000000), wk =   0.0190476
        k(   18) = (   0.2020915   0.1166776   0.1798669), wk =   0.0380952
        k(   19) = (   0.2020915   0.1166776   0.3597337), wk =   0.0380952
        k(   20) = (   0.2020915   0.1166776   0.5396006), wk =   0.0380952
        k(   21) = (   0.2020915   0.3111402   0.0000000), wk =   0.0190476
        k(   22) = (   0.2020915   0.3111402   0.1798669), wk =   0.0380952
        k(   23) = (   0.2020915   0.3111402   0.3597337), wk =   0.0380952
        k(   24) = (   0.2020915   0.3111402   0.5396006), wk =   0.0380952
        k(   25) = (   0.2020915   0.5056027   0.0000000), wk =   0.0190476
        k(   26) = (   0.2020915   0.5056027   0.1798669), wk =   0.0380952
        k(   27) = (   0.2020915   0.5056027   0.3597337), wk =   0.0380952
        k(   28) = (   0.2020915   0.5056027   0.5396006), wk =   0.0380952
        k(   29) = (   0.2020915  -0.4667102   0.0000000), wk =   0.0190476
        k(   30) = (   0.2020915  -0.4667102   0.1798669), wk =   0.0380952
        k(   31) = (   0.2020915  -0.4667102   0.3597337), wk =   0.0380952
        k(   32) = (   0.2020915  -0.4667102   0.5396006), wk =   0.0380952
        k(   33) = (   0.2020915  -0.2722476   0.0000000), wk =   0.0190476
        k(   34) = (   0.2020915  -0.2722476   0.1798669), wk =   0.0380952
        k(   35) = (   0.2020915  -0.2722476   0.3597337), wk =   0.0380952
        k(   36) = (   0.2020915  -0.2722476   0.5396006), wk =   0.0380952
        k(   37) = (   0.2020915  -0.0777850   0.0000000), wk =   0.0190476
        k(   38) = (   0.2020915  -0.0777850   0.1798669), wk =   0.0380952
        k(   39) = (   0.2020915  -0.0777850   0.3597337), wk =   0.0380952
        k(   40) = (   0.2020915  -0.0777850   0.5396006), wk =   0.0380952
        k(   41) = (   0.4041829   0.2333551   0.0000000), wk =   0.0190476
        k(   42) = (   0.4041829   0.2333551   0.1798669), wk =   0.0380952
        k(   43) = (   0.4041829   0.2333551   0.3597337), wk =   0.0380952
        k(   44) = (   0.4041829   0.2333551   0.5396006), wk =   0.0380952
        k(   45) = (   0.4041829   0.4278177   0.0000000), wk =   0.0190476
        k(   46) = (   0.4041829   0.4278177   0.1798669), wk =   0.0380952
        k(   47) = (   0.4041829   0.4278177   0.3597337), wk =   0.0380952
        k(   48) = (   0.4041829   0.4278177   0.5396006), wk =   0.0380952
        k(   49) = (   0.4041829   0.6222803   0.0000000), wk =   0.0190476
        k(   50) = (   0.4041829   0.6222803   0.1798669), wk =   0.0380952
        k(   51) = (   0.4041829   0.6222803   0.3597337), wk =   0.0380952
        k(   52) = (   0.4041829   0.6222803   0.5396006), wk =   0.0380952
        k(   53) = (   0.4041829  -0.3500327   0.0000000), wk =   0.0190476
        k(   54) = (   0.4041829  -0.3500327   0.1798669), wk =   0.0380952
        k(   55) = (   0.4041829  -0.3500327   0.3597337), wk =   0.0380952
        k(   56) = (   0.4041829  -0.3500327   0.5396006), wk =   0.0380952
        k(   57) = (   0.4041829  -0.1555701   0.0000000), wk =   0.0190476
        k(   58) = (   0.4041829  -0.1555701   0.1798669), wk =   0.0380952
        k(   59) = (   0.4041829  -0.1555701   0.3597337), wk =   0.0380952
        k(   60) = (   0.4041829  -0.1555701   0.5396006), wk =   0.0380952
        k(   61) = (   0.4041829   0.0388925   0.0000000), wk =   0.0190476
        k(   62) = (   0.4041829   0.0388925   0.1798669), wk =   0.0380952
        k(   63) = (   0.4041829   0.0388925   0.3597337), wk =   0.0380952
        k(   64) = (   0.4041829   0.0388925   0.5396006), wk =   0.0380952

[...]

     The maximum number of steps has been reached.

     End of BFGS Geometry Optimization
Begin final coordinates
     new unit-cell volume =   1168.99358 a.u.^3 (   173.22697 Ang^3 )

CELL_PARAMETERS (alat= 12.01680127)
   0.989650937   0.000000000   0.000000000
  -0.494825469   0.857062853   0.000000000
   0.000000000   0.000000000   0.794238213

ATOMIC_POSITIONS (crystal)
Mg       0.667580143   0.833790072   0.250000000
Mg       0.833790072   0.166209928   0.750000000
Mg       0.332419857   0.166209928   0.750000000
Mg       0.166209928   0.833790072   0.250000000
Mg       0.166209928   0.332419857   0.250000000
Mg       0.833790072   0.667580143   0.750000000
Cd       0.666667000   0.333333000   0.250000000
Cd       0.333333000   0.666667000   0.750000000
End final coordinates

     A final scf calculation at the relaxed structure.
     The G-vectors are recalculated for the final unit cell
     Results may differ from those at the preceding step.

     bravais-lattice index     =            0
     lattice parameter (alat)  =      12.0168  a.u.
     unit-cell volume          =    1168.9936 (a.u.)^3
     number of atoms/cell      =            8
     number of atomic types    =            2
     number of electrons       =       156.00
     number of Kohn-Sham states=           94
     kinetic-energy cutoff     =      40.0000  Ry
     charge density cutoff     =     160.0000  Ry
     convergence threshold     =      3.6E-05
     mixing beta               =       0.7000
     number of iterations used =            8  plain     mixing
     Exchange-correlation      = SLA-PZ-NOGX-NOGC ( 1 1 0 0 0)
     EXX-fraction              =        0.00

     celldm(1)=  12.016801  celldm(2)=   0.000000  celldm(3)=   0.000000
     celldm(4)=   0.000000  celldm(5)=   0.000000  celldm(6)=   0.000000

     crystal axes: (cart. coord. in units of alat)
               a(1) = (   0.989651   0.000000   0.000000 )
               a(2) = (  -0.494825   0.857063   0.000000 )
               a(3) = (   0.000000   0.000000   0.794238 )

     reciprocal axes: (cart. coord. in units 2 pi/alat)
               b(1) = (  1.010457  0.583388  0.000000 )
               b(2) = (  0.000000  1.166776  0.000000 )
               b(3) = (  0.000000  0.000000  1.259068 )

     PseudoPot. # 1 for Tb read from file:
     /home/cwx6513/pp.La/Tb.UPF
     MD5 check sum: 3d6088a3f0cf7fd2e110c43f7f8e95c2
     Pseudo is Norm-conserving, Zval = 19.0
     Generated in analytical, separable form
     Using radial grid of 1263 points,  6 beta functions with:
                l(1) =   0
                l(2) =   0
                l(3) =   1
                l(4) =   1
                l(5) =   2
                l(6) =   3

     PseudoPot. # 2 for Ho read from file:
     /home/cwx6513/pp.La/Ho.UPF
     MD5 check sum: f307ee11bce99f5b724fa279e3790763
     Pseudo is Norm-conserving, Zval = 21.0
     Generated in analytical, separable form
     Using radial grid of 1265 points,  6 beta functions with:
                l(1) =   0
                l(2) =   0
                l(3) =   1
                l(4) =   1
                l(5) =   2
                l(6) =   3

     atomic species   valence    mass     pseudopotential
        Mg            19.00    24.30500     Tb( 1.00)
        Cd            21.00   112.41100     Ho( 1.00)

     24 Sym. Ops., with inversion, found (12 have fractional translation)

   Cartesian axes

     site n.     atom                  positions (alat units)
         1           Mg  tau(   1) = (   0.2480908   0.7146105   0.1985596  )
         2           Mg  tau(   2) = (   0.7429162   0.1424524   0.5956787  )
         3           Mg  tau(   3) = (   0.2467347   0.1424524   0.5956787  )
         4           Mg  tau(   4) = (  -0.2480908   0.7146105   0.1985596  )
         5           Mg  tau(   5) = (   0.0000000   0.2849047   0.1985596  )
         6           Mg  tau(   6) = (   0.4948255   0.5721581   0.5956787  )
         7           Cd  tau(   7) = (   0.4948260   0.2856873   0.1985596  )
         8           Cd  tau(   8) = (  -0.0000005   0.5713755   0.5956787  )

     number of k points=    64  gaussian smearing, width (Ry)=  0.1000
                       cart. coord. in units 2pi/alat
        k(    1) = (   0.0000000   0.0000000   0.0000000), wk =   0.0095238
        k(    2) = (   0.0000000   0.0000000   0.1798669), wk =   0.0190476
        k(    3) = (   0.0000000   0.0000000   0.3597337), wk =   0.0190476
        k(    4) = (   0.0000000   0.0000000   0.5396006), wk =   0.0190476
        k(    5) = (   0.0000000   0.1944626   0.0000000), wk =   0.0190476
        k(    6) = (   0.0000000   0.1944626   0.1798669), wk =   0.0380952
        k(    7) = (   0.0000000   0.1944626   0.3597337), wk =   0.0380952
        k(    8) = (   0.0000000   0.1944626   0.5396006), wk =   0.0380952
        k(    9) = (   0.0000000   0.3889252   0.0000000), wk =   0.0190476
        k(   10) = (   0.0000000   0.3889252   0.1798669), wk =   0.0380952
        k(   11) = (   0.0000000   0.3889252   0.3597337), wk =   0.0380952
        k(   12) = (   0.0000000   0.3889252   0.5396006), wk =   0.0380952
        k(   13) = (   0.0000000  -0.5833878   0.0000000), wk =   0.0095238
        k(   14) = (   0.0000000  -0.5833878   0.1798669), wk =   0.0190476
        k(   15) = (   0.0000000  -0.5833878   0.3597337), wk =   0.0190476
        k(   16) = (   0.0000000  -0.5833878   0.5396006), wk =   0.0190476
        k(   17) = (   0.2020915   0.1166776   0.0000000), wk =   0.0190476
        k(   18) = (   0.2020915   0.1166776   0.1798669), wk =   0.0380952
        k(   19) = (   0.2020915   0.1166776   0.3597337), wk =   0.0380952
        k(   20) = (   0.2020915   0.1166776   0.5396006), wk =   0.0380952
        k(   21) = (   0.2020915   0.3111402   0.0000000), wk =   0.0190476
        k(   22) = (   0.2020915   0.3111402   0.1798669), wk =   0.0380952
        k(   23) = (   0.2020915   0.3111402   0.3597337), wk =   0.0380952
        k(   24) = (   0.2020915   0.3111402   0.5396006), wk =   0.0380952
        k(   25) = (   0.2020915   0.5056027   0.0000000), wk =   0.0190476
        k(   26) = (   0.2020915   0.5056027   0.1798669), wk =   0.0380952
        k(   27) = (   0.2020915   0.5056027   0.3597337), wk =   0.0380952
        k(   28) = (   0.2020915   0.5056027   0.5396006), wk =   0.0380952
        k(   29) = (   0.2020915  -0.4667102   0.0000000), wk =   0.0190476
        k(   30) = (   0.2020915  -0.4667102   0.1798669), wk =   0.0380952
        k(   31) = (   0.2020915  -0.4667102   0.3597337), wk =   0.0380952
        k(   32) = (   0.2020915  -0.4667102   0.5396006), wk =   0.0380952
        k(   33) = (   0.2020915  -0.2722476   0.0000000), wk =   0.0190476
        k(   34) = (   0.2020915  -0.2722476   0.1798669), wk =   0.0380952
        k(   35) = (   0.2020915  -0.2722476   0.3597337), wk =   0.0380952
        k(   36) = (   0.2020915  -0.2722476   0.5396006), wk =   0.0380952
        k(   37) = (   0.2020915  -0.0777850   0.0000000), wk =   0.0190476
        k(   38) = (   0.2020915  -0.0777850   0.1798669), wk =   0.0380952
        k(   39) = (   0.2020915  -0.0777850   0.3597337), wk =   0.0380952
        k(   40) = (   0.2020915  -0.0777850   0.5396006), wk =   0.0380952
        k(   41) = (   0.4041829   0.2333551   0.0000000), wk =   0.0190476
        k(   42) = (   0.4041829   0.2333551   0.1798669), wk =   0.0380952
        k(   43) = (   0.4041829   0.2333551   0.3597337), wk =   0.0380952
        k(   44) = (   0.4041829   0.2333551   0.5396006), wk =   0.0380952
        k(   45) = (   0.4041829   0.4278177   0.0000000), wk =   0.0190476
        k(   46) = (   0.4041829   0.4278177   0.1798669), wk =   0.0380952
        k(   47) = (   0.4041829   0.4278177   0.3597337), wk =   0.0380952
        k(   48) = (   0.4041829   0.4278177   0.5396006), wk =   0.0380952
        k(   49) = (   0.4041829   0.6222803   0.0000000), wk =   0.0190476
        k(   50) = (   0.4041829   0.6222803   0.1798669), wk =   0.0380952
        k(   51) = (   0.4041829   0.6222803   0.3597337), wk =   0.0380952
        k(   52) = (   0.4041829   0.6222803   0.5396006), wk =   0.0380952
        k(   53) = (   0.4041829  -0.3500327   0.0000000), wk =   0.0190476
        k(   54) = (   0.4041829  -0.3500327   0.1798669), wk =   0.0380952
        k(   55) = (   0.4041829  -0.3500327   0.3597337), wk =   0.0380952
        k(   56) = (   0.4041829  -0.3500327   0.5396006), wk =   0.0380952
        k(   57) = (   0.4041829  -0.1555701   0.0000000), wk =   0.0190476
        k(   58) = (   0.4041829  -0.1555701   0.1798669), wk =   0.0380952
        k(   59) = (   0.4041829  -0.1555701   0.3597337), wk =   0.0380952
        k(   60) = (   0.4041829  -0.1555701   0.5396006), wk =   0.0380952
        k(   61) = (   0.4041829   0.0388925   0.0000000), wk =   0.0190476
        k(   62) = (   0.4041829   0.0388925   0.1798669), wk =   0.0380952
        k(   63) = (   0.4041829   0.0388925   0.3597337), wk =   0.0380952
        k(   64) = (   0.4041829   0.0388925   0.5396006), wk =   0.0380952

     Largest allocated arrays     est. size (Mb)     dimensions
     Largest temporary arrays     est. size (Mb)     dimensions

     Initial potential from superposition of free atoms

     Starting from uniform charge
     Starting wfc are    0 randomized atomic wfcs

     Writing output data file Prototype-La-hP8-Mg3Cd.save

     Self-consistent Calculation

[...]

     iteration # 10     ecut=    40.00 Ry     beta=0.70
     CG style diagonalization
     c_bands:  1 eigenvalues not converged
     c_bands:  1 eigenvalues not converged
     c_bands:  1 eigenvalues not converged
     c_bands:  1 eigenvalues not converged
     c_bands:  1 eigenvalues not converged
     c_bands:  1 eigenvalues not converged
     c_bands:  1 eigenvalues not converged
     c_bands:  1 eigenvalues not converged
     ethr =  1.04E-06,  avg # of iterations =  4.1

[...]

     total energy              =   -1963.95764522 Ry
     Harris-Foulkes estimate   =   -1963.95768321 Ry
     estimated scf accuracy    <       0.00006012 Ry

     iteration # 12     ecut=    40.00 Ry     beta=0.70
     CG style diagonalization
     ethr =  3.85E-08,  avg # of iterations =  3.5

     End of self-consistent calculation

[...]

          k = 0.4042 0.0389 0.5396 (  4987 PWs)   bands (ev):

   -68.8822 -68.8788 -52.2539 -52.2457 -52.2428 -52.2393 -52.2381 -52.2362
   -33.0092 -33.0058 -33.0012 -32.9984 -32.9938 -32.9934 -20.7402 -20.7330
   -20.7276 -20.7191 -20.6888 -20.6855 -20.5867 -20.5817 -20.5562 -20.5413
   -20.5182 -20.5046 -20.4977 -20.4899 -20.4815 -20.4605 -20.4378 -20.4320
    10.8041  10.8287  10.8419  10.8574  10.8794  10.8928  10.9556  10.9630
    11.0086  11.0258  14.3272  14.3356  15.3736  15.5613  15.6173  15.6869
    15.9320  16.0362  16.1498  16.2011  16.2045  16.2736  16.5367  16.6099
    16.9615  16.9885  17.0390  17.1695  17.4457  17.5981  17.6803  17.8468
    17.9854  18.0817  18.2592  18.2922  18.5499  18.6842  18.6888  19.0977
    19.1553  19.4150  19.8126  20.2015  20.8247  21.2903  23.2509  23.5940
    25.3157  25.7264  27.4550  28.0658  28.3615  28.6356  29.1514  29.5943
    30.3427  30.7932  31.4002  31.5134  31.6976  31.8528

     the Fermi energy is    22.9837 ev

!    total energy              =   -1963.95765739 Ry
     Harris-Foulkes estimate   =   -1963.95765839 Ry
     estimated scf accuracy    <       0.00000120 Ry

     The total energy is the sum of the following terms:

     one-electron contribution =    -420.91201791 Ry
     hartree contribution      =     310.13841709 Ry
     xc contribution           =    -183.41137513 Ry
     ewald contribution        =   -1669.61563637 Ry
     smearing contrib. (-TS)   =      -0.15704508 Ry

     convergence has been achieved in  12 iterations

     Forces acting on atoms (Ry/au):

     atom    1 type  1   force =     0.00144383    0.00083360    0.00000000
     atom    2 type  1   force =     0.00144383   -0.00083360    0.00000000
     atom    3 type  1   force =    -0.00144383   -0.00083360    0.00000000
     atom    4 type  1   force =    -0.00144383    0.00083360    0.00000000
     atom    5 type  1   force =     0.00000000   -0.00166719    0.00000000
     atom    6 type  1   force =     0.00000000    0.00166719    0.00000000
     atom    7 type  2   force =     0.00000000    0.00000000    0.00000000
     atom    8 type  2   force =     0.00000000    0.00000000    0.00000000

     Total force =     0.004084     Total SCF correction =     0.000000

     entering subroutine stress ...

          total   stress  (Ry/bohr**3)                   (kbar)     P= -458.71
  -0.00315662   0.00000000   0.00000000       -464.35      0.00      0.00
   0.00000000  -0.00315662   0.00000000          0.00   -464.35      0.00
   0.00000000   0.00000000  -0.00304146          0.00      0.00   -447.41

     Writing output data file Prototype-La-hP8-Mg3Cd.save

     General routines

     Parallel routines

   This run was terminated on:  18:38:10  22Mar2018

   JOB DONE.