     Program PWSCF v.5.0.2 starts on 22Mar2018 at 17:34:49

     Current dimensions of program PWSCF are:
     Max number of different atomic species (ntypx) = 10
     Max number of k-points (npk) =  40000
     Max angular momentum in pseudopotentials (lmaxx) =  3
     Waiting for input...
     Reading input from standard input

     Subspace diagonalization in iterative solution of the eigenvalue problem:
     a serial algorithm will be used

     bravais-lattice index     =            0
     lattice parameter (alat)  =       8.8008  a.u.
     unit-cell volume          =    1116.9454 (a.u.)^3
     number of atoms/cell      =           16
     number of atomic types    =            2
     number of electrons       =       312.00
     number of Kohn-Sham states=          187
     kinetic-energy cutoff     =      40.0000  Ry
     charge density cutoff     =     160.0000  Ry
     convergence threshold     =      1.0E-04
     mixing beta               =       0.7000
     number of iterations used =            8  plain     mixing
     Exchange-correlation      = SLA-PZ-NOGX-NOGC ( 1 1 0 0 0)
     EXX-fraction              =        0.00
     nstep                     =           50

     celldm(1)=   8.800765  celldm(2)=   0.000000  celldm(3)=   0.000000
     celldm(4)=   0.000000  celldm(5)=   0.000000  celldm(6)=   0.000000

     crystal axes: (cart. coord. in units of alat)
               a(1) = (   1.000000   0.000000   0.000000 )
               a(2) = (   0.000000   1.083771   0.000000 )
               a(3) = (   0.000000   0.000000   1.511935 )

     reciprocal axes: (cart. coord. in units 2 pi/alat)
               b(1) = (  1.000000  0.000000  0.000000 )
               b(2) = (  0.000000  0.922704  0.000000 )
               b(3) = (  0.000000  0.000000  0.661404 )

     PseudoPot. # 1 for Tb read from file:
     /home/jld5415/pp.La/Tb.UPF
     MD5 check sum: 3d6088a3f0cf7fd2e110c43f7f8e95c2
     Pseudo is Norm-conserving, Zval = 19.0
     Generated in analytical, separable form
     Using radial grid of 1263 points,  6 beta functions with:
                l(1) =   0
                l(2) =   0
                l(3) =   1
                l(4) =   1
                l(5) =   2
                l(6) =   3

     PseudoPot. # 2 for Ho read from file:
     /home/jld5415/pp.La/Ho.UPF
     MD5 check sum: f307ee11bce99f5b724fa279e3790763
     Pseudo is Norm-conserving, Zval = 21.0
     Generated in analytical, separable form
     Using radial grid of 1265 points,  6 beta functions with:
                l(1) =   0
                l(2) =   0
                l(3) =   1
                l(4) =   1
                l(5) =   2
                l(6) =   3

     atomic species   valence    mass     pseudopotential
        Fe            19.00    55.84500     Tb( 1.00)
        C             21.00    12.01070     Ho( 1.00)

      8 Sym. Ops., with inversion, found ( 6 have fractional translation)

   Cartesian axes

     site n.     atom                  positions (alat units)
         1           Fe  tau(   1) = (   0.3472940   0.1827628   1.3947267  )
         2           Fe  tau(   2) = (   0.1527060   0.7246484   0.8731757  )
         3           Fe  tau(   3) = (   0.8472940   0.3591227   0.6387592  )
         4           Fe  tau(   4) = (   0.3396640   0.4879235   0.3779837  )
         5           Fe  tau(   5) = (   0.1527060   0.7246484   1.3947267  )
         6           Fe  tau(   6) = (   0.3472940   0.1827628   0.8731757  )
         7           Fe  tau(   7) = (   0.1603360   1.0298091   0.3779837  )
         8           Fe  tau(   8) = (   0.6527060   0.9010083   0.6387592  )
         9           Fe  tau(   9) = (   0.8472940   0.3591227   0.1172082  )
        10           Fe  tau(  10) = (   0.6603360   0.5958476   1.1339512  )
        11           Fe  tau(  11) = (   0.6527060   0.9010083   0.1172082  )
        12           Fe  tau(  12) = (   0.8396640   0.0539620   1.1339512  )
        13           C   tau(  13) = (   0.0000000   0.0000000   0.0000000  )
        14           C   tau(  14) = (   0.5000000   0.5418856   0.0000000  )
        15           C   tau(  15) = (   0.5000000   0.5418856   0.7559674  )
        16           C   tau(  16) = (   0.0000000   0.0000000   0.7559674  )

     number of k points=    12  gaussian smearing, width (Ry)=  0.1000
                       cart. coord. in units 2pi/alat
        k(    1) = (   0.0000000   0.0000000   0.0000000), wk =   0.0833333
        k(    2) = (   0.0000000   0.0000000   0.1653510), wk =   0.1666667
        k(    3) = (   0.0000000   0.0000000  -0.3307021), wk =   0.0833333
        k(    4) = (   0.0000000   0.3075680   0.0000000), wk =   0.1666667
        k(    5) = (   0.0000000   0.3075680   0.1653510), wk =   0.3333333
        k(    6) = (   0.0000000   0.3075680  -0.3307021), wk =   0.1666667
        k(    7) = (  -0.5000000   0.0000000   0.0000000), wk =   0.0833333
        k(    8) = (  -0.5000000   0.0000000   0.1653510), wk =   0.1666667
        k(    9) = (  -0.5000000   0.0000000  -0.3307021), wk =   0.0833333
        k(   10) = (  -0.5000000   0.3075680   0.0000000), wk =   0.1666667
        k(   11) = (  -0.5000000   0.3075680   0.1653510), wk =   0.3333333
        k(   12) = (  -0.5000000   0.3075680  -0.3307021), wk =   0.1666667

     Largest allocated arrays     est. size (Mb)     dimensions
     Largest temporary arrays     est. size (Mb)     dimensions

     Initial potential from superposition of free atoms

     Starting from uniform charge
     Starting wfc are    0 randomized atomic wfcs

     Self-consistent Calculation

     iteration #  1     ecut=    40.00 Ry     beta=0.70
     CG style diagonalization
     ethr =  1.00E-02,  avg # of iterations = 21.9

     total energy              =   -2918.07568782 Ry
     Harris-Foulkes estimate   =   -4804.96471498 Ry
     estimated scf accuracy    <    2253.30565239 Ry

     iteration #  2     ecut=    40.00 Ry     beta=0.70
     CG style diagonalization
     c_bands:  5 eigenvalues not converged
     c_bands:  4 eigenvalues not converged
     ethr =  1.00E-02,  avg # of iterations = 15.5

[...]

     End of self-consistent calculation

          k = 0.0000 0.0000 0.0000 (  4785 PWs)   bands (ev):

   -45.7580 -45.7152 -45.6101 -45.5913 -27.8298 -27.8151 -27.6737 -27.6644
   -27.4597 -27.4365 -27.3213 -27.2927 -27.2704 -27.0896 -26.9122 -26.8158
   -12.8813 -12.8668 -12.7828 -12.7791 -12.3464 -12.2814 -10.5691 -10.5339
   -10.5150 -10.4636 -10.4030 -10.3656   0.9795   1.0782   1.2919   1.6198
     1.6481   2.2668   2.6799   3.1273   3.1776   3.2051   3.9838   4.0680
     4.0834   4.3479   4.4919   4.5002   4.7203   4.7486   4.7870   4.8566
     4.8614   4.9115   4.9371   4.9871   5.1044   5.1844   5.2266   5.2444
     5.2986   5.3699   5.3951   5.4464   5.4807   5.5833   5.5861   5.6396
    26.6787  26.9388  27.5422  27.7448  27.8429  27.8461  28.0301  28.0362
    29.2031  29.4974  29.7255  30.2420  31.4317  31.8003  32.4293  32.4454
    32.4636  34.2561  34.5799  34.7165  35.5666  35.9106  36.4855  36.8759
    36.9019  36.9168  36.9257  37.3128  37.9583  38.5892  38.6295  38.6852
    39.0416  39.2013  39.2080  39.3170  39.3807  39.4613  39.5546  40.0212
    40.1969  40.2702  40.6477  40.7724  41.3449  41.4074  41.5702  41.6016
    41.6702  41.7176  41.7507  41.9855  42.0040  42.2727  42.3797  43.2949
    43.3582  43.5786  43.8408  44.3840  44.4278  44.6097  44.6568  44.9415
    45.3239  45.4504  46.0300  46.1454  46.2052  46.2061  46.2670  46.3597
    46.4333  47.1856  48.2757  48.3113  48.7608  48.8929  49.0828  49.8986
    49.9985  50.0353  50.3197  50.5447  52.4977  52.9082  53.1292  54.1180
    54.2266  54.3616  54.5449  54.5523  54.8982  56.0524  56.1054  56.3336
    56.3851  56.5479  56.7165  56.8586  57.1784  57.2877  57.6437  57.6478
    57.6584  57.9498  58.3194  58.8725  59.3804  59.4604  59.7894  60.2581
    60.2791  60.5715  61.1893  61.6906  61.7195  61.7923  61.8930  62.1091
    62.2026  62.5294  62.5958

[...]

          k =-0.5000 0.0000 0.0000 (  4798 PWs)   bands (ev):

[...]

     the Fermi energy is    55.2566 ev

!    total energy              =   -3885.09076876 Ry
     Harris-Foulkes estimate   =   -3885.09077653 Ry
     estimated scf accuracy    <       0.00000937 Ry

     The total energy is the sum of the following terms:

     one-electron contribution =      39.21529623 Ry
     hartree contribution      =     480.39096108 Ry
     xc contribution           =    -396.91971515 Ry
     ewald contribution        =   -4007.49388761 Ry
     smearing contrib. (-TS)   =      -0.28342331 Ry

     convergence has been achieved in  10 iterations

     Forces acting on atoms (Ry/au):

     atom    1 type  1   force =     1.11856498   -1.18404996   -1.53542121
     atom    2 type  1   force =    -1.11856498   -1.18404996    1.53542121
     atom    3 type  1   force =     1.11856498    1.18404996   -1.53542121
     atom    4 type  1   force =    -1.85334814   -0.69246450    0.00000000
     atom    5 type  1   force =    -1.11856498   -1.18404996   -1.53542121
     atom    6 type  1   force =     1.11856498   -1.18404996    1.53542121
     atom    7 type  1   force =     1.85334814   -0.69246450    0.00000000
     atom    8 type  1   force =    -1.11856498    1.18404996   -1.53542121
     atom    9 type  1   force =     1.11856498    1.18404996    1.53542121
     atom   10 type  1   force =     1.85334814    0.69246450    0.00000000
     atom   11 type  1   force =    -1.11856498    1.18404996    1.53542121
     atom   12 type  1   force =    -1.85334814    0.69246450    0.00000000
     atom   13 type  2   force =     0.00000000    0.00000000    0.00000000
     atom   14 type  2   force =     0.00000000    0.00000000    0.00000000
     atom   15 type  2   force =     0.00000000    0.00000000    0.00000000
     atom   16 type  2   force =     0.00000000    0.00000000    0.00000000

     Total force =     7.466128     Total SCF correction =     0.000000

     entering subroutine stress ...

          total   stress  (Ry/bohr**3)                   (kbar)     P=12710.01
   0.08686808   0.00000000   0.00000000      12778.73      0.00      0.00
   0.00000000   0.08768634   0.00000000          0.00  12899.10      0.00
   0.00000000   0.00000000   0.08464828          0.00      0.00  12452.19

     BFGS Geometry Optimization

     number of scf cycles    =   1
     number of bfgs steps    =   0

     enthalpy new            =   -3885.0907687608 Ry

     new trust radius        =       0.5000000000 bohr
     new conv_thr            =       0.0001000000 Ry

     new unit-cell volume =   1382.57579 a.u.^3 (   204.87659 Ang^3 )

CELL_PARAMETERS (alat=  8.80076499)
   1.074105815   0.000000000   0.000000000
   0.000000000   1.164841411   0.000000000
   0.000000000   0.000000000   1.621114929

ATOMIC_POSITIONS (crystal)
Fe       0.351631034   0.164399921   0.918540450
Fe       0.148368966   0.664399921   0.581459550
Fe       0.851631034   0.335600079   0.418540450
Fe       0.332477976   0.447731626   0.250000000
Fe       0.148368966   0.664399921   0.918540450
Fe       0.351631034   0.164399921   0.581459550
Fe       0.167522024   0.947731626   0.250000000
Fe       0.648368966   0.835600079   0.418540450
Fe       0.851631034   0.335600079   0.081459550
Fe       0.667522024   0.552268374   0.750000000
Fe       0.648368966   0.835600079   0.081459550
Fe       0.832477976   0.052268374   0.750000000
C        0.000000000   0.000000000   0.000000000
C        0.500000000   0.500000000   0.000000000
C        0.500000000   0.500000000   0.500000000
C        0.000000000   0.000000000   0.500000000

     Writing output data file Prototype-La-oP16-Fe3C.save
     NEW-OLD atomic charge density approx. for the potential
     NEW k-points:
        k(    1) = (   0.0000000   0.0000000   0.0000000), wk =   0.0833333
        k(    2) = (   0.0000000   0.0000000   0.1542149), wk =   0.1666667
        k(    3) = (   0.0000000   0.0000000  -0.3084297), wk =   0.0833333
        k(    4) = (   0.0000000   0.2861620   0.0000000), wk =   0.1666667
        k(    5) = (   0.0000000   0.2861620   0.1542149), wk =   0.3333333
        k(    6) = (   0.0000000   0.2861620  -0.3084297), wk =   0.1666667
        k(    7) = (  -0.4655035   0.0000000   0.0000000), wk =   0.0833333
        k(    8) = (  -0.4655035   0.0000000   0.1542149), wk =   0.1666667
        k(    9) = (  -0.4655035   0.0000000  -0.3084297), wk =   0.0833333
        k(   10) = (  -0.4655035   0.2861620   0.0000000), wk =   0.1666667
        k(   11) = (  -0.4655035   0.2861620   0.1542149), wk =   0.3333333
        k(   12) = (  -0.4655035   0.2861620  -0.3084297), wk =   0.1666667

[...]

          total   stress  (Ry/bohr**3)                   (kbar)     P= 5262.64
   0.03632075   0.00000000   0.00000000       5342.97      0.00      0.00
   0.00000000   0.03544626   0.00000000          0.00   5214.32      0.00
   0.00000000   0.00000000   0.03555710          0.00      0.00   5230.63

[...]

     enthalpy old            =   -3885.0907687608 Ry
     enthalpy new            =   -3902.0371177736 Ry

     CASE: enthalpy_new < enthalpy_old

     small trust_radius: resetting bfgs history

     new trust radius        =       6.7525721467 bohr
     new conv_thr            =       0.0001000000 Ry

[...]

     negative rho (up, down):  0.158E+00 0.000E+00

[...]

          total   stress  (Ry/bohr**3)                   (kbar)     P=-3287.60
  -0.02269411   0.00000000   0.00000000      -3338.42      0.00      0.00
   0.00000000  -0.02221302   0.00000000          0.00  -3267.65      0.00
   0.00000000   0.00000000  -0.02213885          0.00      0.00  -3256.74

     number of scf cycles    =   3
     number of bfgs steps    =   2

     enthalpy old            =   -3902.0371177736 Ry
     enthalpy new            =   -3781.0272416712 Ry

     CASE: enthalpy_new > enthalpy_old

     new trust radius        =       2.5640768929 bohr

     trust_radius < trust_radius_min

     resetting bfgs history

     Message from routine bfgs:
     history already reset at previous step: stopping
     new conv_thr            =       0.0001000000 Ry

     new unit-cell volume =   1590.36607 a.u.^3 (   235.66793 Ang^3 )

[...]

ATOMIC_POSITIONS (crystal)
Fe       0.353623602   0.162507741   0.916874272
Fe       0.146376398   0.662507741   0.583125728
Fe       0.853623602   0.337492259   0.416874272
Fe       0.329206466   0.446577231   0.250000000
Fe       0.146376398   0.662507741   0.916874272
Fe       0.353623602   0.162507741   0.583125728
Fe       0.170793534   0.946577231   0.250000000
Fe       0.646376398   0.837492259   0.416874272
Fe       0.853623602   0.337492259   0.083125728
Fe       0.670793534   0.553422769   0.750000000
Fe       0.646376398   0.837492259   0.083125728
Fe       0.829206466   0.053422769   0.750000000
C        0.000000000   0.000000000   0.000000000
C        0.500000000   0.500000000   0.000000000
C        0.500000000   0.500000000   0.500000000
C        0.000000000   0.000000000   0.500000000

     Writing output data file Prototype-La-oP16-Fe3C.save
     NEW-OLD atomic charge density approx. for the potential
     NEW k-points:
        k(    1) = (   0.0000000   0.0000000   0.0000000), wk =   0.0833333
        k(    2) = (   0.0000000   0.0000000   0.1472627), wk =   0.1666667
        k(    3) = (   0.0000000   0.0000000  -0.2945254), wk =   0.0833333
        k(    4) = (   0.0000000   0.2733359   0.0000000), wk =   0.1666667
        k(    5) = (   0.0000000   0.2733359   0.1472627), wk =   0.3333333
        k(    6) = (   0.0000000   0.2733359  -0.2945254), wk =   0.1666667
        k(    7) = (  -0.4436735   0.0000000   0.0000000), wk =   0.0833333
        k(    8) = (  -0.4436735   0.0000000   0.1472627), wk =   0.1666667
        k(    9) = (  -0.4436735   0.0000000  -0.2945254), wk =   0.0833333
        k(   10) = (  -0.4436735   0.2733359   0.0000000), wk =   0.1666667
        k(   11) = (  -0.4436735   0.2733359   0.1472627), wk =   0.3333333
        k(   12) = (  -0.4436735   0.2733359  -0.2945254), wk =   0.1666667

[...]

     The maximum number of steps has been reached.

     End of BFGS Geometry Optimization
Begin final coordinates
     new unit-cell volume =   1590.36607 a.u.^3 (   235.66793 Ang^3 )

CELL_PARAMETERS (alat=  8.80076499)
   1.126954891   0.000000000   0.000000000
   0.000000000   1.219500582   0.000000000
   0.000000000   0.000000000   1.697646593

ATOMIC_POSITIONS (crystal)
Fe       0.353623602   0.162507741   0.916874272
Fe       0.146376398   0.662507741   0.583125728
Fe       0.853623602   0.337492259   0.416874272
Fe       0.329206466   0.446577231   0.250000000
Fe       0.146376398   0.662507741   0.916874272
Fe       0.353623602   0.162507741   0.583125728
Fe       0.170793534   0.946577231   0.250000000
Fe       0.646376398   0.837492259   0.416874272
Fe       0.853623602   0.337492259   0.083125728
Fe       0.670793534   0.553422769   0.750000000
Fe       0.646376398   0.837492259   0.083125728
Fe       0.829206466   0.053422769   0.750000000
C        0.000000000   0.000000000   0.000000000
C        0.500000000   0.500000000   0.000000000
C        0.500000000   0.500000000   0.500000000
C        0.000000000   0.000000000   0.500000000
End final coordinates

     A final scf calculation at the relaxed structure.
     The G-vectors are recalculated for the final unit cell
     Results may differ from those at the preceding step.

     bravais-lattice index     =            0
     lattice parameter (alat)  =       8.8008  a.u.
     unit-cell volume          =    1590.3661 (a.u.)^3
     number of atoms/cell      =           16
     number of atomic types    =            2
     number of electrons       =       312.00
     number of Kohn-Sham states=          187
     kinetic-energy cutoff     =      40.0000  Ry
     charge density cutoff     =     160.0000  Ry
     convergence threshold     =      1.0E-04
     mixing beta               =       0.7000
     number of iterations used =            8  plain     mixing
     Exchange-correlation      = SLA-PZ-NOGX-NOGC ( 1 1 0 0 0)
     EXX-fraction              =        0.00

     celldm(1)=   8.800765  celldm(2)=   0.000000  celldm(3)=   0.000000
     celldm(4)=   0.000000  celldm(5)=   0.000000  celldm(6)=   0.000000

     crystal axes: (cart. coord. in units of alat)
               a(1) = (   1.126955   0.000000   0.000000 )
               a(2) = (   0.000000   1.219501   0.000000 )
               a(3) = (   0.000000   0.000000   1.697647 )

     reciprocal axes: (cart. coord. in units 2 pi/alat)
               b(1) = (  0.887347  0.000000  0.000000 )
               b(2) = (  0.000000  0.820008  0.000000 )
               b(3) = (  0.000000  0.000000  0.589051 )

     PseudoPot. # 1 for Tb read from file:
     /home/jld5415/pp.La/Tb.UPF
     MD5 check sum: 3d6088a3f0cf7fd2e110c43f7f8e95c2
     Pseudo is Norm-conserving, Zval = 19.0
     Generated in analytical, separable form
     Using radial grid of 1263 points,  6 beta functions with:
                l(1) =   0
                l(2) =   0
                l(3) =   1
                l(4) =   1
                l(5) =   2
                l(6) =   3

     PseudoPot. # 2 for Ho read from file:
     /home/jld5415/pp.La/Ho.UPF
     MD5 check sum: f307ee11bce99f5b724fa279e3790763
     Pseudo is Norm-conserving, Zval = 21.0
     Generated in analytical, separable form
     Using radial grid of 1265 points,  6 beta functions with:
                l(1) =   0
                l(2) =   0
                l(3) =   1
                l(4) =   1
                l(5) =   2
                l(6) =   3

     atomic species   valence    mass     pseudopotential
        Fe            19.00    55.84500     Tb( 1.00)
        C             21.00    12.01070     Ho( 1.00)

      8 Sym. Ops., with inversion, found ( 6 have fractional translation)

   Cartesian axes

     site n.     atom                  positions (alat units)
         1           Fe  tau(   1) = (   0.3985178   0.1981783   1.5565285  )
         2           Fe  tau(   2) = (   0.1649596   0.8079286   0.9899414  )
         3           Fe  tau(   3) = (   0.9619953   0.4115720   0.7077052  )
         4           Fe  tau(   4) = (   0.3710008   0.5446012   0.4244116  )
         5           Fe  tau(   5) = (   0.1649596   0.8079286   1.5565285  )
         6           Fe  tau(   6) = (   0.3985178   0.1981783   0.9899414  )
         7           Fe  tau(   7) = (   0.1924766   1.1543515   0.4244116  )
         8           Fe  tau(   8) = (   0.7284370   1.0213223   0.7077052  )
         9           Fe  tau(   9) = (   0.9619953   0.4115720   0.1411181  )
        10           Fe  tau(  10) = (   0.7559541   0.6748994   1.2732349  )
        11           Fe  tau(  11) = (   0.7284370   1.0213223   0.1411181  )
        12           Fe  tau(  12) = (   0.9344783   0.0651491   1.2732349  )
        13           C   tau(  13) = (   0.0000000   0.0000000   0.0000000  )
        14           C   tau(  14) = (   0.5634774   0.6097503   0.0000000  )
        15           C   tau(  15) = (   0.5634774   0.6097503   0.8488233  )
        16           C   tau(  16) = (   0.0000000   0.0000000   0.8488233  )

     number of k points=    12  gaussian smearing, width (Ry)=  0.1000
                       cart. coord. in units 2pi/alat
        k(    1) = (   0.0000000   0.0000000   0.0000000), wk =   0.0833333
        k(    2) = (   0.0000000   0.0000000   0.1472627), wk =   0.1666667
        k(    3) = (   0.0000000   0.0000000  -0.2945254), wk =   0.0833333
        k(    4) = (   0.0000000   0.2733359   0.0000000), wk =   0.1666667
        k(    5) = (   0.0000000   0.2733359   0.1472627), wk =   0.3333333
        k(    6) = (   0.0000000   0.2733359  -0.2945254), wk =   0.1666667
        k(    7) = (  -0.4436735   0.0000000   0.0000000), wk =   0.0833333
        k(    8) = (  -0.4436735   0.0000000   0.1472627), wk =   0.1666667
        k(    9) = (  -0.4436735   0.0000000  -0.2945254), wk =   0.0833333
        k(   10) = (  -0.4436735   0.2733359   0.0000000), wk =   0.1666667
        k(   11) = (  -0.4436735   0.2733359   0.1472627), wk =   0.3333333
        k(   12) = (  -0.4436735   0.2733359  -0.2945254), wk =   0.1666667

     Largest allocated arrays     est. size (Mb)     dimensions
     Largest temporary arrays     est. size (Mb)     dimensions

     Initial potential from superposition of free atoms

     Starting from uniform charge
     Starting wfc are    0 randomized atomic wfcs

     Writing output data file Prototype-La-oP16-Fe3C.save

     Self-consistent Calculation

[...]

     iteration #  6     ecut=    40.00 Ry     beta=0.70
     CG style diagonalization
     ethr =  1.08E-03,  avg # of iterations =  3.7

[...]

     total energy              =   -3913.71139359 Ry
     Harris-Foulkes estimate   =   -3913.71167379 Ry
     estimated scf accuracy    <       0.00045423 Ry

     iteration # 10     ecut=    40.00 Ry     beta=0.70
     CG style diagonalization
     c_bands:  1 eigenvalues not converged
     ethr =  1.46E-07,  avg # of iterations =  3.8

     End of self-consistent calculation

[...]

          k = 0.0000 0.2733-0.2945 (  6768 PWs)   bands (ev):

[...]

          k =-0.4437 0.2733-0.2945 (  6824 PWs)   bands (ev):

   -58.6403 -58.6403 -58.6401 -58.6401 -41.3105 -41.3105 -41.3078 -41.3078
   -41.1999 -41.1999 -41.1997 -41.1997 -41.1212 -41.1212 -41.1038 -41.1038
   -23.6894 -23.6894 -23.6860 -23.6860 -23.4519 -23.4519 -23.4461 -23.4461
   -23.3627 -23.3627 -23.3621 -23.3621 -10.8348 -10.8348 -10.8312 -10.8312
   -10.4097 -10.4097 -10.3834 -10.3834 -10.1611 -10.1611 -10.1462 -10.1462
    -9.9757  -9.9757  -9.9744  -9.9744  -9.6747  -9.6747  -9.6705  -9.6705
    -9.4721  -9.4721  -9.4687  -9.4687  -9.4391  -9.4391  -9.4043  -9.4043
    -9.2652  -9.2652  -9.1386  -9.1386  -9.0612  -9.0612  -9.0483  -9.0483
    17.4200  17.4200  17.4247  17.4247  17.9400  17.9400  17.9726  17.9726
    18.2559  18.2559  18.2938  18.2938  18.7927  18.7927  18.8694  18.8694
    19.0998  19.0998  19.1153  19.1153  23.8777  23.8777  24.0162  24.0162
    25.1517  25.1517  25.5024  25.5024  25.6387  25.6387  25.8201  25.8201
    26.0001  26.0001  26.1602  26.1602  26.3448  26.3448  26.5763  26.5763
    26.7956  26.7956  26.9024  26.9024  27.2635  27.2635  27.3683  27.3683
    27.7768  27.7768  28.0290  28.0290  28.1480  28.1480  28.4691  28.4691
    28.7917  28.7917  28.8562  28.8562  29.2217  29.2217  29.2904  29.2904
    29.4138  29.4138  29.9745  29.9745  30.1564  30.1564  30.5156  30.5156
    30.6521  30.6521  30.7699  30.7699  31.0758  31.0758  31.4601  31.4601
    31.8219  31.8219  32.0713  32.0713  32.7544  32.7544  33.0113  33.0113
    34.6598  34.6598  36.8935  36.8935  39.2146  39.2146  39.3790  39.3790
    39.7102  39.7102  40.2342  40.2342  41.8427  41.8427  41.9451  41.9451
    42.3702  42.3703  42.6588  42.6588  43.7490  43.7491  43.9582  43.9583
    44.4328  44.4329  44.4633  44.4634  44.7369  44.7373  44.8044  44.8048
    45.1042  45.1085  45.1119

     the Fermi energy is    37.4822 ev

!    total energy              =   -3913.71153314 Ry
     Harris-Foulkes estimate   =   -3913.71158791 Ry
     estimated scf accuracy    <       0.00006158 Ry

     The total energy is the sum of the following terms:

     one-electron contribution =    -539.51091557 Ry
     hartree contribution      =     598.69850714 Ry
     xc contribution           =    -380.50893272 Ry
     ewald contribution        =   -3592.18279760 Ry
     smearing contrib. (-TS)   =      -0.20739441 Ry

     convergence has been achieved in  10 iterations

     Forces acting on atoms (Ry/au):

     atom    1 type  1   force =     0.46586170   -0.47673444   -0.57458292
     atom    2 type  1   force =    -0.46586170   -0.47673444    0.57458292
     atom    3 type  1   force =     0.46586170    0.47673444   -0.57458292
     atom    4 type  1   force =    -0.77478903   -0.28005222    0.00000000
     atom    5 type  1   force =    -0.46586170   -0.47673444   -0.57458292
     atom    6 type  1   force =     0.46586170   -0.47673444    0.57458292
     atom    7 type  1   force =     0.77478903   -0.28005222    0.00000000
     atom    8 type  1   force =    -0.46586170    0.47673444   -0.57458292
     atom    9 type  1   force =     0.46586170    0.47673444    0.57458292
     atom   10 type  1   force =     0.77478903    0.28005222    0.00000000
     atom   11 type  1   force =    -0.46586170    0.47673444    0.57458292
     atom   12 type  1   force =    -0.77478903    0.28005222    0.00000000
     atom   13 type  2   force =     0.00000000    0.00000000    0.00000000
     atom   14 type  2   force =     0.00000000    0.00000000    0.00000000
     atom   15 type  2   force =     0.00000000    0.00000000    0.00000000
     atom   16 type  2   force =     0.00000000    0.00000000    0.00000000

     Total force =     2.985045     Total SCF correction =     0.000000

     entering subroutine stress ...

          total   stress  (Ry/bohr**3)                   (kbar)     P= 3194.33
   0.02209241   0.00000000   0.00000000       3249.90      0.00      0.00
   0.00000000   0.02135147   0.00000000          0.00   3140.91      0.00
   0.00000000   0.00000000   0.02169990          0.00      0.00   3192.17

     Writing output data file Prototype-La-oP16-Fe3C.save

     General routines

     Parallel routines

   This run was terminated on:  18:19:34  22Mar2018

   JOB DONE.