     Program PWSCF v.5.0.2 starts on 22Mar2018 at 17:34:41

     Current dimensions of program PWSCF are:
     Max number of different atomic species (ntypx) = 10
     Max number of k-points (npk) =  40000
     Max angular momentum in pseudopotentials (lmaxx) =  3
     Waiting for input...
     Reading input from standard input

     Subspace diagonalization in iterative solution of the eigenvalue problem:
     a serial algorithm will be used

     bravais-lattice index     =            0
     lattice parameter (alat)  =       8.5346  a.u.
     unit-cell volume          =     621.6493 (a.u.)^3
     number of atoms/cell      =            8
     number of atomic types    =            2
     number of electrons       =       156.00
     number of Kohn-Sham states=           94
     kinetic-energy cutoff     =      40.0000  Ry
     charge density cutoff     =     160.0000  Ry
     convergence threshold     =      1.0E-04
     mixing beta               =       0.7000
     number of iterations used =            8  plain     mixing
     Exchange-correlation      = SLA-PZ-NOGX-NOGC ( 1 1 0 0 0)
     EXX-fraction              =        0.00
     nstep                     =           50

     celldm(1)=   8.534573  celldm(2)=   0.000000  celldm(3)=   0.000000
     celldm(4)=   0.000000  celldm(5)=   0.000000  celldm(6)=   0.000000

     crystal axes: (cart. coord. in units of alat)
               a(1) = (   1.000000   0.000000   0.000000 )
               a(2) = (   0.000000   1.000000   0.000000 )
               a(3) = (   0.000000   0.000000   1.000000 )

     reciprocal axes: (cart. coord. in units 2 pi/alat)
               b(1) = (  1.000000  0.000000  0.000000 )
               b(2) = (  0.000000  1.000000  0.000000 )
               b(3) = (  0.000000  0.000000  1.000000 )

     PseudoPot. # 1 for Tb read from file:
     /home/cwx6513/pp.La/Tb.UPF
     MD5 check sum: 3d6088a3f0cf7fd2e110c43f7f8e95c2
     Pseudo is Norm-conserving, Zval = 19.0
     Generated in analytical, separable form
     Using radial grid of 1263 points,  6 beta functions with:
                l(1) =   0
                l(2) =   0
                l(3) =   1
                l(4) =   1
                l(5) =   2
                l(6) =   3

     PseudoPot. # 2 for Ho read from file:
     /home/cwx6513/pp.La/Ho.UPF
     MD5 check sum: f307ee11bce99f5b724fa279e3790763
     Pseudo is Norm-conserving, Zval = 21.0
     Generated in analytical, separable form
     Using radial grid of 1265 points,  6 beta functions with:
                l(1) =   0
                l(2) =   0
                l(3) =   1
                l(4) =   1
                l(5) =   2
                l(6) =   3

     atomic species   valence    mass     pseudopotential
        Cr            19.00    51.99610     Tb( 1.00)
        Si            21.00    28.08550     Ho( 1.00)

     48 Sym. Ops., with inversion, found (24 have fractional translation)

   Cartesian axes

     site n.     atom                  positions (alat units)
         1           Cr  tau(   1) = (   0.0000000   0.5000000   0.2500000  )
         2           Cr  tau(   2) = (   0.0000000   0.5000000   0.7500000  )
         3           Cr  tau(   3) = (   0.5000000   0.7500000   0.0000000  )
         4           Cr  tau(   4) = (   0.5000000   0.2500000   0.0000000  )
         5           Cr  tau(   5) = (   0.7500000   0.0000000   0.5000000  )
         6           Cr  tau(   6) = (   0.2500000   0.0000000   0.5000000  )
         7           Si  tau(   7) = (   0.5000000   0.5000000   0.5000000  )
         8           Si  tau(   8) = (   0.0000000   0.0000000   0.0000000  )

     number of k points=    48  gaussian smearing, width (Ry)=  0.1000
                       cart. coord. in units 2pi/alat
        k(    1) = (   0.0000000   0.0000000   0.0000000), wk =   0.0095238
        k(    2) = (   0.0000000   0.0000000   0.1428571), wk =   0.0190476
        k(    3) = (   0.0000000   0.0000000   0.2857143), wk =   0.0190476
        k(    4) = (   0.0000000   0.0000000   0.4285714), wk =   0.0190476
        k(    5) = (   0.0000000   0.1666667   0.0000000), wk =   0.0190476
        k(    6) = (   0.0000000   0.1666667   0.1428571), wk =   0.0380952
        k(    7) = (   0.0000000   0.1666667   0.2857143), wk =   0.0380952
        k(    8) = (   0.0000000   0.1666667   0.4285714), wk =   0.0380952
        k(    9) = (   0.0000000   0.3333333   0.0000000), wk =   0.0190476
        k(   10) = (   0.0000000   0.3333333   0.1428571), wk =   0.0380952
        k(   11) = (   0.0000000   0.3333333   0.2857143), wk =   0.0380952
        k(   12) = (   0.0000000   0.3333333   0.4285714), wk =   0.0380952
        k(   13) = (   0.0000000  -0.5000000   0.0000000), wk =   0.0095238
        k(   14) = (   0.0000000  -0.5000000   0.1428571), wk =   0.0190476
        k(   15) = (   0.0000000  -0.5000000   0.2857143), wk =   0.0190476
        k(   16) = (   0.0000000  -0.5000000   0.4285714), wk =   0.0190476
        k(   17) = (   0.2000000   0.0000000   0.0000000), wk =   0.0190476
        k(   18) = (   0.2000000   0.0000000   0.1428571), wk =   0.0380952
        k(   19) = (   0.2000000   0.0000000   0.2857143), wk =   0.0380952
        k(   20) = (   0.2000000   0.0000000   0.4285714), wk =   0.0380952
        k(   21) = (   0.2000000   0.1666667   0.0000000), wk =   0.0380952
        k(   22) = (   0.2000000   0.1666667   0.1428571), wk =   0.0761905
        k(   23) = (   0.2000000   0.1666667   0.2857143), wk =   0.0761905
        k(   24) = (   0.2000000   0.1666667   0.4285714), wk =   0.0761905
        k(   25) = (   0.2000000   0.3333333   0.0000000), wk =   0.0380952
        k(   26) = (   0.2000000   0.3333333   0.1428571), wk =   0.0761905
        k(   27) = (   0.2000000   0.3333333   0.2857143), wk =   0.0761905
        k(   28) = (   0.2000000   0.3333333   0.4285714), wk =   0.0761905
        k(   29) = (   0.2000000  -0.5000000   0.0000000), wk =   0.0190476
        k(   30) = (   0.2000000  -0.5000000   0.1428571), wk =   0.0380952
        k(   31) = (   0.2000000  -0.5000000   0.2857143), wk =   0.0380952
        k(   32) = (   0.2000000  -0.5000000   0.4285714), wk =   0.0380952
        k(   33) = (   0.4000000   0.0000000   0.0000000), wk =   0.0190476
        k(   34) = (   0.4000000   0.0000000   0.1428571), wk =   0.0380952
        k(   35) = (   0.4000000   0.0000000   0.2857143), wk =   0.0380952
        k(   36) = (   0.4000000   0.0000000   0.4285714), wk =   0.0380952
        k(   37) = (   0.4000000   0.1666667   0.0000000), wk =   0.0380952
        k(   38) = (   0.4000000   0.1666667   0.1428571), wk =   0.0761905
        k(   39) = (   0.4000000   0.1666667   0.2857143), wk =   0.0761905
        k(   40) = (   0.4000000   0.1666667   0.4285714), wk =   0.0761905
        k(   41) = (   0.4000000   0.3333333   0.0000000), wk =   0.0380952
        k(   42) = (   0.4000000   0.3333333   0.1428571), wk =   0.0761905
        k(   43) = (   0.4000000   0.3333333   0.2857143), wk =   0.0761905
        k(   44) = (   0.4000000   0.3333333   0.4285714), wk =   0.0761905
        k(   45) = (   0.4000000  -0.5000000   0.0000000), wk =   0.0190476
        k(   46) = (   0.4000000  -0.5000000   0.1428571), wk =   0.0380952
        k(   47) = (   0.4000000  -0.5000000   0.2857143), wk =   0.0380952
        k(   48) = (   0.4000000  -0.5000000   0.4285714), wk =   0.0380952

     Largest allocated arrays     est. size (Mb)     dimensions
     Largest temporary arrays     est. size (Mb)     dimensions

     Initial potential from superposition of free atoms

     Starting from uniform charge
     Starting wfc are    0 randomized atomic wfcs

     Self-consistent Calculation

     iteration #  1     ecut=    40.00 Ry     beta=0.70
     CG style diagonalization
     c_bands:  1 eigenvalues not converged
     c_bands:  1 eigenvalues not converged
     c_bands:  1 eigenvalues not converged
     c_bands:  1 eigenvalues not converged
     c_bands:  1 eigenvalues not converged
     c_bands:  1 eigenvalues not converged
     c_bands:  2 eigenvalues not converged
     c_bands:  1 eigenvalues not converged
     c_bands:  1 eigenvalues not converged
     c_bands:  1 eigenvalues not converged
     ethr =  1.00E-02,  avg # of iterations = 11.9

     total energy              =   -1809.60644806 Ry
     Harris-Foulkes estimate   =   -2191.46853359 Ry
     estimated scf accuracy    <     496.79031461 Ry

     iteration #  2     ecut=    40.00 Ry     beta=0.70
     CG style diagonalization
     ethr =  1.00E-02,  avg # of iterations =  7.7

[...]

     End of self-consistent calculation

          k = 0.0000 0.0000 0.0000 (  2601 PWs)   bands (ev):

   -46.4159 -46.3846 -31.0630 -30.8559 -30.8559 -30.0763 -30.0763 -30.0763
   -10.9899 -10.9899 -10.9899 -10.9415 -10.9415 -10.9415  -2.3233  -2.3233
    -1.8971  -0.0259  -0.0259  -0.0259   0.9915   0.9915   0.9915   1.1081
     1.1081   1.1081   1.3610   1.3610   1.3610   2.8712   2.8712   2.8712
    29.6137  29.6137  30.9966  30.9966  30.9966  31.0283  31.4236  31.4236
    31.7128  31.7129  31.7129  31.8896  31.8896  31.8896  32.2452  32.7349
    33.5059  33.5059  33.9263  34.1549  34.1549  34.1549  37.8950  37.8950
    37.8950  38.2985  38.2985  39.2434  39.2434  39.2434  39.5037  39.5037
    39.5037  41.8346  41.8346  42.8399  42.8399  42.8399  43.5320  43.5320
    43.5320  48.3235  48.3235  48.3235  49.1381  50.2330  50.2330  51.3652
    51.9609  51.9610  51.9610  53.7172  53.7172  53.7172  55.5161  55.5159
    55.5159  55.6934  55.6934  55.6932  56.3107  56.3107

[...]

     the Fermi energy is    49.7001 ev

!    total energy              =   -1956.09414724 Ry
     Harris-Foulkes estimate   =   -1956.09416959 Ry
     estimated scf accuracy    <       0.00003570 Ry

     The total energy is the sum of the following terms:

     one-electron contribution =     130.46019245 Ry
     hartree contribution      =     162.56118576 Ry
     xc contribution           =    -192.68407339 Ry
     ewald contribution        =   -2056.32834208 Ry
     smearing contrib. (-TS)   =      -0.10310999 Ry

     convergence has been achieved in   7 iterations

     Forces acting on atoms (Ry/au):

     atom    1 type  1   force =     0.00000000    0.00000000    0.00000000
     atom    2 type  1   force =     0.00000000    0.00000000    0.00000000
     atom    3 type  1   force =     0.00000000    0.00000000    0.00000000
     atom    4 type  1   force =     0.00000000    0.00000000    0.00000000
     atom    5 type  1   force =     0.00000000    0.00000000    0.00000000
     atom    6 type  1   force =     0.00000000    0.00000000    0.00000000
     atom    7 type  2   force =     0.00000000    0.00000000    0.00000000
     atom    8 type  2   force =     0.00000000    0.00000000    0.00000000

     Total force =     0.000000     Total SCF correction =     0.000000

     entering subroutine stress ...

          total   stress  (Ry/bohr**3)                   (kbar)     P= 5253.47
   0.03571235   0.00000000   0.00000000       5253.47      0.00      0.00
   0.00000000   0.03571235   0.00000000          0.00   5253.47      0.00
[...]
        k(   48) = (   0.3635474  -0.4544343   0.3895151), wk =   0.0380952

[...]

     enthalpy old            =   -1956.0941472435 Ry
     enthalpy new            =   -1959.3456769126 Ry

     CASE: enthalpy_new < enthalpy_old

     small trust_radius: resetting bfgs history

     new trust radius        =       0.3588249442 bohr
     new conv_thr            =       0.0000010000 Ry

[...]

     number of scf cycles    =   3
     number of bfgs steps    =   2

     enthalpy old            =   -1959.3456769126 Ry
     enthalpy new            =   -1958.8703758022 Ry

     CASE: enthalpy_new > enthalpy_old

     new trust radius        =       0.0829055645 bohr

     trust_radius < trust_radius_min

     resetting bfgs history

     Message from routine bfgs:
     history already reset at previous step: stopping
     new conv_thr            =       0.0000010000 Ry

     new unit-cell volume =    982.53644 a.u.^3 (   145.59688 Ang^3 )

[...]

ATOMIC_POSITIONS (crystal)
Cr       0.000000000   0.500000000   0.250000000
Cr       0.000000000   0.500000000   0.750000000
Cr       0.500000000   0.750000000   0.000000000
Cr       0.500000000   0.250000000   0.000000000
Cr       0.750000000   0.000000000   0.500000000
Cr       0.250000000   0.000000000   0.500000000
Si       0.500000000   0.500000000   0.500000000
Si       0.000000000   0.000000000   0.000000000

     Writing output data file Prototype-La-cP8-Cr3Si.save
     NEW-OLD atomic charge density approx. for the potential
     NEW k-points:
        k(    1) = (   0.0000000   0.0000000   0.0000000), wk =   0.0095238
        k(    2) = (   0.0000000   0.0000000   0.1226406), wk =   0.0190476
        k(    3) = (   0.0000000   0.0000000   0.2452812), wk =   0.0190476
        k(    4) = (   0.0000000   0.0000000   0.3679218), wk =   0.0190476
        k(    5) = (   0.0000000   0.1430807   0.0000000), wk =   0.0190476
        k(    6) = (   0.0000000   0.1430807   0.1226406), wk =   0.0380952
        k(    7) = (   0.0000000   0.1430807   0.2452812), wk =   0.0380952
        k(    8) = (   0.0000000   0.1430807   0.3679218), wk =   0.0380952
        k(    9) = (   0.0000000   0.2861614   0.0000000), wk =   0.0190476
        k(   10) = (   0.0000000   0.2861614   0.1226406), wk =   0.0380952
        k(   11) = (   0.0000000   0.2861614   0.2452812), wk =   0.0380952
        k(   12) = (   0.0000000   0.2861614   0.3679218), wk =   0.0380952
        k(   13) = (   0.0000000  -0.4292420   0.0000000), wk =   0.0095238
        k(   14) = (   0.0000000  -0.4292420   0.1226406), wk =   0.0190476
        k(   15) = (   0.0000000  -0.4292420   0.2452812), wk =   0.0190476
        k(   16) = (   0.0000000  -0.4292420   0.3679218), wk =   0.0190476
        k(   17) = (   0.1716968   0.0000000   0.0000000), wk =   0.0190476
        k(   18) = (   0.1716968   0.0000000   0.1226406), wk =   0.0380952
        k(   19) = (   0.1716968   0.0000000   0.2452812), wk =   0.0380952
        k(   20) = (   0.1716968   0.0000000   0.3679218), wk =   0.0380952
        k(   21) = (   0.1716968   0.1430807   0.0000000), wk =   0.0380952
        k(   22) = (   0.1716968   0.1430807   0.1226406), wk =   0.0761905
        k(   23) = (   0.1716968   0.1430807   0.2452812), wk =   0.0761905
        k(   24) = (   0.1716968   0.1430807   0.3679218), wk =   0.0761905
        k(   25) = (   0.1716968   0.2861614   0.0000000), wk =   0.0380952
        k(   26) = (   0.1716968   0.2861614   0.1226406), wk =   0.0761905
        k(   27) = (   0.1716968   0.2861614   0.2452812), wk =   0.0761905
        k(   28) = (   0.1716968   0.2861614   0.3679218), wk =   0.0761905
        k(   29) = (   0.1716968  -0.4292420   0.0000000), wk =   0.0190476
        k(   30) = (   0.1716968  -0.4292420   0.1226406), wk =   0.0380952
        k(   31) = (   0.1716968  -0.4292420   0.2452812), wk =   0.0380952
        k(   32) = (   0.1716968  -0.4292420   0.3679218), wk =   0.0380952
        k(   33) = (   0.3433936   0.0000000   0.0000000), wk =   0.0190476
        k(   34) = (   0.3433936   0.0000000   0.1226406), wk =   0.0380952
        k(   35) = (   0.3433936   0.0000000   0.2452812), wk =   0.0380952
        k(   36) = (   0.3433936   0.0000000   0.3679218), wk =   0.0380952
        k(   37) = (   0.3433936   0.1430807   0.0000000), wk =   0.0380952
        k(   38) = (   0.3433936   0.1430807   0.1226406), wk =   0.0761905
        k(   39) = (   0.3433936   0.1430807   0.2452812), wk =   0.0761905
        k(   40) = (   0.3433936   0.1430807   0.3679218), wk =   0.0761905
        k(   41) = (   0.3433936   0.2861614   0.0000000), wk =   0.0380952
        k(   42) = (   0.3433936   0.2861614   0.1226406), wk =   0.0761905
        k(   43) = (   0.3433936   0.2861614   0.2452812), wk =   0.0761905
        k(   44) = (   0.3433936   0.2861614   0.3679218), wk =   0.0761905
        k(   45) = (   0.3433936  -0.4292420   0.0000000), wk =   0.0190476
        k(   46) = (   0.3433936  -0.4292420   0.1226406), wk =   0.0380952
        k(   47) = (   0.3433936  -0.4292420   0.2452812), wk =   0.0380952
        k(   48) = (   0.3433936  -0.4292420   0.3679218), wk =   0.0380952

[...]

     The maximum number of steps has been reached.

     End of BFGS Geometry Optimization
Begin final coordinates
     new unit-cell volume =    982.53644 a.u.^3 (   145.59688 Ang^3 )

CELL_PARAMETERS (alat=  8.53457320)
   1.164843951   0.000000000   0.000000000
   0.000000000   1.164843951   0.000000000
   0.000000000   0.000000000   1.164843951

ATOMIC_POSITIONS (crystal)
Cr       0.000000000   0.500000000   0.250000000
Cr       0.000000000   0.500000000   0.750000000
Cr       0.500000000   0.750000000   0.000000000
Cr       0.500000000   0.250000000   0.000000000
Cr       0.750000000   0.000000000   0.500000000
Cr       0.250000000   0.000000000   0.500000000
Si       0.500000000   0.500000000   0.500000000
Si       0.000000000   0.000000000   0.000000000
End final coordinates

     A final scf calculation at the relaxed structure.
     The G-vectors are recalculated for the final unit cell
     Results may differ from those at the preceding step.

     bravais-lattice index     =            0
     lattice parameter (alat)  =       8.5346  a.u.
     unit-cell volume          =     982.5364 (a.u.)^3
     number of atoms/cell      =            8
     number of atomic types    =            2
     number of electrons       =       156.00
     number of Kohn-Sham states=           94
     kinetic-energy cutoff     =      40.0000  Ry
     charge density cutoff     =     160.0000  Ry
     convergence threshold     =      1.0E-06
     mixing beta               =       0.7000
     number of iterations used =            8  plain     mixing
     Exchange-correlation      = SLA-PZ-NOGX-NOGC ( 1 1 0 0 0)
     EXX-fraction              =        0.00

     celldm(1)=   8.534573  celldm(2)=   0.000000  celldm(3)=   0.000000
     celldm(4)=   0.000000  celldm(5)=   0.000000  celldm(6)=   0.000000

     crystal axes: (cart. coord. in units of alat)
               a(1) = (   1.164844   0.000000   0.000000 )
               a(2) = (   0.000000   1.164844   0.000000 )
               a(3) = (   0.000000   0.000000   1.164844 )

     reciprocal axes: (cart. coord. in units 2 pi/alat)
               b(1) = (  0.858484  0.000000  0.000000 )
               b(2) = (  0.000000  0.858484  0.000000 )
               b(3) = (  0.000000  0.000000  0.858484 )

     PseudoPot. # 1 for Tb read from file:
     /home/cwx6513/pp.La/Tb.UPF
     MD5 check sum: 3d6088a3f0cf7fd2e110c43f7f8e95c2
     Pseudo is Norm-conserving, Zval = 19.0
     Generated in analytical, separable form
     Using radial grid of 1263 points,  6 beta functions with:
                l(1) =   0
                l(2) =   0
                l(3) =   1
                l(4) =   1
                l(5) =   2
                l(6) =   3

     PseudoPot. # 2 for Ho read from file:
     /home/cwx6513/pp.La/Ho.UPF
     MD5 check sum: f307ee11bce99f5b724fa279e3790763
     Pseudo is Norm-conserving, Zval = 21.0
     Generated in analytical, separable form
     Using radial grid of 1265 points,  6 beta functions with:
                l(1) =   0
                l(2) =   0
                l(3) =   1
                l(4) =   1
                l(5) =   2
                l(6) =   3

     atomic species   valence    mass     pseudopotential
        Cr            19.00    51.99610     Tb( 1.00)
        Si            21.00    28.08550     Ho( 1.00)

     48 Sym. Ops., with inversion, found (24 have fractional translation)

   Cartesian axes

     site n.     atom                  positions (alat units)
         1           Cr  tau(   1) = (   0.0000000   0.5824220   0.2912110  )
         2           Cr  tau(   2) = (   0.0000000   0.5824220   0.8736330  )
         3           Cr  tau(   3) = (   0.5824220   0.8736330   0.0000000  )
         4           Cr  tau(   4) = (   0.5824220   0.2912110   0.0000000  )
         5           Cr  tau(   5) = (   0.8736330   0.0000000   0.5824220  )
         6           Cr  tau(   6) = (   0.2912110   0.0000000   0.5824220  )
         7           Si  tau(   7) = (   0.5824220   0.5824220   0.5824220  )
         8           Si  tau(   8) = (   0.0000000   0.0000000   0.0000000  )

     number of k points=    48  gaussian smearing, width (Ry)=  0.1000
                       cart. coord. in units 2pi/alat
        k(    1) = (   0.0000000   0.0000000   0.0000000), wk =   0.0095238
        k(    2) = (   0.0000000   0.0000000   0.1226406), wk =   0.0190476
        k(    3) = (   0.0000000   0.0000000   0.2452812), wk =   0.0190476
        k(    4) = (   0.0000000   0.0000000   0.3679218), wk =   0.0190476
        k(    5) = (   0.0000000   0.1430807   0.0000000), wk =   0.0190476
        k(    6) = (   0.0000000   0.1430807   0.1226406), wk =   0.0380952
        k(    7) = (   0.0000000   0.1430807   0.2452812), wk =   0.0380952
        k(    8) = (   0.0000000   0.1430807   0.3679218), wk =   0.0380952
        k(    9) = (   0.0000000   0.2861614   0.0000000), wk =   0.0190476
        k(   10) = (   0.0000000   0.2861614   0.1226406), wk =   0.0380952
        k(   11) = (   0.0000000   0.2861614   0.2452812), wk =   0.0380952
        k(   12) = (   0.0000000   0.2861614   0.3679218), wk =   0.0380952
        k(   13) = (   0.0000000  -0.4292420   0.0000000), wk =   0.0095238
        k(   14) = (   0.0000000  -0.4292420   0.1226406), wk =   0.0190476
        k(   15) = (   0.0000000  -0.4292420   0.2452812), wk =   0.0190476
        k(   16) = (   0.0000000  -0.4292420   0.3679218), wk =   0.0190476
        k(   17) = (   0.1716968   0.0000000   0.0000000), wk =   0.0190476
        k(   18) = (   0.1716968   0.0000000   0.1226406), wk =   0.0380952
        k(   19) = (   0.1716968   0.0000000   0.2452812), wk =   0.0380952
        k(   20) = (   0.1716968   0.0000000   0.3679218), wk =   0.0380952
        k(   21) = (   0.1716968   0.1430807   0.0000000), wk =   0.0380952
        k(   22) = (   0.1716968   0.1430807   0.1226406), wk =   0.0761905
        k(   23) = (   0.1716968   0.1430807   0.2452812), wk =   0.0761905
        k(   24) = (   0.1716968   0.1430807   0.3679218), wk =   0.0761905
        k(   25) = (   0.1716968   0.2861614   0.0000000), wk =   0.0380952
        k(   26) = (   0.1716968   0.2861614   0.1226406), wk =   0.0761905
        k(   27) = (   0.1716968   0.2861614   0.2452812), wk =   0.0761905
        k(   28) = (   0.1716968   0.2861614   0.3679218), wk =   0.0761905
        k(   29) = (   0.1716968  -0.4292420   0.0000000), wk =   0.0190476
        k(   30) = (   0.1716968  -0.4292420   0.1226406), wk =   0.0380952
        k(   31) = (   0.1716968  -0.4292420   0.2452812), wk =   0.0380952
        k(   32) = (   0.1716968  -0.4292420   0.3679218), wk =   0.0380952
        k(   33) = (   0.3433936   0.0000000   0.0000000), wk =   0.0190476
        k(   34) = (   0.3433936   0.0000000   0.1226406), wk =   0.0380952
        k(   35) = (   0.3433936   0.0000000   0.2452812), wk =   0.0380952
        k(   36) = (   0.3433936   0.0000000   0.3679218), wk =   0.0380952
        k(   37) = (   0.3433936   0.1430807   0.0000000), wk =   0.0380952
        k(   38) = (   0.3433936   0.1430807   0.1226406), wk =   0.0761905
        k(   39) = (   0.3433936   0.1430807   0.2452812), wk =   0.0761905
        k(   40) = (   0.3433936   0.1430807   0.3679218), wk =   0.0761905
        k(   41) = (   0.3433936   0.2861614   0.0000000), wk =   0.0380952
        k(   42) = (   0.3433936   0.2861614   0.1226406), wk =   0.0761905
        k(   43) = (   0.3433936   0.2861614   0.2452812), wk =   0.0761905
        k(   44) = (   0.3433936   0.2861614   0.3679218), wk =   0.0761905
        k(   45) = (   0.3433936  -0.4292420   0.0000000), wk =   0.0190476
        k(   46) = (   0.3433936  -0.4292420   0.1226406), wk =   0.0380952
        k(   47) = (   0.3433936  -0.4292420   0.2452812), wk =   0.0380952
        k(   48) = (   0.3433936  -0.4292420   0.3679218), wk =   0.0380952

     Largest allocated arrays     est. size (Mb)     dimensions
     Largest temporary arrays     est. size (Mb)     dimensions

     Initial potential from superposition of free atoms

     Starting from uniform charge
     Starting wfc are    0 randomized atomic wfcs

     Writing output data file Prototype-La-cP8-Cr3Si.save

     Self-consistent Calculation

[...]

     iteration #  9     ecut=    40.00 Ry     beta=0.70
     CG style diagonalization
     c_bands:  1 eigenvalues not converged
     c_bands:  1 eigenvalues not converged
     c_bands:  1 eigenvalues not converged
     ethr =  5.91E-07,  avg # of iterations =  4.0

[...]

     total energy              =   -1963.13058563 Ry
     Harris-Foulkes estimate   =   -1963.13058920 Ry
     estimated scf accuracy    <       0.00000767 Ry

     iteration # 12     ecut=    40.00 Ry     beta=0.70
     CG style diagonalization
     ethr =  4.92E-09,  avg # of iterations =  3.6

     End of self-consistent calculation

[...]

          k = 0.3434-0.4292 0.3679 (  4204 PWs)   bands (ev):

   -63.8723 -63.8722 -47.4757 -47.4705 -47.4545 -47.4543 -47.4390 -47.4336
   -28.0507 -28.0507 -28.0475 -28.0474 -28.0347 -28.0347 -16.2416 -16.1852
   -16.0436 -16.0409 -15.9527 -15.9497 -15.9069 -15.8747 -15.8168 -15.8098
   -15.7893 -15.7771 -15.7578 -15.7493 -15.7439 -15.7427 -15.7276 -15.7276
    15.3294  15.3323  15.3544  15.3684  15.3737  15.3840  15.4189  15.4205
    15.4431  15.4449  18.8047  18.8048  20.0758  20.1101  20.3137  20.3903
    20.4224  20.4264  20.5819  20.6980  20.8558  20.8987  21.0814  21.1089
    21.2266  21.2663  21.6416  21.6767  22.0245  22.0939  22.2196  22.2282
    22.3947  22.5410  23.0003  23.1019  23.2089  23.2359  23.2375  23.2893
    24.4343  24.4618  25.1921  25.4159  25.5578  25.8562  26.6187  26.6840
    33.7802  33.7812  34.9335  35.2120  35.6146  35.8007  36.7593  36.7855
    36.9640  37.0124  37.2512  37.2615  37.5679  37.5699

     the Fermi energy is    28.7009 ev

!    total energy              =   -1963.13058658 Ry
     Harris-Foulkes estimate   =   -1963.13058712 Ry
     estimated scf accuracy    <       0.00000061 Ry

     The total energy is the sum of the following terms:

     one-electron contribution =    -280.37430764 Ry
     hartree contribution      =     267.92119346 Ry
     xc contribution           =    -185.23153731 Ry
     ewald contribution        =   -1765.32516674 Ry
     smearing contrib. (-TS)   =      -0.12076834 Ry

     convergence has been achieved in  12 iterations

     Forces acting on atoms (Ry/au):

     atom    1 type  1   force =     0.00000000    0.00000000    0.00000000
     atom    2 type  1   force =     0.00000000    0.00000000    0.00000000
     atom    3 type  1   force =     0.00000000    0.00000000    0.00000000
     atom    4 type  1   force =     0.00000000    0.00000000    0.00000000
     atom    5 type  1   force =     0.00000000    0.00000000    0.00000000
     atom    6 type  1   force =     0.00000000    0.00000000    0.00000000
     atom    7 type  2   force =     0.00000000    0.00000000    0.00000000
     atom    8 type  2   force =     0.00000000    0.00000000    0.00000000

     Total force =     0.000000     Total SCF correction =     0.000000

     entering subroutine stress ...

          total   stress  (Ry/bohr**3)                   (kbar)     P=   51.68
   0.00035131   0.00000000   0.00000000         51.68      0.00      0.00
   0.00000000   0.00035131   0.00000000          0.00     51.68      0.00
   0.00000000   0.00000000   0.00035131          0.00      0.00     51.68

     Writing output data file Prototype-La-cP8-Cr3Si.save

     General routines

     Parallel routines

   This run was terminated on:  18:15:32  22Mar2018

   JOB DONE.