     Program PWSCF v.5.0.2 starts on 22Mar2018 at 17:34:49

     Current dimensions of program PWSCF are:
     Max number of different atomic species (ntypx) = 10
     Max number of k-points (npk) =  40000
     Max angular momentum in pseudopotentials (lmaxx) =  3
     Waiting for input...
     Reading input from standard input

     Subspace diagonalization in iterative solution of the eigenvalue problem:
     a serial algorithm will be used

     bravais-lattice index     =            0
     lattice parameter (alat)  =       7.0151  a.u.
     unit-cell volume          =     862.2778 (a.u.)^3
     number of atoms/cell      =           12
     number of atomic types    =            2
     number of electrons       =       236.00
     number of Kohn-Sham states=          142
     kinetic-energy cutoff     =      40.0000  Ry
     charge density cutoff     =     160.0000  Ry
     convergence threshold     =      1.0E-04
     mixing beta               =       0.7000
     number of iterations used =            8  plain     mixing
     Exchange-correlation      = SLA-PZ-NOGX-NOGC ( 1 1 0 0 0)
     EXX-fraction              =        0.00
     nstep                     =           50

     celldm(1)=   7.015105  celldm(2)=   0.000000  celldm(3)=   0.000000
     celldm(4)=   0.000000  celldm(5)=   0.000000  celldm(6)=   0.000000

     crystal axes: (cart. coord. in units of alat)
               a(1) = (   1.000000   0.000000   0.000000 )
               a(2) = (   0.000000   1.315963   0.000000 )
               a(3) = (   0.000000   0.000000   1.898020 )

     reciprocal axes: (cart. coord. in units 2 pi/alat)
               b(1) = (  1.000000  0.000000  0.000000 )
               b(2) = (  0.000000  0.759900  0.000000 )
               b(3) = (  0.000000  0.000000  0.526865 )

     PseudoPot. # 1 for Tb read from file:
     /home/cwx6513/pp.La/Tb.UPF
     MD5 check sum: 3d6088a3f0cf7fd2e110c43f7f8e95c2
     Pseudo is Norm-conserving, Zval = 19.0
     Generated in analytical, separable form
     Using radial grid of 1263 points,  6 beta functions with:
                l(1) =   0
                l(2) =   0
                l(3) =   1
                l(4) =   1
                l(5) =   2
                l(6) =   3

     PseudoPot. # 2 for Ho read from file:
     /home/cwx6513/pp.La/Ho.UPF
     MD5 check sum: f307ee11bce99f5b724fa279e3790763
     Pseudo is Norm-conserving, Zval = 21.0
     Generated in analytical, separable form
     Using radial grid of 1265 points,  6 beta functions with:
                l(1) =   0
                l(2) =   0
                l(3) =   1
                l(4) =   1
                l(5) =   2
                l(6) =   3

     atomic species   valence    mass     pseudopotential
        Co            19.00    58.93320     Tb( 1.00)
        Si            21.00    28.08550     Ho( 1.00)

      8 Sym. Ops., with inversion, found ( 6 have fractional translation)

   Cartesian axes

     site n.     atom                  positions (alat units)
         1           Co  tau(   1) = (   0.7500000   1.0875135   0.8270358  )
         2           Co  tau(   2) = (   0.2500000   0.2284499   1.0709846  )
         3           Co  tau(   3) = (   0.7500000   0.4295318   0.1219744  )
         4           Co  tau(   4) = (   0.2500000   0.8864316   1.7760460  )
         5           Co  tau(   5) = (   0.2500000   0.7067855   0.5358966  )
         6           Co  tau(   6) = (   0.7500000   0.6091779   1.3621238  )
         7           Co  tau(   7) = (   0.2500000   0.0488038   0.4131136  )
         8           Co  tau(   8) = (   0.7500000   1.2671596   1.4849068  )
         9           Si  tau(   9) = (   0.2500000   0.2669484   1.6960710  )
        10           Si  tau(  10) = (   0.7500000   1.0490149   0.2019494  )
        11           Si  tau(  11) = (   0.2500000   0.9249301   1.1509596  )
        12           Si  tau(  12) = (   0.7500000   0.3910333   0.7470608  )

     number of k points=    12  gaussian smearing, width (Ry)=  0.1000
                       cart. coord. in units 2pi/alat
        k(    1) = (   0.0000000   0.0000000   0.0000000), wk =   0.0833333
        k(    2) = (   0.0000000   0.0000000   0.1317162), wk =   0.1666667
        k(    3) = (   0.0000000   0.0000000  -0.2634324), wk =   0.0833333
        k(    4) = (   0.0000000   0.2532999   0.0000000), wk =   0.1666667
        k(    5) = (   0.0000000   0.2532999   0.1317162), wk =   0.3333333
        k(    6) = (   0.0000000   0.2532999  -0.2634324), wk =   0.1666667
        k(    7) = (  -0.5000000   0.0000000   0.0000000), wk =   0.0833333
        k(    8) = (  -0.5000000   0.0000000   0.1317162), wk =   0.1666667
        k(    9) = (  -0.5000000   0.0000000  -0.2634324), wk =   0.0833333
        k(   10) = (  -0.5000000   0.2532999   0.0000000), wk =   0.1666667
        k(   11) = (  -0.5000000   0.2532999   0.1317162), wk =   0.3333333
        k(   12) = (  -0.5000000   0.2532999  -0.2634324), wk =   0.1666667

     Largest allocated arrays     est. size (Mb)     dimensions
     Largest temporary arrays     est. size (Mb)     dimensions

     Initial potential from superposition of free atoms

     Starting from uniform charge
     Starting wfc are    0 randomized atomic wfcs

     Self-consistent Calculation

     iteration #  1     ecut=    40.00 Ry     beta=0.70
     CG style diagonalization
     c_bands:  2 eigenvalues not converged
     c_bands:  1 eigenvalues not converged
     c_bands:  2 eigenvalues not converged
     c_bands:  4 eigenvalues not converged
     c_bands:  5 eigenvalues not converged
     c_bands:  4 eigenvalues not converged
     c_bands:  2 eigenvalues not converged
     c_bands:  3 eigenvalues not converged
     ethr =  1.00E-02,  avg # of iterations = 14.0

     total energy              =   -2773.16391507 Ry
     Harris-Foulkes estimate   =   -3325.16344337 Ry
     estimated scf accuracy    <     718.89306316 Ry

[...]

     iteration #  3     ecut=    40.00 Ry     beta=0.70
     CG style diagonalization
     ethr =  1.00E-02,  avg # of iterations =  5.5

[...]

     End of self-consistent calculation

          k = 0.0000 0.0000 0.0000 (  3675 PWs)   bands (ev):

   -42.6422 -42.6284 -42.6234 -42.6171 -27.0253 -26.8367 -26.8124 -26.6992
   -26.6202 -26.4822 -26.4073 -26.3993  -7.6933  -7.5985  -7.5571  -7.4980
    -7.4955  -7.4927  -7.3853  -7.3528  -7.2420  -7.2278  -7.1219  -7.0460
     2.8209   3.1706   3.3171   3.5574   3.5825   3.6634   3.8059   3.9278
     4.2055   4.2225   4.2931   4.3094   4.4911   4.5441   4.7421   4.7659
     4.7692   4.8777   4.9439   5.1313   5.3041   5.4828   5.7145   5.8311
    31.6301  31.6524  31.6998  32.2543  32.3384  32.4863  32.5574  32.6218
    32.9594  33.2730  33.3319  33.6770  33.7421  34.1634  34.3143  34.5345
    34.6510  35.3982  35.4389  35.6427  35.6590  36.6602  37.4439  37.8884
    38.0383  38.0553  38.0796  38.4661  39.1234  39.2516  39.3365  39.7075
    39.7436  39.8907  39.9516  40.2450  40.9815  41.4493  41.6908  41.7946
    41.8023  41.8135  41.9972  42.6509  43.3644  43.4452  43.6593  43.8225
    44.8128  44.8678  45.2662  45.3288  45.5188  45.6574  46.0081  46.3785
    46.4305  46.5366  46.5489  47.0137  47.0989  47.8018  48.0407  49.6805
    50.7722  51.5436  51.8034  52.6027  55.0003  55.1385  55.8862  56.0366
    56.2748  57.0803  57.1341  57.4895  57.6643  57.7786  57.9499  58.0692
    58.1284  58.1505  58.5334  58.7251  59.3300  59.3613  59.8469  60.0135
    60.5308  60.5643  60.7272  60.9988  61.1871  61.6642

[...]

          k =-0.5000 0.0000 0.0000 (  3722 PWs)   bands (ev):

[...]

     the Fermi energy is    55.0794 ev

!    total energy              =   -2994.26899440 Ry
     Harris-Foulkes estimate   =   -2994.26903608 Ry
     estimated scf accuracy    <       0.00005009 Ry

     The total energy is the sum of the following terms:

     one-electron contribution =     288.38254409 Ry
     hartree contribution      =     231.81099968 Ry
     xc contribution           =    -295.66496021 Ry
     ewald contribution        =   -3218.57197517 Ry
     smearing contrib. (-TS)   =      -0.22560279 Ry

     convergence has been achieved in   9 iterations

     Forces acting on atoms (Ry/au):

     atom    1 type  1   force =     0.00000000   -0.09031689   -0.07490375
     atom    2 type  1   force =     0.00000000    0.09031689    0.07490375
     atom    3 type  1   force =     0.00000000   -0.09031689    0.07490375
     atom    4 type  1   force =     0.00000000    0.09031689   -0.07490375
     atom    5 type  1   force =     0.00000000    0.14265368   -0.24091003
     atom    6 type  1   force =     0.00000000   -0.14265368    0.24091003
     atom    7 type  1   force =     0.00000000    0.14265368    0.24091003
     atom    8 type  1   force =     0.00000000   -0.14265368   -0.24091003
     atom    9 type  2   force =     0.00000000   -0.17303654   -0.00729276
     atom   10 type  2   force =     0.00000000    0.17303654    0.00729276
     atom   11 type  2   force =     0.00000000   -0.17303654    0.00729276
     atom   12 type  2   force =     0.00000000    0.17303654   -0.00729276

     Total force =     0.699000     Total SCF correction =     0.000000

     entering subroutine stress ...

          total   stress  (Ry/bohr**3)                   (kbar)     P= 7246.01
   0.05170100   0.00000000   0.00000000       7605.48      0.00      0.00
   0.00000000   0.04675566   0.00000000          0.00   6877.99      0.00
   0.00000000   0.00000000   0.04931548          0.00      0.00   7254.56

     BFGS Geometry Optimization

     number of scf cycles    =   1
     number of bfgs steps    =   0

     enthalpy new            =   -2994.2689943995 Ry

     new trust radius        =       0.5000000000 bohr
     new conv_thr            =       0.0001000000 Ry

     new unit-cell volume =   1089.56702 a.u.^3 (   161.45717 Ang^3 )

CELL_PARAMETERS (alat=  7.01510508)
   1.085136619   0.000000000   0.000000000
   0.000000000   1.417283450   0.000000000
   0.000000000   0.000000000   2.052155521

ATOMIC_POSITIONS (crystal)
Co       0.750000000   0.825756581   0.435365451
Co       0.250000000   0.174243419   0.564634549
Co       0.750000000   0.325756581   0.064634549
Co       0.250000000   0.674243419   0.935365451
Co       0.250000000   0.538103847   0.281153217
Co       0.750000000   0.461896153   0.718846783
Co       0.250000000   0.038103847   0.218846783
Co       0.750000000   0.961896153   0.781153217
Si       0.250000000   0.201619369   0.893563923
Si       0.750000000   0.798380631   0.106436077
Si       0.250000000   0.701619369   0.606436077
Si       0.750000000   0.298380631   0.393563923

     Writing output data file Prototype-La-oP12-Co2Si.save
     NEW-OLD atomic charge density approx. for the potential
     NEW k-points:
        k(    1) = (   0.0000000   0.0000000   0.0000000), wk =   0.0833333
        k(    2) = (   0.0000000   0.0000000   0.1218231), wk =   0.1666667
        k(    3) = (   0.0000000   0.0000000  -0.2436463), wk =   0.0833333
        k(    4) = (   0.0000000   0.2351917   0.0000000), wk =   0.1666667
        k(    5) = (   0.0000000   0.2351917   0.1218231), wk =   0.3333333
        k(    6) = (   0.0000000   0.2351917  -0.2436463), wk =   0.1666667
        k(    7) = (  -0.4607715   0.0000000   0.0000000), wk =   0.0833333
        k(    8) = (  -0.4607715   0.0000000   0.1218231), wk =   0.1666667
        k(    9) = (  -0.4607715   0.0000000  -0.2436463), wk =   0.0833333
        k(   10) = (  -0.4607715   0.2351917   0.0000000), wk =   0.1666667
        k(   11) = (  -0.4607715   0.2351917   0.1218231), wk =   0.3333333
        k(   12) = (  -0.4607715   0.2351917  -0.2436463), wk =   0.1666667

[...]

     enthalpy old            =   -2994.2689943995 Ry
     enthalpy new            =   -3000.7955671338 Ry

     CASE: enthalpy_new < enthalpy_old

     small trust_radius: resetting bfgs history

     new trust radius        =       2.2360150493 bohr
     new conv_thr            =       0.0001000000 Ry

[...]

          total   stress  (Ry/bohr**3)                   (kbar)     P=-2155.30
  -0.01537847   0.00000000   0.00000000      -2262.25      0.00      0.00
   0.00000000  -0.01386132   0.00000000          0.00  -2039.07      0.00
   0.00000000   0.00000000  -0.01471456          0.00      0.00  -2164.59

     number of scf cycles    =   3
     number of bfgs steps    =   2

     enthalpy old            =   -3000.7955671338 Ry
     enthalpy new            =   -2987.8034339914 Ry

     CASE: enthalpy_new > enthalpy_old

     new trust radius        =       0.6570094254 bohr

     trust_radius < trust_radius_min

     resetting bfgs history

     Message from routine bfgs:
     history already reset at previous step: stopping
     new conv_thr            =       0.0001000000 Ry

     new unit-cell volume =   1306.00674 a.u.^3 (   193.53023 Ang^3 )

[...]

ATOMIC_POSITIONS (crystal)
Co       0.750000000   0.825527794   0.435138808
Co       0.250000000   0.174472206   0.564861192
Co       0.750000000   0.325527794   0.064861192
Co       0.250000000   0.674472206   0.935138808
Co       0.250000000   0.539410028   0.279498557
Co       0.750000000   0.460589972   0.720501443
Co       0.250000000   0.039410028   0.220501443
Co       0.750000000   0.960589972   0.779498557
Si       0.250000000   0.200423999   0.893592490
Si       0.750000000   0.799576001   0.106407510
Si       0.250000000   0.700423999   0.606407510
Si       0.750000000   0.299576001   0.393592490

     Writing output data file Prototype-La-oP12-Co2Si.save
     NEW-OLD atomic charge density approx. for the potential
     NEW k-points:
        k(    1) = (   0.0000000   0.0000000   0.0000000), wk =   0.0833333
        k(    2) = (   0.0000000   0.0000000   0.1144858), wk =   0.1666667
        k(    3) = (   0.0000000   0.0000000  -0.2289716), wk =   0.0833333
        k(    4) = (   0.0000000   0.2226932   0.0000000), wk =   0.1666667
        k(    5) = (   0.0000000   0.2226932   0.1144858), wk =   0.3333333
        k(    6) = (   0.0000000   0.2226932  -0.2289716), wk =   0.1666667
        k(    7) = (  -0.4320036   0.0000000   0.0000000), wk =   0.0833333
        k(    8) = (  -0.4320036   0.0000000   0.1144858), wk =   0.1666667
        k(    9) = (  -0.4320036   0.0000000  -0.2289716), wk =   0.0833333
        k(   10) = (  -0.4320036   0.2226932   0.0000000), wk =   0.1666667
        k(   11) = (  -0.4320036   0.2226932   0.1144858), wk =   0.3333333
        k(   12) = (  -0.4320036   0.2226932  -0.2289716), wk =   0.1666667

[...]

     The maximum number of steps has been reached.

     End of BFGS Geometry Optimization
Begin final coordinates
     new unit-cell volume =   1306.00674 a.u.^3 (   193.53023 Ang^3 )

CELL_PARAMETERS (alat=  7.01510508)
   1.157397808   0.000000000   0.000000000
   0.000000000   1.496827632   0.000000000
   0.000000000   0.000000000   2.183677139

ATOMIC_POSITIONS (crystal)
Co       0.750000000   0.825527794   0.435138808
Co       0.250000000   0.174472206   0.564861192
Co       0.750000000   0.325527794   0.064861192
Co       0.250000000   0.674472206   0.935138808
Co       0.250000000   0.539410028   0.279498557
Co       0.750000000   0.460589972   0.720501443
Co       0.250000000   0.039410028   0.220501443
Co       0.750000000   0.960589972   0.779498557
Si       0.250000000   0.200423999   0.893592490
Si       0.750000000   0.799576001   0.106407510
Si       0.250000000   0.700423999   0.606407510
Si       0.750000000   0.299576001   0.393592490
End final coordinates

     A final scf calculation at the relaxed structure.
     The G-vectors are recalculated for the final unit cell
     Results may differ from those at the preceding step.

     bravais-lattice index     =            0
     lattice parameter (alat)  =       7.0151  a.u.
     unit-cell volume          =    1306.0067 (a.u.)^3
     number of atoms/cell      =           12
     number of atomic types    =            2
     number of electrons       =       236.00
     number of Kohn-Sham states=          142
     kinetic-energy cutoff     =      40.0000  Ry
     charge density cutoff     =     160.0000  Ry
     convergence threshold     =      1.0E-04
     mixing beta               =       0.7000
     number of iterations used =            8  plain     mixing
     Exchange-correlation      = SLA-PZ-NOGX-NOGC ( 1 1 0 0 0)
     EXX-fraction              =        0.00

     celldm(1)=   7.015105  celldm(2)=   0.000000  celldm(3)=   0.000000
     celldm(4)=   0.000000  celldm(5)=   0.000000  celldm(6)=   0.000000

     crystal axes: (cart. coord. in units of alat)
               a(1) = (   1.157398   0.000000   0.000000 )
               a(2) = (   0.000000   1.496828   0.000000 )
               a(3) = (   0.000000   0.000000   2.183677 )

     reciprocal axes: (cart. coord. in units 2 pi/alat)
               b(1) = (  0.864007  0.000000  0.000000 )
               b(2) = (  0.000000  0.668080  0.000000 )
               b(3) = (  0.000000  0.000000  0.457943 )

     PseudoPot. # 1 for Tb read from file:
     /home/cwx6513/pp.La/Tb.UPF
     MD5 check sum: 3d6088a3f0cf7fd2e110c43f7f8e95c2
     Pseudo is Norm-conserving, Zval = 19.0
     Generated in analytical, separable form
     Using radial grid of 1263 points,  6 beta functions with:
                l(1) =   0
                l(2) =   0
                l(3) =   1
                l(4) =   1
                l(5) =   2
                l(6) =   3

     PseudoPot. # 2 for Ho read from file:
     /home/cwx6513/pp.La/Ho.UPF
     MD5 check sum: f307ee11bce99f5b724fa279e3790763
     Pseudo is Norm-conserving, Zval = 21.0
     Generated in analytical, separable form
     Using radial grid of 1265 points,  6 beta functions with:
                l(1) =   0
                l(2) =   0
                l(3) =   1
                l(4) =   1
                l(5) =   2
                l(6) =   3

     atomic species   valence    mass     pseudopotential
        Co            19.00    58.93320     Tb( 1.00)
        Si            21.00    28.08550     Ho( 1.00)

      8 Sym. Ops., with inversion, found ( 6 have fractional translation)

   Cartesian axes

     site n.     atom                  positions (alat units)
         1           Co  tau(   1) = (   0.8680484   1.2356728   0.9502027  )
         2           Co  tau(   2) = (   0.2893495   0.2611548   1.2334745  )
         3           Co  tau(   3) = (   0.8680484   0.4872590   0.1416359  )
         4           Co  tau(   4) = (   0.2893495   1.0095686   2.0420412  )
         5           Co  tau(   5) = (   0.2893495   0.8074038   0.6103346  )
         6           Co  tau(   6) = (   0.8680484   0.6894238   1.5733425  )
         7           Co  tau(   7) = (   0.2893495   0.0589900   0.4815040  )
         8           Co  tau(   8) = (   0.8680484   1.4378376   1.7021732  )
         9           Si  tau(   9) = (   0.2893495   0.3000002   1.9513175  )
        10           Si  tau(  10) = (   0.8680484   1.1968275   0.2323596  )
        11           Si  tau(  11) = (   0.2893495   1.0484140   1.3241982  )
        12           Si  tau(  12) = (   0.8680484   0.4484136   0.8594789  )

     number of k points=    12  gaussian smearing, width (Ry)=  0.1000
                       cart. coord. in units 2pi/alat
        k(    1) = (   0.0000000   0.0000000   0.0000000), wk =   0.0833333
        k(    2) = (   0.0000000   0.0000000   0.1144858), wk =   0.1666667
        k(    3) = (   0.0000000   0.0000000  -0.2289716), wk =   0.0833333
        k(    4) = (   0.0000000   0.2226932   0.0000000), wk =   0.1666667
        k(    5) = (   0.0000000   0.2226932   0.1144858), wk =   0.3333333
        k(    6) = (   0.0000000   0.2226932  -0.2289716), wk =   0.1666667
        k(    7) = (  -0.4320036   0.0000000   0.0000000), wk =   0.0833333
        k(    8) = (  -0.4320036   0.0000000   0.1144858), wk =   0.1666667
        k(    9) = (  -0.4320036   0.0000000  -0.2289716), wk =   0.0833333
        k(   10) = (  -0.4320036   0.2226932   0.0000000), wk =   0.1666667
        k(   11) = (  -0.4320036   0.2226932   0.1144858), wk =   0.3333333
        k(   12) = (  -0.4320036   0.2226932  -0.2289716), wk =   0.1666667

     Largest allocated arrays     est. size (Mb)     dimensions
     Largest temporary arrays     est. size (Mb)     dimensions

     Initial potential from superposition of free atoms

     Starting from uniform charge
     Starting wfc are    0 randomized atomic wfcs

     Writing output data file Prototype-La-oP12-Co2Si.save

     Self-consistent Calculation

[...]

     iteration #  5     ecut=    40.00 Ry     beta=0.70
     CG style diagonalization
     ethr =  3.30E-03,  avg # of iterations =  3.6

[...]

     total energy              =   -3007.37043023 Ry
     Harris-Foulkes estimate   =   -3007.37060882 Ry
     estimated scf accuracy    <       0.00034478 Ry

     iteration # 10     ecut=    40.00 Ry     beta=0.70
     CG style diagonalization
     c_bands:  1 eigenvalues not converged
     ethr =  1.46E-07,  avg # of iterations =  4.0

     End of self-consistent calculation

[...]

          k = 0.0000 0.2227-0.2290 (  5562 PWs)   bands (ev):

[...]

          k =-0.4320 0.2227-0.2290 (  5568 PWs)   bands (ev):

   -59.6575 -59.6575 -59.6534 -59.6534 -43.4627 -43.4627 -43.4603 -43.4603
   -43.3528 -43.3528 -43.3254 -43.3254 -23.9497 -23.9497 -23.9480 -23.9480
   -23.9233 -23.9233 -23.9200 -23.9200 -23.8583 -23.8583 -23.8539 -23.8539
   -12.1934 -12.1934 -12.1182 -12.1182 -12.0894 -12.0894 -12.0661 -12.0661
   -12.0185 -12.0185 -11.9206 -11.9206 -11.8480 -11.8480 -11.7644 -11.7644
   -11.7469 -11.7469 -11.7160 -11.7160 -11.6437 -11.6437 -11.5779 -11.5779
    18.6732  18.6732  18.7787  18.7787  18.8916  18.8916  19.0555  19.0555
    19.1095  19.1095  19.1145  19.1145  19.2525  19.2525  19.2644  19.2644
    19.6833  19.6833  19.8685  19.8685  22.1260  22.1260  22.3196  22.3196
    23.2703  23.2703  23.6727  23.6727  23.8998  23.8998  23.9519  23.9519
    24.0638  24.0638  24.5721  24.5721  24.7203  24.7203  25.0719  25.0719
    25.2112  25.2112  25.5985  25.5985  25.6852  25.6852  26.1590  26.1590
    26.1984  26.1984  26.5388  26.5388  26.9004  26.9004  27.3901  27.3901
    27.7528  27.7528  28.1187  28.1187  28.3085  28.3085  28.5500  28.5500
    30.1006  30.1006  30.4685  30.4685  32.2064  32.2064  35.1473  35.1473
    36.2469  36.2469  36.5635  36.5635  37.9143  37.9144  38.8141  38.8142
    39.5685  39.5686  40.4636  40.4637  40.8975  40.8975  41.6618  41.6618
    41.7796  41.7797  42.1114  42.1116  42.1775  42.1777

     the Fermi energy is    34.3715 ev

!    total energy              =   -3007.37057691 Ry
     Harris-Foulkes estimate   =   -3007.37061056 Ry
     estimated scf accuracy    <       0.00004263 Ry

     The total energy is the sum of the following terms:

     one-electron contribution =    -290.14061037 Ry
     hartree contribution      =     370.75403812 Ry
     xc contribution           =    -284.02782922 Ry
     ewald contribution        =   -2803.78834791 Ry
     smearing contrib. (-TS)   =      -0.16782753 Ry

     convergence has been achieved in  10 iterations

     Forces acting on atoms (Ry/au):

     atom    1 type  1   force =     0.00000000   -0.03631642    0.00171586
     atom    2 type  1   force =     0.00000000    0.03631642   -0.00171586
     atom    3 type  1   force =     0.00000000   -0.03631642   -0.00171586
     atom    4 type  1   force =     0.00000000    0.03631642    0.00171586
     atom    5 type  1   force =     0.00000000    0.04379890   -0.06721907
     atom    6 type  1   force =     0.00000000   -0.04379890    0.06721907
     atom    7 type  1   force =     0.00000000    0.04379890    0.06721907
     atom    8 type  1   force =     0.00000000   -0.04379890   -0.06721907
     atom    9 type  2   force =     0.00000000   -0.07810372    0.01912714
     atom   10 type  2   force =     0.00000000    0.07810372   -0.01912714
     atom   11 type  2   force =     0.00000000   -0.07810372   -0.01912714
     atom   12 type  2   force =     0.00000000    0.07810372    0.01912714

     Total force =     0.238534     Total SCF correction =     0.000000

     entering subroutine stress ...

          total   stress  (Ry/bohr**3)                   (kbar)     P=  725.60
   0.00504922   0.00000000   0.00000000        742.77      0.00      0.00
   0.00000000   0.00466147   0.00000000          0.00    685.73      0.00
   0.00000000   0.00000000   0.00508683          0.00      0.00    748.30

     Writing output data file Prototype-La-oP12-Co2Si.save

     General routines

     Parallel routines

   This run was terminated on:  17:56:24  22Mar2018

   JOB DONE.