     Program PWSCF v.5.0.2 starts on 22Mar2018 at 17:34:44

     Current dimensions of program PWSCF are:
     Max number of different atomic species (ntypx) = 10
     Max number of k-points (npk) =  40000
     Max angular momentum in pseudopotentials (lmaxx) =  3
     Waiting for input...
     Reading input from standard input

     Subspace diagonalization in iterative solution of the eigenvalue problem:
     a serial algorithm will be used

     bravais-lattice index     =            0
     lattice parameter (alat)  =       9.9235  a.u.
     unit-cell volume          =    1361.0366 (a.u.)^3
     number of atoms/cell      =           12
     number of atomic types    =            2
     number of electrons       =       244.00
     number of Kohn-Sham states=          146
     kinetic-energy cutoff     =      40.0000  Ry
     charge density cutoff     =     160.0000  Ry
     convergence threshold     =      1.0E-04
     mixing beta               =       0.7000
     number of iterations used =            8  plain     mixing
     Exchange-correlation      = SLA-PZ-NOGX-NOGC ( 1 1 0 0 0)
     EXX-fraction              =        0.00
     nstep                     =           50

     celldm(1)=   9.923489  celldm(2)=   0.000000  celldm(3)=   0.000000
     celldm(4)=   0.000000  celldm(5)=   0.000000  celldm(6)=   0.000000

     crystal axes: (cart. coord. in units of alat)
               a(1) = (   1.000000   0.000000   0.000000 )
               a(2) = (  -0.500000   0.866025   0.000000 )
               a(3) = (   0.000000   0.000000   1.608222 )

     reciprocal axes: (cart. coord. in units 2 pi/alat)
               b(1) = (  1.000000  0.577350  0.000000 )
               b(2) = (  0.000000  1.154701  0.000000 )
               b(3) = (  0.000000  0.000000  0.621805 )

     PseudoPot. # 1 for Tb read from file:
     /home/cwx6513/pp.La/Tb.UPF
     MD5 check sum: 3d6088a3f0cf7fd2e110c43f7f8e95c2
     Pseudo is Norm-conserving, Zval = 19.0
     Generated in analytical, separable form
     Using radial grid of 1263 points,  6 beta functions with:
                l(1) =   0
                l(2) =   0
                l(3) =   1
                l(4) =   1
                l(5) =   2
                l(6) =   3

     PseudoPot. # 2 for Ho read from file:
     /home/cwx6513/pp.La/Ho.UPF
     MD5 check sum: f307ee11bce99f5b724fa279e3790763
     Pseudo is Norm-conserving, Zval = 21.0
     Generated in analytical, separable form
     Using radial grid of 1265 points,  6 beta functions with:
                l(1) =   0
                l(2) =   0
                l(3) =   1
                l(4) =   1
                l(5) =   2
                l(6) =   3

     atomic species   valence    mass     pseudopotential
        Mg            19.00    24.30500     Tb( 1.00)
        Zn            21.00    65.39000     Ho( 1.00)

     24 Sym. Ops., with inversion, found (12 have fractional translation)

   Cartesian axes

     site n.     atom                  positions (alat units)
         1           Mg  tau(   1) = (  -0.0000005   0.5773506   0.1003820  )
         2           Mg  tau(   2) = (   0.5000005   0.2886748   0.9044931  )
         3           Mg  tau(   3) = (   0.5000005   0.2886748   1.5078402  )
         4           Mg  tau(   4) = (  -0.0000005   0.5773506   0.7037291  )
         5           Zn  tau(   5) = (   0.0000000   0.0000000   0.0000000  )
         6           Zn  tau(   6) = (   0.0000000   0.0000000   0.8041111  )
         7           Zn  tau(   7) = (   0.0000000   0.2950739   1.2061667  )
         8           Zn  tau(   8) = (   0.7444585   0.1475370   0.4020556  )
         9           Zn  tau(   9) = (   0.2555415   0.1475370   0.4020556  )
        10           Zn  tau(  10) = (   0.2444585   0.7184884   1.2061667  )
        11           Zn  tau(  11) = (  -0.2444585   0.7184884   1.2061667  )
        12           Zn  tau(  12) = (   0.5000000   0.5709515   0.4020556  )

     number of k points=    12  gaussian smearing, width (Ry)=  0.1000
                       cart. coord. in units 2pi/alat
        k(    1) = (   0.0000000   0.0000000   0.0000000), wk =   0.0833333
        k(    2) = (   0.0000000   0.0000000   0.1554512), wk =   0.1666667
        k(    3) = (   0.0000000   0.0000000  -0.3109023), wk =   0.0833333
        k(    4) = (   0.0000000   0.3849002   0.0000000), wk =   0.1666667
        k(    5) = (   0.0000000   0.3849002   0.1554512), wk =   0.3333333
        k(    6) = (   0.0000000   0.3849002  -0.3109023), wk =   0.1666667
        k(    7) = (  -0.5000000  -0.2886751   0.0000000), wk =   0.0833333
        k(    8) = (  -0.5000000  -0.2886751   0.1554512), wk =   0.1666667
        k(    9) = (  -0.5000000  -0.2886751  -0.3109023), wk =   0.0833333
        k(   10) = (  -0.5000000   0.0962250   0.0000000), wk =   0.1666667
        k(   11) = (  -0.5000000   0.0962250   0.1554512), wk =   0.3333333
        k(   12) = (  -0.5000000   0.0962250  -0.3109023), wk =   0.1666667

     Largest allocated arrays     est. size (Mb)     dimensions
     Largest temporary arrays     est. size (Mb)     dimensions

     Initial potential from superposition of free atoms

     Starting from uniform charge
     Starting wfc are    0 randomized atomic wfcs

     Self-consistent Calculation

     iteration #  1     ecut=    40.00 Ry     beta=0.70
     CG style diagonalization
     c_bands:  1 eigenvalues not converged
     ethr =  1.00E-02,  avg # of iterations = 19.5

     total energy              =   -2540.98652108 Ry
     Harris-Foulkes estimate   =   -4049.16222459 Ry
     estimated scf accuracy    <    1850.00979266 Ry

     iteration #  2     ecut=    40.00 Ry     beta=0.70
     CG style diagonalization
     ethr =  1.00E-02,  avg # of iterations = 18.0

[...]

     End of self-consistent calculation

          k = 0.0000 0.0000 0.0000 (  5769 PWs)   bands (ev):

   -60.8500 -60.8032 -60.7973 -60.7096 -60.6980 -60.6980 -60.6895 -60.6894
   -43.0663 -43.0622 -43.0600 -43.0496 -26.1238 -25.9170 -25.6276 -25.3007
   -25.3007 -25.2544 -25.2543 -25.1776 -25.1775 -25.1600 -25.0020 -24.9045
   -24.9045 -24.8863 -24.8862 -24.6827 -24.6827 -24.6762 -24.6307 -24.6306
   -24.6209 -24.6208 -24.5987 -24.5830 -11.5729 -11.5605 -11.5548 -11.5548
   -11.5283 -11.5283 -11.4460 -11.4139 -11.4114 -11.4114 -11.4085 -11.4085
    13.5759  14.2248  14.6665  15.6219  15.6219  15.8888  15.8888  16.1566
    16.1793  16.1794  16.6255  16.6256  17.2879  17.4276  17.6649  17.6649
    17.9428  17.9428  18.1605  18.7755  18.8729  18.8729  19.1682  19.1683
    19.2664  19.8829  19.8829  19.9071  19.9102  19.9102  19.9545  19.9546
    19.9657  19.9916  19.9917  20.6970  21.0852  21.0852  21.6007  21.6007
    21.9491  22.3515  22.3528  24.3779  24.4731  24.4732  24.5699  24.5699
    25.0933  25.0933  25.1681  25.2703  25.3422  25.3422  25.5463  25.5463
    26.0634  26.0634  27.1439  27.1439  27.2594  27.3207  27.3207  27.8891
    28.1041  30.4481  30.4482  31.0485  31.4728  31.4728  33.2667  33.3506
    33.4421  33.6009  33.6009  33.6102  33.6729  33.6729  33.9289  33.9289
    34.4958  35.8138  35.8139  36.6553  37.6734  37.6734  38.0733  38.1338
    38.3967  38.7877  38.7877  38.8901  38.8902  38.9879  38.9881  39.0216
    39.0219  39.2038

[...]

          k =-0.5000-0.2887 0.0000 (  5800 PWs)   bands (ev):

[...]

     the Fermi energy is    33.9034 ev

!    total energy              =   -3262.61473327 Ry
     Harris-Foulkes estimate   =   -3262.61475754 Ry
     estimated scf accuracy    <       0.00003262 Ry

     The total energy is the sum of the following terms:

     one-electron contribution =    -510.44774272 Ry
     hartree contribution      =     469.86748501 Ry
     xc contribution           =    -299.42336158 Ry
     ewald contribution        =   -2922.30430076 Ry
     smearing contrib. (-TS)   =      -0.30681323 Ry

     convergence has been achieved in  10 iterations

     Forces acting on atoms (Ry/au):

     atom    1 type  1   force =     0.00000000    0.00000000    0.00657547
     atom    2 type  1   force =     0.00000000    0.00000000    0.00657547
     atom    3 type  1   force =     0.00000000    0.00000000   -0.00657547
     atom    4 type  1   force =     0.00000000    0.00000000   -0.00657547
     atom    5 type  2   force =     0.00000000    0.00000000    0.00000000
     atom    6 type  2   force =     0.00000000    0.00000000    0.00000000
     atom    7 type  2   force =     0.00000000    0.09922108    0.00000000
     atom    8 type  2   force =    -0.08592798    0.04961054    0.00000000
     atom    9 type  2   force =     0.08592798    0.04961054    0.00000000
     atom   10 type  2   force =    -0.08592798   -0.04961054    0.00000000
     atom   11 type  2   force =     0.08592798   -0.04961054    0.00000000
     atom   12 type  2   force =     0.00000000   -0.09922108    0.00000000

     Total force =     0.243397     Total SCF correction =     0.000000

     entering subroutine stress ...

          total   stress  (Ry/bohr**3)                   (kbar)     P=  908.97
   0.00621508   0.00000000   0.00000000        914.27      0.00      0.00
   0.00000000   0.00621508   0.00000000          0.00    914.27      0.00
   0.00000000   0.00000000   0.00610707          0.00      0.00    898.38

     BFGS Geometry Optimization

     number of scf cycles    =   1
     number of bfgs steps    =   0

     enthalpy new            =   -3262.6147332715 Ry

     new trust radius        =       0.5000000000 bohr
     new conv_thr            =       0.0001000000 Ry

     new unit-cell volume =   1655.07449 a.u.^3 (   245.25673 Ang^3 )

CELL_PARAMETERS (alat=  9.92348860)
   1.067764947   0.000000000   0.000000000
  -0.533882474   0.924711570   0.000000000
   0.000000000   0.000000000   1.715309400

ATOMIC_POSITIONS (crystal)
Mg       0.333333000   0.666667000   0.062597695
Mg       0.666667000   0.333333000   0.562597695
Mg       0.666667000   0.333333000   0.937402305
Mg       0.333333000   0.666667000   0.437402305
Zn       0.000000000   0.000000000   0.000000000
Zn       0.000000000   0.000000000   0.500000000
Zn       0.172878661   0.345757322   0.750000000
Zn       0.827121339   0.172878661   0.250000000
Zn       0.345757322   0.172878661   0.250000000
Zn       0.654242678   0.827121339   0.750000000
Zn       0.172878661   0.827121339   0.750000000
Zn       0.827121339   0.654242678   0.250000000

     Writing output data file Prototype-La-hP12-MgZn2.save
     NEW-OLD atomic charge density approx. for the potential
     NEW k-points:
        k(    1) = (   0.0000000   0.0000000   0.0000000), wk =   0.0833333
        k(    2) = (   0.0000000   0.0000000   0.1457463), wk =   0.1666667
        k(    3) = (   0.0000000   0.0000000  -0.2914926), wk =   0.0833333
        k(    4) = (   0.0000000   0.3604728   0.0000000), wk =   0.1666667
        k(    5) = (   0.0000000   0.3604728   0.1457463), wk =   0.3333333
        k(    6) = (   0.0000000   0.3604728  -0.2914926), wk =   0.1666667
        k(    7) = (  -0.4682679  -0.2703546   0.0000000), wk =   0.0833333
        k(    8) = (  -0.4682679  -0.2703546   0.1457463), wk =   0.1666667
        k(    9) = (  -0.4682679  -0.2703546  -0.2914926), wk =   0.0833333
        k(   10) = (  -0.4682679   0.0901182   0.0000000), wk =   0.1666667
        k(   11) = (  -0.4682679   0.0901182   0.1457463), wk =   0.3333333
        k(   12) = (  -0.4682679   0.0901182  -0.2914926), wk =   0.1666667

[...]

     enthalpy old            =   -3262.6147332715 Ry
     enthalpy new            =   -3262.9657249113 Ry

     CASE: enthalpy_new < enthalpy_old

     small trust_radius: resetting bfgs history

     new trust radius        =       0.5671738207 bohr
     new conv_thr            =       0.0000195282 Ry

[...]

     number of scf cycles    =   3
     number of bfgs steps    =   2

     enthalpy old            =   -3262.9657249113 Ry
     enthalpy new            =   -3262.5647185364 Ry

     CASE: enthalpy_new > enthalpy_old

     new trust radius        =       0.1874683023 bohr

     trust_radius < trust_radius_min

     resetting bfgs history

     Message from routine bfgs:
     history already reset at previous step: stopping
     new conv_thr            =       0.0000195282 Ry

     new unit-cell volume =   1375.18125 a.u.^3 (   203.78083 Ang^3 )

[...]

ATOMIC_POSITIONS (crystal)
Mg       0.333333000   0.666667000   0.063693023
Mg       0.666667000   0.333333000   0.563693023
Mg       0.666667000   0.333333000   0.936306977
Mg       0.333333000   0.666667000   0.436306977
Zn       0.000000000   0.000000000   0.000000000
Zn       0.000000000   0.000000000   0.500000000
Zn       0.171840487   0.343680974   0.750000000
Zn       0.828159513   0.171840487   0.250000000
Zn       0.343680974   0.171840487   0.250000000
Zn       0.656319026   0.828159513   0.750000000
Zn       0.171840487   0.828159513   0.750000000
Zn       0.828159513   0.656319026   0.250000000

     Writing output data file Prototype-La-hP12-MgZn2.save
     NEW-OLD atomic charge density approx. for the potential
     NEW k-points:
        k(    1) = (   0.0000000   0.0000000   0.0000000), wk =   0.0833333
        k(    2) = (   0.0000000   0.0000000   0.1555907), wk =   0.1666667
        k(    3) = (   0.0000000   0.0000000  -0.3111814), wk =   0.0833333
        k(    4) = (   0.0000000   0.3827439   0.0000000), wk =   0.1666667
        k(    5) = (   0.0000000   0.3827439   0.1555907), wk =   0.3333333
        k(    6) = (   0.0000000   0.3827439  -0.3111814), wk =   0.1666667
        k(    7) = (  -0.4971989  -0.2870579   0.0000000), wk =   0.0833333
        k(    8) = (  -0.4971989  -0.2870579   0.1555907), wk =   0.1666667
        k(    9) = (  -0.4971989  -0.2870579  -0.3111814), wk =   0.0833333
        k(   10) = (  -0.4971989   0.0956860   0.0000000), wk =   0.1666667
        k(   11) = (  -0.4971989   0.0956860   0.1555907), wk =   0.3333333
        k(   12) = (  -0.4971989   0.0956860  -0.3111814), wk =   0.1666667

[...]

     The maximum number of steps has been reached.

     End of BFGS Geometry Optimization
Begin final coordinates
     new unit-cell volume =   1375.18125 a.u.^3 (   203.78083 Ang^3 )

CELL_PARAMETERS (alat=  9.92348860)
   1.005633832   0.000000000   0.000000000
  -0.502816916   0.870904446   0.000000000
   0.000000000   0.000000000   1.606780058

ATOMIC_POSITIONS (crystal)
Mg       0.333333000   0.666667000   0.063693023
Mg       0.666667000   0.333333000   0.563693023
Mg       0.666667000   0.333333000   0.936306977
Mg       0.333333000   0.666667000   0.436306977
Zn       0.000000000   0.000000000   0.000000000
Zn       0.000000000   0.000000000   0.500000000
Zn       0.171840487   0.343680974   0.750000000
Zn       0.828159513   0.171840487   0.250000000
Zn       0.343680974   0.171840487   0.250000000
Zn       0.656319026   0.828159513   0.750000000
Zn       0.171840487   0.828159513   0.750000000
Zn       0.828159513   0.656319026   0.250000000
End final coordinates

     A final scf calculation at the relaxed structure.
     The G-vectors are recalculated for the final unit cell
     Results may differ from those at the preceding step.

     bravais-lattice index     =            0
     lattice parameter (alat)  =       9.9235  a.u.
     unit-cell volume          =    1375.1812 (a.u.)^3
     number of atoms/cell      =           12
     number of atomic types    =            2
     number of electrons       =       244.00
     number of Kohn-Sham states=          146
     kinetic-energy cutoff     =      40.0000  Ry
     charge density cutoff     =     160.0000  Ry
     convergence threshold     =      2.0E-05
     mixing beta               =       0.7000
     number of iterations used =            8  plain     mixing
     Exchange-correlation      = SLA-PZ-NOGX-NOGC ( 1 1 0 0 0)
     EXX-fraction              =        0.00

     celldm(1)=   9.923489  celldm(2)=   0.000000  celldm(3)=   0.000000
     celldm(4)=   0.000000  celldm(5)=   0.000000  celldm(6)=   0.000000

     crystal axes: (cart. coord. in units of alat)
               a(1) = (   1.005634   0.000000   0.000000 )
               a(2) = (  -0.502817   0.870904   0.000000 )
               a(3) = (   0.000000   0.000000   1.606780 )

     reciprocal axes: (cart. coord. in units 2 pi/alat)
               b(1) = (  0.994398  0.574116  0.000000 )
               b(2) = (  0.000000  1.148232  0.000000 )
               b(3) = (  0.000000  0.000000  0.622363 )

     PseudoPot. # 1 for Tb read from file:
     /home/cwx6513/pp.La/Tb.UPF
     MD5 check sum: 3d6088a3f0cf7fd2e110c43f7f8e95c2
     Pseudo is Norm-conserving, Zval = 19.0
     Generated in analytical, separable form
     Using radial grid of 1263 points,  6 beta functions with:
                l(1) =   0
                l(2) =   0
                l(3) =   1
                l(4) =   1
                l(5) =   2
                l(6) =   3

     PseudoPot. # 2 for Ho read from file:
     /home/cwx6513/pp.La/Ho.UPF
     MD5 check sum: f307ee11bce99f5b724fa279e3790763
     Pseudo is Norm-conserving, Zval = 21.0
     Generated in analytical, separable form
     Using radial grid of 1265 points,  6 beta functions with:
                l(1) =   0
                l(2) =   0
                l(3) =   1
                l(4) =   1
                l(5) =   2
                l(6) =   3

     atomic species   valence    mass     pseudopotential
        Mg            19.00    24.30500     Tb( 1.00)
        Zn            21.00    65.39000     Ho( 1.00)

     24 Sym. Ops., with inversion, found (12 have fractional translation)

   Cartesian axes

     site n.     atom                  positions (alat units)
         1           Mg  tau(   1) = (  -0.0000005   0.5806033   0.1023407  )
         2           Mg  tau(   2) = (   0.5028174   0.2903012   0.9057307  )
         3           Mg  tau(   3) = (   0.5028174   0.2903012   1.5044394  )
         4           Mg  tau(   4) = (  -0.0000005   0.5806033   0.7010493  )
         5           Zn  tau(   5) = (   0.0000000   0.0000000   0.0000000  )
         6           Zn  tau(   6) = (   0.0000000   0.0000000   0.8033900  )
         7           Zn  tau(   7) = (   0.0000000   0.2993133   1.2050850  )
         8           Zn  tau(   8) = (   0.7464209   0.1496566   0.4016950  )
         9           Zn  tau(   9) = (   0.2592129   0.1496566   0.4016950  )
        10           Zn  tau(  10) = (   0.2436040   0.7212478   1.2050850  )
        11           Zn  tau(  11) = (  -0.2436040   0.7212478   1.2050850  )
        12           Zn  tau(  12) = (   0.5028169   0.5715912   0.4016950  )

     number of k points=    12  gaussian smearing, width (Ry)=  0.1000
                       cart. coord. in units 2pi/alat
        k(    1) = (   0.0000000   0.0000000   0.0000000), wk =   0.0833333
        k(    2) = (   0.0000000   0.0000000   0.1555907), wk =   0.1666667
        k(    3) = (   0.0000000   0.0000000  -0.3111814), wk =   0.0833333
        k(    4) = (   0.0000000   0.3827439   0.0000000), wk =   0.1666667
        k(    5) = (   0.0000000   0.3827439   0.1555907), wk =   0.3333333
        k(    6) = (   0.0000000   0.3827439  -0.3111814), wk =   0.1666667
        k(    7) = (  -0.4971989  -0.2870579   0.0000000), wk =   0.0833333
        k(    8) = (  -0.4971989  -0.2870579   0.1555907), wk =   0.1666667
        k(    9) = (  -0.4971989  -0.2870579  -0.3111814), wk =   0.0833333
        k(   10) = (  -0.4971989   0.0956860   0.0000000), wk =   0.1666667
        k(   11) = (  -0.4971989   0.0956860   0.1555907), wk =   0.3333333
        k(   12) = (  -0.4971989   0.0956860  -0.3111814), wk =   0.1666667

     Largest allocated arrays     est. size (Mb)     dimensions
     Largest temporary arrays     est. size (Mb)     dimensions

     Initial potential from superposition of free atoms

     Starting from uniform charge
     Starting wfc are    0 randomized atomic wfcs

     Writing output data file Prototype-La-hP12-MgZn2.save

     Self-consistent Calculation

[...]

     iteration # 10     ecut=    40.00 Ry     beta=0.70
     CG style diagonalization
     c_bands:  1 eigenvalues not converged
     ethr =  1.53E-07,  avg # of iterations =  3.9

     total energy              =   -3262.82148528 Ry
     Harris-Foulkes estimate   =   -3262.82151022 Ry
     estimated scf accuracy    <       0.00003736 Ry

     iteration # 11     ecut=    40.00 Ry     beta=0.70
     CG style diagonalization
     ethr =  1.53E-08,  avg # of iterations =  3.9

     End of self-consistent calculation

[...]

          k = 0.0000 0.3827-0.3112 (  5882 PWs)   bands (ev):

[...]

          k =-0.4972 0.0957-0.3112 (  5890 PWs)   bands (ev):

   -61.1280 -61.1280 -61.0941 -61.0941 -61.0387 -61.0387 -61.0313 -61.0313
   -43.4233 -43.4231 -43.4176 -43.4175 -26.0671 -26.0671 -25.8280 -25.8280
   -25.5367 -25.5366 -25.4699 -25.4699 -25.4111 -25.4111 -25.3703 -25.3703
   -25.2529 -25.2529 -25.1509 -25.1509 -25.0719 -25.0719 -25.0281 -25.0281
   -25.0225 -25.0225 -25.0020 -25.0020 -11.9319 -11.9318 -11.9085 -11.9085
   -11.8730 -11.8729 -11.8217 -11.8216 -11.7771 -11.7771 -11.7672 -11.7672
    14.7720  14.7721  15.6455  15.6455  15.9517  15.9517  16.2215  16.2215
    16.3604  16.3605  16.9608  16.9608  17.2007  17.2007  17.3570  17.3570
    17.7220  17.7220  17.8619  17.8619  18.1320  18.1320  18.4200  18.4200
    18.6551  18.6551  19.1190  19.1190  19.1917  19.1917  19.4883  19.4883
    19.6021  19.6021  19.6764  19.6765  19.9237  19.9237  20.4030  20.4030
    20.9575  20.9575  22.1314  22.1314  23.9928  23.9928  24.5184  24.5184
    24.9370  24.9371  25.1069  25.1069  25.1570  25.1571  25.6489  25.6489
    26.1092  26.1093  26.4924  26.4925  26.6279  26.6280  26.9059  26.9060
    27.5461  27.5461  28.5942  28.5942  30.6851  30.6851  31.6015  31.6015
    33.0328  33.0328  33.6359  33.6359  35.7297  35.7298  36.4314  36.4314
    36.8777  36.8777  37.7036  37.7036  38.1553  38.1554  38.3170  38.3171
    38.7069  38.7069  39.0219  39.0220  39.3618  39.3619  39.7323  39.7323
    40.1346  40.1347

     the Fermi energy is    33.4776 ev

!    total energy              =   -3262.82149805 Ry
     Harris-Foulkes estimate   =   -3262.82150006 Ry
     estimated scf accuracy    <       0.00000222 Ry

     The total energy is the sum of the following terms:

     one-electron contribution =    -522.81604981 Ry
     hartree contribution      =     472.97353735 Ry
     xc contribution           =    -299.21133970 Ry
     ewald contribution        =   -2913.46094284 Ry
     smearing contrib. (-TS)   =      -0.30670305 Ry

     convergence has been achieved in  11 iterations

     Forces acting on atoms (Ry/au):

     atom    1 type  1   force =     0.00000000    0.00000000    0.02271837
     atom    2 type  1   force =     0.00000000    0.00000000    0.02271837
     atom    3 type  1   force =     0.00000000    0.00000000   -0.02271837
     atom    4 type  1   force =     0.00000000    0.00000000   -0.02271837
     atom    5 type  2   force =     0.00000000    0.00000000    0.00000000
     atom    6 type  2   force =     0.00000000    0.00000000    0.00000000
     atom    7 type  2   force =     0.00000000    0.03512195    0.00000000
     atom    8 type  2   force =    -0.03041650    0.01756098    0.00000000
     atom    9 type  2   force =     0.03041650    0.01756098    0.00000000
     atom   10 type  2   force =    -0.03041650   -0.01756098    0.00000000
     atom   11 type  2   force =     0.03041650   -0.01756098    0.00000000
     atom   12 type  2   force =     0.00000000   -0.03512195    0.00000000

     Total force =     0.097292     Total SCF correction =     0.000000

     entering subroutine stress ...

          total   stress  (Ry/bohr**3)                   (kbar)     P=  838.55
   0.00577635   0.00000000   0.00000000        849.73      0.00      0.00
   0.00000000   0.00577635   0.00000000          0.00    849.73      0.00
   0.00000000   0.00000000   0.00554827          0.00      0.00    816.18

     Writing output data file Prototype-La-hP12-MgZn2.save

     General routines

     Parallel routines

   This run was terminated on:  18: 3: 1  22Mar2018

   JOB DONE.