     Program PWSCF v.5.0.2 starts on 22Mar2018 at 17:32:50

     Current dimensions of program PWSCF are:
     Max number of different atomic species (ntypx) = 10
     Max number of k-points (npk) =  40000
     Max angular momentum in pseudopotentials (lmaxx) =  3
     Waiting for input...
     Reading input from standard input

     Subspace diagonalization in iterative solution of the eigenvalue problem:
     a serial algorithm will be used

     bravais-lattice index     =            0
     lattice parameter (alat)  =       7.0151  a.u.
     unit-cell volume          =     862.2778 (a.u.)^3
     number of atoms/cell      =           12
     number of atomic types    =            2
     number of electrons       =       240.00
     number of Kohn-Sham states=          144
     kinetic-energy cutoff     =      40.0000  Ry
     charge density cutoff     =     160.0000  Ry
     convergence threshold     =      1.0E-04
     mixing beta               =       0.7000
     number of iterations used =            8  plain     mixing
     Exchange-correlation      = SLA-PZ-NOGX-NOGC ( 1 1 0 0 0)
     EXX-fraction              =        0.00
     nstep                     =           50

     celldm(1)=   7.015105  celldm(2)=   0.000000  celldm(3)=   0.000000
     celldm(4)=   0.000000  celldm(5)=   0.000000  celldm(6)=   0.000000

     crystal axes: (cart. coord. in units of alat)
               a(1) = (   1.000000   0.000000   0.000000 )
               a(2) = (   0.000000   1.315963   0.000000 )
               a(3) = (   0.000000   0.000000   1.898020 )

     reciprocal axes: (cart. coord. in units 2 pi/alat)
               b(1) = (  1.000000  0.000000  0.000000 )
               b(2) = (  0.000000  0.759900  0.000000 )
               b(3) = (  0.000000  0.000000  0.526865 )

     PseudoPot. # 1 for Tb read from file:
     /home/cwx6513/pp.La/Tb.UPF
     MD5 check sum: 3d6088a3f0cf7fd2e110c43f7f8e95c2
     Pseudo is Norm-conserving, Zval = 19.0
     Generated in analytical, separable form
     Using radial grid of 1263 points,  6 beta functions with:
                l(1) =   0
                l(2) =   0
                l(3) =   1
                l(4) =   1
                l(5) =   2
                l(6) =   3

     PseudoPot. # 2 for Er read from file:
     /home/cwx6513/pp.La/Er.UPF
     MD5 check sum: e152ae21b84514339d8526f066caf99b
     Pseudo is Norm-conserving, Zval = 22.0
     Generated in analytical, separable form
     Using radial grid of 1267 points,  6 beta functions with:
                l(1) =   0
                l(2) =   0
                l(3) =   1
                l(4) =   1
                l(5) =   2
                l(6) =   3

     atomic species   valence    mass     pseudopotential
        Co            19.00    58.93320     Tb( 1.00)
        Si            22.00    28.08550     Er( 1.00)

      8 Sym. Ops., with inversion, found ( 6 have fractional translation)

   Cartesian axes

     site n.     atom                  positions (alat units)
         1           Co  tau(   1) = (   0.7500000   1.0875135   0.8270358  )
         2           Co  tau(   2) = (   0.2500000   0.2284499   1.0709846  )
         3           Co  tau(   3) = (   0.7500000   0.4295318   0.1219744  )
         4           Co  tau(   4) = (   0.2500000   0.8864316   1.7760460  )
         5           Co  tau(   5) = (   0.2500000   0.7067855   0.5358966  )
         6           Co  tau(   6) = (   0.7500000   0.6091779   1.3621238  )
         7           Co  tau(   7) = (   0.2500000   0.0488038   0.4131136  )
         8           Co  tau(   8) = (   0.7500000   1.2671596   1.4849068  )
         9           Si  tau(   9) = (   0.2500000   0.2669484   1.6960710  )
        10           Si  tau(  10) = (   0.7500000   1.0490149   0.2019494  )
        11           Si  tau(  11) = (   0.2500000   0.9249301   1.1509596  )
        12           Si  tau(  12) = (   0.7500000   0.3910333   0.7470608  )

     number of k points=    12  gaussian smearing, width (Ry)=  0.1000
                       cart. coord. in units 2pi/alat
        k(    1) = (   0.0000000   0.0000000   0.0000000), wk =   0.0833333
        k(    2) = (   0.0000000   0.0000000   0.1317162), wk =   0.1666667
        k(    3) = (   0.0000000   0.0000000  -0.2634324), wk =   0.0833333
        k(    4) = (   0.0000000   0.2532999   0.0000000), wk =   0.1666667
        k(    5) = (   0.0000000   0.2532999   0.1317162), wk =   0.3333333
        k(    6) = (   0.0000000   0.2532999  -0.2634324), wk =   0.1666667
        k(    7) = (  -0.5000000   0.0000000   0.0000000), wk =   0.0833333
        k(    8) = (  -0.5000000   0.0000000   0.1317162), wk =   0.1666667
        k(    9) = (  -0.5000000   0.0000000  -0.2634324), wk =   0.0833333
        k(   10) = (  -0.5000000   0.2532999   0.0000000), wk =   0.1666667
        k(   11) = (  -0.5000000   0.2532999   0.1317162), wk =   0.3333333
        k(   12) = (  -0.5000000   0.2532999  -0.2634324), wk =   0.1666667

     Largest allocated arrays     est. size (Mb)     dimensions
     Largest temporary arrays     est. size (Mb)     dimensions

     Initial potential from superposition of free atoms

     Starting from uniform charge
     Starting wfc are    0 randomized atomic wfcs

     Self-consistent Calculation

     iteration #  1     ecut=    40.00 Ry     beta=0.70
     CG style diagonalization
     ethr =  1.00E-02,  avg # of iterations = 17.9

     total energy              =   -2491.95964402 Ry
     Harris-Foulkes estimate   =   -3540.14361427 Ry
     estimated scf accuracy    <    1296.73574396 Ry

     iteration #  2     ecut=    40.00 Ry     beta=0.70
     CG style diagonalization
     c_bands:  5 eigenvalues not converged
     c_bands:  4 eigenvalues not converged
     c_bands:  2 eigenvalues not converged
     c_bands:  4 eigenvalues not converged
     ethr =  1.00E-02,  avg # of iterations = 13.8

[...]

     End of self-consistent calculation

          k = 0.0000 0.0000 0.0000 (  3675 PWs)   bands (ev):

   -50.7004 -50.6936 -50.6873 -50.6720 -26.6422 -26.4751 -26.4126 -26.3256
   -26.2069 -26.0634 -25.9633 -25.9554 -13.3419 -13.3096 -13.2764 -13.2365
   -13.2096 -13.2029 -13.1324 -13.1075 -12.9701 -12.9551 -12.9071 -12.8465
     3.2008   3.5708   3.7226   3.7863   3.9379   3.9748   4.1423   4.2226
     4.4857   4.5045   4.6930   4.7111   4.8822   4.9239   5.0660   5.0753
     5.1743   5.2639   5.3441   5.5554   5.5919   5.8512   6.1407   6.2544
    30.1819  30.1932  30.2296  30.5728  30.7246  30.8473  30.8989  30.9294
    31.2853  31.3393  31.3474  31.5454  31.6211  32.0624  32.0682  32.7686
    32.8552  32.9611  32.9699  33.0612  34.0947  35.2073  37.0703  37.2114
    37.3552  37.6083  37.9475  38.3956  38.9560  39.0002  39.0337  39.2887
    39.4019  39.4291  40.0504  40.2203  40.5577  40.7372  40.7552  41.1092
    41.6411  41.9895  42.1530  42.5519  42.6124  42.8920  43.4998  43.9236
    44.3103  44.5330  44.6430  44.7846  45.2809  45.3575  45.8087  46.3208
    46.3319  46.3331  46.4051  46.6672  46.7290  47.7329  48.2178  49.1433
    49.9498  50.7374  51.6994  52.0690  54.4595  54.4760  55.7706  55.9206
    55.9291  56.1464  56.8599  57.4386  57.4936  57.6075  57.8760  57.9686
    57.9929  58.0472  58.0502  58.5408  59.2120  59.2491  59.5457  59.6606
    60.2224  60.3831  60.4379  60.4773  60.6575  61.3525  61.3945  61.4043

[...]

          k =-0.5000 0.0000 0.0000 (  3722 PWs)   bands (ev):

[...]

     the Fermi energy is    55.7439 ev

!    total energy              =   -3135.98877197 Ry
     Harris-Foulkes estimate   =   -3135.98881262 Ry
     estimated scf accuracy    <       0.00004613 Ry

     The total energy is the sum of the following terms:

     one-electron contribution =     243.87010257 Ry
     hartree contribution      =     256.90723901 Ry
     xc contribution           =    -303.89909929 Ry
     ewald contribution        =   -3332.56016545 Ry
     smearing contrib. (-TS)   =      -0.30684882 Ry

     convergence has been achieved in  10 iterations

     Forces acting on atoms (Ry/au):

     atom    1 type  1   force =     0.00000000   -0.07592692   -0.07472307
     atom    2 type  1   force =     0.00000000    0.07592692    0.07472307
     atom    3 type  1   force =     0.00000000   -0.07592692    0.07472307
     atom    4 type  1   force =     0.00000000    0.07592692   -0.07472307
     atom    5 type  1   force =     0.00000000    0.15230056   -0.26346032
     atom    6 type  1   force =     0.00000000   -0.15230056    0.26346032
     atom    7 type  1   force =     0.00000000    0.15230056    0.26346032
     atom    8 type  1   force =     0.00000000   -0.15230056   -0.26346032
     atom    9 type  2   force =     0.00000000   -0.17378535    0.01501209
     atom   10 type  2   force =     0.00000000    0.17378535   -0.01501209
     atom   11 type  2   force =     0.00000000   -0.17378535   -0.01501209
     atom   12 type  2   force =     0.00000000    0.17378535    0.01501209

     Total force =     0.733163     Total SCF correction =     0.000000

     entering subroutine stress ...

          total   stress  (Ry/bohr**3)                   (kbar)     P= 7165.63
   0.05046848   0.00000000   0.00000000       7424.17      0.00      0.00
   0.00000000   0.04639475   0.00000000          0.00   6824.90      0.00
   0.00000000   0.00000000   0.04926974          0.00      0.00   7247.83

     BFGS Geometry Optimization

     number of scf cycles    =   1
     number of bfgs steps    =   0

     enthalpy new            =   -3135.9887719738 Ry

     new trust radius        =       0.5000000000 bohr
     new conv_thr            =       0.0001000000 Ry

     new unit-cell volume =   1092.77638 a.u.^3 (   161.93275 Ang^3 )

CELL_PARAMETERS (alat=  7.01510508)
   1.085136619   0.000000000   0.000000000
   0.000000000   1.418956626   0.000000000
   0.000000000   0.000000000   2.055773289

ATOMIC_POSITIONS (crystal)
Co       0.750000000   0.825846024   0.435357317
Co       0.250000000   0.174153976   0.564642683
Co       0.750000000   0.325846024   0.064642683
Co       0.250000000   0.674153976   0.935357317
Co       0.250000000   0.538199216   0.281009831
Co       0.750000000   0.461800784   0.718990169
Co       0.250000000   0.038199216   0.218990169
Co       0.750000000   0.961800784   0.781009831
Si       0.250000000   0.201583744   0.893676079
Si       0.750000000   0.798416256   0.106323921
Si       0.250000000   0.701583744   0.606323921
Si       0.750000000   0.298416256   0.393676079

     Writing output data file Prototype-La-oP12-Co2Si.save
     NEW-OLD atomic charge density approx. for the potential
     NEW k-points:
        k(    1) = (   0.0000000   0.0000000   0.0000000), wk =   0.0833333
        k(    2) = (   0.0000000   0.0000000   0.1216087), wk =   0.1666667
        k(    3) = (   0.0000000   0.0000000  -0.2432175), wk =   0.0833333
        k(    4) = (   0.0000000   0.2349144   0.0000000), wk =   0.1666667
        k(    5) = (   0.0000000   0.2349144   0.1216087), wk =   0.3333333
        k(    6) = (   0.0000000   0.2349144  -0.2432175), wk =   0.1666667
        k(    7) = (  -0.4607715   0.0000000   0.0000000), wk =   0.0833333
        k(    8) = (  -0.4607715   0.0000000   0.1216087), wk =   0.1666667
        k(    9) = (  -0.4607715   0.0000000  -0.2432175), wk =   0.0833333
        k(   10) = (  -0.4607715   0.2349144   0.0000000), wk =   0.1666667
        k(   11) = (  -0.4607715   0.2349144   0.1216087), wk =   0.3333333
        k(   12) = (  -0.4607715   0.2349144  -0.2432175), wk =   0.1666667

[...]

     enthalpy old            =   -3135.9887719737 Ry
     enthalpy new            =   -3142.6294100383 Ry

     CASE: enthalpy_new < enthalpy_old

     small trust_radius: resetting bfgs history

     new trust radius        =       2.2338991744 bohr
     new conv_thr            =       0.0001000000 Ry

[...]

          total   stress  (Ry/bohr**3)                   (kbar)     P=-2526.68
  -0.01770501   0.00000000   0.00000000      -2604.50      0.00      0.00
   0.00000000  -0.01645680   0.00000000          0.00  -2420.88      0.00
   0.00000000   0.00000000  -0.01736618          0.00      0.00  -2554.65

     number of scf cycles    =   3
     number of bfgs steps    =   2

     enthalpy old            =   -3142.6294100383 Ry
     enthalpy new            =   -3127.3274015057 Ry

     CASE: enthalpy_new > enthalpy_old

     new trust radius        =       0.6194370278 bohr

     trust_radius < trust_radius_min

     resetting bfgs history

     Message from routine bfgs:
     history already reset at previous step: stopping
     new conv_thr            =       0.0001000000 Ry

     new unit-cell volume =   1314.18171 a.u.^3 (   194.74163 Ang^3 )

[...]

ATOMIC_POSITIONS (crystal)
Co       0.750000000   0.825132830   0.435053015
Co       0.250000000   0.174867170   0.564946985
Co       0.750000000   0.325132830   0.064946985
Co       0.250000000   0.674867170   0.935053015
Co       0.250000000   0.539580415   0.279561298
Co       0.750000000   0.460419585   0.720438702
Co       0.250000000   0.039580415   0.220438702
Co       0.750000000   0.960419585   0.779561298
Si       0.250000000   0.199715143   0.893839206
Si       0.750000000   0.800284857   0.106160794
Si       0.250000000   0.699715143   0.606160794
Si       0.750000000   0.300284857   0.393839206

     Writing output data file Prototype-La-oP12-Co2Si.save
     NEW-OLD atomic charge density approx. for the potential
     NEW k-points:
        k(    1) = (   0.0000000   0.0000000   0.0000000), wk =   0.0833333
        k(    2) = (   0.0000000   0.0000000   0.1141301), wk =   0.1666667
        k(    3) = (   0.0000000   0.0000000  -0.2282603), wk =   0.0833333
        k(    4) = (   0.0000000   0.2218883   0.0000000), wk =   0.1666667
        k(    5) = (   0.0000000   0.2218883   0.1141301), wk =   0.3333333
        k(    6) = (   0.0000000   0.2218883  -0.2282603), wk =   0.1666667
        k(    7) = (  -0.4322163   0.0000000   0.0000000), wk =   0.0833333
        k(    8) = (  -0.4322163   0.0000000   0.1141301), wk =   0.1666667
        k(    9) = (  -0.4322163   0.0000000  -0.2282603), wk =   0.0833333
        k(   10) = (  -0.4322163   0.2218883   0.0000000), wk =   0.1666667
        k(   11) = (  -0.4322163   0.2218883   0.1141301), wk =   0.3333333
        k(   12) = (  -0.4322163   0.2218883  -0.2282603), wk =   0.1666667

[...]

     The maximum number of steps has been reached.

     End of BFGS Geometry Optimization
Begin final coordinates
     new unit-cell volume =   1314.18171 a.u.^3 (   194.74163 Ang^3 )

CELL_PARAMETERS (alat=  7.01510508)
   1.156828162   0.000000000   0.000000000
   0.000000000   1.502257296   0.000000000
   0.000000000   0.000000000   2.190482059

ATOMIC_POSITIONS (crystal)
Co       0.750000000   0.825132830   0.435053015
Co       0.250000000   0.174867170   0.564946985
Co       0.750000000   0.325132830   0.064946985
Co       0.250000000   0.674867170   0.935053015
Co       0.250000000   0.539580415   0.279561298
Co       0.750000000   0.460419585   0.720438702
Co       0.250000000   0.039580415   0.220438702
Co       0.750000000   0.960419585   0.779561298
Si       0.250000000   0.199715143   0.893839206
Si       0.750000000   0.800284857   0.106160794
Si       0.250000000   0.699715143   0.606160794
Si       0.750000000   0.300284857   0.393839206
End final coordinates

     A final scf calculation at the relaxed structure.
     The G-vectors are recalculated for the final unit cell
     Results may differ from those at the preceding step.

     bravais-lattice index     =            0
     lattice parameter (alat)  =       7.0151  a.u.
     unit-cell volume          =    1314.1817 (a.u.)^3
     number of atoms/cell      =           12
     number of atomic types    =            2
     number of electrons       =       240.00
     number of Kohn-Sham states=          144
     kinetic-energy cutoff     =      40.0000  Ry
     charge density cutoff     =     160.0000  Ry
     convergence threshold     =      1.0E-04
     mixing beta               =       0.7000
     number of iterations used =            8  plain     mixing
     Exchange-correlation      = SLA-PZ-NOGX-NOGC ( 1 1 0 0 0)
     EXX-fraction              =        0.00

     celldm(1)=   7.015105  celldm(2)=   0.000000  celldm(3)=   0.000000
     celldm(4)=   0.000000  celldm(5)=   0.000000  celldm(6)=   0.000000

     crystal axes: (cart. coord. in units of alat)
               a(1) = (   1.156828   0.000000   0.000000 )
               a(2) = (   0.000000   1.502257   0.000000 )
               a(3) = (   0.000000   0.000000   2.190482 )

     reciprocal axes: (cart. coord. in units 2 pi/alat)
               b(1) = (  0.864433  0.000000  0.000000 )
               b(2) = (  0.000000  0.665665  0.000000 )
               b(3) = (  0.000000  0.000000  0.456521 )

     PseudoPot. # 1 for Tb read from file:
     /home/cwx6513/pp.La/Tb.UPF
     MD5 check sum: 3d6088a3f0cf7fd2e110c43f7f8e95c2
     Pseudo is Norm-conserving, Zval = 19.0
     Generated in analytical, separable form
     Using radial grid of 1263 points,  6 beta functions with:
                l(1) =   0
                l(2) =   0
                l(3) =   1
                l(4) =   1
                l(5) =   2
                l(6) =   3

     PseudoPot. # 2 for Er read from file:
     /home/cwx6513/pp.La/Er.UPF
     MD5 check sum: e152ae21b84514339d8526f066caf99b
     Pseudo is Norm-conserving, Zval = 22.0
     Generated in analytical, separable form
     Using radial grid of 1267 points,  6 beta functions with:
                l(1) =   0
                l(2) =   0
                l(3) =   1
                l(4) =   1
                l(5) =   2
                l(6) =   3

     atomic species   valence    mass     pseudopotential
        Co            19.00    58.93320     Tb( 1.00)
        Si            22.00    28.08550     Er( 1.00)

      8 Sym. Ops., with inversion, found ( 6 have fractional translation)

   Cartesian axes

     site n.     atom                  positions (alat units)
         1           Co  tau(   1) = (   0.8676211   1.2395618   0.9529758  )
         2           Co  tau(   2) = (   0.2892070   0.2626955   1.2375062  )
         3           Co  tau(   3) = (   0.8676211   0.4884332   0.1422652  )
         4           Co  tau(   4) = (   0.2892070   1.0138241   2.0482169  )
         5           Co  tau(   5) = (   0.2892070   0.8105886   0.6123740  )
         6           Co  tau(   6) = (   0.8676211   0.6916687   1.5781081  )
         7           Co  tau(   7) = (   0.2892070   0.0594600   0.4828670  )
         8           Co  tau(   8) = (   0.8676211   1.4427973   1.7076150  )
         9           Si  tau(   9) = (   0.2892070   0.3000235   1.9579387  )
        10           Si  tau(  10) = (   0.8676211   1.2022338   0.2325433  )
        11           Si  tau(  11) = (   0.2892070   1.0511522   1.3277843  )
        12           Si  tau(  12) = (   0.8676211   0.4511051   0.8626977  )

     number of k points=    12  gaussian smearing, width (Ry)=  0.1000
                       cart. coord. in units 2pi/alat
        k(    1) = (   0.0000000   0.0000000   0.0000000), wk =   0.0833333
        k(    2) = (   0.0000000   0.0000000   0.1141301), wk =   0.1666667
        k(    3) = (   0.0000000   0.0000000  -0.2282603), wk =   0.0833333
        k(    4) = (   0.0000000   0.2218883   0.0000000), wk =   0.1666667
        k(    5) = (   0.0000000   0.2218883   0.1141301), wk =   0.3333333
        k(    6) = (   0.0000000   0.2218883  -0.2282603), wk =   0.1666667
        k(    7) = (  -0.4322163   0.0000000   0.0000000), wk =   0.0833333
        k(    8) = (  -0.4322163   0.0000000   0.1141301), wk =   0.1666667
        k(    9) = (  -0.4322163   0.0000000  -0.2282603), wk =   0.0833333
        k(   10) = (  -0.4322163   0.2218883   0.0000000), wk =   0.1666667
        k(   11) = (  -0.4322163   0.2218883   0.1141301), wk =   0.3333333
        k(   12) = (  -0.4322163   0.2218883  -0.2282603), wk =   0.1666667

     Largest allocated arrays     est. size (Mb)     dimensions
     Largest temporary arrays     est. size (Mb)     dimensions

     Initial potential from superposition of free atoms

     Starting from uniform charge
     Starting wfc are    0 randomized atomic wfcs

     Writing output data file Prototype-La-oP12-Co2Si.save

     Self-consistent Calculation

[...]

     iteration #  9     ecut=    40.00 Ry     beta=0.70
     CG style diagonalization
     c_bands:  2 eigenvalues not converged
     c_bands:  2 eigenvalues not converged
     c_bands:  2 eigenvalues not converged
     c_bands:  1 eigenvalues not converged
     c_bands:  1 eigenvalues not converged
     ethr =  3.00E-06,  avg # of iterations =  4.6

[...]

     total energy              =   -3149.72439622 Ry
     Harris-Foulkes estimate   =   -3149.72450142 Ry
     estimated scf accuracy    <       0.00017483 Ry

     iteration # 11     ecut=    40.00 Ry     beta=0.70
     CG style diagonalization
     ethr =  7.28E-08,  avg # of iterations =  4.0

     End of self-consistent calculation

[...]

          k = 0.0000 0.2219-0.2283 (  5586 PWs)   bands (ev):

[...]

          k =-0.4322 0.2219-0.2283 (  5604 PWs)   bands (ev):

   -68.3747 -68.3747 -68.3735 -68.3735 -43.2553 -43.2553 -43.2546 -43.2546
   -43.0758 -43.0758 -43.0474 -43.0474 -30.4512 -30.4512 -30.4506 -30.4506
   -30.4114 -30.4114 -30.4105 -30.4105 -30.3630 -30.3630 -30.3580 -30.3580
   -11.9754 -11.9754 -11.9079 -11.9079 -11.8876 -11.8876 -11.8652 -11.8652
   -11.7725 -11.7725 -11.7140 -11.7140 -11.6134 -11.6134 -11.5248 -11.5248
   -11.5209 -11.5209 -11.4671 -11.4671 -11.3863 -11.3863 -11.3045 -11.3045
    15.6689  15.6689  15.7082  15.7082  15.8092  15.8092  15.8890  15.8890
    15.9410  15.9410  15.9440  15.9440  16.0284  16.0284  16.0390  16.0390
    16.2954  16.2954  16.3938  16.3938  21.3163  21.3163  21.5787  21.5787
    23.0938  23.0938  23.6083  23.6083  23.6762  23.6762  24.0469  24.0469
    24.1260  24.1260  24.5506  24.5506  24.6183  24.6183  24.9608  24.9608
    25.0054  25.0054  25.4441  25.4441  25.6640  25.6640  26.1036  26.1036
    26.1251  26.1251  26.4450  26.4450  26.7760  26.7760  27.2817  27.2817
    27.4893  27.4893  27.8979  27.8979  27.9025  27.9025  28.3205  28.3205
    29.8365  29.8365  30.1955  30.1955  31.7464  31.7464  34.4844  34.4844
    35.5659  35.5659  35.6808  35.6808  37.1292  37.1292  38.0857  38.0857
    39.1377  39.1377  39.9753  39.9754  40.3931  40.3932  41.0687  41.0688
    41.1382  41.1382  41.6373  41.6373  41.7331  41.7333  42.2124  42.2126

     the Fermi energy is    34.9763 ev

!    total energy              =   -3149.72447167 Ry
     Harris-Foulkes estimate   =   -3149.72448171 Ry
     estimated scf accuracy    <       0.00001194 Ry

     The total energy is the sum of the following terms:

     one-electron contribution =    -366.47211944 Ry
     hartree contribution      =     406.13035620 Ry
     xc contribution           =    -292.10372583 Ry
     ewald contribution        =   -2897.04835211 Ry
     smearing contrib. (-TS)   =      -0.23063049 Ry

     convergence has been achieved in  11 iterations

     Forces acting on atoms (Ry/au):

     atom    1 type  1   force =     0.00000000   -0.00996111   -0.02016311
     atom    2 type  1   force =     0.00000000    0.00996111    0.02016311
     atom    3 type  1   force =     0.00000000   -0.00996111    0.02016311
     atom    4 type  1   force =     0.00000000    0.00996111   -0.02016311
     atom    5 type  1   force =     0.00000000    0.05226524   -0.09446135
     atom    6 type  1   force =     0.00000000   -0.05226524    0.09446135
     atom    7 type  1   force =     0.00000000    0.05226524    0.09446135
     atom    8 type  1   force =     0.00000000   -0.05226524   -0.09446135
     atom    9 type  2   force =     0.00000000   -0.05224476   -0.00398899
     atom   10 type  2   force =     0.00000000    0.05224476    0.00398899
     atom   11 type  2   force =     0.00000000   -0.05224476    0.00398899
     atom   12 type  2   force =     0.00000000    0.05224476   -0.00398899

     Total force =     0.244179     Total SCF correction =     0.000000

     entering subroutine stress ...

          total   stress  (Ry/bohr**3)                   (kbar)     P=  781.06
   0.00541822   0.00000000   0.00000000        797.05      0.00      0.00
   0.00000000   0.00504986   0.00000000          0.00    742.86      0.00
   0.00000000   0.00000000   0.00546058          0.00      0.00    803.28

     Writing output data file Prototype-La-oP12-Co2Si.save

     General routines

     Parallel routines

   This run was terminated on:  17:55:12  22Mar2018

   JOB DONE.