     Program PWSCF v.5.0.2 starts on 22Mar2018 at 17:31:11

     Current dimensions of program PWSCF are:
     Max number of different atomic species (ntypx) = 10
     Max number of k-points (npk) =  40000
     Max angular momentum in pseudopotentials (lmaxx) =  3
     Waiting for input...
     Reading input from standard input

     Subspace diagonalization in iterative solution of the eigenvalue problem:
     a serial algorithm will be used

     bravais-lattice index     =            0
     lattice parameter (alat)  =       9.9235  a.u.
     unit-cell volume          =    1361.0366 (a.u.)^3
     number of atoms/cell      =           12
     number of atomic types    =            2
     number of electrons       =       252.00
     number of Kohn-Sham states=          151
     kinetic-energy cutoff     =      40.0000  Ry
     charge density cutoff     =     160.0000  Ry
     convergence threshold     =      1.0E-04
     mixing beta               =       0.7000
     number of iterations used =            8  plain     mixing
     Exchange-correlation      = SLA-PZ-NOGX-NOGC ( 1 1 0 0 0)
     EXX-fraction              =        0.00
     nstep                     =           50

     celldm(1)=   9.923489  celldm(2)=   0.000000  celldm(3)=   0.000000
     celldm(4)=   0.000000  celldm(5)=   0.000000  celldm(6)=   0.000000

     crystal axes: (cart. coord. in units of alat)
               a(1) = (   1.000000   0.000000   0.000000 )
               a(2) = (  -0.500000   0.866025   0.000000 )
               a(3) = (   0.000000   0.000000   1.608222 )

     reciprocal axes: (cart. coord. in units 2 pi/alat)
               b(1) = (  1.000000  0.577350  0.000000 )
               b(2) = (  0.000000  1.154701  0.000000 )
               b(3) = (  0.000000  0.000000  0.621805 )

     PseudoPot. # 1 for Tb read from file:
     /home/cwx6513/pp.La/Tb.UPF
     MD5 check sum: 3d6088a3f0cf7fd2e110c43f7f8e95c2
     Pseudo is Norm-conserving, Zval = 19.0
     Generated in analytical, separable form
     Using radial grid of 1263 points,  6 beta functions with:
                l(1) =   0
                l(2) =   0
                l(3) =   1
                l(4) =   1
                l(5) =   2
                l(6) =   3

     PseudoPot. # 2 for Er read from file:
     /home/cwx6513/pp.La/Er.UPF
     MD5 check sum: e152ae21b84514339d8526f066caf99b
     Pseudo is Norm-conserving, Zval = 22.0
     Generated in analytical, separable form
     Using radial grid of 1267 points,  6 beta functions with:
                l(1) =   0
                l(2) =   0
                l(3) =   1
                l(4) =   1
                l(5) =   2
                l(6) =   3

     atomic species   valence    mass     pseudopotential
        Mg            19.00    24.30500     Tb( 1.00)
        Zn            22.00    65.39000     Er( 1.00)

     24 Sym. Ops., with inversion, found (12 have fractional translation)

   Cartesian axes

     site n.     atom                  positions (alat units)
         1           Mg  tau(   1) = (  -0.0000005   0.5773506   0.1003820  )
         2           Mg  tau(   2) = (   0.5000005   0.2886748   0.9044931  )
         3           Mg  tau(   3) = (   0.5000005   0.2886748   1.5078402  )
         4           Mg  tau(   4) = (  -0.0000005   0.5773506   0.7037291  )
         5           Zn  tau(   5) = (   0.0000000   0.0000000   0.0000000  )
         6           Zn  tau(   6) = (   0.0000000   0.0000000   0.8041111  )
         7           Zn  tau(   7) = (   0.0000000   0.2950739   1.2061667  )
         8           Zn  tau(   8) = (   0.7444585   0.1475370   0.4020556  )
         9           Zn  tau(   9) = (   0.2555415   0.1475370   0.4020556  )
        10           Zn  tau(  10) = (   0.2444585   0.7184884   1.2061667  )
        11           Zn  tau(  11) = (  -0.2444585   0.7184884   1.2061667  )
        12           Zn  tau(  12) = (   0.5000000   0.5709515   0.4020556  )

     number of k points=    12  gaussian smearing, width (Ry)=  0.1000
                       cart. coord. in units 2pi/alat
        k(    1) = (   0.0000000   0.0000000   0.0000000), wk =   0.0833333
        k(    2) = (   0.0000000   0.0000000   0.1554512), wk =   0.1666667
        k(    3) = (   0.0000000   0.0000000  -0.3109023), wk =   0.0833333
        k(    4) = (   0.0000000   0.3849002   0.0000000), wk =   0.1666667
        k(    5) = (   0.0000000   0.3849002   0.1554512), wk =   0.3333333
        k(    6) = (   0.0000000   0.3849002  -0.3109023), wk =   0.1666667
        k(    7) = (  -0.5000000  -0.2886751   0.0000000), wk =   0.0833333
        k(    8) = (  -0.5000000  -0.2886751   0.1554512), wk =   0.1666667
        k(    9) = (  -0.5000000  -0.2886751  -0.3109023), wk =   0.0833333
        k(   10) = (  -0.5000000   0.0962250   0.0000000), wk =   0.1666667
        k(   11) = (  -0.5000000   0.0962250   0.1554512), wk =   0.3333333
        k(   12) = (  -0.5000000   0.0962250  -0.3109023), wk =   0.1666667

     Largest allocated arrays     est. size (Mb)     dimensions
     Largest temporary arrays     est. size (Mb)     dimensions

     Initial potential from superposition of free atoms

     Starting from uniform charge
     Starting wfc are    0 randomized atomic wfcs

     Self-consistent Calculation

     iteration #  1     ecut=    40.00 Ry     beta=0.70
     CG style diagonalization
     c_bands:  1 eigenvalues not converged
     c_bands:  1 eigenvalues not converged
     c_bands:  1 eigenvalues not converged
     c_bands:  1 eigenvalues not converged
     c_bands:  2 eigenvalues not converged
     c_bands:  1 eigenvalues not converged
     c_bands:  2 eigenvalues not converged
     c_bands:  1 eigenvalues not converged
     c_bands:  1 eigenvalues not converged
     c_bands:  1 eigenvalues not converged
     ethr =  1.00E-02,  avg # of iterations = 19.2

     total energy              =   -2758.76189760 Ry
     Harris-Foulkes estimate   =   -4496.73972320 Ry
     estimated scf accuracy    <    2123.10814190 Ry

     iteration #  2     ecut=    40.00 Ry     beta=0.70
     CG style diagonalization
     ethr =  1.00E-02,  avg # of iterations = 17.6

[...]

     End of self-consistent calculation

          k = 0.0000 0.0000 0.0000 (  5769 PWs)   bands (ev):

   -68.8444 -68.8283 -68.7824 -68.7824 -68.7698 -68.7697 -68.7643 -68.7201
   -42.1791 -42.1750 -42.1727 -42.1622 -31.7392 -31.5933 -31.3027 -31.0927
   -31.0927 -31.0679 -31.0679 -30.9714 -30.9444 -30.9444 -30.8532 -30.7740
   -30.7739 -30.7123 -30.7123 -30.6442 -30.6442 -30.6009 -30.5901 -30.5901
   -30.5546 -30.5388 -30.5273 -30.5273 -10.6997 -10.6868 -10.6746 -10.6745
   -10.6469 -10.6469 -10.5711 -10.5406 -10.5299 -10.5299 -10.5278 -10.5278
    11.4022  11.9322  12.3455  13.1319  13.1319  13.3059  13.3059  13.6310
    13.6311  13.6408  14.0307  14.0307  14.6449  14.8880  15.0116  15.0116
    15.2222  15.2222  15.6910  16.0138  16.0138  16.2820  16.2820  16.4359
    16.6371  16.6372  16.6930  16.7248  16.7460  16.7460  16.8148  16.8148
    16.8699  16.8699  17.4674  17.7050  17.7050  18.0678  18.0678  18.5731
    18.5740  19.4194  21.2196  24.0736  24.7017  24.7018  24.8107  24.8600
    24.8601  25.2285  25.2286  25.2785  25.4772  25.4772  25.9673  25.9673
    26.4312  26.4313  27.2512  27.4492  27.8022  27.8329  27.8329  27.8911
    27.8911  29.9249  29.9249  30.6902  30.8345  30.8345  31.9345  31.9345
    32.3169  32.4793  32.6440  32.6440  33.1118  33.1119  33.1462  33.5175
    33.6293  35.3533  35.3534  36.4184  37.1754  37.1755  37.5266  37.7383
    37.8499  37.8500  38.3810  38.5496  38.6468  38.6469  38.6559  38.6559
    38.7265  38.7265  39.6885  39.7839  39.8645  40.2298  40.2300

[...]

          k =-0.5000-0.2887 0.0000 (  5800 PWs)   bands (ev):

[...]

     the Fermi energy is    34.7999 ev

!    total energy              =   -3547.03022050 Ry
     Harris-Foulkes estimate   =   -3547.03026034 Ry
     estimated scf accuracy    <       0.00004697 Ry

     The total energy is the sum of the following terms:

     one-electron contribution =    -657.05581064 Ry
     hartree contribution      =     541.16079613 Ry
     xc contribution           =    -315.86405588 Ry
     ewald contribution        =   -3114.95941195 Ry
     smearing contrib. (-TS)   =      -0.31173817 Ry

     convergence has been achieved in  10 iterations

     Forces acting on atoms (Ry/au):

     atom    1 type  1   force =     0.00000000    0.00000000    0.00812819
     atom    2 type  1   force =     0.00000000    0.00000000    0.00812819
     atom    3 type  1   force =     0.00000000    0.00000000   -0.00812819
     atom    4 type  1   force =     0.00000000    0.00000000   -0.00812819
     atom    5 type  2   force =     0.00000000    0.00000000    0.00000000
     atom    6 type  2   force =     0.00000000    0.00000000    0.00000000
     atom    7 type  2   force =     0.00000000    0.16334229    0.00000000
     atom    8 type  2   force =    -0.14145857    0.08167114    0.00000000
     atom    9 type  2   force =     0.14145857    0.08167114    0.00000000
     atom   10 type  2   force =    -0.14145857   -0.08167114    0.00000000
     atom   11 type  2   force =     0.14145857   -0.08167114    0.00000000
     atom   12 type  2   force =     0.00000000   -0.16334229    0.00000000

     Total force =     0.400435     Total SCF correction =     0.000000

     entering subroutine stress ...

          total   stress  (Ry/bohr**3)                   (kbar)     P= 1071.05
   0.00730983   0.00000000   0.00000000       1075.31      0.00      0.00
   0.00000000   0.00730983   0.00000000          0.00   1075.31      0.00
   0.00000000   0.00000000   0.00722284          0.00      0.00   1062.52

     BFGS Geometry Optimization

     number of scf cycles    =   1
     number of bfgs steps    =   0

     enthalpy new            =   -3547.0302205004 Ry

     new trust radius        =       0.5000000000 bohr
     new conv_thr            =       0.0001000000 Ry

     new unit-cell volume =   1655.65051 a.u.^3 (   245.34209 Ang^3 )

CELL_PARAMETERS (alat=  9.92348860)
   1.067764947   0.000000000   0.000000000
  -0.533882474   0.924711570   0.000000000
   0.000000000   0.000000000   1.715906388

ATOMIC_POSITIONS (crystal)
Mg       0.333333000   0.666667000   0.062606861
Mg       0.666667000   0.333333000   0.562606861
Mg       0.666667000   0.333333000   0.937393139
Mg       0.333333000   0.666667000   0.437393139
Zn       0.000000000   0.000000000   0.000000000
Zn       0.000000000   0.000000000   0.500000000
Zn       0.173884964   0.347769928   0.750000000
Zn       0.826115036   0.173884964   0.250000000
Zn       0.347769928   0.173884964   0.250000000
Zn       0.652230072   0.826115036   0.750000000
Zn       0.173884964   0.826115036   0.750000000
Zn       0.826115036   0.652230072   0.250000000

     Writing output data file Prototype-La-hP12-MgZn2.save
     NEW-OLD atomic charge density approx. for the potential
     NEW k-points:
        k(    1) = (   0.0000000   0.0000000   0.0000000), wk =   0.0833333
        k(    2) = (   0.0000000   0.0000000   0.1456956), wk =   0.1666667
        k(    3) = (   0.0000000   0.0000000  -0.2913912), wk =   0.0833333
        k(    4) = (   0.0000000   0.3604728   0.0000000), wk =   0.1666667
        k(    5) = (   0.0000000   0.3604728   0.1456956), wk =   0.3333333
        k(    6) = (   0.0000000   0.3604728  -0.2913912), wk =   0.1666667
        k(    7) = (  -0.4682679  -0.2703546   0.0000000), wk =   0.0833333
        k(    8) = (  -0.4682679  -0.2703546   0.1456956), wk =   0.1666667
        k(    9) = (  -0.4682679  -0.2703546  -0.2913912), wk =   0.0833333
        k(   10) = (  -0.4682679   0.0901182   0.0000000), wk =   0.1666667
        k(   11) = (  -0.4682679   0.0901182   0.1456956), wk =   0.3333333
        k(   12) = (  -0.4682679   0.0901182  -0.2913912), wk =   0.1666667

[...]

     enthalpy old            =   -3547.0302205004 Ry
     enthalpy new            =   -3547.5803080211 Ry

     CASE: enthalpy_new < enthalpy_old

     small trust_radius: resetting bfgs history

     new trust radius        =       0.5523799447 bohr
     new conv_thr            =       0.0000225314 Ry

[...]

     number of scf cycles    =   3
     number of bfgs steps    =   2

     enthalpy old            =   -3547.5803080211 Ry
     enthalpy new            =   -3547.1120160285 Ry

     CASE: enthalpy_new > enthalpy_old

     new trust radius        =       0.1663428935 bohr

     trust_radius < trust_radius_min

     resetting bfgs history

     Message from routine bfgs:
     history already reset at previous step: stopping
     new conv_thr            =       0.0000225314 Ry

     new unit-cell volume =   1385.05271 a.u.^3 (   205.24363 Ang^3 )

[...]

ATOMIC_POSITIONS (crystal)
Mg       0.333333000   0.666667000   0.063951616
Mg       0.666667000   0.333333000   0.563951616
Mg       0.666667000   0.333333000   0.936048384
Mg       0.333333000   0.666667000   0.436048384
Zn       0.000000000   0.000000000   0.000000000
Zn       0.000000000   0.000000000   0.500000000
Zn       0.173729266   0.347458532   0.750000000
Zn       0.826270734   0.173729266   0.250000000
Zn       0.347458532   0.173729266   0.250000000
Zn       0.652541468   0.826270734   0.750000000
Zn       0.173729266   0.826270734   0.750000000
Zn       0.826270734   0.652541468   0.250000000

     Writing output data file Prototype-La-hP12-MgZn2.save
     NEW-OLD atomic charge density approx. for the potential
     NEW k-points:
        k(    1) = (   0.0000000   0.0000000   0.0000000), wk =   0.0833333
        k(    2) = (   0.0000000   0.0000000   0.1554889), wk =   0.1666667
        k(    3) = (   0.0000000   0.0000000  -0.3109777), wk =   0.0833333
        k(    4) = (   0.0000000   0.3815023   0.0000000), wk =   0.1666667
        k(    5) = (   0.0000000   0.3815023   0.1554889), wk =   0.3333333
        k(    6) = (   0.0000000   0.3815023  -0.3109777), wk =   0.1666667
        k(    7) = (  -0.4955861  -0.2861267   0.0000000), wk =   0.0833333
        k(    8) = (  -0.4955861  -0.2861267   0.1554889), wk =   0.1666667
        k(    9) = (  -0.4955861  -0.2861267  -0.3109777), wk =   0.0833333
        k(   10) = (  -0.4955861   0.0953756   0.0000000), wk =   0.1666667
        k(   11) = (  -0.4955861   0.0953756   0.1554889), wk =   0.3333333
        k(   12) = (  -0.4955861   0.0953756  -0.3109777), wk =   0.1666667

[...]

     The maximum number of steps has been reached.

     End of BFGS Geometry Optimization
Begin final coordinates
     new unit-cell volume =   1385.05271 a.u.^3 (   205.24363 Ang^3 )

CELL_PARAMETERS (alat=  9.92348860)
   1.008906518   0.000000000   0.000000000
  -0.504453259   0.873738675   0.000000000
   0.000000000   0.000000000   1.607832074

ATOMIC_POSITIONS (crystal)
Mg       0.333333000   0.666667000   0.063951616
Mg       0.666667000   0.333333000   0.563951616
Mg       0.666667000   0.333333000   0.936048384
Mg       0.333333000   0.666667000   0.436048384
Zn       0.000000000   0.000000000   0.000000000
Zn       0.000000000   0.000000000   0.500000000
Zn       0.173729266   0.347458532   0.750000000
Zn       0.826270734   0.173729266   0.250000000
Zn       0.347458532   0.173729266   0.250000000
Zn       0.652541468   0.826270734   0.750000000
Zn       0.173729266   0.826270734   0.750000000
Zn       0.826270734   0.652541468   0.250000000
End final coordinates

     A final scf calculation at the relaxed structure.
     The G-vectors are recalculated for the final unit cell
     Results may differ from those at the preceding step.

     bravais-lattice index     =            0
     lattice parameter (alat)  =       9.9235  a.u.
     unit-cell volume          =    1385.0527 (a.u.)^3
     number of atoms/cell      =           12
     number of atomic types    =            2
     number of electrons       =       252.00
     number of Kohn-Sham states=          151
     kinetic-energy cutoff     =      40.0000  Ry
     charge density cutoff     =     160.0000  Ry
     convergence threshold     =      2.3E-05
     mixing beta               =       0.7000
     number of iterations used =            8  plain     mixing
     Exchange-correlation      = SLA-PZ-NOGX-NOGC ( 1 1 0 0 0)
     EXX-fraction              =        0.00

     celldm(1)=   9.923489  celldm(2)=   0.000000  celldm(3)=   0.000000
     celldm(4)=   0.000000  celldm(5)=   0.000000  celldm(6)=   0.000000

     crystal axes: (cart. coord. in units of alat)
               a(1) = (   1.008907   0.000000   0.000000 )
               a(2) = (  -0.504453   0.873739   0.000000 )
               a(3) = (   0.000000   0.000000   1.607832 )

     reciprocal axes: (cart. coord. in units 2 pi/alat)
               b(1) = (  0.991172  0.572253  0.000000 )
               b(2) = (  0.000000  1.144507  0.000000 )
               b(3) = (  0.000000  0.000000  0.621955 )

     PseudoPot. # 1 for Tb read from file:
     /home/cwx6513/pp.La/Tb.UPF
     MD5 check sum: 3d6088a3f0cf7fd2e110c43f7f8e95c2
     Pseudo is Norm-conserving, Zval = 19.0
     Generated in analytical, separable form
     Using radial grid of 1263 points,  6 beta functions with:
                l(1) =   0
                l(2) =   0
                l(3) =   1
                l(4) =   1
                l(5) =   2
                l(6) =   3

     PseudoPot. # 2 for Er read from file:
     /home/cwx6513/pp.La/Er.UPF
     MD5 check sum: e152ae21b84514339d8526f066caf99b
     Pseudo is Norm-conserving, Zval = 22.0
     Generated in analytical, separable form
     Using radial grid of 1267 points,  6 beta functions with:
                l(1) =   0
                l(2) =   0
                l(3) =   1
                l(4) =   1
                l(5) =   2
                l(6) =   3

     atomic species   valence    mass     pseudopotential
        Mg            19.00    24.30500     Tb( 1.00)
        Zn            22.00    65.39000     Er( 1.00)

     24 Sym. Ops., with inversion, found (12 have fractional translation)

   Cartesian axes

     site n.     atom                  positions (alat units)
         1           Mg  tau(   1) = (  -0.0000005   0.5824927   0.1028235  )
         2           Mg  tau(   2) = (   0.5044538   0.2912459   0.9067395  )
         3           Mg  tau(   3) = (   0.5044538   0.2912459   1.5050086  )
         4           Mg  tau(   4) = (  -0.0000005   0.5824927   0.7010926  )
         5           Zn  tau(   5) = (   0.0000000   0.0000000   0.0000000  )
         6           Zn  tau(   6) = (   0.0000000   0.0000000   0.8039160  )
         7           Zn  tau(   7) = (   0.0000000   0.3035880   1.2058741  )
         8           Zn  tau(   8) = (   0.7459916   0.1517940   0.4019580  )
         9           Zn  tau(   9) = (   0.2629149   0.1517940   0.4019580  )
        10           Zn  tau(  10) = (   0.2415384   0.7219447   1.2058741  )
        11           Zn  tau(  11) = (  -0.2415384   0.7219447   1.2058741  )
        12           Zn  tau(  12) = (   0.5044533   0.5701507   0.4019580  )

     number of k points=    12  gaussian smearing, width (Ry)=  0.1000
                       cart. coord. in units 2pi/alat
        k(    1) = (   0.0000000   0.0000000   0.0000000), wk =   0.0833333
        k(    2) = (   0.0000000   0.0000000   0.1554889), wk =   0.1666667
        k(    3) = (   0.0000000   0.0000000  -0.3109777), wk =   0.0833333
        k(    4) = (   0.0000000   0.3815023   0.0000000), wk =   0.1666667
        k(    5) = (   0.0000000   0.3815023   0.1554889), wk =   0.3333333
        k(    6) = (   0.0000000   0.3815023  -0.3109777), wk =   0.1666667
        k(    7) = (  -0.4955861  -0.2861267   0.0000000), wk =   0.0833333
        k(    8) = (  -0.4955861  -0.2861267   0.1554889), wk =   0.1666667
        k(    9) = (  -0.4955861  -0.2861267  -0.3109777), wk =   0.0833333
        k(   10) = (  -0.4955861   0.0953756   0.0000000), wk =   0.1666667
        k(   11) = (  -0.4955861   0.0953756   0.1554889), wk =   0.3333333
        k(   12) = (  -0.4955861   0.0953756  -0.3109777), wk =   0.1666667

     Largest allocated arrays     est. size (Mb)     dimensions
     Largest temporary arrays     est. size (Mb)     dimensions

     Initial potential from superposition of free atoms

     Starting from uniform charge
     Starting wfc are    0 randomized atomic wfcs

     Writing output data file Prototype-La-hP12-MgZn2.save

     Self-consistent Calculation

[...]

     iteration # 10     ecut=    40.00 Ry     beta=0.70
     CG style diagonalization
     c_bands:  1 eigenvalues not converged
     ethr =  1.78E-07,  avg # of iterations =  4.0

     total energy              =   -3547.42123552 Ry
     Harris-Foulkes estimate   =   -3547.42127164 Ry
     estimated scf accuracy    <       0.00006255 Ry

     iteration # 11     ecut=    40.00 Ry     beta=0.70
     CG style diagonalization
     ethr =  2.48E-08,  avg # of iterations =  3.7

     End of self-consistent calculation

[...]

          k = 0.0000 0.3815-0.3110 (  5920 PWs)   bands (ev):

[...]

          k =-0.4956 0.0954-0.3110 (  5920 PWs)   bands (ev):

   -69.4511 -69.4511 -69.3958 -69.3958 -69.3907 -69.3907 -69.2473 -69.2473
   -42.7839 -42.7838 -42.7771 -42.7769 -32.0364 -32.0364 -31.8085 -31.8085
   -31.5906 -31.5906 -31.5719 -31.5718 -31.4712 -31.4712 -31.4313 -31.4313
   -31.3903 -31.3903 -31.3228 -31.3228 -31.2362 -31.2361 -31.1936 -31.1936
   -31.1338 -31.1338 -31.1204 -31.1204 -11.3035 -11.3034 -11.2656 -11.2656
   -11.2338 -11.2337 -11.1839 -11.1837 -11.1459 -11.1458 -11.1309 -11.1309
    12.2421  12.2421  12.8870  12.8870  13.1760  13.1760  13.4032  13.4032
    13.5154  13.5154  14.0381  14.0381  14.2603  14.2603  14.5245  14.5245
    14.7712  14.7712  14.8599  14.8599  15.1462  15.1462  15.2614  15.2614
    15.5145  15.5145  15.8648  15.8648  15.9725  15.9725  16.2027  16.2027
    16.2353  16.2353  16.3447  16.3447  16.5561  16.5561  17.2068  17.2068
    19.0046  19.0046  20.7281  20.7282  23.2965  23.2965  23.9805  23.9806
    25.0473  25.0473  25.2712  25.2713  25.4095  25.4096  25.7123  25.7123
    26.1901  26.1901  26.7035  26.7036  26.8780  26.8780  27.1049  27.1049
    27.5336  27.5337  27.8240  27.8241  29.6250  29.6250  30.5264  30.5264
    31.9845  31.9845  32.5929  32.5929  34.5976  34.5977  35.1010  35.1011
    35.5417  35.5417  36.5712  36.5712  36.9837  36.9838  37.3248  37.3248
    37.8806  37.8807  38.1060  38.1060  38.6168  38.6169  38.9189  38.9189
    39.5125  39.5126  39.7561  39.7562  40.0919  40.0919  40.7824

     the Fermi energy is    34.0873 ev

!    total energy              =   -3547.42125496 Ry
     Harris-Foulkes estimate   =   -3547.42125655 Ry
     estimated scf accuracy    <       0.00000188 Ry

     The total energy is the sum of the following terms:

     one-electron contribution =    -678.48130946 Ry
     hartree contribution      =     546.36631749 Ry
     xc contribution           =    -315.49190996 Ry
     ewald contribution        =   -3099.50070106 Ry
     smearing contrib. (-TS)   =      -0.31365196 Ry

     convergence has been achieved in  11 iterations

     Forces acting on atoms (Ry/au):

     atom    1 type  1   force =     0.00000000    0.00000000    0.02748913
     atom    2 type  1   force =     0.00000000    0.00000000    0.02748913
     atom    3 type  1   force =     0.00000000    0.00000000   -0.02748913
     atom    4 type  1   force =     0.00000000    0.00000000   -0.02748913
     atom    5 type  2   force =     0.00000000    0.00000000    0.00000000
     atom    6 type  2   force =     0.00000000    0.00000000    0.00000000
     atom    7 type  2   force =     0.00000000   -0.02687652    0.00000000
     atom    8 type  2   force =     0.02327575   -0.01343826    0.00000000
     atom    9 type  2   force =    -0.02327575   -0.01343826    0.00000000
     atom   10 type  2   force =     0.02327575    0.01343826    0.00000000
     atom   11 type  2   force =    -0.02327575    0.01343826    0.00000000
     atom   12 type  2   force =     0.00000000    0.02687652    0.00000000

     Total force =     0.085771     Total SCF correction =     0.000000

     entering subroutine stress ...

          total   stress  (Ry/bohr**3)                   (kbar)     P=  947.72
   0.00661474   0.00000000   0.00000000        973.06      0.00      0.00
   0.00000000   0.00661474   0.00000000          0.00    973.06      0.00
   0.00000000   0.00000000   0.00609801          0.00      0.00    897.05

     Writing output data file Prototype-La-hP12-MgZn2.save

     General routines

     Parallel routines

   This run was terminated on:  18: 5:48  22Mar2018

   JOB DONE.