     Program PWSCF v.5.0.2 starts on 22Mar2018 at 17:31:11

     Current dimensions of program PWSCF are:
     Max number of different atomic species (ntypx) = 10
     Max number of k-points (npk) =  40000
     Max angular momentum in pseudopotentials (lmaxx) =  3
     Waiting for input...
     Reading input from standard input

     Subspace diagonalization in iterative solution of the eigenvalue problem:
     a serial algorithm will be used

     bravais-lattice index     =            0
     lattice parameter (alat)  =       8.5346  a.u.
     unit-cell volume          =     621.6493 (a.u.)^3
     number of atoms/cell      =            8
     number of atomic types    =            2
     number of electrons       =       158.00
     number of Kohn-Sham states=           95
     kinetic-energy cutoff     =      40.0000  Ry
     charge density cutoff     =     160.0000  Ry
     convergence threshold     =      1.0E-04
     mixing beta               =       0.7000
     number of iterations used =            8  plain     mixing
     Exchange-correlation      = SLA-PZ-NOGX-NOGC ( 1 1 0 0 0)
     EXX-fraction              =        0.00
     nstep                     =           50

     celldm(1)=   8.534573  celldm(2)=   0.000000  celldm(3)=   0.000000
     celldm(4)=   0.000000  celldm(5)=   0.000000  celldm(6)=   0.000000

     crystal axes: (cart. coord. in units of alat)
               a(1) = (   1.000000   0.000000   0.000000 )
               a(2) = (   0.000000   1.000000   0.000000 )
               a(3) = (   0.000000   0.000000   1.000000 )

     reciprocal axes: (cart. coord. in units 2 pi/alat)
               b(1) = (  1.000000  0.000000  0.000000 )
               b(2) = (  0.000000  1.000000  0.000000 )
               b(3) = (  0.000000  0.000000  1.000000 )

     PseudoPot. # 1 for Tb read from file:
     /home/cwx6513/pp.La/Tb.UPF
     MD5 check sum: 3d6088a3f0cf7fd2e110c43f7f8e95c2
     Pseudo is Norm-conserving, Zval = 19.0
     Generated in analytical, separable form
     Using radial grid of 1263 points,  6 beta functions with:
                l(1) =   0
                l(2) =   0
                l(3) =   1
                l(4) =   1
                l(5) =   2
                l(6) =   3

     PseudoPot. # 2 for Er read from file:
     /home/cwx6513/pp.La/Er.UPF
     MD5 check sum: e152ae21b84514339d8526f066caf99b
     Pseudo is Norm-conserving, Zval = 22.0
     Generated in analytical, separable form
     Using radial grid of 1267 points,  6 beta functions with:
                l(1) =   0
                l(2) =   0
                l(3) =   1
                l(4) =   1
                l(5) =   2
                l(6) =   3

     atomic species   valence    mass     pseudopotential
        Cr            19.00    51.99610     Tb( 1.00)
        Si            22.00    28.08550     Er( 1.00)

     48 Sym. Ops., with inversion, found (24 have fractional translation)

   Cartesian axes

     site n.     atom                  positions (alat units)
         1           Cr  tau(   1) = (   0.0000000   0.5000000   0.2500000  )
         2           Cr  tau(   2) = (   0.0000000   0.5000000   0.7500000  )
         3           Cr  tau(   3) = (   0.5000000   0.7500000   0.0000000  )
         4           Cr  tau(   4) = (   0.5000000   0.2500000   0.0000000  )
         5           Cr  tau(   5) = (   0.7500000   0.0000000   0.5000000  )
         6           Cr  tau(   6) = (   0.2500000   0.0000000   0.5000000  )
         7           Si  tau(   7) = (   0.5000000   0.5000000   0.5000000  )
         8           Si  tau(   8) = (   0.0000000   0.0000000   0.0000000  )

     number of k points=    48  gaussian smearing, width (Ry)=  0.1000
                       cart. coord. in units 2pi/alat
        k(    1) = (   0.0000000   0.0000000   0.0000000), wk =   0.0095238
        k(    2) = (   0.0000000   0.0000000   0.1428571), wk =   0.0190476
        k(    3) = (   0.0000000   0.0000000   0.2857143), wk =   0.0190476
        k(    4) = (   0.0000000   0.0000000   0.4285714), wk =   0.0190476
        k(    5) = (   0.0000000   0.1666667   0.0000000), wk =   0.0190476
        k(    6) = (   0.0000000   0.1666667   0.1428571), wk =   0.0380952
        k(    7) = (   0.0000000   0.1666667   0.2857143), wk =   0.0380952
        k(    8) = (   0.0000000   0.1666667   0.4285714), wk =   0.0380952
        k(    9) = (   0.0000000   0.3333333   0.0000000), wk =   0.0190476
        k(   10) = (   0.0000000   0.3333333   0.1428571), wk =   0.0380952
        k(   11) = (   0.0000000   0.3333333   0.2857143), wk =   0.0380952
        k(   12) = (   0.0000000   0.3333333   0.4285714), wk =   0.0380952
        k(   13) = (   0.0000000  -0.5000000   0.0000000), wk =   0.0095238
        k(   14) = (   0.0000000  -0.5000000   0.1428571), wk =   0.0190476
        k(   15) = (   0.0000000  -0.5000000   0.2857143), wk =   0.0190476
        k(   16) = (   0.0000000  -0.5000000   0.4285714), wk =   0.0190476
        k(   17) = (   0.2000000   0.0000000   0.0000000), wk =   0.0190476
        k(   18) = (   0.2000000   0.0000000   0.1428571), wk =   0.0380952
        k(   19) = (   0.2000000   0.0000000   0.2857143), wk =   0.0380952
        k(   20) = (   0.2000000   0.0000000   0.4285714), wk =   0.0380952
        k(   21) = (   0.2000000   0.1666667   0.0000000), wk =   0.0380952
        k(   22) = (   0.2000000   0.1666667   0.1428571), wk =   0.0761905
        k(   23) = (   0.2000000   0.1666667   0.2857143), wk =   0.0761905
        k(   24) = (   0.2000000   0.1666667   0.4285714), wk =   0.0761905
        k(   25) = (   0.2000000   0.3333333   0.0000000), wk =   0.0380952
        k(   26) = (   0.2000000   0.3333333   0.1428571), wk =   0.0761905
        k(   27) = (   0.2000000   0.3333333   0.2857143), wk =   0.0761905
        k(   28) = (   0.2000000   0.3333333   0.4285714), wk =   0.0761905
        k(   29) = (   0.2000000  -0.5000000   0.0000000), wk =   0.0190476
        k(   30) = (   0.2000000  -0.5000000   0.1428571), wk =   0.0380952
        k(   31) = (   0.2000000  -0.5000000   0.2857143), wk =   0.0380952
        k(   32) = (   0.2000000  -0.5000000   0.4285714), wk =   0.0380952
        k(   33) = (   0.4000000   0.0000000   0.0000000), wk =   0.0190476
        k(   34) = (   0.4000000   0.0000000   0.1428571), wk =   0.0380952
        k(   35) = (   0.4000000   0.0000000   0.2857143), wk =   0.0380952
        k(   36) = (   0.4000000   0.0000000   0.4285714), wk =   0.0380952
        k(   37) = (   0.4000000   0.1666667   0.0000000), wk =   0.0380952
        k(   38) = (   0.4000000   0.1666667   0.1428571), wk =   0.0761905
        k(   39) = (   0.4000000   0.1666667   0.2857143), wk =   0.0761905
        k(   40) = (   0.4000000   0.1666667   0.4285714), wk =   0.0761905
        k(   41) = (   0.4000000   0.3333333   0.0000000), wk =   0.0380952
        k(   42) = (   0.4000000   0.3333333   0.1428571), wk =   0.0761905
        k(   43) = (   0.4000000   0.3333333   0.2857143), wk =   0.0761905
        k(   44) = (   0.4000000   0.3333333   0.4285714), wk =   0.0761905
        k(   45) = (   0.4000000  -0.5000000   0.0000000), wk =   0.0190476
        k(   46) = (   0.4000000  -0.5000000   0.1428571), wk =   0.0380952
        k(   47) = (   0.4000000  -0.5000000   0.2857143), wk =   0.0380952
        k(   48) = (   0.4000000  -0.5000000   0.4285714), wk =   0.0380952

     Largest allocated arrays     est. size (Mb)     dimensions
     Largest temporary arrays     est. size (Mb)     dimensions

     Initial potential from superposition of free atoms

     Starting from uniform charge
     Starting wfc are    0 randomized atomic wfcs

     Self-consistent Calculation

     iteration #  1     ecut=    40.00 Ry     beta=0.70
     CG style diagonalization
     c_bands:  2 eigenvalues not converged
     c_bands:  4 eigenvalues not converged
     ethr =  1.00E-02,  avg # of iterations = 15.0

     total energy              =   -1686.80637403 Ry
     Harris-Foulkes estimate   =   -2299.97474038 Ry
     estimated scf accuracy    <     765.33847444 Ry

[...]

     iteration #  4     ecut=    40.00 Ry     beta=0.70
     CG style diagonalization
     ethr =  7.95E-03,  avg # of iterations =  3.7

[...]

     End of self-consistent calculation

          k = 0.0000 0.0000 0.0000 (  2601 PWs)   bands (ev):

   -54.7383 -54.6891 -30.7087 -30.4962 -30.4962 -29.7164 -29.7164 -29.7164
   -17.0295 -17.0295 -17.0295 -16.9996 -16.9996 -16.9996  -1.9770  -1.9770
    -1.5568   0.2678   0.2678   0.2678   1.3401   1.3401   1.3401   1.4319
     1.4319   1.4319   1.7130   1.7130   1.7130   3.2222   3.2222   3.2222
    27.6879  27.6879  28.5207  28.5207  28.5207  28.5720  28.5720  28.9176
    28.9176  28.9176  30.6119  31.9429  31.9429  31.9429  32.1475  32.5363
    33.2645  33.2645  34.1299  34.1299  34.1299  34.2216  37.6411  37.6411
    37.6411  37.9480  37.9480  39.1912  39.1912  39.1912  39.7803  39.7803
    39.7803  42.1816  42.1816  43.0758  43.0758  43.0758  43.5536  43.5536
    43.5536  48.2153  48.2153  48.2153  48.4725  49.6146  49.6146  50.6062
    51.8090  51.8090  51.8090  53.8674  53.8675  53.8675  54.8974  54.8974
    54.8975  54.9809  54.9809  54.9810  56.2264  56.2264  56.2266

[...]

     the Fermi energy is    50.5788 ev

!    total energy              =   -2027.08222592 Ry
     Harris-Foulkes estimate   =   -2027.08226913 Ry
     estimated scf accuracy    <       0.00005424 Ry

     The total energy is the sum of the following terms:

     one-electron contribution =     105.94044251 Ry
     hartree contribution      =     175.82409149 Ry
     xc contribution           =    -196.81466770 Ry
     ewald contribution        =   -2111.90848598 Ry
     smearing contrib. (-TS)   =      -0.12360623 Ry

     convergence has been achieved in   8 iterations

     Forces acting on atoms (Ry/au):

     atom    1 type  1   force =     0.00000000    0.00000000    0.00000000
     atom    2 type  1   force =     0.00000000    0.00000000    0.00000000
     atom    3 type  1   force =     0.00000000    0.00000000    0.00000000
     atom    4 type  1   force =     0.00000000    0.00000000    0.00000000
     atom    5 type  1   force =     0.00000000    0.00000000    0.00000000
     atom    6 type  1   force =     0.00000000    0.00000000    0.00000000
     atom    7 type  2   force =     0.00000000    0.00000000    0.00000000
     atom    8 type  2   force =     0.00000000    0.00000000    0.00000000

     Total force =     0.000000     Total SCF correction =     0.000000

     entering subroutine stress ...

          total   stress  (Ry/bohr**3)                   (kbar)     P= 5297.84
   0.03601402   0.00000000   0.00000000       5297.84      0.00      0.00
   0.00000000   0.03601402   0.00000000          0.00   5297.84      0.00
   0.00000000   0.00000000   0.03601402          0.00      0.00   5297.84

     BFGS Geometry Optimization

     number of scf cycles    =   1
     number of bfgs steps    =   0

     enthalpy new            =   -2027.0822259160 Ry

     new trust radius        =       0.5000000000 bohr
     new conv_thr            =       0.0001000000 Ry

[...]
     number of bfgs steps    =   2

     enthalpy old            =   -2030.4048228606 Ry
     enthalpy new            =   -2029.8852315177 Ry

     CASE: enthalpy_new > enthalpy_old

     new trust radius        =       0.0824042644 bohr

     trust_radius < trust_radius_min

     resetting bfgs history

     Message from routine bfgs:
     history already reset at previous step: stopping
     new conv_thr            =       0.0000010000 Ry

     new unit-cell volume =    985.69595 a.u.^3 (   146.06507 Ang^3 )

[...]

ATOMIC_POSITIONS (crystal)
Cr       0.000000000   0.500000000   0.250000000
Cr       0.000000000   0.500000000   0.750000000
Cr       0.500000000   0.750000000   0.000000000
Cr       0.500000000   0.250000000   0.000000000
Cr       0.750000000   0.000000000   0.500000000
Cr       0.250000000   0.000000000   0.500000000
Si       0.500000000   0.500000000   0.500000000
Si       0.000000000   0.000000000   0.000000000

     Writing output data file Prototype-La-cP8-Cr3Si.save
     NEW-OLD atomic charge density approx. for the potential
     NEW k-points:
        k(    1) = (   0.0000000   0.0000000   0.0000000), wk =   0.0095238
        k(    2) = (   0.0000000   0.0000000   0.1225094), wk =   0.0190476
        k(    3) = (   0.0000000   0.0000000   0.2450188), wk =   0.0190476
        k(    4) = (   0.0000000   0.0000000   0.3675282), wk =   0.0190476
        k(    5) = (   0.0000000   0.1429276   0.0000000), wk =   0.0190476
        k(    6) = (   0.0000000   0.1429276   0.1225094), wk =   0.0380952
        k(    7) = (   0.0000000   0.1429276   0.2450188), wk =   0.0380952
        k(    8) = (   0.0000000   0.1429276   0.3675282), wk =   0.0380952
        k(    9) = (   0.0000000   0.2858553   0.0000000), wk =   0.0190476
        k(   10) = (   0.0000000   0.2858553   0.1225094), wk =   0.0380952
        k(   11) = (   0.0000000   0.2858553   0.2450188), wk =   0.0380952
        k(   12) = (   0.0000000   0.2858553   0.3675282), wk =   0.0380952
        k(   13) = (   0.0000000  -0.4287829   0.0000000), wk =   0.0095238
        k(   14) = (   0.0000000  -0.4287829   0.1225094), wk =   0.0190476
        k(   15) = (   0.0000000  -0.4287829   0.2450188), wk =   0.0190476
        k(   16) = (   0.0000000  -0.4287829   0.3675282), wk =   0.0190476
        k(   17) = (   0.1715132   0.0000000   0.0000000), wk =   0.0190476
        k(   18) = (   0.1715132   0.0000000   0.1225094), wk =   0.0380952
        k(   19) = (   0.1715132   0.0000000   0.2450188), wk =   0.0380952
        k(   20) = (   0.1715132   0.0000000   0.3675282), wk =   0.0380952
        k(   21) = (   0.1715132   0.1429276   0.0000000), wk =   0.0380952
        k(   22) = (   0.1715132   0.1429276   0.1225094), wk =   0.0761905
        k(   23) = (   0.1715132   0.1429276   0.2450188), wk =   0.0761905
        k(   24) = (   0.1715132   0.1429276   0.3675282), wk =   0.0761905
        k(   25) = (   0.1715132   0.2858553   0.0000000), wk =   0.0380952
        k(   26) = (   0.1715132   0.2858553   0.1225094), wk =   0.0761905
        k(   27) = (   0.1715132   0.2858553   0.2450188), wk =   0.0761905
        k(   28) = (   0.1715132   0.2858553   0.3675282), wk =   0.0761905
        k(   29) = (   0.1715132  -0.4287829   0.0000000), wk =   0.0190476
        k(   30) = (   0.1715132  -0.4287829   0.1225094), wk =   0.0380952
        k(   31) = (   0.1715132  -0.4287829   0.2450188), wk =   0.0380952
        k(   32) = (   0.1715132  -0.4287829   0.3675282), wk =   0.0380952
        k(   33) = (   0.3430263   0.0000000   0.0000000), wk =   0.0190476
        k(   34) = (   0.3430263   0.0000000   0.1225094), wk =   0.0380952
        k(   35) = (   0.3430263   0.0000000   0.2450188), wk =   0.0380952
        k(   36) = (   0.3430263   0.0000000   0.3675282), wk =   0.0380952
        k(   37) = (   0.3430263   0.1429276   0.0000000), wk =   0.0380952
        k(   38) = (   0.3430263   0.1429276   0.1225094), wk =   0.0761905
        k(   39) = (   0.3430263   0.1429276   0.2450188), wk =   0.0761905
        k(   40) = (   0.3430263   0.1429276   0.3675282), wk =   0.0761905
        k(   41) = (   0.3430263   0.2858553   0.0000000), wk =   0.0380952
        k(   42) = (   0.3430263   0.2858553   0.1225094), wk =   0.0761905
        k(   43) = (   0.3430263   0.2858553   0.2450188), wk =   0.0761905
        k(   44) = (   0.3430263   0.2858553   0.3675282), wk =   0.0761905
        k(   45) = (   0.3430263  -0.4287829   0.0000000), wk =   0.0190476
        k(   46) = (   0.3430263  -0.4287829   0.1225094), wk =   0.0380952
        k(   47) = (   0.3430263  -0.4287829   0.2450188), wk =   0.0380952
        k(   48) = (   0.3430263  -0.4287829   0.3675282), wk =   0.0380952

[...]

          total   stress  (Ry/bohr**3)                   (kbar)     P=-1003.92
  -0.00682451   0.00000000   0.00000000      -1003.92      0.00      0.00
   0.00000000  -0.00682451   0.00000000          0.00  -1003.92      0.00
   0.00000000   0.00000000  -0.00682451          0.00      0.00  -1003.92

     The maximum number of steps has been reached.

     End of BFGS Geometry Optimization
Begin final coordinates
     new unit-cell volume =    985.69595 a.u.^3 (   146.06507 Ang^3 )

CELL_PARAMETERS (alat=  8.53457320)
   1.166091195   0.000000000   0.000000000
   0.000000000   1.166091195   0.000000000
   0.000000000   0.000000000   1.166091195

ATOMIC_POSITIONS (crystal)
Cr       0.000000000   0.500000000   0.250000000
Cr       0.000000000   0.500000000   0.750000000
Cr       0.500000000   0.750000000   0.000000000
Cr       0.500000000   0.250000000   0.000000000
Cr       0.750000000   0.000000000   0.500000000
Cr       0.250000000   0.000000000   0.500000000
Si       0.500000000   0.500000000   0.500000000
Si       0.000000000   0.000000000   0.000000000
End final coordinates

     A final scf calculation at the relaxed structure.
     The G-vectors are recalculated for the final unit cell
     Results may differ from those at the preceding step.

     bravais-lattice index     =            0
     lattice parameter (alat)  =       8.5346  a.u.
     unit-cell volume          =     985.6959 (a.u.)^3
     number of atoms/cell      =            8
     number of atomic types    =            2
     number of electrons       =       158.00
     number of Kohn-Sham states=           95
     kinetic-energy cutoff     =      40.0000  Ry
     charge density cutoff     =     160.0000  Ry
     convergence threshold     =      1.0E-06
     mixing beta               =       0.7000
     number of iterations used =            8  plain     mixing
     Exchange-correlation      = SLA-PZ-NOGX-NOGC ( 1 1 0 0 0)
     EXX-fraction              =        0.00

     celldm(1)=   8.534573  celldm(2)=   0.000000  celldm(3)=   0.000000
     celldm(4)=   0.000000  celldm(5)=   0.000000  celldm(6)=   0.000000

     crystal axes: (cart. coord. in units of alat)
               a(1) = (   1.166091   0.000000   0.000000 )
               a(2) = (   0.000000   1.166091   0.000000 )
               a(3) = (   0.000000   0.000000   1.166091 )

     reciprocal axes: (cart. coord. in units 2 pi/alat)
               b(1) = (  0.857566  0.000000  0.000000 )
               b(2) = (  0.000000  0.857566  0.000000 )
               b(3) = (  0.000000  0.000000  0.857566 )

     PseudoPot. # 1 for Tb read from file:
     /home/cwx6513/pp.La/Tb.UPF
     MD5 check sum: 3d6088a3f0cf7fd2e110c43f7f8e95c2
     Pseudo is Norm-conserving, Zval = 19.0
     Generated in analytical, separable form
     Using radial grid of 1263 points,  6 beta functions with:
                l(1) =   0
                l(2) =   0
                l(3) =   1
                l(4) =   1
                l(5) =   2
                l(6) =   3

     PseudoPot. # 2 for Er read from file:
     /home/cwx6513/pp.La/Er.UPF
     MD5 check sum: e152ae21b84514339d8526f066caf99b
     Pseudo is Norm-conserving, Zval = 22.0
     Generated in analytical, separable form
     Using radial grid of 1267 points,  6 beta functions with:
                l(1) =   0
                l(2) =   0
                l(3) =   1
                l(4) =   1
                l(5) =   2
                l(6) =   3

     atomic species   valence    mass     pseudopotential
        Cr            19.00    51.99610     Tb( 1.00)
        Si            22.00    28.08550     Er( 1.00)

     48 Sym. Ops., with inversion, found (24 have fractional translation)

   Cartesian axes

     site n.     atom                  positions (alat units)
         1           Cr  tau(   1) = (   0.0000000   0.5830456   0.2915228  )
         2           Cr  tau(   2) = (   0.0000000   0.5830456   0.8745684  )
         3           Cr  tau(   3) = (   0.5830456   0.8745684   0.0000000  )
         4           Cr  tau(   4) = (   0.5830456   0.2915228   0.0000000  )
         5           Cr  tau(   5) = (   0.8745684   0.0000000   0.5830456  )
         6           Cr  tau(   6) = (   0.2915228   0.0000000   0.5830456  )
         7           Si  tau(   7) = (   0.5830456   0.5830456   0.5830456  )
         8           Si  tau(   8) = (   0.0000000   0.0000000   0.0000000  )

     number of k points=    48  gaussian smearing, width (Ry)=  0.1000
                       cart. coord. in units 2pi/alat
        k(    1) = (   0.0000000   0.0000000   0.0000000), wk =   0.0095238
        k(    2) = (   0.0000000   0.0000000   0.1225094), wk =   0.0190476
        k(    3) = (   0.0000000   0.0000000   0.2450188), wk =   0.0190476
        k(    4) = (   0.0000000   0.0000000   0.3675282), wk =   0.0190476
        k(    5) = (   0.0000000   0.1429276   0.0000000), wk =   0.0190476
        k(    6) = (   0.0000000   0.1429276   0.1225094), wk =   0.0380952
        k(    7) = (   0.0000000   0.1429276   0.2450188), wk =   0.0380952
        k(    8) = (   0.0000000   0.1429276   0.3675282), wk =   0.0380952
        k(    9) = (   0.0000000   0.2858553   0.0000000), wk =   0.0190476
        k(   10) = (   0.0000000   0.2858553   0.1225094), wk =   0.0380952
        k(   11) = (   0.0000000   0.2858553   0.2450188), wk =   0.0380952
        k(   12) = (   0.0000000   0.2858553   0.3675282), wk =   0.0380952
        k(   13) = (   0.0000000  -0.4287829   0.0000000), wk =   0.0095238
        k(   14) = (   0.0000000  -0.4287829   0.1225094), wk =   0.0190476
        k(   15) = (   0.0000000  -0.4287829   0.2450188), wk =   0.0190476
        k(   16) = (   0.0000000  -0.4287829   0.3675282), wk =   0.0190476
        k(   17) = (   0.1715132   0.0000000   0.0000000), wk =   0.0190476
        k(   18) = (   0.1715132   0.0000000   0.1225094), wk =   0.0380952
        k(   19) = (   0.1715132   0.0000000   0.2450188), wk =   0.0380952
        k(   20) = (   0.1715132   0.0000000   0.3675282), wk =   0.0380952
        k(   21) = (   0.1715132   0.1429276   0.0000000), wk =   0.0380952
        k(   22) = (   0.1715132   0.1429276   0.1225094), wk =   0.0761905
        k(   23) = (   0.1715132   0.1429276   0.2450188), wk =   0.0761905
        k(   24) = (   0.1715132   0.1429276   0.3675282), wk =   0.0761905
        k(   25) = (   0.1715132   0.2858553   0.0000000), wk =   0.0380952
        k(   26) = (   0.1715132   0.2858553   0.1225094), wk =   0.0761905
        k(   27) = (   0.1715132   0.2858553   0.2450188), wk =   0.0761905
        k(   28) = (   0.1715132   0.2858553   0.3675282), wk =   0.0761905
        k(   29) = (   0.1715132  -0.4287829   0.0000000), wk =   0.0190476
        k(   30) = (   0.1715132  -0.4287829   0.1225094), wk =   0.0380952
        k(   31) = (   0.1715132  -0.4287829   0.2450188), wk =   0.0380952
        k(   32) = (   0.1715132  -0.4287829   0.3675282), wk =   0.0380952
        k(   33) = (   0.3430263   0.0000000   0.0000000), wk =   0.0190476
        k(   34) = (   0.3430263   0.0000000   0.1225094), wk =   0.0380952
        k(   35) = (   0.3430263   0.0000000   0.2450188), wk =   0.0380952
        k(   36) = (   0.3430263   0.0000000   0.3675282), wk =   0.0380952
        k(   37) = (   0.3430263   0.1429276   0.0000000), wk =   0.0380952
        k(   38) = (   0.3430263   0.1429276   0.1225094), wk =   0.0761905
        k(   39) = (   0.3430263   0.1429276   0.2450188), wk =   0.0761905
        k(   40) = (   0.3430263   0.1429276   0.3675282), wk =   0.0761905
        k(   41) = (   0.3430263   0.2858553   0.0000000), wk =   0.0380952
        k(   42) = (   0.3430263   0.2858553   0.1225094), wk =   0.0761905
        k(   43) = (   0.3430263   0.2858553   0.2450188), wk =   0.0761905
        k(   44) = (   0.3430263   0.2858553   0.3675282), wk =   0.0761905
        k(   45) = (   0.3430263  -0.4287829   0.0000000), wk =   0.0190476
        k(   46) = (   0.3430263  -0.4287829   0.1225094), wk =   0.0380952
        k(   47) = (   0.3430263  -0.4287829   0.2450188), wk =   0.0380952
        k(   48) = (   0.3430263  -0.4287829   0.3675282), wk =   0.0380952

     Largest allocated arrays     est. size (Mb)     dimensions
     Largest temporary arrays     est. size (Mb)     dimensions

     Initial potential from superposition of free atoms

     Starting from uniform charge
     Starting wfc are    0 randomized atomic wfcs

     Writing output data file Prototype-La-cP8-Cr3Si.save

     Self-consistent Calculation

[...]

     negative rho (up, down):  0.496E-03 0.000E+00

[...]

     iteration #  9     ecut=    40.00 Ry     beta=0.70
     CG style diagonalization
     c_bands:  1 eigenvalues not converged
     c_bands:  1 eigenvalues not converged
     c_bands:  1 eigenvalues not converged
     c_bands:  1 eigenvalues not converged
     ethr =  3.01E-07,  avg # of iterations =  4.1

[...]

     total energy              =   -2034.42284184 Ry
     Harris-Foulkes estimate   =   -2034.42284261 Ry
     estimated scf accuracy    <       0.00000136 Ry

     iteration # 11     ecut=    40.00 Ry     beta=0.70
     CG style diagonalization
     ethr =  8.60E-10,  avg # of iterations =  3.7

     End of self-consistent calculation

[...]

          k = 0.3430-0.4288 0.3675 (  4216 PWs)   bands (ev):

   -72.8287 -72.8287 -47.2040 -47.1976 -47.1818 -47.1818 -47.1666 -47.1602
   -34.7949 -34.7948 -34.7923 -34.7921 -34.7803 -34.7801 -15.9771 -15.9214
   -15.7806 -15.7789 -15.6846 -15.6840 -15.6422 -15.6085 -15.5533 -15.5421
   -15.5257 -15.5123 -15.4925 -15.4883 -15.4786 -15.4760 -15.4601 -15.4591
    11.8723  11.8725  11.8800  11.8803  11.8950  11.9038  11.9191  11.9226
    11.9305  11.9320  18.1041  18.1049  20.1123  20.1813  20.4140  20.4456
    20.5239  20.5495  20.5805  20.7191  20.8078  20.8995  20.9989  21.0071
    21.2100  21.2719  21.7106  21.7523  21.9168  21.9844  22.0832  22.0901
    22.4478  22.5900  23.1559  23.2494  23.3414  23.3919  23.3982  23.4418
    24.3938  24.4135  25.0588  25.2739  25.3676  25.6429  26.3554  26.4241
    33.1708  33.1710  34.6927  34.8635  35.1711  35.2947  36.1594  36.2248
    36.2583  36.3873  36.9277  36.9479  37.2740  37.2764  37.5091

     the Fermi energy is    29.3607 ev

!    total energy              =   -2034.42284218 Ry
     Harris-Foulkes estimate   =   -2034.42284221 Ry
     estimated scf accuracy    <       0.00000003 Ry

     The total energy is the sum of the following terms:

     one-electron contribution =    -319.95688659 Ry
     hartree contribution      =     286.02851630 Ry
     xc contribution           =    -189.26230110 Ry
     ewald contribution        =   -1811.10062037 Ry
     smearing contrib. (-TS)   =      -0.13155043 Ry

     convergence has been achieved in  11 iterations

     Forces acting on atoms (Ry/au):

     atom    1 type  1   force =     0.00000000    0.00000000    0.00000000
     atom    2 type  1   force =     0.00000000    0.00000000    0.00000000
     atom    3 type  1   force =     0.00000000    0.00000000    0.00000000
     atom    4 type  1   force =     0.00000000    0.00000000    0.00000000
     atom    5 type  1   force =     0.00000000    0.00000000    0.00000000
     atom    6 type  1   force =     0.00000000    0.00000000    0.00000000
     atom    7 type  2   force =     0.00000000    0.00000000    0.00000000
     atom    8 type  2   force =     0.00000000    0.00000000    0.00000000

     Total force =     0.000000     Total SCF correction =     0.000000

     entering subroutine stress ...

          total   stress  (Ry/bohr**3)                   (kbar)     P=   70.67
   0.00048039   0.00000000   0.00000000         70.67      0.00      0.00
   0.00000000   0.00048039   0.00000000          0.00     70.67      0.00
   0.00000000   0.00000000   0.00048039          0.00      0.00     70.67

     Writing output data file Prototype-La-cP8-Cr3Si.save

     General routines

     Parallel routines

   This run was terminated on:  17:55:42  22Mar2018

   JOB DONE.