     Program PWSCF v.5.0.2 starts on 22Mar2018 at 17:32:51

     Current dimensions of program PWSCF are:
     Max number of different atomic species (ntypx) = 10
     Max number of k-points (npk) =  40000
     Max angular momentum in pseudopotentials (lmaxx) =  3
     Waiting for input...
     Reading input from standard input

     Subspace diagonalization in iterative solution of the eigenvalue problem:
     a serial algorithm will be used

     bravais-lattice index     =            0
     lattice parameter (alat)  =       8.8008  a.u.
     unit-cell volume          =    1116.9454 (a.u.)^3
     number of atoms/cell      =           16
     number of atomic types    =            2
     number of electrons       =       316.00
     number of Kohn-Sham states=          190
     kinetic-energy cutoff     =      40.0000  Ry
     charge density cutoff     =     160.0000  Ry
     convergence threshold     =      1.0E-04
     mixing beta               =       0.7000
     number of iterations used =            8  plain     mixing
     Exchange-correlation      = SLA-PZ-NOGX-NOGC ( 1 1 0 0 0)
     EXX-fraction              =        0.00
     nstep                     =           50

     celldm(1)=   8.800765  celldm(2)=   0.000000  celldm(3)=   0.000000
     celldm(4)=   0.000000  celldm(5)=   0.000000  celldm(6)=   0.000000

     crystal axes: (cart. coord. in units of alat)
               a(1) = (   1.000000   0.000000   0.000000 )
               a(2) = (   0.000000   1.083771   0.000000 )
               a(3) = (   0.000000   0.000000   1.511935 )

     reciprocal axes: (cart. coord. in units 2 pi/alat)
               b(1) = (  1.000000  0.000000  0.000000 )
               b(2) = (  0.000000  0.922704  0.000000 )
               b(3) = (  0.000000  0.000000  0.661404 )

     PseudoPot. # 1 for Tb read from file:
     /home/jld5415/pp.La/Tb.UPF
     MD5 check sum: 3d6088a3f0cf7fd2e110c43f7f8e95c2
     Pseudo is Norm-conserving, Zval = 19.0
     Generated in analytical, separable form
     Using radial grid of 1263 points,  6 beta functions with:
                l(1) =   0
                l(2) =   0
                l(3) =   1
                l(4) =   1
                l(5) =   2
                l(6) =   3

     PseudoPot. # 2 for Er read from file:
     /home/jld5415/pp.La/Er.UPF
     MD5 check sum: e152ae21b84514339d8526f066caf99b
     Pseudo is Norm-conserving, Zval = 22.0
     Generated in analytical, separable form
     Using radial grid of 1267 points,  6 beta functions with:
                l(1) =   0
                l(2) =   0
                l(3) =   1
                l(4) =   1
                l(5) =   2
                l(6) =   3

     atomic species   valence    mass     pseudopotential
        Fe            19.00    55.84500     Tb( 1.00)
        C             22.00    12.01070     Er( 1.00)

      8 Sym. Ops., with inversion, found ( 6 have fractional translation)

   Cartesian axes

     site n.     atom                  positions (alat units)
         1           Fe  tau(   1) = (   0.3472940   0.1827628   1.3947267  )
         2           Fe  tau(   2) = (   0.1527060   0.7246484   0.8731757  )
         3           Fe  tau(   3) = (   0.8472940   0.3591227   0.6387592  )
         4           Fe  tau(   4) = (   0.3396640   0.4879235   0.3779837  )
         5           Fe  tau(   5) = (   0.1527060   0.7246484   1.3947267  )
         6           Fe  tau(   6) = (   0.3472940   0.1827628   0.8731757  )
         7           Fe  tau(   7) = (   0.1603360   1.0298091   0.3779837  )
         8           Fe  tau(   8) = (   0.6527060   0.9010083   0.6387592  )
         9           Fe  tau(   9) = (   0.8472940   0.3591227   0.1172082  )
        10           Fe  tau(  10) = (   0.6603360   0.5958476   1.1339512  )
        11           Fe  tau(  11) = (   0.6527060   0.9010083   0.1172082  )
        12           Fe  tau(  12) = (   0.8396640   0.0539620   1.1339512  )
        13           C   tau(  13) = (   0.0000000   0.0000000   0.0000000  )
        14           C   tau(  14) = (   0.5000000   0.5418856   0.0000000  )
        15           C   tau(  15) = (   0.5000000   0.5418856   0.7559674  )
        16           C   tau(  16) = (   0.0000000   0.0000000   0.7559674  )

     number of k points=    12  gaussian smearing, width (Ry)=  0.1000
                       cart. coord. in units 2pi/alat
        k(    1) = (   0.0000000   0.0000000   0.0000000), wk =   0.0833333
        k(    2) = (   0.0000000   0.0000000   0.1653510), wk =   0.1666667
        k(    3) = (   0.0000000   0.0000000  -0.3307021), wk =   0.0833333
        k(    4) = (   0.0000000   0.3075680   0.0000000), wk =   0.1666667
        k(    5) = (   0.0000000   0.3075680   0.1653510), wk =   0.3333333
        k(    6) = (   0.0000000   0.3075680  -0.3307021), wk =   0.1666667
        k(    7) = (  -0.5000000   0.0000000   0.0000000), wk =   0.0833333
        k(    8) = (  -0.5000000   0.0000000   0.1653510), wk =   0.1666667
        k(    9) = (  -0.5000000   0.0000000  -0.3307021), wk =   0.0833333
        k(   10) = (  -0.5000000   0.3075680   0.0000000), wk =   0.1666667
        k(   11) = (  -0.5000000   0.3075680   0.1653510), wk =   0.3333333
        k(   12) = (  -0.5000000   0.3075680  -0.3307021), wk =   0.1666667

     Largest allocated arrays     est. size (Mb)     dimensions
     Largest temporary arrays     est. size (Mb)     dimensions

     Initial potential from superposition of free atoms

     Starting from uniform charge
     Starting wfc are    0 randomized atomic wfcs

     Self-consistent Calculation

     iteration #  1     ecut=    40.00 Ry     beta=0.70
     CG style diagonalization
     ethr =  1.00E-02,  avg # of iterations = 22.7

     total energy              =   -2961.50173613 Ry
     Harris-Foulkes estimate   =   -5061.66470054 Ry
     estimated scf accuracy    <    2497.56851727 Ry

     iteration #  2     ecut=    40.00 Ry     beta=0.70
     CG style diagonalization
     c_bands:  4 eigenvalues not converged
     ethr =  1.00E-02,  avg # of iterations = 16.2

[...]

     End of self-consistent calculation

          k = 0.0000 0.0000 0.0000 (  4785 PWs)   bands (ev):

   -53.6073 -53.5899 -53.5212 -53.5051 -27.8677 -27.8523 -27.7232 -27.7109
   -27.3956 -27.2860 -27.2730 -27.1976 -27.1075 -27.0424 -26.7556 -26.6354
   -17.7806 -17.7785 -17.7190 -17.7183 -17.3512 -17.3189 -15.8278 -15.8183
   -15.7991 -15.7763 -15.7437 -15.7280   0.9057   0.9995   1.2368   1.4516
     1.5617   2.0721   2.8382   3.2640   3.3621   3.4152   3.9882   4.0386
     4.1929   4.1963   4.2313   4.2397   4.3358   4.4776   4.5142   4.5380
     4.6409   4.7543   4.9205   4.9609   4.9736   5.0203   5.1231   5.1413
     5.1548   5.2634   5.5320   5.5801   5.7403   5.7552   5.7785   5.8858
    24.8459  25.0502  25.5887  25.8538  25.9077  25.9728  26.1437  26.2096
    27.2602  27.5027  27.6436  28.0758  29.0705  29.4690  29.8141  29.8664
    29.8683  31.6792  31.8788  31.9942  35.5705  35.9831  36.3336  36.4303
    36.9663  36.9906  37.0757  37.3970  38.0445  38.3592  38.7894  38.7942
    38.8757  39.1267  39.1407  39.1464  39.3334  39.3939  39.5276  39.8096
    39.8438  39.9683  40.0505  40.2493  40.3517  40.9948  41.2306  41.4613
    41.4912  41.5269  41.5910  41.6538  42.1263  42.2937  42.5666  43.1343
    43.2721  43.3089  43.3524  43.5338  43.5974  44.1320  44.6738  44.7615
    44.9844  45.3684  45.6556  45.9108  45.9739  46.0131  46.3274  46.4000
    46.4046  46.4548  47.1302  47.3756  47.7640  48.0937  48.2546  48.5489
    48.9086  49.3541  49.9068  50.3811  50.9613  52.8033  52.8388  53.5708
    54.0656  54.2672  54.2747  54.4675  54.6413  55.5778  55.8675  56.0839
    56.1034  56.4224  56.5419  56.7112  57.0058  57.0967  57.2490  57.6995
    57.7573  57.8214  58.2269  58.6733  59.0349  59.0993  59.5892  59.9699
    60.0910  60.5802  61.1218  61.3982  61.4057  61.5083  61.7457  61.8087
    61.8298  62.3393  62.3501  62.5275  62.6803  62.6953

[...]

          k =-0.5000 0.0000 0.0000 (  4798 PWs)   bands (ev):

[...]

     the Fermi energy is    55.9036 ev

!    total energy              =   -4026.88031113 Ry
     Harris-Foulkes estimate   =   -4026.88032111 Ry
     estimated scf accuracy    <       0.00001166 Ry

     The total energy is the sum of the following terms:

     one-electron contribution =     -35.05854714 Ry
     hartree contribution      =     519.51249623 Ry
     xc contribution           =    -405.26141811 Ry
     ewald contribution        =   -4105.69065082 Ry
     smearing contrib. (-TS)   =      -0.38219129 Ry

     convergence has been achieved in  10 iterations

     Forces acting on atoms (Ry/au):

     atom    1 type  1   force =     1.11631013   -1.19244623   -1.53792022
     atom    2 type  1   force =    -1.11631013   -1.19244623    1.53792022
     atom    3 type  1   force =     1.11631013    1.19244623   -1.53792022
     atom    4 type  1   force =    -1.86085269   -0.68566769    0.00000000
     atom    5 type  1   force =    -1.11631013   -1.19244623   -1.53792022
     atom    6 type  1   force =     1.11631013   -1.19244623    1.53792022
     atom    7 type  1   force =     1.86085269   -0.68566769    0.00000000
     atom    8 type  1   force =    -1.11631013    1.19244623   -1.53792022
     atom    9 type  1   force =     1.11631013    1.19244623    1.53792022
     atom   10 type  1   force =     1.86085269    0.68566769    0.00000000
     atom   11 type  1   force =    -1.11631013    1.19244623    1.53792022
     atom   12 type  1   force =    -1.86085269    0.68566769    0.00000000
     atom   13 type  2   force =     0.00000000    0.00000000    0.00000000
     atom   14 type  2   force =     0.00000000    0.00000000    0.00000000
     atom   15 type  2   force =     0.00000000    0.00000000    0.00000000
     atom   16 type  2   force =     0.00000000    0.00000000    0.00000000

     Total force =     7.483171     Total SCF correction =     0.000000

     entering subroutine stress ...

          total   stress  (Ry/bohr**3)                   (kbar)     P=12610.32
   0.08616622   0.00000000   0.00000000      12675.49      0.00      0.00
   0.00000000   0.08690396   0.00000000          0.00  12784.01      0.00
   0.00000000   0.00000000   0.08409957          0.00      0.00  12371.47

     BFGS Geometry Optimization

     number of scf cycles    =   1
     number of bfgs steps    =   0

     enthalpy new            =   -4026.8803111304 Ry

     new trust radius        =       0.5000000000 bohr
     new conv_thr            =       0.0001000000 Ry

     new unit-cell volume =   1382.88621 a.u.^3 (   204.92259 Ang^3 )

CELL_PARAMETERS (alat=  8.80076499)
   1.074168848   0.000000000   0.000000000
   0.000000000   1.164841411   0.000000000
   0.000000000   0.000000000   1.621383758

ATOMIC_POSITIONS (crystal)
Fe       0.351661259   0.164331475   0.918498534
Fe       0.148338741   0.664331475   0.581501466
Fe       0.851661259   0.335668525   0.418498534
Fe       0.332383922   0.447733858   0.250000000
Fe       0.148338741   0.664331475   0.918498534
Fe       0.351661259   0.164331475   0.581501466
Fe       0.167616078   0.947733858   0.250000000
Fe       0.648338741   0.835668525   0.418498534
Fe       0.851661259   0.335668525   0.081501466
Fe       0.667616078   0.552266142   0.750000000
Fe       0.648338741   0.835668525   0.081501466
Fe       0.832383922   0.052266142   0.750000000
C        0.000000000   0.000000000   0.000000000
C        0.500000000   0.500000000   0.000000000
C        0.500000000   0.500000000   0.500000000
C        0.000000000   0.000000000   0.500000000

     Writing output data file Prototype-La-oP16-Fe3C.save
     NEW-OLD atomic charge density approx. for the potential
     NEW k-points:
        k(    1) = (   0.0000000   0.0000000   0.0000000), wk =   0.0833333
        k(    2) = (   0.0000000   0.0000000   0.1541893), wk =   0.1666667
        k(    3) = (   0.0000000   0.0000000  -0.3083786), wk =   0.0833333
        k(    4) = (   0.0000000   0.2861620   0.0000000), wk =   0.1666667
        k(    5) = (   0.0000000   0.2861620   0.1541893), wk =   0.3333333
        k(    6) = (   0.0000000   0.2861620  -0.3083786), wk =   0.1666667
        k(    7) = (  -0.4654762   0.0000000   0.0000000), wk =   0.0833333
        k(    8) = (  -0.4654762   0.0000000   0.1541893), wk =   0.1666667
        k(    9) = (  -0.4654762   0.0000000  -0.3083786), wk =   0.0833333
        k(   10) = (  -0.4654762   0.2861620   0.0000000), wk =   0.1666667
        k(   11) = (  -0.4654762   0.2861620   0.1541893), wk =   0.3333333
        k(   12) = (  -0.4654762   0.2861620  -0.3083786), wk =   0.1666667

[...]

          total   stress  (Ry/bohr**3)                   (kbar)     P= 5285.37
   0.03648456   0.00000000   0.00000000       5367.06      0.00      0.00
   0.00000000   0.03567828   0.00000000          0.00   5248.46      0.00
   0.00000000   0.00000000   0.03562480          0.00      0.00   5240.59

[...]

     enthalpy old            =   -4026.8803111304 Ry
     enthalpy new            =   -4043.8216568692 Ry

     CASE: enthalpy_new < enthalpy_old

     small trust_radius: resetting bfgs history

     new trust radius        =       6.7837898906 bohr
     new conv_thr            =       0.0001000000 Ry

[...]

     negative rho (up, down):  0.111E+00 0.000E+00

[...]

          total   stress  (Ry/bohr**3)                   (kbar)     P=-3649.02
  -0.02518950   0.00000000   0.00000000      -3705.50      0.00      0.00
   0.00000000  -0.02471419   0.00000000          0.00  -3635.58      0.00
   0.00000000   0.00000000  -0.02451285          0.00      0.00  -3605.96

     number of scf cycles    =   3
     number of bfgs steps    =   2

     enthalpy old            =   -4043.8216568692 Ry
     enthalpy new            =   -3904.7722089074 Ry

     CASE: enthalpy_new > enthalpy_old

     new trust radius        =       2.4287578765 bohr

     trust_radius < trust_radius_min

     resetting bfgs history

     Message from routine bfgs:
     history already reset at previous step: stopping
     new conv_thr            =       0.0001000000 Ry

     new unit-cell volume =   1590.41314 a.u.^3 (   235.67491 Ang^3 )

[...]

ATOMIC_POSITIONS (crystal)
Fe       0.353607697   0.162446314   0.916788581
Fe       0.146392303   0.662446314   0.583211419
Fe       0.853607697   0.337553686   0.416788581
Fe       0.329161691   0.446603108   0.250000000
Fe       0.146392303   0.662446314   0.916788581
Fe       0.353607697   0.162446314   0.583211419
Fe       0.170838309   0.946603108   0.250000000
Fe       0.646392303   0.837553686   0.416788581
Fe       0.853607697   0.337553686   0.083211419
Fe       0.670838309   0.553396892   0.750000000
Fe       0.646392303   0.837553686   0.083211419
Fe       0.829161691   0.053396892   0.750000000
C        0.000000000   0.000000000   0.000000000
C        0.500000000   0.500000000   0.000000000
C        0.500000000   0.500000000   0.500000000
C        0.000000000   0.000000000   0.500000000

     Writing output data file Prototype-La-oP16-Fe3C.save
     NEW-OLD atomic charge density approx. for the potential
     NEW k-points:
        k(    1) = (   0.0000000   0.0000000   0.0000000), wk =   0.0833333
        k(    2) = (   0.0000000   0.0000000   0.1472788), wk =   0.1666667
        k(    3) = (   0.0000000   0.0000000  -0.2945575), wk =   0.0833333
        k(    4) = (   0.0000000   0.2733009   0.0000000), wk =   0.1666667
        k(    5) = (   0.0000000   0.2733009   0.1472788), wk =   0.3333333
        k(    6) = (   0.0000000   0.2733009  -0.2945575), wk =   0.1666667
        k(    7) = (  -0.4436687   0.0000000   0.0000000), wk =   0.0833333
        k(    8) = (  -0.4436687   0.0000000   0.1472788), wk =   0.1666667
        k(    9) = (  -0.4436687   0.0000000  -0.2945575), wk =   0.0833333
        k(   10) = (  -0.4436687   0.2733009   0.0000000), wk =   0.1666667
        k(   11) = (  -0.4436687   0.2733009   0.1472788), wk =   0.3333333
        k(   12) = (  -0.4436687   0.2733009  -0.2945575), wk =   0.1666667

[...]

     The maximum number of steps has been reached.

     End of BFGS Geometry Optimization
Begin final coordinates
     new unit-cell volume =   1590.41314 a.u.^3 (   235.67491 Ang^3 )

CELL_PARAMETERS (alat=  8.80076499)
   1.126966972   0.000000000   0.000000000
   0.000000000   1.219656784   0.000000000
   0.000000000   0.000000000   1.697461212

ATOMIC_POSITIONS (crystal)
Fe       0.353607697   0.162446314   0.916788581
Fe       0.146392303   0.662446314   0.583211419
Fe       0.853607697   0.337553686   0.416788581
Fe       0.329161691   0.446603108   0.250000000
Fe       0.146392303   0.662446314   0.916788581
Fe       0.353607697   0.162446314   0.583211419
Fe       0.170838309   0.946603108   0.250000000
Fe       0.646392303   0.837553686   0.416788581
Fe       0.853607697   0.337553686   0.083211419
Fe       0.670838309   0.553396892   0.750000000
Fe       0.646392303   0.837553686   0.083211419
Fe       0.829161691   0.053396892   0.750000000
C        0.000000000   0.000000000   0.000000000
C        0.500000000   0.500000000   0.000000000
C        0.500000000   0.500000000   0.500000000
C        0.000000000   0.000000000   0.500000000
End final coordinates

     A final scf calculation at the relaxed structure.
     The G-vectors are recalculated for the final unit cell
     Results may differ from those at the preceding step.

     bravais-lattice index     =            0
     lattice parameter (alat)  =       8.8008  a.u.
     unit-cell volume          =    1590.4131 (a.u.)^3
     number of atoms/cell      =           16
     number of atomic types    =            2
     number of electrons       =       316.00
     number of Kohn-Sham states=          190
     kinetic-energy cutoff     =      40.0000  Ry
     charge density cutoff     =     160.0000  Ry
     convergence threshold     =      1.0E-04
     mixing beta               =       0.7000
     number of iterations used =            8  plain     mixing
     Exchange-correlation      = SLA-PZ-NOGX-NOGC ( 1 1 0 0 0)
     EXX-fraction              =        0.00

     celldm(1)=   8.800765  celldm(2)=   0.000000  celldm(3)=   0.000000
     celldm(4)=   0.000000  celldm(5)=   0.000000  celldm(6)=   0.000000

     crystal axes: (cart. coord. in units of alat)
               a(1) = (   1.126967   0.000000   0.000000 )
               a(2) = (   0.000000   1.219657   0.000000 )
               a(3) = (   0.000000   0.000000   1.697461 )

     reciprocal axes: (cart. coord. in units 2 pi/alat)
               b(1) = (  0.887337  0.000000  0.000000 )
               b(2) = (  0.000000  0.819903  0.000000 )
               b(3) = (  0.000000  0.000000  0.589115 )

     PseudoPot. # 1 for Tb read from file:
     /home/jld5415/pp.La/Tb.UPF
     MD5 check sum: 3d6088a3f0cf7fd2e110c43f7f8e95c2
     Pseudo is Norm-conserving, Zval = 19.0
     Generated in analytical, separable form
     Using radial grid of 1263 points,  6 beta functions with:
                l(1) =   0
                l(2) =   0
                l(3) =   1
                l(4) =   1
                l(5) =   2
                l(6) =   3

     PseudoPot. # 2 for Er read from file:
     /home/jld5415/pp.La/Er.UPF
     MD5 check sum: e152ae21b84514339d8526f066caf99b
     Pseudo is Norm-conserving, Zval = 22.0
     Generated in analytical, separable form
     Using radial grid of 1267 points,  6 beta functions with:
                l(1) =   0
                l(2) =   0
                l(3) =   1
                l(4) =   1
                l(5) =   2
                l(6) =   3

     atomic species   valence    mass     pseudopotential
        Fe            19.00    55.84500     Tb( 1.00)
        C             22.00    12.01070     Er( 1.00)

      8 Sym. Ops., with inversion, found ( 6 have fractional translation)

   Cartesian axes

     site n.     atom                  positions (alat units)
         1           Fe  tau(   1) = (   0.3985042   0.1981287   1.5562131  )
         2           Fe  tau(   2) = (   0.1649793   0.8079571   0.9899788  )
         3           Fe  tau(   3) = (   0.9619877   0.4116996   0.7074824  )
         4           Fe  tau(   4) = (   0.3709544   0.5447025   0.4243653  )
         5           Fe  tau(   5) = (   0.1649793   0.8079571   1.5562131  )
         6           Fe  tau(   6) = (   0.3985042   0.1981287   0.9899788  )
         7           Fe  tau(   7) = (   0.1925291   1.1545309   0.4243653  )
         8           Fe  tau(   8) = (   0.7284628   1.0215280   0.7074824  )
         9           Fe  tau(   9) = (   0.9619877   0.4116996   0.1412482  )
        10           Fe  tau(  10) = (   0.7560126   0.6749543   1.2730959  )
        11           Fe  tau(  11) = (   0.7284628   1.0215280   0.1412482  )
        12           Fe  tau(  12) = (   0.9344378   0.0651259   1.2730959  )
        13           C   tau(  13) = (   0.0000000   0.0000000   0.0000000  )
        14           C   tau(  14) = (   0.5634835   0.6098284   0.0000000  )
        15           C   tau(  15) = (   0.5634835   0.6098284   0.8487306  )
        16           C   tau(  16) = (   0.0000000   0.0000000   0.8487306  )

     number of k points=    12  gaussian smearing, width (Ry)=  0.1000
                       cart. coord. in units 2pi/alat
        k(    1) = (   0.0000000   0.0000000   0.0000000), wk =   0.0833333
        k(    2) = (   0.0000000   0.0000000   0.1472788), wk =   0.1666667
        k(    3) = (   0.0000000   0.0000000  -0.2945575), wk =   0.0833333
        k(    4) = (   0.0000000   0.2733009   0.0000000), wk =   0.1666667
        k(    5) = (   0.0000000   0.2733009   0.1472788), wk =   0.3333333
        k(    6) = (   0.0000000   0.2733009  -0.2945575), wk =   0.1666667
        k(    7) = (  -0.4436687   0.0000000   0.0000000), wk =   0.0833333
        k(    8) = (  -0.4436687   0.0000000   0.1472788), wk =   0.1666667
        k(    9) = (  -0.4436687   0.0000000  -0.2945575), wk =   0.0833333
        k(   10) = (  -0.4436687   0.2733009   0.0000000), wk =   0.1666667
        k(   11) = (  -0.4436687   0.2733009   0.1472788), wk =   0.3333333
        k(   12) = (  -0.4436687   0.2733009  -0.2945575), wk =   0.1666667

     Largest allocated arrays     est. size (Mb)     dimensions
     Largest temporary arrays     est. size (Mb)     dimensions

     Initial potential from superposition of free atoms

     Starting from uniform charge
     Starting wfc are    0 randomized atomic wfcs

     Writing output data file Prototype-La-oP16-Fe3C.save

     Self-consistent Calculation

[...]

     iteration #  8     ecut=    40.00 Ry     beta=0.70
     CG style diagonalization
     ethr =  3.51E-05,  avg # of iterations =  3.8

[...]

     total energy              =   -4055.84212042 Ry
     Harris-Foulkes estimate   =   -4055.84259169 Ry
     estimated scf accuracy    <       0.00075952 Ry

     iteration # 10     ecut=    40.00 Ry     beta=0.70
     CG style diagonalization
     c_bands:  1 eigenvalues not converged
     ethr =  2.40E-07,  avg # of iterations =  3.8

     End of self-consistent calculation

[...]

          k = 0.0000 0.2733-0.2946 (  6768 PWs)   bands (ev):

[...]

          k =-0.4437 0.2733-0.2946 (  6824 PWs)   bands (ev):

   -67.2196 -67.2196 -67.2192 -67.2192 -41.1137 -41.1137 -41.1091 -41.1091
   -40.9921 -40.9921 -40.9902 -40.9902 -40.8448 -40.8448 -40.8274 -40.8274
   -29.8213 -29.8213 -29.8177 -29.8177 -29.6523 -29.6523 -29.6477 -29.6477
   -29.5895 -29.5895 -29.5882 -29.5882 -10.7556 -10.7556 -10.7528 -10.7528
   -10.3279 -10.3279 -10.2955 -10.2955 -10.1955 -10.1955 -10.1899 -10.1899
    -9.8033  -9.8033  -9.8032  -9.8032  -9.4730  -9.4730  -9.4546  -9.4546
    -9.2756  -9.2756  -9.2548  -9.2548  -9.2002  -9.2002  -9.1783  -9.1783
    -8.9830  -8.9830  -8.8728  -8.8728  -8.8127  -8.8127  -8.7702  -8.7702
    14.8489  14.8489  14.8492  14.8492  15.3372  15.3372  15.3556  15.3556
    15.6206  15.6206  15.6353  15.6353  15.9831  15.9831  16.0195  16.0195
    16.1705  16.1705  16.1705  16.1705  22.9344  22.9344  23.0354  23.0354
    24.9088  24.9088  25.1951  25.1951  25.6110  25.6110  25.8367  25.8367
    25.8770  25.8770  26.1133  26.1133  26.3301  26.3301  26.5776  26.5776
    26.7069  26.7069  26.7576  26.7576  27.0615  27.0615  27.0634  27.0634
    27.6423  27.6423  27.6778  27.6778  27.8795  27.8795  28.3257  28.3257
    28.7133  28.7133  28.7395  28.7395  28.9208  28.9208  29.1293  29.1293
    29.3026  29.3026  29.8480  29.8480  29.9341  29.9341  30.4254  30.4254
    30.6516  30.6516  30.6694  30.6694  30.7933  30.7933  31.0053  31.0053
    31.4391  31.4391  31.6521  31.6521  32.6575  32.6575  32.6875  32.6875
    34.4183  34.4183  36.6756  36.6756  38.8593  38.8593  39.0884  39.0884
    39.5563  39.5563  39.8733  39.8733  41.5491  41.5491  41.7383  41.7383
    42.2345  42.2345  42.4925  42.4925  43.5911  43.5911  43.8341  43.8341
    44.1518  44.1519  44.2823  44.2823  44.3371  44.3371  44.5642  44.5643
    44.7635  44.7636  44.8178  44.8179  45.6471  45.6472

     the Fermi energy is    38.3795 ev

!    total energy              =   -4055.84232639 Ry
     Harris-Foulkes estimate   =   -4055.84239674 Ry
     estimated scf accuracy    <       0.00007795 Ry

     The total energy is the sum of the following terms:

     one-electron contribution =    -625.86691877 Ry
     hartree contribution      =     640.31731260 Ry
     xc contribution           =    -388.68397386 Ry
     ewald contribution        =   -3681.32971234 Ry
     smearing contrib. (-TS)   =      -0.27903402 Ry

     convergence has been achieved in  10 iterations

     Forces acting on atoms (Ry/au):

     atom    1 type  1   force =     0.47047468   -0.48132982   -0.57237902
     atom    2 type  1   force =    -0.47047468   -0.48132982    0.57237902
     atom    3 type  1   force =     0.47047468    0.48132982   -0.57237902
     atom    4 type  1   force =    -0.79079906   -0.28041378    0.00000000
     atom    5 type  1   force =    -0.47047468   -0.48132982   -0.57237902
     atom    6 type  1   force =     0.47047468   -0.48132982    0.57237902
     atom    7 type  1   force =     0.79079906   -0.28041378    0.00000000
     atom    8 type  1   force =    -0.47047468    0.48132982   -0.57237902
     atom    9 type  1   force =     0.47047468    0.48132982    0.57237902
     atom   10 type  1   force =     0.79079906    0.28041378    0.00000000
     atom   11 type  1   force =    -0.47047468    0.48132982    0.57237902
     atom   12 type  1   force =    -0.79079906    0.28041378    0.00000000
     atom   13 type  2   force =     0.00000000    0.00000000    0.00000000
     atom   14 type  2   force =     0.00000000    0.00000000    0.00000000
     atom   15 type  2   force =     0.00000000    0.00000000    0.00000000
     atom   16 type  2   force =     0.00000000    0.00000000    0.00000000

     Total force =     3.010170     Total SCF correction =     0.000000

     entering subroutine stress ...

          total   stress  (Ry/bohr**3)                   (kbar)     P= 3265.48
   0.02254643   0.00000000   0.00000000       3316.69      0.00      0.00
   0.00000000   0.02189506   0.00000000          0.00   3220.87      0.00
   0.00000000   0.00000000   0.02215339          0.00      0.00   3258.88

     Writing output data file Prototype-La-oP16-Fe3C.save

     General routines

     Parallel routines

   This run was terminated on:  18:24:26  22Mar2018

   JOB DONE.