     Program PWSCF v.5.0.2 starts on 22Mar2018 at 17:32:49

     Current dimensions of program PWSCF are:
     Max number of different atomic species (ntypx) = 10
     Max number of k-points (npk) =  40000
     Max angular momentum in pseudopotentials (lmaxx) =  3
     Waiting for input...
     Reading input from standard input

     Subspace diagonalization in iterative solution of the eigenvalue problem:
     a serial algorithm will be used

     bravais-lattice index     =            0
     lattice parameter (alat)  =      12.0168  a.u.
     unit-cell volume          =    1187.3413 (a.u.)^3
     number of atoms/cell      =            8
     number of atomic types    =            2
     number of electrons       =       158.00
     number of Kohn-Sham states=           95
     kinetic-energy cutoff     =      40.0000  Ry
     charge density cutoff     =     160.0000  Ry
     convergence threshold     =      1.0E-04
     mixing beta               =       0.7000
     number of iterations used =            8  plain     mixing
     Exchange-correlation      = SLA-PZ-NOGX-NOGC ( 1 1 0 0 0)
     EXX-fraction              =        0.00
     nstep                     =           50

     celldm(1)=  12.016801  celldm(2)=   0.000000  celldm(3)=   0.000000
     celldm(4)=   0.000000  celldm(5)=   0.000000  celldm(6)=   0.000000

     crystal axes: (cart. coord. in units of alat)
               a(1) = (   1.000000   0.000000   0.000000 )
               a(2) = (  -0.500000   0.866025   0.000000 )
               a(3) = (   0.000000   0.000000   0.790093 )

     reciprocal axes: (cart. coord. in units 2 pi/alat)
               b(1) = (  1.000000  0.577350  0.000000 )
               b(2) = (  0.000000  1.154701  0.000000 )
               b(3) = (  0.000000  0.000000  1.265674 )

     PseudoPot. # 1 for Tb read from file:
     /home/cwx6513/pp.La/Tb.UPF
     MD5 check sum: 3d6088a3f0cf7fd2e110c43f7f8e95c2
     Pseudo is Norm-conserving, Zval = 19.0
     Generated in analytical, separable form
     Using radial grid of 1263 points,  6 beta functions with:
                l(1) =   0
                l(2) =   0
                l(3) =   1
                l(4) =   1
                l(5) =   2
                l(6) =   3

     PseudoPot. # 2 for Er read from file:
     /home/cwx6513/pp.La/Er.UPF
     MD5 check sum: e152ae21b84514339d8526f066caf99b
     Pseudo is Norm-conserving, Zval = 22.0
     Generated in analytical, separable form
     Using radial grid of 1267 points,  6 beta functions with:
                l(1) =   0
                l(2) =   0
                l(3) =   1
                l(4) =   1
                l(5) =   2
                l(6) =   3

     atomic species   valence    mass     pseudopotential
        Mg            19.00    24.30500     Tb( 1.00)
        Cd            22.00   112.41100     Er( 1.00)

     24 Sym. Ops., with inversion, found (12 have fractional translation)

   Cartesian axes

     site n.     atom                  positions (alat units)
         1           Mg  tau(   1) = (   0.2478935   0.7204716   0.1975233  )
         2           Mg  tau(   2) = (   0.7478935   0.1455538   0.5925699  )
         3           Mg  tau(   3) = (   0.2521065   0.1455538   0.5925699  )
         4           Mg  tau(   4) = (  -0.2478935   0.7204716   0.1975233  )
         5           Mg  tau(   5) = (   0.0000000   0.2911075   0.1975233  )
         6           Mg  tau(   6) = (   0.5000000   0.5749179   0.5925699  )
         7           Cd  tau(   7) = (   0.5000005   0.2886748   0.1975233  )
         8           Cd  tau(   8) = (  -0.0000005   0.5773506   0.5925699  )

     number of k points=    64  gaussian smearing, width (Ry)=  0.1000
                       cart. coord. in units 2pi/alat
        k(    1) = (   0.0000000   0.0000000   0.0000000), wk =   0.0095238
        k(    2) = (   0.0000000   0.0000000   0.1808105), wk =   0.0190476
        k(    3) = (   0.0000000   0.0000000   0.3616210), wk =   0.0190476
        k(    4) = (   0.0000000   0.0000000   0.5424315), wk =   0.0190476
        k(    5) = (   0.0000000   0.1924501   0.0000000), wk =   0.0190476
        k(    6) = (   0.0000000   0.1924501   0.1808105), wk =   0.0380952
        k(    7) = (   0.0000000   0.1924501   0.3616210), wk =   0.0380952
        k(    8) = (   0.0000000   0.1924501   0.5424315), wk =   0.0380952
        k(    9) = (   0.0000000   0.3849002   0.0000000), wk =   0.0190476
        k(   10) = (   0.0000000   0.3849002   0.1808105), wk =   0.0380952
        k(   11) = (   0.0000000   0.3849002   0.3616210), wk =   0.0380952
        k(   12) = (   0.0000000   0.3849002   0.5424315), wk =   0.0380952
        k(   13) = (   0.0000000  -0.5773503   0.0000000), wk =   0.0095238
        k(   14) = (   0.0000000  -0.5773503   0.1808105), wk =   0.0190476
        k(   15) = (   0.0000000  -0.5773503   0.3616210), wk =   0.0190476
        k(   16) = (   0.0000000  -0.5773503   0.5424315), wk =   0.0190476
        k(   17) = (   0.2000000   0.1154701   0.0000000), wk =   0.0190476
        k(   18) = (   0.2000000   0.1154701   0.1808105), wk =   0.0380952
        k(   19) = (   0.2000000   0.1154701   0.3616210), wk =   0.0380952
        k(   20) = (   0.2000000   0.1154701   0.5424315), wk =   0.0380952
        k(   21) = (   0.2000000   0.3079201   0.0000000), wk =   0.0190476
        k(   22) = (   0.2000000   0.3079201   0.1808105), wk =   0.0380952
        k(   23) = (   0.2000000   0.3079201   0.3616210), wk =   0.0380952
        k(   24) = (   0.2000000   0.3079201   0.5424315), wk =   0.0380952
        k(   25) = (   0.2000000   0.5003702   0.0000000), wk =   0.0190476
        k(   26) = (   0.2000000   0.5003702   0.1808105), wk =   0.0380952
        k(   27) = (   0.2000000   0.5003702   0.3616210), wk =   0.0380952
        k(   28) = (   0.2000000   0.5003702   0.5424315), wk =   0.0380952
        k(   29) = (   0.2000000  -0.4618802   0.0000000), wk =   0.0190476
        k(   30) = (   0.2000000  -0.4618802   0.1808105), wk =   0.0380952
        k(   31) = (   0.2000000  -0.4618802   0.3616210), wk =   0.0380952
        k(   32) = (   0.2000000  -0.4618802   0.5424315), wk =   0.0380952
        k(   33) = (   0.2000000  -0.2694301   0.0000000), wk =   0.0190476
        k(   34) = (   0.2000000  -0.2694301   0.1808105), wk =   0.0380952
        k(   35) = (   0.2000000  -0.2694301   0.3616210), wk =   0.0380952
        k(   36) = (   0.2000000  -0.2694301   0.5424315), wk =   0.0380952
        k(   37) = (   0.2000000  -0.0769800   0.0000000), wk =   0.0190476
        k(   38) = (   0.2000000  -0.0769800   0.1808105), wk =   0.0380952
        k(   39) = (   0.2000000  -0.0769800   0.3616210), wk =   0.0380952
        k(   40) = (   0.2000000  -0.0769800   0.5424315), wk =   0.0380952
        k(   41) = (   0.4000000   0.2309401   0.0000000), wk =   0.0190476
        k(   42) = (   0.4000000   0.2309401   0.1808105), wk =   0.0380952
        k(   43) = (   0.4000000   0.2309401   0.3616210), wk =   0.0380952
        k(   44) = (   0.4000000   0.2309401   0.5424315), wk =   0.0380952
        k(   45) = (   0.4000000   0.4233902   0.0000000), wk =   0.0190476
        k(   46) = (   0.4000000   0.4233902   0.1808105), wk =   0.0380952
        k(   47) = (   0.4000000   0.4233902   0.3616210), wk =   0.0380952
        k(   48) = (   0.4000000   0.4233902   0.5424315), wk =   0.0380952
        k(   49) = (   0.4000000   0.6158403   0.0000000), wk =   0.0190476
        k(   50) = (   0.4000000   0.6158403   0.1808105), wk =   0.0380952
        k(   51) = (   0.4000000   0.6158403   0.3616210), wk =   0.0380952
        k(   52) = (   0.4000000   0.6158403   0.5424315), wk =   0.0380952
        k(   53) = (   0.4000000  -0.3464102   0.0000000), wk =   0.0190476
        k(   54) = (   0.4000000  -0.3464102   0.1808105), wk =   0.0380952
        k(   55) = (   0.4000000  -0.3464102   0.3616210), wk =   0.0380952
        k(   56) = (   0.4000000  -0.3464102   0.5424315), wk =   0.0380952
        k(   57) = (   0.4000000  -0.1539601   0.0000000), wk =   0.0190476
        k(   58) = (   0.4000000  -0.1539601   0.1808105), wk =   0.0380952
        k(   59) = (   0.4000000  -0.1539601   0.3616210), wk =   0.0380952
        k(   60) = (   0.4000000  -0.1539601   0.5424315), wk =   0.0380952
        k(   61) = (   0.4000000   0.0384900   0.0000000), wk =   0.0190476
        k(   62) = (   0.4000000   0.0384900   0.1808105), wk =   0.0380952
        k(   63) = (   0.4000000   0.0384900   0.3616210), wk =   0.0380952
        k(   64) = (   0.4000000   0.0384900   0.5424315), wk =   0.0380952

     Largest allocated arrays     est. size (Mb)     dimensions
     Largest temporary arrays     est. size (Mb)     dimensions

     Initial potential from superposition of free atoms

     Starting from uniform charge
     Starting wfc are    0 randomized atomic wfcs

     Self-consistent Calculation

     iteration #  1     ecut=    40.00 Ry     beta=0.70
     CG style diagonalization
     ethr =  1.00E-02,  avg # of iterations = 17.4

     total energy              =   -1607.25223039 Ry
     Harris-Foulkes estimate   =   -2564.52004988 Ry
     estimated scf accuracy    <    1185.55275184 Ry

     iteration #  2     ecut=    40.00 Ry     beta=0.70
     CG style diagonalization
     c_bands:  1 eigenvalues not converged
     c_bands:  1 eigenvalues not converged
     c_bands:  1 eigenvalues not converged
     c_bands:  3 eigenvalues not converged
     c_bands:  2 eigenvalues not converged
     c_bands:  1 eigenvalues not converged
     c_bands:  2 eigenvalues not converged
     c_bands:  1 eigenvalues not converged
     c_bands:  3 eigenvalues not converged
     c_bands:  1 eigenvalues not converged
     c_bands:  1 eigenvalues not converged
     c_bands:  1 eigenvalues not converged
     c_bands:  2 eigenvalues not converged
     c_bands:  1 eigenvalues not converged
     c_bands:  1 eigenvalues not converged
     c_bands:  1 eigenvalues not converged
     c_bands:  1 eigenvalues not converged
     c_bands:  1 eigenvalues not converged
     c_bands:  2 eigenvalues not converged
     c_bands:  1 eigenvalues not converged
     c_bands:  1 eigenvalues not converged
     c_bands:  1 eigenvalues not converged
     c_bands:  1 eigenvalues not converged
     c_bands:  2 eigenvalues not converged
     c_bands:  1 eigenvalues not converged
     c_bands:  2 eigenvalues not converged
     c_bands:  2 eigenvalues not converged
     c_bands:  1 eigenvalues not converged
     c_bands:  1 eigenvalues not converged
     c_bands:  1 eigenvalues not converged
     c_bands:  1 eigenvalues not converged
     c_bands:  1 eigenvalues not converged
     ethr =  1.00E-02,  avg # of iterations = 10.1

[...]

     End of self-consistent calculation

          k = 0.0000 0.0000 0.0000 (  5047 PWs)   bands (ev):

   -78.2866 -78.2809 -52.3226 -52.3058 -52.3032 -52.3031 -52.2968 -52.2967
   -40.2248 -40.2185 -40.2021 -40.2021 -40.1930 -40.1929 -20.8670 -20.8048
   -20.7466 -20.7402 -20.7401 -20.7207 -20.7206 -20.7054 -20.7054 -20.6428
   -20.5688 -20.5687 -20.4995 -20.4951 -20.4880 -20.4879 -20.4808 -20.4807
[...]
        k(   14) = (   0.0000000  -0.5825051   0.1798215), wk =   0.0190476
        k(   15) = (   0.0000000  -0.5825051   0.3596431), wk =   0.0190476
        k(   16) = (   0.0000000  -0.5825051   0.5394646), wk =   0.0190476
        k(   17) = (   0.2017857   0.1165010   0.0000000), wk =   0.0190476
        k(   18) = (   0.2017857   0.1165010   0.1798215), wk =   0.0380952
        k(   19) = (   0.2017857   0.1165010   0.3596431), wk =   0.0380952
        k(   20) = (   0.2017857   0.1165010   0.5394646), wk =   0.0380952
        k(   21) = (   0.2017857   0.3106694   0.0000000), wk =   0.0190476
        k(   22) = (   0.2017857   0.3106694   0.1798215), wk =   0.0380952
        k(   23) = (   0.2017857   0.3106694   0.3596431), wk =   0.0380952
        k(   24) = (   0.2017857   0.3106694   0.5394646), wk =   0.0380952
        k(   25) = (   0.2017857   0.5048377   0.0000000), wk =   0.0190476
        k(   26) = (   0.2017857   0.5048377   0.1798215), wk =   0.0380952
        k(   27) = (   0.2017857   0.5048377   0.3596431), wk =   0.0380952
        k(   28) = (   0.2017857   0.5048377   0.5394646), wk =   0.0380952
        k(   29) = (   0.2017857  -0.4660041   0.0000000), wk =   0.0190476
        k(   30) = (   0.2017857  -0.4660041   0.1798215), wk =   0.0380952
        k(   31) = (   0.2017857  -0.4660041   0.3596431), wk =   0.0380952
        k(   32) = (   0.2017857  -0.4660041   0.5394646), wk =   0.0380952
        k(   33) = (   0.2017857  -0.2718357   0.0000000), wk =   0.0190476
        k(   34) = (   0.2017857  -0.2718357   0.1798215), wk =   0.0380952
        k(   35) = (   0.2017857  -0.2718357   0.3596431), wk =   0.0380952
        k(   36) = (   0.2017857  -0.2718357   0.5394646), wk =   0.0380952
        k(   37) = (   0.2017857  -0.0776673   0.0000000), wk =   0.0190476
        k(   38) = (   0.2017857  -0.0776673   0.1798215), wk =   0.0380952
        k(   39) = (   0.2017857  -0.0776673   0.3596431), wk =   0.0380952
        k(   40) = (   0.2017857  -0.0776673   0.5394646), wk =   0.0380952
        k(   41) = (   0.4035714   0.2330020   0.0000000), wk =   0.0190476
        k(   42) = (   0.4035714   0.2330020   0.1798215), wk =   0.0380952
        k(   43) = (   0.4035714   0.2330020   0.3596431), wk =   0.0380952
        k(   44) = (   0.4035714   0.2330020   0.5394646), wk =   0.0380952
        k(   45) = (   0.4035714   0.4271704   0.0000000), wk =   0.0190476
        k(   46) = (   0.4035714   0.4271704   0.1798215), wk =   0.0380952
        k(   47) = (   0.4035714   0.4271704   0.3596431), wk =   0.0380952
        k(   48) = (   0.4035714   0.4271704   0.5394646), wk =   0.0380952
        k(   49) = (   0.4035714   0.6213388   0.0000000), wk =   0.0190476
        k(   50) = (   0.4035714   0.6213388   0.1798215), wk =   0.0380952
        k(   51) = (   0.4035714   0.6213388   0.3596431), wk =   0.0380952
        k(   52) = (   0.4035714   0.6213388   0.5394646), wk =   0.0380952
        k(   53) = (   0.4035714  -0.3495031   0.0000000), wk =   0.0190476
        k(   54) = (   0.4035714  -0.3495031   0.1798215), wk =   0.0380952
        k(   55) = (   0.4035714  -0.3495031   0.3596431), wk =   0.0380952
        k(   56) = (   0.4035714  -0.3495031   0.5394646), wk =   0.0380952
        k(   57) = (   0.4035714  -0.1553347   0.0000000), wk =   0.0190476
        k(   58) = (   0.4035714  -0.1553347   0.1798215), wk =   0.0380952
        k(   59) = (   0.4035714  -0.1553347   0.3596431), wk =   0.0380952
        k(   60) = (   0.4035714  -0.1553347   0.5394646), wk =   0.0380952
        k(   61) = (   0.4035714   0.0388337   0.0000000), wk =   0.0190476
        k(   62) = (   0.4035714   0.0388337   0.1798215), wk =   0.0380952
        k(   63) = (   0.4035714   0.0388337   0.3596431), wk =   0.0380952
        k(   64) = (   0.4035714   0.0388337   0.5394646), wk =   0.0380952

[...]

     The maximum number of steps has been reached.

     End of BFGS Geometry Optimization
Begin final coordinates
     new unit-cell volume =   1172.83477 a.u.^3 (   173.79618 Ang^3 )

CELL_PARAMETERS (alat= 12.01680127)
   0.991150602   0.000000000   0.000000000
  -0.495575301   0.858361600   0.000000000
   0.000000000   0.000000000   0.794438471

ATOMIC_POSITIONS (crystal)
Mg       0.668653954   0.834326977   0.250000000
Mg       0.834326977   0.165673023   0.750000000
Mg       0.331346046   0.165673023   0.750000000
Mg       0.165673023   0.834326977   0.250000000
Mg       0.165673023   0.331346046   0.250000000
Mg       0.834326977   0.668653954   0.750000000
Cd       0.666667000   0.333333000   0.250000000
Cd       0.333333000   0.666667000   0.750000000
End final coordinates

     A final scf calculation at the relaxed structure.
     The G-vectors are recalculated for the final unit cell
     Results may differ from those at the preceding step.

     bravais-lattice index     =            0
     lattice parameter (alat)  =      12.0168  a.u.
     unit-cell volume          =    1172.8348 (a.u.)^3
     number of atoms/cell      =            8
     number of atomic types    =            2
     number of electrons       =       158.00
     number of Kohn-Sham states=           95
     kinetic-energy cutoff     =      40.0000  Ry
     charge density cutoff     =     160.0000  Ry
     convergence threshold     =      3.8E-05
     mixing beta               =       0.7000
     number of iterations used =            8  plain     mixing
     Exchange-correlation      = SLA-PZ-NOGX-NOGC ( 1 1 0 0 0)
     EXX-fraction              =        0.00

     celldm(1)=  12.016801  celldm(2)=   0.000000  celldm(3)=   0.000000
     celldm(4)=   0.000000  celldm(5)=   0.000000  celldm(6)=   0.000000

     crystal axes: (cart. coord. in units of alat)
               a(1) = (   0.991151   0.000000   0.000000 )
               a(2) = (  -0.495575   0.858362   0.000000 )
               a(3) = (   0.000000   0.000000   0.794438 )

     reciprocal axes: (cart. coord. in units 2 pi/alat)
               b(1) = (  1.008928  0.582505  0.000000 )
               b(2) = (  0.000000  1.165010  0.000000 )
               b(3) = (  0.000000  0.000000  1.258751 )

     PseudoPot. # 1 for Tb read from file:
     /home/cwx6513/pp.La/Tb.UPF
     MD5 check sum: 3d6088a3f0cf7fd2e110c43f7f8e95c2
     Pseudo is Norm-conserving, Zval = 19.0
     Generated in analytical, separable form
     Using radial grid of 1263 points,  6 beta functions with:
                l(1) =   0
                l(2) =   0
                l(3) =   1
                l(4) =   1
                l(5) =   2
                l(6) =   3

     PseudoPot. # 2 for Er read from file:
     /home/cwx6513/pp.La/Er.UPF
     MD5 check sum: e152ae21b84514339d8526f066caf99b
     Pseudo is Norm-conserving, Zval = 22.0
     Generated in analytical, separable form
     Using radial grid of 1267 points,  6 beta functions with:
                l(1) =   0
                l(2) =   0
                l(3) =   1
                l(4) =   1
                l(5) =   2
                l(6) =   3

     atomic species   valence    mass     pseudopotential
        Mg            19.00    24.30500     Tb( 1.00)
        Cd            22.00   112.41100     Er( 1.00)

     24 Sym. Ops., with inversion, found (12 have fractional translation)

   Cartesian axes

     site n.     atom                  positions (alat units)
         1           Mg  tau(   1) = (   0.2492649   0.7161542   0.1986096  )
         2           Mg  tau(   2) = (   0.7448402   0.1422074   0.5958289  )
         3           Mg  tau(   3) = (   0.2463104   0.1422074   0.5958289  )
         4           Mg  tau(   4) = (  -0.2492649   0.7161542   0.1986096  )
         5           Mg  tau(   5) = (   0.0000000   0.2844147   0.1986096  )
         6           Mg  tau(   6) = (   0.4955753   0.5739469   0.5958289  )
         7           Cd  tau(   7) = (   0.4955758   0.2861202   0.1986096  )
         8           Cd  tau(   8) = (  -0.0000005   0.5722414   0.5958289  )

     number of k points=    64  gaussian smearing, width (Ry)=  0.1000
                       cart. coord. in units 2pi/alat
        k(    1) = (   0.0000000   0.0000000   0.0000000), wk =   0.0095238
        k(    2) = (   0.0000000   0.0000000   0.1798215), wk =   0.0190476
        k(    3) = (   0.0000000   0.0000000   0.3596431), wk =   0.0190476
        k(    4) = (   0.0000000   0.0000000   0.5394646), wk =   0.0190476
        k(    5) = (   0.0000000   0.1941684   0.0000000), wk =   0.0190476
        k(    6) = (   0.0000000   0.1941684   0.1798215), wk =   0.0380952
        k(    7) = (   0.0000000   0.1941684   0.3596431), wk =   0.0380952
        k(    8) = (   0.0000000   0.1941684   0.5394646), wk =   0.0380952
        k(    9) = (   0.0000000   0.3883367   0.0000000), wk =   0.0190476
        k(   10) = (   0.0000000   0.3883367   0.1798215), wk =   0.0380952
        k(   11) = (   0.0000000   0.3883367   0.3596431), wk =   0.0380952
        k(   12) = (   0.0000000   0.3883367   0.5394646), wk =   0.0380952
        k(   13) = (   0.0000000  -0.5825051   0.0000000), wk =   0.0095238
        k(   14) = (   0.0000000  -0.5825051   0.1798215), wk =   0.0190476
        k(   15) = (   0.0000000  -0.5825051   0.3596431), wk =   0.0190476
        k(   16) = (   0.0000000  -0.5825051   0.5394646), wk =   0.0190476
        k(   17) = (   0.2017857   0.1165010   0.0000000), wk =   0.0190476
        k(   18) = (   0.2017857   0.1165010   0.1798215), wk =   0.0380952
        k(   19) = (   0.2017857   0.1165010   0.3596431), wk =   0.0380952
        k(   20) = (   0.2017857   0.1165010   0.5394646), wk =   0.0380952
        k(   21) = (   0.2017857   0.3106694   0.0000000), wk =   0.0190476
        k(   22) = (   0.2017857   0.3106694   0.1798215), wk =   0.0380952
        k(   23) = (   0.2017857   0.3106694   0.3596431), wk =   0.0380952
        k(   24) = (   0.2017857   0.3106694   0.5394646), wk =   0.0380952
        k(   25) = (   0.2017857   0.5048377   0.0000000), wk =   0.0190476
        k(   26) = (   0.2017857   0.5048377   0.1798215), wk =   0.0380952
        k(   27) = (   0.2017857   0.5048377   0.3596431), wk =   0.0380952
        k(   28) = (   0.2017857   0.5048377   0.5394646), wk =   0.0380952
        k(   29) = (   0.2017857  -0.4660041   0.0000000), wk =   0.0190476
        k(   30) = (   0.2017857  -0.4660041   0.1798215), wk =   0.0380952
        k(   31) = (   0.2017857  -0.4660041   0.3596431), wk =   0.0380952
        k(   32) = (   0.2017857  -0.4660041   0.5394646), wk =   0.0380952
        k(   33) = (   0.2017857  -0.2718357   0.0000000), wk =   0.0190476
        k(   34) = (   0.2017857  -0.2718357   0.1798215), wk =   0.0380952
        k(   35) = (   0.2017857  -0.2718357   0.3596431), wk =   0.0380952
        k(   36) = (   0.2017857  -0.2718357   0.5394646), wk =   0.0380952
        k(   37) = (   0.2017857  -0.0776673   0.0000000), wk =   0.0190476
        k(   38) = (   0.2017857  -0.0776673   0.1798215), wk =   0.0380952
        k(   39) = (   0.2017857  -0.0776673   0.3596431), wk =   0.0380952
        k(   40) = (   0.2017857  -0.0776673   0.5394646), wk =   0.0380952
        k(   41) = (   0.4035714   0.2330020   0.0000000), wk =   0.0190476
        k(   42) = (   0.4035714   0.2330020   0.1798215), wk =   0.0380952
        k(   43) = (   0.4035714   0.2330020   0.3596431), wk =   0.0380952
        k(   44) = (   0.4035714   0.2330020   0.5394646), wk =   0.0380952
        k(   45) = (   0.4035714   0.4271704   0.0000000), wk =   0.0190476
        k(   46) = (   0.4035714   0.4271704   0.1798215), wk =   0.0380952
        k(   47) = (   0.4035714   0.4271704   0.3596431), wk =   0.0380952
        k(   48) = (   0.4035714   0.4271704   0.5394646), wk =   0.0380952
        k(   49) = (   0.4035714   0.6213388   0.0000000), wk =   0.0190476
        k(   50) = (   0.4035714   0.6213388   0.1798215), wk =   0.0380952
        k(   51) = (   0.4035714   0.6213388   0.3596431), wk =   0.0380952
        k(   52) = (   0.4035714   0.6213388   0.5394646), wk =   0.0380952
        k(   53) = (   0.4035714  -0.3495031   0.0000000), wk =   0.0190476
        k(   54) = (   0.4035714  -0.3495031   0.1798215), wk =   0.0380952
        k(   55) = (   0.4035714  -0.3495031   0.3596431), wk =   0.0380952
        k(   56) = (   0.4035714  -0.3495031   0.5394646), wk =   0.0380952
        k(   57) = (   0.4035714  -0.1553347   0.0000000), wk =   0.0190476
        k(   58) = (   0.4035714  -0.1553347   0.1798215), wk =   0.0380952
        k(   59) = (   0.4035714  -0.1553347   0.3596431), wk =   0.0380952
        k(   60) = (   0.4035714  -0.1553347   0.5394646), wk =   0.0380952
        k(   61) = (   0.4035714   0.0388337   0.0000000), wk =   0.0190476
        k(   62) = (   0.4035714   0.0388337   0.1798215), wk =   0.0380952
        k(   63) = (   0.4035714   0.0388337   0.3596431), wk =   0.0380952
        k(   64) = (   0.4035714   0.0388337   0.5394646), wk =   0.0380952

     Largest allocated arrays     est. size (Mb)     dimensions
     Largest temporary arrays     est. size (Mb)     dimensions

     Initial potential from superposition of free atoms

     Starting from uniform charge
     Starting wfc are    0 randomized atomic wfcs

     Writing output data file Prototype-La-hP8-Mg3Cd.save

     Self-consistent Calculation

[...]

     iteration # 10     ecut=    40.00 Ry     beta=0.70
     CG style diagonalization
     c_bands:  1 eigenvalues not converged
     c_bands:  1 eigenvalues not converged
     c_bands:  1 eigenvalues not converged
     c_bands:  1 eigenvalues not converged
     ethr =  4.76E-07,  avg # of iterations =  3.8

     total energy              =   -2035.31479970 Ry
     Harris-Foulkes estimate   =   -2035.31482341 Ry
     estimated scf accuracy    <       0.00005305 Ry

     iteration # 11     ecut=    40.00 Ry     beta=0.70
     CG style diagonalization
     ethr =  3.36E-08,  avg # of iterations =  4.0

     End of self-consistent calculation

[...]

          k = 0.4036 0.0388 0.5395 (  5008 PWs)   bands (ev):

   -77.9464 -77.9427 -52.0027 -51.9944 -51.9905 -51.9865 -51.9853 -51.9848
   -39.8736 -39.8682 -39.8612 -39.8607 -39.8590 -39.8566 -20.4930 -20.4834
   -20.4821 -20.4720 -20.4424 -20.4402 -20.3388 -20.3339 -20.3089 -20.2945
   -20.2719 -20.2576 -20.2502 -20.2429 -20.2375 -20.2164 -20.1912 -20.1855
     7.0687   7.0769   7.0836   7.0887   7.0920   7.0977   7.1307   7.1322
     7.1527   7.1568  13.6303  13.7196  15.4414  15.6200  15.7595  15.8382
    16.0614  16.1578  16.1824  16.2867  16.3136  16.3766  16.6133  16.7056
    17.0371  17.0789  17.1351  17.2144  17.5289  17.6835  17.7872  18.0369
    18.1348  18.1764  18.3999  18.4647  18.6586  18.7434  18.8247  19.0893
    19.3243  19.6382  19.8031  20.0645  20.6015  21.1256  22.8581  23.1801
    24.7072  25.1057  27.0532  27.6714  27.7462  28.3021  28.7891  29.1057
    29.8978  30.3316  30.8615  31.2064  31.3236  31.5864  31.7235

     the Fermi energy is    23.3948 ev

!    total energy              =   -2035.31480396 Ry
     Harris-Foulkes estimate   =   -2035.31481626 Ry
     estimated scf accuracy    <       0.00001426 Ry

     The total energy is the sum of the following terms:

     one-electron contribution =    -464.48565973 Ry
     hartree contribution      =     329.63161141 Ry
     xc contribution           =    -187.41031256 Ry
     ewald contribution        =   -1712.88765458 Ry
     smearing contrib. (-TS)   =      -0.16278850 Ry

     convergence has been achieved in  11 iterations

     Forces acting on atoms (Ry/au):

     atom    1 type  1   force =     0.00215211    0.00124252    0.00000000
     atom    2 type  1   force =     0.00215211   -0.00124252    0.00000000
     atom    3 type  1   force =    -0.00215211   -0.00124252    0.00000000
     atom    4 type  1   force =    -0.00215211    0.00124252    0.00000000
     atom    5 type  1   force =     0.00000000   -0.00248504    0.00000000
     atom    6 type  1   force =     0.00000000    0.00248504    0.00000000
     atom    7 type  2   force =     0.00000000    0.00000000    0.00000000
     atom    8 type  2   force =     0.00000000    0.00000000    0.00000000

     Total force =     0.006087     Total SCF correction =     0.000000

     entering subroutine stress ...

          total   stress  (Ry/bohr**3)                   (kbar)     P= -453.71
  -0.00313293   0.00000000   0.00000000       -460.87      0.00      0.00
   0.00000000  -0.00313293   0.00000000          0.00   -460.87      0.00
   0.00000000   0.00000000  -0.00298694          0.00      0.00   -439.39

     Writing output data file Prototype-La-hP8-Mg3Cd.save

     General routines

     Parallel routines

   This run was terminated on:  19:42:38  22Mar2018

   JOB DONE.