     Program PWSCF v.5.0.2 starts on 22Mar2018 at 18:41:57

     Current dimensions of program PWSCF are:
     Max number of different atomic species (ntypx) = 10
     Max number of k-points (npk) =  40000
     Max angular momentum in pseudopotentials (lmaxx) =  3
     Waiting for input...
     Reading input from standard input

     Subspace diagonalization in iterative solution of the eigenvalue problem:
     a serial algorithm will be used

     bravais-lattice index     =            0
     lattice parameter (alat)  =      12.0168  a.u.
     unit-cell volume          =    1187.3413 (a.u.)^3
     number of atoms/cell      =            8
     number of atomic types    =            2
     number of electrons       =       136.00
     number of Kohn-Sham states=           82
     kinetic-energy cutoff     =      40.0000  Ry
     charge density cutoff     =     160.0000  Ry
     convergence threshold     =      1.0E-04
     mixing beta               =       0.7000
     number of iterations used =            8  plain     mixing
     Exchange-correlation      = SLA-PZ-NOGX-NOGC ( 1 1 0 0 0)
     EXX-fraction              =        0.00
     nstep                     =           50

     celldm(1)=  12.016801  celldm(2)=   0.000000  celldm(3)=   0.000000
     celldm(4)=   0.000000  celldm(5)=   0.000000  celldm(6)=   0.000000

     crystal axes: (cart. coord. in units of alat)
               a(1) = (   1.000000   0.000000   0.000000 )
               a(2) = (  -0.500000   0.866025   0.000000 )
               a(3) = (   0.000000   0.000000   0.790093 )

     reciprocal axes: (cart. coord. in units 2 pi/alat)
               b(1) = (  1.000000  0.577350  0.000000 )
               b(2) = (  0.000000  1.154701  0.000000 )
               b(3) = (  0.000000  0.000000  1.265674 )

     PseudoPot. # 1 for Sm read from file:
     /home/cwx6513/pp.La/Sm.UPF
     MD5 check sum: 5079e8b144a06bfcdbc14fb02b96ab09
     Pseudo is Norm-conserving, Zval = 16.0
     Generated in analytical, separable form
     Using radial grid of 1259 points,  6 beta functions with:
                l(1) =   0
                l(2) =   0
                l(3) =   1
                l(4) =   1
                l(5) =   2
                l(6) =   3

     PseudoPot. # 2 for Dy read from file:
     /home/cwx6513/pp.La/Dy.UPF
     MD5 check sum: 9597327bec62616a94a14d07f3fd9936
     Pseudo is Norm-conserving, Zval = 20.0
     Generated in analytical, separable form
     Using radial grid of 1265 points,  6 beta functions with:
                l(1) =   0
                l(2) =   0
                l(3) =   1
                l(4) =   1
                l(5) =   2
                l(6) =   3

     atomic species   valence    mass     pseudopotential
        Mg            16.00    24.30500     Sm( 1.00)
        Cd            20.00   112.41100     Dy( 1.00)

     24 Sym. Ops., with inversion, found (12 have fractional translation)

   Cartesian axes

     site n.     atom                  positions (alat units)
         1           Mg  tau(   1) = (   0.2478935   0.7204716   0.1975233  )
         2           Mg  tau(   2) = (   0.7478935   0.1455538   0.5925699  )
         3           Mg  tau(   3) = (   0.2521065   0.1455538   0.5925699  )
         4           Mg  tau(   4) = (  -0.2478935   0.7204716   0.1975233  )
         5           Mg  tau(   5) = (   0.0000000   0.2911075   0.1975233  )
         6           Mg  tau(   6) = (   0.5000000   0.5749179   0.5925699  )
         7           Cd  tau(   7) = (   0.5000005   0.2886748   0.1975233  )
         8           Cd  tau(   8) = (  -0.0000005   0.5773506   0.5925699  )

     number of k points=    64  gaussian smearing, width (Ry)=  0.1000
                       cart. coord. in units 2pi/alat
        k(    1) = (   0.0000000   0.0000000   0.0000000), wk =   0.0095238
        k(    2) = (   0.0000000   0.0000000   0.1808105), wk =   0.0190476
        k(    3) = (   0.0000000   0.0000000   0.3616210), wk =   0.0190476
        k(    4) = (   0.0000000   0.0000000   0.5424315), wk =   0.0190476
        k(    5) = (   0.0000000   0.1924501   0.0000000), wk =   0.0190476
        k(    6) = (   0.0000000   0.1924501   0.1808105), wk =   0.0380952
        k(    7) = (   0.0000000   0.1924501   0.3616210), wk =   0.0380952
        k(    8) = (   0.0000000   0.1924501   0.5424315), wk =   0.0380952
        k(    9) = (   0.0000000   0.3849002   0.0000000), wk =   0.0190476
        k(   10) = (   0.0000000   0.3849002   0.1808105), wk =   0.0380952
        k(   11) = (   0.0000000   0.3849002   0.3616210), wk =   0.0380952
        k(   12) = (   0.0000000   0.3849002   0.5424315), wk =   0.0380952
        k(   13) = (   0.0000000  -0.5773503   0.0000000), wk =   0.0095238
        k(   14) = (   0.0000000  -0.5773503   0.1808105), wk =   0.0190476
        k(   15) = (   0.0000000  -0.5773503   0.3616210), wk =   0.0190476
        k(   16) = (   0.0000000  -0.5773503   0.5424315), wk =   0.0190476
        k(   17) = (   0.2000000   0.1154701   0.0000000), wk =   0.0190476
        k(   18) = (   0.2000000   0.1154701   0.1808105), wk =   0.0380952
        k(   19) = (   0.2000000   0.1154701   0.3616210), wk =   0.0380952
        k(   20) = (   0.2000000   0.1154701   0.5424315), wk =   0.0380952
        k(   21) = (   0.2000000   0.3079201   0.0000000), wk =   0.0190476
        k(   22) = (   0.2000000   0.3079201   0.1808105), wk =   0.0380952
        k(   23) = (   0.2000000   0.3079201   0.3616210), wk =   0.0380952
        k(   24) = (   0.2000000   0.3079201   0.5424315), wk =   0.0380952
        k(   25) = (   0.2000000   0.5003702   0.0000000), wk =   0.0190476
        k(   26) = (   0.2000000   0.5003702   0.1808105), wk =   0.0380952
        k(   27) = (   0.2000000   0.5003702   0.3616210), wk =   0.0380952
        k(   28) = (   0.2000000   0.5003702   0.5424315), wk =   0.0380952
        k(   29) = (   0.2000000  -0.4618802   0.0000000), wk =   0.0190476
        k(   30) = (   0.2000000  -0.4618802   0.1808105), wk =   0.0380952
        k(   31) = (   0.2000000  -0.4618802   0.3616210), wk =   0.0380952
        k(   32) = (   0.2000000  -0.4618802   0.5424315), wk =   0.0380952
        k(   33) = (   0.2000000  -0.2694301   0.0000000), wk =   0.0190476
        k(   34) = (   0.2000000  -0.2694301   0.1808105), wk =   0.0380952
        k(   35) = (   0.2000000  -0.2694301   0.3616210), wk =   0.0380952
        k(   36) = (   0.2000000  -0.2694301   0.5424315), wk =   0.0380952
        k(   37) = (   0.2000000  -0.0769800   0.0000000), wk =   0.0190476
        k(   38) = (   0.2000000  -0.0769800   0.1808105), wk =   0.0380952
        k(   39) = (   0.2000000  -0.0769800   0.3616210), wk =   0.0380952
        k(   40) = (   0.2000000  -0.0769800   0.5424315), wk =   0.0380952
        k(   41) = (   0.4000000   0.2309401   0.0000000), wk =   0.0190476
        k(   42) = (   0.4000000   0.2309401   0.1808105), wk =   0.0380952
        k(   43) = (   0.4000000   0.2309401   0.3616210), wk =   0.0380952
        k(   44) = (   0.4000000   0.2309401   0.5424315), wk =   0.0380952
        k(   45) = (   0.4000000   0.4233902   0.0000000), wk =   0.0190476
        k(   46) = (   0.4000000   0.4233902   0.1808105), wk =   0.0380952
        k(   47) = (   0.4000000   0.4233902   0.3616210), wk =   0.0380952
        k(   48) = (   0.4000000   0.4233902   0.5424315), wk =   0.0380952
        k(   49) = (   0.4000000   0.6158403   0.0000000), wk =   0.0190476
        k(   50) = (   0.4000000   0.6158403   0.1808105), wk =   0.0380952
        k(   51) = (   0.4000000   0.6158403   0.3616210), wk =   0.0380952
        k(   52) = (   0.4000000   0.6158403   0.5424315), wk =   0.0380952
        k(   53) = (   0.4000000  -0.3464102   0.0000000), wk =   0.0190476
        k(   54) = (   0.4000000  -0.3464102   0.1808105), wk =   0.0380952
        k(   55) = (   0.4000000  -0.3464102   0.3616210), wk =   0.0380952
        k(   56) = (   0.4000000  -0.3464102   0.5424315), wk =   0.0380952
        k(   57) = (   0.4000000  -0.1539601   0.0000000), wk =   0.0190476
        k(   58) = (   0.4000000  -0.1539601   0.1808105), wk =   0.0380952
        k(   59) = (   0.4000000  -0.1539601   0.3616210), wk =   0.0380952
        k(   60) = (   0.4000000  -0.1539601   0.5424315), wk =   0.0380952
        k(   61) = (   0.4000000   0.0384900   0.0000000), wk =   0.0190476
        k(   62) = (   0.4000000   0.0384900   0.1808105), wk =   0.0380952
        k(   63) = (   0.4000000   0.0384900   0.3616210), wk =   0.0380952
        k(   64) = (   0.4000000   0.0384900   0.5424315), wk =   0.0380952

     Largest allocated arrays     est. size (Mb)     dimensions
     Largest temporary arrays     est. size (Mb)     dimensions

     Initial potential from superposition of free atoms

     Starting from uniform charge
     Starting wfc are    0 randomized atomic wfcs

     Self-consistent Calculation

     iteration #  1     ecut=    40.00 Ry     beta=0.70
     CG style diagonalization
     c_bands:  2 eigenvalues not converged
     c_bands:  1 eigenvalues not converged
     c_bands:  3 eigenvalues not converged
     c_bands:  1 eigenvalues not converged
     c_bands:  1 eigenvalues not converged
     c_bands:  1 eigenvalues not converged
     c_bands:  1 eigenvalues not converged
     c_bands:  1 eigenvalues not converged
     c_bands:  1 eigenvalues not converged
     c_bands:  1 eigenvalues not converged
     c_bands:  1 eigenvalues not converged
     c_bands:  1 eigenvalues not converged
     c_bands:  1 eigenvalues not converged
     c_bands:  1 eigenvalues not converged
     c_bands:  4 eigenvalues not converged
     c_bands:  1 eigenvalues not converged
     c_bands:  1 eigenvalues not converged
     c_bands:  1 eigenvalues not converged
     c_bands:  2 eigenvalues not converged
     c_bands:  2 eigenvalues not converged
     c_bands:  1 eigenvalues not converged
     c_bands:  1 eigenvalues not converged
     c_bands:  1 eigenvalues not converged
     c_bands:  2 eigenvalues not converged
     c_bands:  1 eigenvalues not converged
     c_bands:  1 eigenvalues not converged
     c_bands:  5 eigenvalues not converged
     c_bands:  1 eigenvalues not converged
     c_bands:  1 eigenvalues not converged
     c_bands:  1 eigenvalues not converged
     c_bands:  1 eigenvalues not converged
     c_bands:  1 eigenvalues not converged
     c_bands:  1 eigenvalues not converged
     ethr =  1.00E-02,  avg # of iterations = 11.6

     total energy              =    -855.13501651 Ry
     Harris-Foulkes estimate   =   -1785.13729000 Ry
     estimated scf accuracy    <    1125.22877320 Ry

     iteration #  2     ecut=    40.00 Ry     beta=0.70
     CG style diagonalization
     ethr =  1.00E-02,  avg # of iterations = 17.0

[...]

     End of self-consistent calculation

          k = 0.0000 0.0000 0.0000 (  5047 PWs)   bands (ev):

   -60.8670 -60.8645 -36.2568 -36.1626 -36.1625 -36.1459 -36.1080 -36.1079
   -27.7724 -27.7665 -27.7368 -27.7368 -27.7312 -27.7312 -11.7377 -11.7078
   -11.5562 -11.4492 -11.4491 -11.4421 -11.4420 -11.4035 -11.4035 -11.2226
   -11.0736 -11.0735 -10.9632 -10.9632 -10.9460 -10.9364 -10.9364 -10.9293
[...]
        k(   11) = (   0.0000000   0.4031106   0.3711291), wk =   0.0380952
        k(   12) = (   0.0000000   0.4031106   0.5566937), wk =   0.0380952
        k(   13) = (   0.0000000  -0.6046659   0.0000000), wk =   0.0095238
        k(   14) = (   0.0000000  -0.6046659   0.1855646), wk =   0.0190476
        k(   15) = (   0.0000000  -0.6046659   0.3711291), wk =   0.0190476
        k(   16) = (   0.0000000  -0.6046659   0.5566937), wk =   0.0190476
        k(   17) = (   0.2094624   0.1209332   0.0000000), wk =   0.0190476
        k(   18) = (   0.2094624   0.1209332   0.1855646), wk =   0.0380952
        k(   19) = (   0.2094624   0.1209332   0.3711291), wk =   0.0380952
        k(   20) = (   0.2094624   0.1209332   0.5566937), wk =   0.0380952
        k(   21) = (   0.2094624   0.3224885   0.0000000), wk =   0.0190476
        k(   22) = (   0.2094624   0.3224885   0.1855646), wk =   0.0380952
        k(   23) = (   0.2094624   0.3224885   0.3711291), wk =   0.0380952
        k(   24) = (   0.2094624   0.3224885   0.5566937), wk =   0.0380952
        k(   25) = (   0.2094624   0.5240438   0.0000000), wk =   0.0190476
        k(   26) = (   0.2094624   0.5240438   0.1855646), wk =   0.0380952
        k(   27) = (   0.2094624   0.5240438   0.3711291), wk =   0.0380952
        k(   28) = (   0.2094624   0.5240438   0.5566937), wk =   0.0380952
        k(   29) = (   0.2094624  -0.4837327   0.0000000), wk =   0.0190476
        k(   30) = (   0.2094624  -0.4837327   0.1855646), wk =   0.0380952
        k(   31) = (   0.2094624  -0.4837327   0.3711291), wk =   0.0380952
        k(   32) = (   0.2094624  -0.4837327   0.5566937), wk =   0.0380952
        k(   33) = (   0.2094624  -0.2821774   0.0000000), wk =   0.0190476
        k(   34) = (   0.2094624  -0.2821774   0.1855646), wk =   0.0380952
        k(   35) = (   0.2094624  -0.2821774   0.3711291), wk =   0.0380952
        k(   36) = (   0.2094624  -0.2821774   0.5566937), wk =   0.0380952
        k(   37) = (   0.2094624  -0.0806221   0.0000000), wk =   0.0190476
        k(   38) = (   0.2094624  -0.0806221   0.1855646), wk =   0.0380952
        k(   39) = (   0.2094624  -0.0806221   0.3711291), wk =   0.0380952
        k(   40) = (   0.2094624  -0.0806221   0.5566937), wk =   0.0380952
        k(   41) = (   0.4189248   0.2418664   0.0000000), wk =   0.0190476
        k(   42) = (   0.4189248   0.2418664   0.1855646), wk =   0.0380952
        k(   43) = (   0.4189248   0.2418664   0.3711291), wk =   0.0380952
        k(   44) = (   0.4189248   0.2418664   0.5566937), wk =   0.0380952
        k(   45) = (   0.4189248   0.4434216   0.0000000), wk =   0.0190476
        k(   46) = (   0.4189248   0.4434216   0.1855646), wk =   0.0380952
        k(   47) = (   0.4189248   0.4434216   0.3711291), wk =   0.0380952
        k(   48) = (   0.4189248   0.4434216   0.5566937), wk =   0.0380952
        k(   49) = (   0.4189248   0.6449769   0.0000000), wk =   0.0190476
        k(   50) = (   0.4189248   0.6449769   0.1855646), wk =   0.0380952
        k(   51) = (   0.4189248   0.6449769   0.3711291), wk =   0.0380952
        k(   52) = (   0.4189248   0.6449769   0.5566937), wk =   0.0380952
        k(   53) = (   0.4189248  -0.3627995   0.0000000), wk =   0.0190476
        k(   54) = (   0.4189248  -0.3627995   0.1855646), wk =   0.0380952
        k(   55) = (   0.4189248  -0.3627995   0.3711291), wk =   0.0380952
        k(   56) = (   0.4189248  -0.3627995   0.5566937), wk =   0.0380952
        k(   57) = (   0.4189248  -0.1612442   0.0000000), wk =   0.0190476
        k(   58) = (   0.4189248  -0.1612442   0.1855646), wk =   0.0380952
        k(   59) = (   0.4189248  -0.1612442   0.3711291), wk =   0.0380952
        k(   60) = (   0.4189248  -0.1612442   0.5566937), wk =   0.0380952
        k(   61) = (   0.4189248   0.0403111   0.0000000), wk =   0.0190476
        k(   62) = (   0.4189248   0.0403111   0.1855646), wk =   0.0380952
        k(   63) = (   0.4189248   0.0403111   0.3711291), wk =   0.0380952
        k(   64) = (   0.4189248   0.0403111   0.5566937), wk =   0.0380952

[...]

     The maximum number of steps has been reached.

     End of BFGS Geometry Optimization
Begin final coordinates
     new unit-cell volume =   1054.75594 a.u.^3 (   156.29870 Ang^3 )

CELL_PARAMETERS (alat= 12.01680127)
   0.954825279   0.000000000   0.000000000
  -0.477412639   0.826902947   0.000000000
   0.000000000   0.000000000   0.769851386

ATOMIC_POSITIONS (crystal)
Mg       0.669402820   0.834701410   0.250000000
Mg       0.834701410   0.165298590   0.750000000
Mg       0.330597180   0.165298590   0.750000000
Mg       0.165298590   0.834701410   0.250000000
Mg       0.165298590   0.330597180   0.250000000
Mg       0.834701410   0.669402820   0.750000000
Cd       0.666667000   0.333333000   0.250000000
Cd       0.333333000   0.666667000   0.750000000
End final coordinates

     A final scf calculation at the relaxed structure.
     The G-vectors are recalculated for the final unit cell
     Results may differ from those at the preceding step.

     bravais-lattice index     =            0
     lattice parameter (alat)  =      12.0168  a.u.
     unit-cell volume          =    1054.7559 (a.u.)^3
     number of atoms/cell      =            8
     number of atomic types    =            2
     number of electrons       =       136.00
     number of Kohn-Sham states=           82
     kinetic-energy cutoff     =      40.0000  Ry
     charge density cutoff     =     160.0000  Ry
     convergence threshold     =      1.6E-05
     mixing beta               =       0.7000
     number of iterations used =            8  plain     mixing
     Exchange-correlation      = SLA-PZ-NOGX-NOGC ( 1 1 0 0 0)
     EXX-fraction              =        0.00

     celldm(1)=  12.016801  celldm(2)=   0.000000  celldm(3)=   0.000000
     celldm(4)=   0.000000  celldm(5)=   0.000000  celldm(6)=   0.000000

     crystal axes: (cart. coord. in units of alat)
               a(1) = (   0.954825   0.000000   0.000000 )
               a(2) = (  -0.477413   0.826903   0.000000 )
               a(3) = (   0.000000   0.000000   0.769851 )

     reciprocal axes: (cart. coord. in units 2 pi/alat)
               b(1) = (  1.047312  0.604666  0.000000 )
               b(2) = (  0.000000  1.209332  0.000000 )
               b(3) = (  0.000000  0.000000  1.298952 )

     PseudoPot. # 1 for Sm read from file:
     /home/cwx6513/pp.La/Sm.UPF
     MD5 check sum: 5079e8b144a06bfcdbc14fb02b96ab09
     Pseudo is Norm-conserving, Zval = 16.0
     Generated in analytical, separable form
     Using radial grid of 1259 points,  6 beta functions with:
                l(1) =   0
                l(2) =   0
                l(3) =   1
                l(4) =   1
                l(5) =   2
                l(6) =   3

     PseudoPot. # 2 for Dy read from file:
     /home/cwx6513/pp.La/Dy.UPF
     MD5 check sum: 9597327bec62616a94a14d07f3fd9936
     Pseudo is Norm-conserving, Zval = 20.0
     Generated in analytical, separable form
     Using radial grid of 1265 points,  6 beta functions with:
                l(1) =   0
                l(2) =   0
                l(3) =   1
                l(4) =   1
                l(5) =   2
                l(6) =   3

     atomic species   valence    mass     pseudopotential
        Mg            16.00    24.30500     Sm( 1.00)
        Cd            20.00   112.41100     Dy( 1.00)

     24 Sym. Ops., with inversion, found (12 have fractional translation)

   Cartesian axes

     site n.     atom                  positions (alat units)
         1           Mg  tau(   1) = (   0.2406657   0.6902171   0.1924628  )
         2           Mg  tau(   2) = (   0.7180784   0.1366859   0.5773885  )
         3           Mg  tau(   3) = (   0.2367469   0.1366859   0.5773885  )
         4           Mg  tau(   4) = (  -0.2406657   0.6902171   0.1924628  )
         5           Mg  tau(   5) = (   0.0000000   0.2733718   0.1924628  )
         6           Mg  tau(   6) = (   0.4774126   0.5535312   0.5773885  )
         7           Cd  tau(   7) = (   0.4774131   0.2756340   0.1924628  )
         8           Cd  tau(   8) = (  -0.0000005   0.5512689   0.5773885  )

     number of k points=    64  gaussian smearing, width (Ry)=  0.1000
                       cart. coord. in units 2pi/alat
        k(    1) = (   0.0000000   0.0000000   0.0000000), wk =   0.0095238
        k(    2) = (   0.0000000   0.0000000   0.1855646), wk =   0.0190476
        k(    3) = (   0.0000000   0.0000000   0.3711291), wk =   0.0190476
        k(    4) = (   0.0000000   0.0000000   0.5566937), wk =   0.0190476
        k(    5) = (   0.0000000   0.2015553   0.0000000), wk =   0.0190476
        k(    6) = (   0.0000000   0.2015553   0.1855646), wk =   0.0380952
        k(    7) = (   0.0000000   0.2015553   0.3711291), wk =   0.0380952
        k(    8) = (   0.0000000   0.2015553   0.5566937), wk =   0.0380952
        k(    9) = (   0.0000000   0.4031106   0.0000000), wk =   0.0190476
        k(   10) = (   0.0000000   0.4031106   0.1855646), wk =   0.0380952
        k(   11) = (   0.0000000   0.4031106   0.3711291), wk =   0.0380952
        k(   12) = (   0.0000000   0.4031106   0.5566937), wk =   0.0380952
        k(   13) = (   0.0000000  -0.6046659   0.0000000), wk =   0.0095238
        k(   14) = (   0.0000000  -0.6046659   0.1855646), wk =   0.0190476
        k(   15) = (   0.0000000  -0.6046659   0.3711291), wk =   0.0190476
        k(   16) = (   0.0000000  -0.6046659   0.5566937), wk =   0.0190476
        k(   17) = (   0.2094624   0.1209332   0.0000000), wk =   0.0190476
        k(   18) = (   0.2094624   0.1209332   0.1855646), wk =   0.0380952
        k(   19) = (   0.2094624   0.1209332   0.3711291), wk =   0.0380952
        k(   20) = (   0.2094624   0.1209332   0.5566937), wk =   0.0380952
        k(   21) = (   0.2094624   0.3224885   0.0000000), wk =   0.0190476
        k(   22) = (   0.2094624   0.3224885   0.1855646), wk =   0.0380952
        k(   23) = (   0.2094624   0.3224885   0.3711291), wk =   0.0380952
        k(   24) = (   0.2094624   0.3224885   0.5566937), wk =   0.0380952
        k(   25) = (   0.2094624   0.5240438   0.0000000), wk =   0.0190476
        k(   26) = (   0.2094624   0.5240438   0.1855646), wk =   0.0380952
        k(   27) = (   0.2094624   0.5240438   0.3711291), wk =   0.0380952
        k(   28) = (   0.2094624   0.5240438   0.5566937), wk =   0.0380952
        k(   29) = (   0.2094624  -0.4837327   0.0000000), wk =   0.0190476
        k(   30) = (   0.2094624  -0.4837327   0.1855646), wk =   0.0380952
        k(   31) = (   0.2094624  -0.4837327   0.3711291), wk =   0.0380952
        k(   32) = (   0.2094624  -0.4837327   0.5566937), wk =   0.0380952
        k(   33) = (   0.2094624  -0.2821774   0.0000000), wk =   0.0190476
        k(   34) = (   0.2094624  -0.2821774   0.1855646), wk =   0.0380952
        k(   35) = (   0.2094624  -0.2821774   0.3711291), wk =   0.0380952
        k(   36) = (   0.2094624  -0.2821774   0.5566937), wk =   0.0380952
        k(   37) = (   0.2094624  -0.0806221   0.0000000), wk =   0.0190476
        k(   38) = (   0.2094624  -0.0806221   0.1855646), wk =   0.0380952
        k(   39) = (   0.2094624  -0.0806221   0.3711291), wk =   0.0380952
        k(   40) = (   0.2094624  -0.0806221   0.5566937), wk =   0.0380952
        k(   41) = (   0.4189248   0.2418664   0.0000000), wk =   0.0190476
        k(   42) = (   0.4189248   0.2418664   0.1855646), wk =   0.0380952
        k(   43) = (   0.4189248   0.2418664   0.3711291), wk =   0.0380952
        k(   44) = (   0.4189248   0.2418664   0.5566937), wk =   0.0380952
        k(   45) = (   0.4189248   0.4434216   0.0000000), wk =   0.0190476
        k(   46) = (   0.4189248   0.4434216   0.1855646), wk =   0.0380952
        k(   47) = (   0.4189248   0.4434216   0.3711291), wk =   0.0380952
        k(   48) = (   0.4189248   0.4434216   0.5566937), wk =   0.0380952
        k(   49) = (   0.4189248   0.6449769   0.0000000), wk =   0.0190476
        k(   50) = (   0.4189248   0.6449769   0.1855646), wk =   0.0380952
        k(   51) = (   0.4189248   0.6449769   0.3711291), wk =   0.0380952
        k(   52) = (   0.4189248   0.6449769   0.5566937), wk =   0.0380952
        k(   53) = (   0.4189248  -0.3627995   0.0000000), wk =   0.0190476
        k(   54) = (   0.4189248  -0.3627995   0.1855646), wk =   0.0380952
        k(   55) = (   0.4189248  -0.3627995   0.3711291), wk =   0.0380952
        k(   56) = (   0.4189248  -0.3627995   0.5566937), wk =   0.0380952
        k(   57) = (   0.4189248  -0.1612442   0.0000000), wk =   0.0190476
        k(   58) = (   0.4189248  -0.1612442   0.1855646), wk =   0.0380952
        k(   59) = (   0.4189248  -0.1612442   0.3711291), wk =   0.0380952
        k(   60) = (   0.4189248  -0.1612442   0.5566937), wk =   0.0380952
        k(   61) = (   0.4189248   0.0403111   0.0000000), wk =   0.0190476
        k(   62) = (   0.4189248   0.0403111   0.1855646), wk =   0.0380952
        k(   63) = (   0.4189248   0.0403111   0.3711291), wk =   0.0380952
        k(   64) = (   0.4189248   0.0403111   0.5566937), wk =   0.0380952

     Largest allocated arrays     est. size (Mb)     dimensions
     Largest temporary arrays     est. size (Mb)     dimensions

     Initial potential from superposition of free atoms

     Starting from uniform charge
     Starting wfc are    0 randomized atomic wfcs

     Writing output data file Prototype-La-hP8-Mg3Cd.save

     Self-consistent Calculation

[...]

     iteration #  9     ecut=    40.00 Ry     beta=0.70
     CG style diagonalization
     c_bands:  1 eigenvalues not converged
     ethr =  8.72E-07,  avg # of iterations =  3.5

[...]

     total energy              =   -1430.76680991 Ry
     Harris-Foulkes estimate   =   -1430.76682128 Ry
     estimated scf accuracy    <       0.00002575 Ry

     iteration # 11     ecut=    40.00 Ry     beta=0.70
     CG style diagonalization
     ethr =  1.89E-08,  avg # of iterations =  3.5

     End of self-consistent calculation

[...]

          k = 0.4189 0.0403 0.5567 (  4500 PWs)   bands (ev):

   -57.9010 -57.8986 -32.9976 -32.9617 -32.9229 -32.9055 -32.8885 -32.8757
   -24.8099 -24.8072 -24.8047 -24.8027 -24.7949 -24.7937  -8.6489  -8.6330
    -8.5867  -8.5623  -8.4784  -8.4476  -8.1724  -8.0790  -8.0079  -7.9880
    -7.9149  -7.8573  -7.8026  -7.7835  -7.7623  -7.7101  -7.6696  -7.6607
    15.7538  15.8143  15.8696  15.8940  16.0031  16.0268  16.1366  16.1724
    16.2709  16.3428  17.8525  17.9282  19.2002  19.5341  19.6492  19.6977
    20.1556  20.3478  20.5178  20.5974  20.7539  20.8237  21.2227  21.2632
    21.7034  21.8090  21.8774  22.0547  22.6454  22.7165  22.7375  23.4271
    23.6970  23.9914  24.3588  24.3786  24.5322  24.8384  24.9331  25.3161
    25.6044  25.8811  26.2261  26.3903  26.8633  27.2421  29.3268  29.5606
    31.7342  31.9852

     the Fermi energy is    24.5262 ev

!    total energy              =   -1430.76681304 Ry
     Harris-Foulkes estimate   =   -1430.76681464 Ry
     estimated scf accuracy    <       0.00000176 Ry

     The total energy is the sum of the following terms:

     one-electron contribution =    -137.88365619 Ry
     hartree contribution      =     172.74480397 Ry
     xc contribution           =    -146.27372159 Ry
     ewald contribution        =   -1318.82510487 Ry
     smearing contrib. (-TS)   =      -0.52913437 Ry

     convergence has been achieved in  11 iterations

     Forces acting on atoms (Ry/au):

     atom    1 type  1   force =     0.00599640    0.00346203    0.00000000
     atom    2 type  1   force =     0.00599640   -0.00346203    0.00000000
     atom    3 type  1   force =    -0.00599640   -0.00346203    0.00000000
     atom    4 type  1   force =    -0.00599640    0.00346203    0.00000000
     atom    5 type  1   force =     0.00000000   -0.00692405    0.00000000
     atom    6 type  1   force =     0.00000000    0.00692405    0.00000000
     atom    7 type  2   force =     0.00000000    0.00000000    0.00000000
     atom    8 type  2   force =     0.00000000    0.00000000    0.00000000

     Total force =     0.016960     Total SCF correction =     0.000000

     entering subroutine stress ...

          total   stress  (Ry/bohr**3)                   (kbar)     P=  -30.66
  -0.00027203   0.00000000   0.00000000        -40.02      0.00      0.00
   0.00000000  -0.00027203   0.00000000          0.00    -40.02      0.00
   0.00000000   0.00000000  -0.00008125          0.00      0.00    -11.95

     Writing output data file Prototype-La-hP8-Mg3Cd.save

     General routines

     Parallel routines

   This run was terminated on:  19:22:39  22Mar2018

   JOB DONE.