     Program PWSCF v.5.0.2 starts on 22Mar2018 at 18:43:45

     Current dimensions of program PWSCF are:
     Max number of different atomic species (ntypx) = 10
     Max number of k-points (npk) =  40000
     Max angular momentum in pseudopotentials (lmaxx) =  3
     Waiting for input...
     Reading input from standard input

     Subspace diagonalization in iterative solution of the eigenvalue problem:
     a serial algorithm will be used

     bravais-lattice index     =            0
     lattice parameter (alat)  =       9.9235  a.u.
     unit-cell volume          =    1361.0366 (a.u.)^3
     number of atoms/cell      =           12
     number of atomic types    =            2
     number of electrons       =       200.00
     number of Kohn-Sham states=          120
     kinetic-energy cutoff     =      40.0000  Ry
     charge density cutoff     =     160.0000  Ry
     convergence threshold     =      1.0E-04
     mixing beta               =       0.7000
     number of iterations used =            8  plain     mixing
     Exchange-correlation      = SLA-PZ-NOGX-NOGC ( 1 1 0 0 0)
     EXX-fraction              =        0.00
     nstep                     =           50

     celldm(1)=   9.923489  celldm(2)=   0.000000  celldm(3)=   0.000000
     celldm(4)=   0.000000  celldm(5)=   0.000000  celldm(6)=   0.000000

     crystal axes: (cart. coord. in units of alat)
               a(1) = (   1.000000   0.000000   0.000000 )
               a(2) = (  -0.500000   0.866025   0.000000 )
               a(3) = (   0.000000   0.000000   1.608222 )

     reciprocal axes: (cart. coord. in units 2 pi/alat)
               b(1) = (  1.000000  0.577350  0.000000 )
               b(2) = (  0.000000  1.154701  0.000000 )
               b(3) = (  0.000000  0.000000  0.621805 )

     PseudoPot. # 1 for Sm read from file:
     /home/cwx6513/pp.La/Sm.UPF
     MD5 check sum: 5079e8b144a06bfcdbc14fb02b96ab09
     Pseudo is Norm-conserving, Zval = 16.0
     Generated in analytical, separable form
     Using radial grid of 1259 points,  6 beta functions with:
                l(1) =   0
                l(2) =   0
                l(3) =   1
                l(4) =   1
                l(5) =   2
                l(6) =   3

     PseudoPot. # 2 for Eu read from file:
     /home/cwx6513/pp.La/Eu.UPF
     MD5 check sum: 5efdbbfc50c6a10138933a6429836ad2
     Pseudo is Norm-conserving, Zval = 17.0
     Generated in analytical, separable form
     Using radial grid of 1261 points,  6 beta functions with:
                l(1) =   0
                l(2) =   0
                l(3) =   1
                l(4) =   1
                l(5) =   2
                l(6) =   3

     atomic species   valence    mass     pseudopotential
        Mg            16.00    24.30500     Sm( 1.00)
        Zn            17.00    65.39000     Eu( 1.00)

     24 Sym. Ops., with inversion, found (12 have fractional translation)

   Cartesian axes

     site n.     atom                  positions (alat units)
         1           Mg  tau(   1) = (  -0.0000005   0.5773506   0.1003820  )
         2           Mg  tau(   2) = (   0.5000005   0.2886748   0.9044931  )
         3           Mg  tau(   3) = (   0.5000005   0.2886748   1.5078402  )
         4           Mg  tau(   4) = (  -0.0000005   0.5773506   0.7037291  )
         5           Zn  tau(   5) = (   0.0000000   0.0000000   0.0000000  )
         6           Zn  tau(   6) = (   0.0000000   0.0000000   0.8041111  )
         7           Zn  tau(   7) = (   0.0000000   0.2950739   1.2061667  )
         8           Zn  tau(   8) = (   0.7444585   0.1475370   0.4020556  )
         9           Zn  tau(   9) = (   0.2555415   0.1475370   0.4020556  )
        10           Zn  tau(  10) = (   0.2444585   0.7184884   1.2061667  )
        11           Zn  tau(  11) = (  -0.2444585   0.7184884   1.2061667  )
        12           Zn  tau(  12) = (   0.5000000   0.5709515   0.4020556  )

     number of k points=    12  gaussian smearing, width (Ry)=  0.1000
                       cart. coord. in units 2pi/alat
        k(    1) = (   0.0000000   0.0000000   0.0000000), wk =   0.0833333
        k(    2) = (   0.0000000   0.0000000   0.1554512), wk =   0.1666667
        k(    3) = (   0.0000000   0.0000000  -0.3109023), wk =   0.0833333
        k(    4) = (   0.0000000   0.3849002   0.0000000), wk =   0.1666667
        k(    5) = (   0.0000000   0.3849002   0.1554512), wk =   0.3333333
        k(    6) = (   0.0000000   0.3849002  -0.3109023), wk =   0.1666667
        k(    7) = (  -0.5000000  -0.2886751   0.0000000), wk =   0.0833333
        k(    8) = (  -0.5000000  -0.2886751   0.1554512), wk =   0.1666667
        k(    9) = (  -0.5000000  -0.2886751  -0.3109023), wk =   0.0833333
        k(   10) = (  -0.5000000   0.0962250   0.0000000), wk =   0.1666667
        k(   11) = (  -0.5000000   0.0962250   0.1554512), wk =   0.3333333
        k(   12) = (  -0.5000000   0.0962250  -0.3109023), wk =   0.1666667

     Largest allocated arrays     est. size (Mb)     dimensions
     Largest temporary arrays     est. size (Mb)     dimensions

     Initial potential from superposition of free atoms

     Starting from uniform charge
     Starting wfc are    0 randomized atomic wfcs

     Self-consistent Calculation

     iteration #  1     ecut=    40.00 Ry     beta=0.70
     CG style diagonalization
     ethr =  1.00E-02,  avg # of iterations = 17.2

     total energy              =   -1715.94079047 Ry
     Harris-Foulkes estimate   =   -2353.15874342 Ry
     estimated scf accuracy    <     799.42236689 Ry

[...]

     iteration #  6     ecut=    40.00 Ry     beta=0.70
     CG style diagonalization
     c_bands:  1 eigenvalues not converged
     c_bands:  1 eigenvalues not converged
     ethr =  1.10E-03,  avg # of iterations =  3.7

[...]

     End of self-consistent calculation

          k = 0.0000 0.0000 0.0000 (  5769 PWs)   bands (ev):

   -35.2559 -35.0760 -34.8826 -34.6898 -34.6074 -34.6073 -34.6059 -34.6059
   -28.7209 -28.7011 -28.6639 -28.6397 -10.2045  -9.7259  -9.2051  -8.4860
    -8.4860  -8.3603  -8.3603  -8.2950  -8.2950  -7.8649  -7.6064  -7.5194
    -7.5194  -7.4696  -7.4695  -6.7730  -6.7267  -6.7266  -6.6716  -6.6633
    -6.5698  -6.5698  -6.4973  -6.4973  -4.0052  -3.9922  -3.9816  -3.9815
    -3.9600  -3.9599  -3.7239  -3.6686  -3.6686  -3.6575  -3.6575  -3.6475
    18.5510  19.3866  19.5043  20.6263  20.6263  20.7901  21.2447  21.2447
    21.3047  21.3184  21.3184  21.6678  21.8837  21.8837  22.3190  22.3720
    22.3720  22.9829  23.3884  23.3884  23.6835  23.6835  24.0903  24.8613
    24.8613  25.3946  25.3947  25.4719  25.4757  25.4757  25.7126  25.7126
    25.9823  25.9824  26.1079  26.1632  26.1632  26.5323  26.5525  26.5526
    27.0267  27.0267  27.0678  27.2780  27.4279  27.7487  27.7487  28.2616
    28.9361  28.9361  29.2010  29.2010  29.8232  29.8232  29.9606  30.2550
    30.2551  30.6364  30.6364  30.9073  30.9073  32.4568  32.4705  32.8636
    33.1181  33.9368  34.5391  34.5391  35.2167  35.7630  35.7630  36.2024

[...]

          k =-0.5000-0.2887 0.0000 (  5800 PWs)   bands (ev):

[...]

     the Fermi energy is    28.9309 ev

!    total energy              =   -2006.51099760 Ry
     Harris-Foulkes estimate   =   -2006.51104774 Ry
     estimated scf accuracy    <       0.00005396 Ry

     The total energy is the sum of the following terms:

     one-electron contribution =     -29.55459421 Ry
     hartree contribution      =     202.98845750 Ry
     xc contribution           =    -214.09085184 Ry
     ewald contribution        =   -1965.11974325 Ry
     smearing contrib. (-TS)   =      -0.73426581 Ry

     convergence has been achieved in  12 iterations

     Forces acting on atoms (Ry/au):

     atom    1 type  1   force =     0.00000000    0.00000000    0.01871157
     atom    2 type  1   force =     0.00000000    0.00000000    0.01871157
     atom    3 type  1   force =     0.00000000    0.00000000   -0.01871157
     atom    4 type  1   force =     0.00000000    0.00000000   -0.01871157
     atom    5 type  2   force =     0.00000000    0.00000000    0.00000000
     atom    6 type  2   force =     0.00000000    0.00000000    0.00000000
     atom    7 type  2   force =     0.00000000    0.03826687    0.00000000
     atom    8 type  2   force =    -0.03314008    0.01913343    0.00000000
     atom    9 type  2   force =     0.03314008    0.01913343    0.00000000
     atom   10 type  2   force =    -0.03314008   -0.01913343    0.00000000
     atom   11 type  2   force =     0.03314008   -0.01913343    0.00000000
     atom   12 type  2   force =     0.00000000   -0.03826687    0.00000000

     Total force =     0.100929     Total SCF correction =     0.000000

     entering subroutine stress ...

          total   stress  (Ry/bohr**3)                   (kbar)     P=  529.13
   0.00357325   0.00000000   0.00000000        525.64      0.00      0.00
   0.00000000   0.00357325   0.00000000          0.00    525.64      0.00
   0.00000000   0.00000000   0.00364428          0.00      0.00    536.09

     BFGS Geometry Optimization

     number of scf cycles    =   1
     number of bfgs steps    =   0

     enthalpy new            =   -2006.5109976036 Ry

     new trust radius        =       0.5000000000 bohr
     new conv_thr            =       0.0001000000 Ry

     new unit-cell volume =   1652.80552 a.u.^3 (   244.92051 Ang^3 )

CELL_PARAMETERS (alat=  9.92348860)
   1.066444208   0.000000000   0.000000000
  -0.533222104   0.923567775   0.000000000
   0.000000000   0.000000000   1.717203317

ATOMIC_POSITIONS (crystal)
Mg       0.333333000   0.666667000   0.063290074
Mg       0.666667000   0.333333000   0.563290074
Mg       0.666667000   0.333333000   0.936709926
Mg       0.333333000   0.666667000   0.436709926
Zn       0.000000000   0.000000000   0.000000000
Zn       0.000000000   0.000000000   0.500000000
Zn       0.172016966   0.344033933   0.750000000
Zn       0.827983034   0.172016966   0.250000000
Zn       0.344033933   0.172016966   0.250000000
Zn       0.655966067   0.827983034   0.750000000
Zn       0.172016966   0.827983034   0.750000000
Zn       0.827983034   0.655966067   0.250000000

     Writing output data file Prototype-La-hP12-MgZn2.save
     NEW-OLD atomic charge density approx. for the potential
     NEW k-points:
        k(    1) = (   0.0000000   0.0000000   0.0000000), wk =   0.0833333
        k(    2) = (   0.0000000   0.0000000   0.1455856), wk =   0.1666667
        k(    3) = (   0.0000000   0.0000000  -0.2911711), wk =   0.0833333
        k(    4) = (   0.0000000   0.3609192   0.0000000), wk =   0.1666667
        k(    5) = (   0.0000000   0.3609192   0.1455856), wk =   0.3333333
        k(    6) = (   0.0000000   0.3609192  -0.2911711), wk =   0.1666667
        k(    7) = (  -0.4688478  -0.2706894   0.0000000), wk =   0.0833333
        k(    8) = (  -0.4688478  -0.2706894   0.1455856), wk =   0.1666667
        k(    9) = (  -0.4688478  -0.2706894  -0.2911711), wk =   0.0833333
        k(   10) = (  -0.4688478   0.0902298   0.0000000), wk =   0.1666667
        k(   11) = (  -0.4688478   0.0902298   0.1455856), wk =   0.3333333
        k(   12) = (  -0.4688478   0.0902298  -0.2911711), wk =   0.1666667

[...]

     enthalpy old            =   -2006.5109976036 Ry
     enthalpy new            =   -2006.4793188082 Ry

     CASE: enthalpy_new > enthalpy_old

     new trust radius        =       0.2500119276 bohr

     trust_radius < trust_radius_min

     resetting bfgs history

     new conv_thr            =       0.0001000000 Ry

[...]

     number of scf cycles    =   3
     number of bfgs steps    =   1

     enthalpy old            =   -2006.5109976036 Ry
     enthalpy new            =   -2006.5082065949 Ry

     CASE: enthalpy_new > enthalpy_old

     new trust radius        =       0.2489991671 bohr

     trust_radius < trust_radius_min

     resetting bfgs history

     Message from routine bfgs:
     history already reset at previous step: stopping
     new conv_thr            =       0.0001000000 Ry

     new unit-cell volume =   1642.96442 a.u.^3 (   243.46221 Ang^3 )

[...]

ATOMIC_POSITIONS (crystal)
Mg       0.333333000   0.666667000   0.063209659
Mg       0.666667000   0.333333000   0.563209659
Mg       0.666667000   0.333333000   0.936790341
Mg       0.333333000   0.666667000   0.436790341
Zn       0.000000000   0.000000000   0.000000000
Zn       0.000000000   0.000000000   0.500000000
Zn       0.171868336   0.343736671   0.750000000
Zn       0.828131664   0.171868336   0.250000000
Zn       0.343736671   0.171868336   0.250000000
Zn       0.656263329   0.828131664   0.750000000
Zn       0.171868336   0.828131664   0.750000000
Zn       0.828131664   0.656263329   0.250000000

     Writing output data file Prototype-La-hP12-MgZn2.save
     NEW-OLD atomic charge density approx. for the potential
     NEW k-points:
        k(    1) = (   0.0000000   0.0000000   0.0000000), wk =   0.0833333
        k(    2) = (   0.0000000   0.0000000   0.1458632), wk =   0.1666667
        k(    3) = (   0.0000000   0.0000000  -0.2917263), wk =   0.0833333
        k(    4) = (   0.0000000   0.3616539   0.0000000), wk =   0.1666667
        k(    5) = (   0.0000000   0.3616539   0.1458632), wk =   0.3333333
        k(    6) = (   0.0000000   0.3616539  -0.2917263), wk =   0.1666667
        k(    7) = (  -0.4698022  -0.2712404   0.0000000), wk =   0.0833333
        k(    8) = (  -0.4698022  -0.2712404   0.1458632), wk =   0.1666667
        k(    9) = (  -0.4698022  -0.2712404  -0.2917263), wk =   0.0833333
        k(   10) = (  -0.4698022   0.0904135   0.0000000), wk =   0.1666667
        k(   11) = (  -0.4698022   0.0904135   0.1458632), wk =   0.3333333
        k(   12) = (  -0.4698022   0.0904135  -0.2917263), wk =   0.1666667

[...]

     The maximum number of steps has been reached.

     End of BFGS Geometry Optimization
Begin final coordinates
     new unit-cell volume =   1642.96442 a.u.^3 (   243.46221 Ang^3 )

CELL_PARAMETERS (alat=  9.92348860)
   1.064277781   0.000000000   0.000000000
  -0.532138891   0.921691595   0.000000000
   0.000000000   0.000000000   1.713935250

ATOMIC_POSITIONS (crystal)
Mg       0.333333000   0.666667000   0.063209659
Mg       0.666667000   0.333333000   0.563209659
Mg       0.666667000   0.333333000   0.936790341
Mg       0.333333000   0.666667000   0.436790341
Zn       0.000000000   0.000000000   0.000000000
Zn       0.000000000   0.000000000   0.500000000
Zn       0.171868336   0.343736671   0.750000000
Zn       0.828131664   0.171868336   0.250000000
Zn       0.343736671   0.171868336   0.250000000
Zn       0.656263329   0.828131664   0.750000000
Zn       0.171868336   0.828131664   0.750000000
Zn       0.828131664   0.656263329   0.250000000
End final coordinates

     A final scf calculation at the relaxed structure.
     The G-vectors are recalculated for the final unit cell
     Results may differ from those at the preceding step.

     bravais-lattice index     =            0
     lattice parameter (alat)  =       9.9235  a.u.
     unit-cell volume          =    1642.9644 (a.u.)^3
     number of atoms/cell      =           12
     number of atomic types    =            2
     number of electrons       =       200.00
     number of Kohn-Sham states=          120
     kinetic-energy cutoff     =      40.0000  Ry
     charge density cutoff     =     160.0000  Ry
     convergence threshold     =      1.0E-04
     mixing beta               =       0.7000
     number of iterations used =            8  plain     mixing
     Exchange-correlation      = SLA-PZ-NOGX-NOGC ( 1 1 0 0 0)
     EXX-fraction              =        0.00

     celldm(1)=   9.923489  celldm(2)=   0.000000  celldm(3)=   0.000000
     celldm(4)=   0.000000  celldm(5)=   0.000000  celldm(6)=   0.000000

     crystal axes: (cart. coord. in units of alat)
               a(1) = (   1.064278   0.000000   0.000000 )
               a(2) = (  -0.532139   0.921692   0.000000 )
               a(3) = (   0.000000   0.000000   1.713935 )

     reciprocal axes: (cart. coord. in units 2 pi/alat)
               b(1) = (  0.939604  0.542481  0.000000 )
               b(2) = (  0.000000  1.084962  0.000000 )
               b(3) = (  0.000000  0.000000  0.583453 )

     PseudoPot. # 1 for Sm read from file:
     /home/cwx6513/pp.La/Sm.UPF
     MD5 check sum: 5079e8b144a06bfcdbc14fb02b96ab09
     Pseudo is Norm-conserving, Zval = 16.0
     Generated in analytical, separable form
     Using radial grid of 1259 points,  6 beta functions with:
                l(1) =   0
                l(2) =   0
                l(3) =   1
                l(4) =   1
                l(5) =   2
                l(6) =   3

     PseudoPot. # 2 for Eu read from file:
     /home/cwx6513/pp.La/Eu.UPF
     MD5 check sum: 5efdbbfc50c6a10138933a6429836ad2
     Pseudo is Norm-conserving, Zval = 17.0
     Generated in analytical, separable form
     Using radial grid of 1261 points,  6 beta functions with:
                l(1) =   0
                l(2) =   0
                l(3) =   1
                l(4) =   1
                l(5) =   2
                l(6) =   3

     atomic species   valence    mass     pseudopotential
        Mg            16.00    24.30500     Sm( 1.00)
        Zn            17.00    65.39000     Eu( 1.00)

     24 Sym. Ops., with inversion, found (12 have fractional translation)

   Cartesian axes

     site n.     atom                  positions (alat units)
         1           Mg  tau(   1) = (  -0.0000005   0.6144614   0.1083373  )
         2           Mg  tau(   2) = (   0.5321394   0.3072302   0.9653049  )
         3           Mg  tau(   3) = (   0.5321394   0.3072302   1.6055980  )
         4           Mg  tau(   4) = (  -0.0000005   0.6144614   0.7486304  )
         5           Zn  tau(   5) = (   0.0000000   0.0000000   0.0000000  )
         6           Zn  tau(   6) = (   0.0000000   0.0000000   0.8569676  )
         7           Zn  tau(   7) = (   0.0000000   0.3168192   1.2854514  )
         8           Zn  tau(   8) = (   0.7899043   0.1584096   0.4284838  )
         9           Zn  tau(   9) = (   0.2743735   0.1584096   0.4284838  )
        10           Zn  tau(  10) = (   0.2577654   0.7632820   1.2854514  )
        11           Zn  tau(  11) = (  -0.2577654   0.7632820   1.2854514  )
        12           Zn  tau(  12) = (   0.5321389   0.6048724   0.4284838  )

     number of k points=    12  gaussian smearing, width (Ry)=  0.1000
                       cart. coord. in units 2pi/alat
        k(    1) = (   0.0000000   0.0000000   0.0000000), wk =   0.0833333
        k(    2) = (   0.0000000   0.0000000   0.1458632), wk =   0.1666667
        k(    3) = (   0.0000000   0.0000000  -0.2917263), wk =   0.0833333
        k(    4) = (   0.0000000   0.3616539   0.0000000), wk =   0.1666667
        k(    5) = (   0.0000000   0.3616539   0.1458632), wk =   0.3333333
        k(    6) = (   0.0000000   0.3616539  -0.2917263), wk =   0.1666667
        k(    7) = (  -0.4698022  -0.2712404   0.0000000), wk =   0.0833333
        k(    8) = (  -0.4698022  -0.2712404   0.1458632), wk =   0.1666667
        k(    9) = (  -0.4698022  -0.2712404  -0.2917263), wk =   0.0833333
        k(   10) = (  -0.4698022   0.0904135   0.0000000), wk =   0.1666667
        k(   11) = (  -0.4698022   0.0904135   0.1458632), wk =   0.3333333
        k(   12) = (  -0.4698022   0.0904135  -0.2917263), wk =   0.1666667

     Largest allocated arrays     est. size (Mb)     dimensions
     Largest temporary arrays     est. size (Mb)     dimensions

     Initial potential from superposition of free atoms

     Starting from uniform charge
     Starting wfc are    0 randomized atomic wfcs

     Writing output data file Prototype-La-hP12-MgZn2.save

     Self-consistent Calculation

[...]

     iteration # 12     ecut=    40.00 Ry     beta=0.70
     CG style diagonalization
     c_bands:  1 eigenvalues not converged
     ethr =  8.05E-07,  avg # of iterations =  3.8

     total energy              =   -2007.42579601 Ry
     Harris-Foulkes estimate   =   -2007.42584544 Ry
     estimated scf accuracy    <       0.00017648 Ry

     iteration # 13     ecut=    40.00 Ry     beta=0.70
     CG style diagonalization
     ethr =  8.82E-08,  avg # of iterations =  3.8

     End of self-consistent calculation

[...]

          k = 0.0000 0.3617-0.2917 (  7012 PWs)   bands (ev):

[...]

          k =-0.4698 0.0904-0.2917 (  7026 PWs)   bands (ev):

   -40.3399 -40.3399 -40.2625 -40.2625 -40.1362 -40.1362 -40.1262 -40.1262
   -34.4221 -34.4220 -34.4087 -34.4086 -13.9675 -13.9675 -13.6103 -13.6103
   -13.2500 -13.2500 -13.2288 -13.2288 -13.1459 -13.1459 -13.0512 -13.0512
   -12.8315 -12.8315 -12.6961 -12.6961 -12.5904 -12.5904 -12.5301 -12.5301
   -12.4401 -12.4401 -12.3857 -12.3857  -9.5550  -9.5549  -9.5516  -9.5516
    -9.5039  -9.5038  -9.4444  -9.4443  -9.3939  -9.3939  -9.3902  -9.3902
    16.1034  16.1034  16.7415  16.7415  17.1432  17.1432  17.2479  17.2479
    17.4618  17.4618  17.5203  17.5203  17.8522  17.8522  18.0060  18.0060
    18.1087  18.1087  18.4513  18.4513  18.6938  18.6938  19.0783  19.0783
    19.1909  19.1909  19.5720  19.5720  19.6345  19.6345  20.0496  20.0496
    20.4461  20.4461  20.5619  20.5620  20.8977  20.8977  21.0135  21.0135
    21.3915  21.3915  21.8284  21.8284  21.9705  21.9705  22.1666  22.1666
    22.4601  22.4601  22.6798  22.6799  22.8757  22.8757  23.0612  23.0612
    23.3454  23.3454  23.5312  23.5312  23.8861  23.8861  24.2339  24.2339
    25.2676  25.2677  26.9252  26.9252  28.5296  28.5296  29.4171  29.4172

     the Fermi energy is    22.9079 ev

!    total energy              =   -2007.42582482 Ry
     Harris-Foulkes estimate   =   -2007.42585353 Ry
     estimated scf accuracy    <       0.00002223 Ry

     The total energy is the sum of the following terms:

     one-electron contribution =    -194.25862791 Ry
     hartree contribution      =     244.57446785 Ry
     xc contribution           =    -210.47945010 Ry
     ewald contribution        =   -1846.30624463 Ry
     smearing contrib. (-TS)   =      -0.95597003 Ry

     convergence has been achieved in  13 iterations

     Forces acting on atoms (Ry/au):

     atom    1 type  1   force =     0.00000000    0.00000000    0.01151492
     atom    2 type  1   force =     0.00000000    0.00000000    0.01151492
     atom    3 type  1   force =     0.00000000    0.00000000   -0.01151492
     atom    4 type  1   force =     0.00000000    0.00000000   -0.01151492
     atom    5 type  2   force =     0.00000000    0.00000000    0.00000000
     atom    6 type  2   force =     0.00000000    0.00000000    0.00000000
     atom    7 type  2   force =     0.00000000   -0.00951237    0.00000000
     atom    8 type  2   force =     0.00823796   -0.00475619    0.00000000
     atom    9 type  2   force =    -0.00823796   -0.00475619    0.00000000
     atom   10 type  2   force =     0.00823796    0.00475619    0.00000000
     atom   11 type  2   force =    -0.00823796    0.00475619    0.00000000
     atom   12 type  2   force =     0.00000000    0.00951237    0.00000000

     Total force =     0.032761     Total SCF correction =     0.000000

     entering subroutine stress ...

          total   stress  (Ry/bohr**3)                   (kbar)     P= -167.90
  -0.00111523   0.00000000   0.00000000       -164.06      0.00      0.00
   0.00000000  -0.00111523   0.00000000          0.00   -164.06      0.00
   0.00000000   0.00000000  -0.00119360          0.00      0.00   -175.58

     Writing output data file Prototype-La-hP12-MgZn2.save

     General routines

     Parallel routines

   This run was terminated on:  19: 1:31  22Mar2018

   JOB DONE.