     Program PWSCF v.5.0.2 starts on 22Mar2018 at 21:32:29

     Current dimensions of program PWSCF are:
     Max number of different atomic species (ntypx) = 10
     Max number of k-points (npk) =  40000
     Max angular momentum in pseudopotentials (lmaxx) =  3
     Waiting for input...
     Reading input from standard input

     Subspace diagonalization in iterative solution of the eigenvalue problem:
     a serial algorithm will be used

     bravais-lattice index     =            0
     lattice parameter (alat)  =      12.0168  a.u.
     unit-cell volume          =    1187.3413 (a.u.)^3
     number of atoms/cell      =            8
     number of atomic types    =            2
     number of electrons       =       182.00
     number of Kohn-Sham states=          109
     kinetic-energy cutoff     =      40.0000  Ry
     charge density cutoff     =     160.0000  Ry
     convergence threshold     =      1.0E-04
     mixing beta               =       0.7000
     number of iterations used =            8  plain     mixing
     Exchange-correlation      = SLA-PZ-NOGX-NOGC ( 1 1 0 0 0)
     EXX-fraction              =        0.00
     nstep                     =           50

     celldm(1)=  12.016801  celldm(2)=   0.000000  celldm(3)=   0.000000
     celldm(4)=   0.000000  celldm(5)=   0.000000  celldm(6)=   0.000000

     crystal axes: (cart. coord. in units of alat)
               a(1) = (   1.000000   0.000000   0.000000 )
               a(2) = (  -0.500000   0.866025   0.000000 )
               a(3) = (   0.000000   0.000000   0.790093 )

     reciprocal axes: (cart. coord. in units 2 pi/alat)
               b(1) = (  1.000000  0.577350  0.000000 )
               b(2) = (  0.000000  1.154701  0.000000 )
               b(3) = (  0.000000  0.000000  1.265674 )

     PseudoPot. # 1 for Tm read from file:
     /home/cwx6513/pp.La/Tm.UPF
     MD5 check sum: 245516e0878b5372ceeb9443ded2c4e1
     Pseudo is Norm-conserving, Zval = 23.0
     Generated in analytical, separable form
     Using radial grid of 1269 points,  6 beta functions with:
                l(1) =   0
                l(2) =   0
                l(3) =   1
                l(4) =   1
                l(5) =   2
                l(6) =   3

     PseudoPot. # 2 for Er read from file:
     /home/cwx6513/pp.La/Er.UPF
     MD5 check sum: e152ae21b84514339d8526f066caf99b
     Pseudo is Norm-conserving, Zval = 22.0
     Generated in analytical, separable form
     Using radial grid of 1267 points,  6 beta functions with:
                l(1) =   0
                l(2) =   0
                l(3) =   1
                l(4) =   1
                l(5) =   2
                l(6) =   3

     atomic species   valence    mass     pseudopotential
        Mg            23.00    24.30500     Tm( 1.00)
        Cd            22.00   112.41100     Er( 1.00)

     24 Sym. Ops., with inversion, found (12 have fractional translation)

   Cartesian axes

     site n.     atom                  positions (alat units)
         1           Mg  tau(   1) = (   0.2478935   0.7204716   0.1975233  )
         2           Mg  tau(   2) = (   0.7478935   0.1455538   0.5925699  )
         3           Mg  tau(   3) = (   0.2521065   0.1455538   0.5925699  )
         4           Mg  tau(   4) = (  -0.2478935   0.7204716   0.1975233  )
         5           Mg  tau(   5) = (   0.0000000   0.2911075   0.1975233  )
         6           Mg  tau(   6) = (   0.5000000   0.5749179   0.5925699  )
         7           Cd  tau(   7) = (   0.5000005   0.2886748   0.1975233  )
         8           Cd  tau(   8) = (  -0.0000005   0.5773506   0.5925699  )

     number of k points=    64  gaussian smearing, width (Ry)=  0.1000
                       cart. coord. in units 2pi/alat
        k(    1) = (   0.0000000   0.0000000   0.0000000), wk =   0.0095238
        k(    2) = (   0.0000000   0.0000000   0.1808105), wk =   0.0190476
        k(    3) = (   0.0000000   0.0000000   0.3616210), wk =   0.0190476
        k(    4) = (   0.0000000   0.0000000   0.5424315), wk =   0.0190476
        k(    5) = (   0.0000000   0.1924501   0.0000000), wk =   0.0190476
        k(    6) = (   0.0000000   0.1924501   0.1808105), wk =   0.0380952
        k(    7) = (   0.0000000   0.1924501   0.3616210), wk =   0.0380952
        k(    8) = (   0.0000000   0.1924501   0.5424315), wk =   0.0380952
        k(    9) = (   0.0000000   0.3849002   0.0000000), wk =   0.0190476
        k(   10) = (   0.0000000   0.3849002   0.1808105), wk =   0.0380952
        k(   11) = (   0.0000000   0.3849002   0.3616210), wk =   0.0380952
        k(   12) = (   0.0000000   0.3849002   0.5424315), wk =   0.0380952
        k(   13) = (   0.0000000  -0.5773503   0.0000000), wk =   0.0095238
        k(   14) = (   0.0000000  -0.5773503   0.1808105), wk =   0.0190476
        k(   15) = (   0.0000000  -0.5773503   0.3616210), wk =   0.0190476
        k(   16) = (   0.0000000  -0.5773503   0.5424315), wk =   0.0190476
        k(   17) = (   0.2000000   0.1154701   0.0000000), wk =   0.0190476
        k(   18) = (   0.2000000   0.1154701   0.1808105), wk =   0.0380952
        k(   19) = (   0.2000000   0.1154701   0.3616210), wk =   0.0380952
        k(   20) = (   0.2000000   0.1154701   0.5424315), wk =   0.0380952
        k(   21) = (   0.2000000   0.3079201   0.0000000), wk =   0.0190476
        k(   22) = (   0.2000000   0.3079201   0.1808105), wk =   0.0380952
        k(   23) = (   0.2000000   0.3079201   0.3616210), wk =   0.0380952
        k(   24) = (   0.2000000   0.3079201   0.5424315), wk =   0.0380952
        k(   25) = (   0.2000000   0.5003702   0.0000000), wk =   0.0190476
        k(   26) = (   0.2000000   0.5003702   0.1808105), wk =   0.0380952
        k(   27) = (   0.2000000   0.5003702   0.3616210), wk =   0.0380952
        k(   28) = (   0.2000000   0.5003702   0.5424315), wk =   0.0380952
        k(   29) = (   0.2000000  -0.4618802   0.0000000), wk =   0.0190476
        k(   30) = (   0.2000000  -0.4618802   0.1808105), wk =   0.0380952
        k(   31) = (   0.2000000  -0.4618802   0.3616210), wk =   0.0380952
        k(   32) = (   0.2000000  -0.4618802   0.5424315), wk =   0.0380952
        k(   33) = (   0.2000000  -0.2694301   0.0000000), wk =   0.0190476
        k(   34) = (   0.2000000  -0.2694301   0.1808105), wk =   0.0380952
        k(   35) = (   0.2000000  -0.2694301   0.3616210), wk =   0.0380952
        k(   36) = (   0.2000000  -0.2694301   0.5424315), wk =   0.0380952
        k(   37) = (   0.2000000  -0.0769800   0.0000000), wk =   0.0190476
        k(   38) = (   0.2000000  -0.0769800   0.1808105), wk =   0.0380952
        k(   39) = (   0.2000000  -0.0769800   0.3616210), wk =   0.0380952
        k(   40) = (   0.2000000  -0.0769800   0.5424315), wk =   0.0380952
        k(   41) = (   0.4000000   0.2309401   0.0000000), wk =   0.0190476
        k(   42) = (   0.4000000   0.2309401   0.1808105), wk =   0.0380952
        k(   43) = (   0.4000000   0.2309401   0.3616210), wk =   0.0380952
        k(   44) = (   0.4000000   0.2309401   0.5424315), wk =   0.0380952
        k(   45) = (   0.4000000   0.4233902   0.0000000), wk =   0.0190476
        k(   46) = (   0.4000000   0.4233902   0.1808105), wk =   0.0380952
        k(   47) = (   0.4000000   0.4233902   0.3616210), wk =   0.0380952
        k(   48) = (   0.4000000   0.4233902   0.5424315), wk =   0.0380952
        k(   49) = (   0.4000000   0.6158403   0.0000000), wk =   0.0190476
        k(   50) = (   0.4000000   0.6158403   0.1808105), wk =   0.0380952
        k(   51) = (   0.4000000   0.6158403   0.3616210), wk =   0.0380952
        k(   52) = (   0.4000000   0.6158403   0.5424315), wk =   0.0380952
        k(   53) = (   0.4000000  -0.3464102   0.0000000), wk =   0.0190476
        k(   54) = (   0.4000000  -0.3464102   0.1808105), wk =   0.0380952
        k(   55) = (   0.4000000  -0.3464102   0.3616210), wk =   0.0380952
        k(   56) = (   0.4000000  -0.3464102   0.5424315), wk =   0.0380952
        k(   57) = (   0.4000000  -0.1539601   0.0000000), wk =   0.0190476
        k(   58) = (   0.4000000  -0.1539601   0.1808105), wk =   0.0380952
        k(   59) = (   0.4000000  -0.1539601   0.3616210), wk =   0.0380952
        k(   60) = (   0.4000000  -0.1539601   0.5424315), wk =   0.0380952
        k(   61) = (   0.4000000   0.0384900   0.0000000), wk =   0.0190476
        k(   62) = (   0.4000000   0.0384900   0.1808105), wk =   0.0380952
        k(   63) = (   0.4000000   0.0384900   0.3616210), wk =   0.0380952
        k(   64) = (   0.4000000   0.0384900   0.5424315), wk =   0.0380952

     Largest allocated arrays     est. size (Mb)     dimensions
     Largest temporary arrays     est. size (Mb)     dimensions

     Initial potential from superposition of free atoms

     Starting from uniform charge
     Starting wfc are    0 randomized atomic wfcs

     Self-consistent Calculation

     iteration #  1     ecut=    40.00 Ry     beta=0.70
     CG style diagonalization
     c_bands:  4 eigenvalues not converged
     c_bands:  5 eigenvalues not converged
     c_bands:  5 eigenvalues not converged
     c_bands:  5 eigenvalues not converged
     c_bands:  2 eigenvalues not converged
     c_bands:  5 eigenvalues not converged
     ethr =  1.00E-02,  avg # of iterations = 18.5

     total energy              =   -2510.92356929 Ry
     Harris-Foulkes estimate   =   -3679.85185541 Ry
     estimated scf accuracy    <    1461.87939012 Ry

[...]

     iteration #  5     ecut=    40.00 Ry     beta=0.70
     CG style diagonalization
     ethr =  8.56E-03,  avg # of iterations =  3.5

[...]

     End of self-consistent calculation

          k = 0.0000 0.0000 0.0000 (  5047 PWs)   bands (ev):

   -84.4593 -84.4593 -84.4562 -84.4181 -84.4181 -84.3947 -74.2788 -74.2729
   -43.1961 -43.1503 -43.1502 -43.1465 -43.1426 -43.1193 -43.1193 -43.1088
   -43.1087 -43.0959 -43.0947 -43.0946 -43.0669 -43.0652 -43.0651 -43.0556
   -43.0556 -43.0410 -36.2746 -36.2686 -36.2328 -36.2328 -36.2234 -36.2234
     5.2094   5.2646   5.2647   5.3145   5.4691   5.5251   5.5405   5.5406
     5.5410   5.5956   5.5956   5.7036   5.7036   5.8699   5.9696   5.9697
     5.9719   6.0044   6.0044   6.0744   6.0745   6.1290   6.1291   6.2774
     6.2774   6.4213   6.4213   6.4429   6.5337   6.5402  10.2952  10.5411
    10.5411  10.5959  10.6110  10.6110  10.6176  10.6176  10.6987  10.6987
    10.9605  16.8633  16.8635  17.5074  17.7414  17.7416  18.1861  19.0285
    19.0665  23.5435  23.5436  23.7363  23.7364  23.8668  24.1275  24.1277
    24.6854  24.7612  26.7367  27.1827  27.1827  27.5828  27.5829  27.6806
    31.4678  31.4678  31.5942  31.6905  32.1064  32.1065  32.3105  32.5705
    32.5706  32.7234  32.9162  32.9496  32.9823

[...]

     the Fermi energy is    27.3633 ev

!    total energy              =   -2862.37189885 Ry
     Harris-Foulkes estimate   =   -2862.37193263 Ry
     estimated scf accuracy    <       0.00004295 Ry

     The total energy is the sum of the following terms:

     one-electron contribution =    -902.89786207 Ry
     hartree contribution      =     534.86397655 Ry
     xc contribution           =    -235.42695904 Ry
[...]
        k(   17) = (   0.2072297   0.1196441   0.0000000), wk =   0.0190476
        k(   18) = (   0.2072297   0.1196441   0.1860276), wk =   0.0380952
        k(   19) = (   0.2072297   0.1196441   0.3720551), wk =   0.0380952
        k(   20) = (   0.2072297   0.1196441   0.5580827), wk =   0.0380952
        k(   21) = (   0.2072297   0.3190510   0.0000000), wk =   0.0190476
        k(   22) = (   0.2072297   0.3190510   0.1860276), wk =   0.0380952
        k(   23) = (   0.2072297   0.3190510   0.3720551), wk =   0.0380952
        k(   24) = (   0.2072297   0.3190510   0.5580827), wk =   0.0380952
        k(   25) = (   0.2072297   0.5184579   0.0000000), wk =   0.0190476
        k(   26) = (   0.2072297   0.5184579   0.1860276), wk =   0.0380952
        k(   27) = (   0.2072297   0.5184579   0.3720551), wk =   0.0380952
        k(   28) = (   0.2072297   0.5184579   0.5580827), wk =   0.0380952
        k(   29) = (   0.2072297  -0.4785765   0.0000000), wk =   0.0190476
        k(   30) = (   0.2072297  -0.4785765   0.1860276), wk =   0.0380952
        k(   31) = (   0.2072297  -0.4785765   0.3720551), wk =   0.0380952
        k(   32) = (   0.2072297  -0.4785765   0.5580827), wk =   0.0380952
        k(   33) = (   0.2072297  -0.2791696   0.0000000), wk =   0.0190476
        k(   34) = (   0.2072297  -0.2791696   0.1860276), wk =   0.0380952
        k(   35) = (   0.2072297  -0.2791696   0.3720551), wk =   0.0380952
        k(   36) = (   0.2072297  -0.2791696   0.5580827), wk =   0.0380952
        k(   37) = (   0.2072297  -0.0797628   0.0000000), wk =   0.0190476
        k(   38) = (   0.2072297  -0.0797628   0.1860276), wk =   0.0380952
        k(   39) = (   0.2072297  -0.0797628   0.3720551), wk =   0.0380952
        k(   40) = (   0.2072297  -0.0797628   0.5580827), wk =   0.0380952
        k(   41) = (   0.4144594   0.2392883   0.0000000), wk =   0.0190476
        k(   42) = (   0.4144594   0.2392883   0.1860276), wk =   0.0380952
        k(   43) = (   0.4144594   0.2392883   0.3720551), wk =   0.0380952
        k(   44) = (   0.4144594   0.2392883   0.5580827), wk =   0.0380952
        k(   45) = (   0.4144594   0.4386951   0.0000000), wk =   0.0190476
        k(   46) = (   0.4144594   0.4386951   0.1860276), wk =   0.0380952
        k(   47) = (   0.4144594   0.4386951   0.3720551), wk =   0.0380952
        k(   48) = (   0.4144594   0.4386951   0.5580827), wk =   0.0380952
        k(   49) = (   0.4144594   0.6381020   0.0000000), wk =   0.0190476
        k(   50) = (   0.4144594   0.6381020   0.1860276), wk =   0.0380952
        k(   51) = (   0.4144594   0.6381020   0.3720551), wk =   0.0380952
        k(   52) = (   0.4144594   0.6381020   0.5580827), wk =   0.0380952
        k(   53) = (   0.4144594  -0.3589324   0.0000000), wk =   0.0190476
        k(   54) = (   0.4144594  -0.3589324   0.1860276), wk =   0.0380952
        k(   55) = (   0.4144594  -0.3589324   0.3720551), wk =   0.0380952
        k(   56) = (   0.4144594  -0.3589324   0.5580827), wk =   0.0380952
        k(   57) = (   0.4144594  -0.1595255   0.0000000), wk =   0.0190476
        k(   58) = (   0.4144594  -0.1595255   0.1860276), wk =   0.0380952
        k(   59) = (   0.4144594  -0.1595255   0.3720551), wk =   0.0380952
        k(   60) = (   0.4144594  -0.1595255   0.5580827), wk =   0.0380952
        k(   61) = (   0.4144594   0.0398814   0.0000000), wk =   0.0190476
        k(   62) = (   0.4144594   0.0398814   0.1860276), wk =   0.0380952
        k(   63) = (   0.4144594   0.0398814   0.3720551), wk =   0.0380952
        k(   64) = (   0.4144594   0.0398814   0.5580827), wk =   0.0380952

[...]

     Threshold (ethr) on eigenvalues was too large:
     Diagonalizing with lowered threshold

     CG style diagonalization
     ethr =  1.15E-08,  avg # of iterations =  3.6

[...]

     The maximum number of steps has been reached.

     End of BFGS Geometry Optimization
Begin final coordinates
     new unit-cell volume =   1074.92437 a.u.^3 (   159.28735 Ang^3 )

CELL_PARAMETERS (alat= 12.01680127)
   0.965112611   0.000000000   0.000000000
  -0.482556305   0.835812038   0.000000000
   0.000000000   0.000000000   0.767935346

ATOMIC_POSITIONS (crystal)
Mg       0.663517618   0.831758809   0.250000000
Mg       0.831758809   0.168241191   0.750000000
Mg       0.336482382   0.168241191   0.750000000
Mg       0.168241191   0.831758809   0.250000000
Mg       0.168241191   0.336482382   0.250000000
Mg       0.831758809   0.663517618   0.750000000
Cd       0.666667000   0.333333000   0.250000000
Cd       0.333333000   0.666667000   0.750000000
End final coordinates

     A final scf calculation at the relaxed structure.
     The G-vectors are recalculated for the final unit cell
     Results may differ from those at the preceding step.

     bravais-lattice index     =            0
     lattice parameter (alat)  =      12.0168  a.u.
     unit-cell volume          =    1074.9244 (a.u.)^3
     number of atoms/cell      =            8
     number of atomic types    =            2
     number of electrons       =       182.00
     number of Kohn-Sham states=          109
     kinetic-energy cutoff     =      40.0000  Ry
     charge density cutoff     =     160.0000  Ry
     convergence threshold     =      1.0E-04
     mixing beta               =       0.7000
     number of iterations used =            8  plain     mixing
     Exchange-correlation      = SLA-PZ-NOGX-NOGC ( 1 1 0 0 0)
     EXX-fraction              =        0.00

     celldm(1)=  12.016801  celldm(2)=   0.000000  celldm(3)=   0.000000
     celldm(4)=   0.000000  celldm(5)=   0.000000  celldm(6)=   0.000000

     crystal axes: (cart. coord. in units of alat)
               a(1) = (   0.965113   0.000000   0.000000 )
               a(2) = (  -0.482556   0.835812   0.000000 )
               a(3) = (   0.000000   0.000000   0.767935 )

     reciprocal axes: (cart. coord. in units 2 pi/alat)
               b(1) = (  1.036149  0.598221  0.000000 )
               b(2) = (  0.000000  1.196441  0.000000 )
               b(3) = (  0.000000  0.000000  1.302193 )

     PseudoPot. # 1 for Tm read from file:
     /home/cwx6513/pp.La/Tm.UPF
     MD5 check sum: 245516e0878b5372ceeb9443ded2c4e1
     Pseudo is Norm-conserving, Zval = 23.0
     Generated in analytical, separable form
     Using radial grid of 1269 points,  6 beta functions with:
                l(1) =   0
                l(2) =   0
                l(3) =   1
                l(4) =   1
                l(5) =   2
                l(6) =   3

     PseudoPot. # 2 for Er read from file:
     /home/cwx6513/pp.La/Er.UPF
     MD5 check sum: e152ae21b84514339d8526f066caf99b
     Pseudo is Norm-conserving, Zval = 22.0
     Generated in analytical, separable form
     Using radial grid of 1267 points,  6 beta functions with:
                l(1) =   0
                l(2) =   0
                l(3) =   1
                l(4) =   1
                l(5) =   2
                l(6) =   3

     atomic species   valence    mass     pseudopotential
        Mg            23.00    24.30500     Tm( 1.00)
        Cd            22.00   112.41100     Er( 1.00)

     24 Sym. Ops., with inversion, found (12 have fractional translation)

   Cartesian axes

     site n.     atom                  positions (alat units)
         1           Mg  tau(   1) = (   0.2389988   0.6951940   0.1919838  )
         2           Mg  tau(   2) = (   0.7215551   0.1406180   0.5759515  )
         3           Mg  tau(   3) = (   0.2435575   0.1406180   0.5759515  )
         4           Mg  tau(   4) = (  -0.2389988   0.6951940   0.1919838  )
         5           Mg  tau(   5) = (   0.0000000   0.2812360   0.1919838  )
         6           Mg  tau(   6) = (   0.4825563   0.5545760   0.5759515  )
         7           Cd  tau(   7) = (   0.4825568   0.2786037   0.1919838  )
         8           Cd  tau(   8) = (  -0.0000005   0.5572083   0.5759515  )

     number of k points=    64  gaussian smearing, width (Ry)=  0.1000
                       cart. coord. in units 2pi/alat
        k(    1) = (   0.0000000   0.0000000   0.0000000), wk =   0.0095238
        k(    2) = (   0.0000000   0.0000000   0.1860276), wk =   0.0190476
        k(    3) = (   0.0000000   0.0000000   0.3720551), wk =   0.0190476
        k(    4) = (   0.0000000   0.0000000   0.5580827), wk =   0.0190476
        k(    5) = (   0.0000000   0.1994069   0.0000000), wk =   0.0190476
        k(    6) = (   0.0000000   0.1994069   0.1860276), wk =   0.0380952
        k(    7) = (   0.0000000   0.1994069   0.3720551), wk =   0.0380952
        k(    8) = (   0.0000000   0.1994069   0.5580827), wk =   0.0380952
        k(    9) = (   0.0000000   0.3988138   0.0000000), wk =   0.0190476
        k(   10) = (   0.0000000   0.3988138   0.1860276), wk =   0.0380952
        k(   11) = (   0.0000000   0.3988138   0.3720551), wk =   0.0380952
        k(   12) = (   0.0000000   0.3988138   0.5580827), wk =   0.0380952
        k(   13) = (   0.0000000  -0.5982206   0.0000000), wk =   0.0095238
        k(   14) = (   0.0000000  -0.5982206   0.1860276), wk =   0.0190476
        k(   15) = (   0.0000000  -0.5982206   0.3720551), wk =   0.0190476
        k(   16) = (   0.0000000  -0.5982206   0.5580827), wk =   0.0190476
        k(   17) = (   0.2072297   0.1196441   0.0000000), wk =   0.0190476
        k(   18) = (   0.2072297   0.1196441   0.1860276), wk =   0.0380952
        k(   19) = (   0.2072297   0.1196441   0.3720551), wk =   0.0380952
        k(   20) = (   0.2072297   0.1196441   0.5580827), wk =   0.0380952
        k(   21) = (   0.2072297   0.3190510   0.0000000), wk =   0.0190476
        k(   22) = (   0.2072297   0.3190510   0.1860276), wk =   0.0380952
        k(   23) = (   0.2072297   0.3190510   0.3720551), wk =   0.0380952
        k(   24) = (   0.2072297   0.3190510   0.5580827), wk =   0.0380952
        k(   25) = (   0.2072297   0.5184579   0.0000000), wk =   0.0190476
        k(   26) = (   0.2072297   0.5184579   0.1860276), wk =   0.0380952
        k(   27) = (   0.2072297   0.5184579   0.3720551), wk =   0.0380952
        k(   28) = (   0.2072297   0.5184579   0.5580827), wk =   0.0380952
        k(   29) = (   0.2072297  -0.4785765   0.0000000), wk =   0.0190476
        k(   30) = (   0.2072297  -0.4785765   0.1860276), wk =   0.0380952
        k(   31) = (   0.2072297  -0.4785765   0.3720551), wk =   0.0380952
        k(   32) = (   0.2072297  -0.4785765   0.5580827), wk =   0.0380952
        k(   33) = (   0.2072297  -0.2791696   0.0000000), wk =   0.0190476
        k(   34) = (   0.2072297  -0.2791696   0.1860276), wk =   0.0380952
        k(   35) = (   0.2072297  -0.2791696   0.3720551), wk =   0.0380952
        k(   36) = (   0.2072297  -0.2791696   0.5580827), wk =   0.0380952
        k(   37) = (   0.2072297  -0.0797628   0.0000000), wk =   0.0190476
        k(   38) = (   0.2072297  -0.0797628   0.1860276), wk =   0.0380952
        k(   39) = (   0.2072297  -0.0797628   0.3720551), wk =   0.0380952
        k(   40) = (   0.2072297  -0.0797628   0.5580827), wk =   0.0380952
        k(   41) = (   0.4144594   0.2392883   0.0000000), wk =   0.0190476
        k(   42) = (   0.4144594   0.2392883   0.1860276), wk =   0.0380952
        k(   43) = (   0.4144594   0.2392883   0.3720551), wk =   0.0380952
        k(   44) = (   0.4144594   0.2392883   0.5580827), wk =   0.0380952
        k(   45) = (   0.4144594   0.4386951   0.0000000), wk =   0.0190476
        k(   46) = (   0.4144594   0.4386951   0.1860276), wk =   0.0380952
        k(   47) = (   0.4144594   0.4386951   0.3720551), wk =   0.0380952
        k(   48) = (   0.4144594   0.4386951   0.5580827), wk =   0.0380952
        k(   49) = (   0.4144594   0.6381020   0.0000000), wk =   0.0190476
        k(   50) = (   0.4144594   0.6381020   0.1860276), wk =   0.0380952
        k(   51) = (   0.4144594   0.6381020   0.3720551), wk =   0.0380952
        k(   52) = (   0.4144594   0.6381020   0.5580827), wk =   0.0380952
        k(   53) = (   0.4144594  -0.3589324   0.0000000), wk =   0.0190476
        k(   54) = (   0.4144594  -0.3589324   0.1860276), wk =   0.0380952
        k(   55) = (   0.4144594  -0.3589324   0.3720551), wk =   0.0380952
        k(   56) = (   0.4144594  -0.3589324   0.5580827), wk =   0.0380952
        k(   57) = (   0.4144594  -0.1595255   0.0000000), wk =   0.0190476
        k(   58) = (   0.4144594  -0.1595255   0.1860276), wk =   0.0380952
        k(   59) = (   0.4144594  -0.1595255   0.3720551), wk =   0.0380952
        k(   60) = (   0.4144594  -0.1595255   0.5580827), wk =   0.0380952
        k(   61) = (   0.4144594   0.0398814   0.0000000), wk =   0.0190476
        k(   62) = (   0.4144594   0.0398814   0.1860276), wk =   0.0380952
        k(   63) = (   0.4144594   0.0398814   0.3720551), wk =   0.0380952
        k(   64) = (   0.4144594   0.0398814   0.5580827), wk =   0.0380952

     Largest allocated arrays     est. size (Mb)     dimensions
     Largest temporary arrays     est. size (Mb)     dimensions

     Initial potential from superposition of free atoms

     Starting from uniform charge
     Starting wfc are    0 randomized atomic wfcs

     Writing output data file Prototype-La-hP8-Mg3Cd.save

     Self-consistent Calculation

[...]

     iteration #  6     ecut=    40.00 Ry     beta=0.70
     CG style diagonalization
     ethr =  6.51E-04,  avg # of iterations =  4.1

[...]

     total energy              =   -2861.53849431 Ry
     Harris-Foulkes estimate   =   -2861.54019011 Ry
     estimated scf accuracy    <       0.00272090 Ry

     iteration #  9     ecut=    40.00 Ry     beta=0.70
     CG style diagonalization
     c_bands:  1 eigenvalues not converged
     c_bands:  1 eigenvalues not converged
     ethr =  1.50E-06,  avg # of iterations =  4.0

     End of self-consistent calculation

[...]

          k = 0.4145 0.0399 0.5581 (  4585 PWs)   bands (ev):

   -81.4106 -81.4028 -81.3932 -81.3828 -81.3712 -81.3659 -71.3094 -71.3025
   -40.1400 -40.1275 -40.1224 -40.1153 -40.1092 -40.1014 -40.0970 -40.0922
   -40.0755 -40.0700 -40.0650 -40.0599 -40.0529 -40.0479 -40.0432 -40.0394
   -40.0358 -40.0331 -33.3245 -33.3196 -33.2953 -33.2875 -33.2860 -33.2843
     8.1230   8.1371   8.1747   8.2498   8.2832   8.2881   8.3459   8.3994
     8.4267   8.4387   8.5902   8.6214   8.6972   8.7578   8.7661   8.7900
     8.8053   8.9168   8.9312   8.9850   9.0336   9.1105   9.1247   9.1361
     9.2060   9.2454   9.3862   9.4110   9.4967   9.5697  13.1750  13.1864
    13.2926  13.3032  13.3641  13.3920  13.4391  13.4642  13.5152  13.5378
    15.4218  16.6404  18.0898  18.5686  19.3352  19.8086  21.9089  22.9675
    23.2286  24.3648  26.2408  26.6968  27.4066  27.8666  27.9775  29.0195
    30.1855  30.6435  31.4287  31.6838  32.2006  32.4514  32.6807  32.8102
    33.0139  33.5880  33.6947  33.9419  34.0455  34.1318  34.2557  34.4783
    36.4493  36.7613  36.8561  36.9793  37.2391

     the Fermi energy is    30.6608 ev

!    total energy              =   -2861.53933722 Ry
     Harris-Foulkes estimate   =   -2861.53939948 Ry
     estimated scf accuracy    <       0.00007614 Ry

     The total energy is the sum of the following terms:

     one-electron contribution =    -787.13619403 Ry
     hartree contribution      =     497.31700822 Ry
     xc contribution           =    -236.57146707 Ry
     ewald contribution        =   -2334.88034594 Ry
     smearing contrib. (-TS)   =      -0.26833840 Ry

     convergence has been achieved in   9 iterations

     Forces acting on atoms (Ry/au):

     atom    1 type  1   force =     0.02136329    0.01233410    0.00000000
     atom    2 type  1   force =     0.02136329   -0.01233410    0.00000000
     atom    3 type  1   force =    -0.02136329   -0.01233410    0.00000000
     atom    4 type  1   force =    -0.02136329    0.01233410    0.00000000
     atom    5 type  1   force =     0.00000000   -0.02466820    0.00000000
     atom    6 type  1   force =     0.00000000    0.02466820    0.00000000
     atom    7 type  2   force =     0.00000000    0.00000000    0.00000000
     atom    8 type  2   force =     0.00000000    0.00000000    0.00000000

     Total force =     0.060425     Total SCF correction =     0.000000

     entering subroutine stress ...

          total   stress  (Ry/bohr**3)                   (kbar)     P=  134.93
   0.00084300   0.00000000   0.00000000        124.01      0.00      0.00
   0.00000000   0.00084300   0.00000000          0.00    124.01      0.00
   0.00000000   0.00000000   0.00106573          0.00      0.00    156.77

     Writing output data file Prototype-La-hP8-Mg3Cd.save

     General routines

     Parallel routines

   This run was terminated on:  22:25:40  22Mar2018

   JOB DONE.