     Program PWSCF v.5.0.2 starts on 22Mar2018 at  0:35:17

     Current dimensions of program PWSCF are:
     Max number of different atomic species (ntypx) = 10
     Max number of k-points (npk) =  40000
     Max angular momentum in pseudopotentials (lmaxx) =  3
     Waiting for input...
     Reading input from standard input

     Subspace diagonalization in iterative solution of the eigenvalue problem:
     a serial algorithm will be used

     bravais-lattice index     =            0
     lattice parameter (alat)  =       7.0151  a.u.
     unit-cell volume          =     862.2778 (a.u.)^3
     number of atoms/cell      =           12
     number of atomic types    =            2
     number of electrons       =       164.00
     number of Kohn-Sham states=           98
     kinetic-energy cutoff     =      40.0000  Ry
     charge density cutoff     =     160.0000  Ry
     convergence threshold     =      1.0E-04
     mixing beta               =       0.7000
     number of iterations used =            8  plain     mixing
     Exchange-correlation      = SLA-PZ-NOGX-NOGC ( 1 1 0 0 0)
     EXX-fraction              =        0.00
     nstep                     =           50

     celldm(1)=   7.015105  celldm(2)=   0.000000  celldm(3)=   0.000000
     celldm(4)=   0.000000  celldm(5)=   0.000000  celldm(6)=   0.000000

     crystal axes: (cart. coord. in units of alat)
               a(1) = (   1.000000   0.000000   0.000000 )
               a(2) = (   0.000000   1.315963   0.000000 )
               a(3) = (   0.000000   0.000000   1.898020 )

     reciprocal axes: (cart. coord. in units 2 pi/alat)
               b(1) = (  1.000000  0.000000  0.000000 )
               b(2) = (  0.000000  0.759900  0.000000 )
               b(3) = (  0.000000  0.000000  0.526865 )

     PseudoPot. # 1 for Ce read from file:
     /home/jld5415/pp.La/Ce.UPF
     MD5 check sum: 44451aa79a44a00cf2bc029dc19922f6
     Pseudo is Norm-conserving, Zval = 12.0
     Generated in analytical, separable form
     Using radial grid of 1255 points,  6 beta functions with:
                l(1) =   0
                l(2) =   0
                l(3) =   1
                l(4) =   1
                l(5) =   2
                l(6) =   3

     PseudoPot. # 2 for Eu read from file:
     /home/jld5415/pp.La/Eu.UPF
     MD5 check sum: 5efdbbfc50c6a10138933a6429836ad2
     Pseudo is Norm-conserving, Zval = 17.0
     Generated in analytical, separable form
     Using radial grid of 1261 points,  6 beta functions with:
                l(1) =   0
                l(2) =   0
                l(3) =   1
                l(4) =   1
                l(5) =   2
                l(6) =   3

     atomic species   valence    mass     pseudopotential
        Co            12.00    58.93320     Ce( 1.00)
        Si            17.00    28.08550     Eu( 1.00)

      8 Sym. Ops., with inversion, found ( 6 have fractional translation)

   Cartesian axes

     site n.     atom                  positions (alat units)
         1           Co  tau(   1) = (   0.7500000   1.0875135   0.8270358  )
         2           Co  tau(   2) = (   0.2500000   0.2284499   1.0709846  )
         3           Co  tau(   3) = (   0.7500000   0.4295318   0.1219744  )
         4           Co  tau(   4) = (   0.2500000   0.8864316   1.7760460  )
         5           Co  tau(   5) = (   0.2500000   0.7067855   0.5358966  )
         6           Co  tau(   6) = (   0.7500000   0.6091779   1.3621238  )
         7           Co  tau(   7) = (   0.2500000   0.0488038   0.4131136  )
         8           Co  tau(   8) = (   0.7500000   1.2671596   1.4849068  )
         9           Si  tau(   9) = (   0.2500000   0.2669484   1.6960710  )
        10           Si  tau(  10) = (   0.7500000   1.0490149   0.2019494  )
        11           Si  tau(  11) = (   0.2500000   0.9249301   1.1509596  )
        12           Si  tau(  12) = (   0.7500000   0.3910333   0.7470608  )

     number of k points=    12  gaussian smearing, width (Ry)=  0.1000
                       cart. coord. in units 2pi/alat
        k(    1) = (   0.0000000   0.0000000   0.0000000), wk =   0.0833333
        k(    2) = (   0.0000000   0.0000000   0.1317162), wk =   0.1666667
        k(    3) = (   0.0000000   0.0000000  -0.2634324), wk =   0.0833333
        k(    4) = (   0.0000000   0.2532999   0.0000000), wk =   0.1666667
        k(    5) = (   0.0000000   0.2532999   0.1317162), wk =   0.3333333
        k(    6) = (   0.0000000   0.2532999  -0.2634324), wk =   0.1666667
        k(    7) = (  -0.5000000   0.0000000   0.0000000), wk =   0.0833333
        k(    8) = (  -0.5000000   0.0000000   0.1317162), wk =   0.1666667
        k(    9) = (  -0.5000000   0.0000000  -0.2634324), wk =   0.0833333
        k(   10) = (  -0.5000000   0.2532999   0.0000000), wk =   0.1666667
        k(   11) = (  -0.5000000   0.2532999   0.1317162), wk =   0.3333333
        k(   12) = (  -0.5000000   0.2532999  -0.2634324), wk =   0.1666667

     Largest allocated arrays     est. size (Mb)     dimensions
     Largest temporary arrays     est. size (Mb)     dimensions

     Initial potential from superposition of free atoms

     Starting from uniform charge
     Starting wfc are    0 randomized atomic wfcs

     Self-consistent Calculation

     iteration #  1     ecut=    40.00 Ry     beta=0.70
     CG style diagonalization
     c_bands:  5 eigenvalues not converged
     c_bands:  2 eigenvalues not converged
     ethr =  1.00E-02,  avg # of iterations = 16.2

     total energy              =    -999.00814417 Ry
     Harris-Foulkes estimate   =   -1441.91855146 Ry
     estimated scf accuracy    <     548.27850471 Ry

[...]

     iteration #  4     ecut=    40.00 Ry     beta=0.70
     CG style diagonalization
     ethr =  1.00E-02,  avg # of iterations =  3.9

[...]

     End of self-consistent calculation

          k = 0.0000 0.0000 0.0000 (  3675 PWs)   bands (ev):

   -21.0883 -20.9944 -20.9622 -20.9138   2.0298   2.2002   2.9778   3.6989
     3.9527   4.2205   4.4117   4.7542   4.9101   4.9801   5.0535   5.6377
     5.7059   5.7811   5.7868   8.0022   8.0222   8.2252   8.4702   8.7007
    17.8263  18.3775  19.3290  19.5675  20.4343  20.6293  20.9049  21.5975
    22.0306  22.1488  22.6609  22.6633  22.9155  23.4630  23.8064  24.3925
    24.6658  24.8720  25.3772  26.0073  27.6011  27.8099  28.0686  28.8376
    32.0952  32.8902  33.7564  33.9847  34.1897  34.2412  34.6980  34.9422
    35.2660  36.3761  36.8482  36.8654  37.2856  38.0634  39.2519  39.2674
    39.7099  39.9550  40.3779  40.9245  41.2184  42.0747  42.1409  42.6607
    42.8971  43.1361  43.7443  44.1655  44.6361  44.9055  45.1462  45.2421
    46.0162  46.2650  46.2937  46.5630  46.8465  47.4843  47.7159  47.8542
    48.6390  48.7480  48.8034  49.1761  49.6215  50.2021  50.4420  50.6135
    50.6586  51.4823

[...]

          k =-0.5000 0.0000 0.0000 (  3722 PWs)   bands (ev):

[...]

     the Fermi energy is    45.8037 ev

!    total energy              =   -1306.05183261 Ry
     Harris-Foulkes estimate   =   -1306.05188076 Ry
     estimated scf accuracy    <       0.00005808 Ry

     The total energy is the sum of the following terms:

     one-electron contribution =     374.10029444 Ry
     hartree contribution      =      66.79383416 Ry
     xc contribution           =    -171.57959635 Ry
     ewald contribution        =   -1574.93648033 Ry
     smearing contrib. (-TS)   =      -0.42988452 Ry

     convergence has been achieved in   9 iterations

     Forces acting on atoms (Ry/au):

     atom    1 type  1   force =     0.00000000   -0.02419710   -0.09971896
     atom    2 type  1   force =     0.00000000    0.02419710    0.09971896
     atom    3 type  1   force =     0.00000000   -0.02419710    0.09971896
     atom    4 type  1   force =     0.00000000    0.02419710   -0.09971896
     atom    5 type  1   force =     0.00000000    0.14389035   -0.26621946
     atom    6 type  1   force =     0.00000000   -0.14389035    0.26621946
     atom    7 type  1   force =     0.00000000    0.14389035    0.26621946
     atom    8 type  1   force =     0.00000000   -0.14389035   -0.26621946
     atom    9 type  2   force =     0.00000000   -0.14442991   -0.03216134
     atom   10 type  2   force =     0.00000000    0.14442991    0.03216134
     atom   11 type  2   force =     0.00000000   -0.14442991    0.03216134
     atom   12 type  2   force =     0.00000000    0.14442991   -0.03216134

     Total force =     0.704275     Total SCF correction =     0.000000

     entering subroutine stress ...

          total   stress  (Ry/bohr**3)                   (kbar)     P= 6335.59
   0.04533994   0.00000000   0.00000000       6669.73      0.00      0.00
   0.00000000   0.04022515   0.00000000          0.00   5917.32      0.00
   0.00000000   0.00000000   0.04364029          0.00      0.00   6419.71

     BFGS Geometry Optimization

     number of scf cycles    =   1
     number of bfgs steps    =   0

     enthalpy new            =   -1306.0518326073 Ry

     new trust radius        =       0.5000000000 bohr
     new conv_thr            =       0.0001000000 Ry

     new unit-cell volume =   1088.83072 a.u.^3 (   161.34806 Ang^3 )

CELL_PARAMETERS (alat=  7.01510508)
   1.085136619   0.000000000   0.000000000
   0.000000000   1.415361226   0.000000000
   0.000000000   0.000000000   2.053553924

ATOMIC_POSITIONS (crystal)
Co       0.750000000   0.826204129   0.435173480
Co       0.250000000   0.173795871   0.564826520
Co       0.750000000   0.326204129   0.064826520
Co       0.250000000   0.673795871   0.935173480
Co       0.250000000   0.538256709   0.280843241
Co       0.750000000   0.461743291   0.719156759
Co       0.250000000   0.038256709   0.219156759
Co       0.750000000   0.961743291   0.780843241
Si       0.250000000   0.201678901   0.893418576
Si       0.750000000   0.798321099   0.106581424
Si       0.250000000   0.701678901   0.606581424
Si       0.750000000   0.298321099   0.393418576

     Writing output data file Prototype-La-oP12-Co2Si.save
     NEW-OLD atomic charge density approx. for the potential
     NEW k-points:
        k(    1) = (   0.0000000   0.0000000   0.0000000), wk =   0.0833333
        k(    2) = (   0.0000000   0.0000000   0.1217402), wk =   0.1666667
        k(    3) = (   0.0000000   0.0000000  -0.2434803), wk =   0.0833333
        k(    4) = (   0.0000000   0.2355111   0.0000000), wk =   0.1666667
        k(    5) = (   0.0000000   0.2355111   0.1217402), wk =   0.3333333
        k(    6) = (   0.0000000   0.2355111  -0.2434803), wk =   0.1666667
        k(    7) = (  -0.4607715   0.0000000   0.0000000), wk =   0.0833333
        k(    8) = (  -0.4607715   0.0000000   0.1217402), wk =   0.1666667
        k(    9) = (  -0.4607715   0.0000000  -0.2434803), wk =   0.0833333
        k(   10) = (  -0.4607715   0.2355111   0.0000000), wk =   0.1666667
        k(   11) = (  -0.4607715   0.2355111   0.1217402), wk =   0.3333333
        k(   12) = (  -0.4607715   0.2355111  -0.2434803), wk =   0.1666667

[...]

     enthalpy old            =   -1306.0518326072 Ry
     enthalpy new            =   -1312.4722924415 Ry

     CASE: enthalpy_new < enthalpy_old

     small trust_radius: resetting bfgs history

     new trust radius        =       2.9777530954 bohr
     new conv_thr            =       0.0001000000 Ry

[...]

          total   stress  (Ry/bohr**3)                   (kbar)     P=-1110.08
  -0.00783745   0.00000000   0.00000000      -1152.93      0.00      0.00
   0.00000000  -0.00723987   0.00000000          0.00  -1065.02      0.00
   0.00000000   0.00000000  -0.00756111          0.00      0.00  -1112.28

     number of scf cycles    =   3
     number of bfgs steps    =   2

     enthalpy old            =   -1312.4722924415 Ry
     enthalpy new            =   -1305.0017024632 Ry

     CASE: enthalpy_new > enthalpy_old

     new trust radius        =       1.3158138733 bohr

     trust_radius < trust_radius_min

     resetting bfgs history

     Message from routine bfgs:
     history already reset at previous step: stopping
     new conv_thr            =       0.0001000000 Ry

     new unit-cell volume =   1290.01984 a.u.^3 (   191.16122 Ang^3 )

[...]

ATOMIC_POSITIONS (crystal)
Co       0.750000000   0.825977930   0.434865185
Co       0.250000000   0.174022070   0.565134815
Co       0.750000000   0.325977930   0.065134815
Co       0.250000000   0.674022070   0.934865185
Co       0.250000000   0.538958010   0.279888619
Co       0.750000000   0.461041990   0.720111381
Co       0.250000000   0.038958010   0.220111381
Co       0.750000000   0.961041990   0.779888619
Si       0.250000000   0.200493933   0.893432631
Si       0.750000000   0.799506067   0.106567369
Si       0.250000000   0.700493933   0.606567369
Si       0.750000000   0.299506067   0.393432631

     Writing output data file Prototype-La-oP12-Co2Si.save
     NEW-OLD atomic charge density approx. for the potential
     NEW k-points:
        k(    1) = (   0.0000000   0.0000000   0.0000000), wk =   0.0833333
        k(    2) = (   0.0000000   0.0000000   0.1150103), wk =   0.1666667
        k(    3) = (   0.0000000   0.0000000  -0.2300205), wk =   0.0833333
        k(    4) = (   0.0000000   0.2240806   0.0000000), wk =   0.1666667
        k(    5) = (   0.0000000   0.2240806   0.1150103), wk =   0.3333333
        k(    6) = (   0.0000000   0.2240806  -0.2300205), wk =   0.1666667
        k(    7) = (  -0.4326673   0.0000000   0.0000000), wk =   0.0833333
        k(    8) = (  -0.4326673   0.0000000   0.1150103), wk =   0.1666667
        k(    9) = (  -0.4326673   0.0000000  -0.2300205), wk =   0.0833333
        k(   10) = (  -0.4326673   0.2240806   0.0000000), wk =   0.1666667
        k(   11) = (  -0.4326673   0.2240806   0.1150103), wk =   0.3333333
        k(   12) = (  -0.4326673   0.2240806  -0.2300205), wk =   0.1666667

[...]

     The maximum number of steps has been reached.

     End of BFGS Geometry Optimization
Begin final coordinates
     new unit-cell volume =   1290.01984 a.u.^3 (   191.16122 Ang^3 )

CELL_PARAMETERS (alat=  7.01510508)
   1.155622313   0.000000000   0.000000000
   0.000000000   1.487560096   0.000000000
   0.000000000   0.000000000   2.173719040

ATOMIC_POSITIONS (crystal)
Co       0.750000000   0.825977930   0.434865185
Co       0.250000000   0.174022070   0.565134815
Co       0.750000000   0.325977930   0.065134815
Co       0.250000000   0.674022070   0.934865185
Co       0.250000000   0.538958010   0.279888619
Co       0.750000000   0.461041990   0.720111381
Co       0.250000000   0.038958010   0.220111381
Co       0.750000000   0.961041990   0.779888619
Si       0.250000000   0.200493933   0.893432631
Si       0.750000000   0.799506067   0.106567369
Si       0.250000000   0.700493933   0.606567369
Si       0.750000000   0.299506067   0.393432631
End final coordinates

     A final scf calculation at the relaxed structure.
     The G-vectors are recalculated for the final unit cell
     Results may differ from those at the preceding step.

     bravais-lattice index     =            0
     lattice parameter (alat)  =       7.0151  a.u.
     unit-cell volume          =    1290.0198 (a.u.)^3
     number of atoms/cell      =           12
     number of atomic types    =            2
     number of electrons       =       164.00
     number of Kohn-Sham states=           98
     kinetic-energy cutoff     =      40.0000  Ry
     charge density cutoff     =     160.0000  Ry
     convergence threshold     =      1.0E-04
     mixing beta               =       0.7000
     number of iterations used =            8  plain     mixing
     Exchange-correlation      = SLA-PZ-NOGX-NOGC ( 1 1 0 0 0)
     EXX-fraction              =        0.00

     celldm(1)=   7.015105  celldm(2)=   0.000000  celldm(3)=   0.000000
     celldm(4)=   0.000000  celldm(5)=   0.000000  celldm(6)=   0.000000

     crystal axes: (cart. coord. in units of alat)
               a(1) = (   1.155622   0.000000   0.000000 )
               a(2) = (   0.000000   1.487560   0.000000 )
               a(3) = (   0.000000   0.000000   2.173719 )

     reciprocal axes: (cart. coord. in units 2 pi/alat)
               b(1) = (  0.865335  0.000000  0.000000 )
               b(2) = (  0.000000  0.672242  0.000000 )
               b(3) = (  0.000000  0.000000  0.460041 )

     PseudoPot. # 1 for Ce read from file:
     /home/jld5415/pp.La/Ce.UPF
     MD5 check sum: 44451aa79a44a00cf2bc029dc19922f6
     Pseudo is Norm-conserving, Zval = 12.0
     Generated in analytical, separable form
     Using radial grid of 1255 points,  6 beta functions with:
                l(1) =   0
                l(2) =   0
                l(3) =   1
                l(4) =   1
                l(5) =   2
                l(6) =   3

     PseudoPot. # 2 for Eu read from file:
     /home/jld5415/pp.La/Eu.UPF
     MD5 check sum: 5efdbbfc50c6a10138933a6429836ad2
     Pseudo is Norm-conserving, Zval = 17.0
     Generated in analytical, separable form
     Using radial grid of 1261 points,  6 beta functions with:
                l(1) =   0
                l(2) =   0
                l(3) =   1
                l(4) =   1
                l(5) =   2
                l(6) =   3

     atomic species   valence    mass     pseudopotential
        Co            12.00    58.93320     Ce( 1.00)
        Si            17.00    28.08550     Eu( 1.00)

      8 Sym. Ops., with inversion, found ( 6 have fractional translation)

   Cartesian axes

     site n.     atom                  positions (alat units)
         1           Co  tau(   1) = (   0.8667167   1.2286918   0.9452747  )
         2           Co  tau(   2) = (   0.2889056   0.2588683   1.2284443  )
         3           Co  tau(   3) = (   0.8667167   0.4849118   0.1415848  )
         4           Co  tau(   4) = (   0.2889056   1.0026483   2.0321343  )
         5           Co  tau(   5) = (   0.2889056   0.8017324   0.6083992  )
         6           Co  tau(   6) = (   0.8667167   0.6858277   1.5653198  )
         7           Co  tau(   7) = (   0.2889056   0.0579524   0.4784603  )
         8           Co  tau(   8) = (   0.8667167   1.4296077   1.6952587  )
         9           Si  tau(   9) = (   0.2889056   0.2982468   1.9420715  )
        10           Si  tau(  10) = (   0.8667167   1.1893133   0.2316475  )
        11           Si  tau(  11) = (   0.2889056   1.0420268   1.3185070  )
        12           Si  tau(  12) = (   0.8667167   0.4455333   0.8552120  )

     number of k points=    12  gaussian smearing, width (Ry)=  0.1000
                       cart. coord. in units 2pi/alat
        k(    1) = (   0.0000000   0.0000000   0.0000000), wk =   0.0833333
        k(    2) = (   0.0000000   0.0000000   0.1150103), wk =   0.1666667
        k(    3) = (   0.0000000   0.0000000  -0.2300205), wk =   0.0833333
        k(    4) = (   0.0000000   0.2240806   0.0000000), wk =   0.1666667
        k(    5) = (   0.0000000   0.2240806   0.1150103), wk =   0.3333333
        k(    6) = (   0.0000000   0.2240806  -0.2300205), wk =   0.1666667
        k(    7) = (  -0.4326673   0.0000000   0.0000000), wk =   0.0833333
        k(    8) = (  -0.4326673   0.0000000   0.1150103), wk =   0.1666667
        k(    9) = (  -0.4326673   0.0000000  -0.2300205), wk =   0.0833333
        k(   10) = (  -0.4326673   0.2240806   0.0000000), wk =   0.1666667
        k(   11) = (  -0.4326673   0.2240806   0.1150103), wk =   0.3333333
        k(   12) = (  -0.4326673   0.2240806  -0.2300205), wk =   0.1666667

     Largest allocated arrays     est. size (Mb)     dimensions
     Largest temporary arrays     est. size (Mb)     dimensions

     Initial potential from superposition of free atoms

     Starting from uniform charge
     Starting wfc are    0 randomized atomic wfcs

     Writing output data file Prototype-La-oP12-Co2Si.save

     Self-consistent Calculation

[...]

     negative rho (up, down):  0.178E-05 0.000E+00

[...]

     iteration #  9     ecut=    40.00 Ry     beta=0.70
     CG style diagonalization
     ethr =  3.39E-05,  avg # of iterations =  3.5

[...]

     total energy              =   -1316.19300718 Ry
     Harris-Foulkes estimate   =   -1316.19482469 Ry
     estimated scf accuracy    <       0.00372932 Ry

     iteration # 11     ecut=    40.00 Ry     beta=0.70
     CG style diagonalization
     c_bands:  1 eigenvalues not converged
     c_bands:  1 eigenvalues not converged
     c_bands:  1 eigenvalues not converged
     ethr =  2.27E-06,  avg # of iterations =  3.8

     End of self-consistent calculation

[...]

          k = 0.0000 0.2241-0.2300 (  5500 PWs)   bands (ev):

[...]

          k =-0.4327 0.2241-0.2300 (  5524 PWs)   bands (ev):

   -34.0910 -34.0910 -34.0871 -34.0871  -9.0972  -9.0972  -8.8098  -8.8098
    -8.1379  -8.1379  -7.9547  -7.9547  -7.1210  -7.1210  -7.1123  -7.1123
    -7.0351  -7.0351  -6.9830  -6.9830  -6.4203  -6.4203  -6.3765  -6.3765
     7.4903   7.4903   7.9847   7.9847   8.2595   8.2595   8.4814   8.4814
     8.6645   8.6645   9.6481   9.6481  10.1411  10.1411  10.4564  10.4565
    10.7959  10.7959  10.8255  10.8255  11.2267  11.2267  11.3382  11.3382
    22.7295  22.7295  23.1822  23.1823  23.5843  23.5843  23.9502  23.9502
    24.2818  24.2818  24.5552  24.5552  24.8802  24.8801  25.0299  25.0299
    25.6403  25.6403  25.7898  25.7898  27.1343  27.1343  27.4537  27.4537
    27.8422  27.8422  28.2051  28.2051  28.3896  28.3896  29.0336  29.0336
    29.1247  29.1247  30.0688  30.0688  30.1561  30.1561  31.0266  31.0267
    31.0849  31.0850  32.0042  32.0042  32.2296  32.2296  32.8794  32.8798
    33.0019  33.0017

     the Fermi energy is    29.9468 ev

!    total energy              =   -1316.19375006 Ry
     Harris-Foulkes estimate   =   -1316.19379782 Ry
     estimated scf accuracy    <       0.00005339 Ry

     The total energy is the sum of the following terms:

     one-electron contribution =     114.09806548 Ry
     hartree contribution      =     108.79431433 Ry
     xc contribution           =    -160.77741654 Ry
     ewald contribution        =   -1377.73206974 Ry
     smearing contrib. (-TS)   =      -0.57664359 Ry

     convergence has been achieved in  11 iterations

     Forces acting on atoms (Ry/au):

     atom    1 type  1   force =     0.00000000   -0.02331250   -0.02141463
     atom    2 type  1   force =     0.00000000    0.02331250    0.02141463
     atom    3 type  1   force =     0.00000000   -0.02331250    0.02141463
     atom    4 type  1   force =     0.00000000    0.02331250   -0.02141463
     atom    5 type  1   force =     0.00000000    0.03291083   -0.07888378
     atom    6 type  1   force =     0.00000000   -0.03291083    0.07888378
     atom    7 type  1   force =     0.00000000    0.03291083    0.07888378
     atom    8 type  1   force =     0.00000000   -0.03291083   -0.07888378
     atom    9 type  2   force =     0.00000000   -0.08429690    0.01315099
     atom   10 type  2   force =     0.00000000    0.08429690   -0.01315099
     atom   11 type  2   force =     0.00000000   -0.08429690   -0.01315099
     atom   12 type  2   force =     0.00000000    0.08429690    0.01315099

     Total force =     0.249694     Total SCF correction =     0.000000

     entering subroutine stress ...

          total   stress  (Ry/bohr**3)                   (kbar)     P= 1316.56
   0.00961530   0.00000000   0.00000000       1414.46      0.00      0.00
   0.00000000   0.00832764   0.00000000          0.00   1225.04      0.00
   0.00000000   0.00000000   0.00890654          0.00      0.00   1310.20

     Writing output data file Prototype-La-oP12-Co2Si.save

     General routines

     Parallel routines

   This run was terminated on:   0:51:43  22Mar2018

   JOB DONE.