     Program PWSCF v.5.0.2 starts on 22Mar2018 at  0:35:15

     Current dimensions of program PWSCF are:
     Max number of different atomic species (ntypx) = 10
     Max number of k-points (npk) =  40000
     Max angular momentum in pseudopotentials (lmaxx) =  3
     Waiting for input...
     Reading input from standard input

     Subspace diagonalization in iterative solution of the eigenvalue problem:
     a serial algorithm will be used

     bravais-lattice index     =            0
     lattice parameter (alat)  =       8.5346  a.u.
     unit-cell volume          =     621.6493 (a.u.)^3
     number of atoms/cell      =            8
     number of atomic types    =            2
     number of electrons       =       106.00
     number of Kohn-Sham states=           64
     kinetic-energy cutoff     =      40.0000  Ry
     charge density cutoff     =     160.0000  Ry
     convergence threshold     =      1.0E-04
     mixing beta               =       0.7000
     number of iterations used =            8  plain     mixing
     Exchange-correlation      = SLA-PZ-NOGX-NOGC ( 1 1 0 0 0)
     EXX-fraction              =        0.00
     nstep                     =           50

     celldm(1)=   8.534573  celldm(2)=   0.000000  celldm(3)=   0.000000
     celldm(4)=   0.000000  celldm(5)=   0.000000  celldm(6)=   0.000000

     crystal axes: (cart. coord. in units of alat)
               a(1) = (   1.000000   0.000000   0.000000 )
               a(2) = (   0.000000   1.000000   0.000000 )
               a(3) = (   0.000000   0.000000   1.000000 )

     reciprocal axes: (cart. coord. in units 2 pi/alat)
               b(1) = (  1.000000  0.000000  0.000000 )
               b(2) = (  0.000000  1.000000  0.000000 )
               b(3) = (  0.000000  0.000000  1.000000 )

     PseudoPot. # 1 for Ce read from file:
     /home/jld5415/pp.La/Ce.UPF
     MD5 check sum: 44451aa79a44a00cf2bc029dc19922f6
     Pseudo is Norm-conserving, Zval = 12.0
     Generated in analytical, separable form
     Using radial grid of 1255 points,  6 beta functions with:
                l(1) =   0
                l(2) =   0
                l(3) =   1
                l(4) =   1
                l(5) =   2
                l(6) =   3

     PseudoPot. # 2 for Eu read from file:
     /home/jld5415/pp.La/Eu.UPF
     MD5 check sum: 5efdbbfc50c6a10138933a6429836ad2
     Pseudo is Norm-conserving, Zval = 17.0
     Generated in analytical, separable form
     Using radial grid of 1261 points,  6 beta functions with:
                l(1) =   0
                l(2) =   0
                l(3) =   1
                l(4) =   1
                l(5) =   2
                l(6) =   3

     atomic species   valence    mass     pseudopotential
        Cr            12.00    51.99610     Ce( 1.00)
        Si            17.00    28.08550     Eu( 1.00)

     48 Sym. Ops., with inversion, found (24 have fractional translation)

   Cartesian axes

     site n.     atom                  positions (alat units)
         1           Cr  tau(   1) = (   0.0000000   0.5000000   0.2500000  )
         2           Cr  tau(   2) = (   0.0000000   0.5000000   0.7500000  )
         3           Cr  tau(   3) = (   0.5000000   0.7500000   0.0000000  )
         4           Cr  tau(   4) = (   0.5000000   0.2500000   0.0000000  )
         5           Cr  tau(   5) = (   0.7500000   0.0000000   0.5000000  )
         6           Cr  tau(   6) = (   0.2500000   0.0000000   0.5000000  )
         7           Si  tau(   7) = (   0.5000000   0.5000000   0.5000000  )
         8           Si  tau(   8) = (   0.0000000   0.0000000   0.0000000  )

     number of k points=    48  gaussian smearing, width (Ry)=  0.1000
                       cart. coord. in units 2pi/alat
        k(    1) = (   0.0000000   0.0000000   0.0000000), wk =   0.0095238
        k(    2) = (   0.0000000   0.0000000   0.1428571), wk =   0.0190476
        k(    3) = (   0.0000000   0.0000000   0.2857143), wk =   0.0190476
        k(    4) = (   0.0000000   0.0000000   0.4285714), wk =   0.0190476
        k(    5) = (   0.0000000   0.1666667   0.0000000), wk =   0.0190476
        k(    6) = (   0.0000000   0.1666667   0.1428571), wk =   0.0380952
        k(    7) = (   0.0000000   0.1666667   0.2857143), wk =   0.0380952
        k(    8) = (   0.0000000   0.1666667   0.4285714), wk =   0.0380952
        k(    9) = (   0.0000000   0.3333333   0.0000000), wk =   0.0190476
        k(   10) = (   0.0000000   0.3333333   0.1428571), wk =   0.0380952
        k(   11) = (   0.0000000   0.3333333   0.2857143), wk =   0.0380952
        k(   12) = (   0.0000000   0.3333333   0.4285714), wk =   0.0380952
        k(   13) = (   0.0000000  -0.5000000   0.0000000), wk =   0.0095238
        k(   14) = (   0.0000000  -0.5000000   0.1428571), wk =   0.0190476
        k(   15) = (   0.0000000  -0.5000000   0.2857143), wk =   0.0190476
        k(   16) = (   0.0000000  -0.5000000   0.4285714), wk =   0.0190476
        k(   17) = (   0.2000000   0.0000000   0.0000000), wk =   0.0190476
        k(   18) = (   0.2000000   0.0000000   0.1428571), wk =   0.0380952
        k(   19) = (   0.2000000   0.0000000   0.2857143), wk =   0.0380952
        k(   20) = (   0.2000000   0.0000000   0.4285714), wk =   0.0380952
        k(   21) = (   0.2000000   0.1666667   0.0000000), wk =   0.0380952
        k(   22) = (   0.2000000   0.1666667   0.1428571), wk =   0.0761905
        k(   23) = (   0.2000000   0.1666667   0.2857143), wk =   0.0761905
        k(   24) = (   0.2000000   0.1666667   0.4285714), wk =   0.0761905
        k(   25) = (   0.2000000   0.3333333   0.0000000), wk =   0.0380952
        k(   26) = (   0.2000000   0.3333333   0.1428571), wk =   0.0761905
        k(   27) = (   0.2000000   0.3333333   0.2857143), wk =   0.0761905
        k(   28) = (   0.2000000   0.3333333   0.4285714), wk =   0.0761905
        k(   29) = (   0.2000000  -0.5000000   0.0000000), wk =   0.0190476
        k(   30) = (   0.2000000  -0.5000000   0.1428571), wk =   0.0380952
        k(   31) = (   0.2000000  -0.5000000   0.2857143), wk =   0.0380952
        k(   32) = (   0.2000000  -0.5000000   0.4285714), wk =   0.0380952
        k(   33) = (   0.4000000   0.0000000   0.0000000), wk =   0.0190476
        k(   34) = (   0.4000000   0.0000000   0.1428571), wk =   0.0380952
        k(   35) = (   0.4000000   0.0000000   0.2857143), wk =   0.0380952
        k(   36) = (   0.4000000   0.0000000   0.4285714), wk =   0.0380952
        k(   37) = (   0.4000000   0.1666667   0.0000000), wk =   0.0380952
        k(   38) = (   0.4000000   0.1666667   0.1428571), wk =   0.0761905
        k(   39) = (   0.4000000   0.1666667   0.2857143), wk =   0.0761905
        k(   40) = (   0.4000000   0.1666667   0.4285714), wk =   0.0761905
        k(   41) = (   0.4000000   0.3333333   0.0000000), wk =   0.0380952
        k(   42) = (   0.4000000   0.3333333   0.1428571), wk =   0.0761905
        k(   43) = (   0.4000000   0.3333333   0.2857143), wk =   0.0761905
        k(   44) = (   0.4000000   0.3333333   0.4285714), wk =   0.0761905
        k(   45) = (   0.4000000  -0.5000000   0.0000000), wk =   0.0190476
        k(   46) = (   0.4000000  -0.5000000   0.1428571), wk =   0.0380952
        k(   47) = (   0.4000000  -0.5000000   0.2857143), wk =   0.0380952
        k(   48) = (   0.4000000  -0.5000000   0.4285714), wk =   0.0380952

     Largest allocated arrays     est. size (Mb)     dimensions
     Largest temporary arrays     est. size (Mb)     dimensions

     Initial potential from superposition of free atoms

     Starting from uniform charge
     Starting wfc are    0 randomized atomic wfcs

     Self-consistent Calculation

     iteration #  1     ecut=    40.00 Ry     beta=0.70
     CG style diagonalization
     c_bands:  1 eigenvalues not converged
     c_bands:  3 eigenvalues not converged
     c_bands:  1 eigenvalues not converged
     c_bands:  1 eigenvalues not converged
     c_bands:  5 eigenvalues not converged
     c_bands:  2 eigenvalues not converged
     c_bands:  2 eigenvalues not converged
     c_bands:  1 eigenvalues not converged
     c_bands:  3 eigenvalues not converged
     c_bands:  3 eigenvalues not converged
     c_bands:  4 eigenvalues not converged
     c_bands:  1 eigenvalues not converged
     c_bands:  1 eigenvalues not converged
     c_bands:  1 eigenvalues not converged
     c_bands:  1 eigenvalues not converged
     c_bands:  1 eigenvalues not converged
     c_bands:  1 eigenvalues not converged
     c_bands:  1 eigenvalues not converged
     c_bands:  2 eigenvalues not converged
     c_bands:  5 eigenvalues not converged
     c_bands:  1 eigenvalues not converged
     c_bands:  2 eigenvalues not converged
     c_bands:  2 eigenvalues not converged
     c_bands:  3 eigenvalues not converged
     c_bands:  1 eigenvalues not converged
     c_bands:  2 eigenvalues not converged
     c_bands:  1 eigenvalues not converged
     ethr =  1.00E-02,  avg # of iterations = 13.0

     total energy              =    -565.61226275 Ry
     Harris-Foulkes estimate   =    -896.67988380 Ry
     estimated scf accuracy    <     405.19964619 Ry

[...]

     iteration #  4     ecut=    40.00 Ry     beta=0.70
     CG style diagonalization
     ethr =  1.00E-02,  avg # of iterations =  3.7

[...]

     End of self-consistent calculation

          k = 0.0000 0.0000 0.0000 (  2601 PWs)   bands (ev):

   -24.0809 -24.0525  -1.3013   0.7767   0.7767   1.6063   1.6063   1.6063
     2.3560   2.3560   2.3560   5.0636   5.0636   5.0636  12.7428  12.7428
    14.4403  16.6311  16.6311  16.6311  18.9215  18.9215  18.9215  21.6789
    21.6789  21.6789  21.7172  21.7172  21.7172  28.0789  28.0789  28.0789
    33.0167  33.0167  33.8904  33.8904  33.8904  34.4584  34.6492  35.4238
    35.4238  35.8218  35.8218  35.8218  36.4137  36.6552  36.6552  36.6552
    39.0822  39.0822  39.0822  39.8552  39.8552  43.0690  43.0690  43.0690
    43.3141  43.5663  43.5663  44.5428  44.5428  44.5428  45.9280  45.9281

[...]

     the Fermi energy is    41.8778 ev

!    total energy              =    -807.44635180 Ry
     Harris-Foulkes estimate   =    -807.44635338 Ry
     estimated scf accuracy    <       0.00000172 Ry

     The total energy is the sum of the following terms:

     one-electron contribution =     220.99590677 Ry
     hartree contribution      =      40.63244169 Ry
     xc contribution           =    -107.47766532 Ry
     ewald contribution        =    -961.32419065 Ry
     smearing contrib. (-TS)   =      -0.27284429 Ry

     convergence has been achieved in   9 iterations

     Forces acting on atoms (Ry/au):

     atom    1 type  1   force =     0.00000000    0.00000000    0.00000000
     atom    2 type  1   force =     0.00000000    0.00000000    0.00000000
     atom    3 type  1   force =     0.00000000    0.00000000    0.00000000
     atom    4 type  1   force =     0.00000000    0.00000000    0.00000000
     atom    5 type  1   force =     0.00000000    0.00000000    0.00000000
     atom    6 type  1   force =     0.00000000    0.00000000    0.00000000
     atom    7 type  2   force =     0.00000000    0.00000000    0.00000000
[...]
        k(   45) = (   0.3635474  -0.4544343   0.0000000), wk =   0.0190476
        k(   46) = (   0.3635474  -0.4544343   0.1298384), wk =   0.0380952
        k(   47) = (   0.3635474  -0.4544343   0.2596767), wk =   0.0380952
        k(   48) = (   0.3635474  -0.4544343   0.3895151), wk =   0.0380952

[...]

     enthalpy old            =    -807.4463518011 Ry
     enthalpy new            =    -811.2628460914 Ry

     CASE: enthalpy_new < enthalpy_old

     small trust_radius: resetting bfgs history

     new trust radius        =       1.2833992482 bohr
     new conv_thr            =       0.0000010000 Ry

[...]

     number of scf cycles    =   3
     number of bfgs steps    =   2

     enthalpy old            =    -811.2628460914 Ry
     enthalpy new            =    -810.1996089186 Ry

     CASE: enthalpy_new > enthalpy_old

     new trust radius        =       0.5839932993 bohr

     trust_radius < trust_radius_min

     resetting bfgs history

     Message from routine bfgs:
     history already reset at previous step: stopping
     new conv_thr            =       0.0000010000 Ry

     new unit-cell volume =   1038.90528 a.u.^3 (   153.94988 Ang^3 )

[...]

ATOMIC_POSITIONS (crystal)
Cr       0.000000000   0.500000000   0.250000000
Cr       0.000000000   0.500000000   0.750000000
Cr       0.500000000   0.750000000   0.000000000
Cr       0.500000000   0.250000000   0.000000000
Cr       0.750000000   0.000000000   0.500000000
Cr       0.250000000   0.000000000   0.500000000
Si       0.500000000   0.500000000   0.500000000
Si       0.000000000   0.000000000   0.000000000

     Writing output data file Prototype-La-cP8-Cr3Si.save
     NEW-OLD atomic charge density approx. for the potential
     NEW k-points:
        k(    1) = (   0.0000000   0.0000000   0.0000000), wk =   0.0095238
        k(    2) = (   0.0000000   0.0000000   0.1203811), wk =   0.0190476
        k(    3) = (   0.0000000   0.0000000   0.2407623), wk =   0.0190476
        k(    4) = (   0.0000000   0.0000000   0.3611434), wk =   0.0190476
        k(    5) = (   0.0000000   0.1404447   0.0000000), wk =   0.0190476
        k(    6) = (   0.0000000   0.1404447   0.1203811), wk =   0.0380952
        k(    7) = (   0.0000000   0.1404447   0.2407623), wk =   0.0380952
        k(    8) = (   0.0000000   0.1404447   0.3611434), wk =   0.0380952
        k(    9) = (   0.0000000   0.2808893   0.0000000), wk =   0.0190476
        k(   10) = (   0.0000000   0.2808893   0.1203811), wk =   0.0380952
        k(   11) = (   0.0000000   0.2808893   0.2407623), wk =   0.0380952
        k(   12) = (   0.0000000   0.2808893   0.3611434), wk =   0.0380952
        k(   13) = (   0.0000000  -0.4213340   0.0000000), wk =   0.0095238
        k(   14) = (   0.0000000  -0.4213340   0.1203811), wk =   0.0190476
        k(   15) = (   0.0000000  -0.4213340   0.2407623), wk =   0.0190476
        k(   16) = (   0.0000000  -0.4213340   0.3611434), wk =   0.0190476
        k(   17) = (   0.1685336   0.0000000   0.0000000), wk =   0.0190476
        k(   18) = (   0.1685336   0.0000000   0.1203811), wk =   0.0380952
        k(   19) = (   0.1685336   0.0000000   0.2407623), wk =   0.0380952
        k(   20) = (   0.1685336   0.0000000   0.3611434), wk =   0.0380952
        k(   21) = (   0.1685336   0.1404447   0.0000000), wk =   0.0380952
        k(   22) = (   0.1685336   0.1404447   0.1203811), wk =   0.0761905
        k(   23) = (   0.1685336   0.1404447   0.2407623), wk =   0.0761905
        k(   24) = (   0.1685336   0.1404447   0.3611434), wk =   0.0761905
        k(   25) = (   0.1685336   0.2808893   0.0000000), wk =   0.0380952
        k(   26) = (   0.1685336   0.2808893   0.1203811), wk =   0.0761905
        k(   27) = (   0.1685336   0.2808893   0.2407623), wk =   0.0761905
        k(   28) = (   0.1685336   0.2808893   0.3611434), wk =   0.0761905
        k(   29) = (   0.1685336  -0.4213340   0.0000000), wk =   0.0190476
        k(   30) = (   0.1685336  -0.4213340   0.1203811), wk =   0.0380952
        k(   31) = (   0.1685336  -0.4213340   0.2407623), wk =   0.0380952
        k(   32) = (   0.1685336  -0.4213340   0.3611434), wk =   0.0380952
        k(   33) = (   0.3370672   0.0000000   0.0000000), wk =   0.0190476
        k(   34) = (   0.3370672   0.0000000   0.1203811), wk =   0.0380952
        k(   35) = (   0.3370672   0.0000000   0.2407623), wk =   0.0380952
        k(   36) = (   0.3370672   0.0000000   0.3611434), wk =   0.0380952
        k(   37) = (   0.3370672   0.1404447   0.0000000), wk =   0.0380952
        k(   38) = (   0.3370672   0.1404447   0.1203811), wk =   0.0761905
        k(   39) = (   0.3370672   0.1404447   0.2407623), wk =   0.0761905
        k(   40) = (   0.3370672   0.1404447   0.3611434), wk =   0.0761905
        k(   41) = (   0.3370672   0.2808893   0.0000000), wk =   0.0380952
        k(   42) = (   0.3370672   0.2808893   0.1203811), wk =   0.0761905
        k(   43) = (   0.3370672   0.2808893   0.2407623), wk =   0.0761905
        k(   44) = (   0.3370672   0.2808893   0.3611434), wk =   0.0761905
        k(   45) = (   0.3370672  -0.4213340   0.0000000), wk =   0.0190476
        k(   46) = (   0.3370672  -0.4213340   0.1203811), wk =   0.0380952
        k(   47) = (   0.3370672  -0.4213340   0.2407623), wk =   0.0380952
        k(   48) = (   0.3370672  -0.4213340   0.3611434), wk =   0.0380952

[...]

     The maximum number of steps has been reached.

     End of BFGS Geometry Optimization
Begin final coordinates
     new unit-cell volume =   1038.90528 a.u.^3 (   153.94988 Ang^3 )

CELL_PARAMETERS (alat=  8.53457320)
   1.186707017   0.000000000   0.000000000
   0.000000000   1.186707017   0.000000000
   0.000000000   0.000000000   1.186707017

ATOMIC_POSITIONS (crystal)
Cr       0.000000000   0.500000000   0.250000000
Cr       0.000000000   0.500000000   0.750000000
Cr       0.500000000   0.750000000   0.000000000
Cr       0.500000000   0.250000000   0.000000000
Cr       0.750000000   0.000000000   0.500000000
Cr       0.250000000   0.000000000   0.500000000
Si       0.500000000   0.500000000   0.500000000
Si       0.000000000   0.000000000   0.000000000
End final coordinates

     A final scf calculation at the relaxed structure.
     The G-vectors are recalculated for the final unit cell
     Results may differ from those at the preceding step.

     bravais-lattice index     =            0
     lattice parameter (alat)  =       8.5346  a.u.
     unit-cell volume          =    1038.9053 (a.u.)^3
     number of atoms/cell      =            8
     number of atomic types    =            2
     number of electrons       =       106.00
     number of Kohn-Sham states=           64
     kinetic-energy cutoff     =      40.0000  Ry
     charge density cutoff     =     160.0000  Ry
     convergence threshold     =      1.0E-06
     mixing beta               =       0.7000
     number of iterations used =            8  plain     mixing
     Exchange-correlation      = SLA-PZ-NOGX-NOGC ( 1 1 0 0 0)
     EXX-fraction              =        0.00

     celldm(1)=   8.534573  celldm(2)=   0.000000  celldm(3)=   0.000000
     celldm(4)=   0.000000  celldm(5)=   0.000000  celldm(6)=   0.000000

     crystal axes: (cart. coord. in units of alat)
               a(1) = (   1.186707   0.000000   0.000000 )
               a(2) = (   0.000000   1.186707   0.000000 )
               a(3) = (   0.000000   0.000000   1.186707 )

     reciprocal axes: (cart. coord. in units 2 pi/alat)
               b(1) = (  0.842668  0.000000  0.000000 )
               b(2) = (  0.000000  0.842668  0.000000 )
               b(3) = (  0.000000  0.000000  0.842668 )

     PseudoPot. # 1 for Ce read from file:
     /home/jld5415/pp.La/Ce.UPF
     MD5 check sum: 44451aa79a44a00cf2bc029dc19922f6
     Pseudo is Norm-conserving, Zval = 12.0
     Generated in analytical, separable form
     Using radial grid of 1255 points,  6 beta functions with:
                l(1) =   0
                l(2) =   0
                l(3) =   1
                l(4) =   1
                l(5) =   2
                l(6) =   3

     PseudoPot. # 2 for Eu read from file:
     /home/jld5415/pp.La/Eu.UPF
     MD5 check sum: 5efdbbfc50c6a10138933a6429836ad2
     Pseudo is Norm-conserving, Zval = 17.0
     Generated in analytical, separable form
     Using radial grid of 1261 points,  6 beta functions with:
                l(1) =   0
                l(2) =   0
                l(3) =   1
                l(4) =   1
                l(5) =   2
                l(6) =   3

     atomic species   valence    mass     pseudopotential
        Cr            12.00    51.99610     Ce( 1.00)
        Si            17.00    28.08550     Eu( 1.00)

     48 Sym. Ops., with inversion, found (24 have fractional translation)

   Cartesian axes

     site n.     atom                  positions (alat units)
         1           Cr  tau(   1) = (   0.0000000   0.5933535   0.2966768  )
         2           Cr  tau(   2) = (   0.0000000   0.5933535   0.8900303  )
         3           Cr  tau(   3) = (   0.5933535   0.8900303   0.0000000  )
         4           Cr  tau(   4) = (   0.5933535   0.2966768   0.0000000  )
         5           Cr  tau(   5) = (   0.8900303   0.0000000   0.5933535  )
         6           Cr  tau(   6) = (   0.2966768   0.0000000   0.5933535  )
         7           Si  tau(   7) = (   0.5933535   0.5933535   0.5933535  )
         8           Si  tau(   8) = (   0.0000000   0.0000000   0.0000000  )

     number of k points=    48  gaussian smearing, width (Ry)=  0.1000
                       cart. coord. in units 2pi/alat
        k(    1) = (   0.0000000   0.0000000   0.0000000), wk =   0.0095238
        k(    2) = (   0.0000000   0.0000000   0.1203811), wk =   0.0190476
        k(    3) = (   0.0000000   0.0000000   0.2407623), wk =   0.0190476
        k(    4) = (   0.0000000   0.0000000   0.3611434), wk =   0.0190476
        k(    5) = (   0.0000000   0.1404447   0.0000000), wk =   0.0190476
        k(    6) = (   0.0000000   0.1404447   0.1203811), wk =   0.0380952
        k(    7) = (   0.0000000   0.1404447   0.2407623), wk =   0.0380952
        k(    8) = (   0.0000000   0.1404447   0.3611434), wk =   0.0380952
        k(    9) = (   0.0000000   0.2808893   0.0000000), wk =   0.0190476
        k(   10) = (   0.0000000   0.2808893   0.1203811), wk =   0.0380952
        k(   11) = (   0.0000000   0.2808893   0.2407623), wk =   0.0380952
        k(   12) = (   0.0000000   0.2808893   0.3611434), wk =   0.0380952
        k(   13) = (   0.0000000  -0.4213340   0.0000000), wk =   0.0095238
        k(   14) = (   0.0000000  -0.4213340   0.1203811), wk =   0.0190476
        k(   15) = (   0.0000000  -0.4213340   0.2407623), wk =   0.0190476
        k(   16) = (   0.0000000  -0.4213340   0.3611434), wk =   0.0190476
        k(   17) = (   0.1685336   0.0000000   0.0000000), wk =   0.0190476
        k(   18) = (   0.1685336   0.0000000   0.1203811), wk =   0.0380952
        k(   19) = (   0.1685336   0.0000000   0.2407623), wk =   0.0380952
        k(   20) = (   0.1685336   0.0000000   0.3611434), wk =   0.0380952
        k(   21) = (   0.1685336   0.1404447   0.0000000), wk =   0.0380952
        k(   22) = (   0.1685336   0.1404447   0.1203811), wk =   0.0761905
        k(   23) = (   0.1685336   0.1404447   0.2407623), wk =   0.0761905
        k(   24) = (   0.1685336   0.1404447   0.3611434), wk =   0.0761905
        k(   25) = (   0.1685336   0.2808893   0.0000000), wk =   0.0380952
        k(   26) = (   0.1685336   0.2808893   0.1203811), wk =   0.0761905
        k(   27) = (   0.1685336   0.2808893   0.2407623), wk =   0.0761905
        k(   28) = (   0.1685336   0.2808893   0.3611434), wk =   0.0761905
        k(   29) = (   0.1685336  -0.4213340   0.0000000), wk =   0.0190476
        k(   30) = (   0.1685336  -0.4213340   0.1203811), wk =   0.0380952
        k(   31) = (   0.1685336  -0.4213340   0.2407623), wk =   0.0380952
        k(   32) = (   0.1685336  -0.4213340   0.3611434), wk =   0.0380952
        k(   33) = (   0.3370672   0.0000000   0.0000000), wk =   0.0190476
        k(   34) = (   0.3370672   0.0000000   0.1203811), wk =   0.0380952
        k(   35) = (   0.3370672   0.0000000   0.2407623), wk =   0.0380952
        k(   36) = (   0.3370672   0.0000000   0.3611434), wk =   0.0380952
        k(   37) = (   0.3370672   0.1404447   0.0000000), wk =   0.0380952
        k(   38) = (   0.3370672   0.1404447   0.1203811), wk =   0.0761905
        k(   39) = (   0.3370672   0.1404447   0.2407623), wk =   0.0761905
        k(   40) = (   0.3370672   0.1404447   0.3611434), wk =   0.0761905
        k(   41) = (   0.3370672   0.2808893   0.0000000), wk =   0.0380952
        k(   42) = (   0.3370672   0.2808893   0.1203811), wk =   0.0761905
        k(   43) = (   0.3370672   0.2808893   0.2407623), wk =   0.0761905
        k(   44) = (   0.3370672   0.2808893   0.3611434), wk =   0.0761905
        k(   45) = (   0.3370672  -0.4213340   0.0000000), wk =   0.0190476
        k(   46) = (   0.3370672  -0.4213340   0.1203811), wk =   0.0380952
        k(   47) = (   0.3370672  -0.4213340   0.2407623), wk =   0.0380952
        k(   48) = (   0.3370672  -0.4213340   0.3611434), wk =   0.0380952

     Largest allocated arrays     est. size (Mb)     dimensions
     Largest temporary arrays     est. size (Mb)     dimensions

     Initial potential from superposition of free atoms

     Starting from uniform charge
     Starting wfc are    0 randomized atomic wfcs

     Writing output data file Prototype-La-cP8-Cr3Si.save

     Self-consistent Calculation

[...]

     negative rho (up, down):  0.513E-04 0.000E+00

[...]

     negative rho (up, down):  0.472E-04 0.000E+00

[...]

     iteration # 16     ecut=    40.00 Ry     beta=0.70
     CG style diagonalization
     c_bands:  1 eigenvalues not converged
     ethr =  1.05E-08,  avg # of iterations =  6.3

[...]

     total energy              =    -813.38660174 Ry
     Harris-Foulkes estimate   =    -813.38660219 Ry
     estimated scf accuracy    <       0.00000164 Ry

     iteration # 19     ecut=    40.00 Ry     beta=0.70
     CG style diagonalization
     ethr =  1.55E-09,  avg # of iterations =  3.4

     End of self-consistent calculation

[...]

          k = 0.3371-0.4213 0.3611 (  4452 PWs)   bands (ev):

   -39.1797 -39.1797 -13.8552 -13.8153 -13.6493 -13.6488 -13.4926 -13.4467
   -11.9664 -11.9657 -11.9413 -11.9391 -11.9183 -11.9120   2.9508   3.1317
     3.2285   3.2599   3.6535   3.6655   4.0254   4.1064   4.5219   4.5654
     4.7259   4.7460   4.9477   4.9581   5.0228   5.0385   5.0464   5.1140
    18.9230  18.9489  19.1049  19.1296  19.3093  19.4233  19.5297  19.5393
    19.5993  19.6198  21.4155  21.4251  21.9047  21.9149  22.4807  22.6409
    22.9824  22.9958  24.1521  24.1802  24.6983  24.7009  25.1078  25.1311
    26.3324  26.5359  26.7082  26.8974  27.0711  27.1026  27.7321  27.7616

     the Fermi energy is    24.1717 ev

!    total energy              =    -813.38660147 Ry
     Harris-Foulkes estimate   =    -813.38660192 Ry
     estimated scf accuracy    <       0.00000050 Ry

     The total energy is the sum of the following terms:

     one-electron contribution =      20.77489052 Ry
     hartree contribution      =      75.90845651 Ry
     xc contribution           =     -99.51089227 Ry
     ewald contribution        =    -810.07710996 Ry
     smearing contrib. (-TS)   =      -0.48194627 Ry

     convergence has been achieved in  19 iterations

     Forces acting on atoms (Ry/au):

     atom    1 type  1   force =     0.00000000    0.00000000    0.00000000
     atom    2 type  1   force =     0.00000000    0.00000000    0.00000000
     atom    3 type  1   force =     0.00000000    0.00000000    0.00000000
     atom    4 type  1   force =     0.00000000    0.00000000    0.00000000
     atom    5 type  1   force =     0.00000000    0.00000000    0.00000000
     atom    6 type  1   force =     0.00000000    0.00000000    0.00000000
     atom    7 type  2   force =     0.00000000    0.00000000    0.00000000
     atom    8 type  2   force =     0.00000000    0.00000000    0.00000000

     Total force =     0.000000     Total SCF correction =     0.000000

     entering subroutine stress ...

          total   stress  (Ry/bohr**3)                   (kbar)     P=  504.95
   0.00343261   0.00000000   0.00000000        504.95      0.00      0.00
   0.00000000   0.00343261   0.00000000          0.00    504.95      0.00
   0.00000000   0.00000000   0.00343261          0.00      0.00    504.95

     Writing output data file Prototype-La-cP8-Cr3Si.save

     General routines

     Parallel routines

   This run was terminated on:   1: 1: 0  22Mar2018

   JOB DONE.