     Program PWSCF v.5.0.2 starts on 22Mar2018 at  0:35:17

     Current dimensions of program PWSCF are:
     Max number of different atomic species (ntypx) = 10
     Max number of k-points (npk) =  40000
     Max angular momentum in pseudopotentials (lmaxx) =  3
     Waiting for input...
     Reading input from standard input

     Subspace diagonalization in iterative solution of the eigenvalue problem:
     a serial algorithm will be used

     bravais-lattice index     =            0
     lattice parameter (alat)  =       8.8008  a.u.
     unit-cell volume          =    1116.9454 (a.u.)^3
     number of atoms/cell      =           16
     number of atomic types    =            2
     number of electrons       =       212.00
     number of Kohn-Sham states=          127
     kinetic-energy cutoff     =      40.0000  Ry
     charge density cutoff     =     160.0000  Ry
     convergence threshold     =      1.0E-04
     mixing beta               =       0.7000
     number of iterations used =            8  plain     mixing
     Exchange-correlation      = SLA-PZ-NOGX-NOGC ( 1 1 0 0 0)
     EXX-fraction              =        0.00
     nstep                     =           50

     celldm(1)=   8.800765  celldm(2)=   0.000000  celldm(3)=   0.000000
     celldm(4)=   0.000000  celldm(5)=   0.000000  celldm(6)=   0.000000

     crystal axes: (cart. coord. in units of alat)
               a(1) = (   1.000000   0.000000   0.000000 )
               a(2) = (   0.000000   1.083771   0.000000 )
               a(3) = (   0.000000   0.000000   1.511935 )

     reciprocal axes: (cart. coord. in units 2 pi/alat)
               b(1) = (  1.000000  0.000000  0.000000 )
               b(2) = (  0.000000  0.922704  0.000000 )
               b(3) = (  0.000000  0.000000  0.661404 )

     PseudoPot. # 1 for Ce read from file:
     /home/jld5415/pp.La/Ce.UPF
     MD5 check sum: 44451aa79a44a00cf2bc029dc19922f6
     Pseudo is Norm-conserving, Zval = 12.0
     Generated in analytical, separable form
     Using radial grid of 1255 points,  6 beta functions with:
                l(1) =   0
                l(2) =   0
                l(3) =   1
                l(4) =   1
                l(5) =   2
                l(6) =   3

     PseudoPot. # 2 for Eu read from file:
     /home/jld5415/pp.La/Eu.UPF
     MD5 check sum: 5efdbbfc50c6a10138933a6429836ad2
     Pseudo is Norm-conserving, Zval = 17.0
     Generated in analytical, separable form
     Using radial grid of 1261 points,  6 beta functions with:
                l(1) =   0
                l(2) =   0
                l(3) =   1
                l(4) =   1
                l(5) =   2
                l(6) =   3

     atomic species   valence    mass     pseudopotential
        Fe            12.00    55.84500     Ce( 1.00)
        C             17.00    12.01070     Eu( 1.00)

      8 Sym. Ops., with inversion, found ( 6 have fractional translation)

   Cartesian axes

     site n.     atom                  positions (alat units)
         1           Fe  tau(   1) = (   0.3472940   0.1827628   1.3947267  )
         2           Fe  tau(   2) = (   0.1527060   0.7246484   0.8731757  )
         3           Fe  tau(   3) = (   0.8472940   0.3591227   0.6387592  )
         4           Fe  tau(   4) = (   0.3396640   0.4879235   0.3779837  )
         5           Fe  tau(   5) = (   0.1527060   0.7246484   1.3947267  )
         6           Fe  tau(   6) = (   0.3472940   0.1827628   0.8731757  )
         7           Fe  tau(   7) = (   0.1603360   1.0298091   0.3779837  )
         8           Fe  tau(   8) = (   0.6527060   0.9010083   0.6387592  )
         9           Fe  tau(   9) = (   0.8472940   0.3591227   0.1172082  )
        10           Fe  tau(  10) = (   0.6603360   0.5958476   1.1339512  )
        11           Fe  tau(  11) = (   0.6527060   0.9010083   0.1172082  )
        12           Fe  tau(  12) = (   0.8396640   0.0539620   1.1339512  )
        13           C   tau(  13) = (   0.0000000   0.0000000   0.0000000  )
        14           C   tau(  14) = (   0.5000000   0.5418856   0.0000000  )
        15           C   tau(  15) = (   0.5000000   0.5418856   0.7559674  )
        16           C   tau(  16) = (   0.0000000   0.0000000   0.7559674  )

     number of k points=    12  gaussian smearing, width (Ry)=  0.1000
                       cart. coord. in units 2pi/alat
        k(    1) = (   0.0000000   0.0000000   0.0000000), wk =   0.0833333
        k(    2) = (   0.0000000   0.0000000   0.1653510), wk =   0.1666667
        k(    3) = (   0.0000000   0.0000000  -0.3307021), wk =   0.0833333
        k(    4) = (   0.0000000   0.3075680   0.0000000), wk =   0.1666667
        k(    5) = (   0.0000000   0.3075680   0.1653510), wk =   0.3333333
        k(    6) = (   0.0000000   0.3075680  -0.3307021), wk =   0.1666667
        k(    7) = (  -0.5000000   0.0000000   0.0000000), wk =   0.0833333
        k(    8) = (  -0.5000000   0.0000000   0.1653510), wk =   0.1666667
        k(    9) = (  -0.5000000   0.0000000  -0.3307021), wk =   0.0833333
        k(   10) = (  -0.5000000   0.3075680   0.0000000), wk =   0.1666667
        k(   11) = (  -0.5000000   0.3075680   0.1653510), wk =   0.3333333
        k(   12) = (  -0.5000000   0.3075680  -0.3307021), wk =   0.1666667

     Largest allocated arrays     est. size (Mb)     dimensions
     Largest temporary arrays     est. size (Mb)     dimensions

     Initial potential from superposition of free atoms

     Starting from uniform charge
     Starting wfc are    0 randomized atomic wfcs

     Self-consistent Calculation

     iteration #  1     ecut=    40.00 Ry     beta=0.70
     CG style diagonalization
     ethr =  1.00E-02,  avg # of iterations = 18.5

     total energy              =    -848.82890525 Ry
     Harris-Foulkes estimate   =   -2043.11146815 Ry
     estimated scf accuracy    <    1424.76485640 Ry

     iteration #  2     ecut=    40.00 Ry     beta=0.70
     CG style diagonalization
     c_bands:  4 eigenvalues not converged
     c_bands:  4 eigenvalues not converged
     c_bands:  5 eigenvalues not converged
     c_bands:  5 eigenvalues not converged
     c_bands:  2 eigenvalues not converged
     c_bands:  4 eigenvalues not converged
     c_bands:  5 eigenvalues not converged
     c_bands:  1 eigenvalues not converged
     c_bands:  3 eigenvalues not converged
     ethr =  1.00E-02,  avg # of iterations = 14.7

[...]

     End of self-consistent calculation

          k = 0.0000 0.0000 0.0000 (  4785 PWs)   bands (ev):

   -26.0525 -25.9819 -25.8578 -25.7915  -4.1249  -4.0778  -3.9526  -3.8686
    -3.6816  -3.3464  -1.8061  -1.7392  -1.6793  -1.6783  -1.3378  -1.2329
     3.6186   3.8641   4.5010   4.5395   4.8631   5.5591   9.7979  10.3292
    10.8645  11.5387  12.1483  12.1954  16.4939  16.9801  17.0425  17.2042
    17.7597  17.7635  18.0576  18.0782  19.9916  21.1395  21.8049  21.9643
    21.9710  22.3833  22.5373  22.9118  23.0764  23.3805  23.3949  23.5401
    24.1453  24.1833  24.6053  24.8569  25.0898  25.1195  25.9835  26.2091
    26.3158  26.7340  27.0675  27.5578  28.0371  28.0986  28.5971  28.8017
    29.7849  29.8149  29.9309  30.0134  31.6962  31.8079  32.0930  32.9203
    34.9860  35.2095  35.2786  35.8664  36.8559  38.7537  38.9793  39.1408
    39.5364  39.7535  40.1075  40.4630  41.0936  41.2650  41.3951  41.4218
    41.6414  42.4977  42.9553  42.9778  43.2101  43.4251  43.5486  43.7338
    43.8972  43.9962  44.2032  44.2914  44.5926  44.8719  45.3261  45.4042
    45.5359  45.6997  45.9357  46.3106  46.3865  46.4093  46.6994  46.7978
    47.0308  47.1565  47.2599  47.8760  48.1605  48.9101  48.9566  48.9609
    48.9799  49.2845  49.3999  49.8609  50.8121  50.8662  51.0721

[...]

          k =-0.5000 0.0000 0.0000 (  4798 PWs)   bands (ev):

[...]

     the Fermi energy is    46.1558 ev

!    total energy              =   -1592.22581186 Ry
     Harris-Foulkes estimate   =   -1592.22582925 Ry
     estimated scf accuracy    <       0.00002505 Ry

     The total energy is the sum of the following terms:

     one-electron contribution =     313.54239985 Ry
     hartree contribution      =     170.32519741 Ry
     xc contribution           =    -225.09067095 Ry
     ewald contribution        =   -1850.46353321 Ry
     smearing contrib. (-TS)   =      -0.53920496 Ry

     convergence has been achieved in  10 iterations

     Forces acting on atoms (Ry/au):

     atom    1 type  1   force =     0.91508116   -0.95893645   -1.28931005
     atom    2 type  1   force =    -0.91508116   -0.95893645    1.28931005
     atom    3 type  1   force =     0.91508116    0.95893645   -1.28931005
     atom    4 type  1   force =    -1.56411214   -0.57380354    0.00000000
     atom    5 type  1   force =    -0.91508116   -0.95893645   -1.28931005
     atom    6 type  1   force =     0.91508116   -0.95893645    1.28931005
     atom    7 type  1   force =     1.56411214   -0.57380354    0.00000000
     atom    8 type  1   force =    -0.91508116    0.95893645   -1.28931005
     atom    9 type  1   force =     0.91508116    0.95893645    1.28931005
     atom   10 type  1   force =     1.56411214    0.57380354    0.00000000
     atom   11 type  1   force =    -0.91508116    0.95893645    1.28931005
     atom   12 type  1   force =    -1.56411214    0.57380354    0.00000000
     atom   13 type  2   force =     0.00000000    0.00000000    0.00000000
     atom   14 type  2   force =     0.00000000    0.00000000    0.00000000
     atom   15 type  2   force =     0.00000000    0.00000000    0.00000000
     atom   16 type  2   force =     0.00000000    0.00000000    0.00000000

     Total force =     6.201356     Total SCF correction =     0.000000

     entering subroutine stress ...

          total   stress  (Ry/bohr**3)                   (kbar)     P=11015.01
   0.07628729   0.00000000   0.00000000      11222.25      0.00      0.00
   0.00000000   0.07526004   0.00000000          0.00  11071.13      0.00
   0.00000000   0.00000000   0.07308819          0.00      0.00  10751.64

     BFGS Geometry Optimization

     number of scf cycles    =   1
     number of bfgs steps    =   0

     enthalpy new            =   -1592.2258118603 Ry

     new trust radius        =       0.5000000000 bohr
     new conv_thr            =       0.0001000000 Ry

     new unit-cell volume =   1381.47498 a.u.^3 (   204.71347 Ang^3 )

CELL_PARAMETERS (alat=  8.80076499)
   1.074803866   0.000000000   0.000000000
   0.000000000   1.163749752   0.000000000
   0.000000000   0.000000000   1.620290672

ATOMIC_POSITIONS (crystal)
Fe       0.351372224   0.164692665   0.918677544
Fe       0.148627776   0.664692665   0.581322456
Fe       0.851372224   0.335307335   0.418677544
Fe       0.332693253   0.447849407   0.250000000
Fe       0.148627776   0.664692665   0.918677544
Fe       0.351372224   0.164692665   0.581322456
Fe       0.167306747   0.947849407   0.250000000
Fe       0.648627776   0.835307335   0.418677544
Fe       0.851372224   0.335307335   0.081322456
Fe       0.667306747   0.552150593   0.750000000
Fe       0.648627776   0.835307335   0.081322456
Fe       0.832693253   0.052150593   0.750000000
C        0.000000000   0.000000000   0.000000000
C        0.500000000   0.500000000   0.000000000
C        0.500000000   0.500000000   0.500000000
C        0.000000000   0.000000000   0.500000000

     Writing output data file Prototype-La-oP16-Fe3C.save
     NEW-OLD atomic charge density approx. for the potential
     NEW k-points:
        k(    1) = (   0.0000000   0.0000000   0.0000000), wk =   0.0833333
        k(    2) = (   0.0000000   0.0000000   0.1542933), wk =   0.1666667
        k(    3) = (   0.0000000   0.0000000  -0.3085866), wk =   0.0833333
        k(    4) = (   0.0000000   0.2864304   0.0000000), wk =   0.1666667
        k(    5) = (   0.0000000   0.2864304   0.1542933), wk =   0.3333333
        k(    6) = (   0.0000000   0.2864304  -0.3085866), wk =   0.1666667
        k(    7) = (  -0.4652012   0.0000000   0.0000000), wk =   0.0833333
        k(    8) = (  -0.4652012   0.0000000   0.1542933), wk =   0.1666667
        k(    9) = (  -0.4652012   0.0000000  -0.3085866), wk =   0.0833333
        k(   10) = (  -0.4652012   0.2864304   0.0000000), wk =   0.1666667
        k(   11) = (  -0.4652012   0.2864304   0.1542933), wk =   0.3333333
        k(   12) = (  -0.4652012   0.2864304  -0.3085866), wk =   0.1666667

[...]

          total   stress  (Ry/bohr**3)                   (kbar)     P= 5334.56
   0.03712612   0.00000000   0.00000000       5461.44      0.00      0.00
   0.00000000   0.03578250   0.00000000          0.00   5263.79      0.00
   0.00000000   0.00000000   0.03588229          0.00      0.00   5278.47

[...]

     enthalpy old            =   -1592.2258118603 Ry
     enthalpy new            =   -1607.5343304700 Ry

     CASE: enthalpy_new < enthalpy_old

     small trust_radius: resetting bfgs history

     new trust radius        =       6.8995551350 bohr
     new conv_thr            =       0.0001000000 Ry

[...]

     number of scf cycles    =   3
     number of bfgs steps    =   2

     enthalpy old            =   -1607.5343304700 Ry
     enthalpy new            =   -1581.5967429999 Ry

     CASE: enthalpy_new > enthalpy_old

     new trust radius        =       4.0125121659 bohr

     trust_radius < trust_radius_min

     resetting bfgs history

     Message from routine bfgs:
     history already reset at previous step: stopping
     new conv_thr            =       0.0001000000 Ry

     new unit-cell volume =   1585.85931 a.u.^3 (   235.00010 Ang^3 )

[...]

ATOMIC_POSITIONS (crystal)
Fe       0.352842882   0.163171532   0.917240784
Fe       0.147157118   0.663171532   0.582759216
Fe       0.852842882   0.336828468   0.417240784
Fe       0.330145407   0.446926048   0.250000000
Fe       0.147157118   0.663171532   0.917240784
Fe       0.352842882   0.163171532   0.582759216
Fe       0.169854593   0.946926048   0.250000000
Fe       0.647157118   0.836828468   0.417240784
Fe       0.852842882   0.336828468   0.082759216
Fe       0.669854593   0.553073952   0.750000000
Fe       0.647157118   0.836828468   0.082759216
Fe       0.830145407   0.053073952   0.750000000
C        0.000000000   0.000000000   0.000000000
C        0.500000000   0.500000000   0.000000000
C        0.500000000   0.500000000   0.500000000
C        0.000000000   0.000000000   0.500000000

     Writing output data file Prototype-La-oP16-Fe3C.save
     NEW-OLD atomic charge density approx. for the potential
     NEW k-points:
        k(    1) = (   0.0000000   0.0000000   0.0000000), wk =   0.0833333
        k(    2) = (   0.0000000   0.0000000   0.1474950), wk =   0.1666667
        k(    3) = (   0.0000000   0.0000000  -0.2949900), wk =   0.0833333
        k(    4) = (   0.0000000   0.2738752   0.0000000), wk =   0.1666667
        k(    5) = (   0.0000000   0.2738752   0.1474950), wk =   0.3333333
        k(    6) = (   0.0000000   0.2738752  -0.2949900), wk =   0.1666667
        k(    7) = (  -0.4433588   0.0000000   0.0000000), wk =   0.0833333
        k(    8) = (  -0.4433588   0.0000000   0.1474950), wk =   0.1666667
        k(    9) = (  -0.4433588   0.0000000  -0.2949900), wk =   0.0833333
        k(   10) = (  -0.4433588   0.2738752   0.0000000), wk =   0.1666667
        k(   11) = (  -0.4433588   0.2738752   0.1474950), wk =   0.3333333
        k(   12) = (  -0.4433588   0.2738752  -0.2949900), wk =   0.1666667

[...]

     The maximum number of steps has been reached.

     End of BFGS Geometry Optimization
Begin final coordinates
     new unit-cell volume =   1585.85931 a.u.^3 (   235.00010 Ang^3 )

CELL_PARAMETERS (alat=  8.80076499)
   1.127754816   0.000000000   0.000000000
   0.000000000   1.217099238   0.000000000
   0.000000000   0.000000000   1.694972684

ATOMIC_POSITIONS (crystal)
Fe       0.352842882   0.163171532   0.917240784
Fe       0.147157118   0.663171532   0.582759216
Fe       0.852842882   0.336828468   0.417240784
Fe       0.330145407   0.446926048   0.250000000
Fe       0.147157118   0.663171532   0.917240784
Fe       0.352842882   0.163171532   0.582759216
Fe       0.169854593   0.946926048   0.250000000
Fe       0.647157118   0.836828468   0.417240784
Fe       0.852842882   0.336828468   0.082759216
Fe       0.669854593   0.553073952   0.750000000
Fe       0.647157118   0.836828468   0.082759216
Fe       0.830145407   0.053073952   0.750000000
C        0.000000000   0.000000000   0.000000000
C        0.500000000   0.500000000   0.000000000
C        0.500000000   0.500000000   0.500000000
C        0.000000000   0.000000000   0.500000000
End final coordinates

     A final scf calculation at the relaxed structure.
     The G-vectors are recalculated for the final unit cell
     Results may differ from those at the preceding step.

     bravais-lattice index     =            0
     lattice parameter (alat)  =       8.8008  a.u.
     unit-cell volume          =    1585.8593 (a.u.)^3
     number of atoms/cell      =           16
     number of atomic types    =            2
     number of electrons       =       212.00
     number of Kohn-Sham states=          127
     kinetic-energy cutoff     =      40.0000  Ry
     charge density cutoff     =     160.0000  Ry
     convergence threshold     =      1.0E-04
     mixing beta               =       0.7000
     number of iterations used =            8  plain     mixing
     Exchange-correlation      = SLA-PZ-NOGX-NOGC ( 1 1 0 0 0)
     EXX-fraction              =        0.00

     celldm(1)=   8.800765  celldm(2)=   0.000000  celldm(3)=   0.000000
     celldm(4)=   0.000000  celldm(5)=   0.000000  celldm(6)=   0.000000

     crystal axes: (cart. coord. in units of alat)
               a(1) = (   1.127755   0.000000   0.000000 )
               a(2) = (   0.000000   1.217099   0.000000 )
               a(3) = (   0.000000   0.000000   1.694973 )

     reciprocal axes: (cart. coord. in units 2 pi/alat)
               b(1) = (  0.886718  0.000000  0.000000 )
               b(2) = (  0.000000  0.821626  0.000000 )
               b(3) = (  0.000000  0.000000  0.589980 )

     PseudoPot. # 1 for Ce read from file:
     /home/jld5415/pp.La/Ce.UPF
     MD5 check sum: 44451aa79a44a00cf2bc029dc19922f6
     Pseudo is Norm-conserving, Zval = 12.0
     Generated in analytical, separable form
     Using radial grid of 1255 points,  6 beta functions with:
                l(1) =   0
                l(2) =   0
                l(3) =   1
                l(4) =   1
                l(5) =   2
                l(6) =   3

     PseudoPot. # 2 for Eu read from file:
     /home/jld5415/pp.La/Eu.UPF
     MD5 check sum: 5efdbbfc50c6a10138933a6429836ad2
     Pseudo is Norm-conserving, Zval = 17.0
     Generated in analytical, separable form
     Using radial grid of 1261 points,  6 beta functions with:
                l(1) =   0
                l(2) =   0
                l(3) =   1
                l(4) =   1
                l(5) =   2
                l(6) =   3

     atomic species   valence    mass     pseudopotential
        Fe            12.00    55.84500     Ce( 1.00)
        C             17.00    12.01070     Eu( 1.00)

      8 Sym. Ops., with inversion, found ( 6 have fractional translation)

   Cartesian axes

     site n.     atom                  positions (alat units)
         1           Fe  tau(   1) = (   0.3979203   0.1985959   1.5546981  )
         2           Fe  tau(   2) = (   0.1659571   0.8071456   0.9877610  )
         3           Fe  tau(   3) = (   0.9617977   0.4099537   0.7072117  )
         4           Fe  tau(   4) = (   0.3723231   0.5439534   0.4237432  )
         5           Fe  tau(   5) = (   0.1659571   0.8071456   1.5546981  )
         6           Fe  tau(   6) = (   0.3979203   0.1985959   0.9877610  )
         7           Fe  tau(   7) = (   0.1915543   1.1525030   0.4237432  )
         8           Fe  tau(   8) = (   0.7298346   1.0185033   0.7072117  )
         9           Fe  tau(   9) = (   0.9617977   0.4099537   0.1402746  )
        10           Fe  tau(  10) = (   0.7554317   0.6731459   1.2712295  )
        11           Fe  tau(  11) = (   0.7298346   1.0185033   0.1402746  )
        12           Fe  tau(  12) = (   0.9362005   0.0645963   1.2712295  )
        13           C   tau(  13) = (   0.0000000   0.0000000   0.0000000  )
        14           C   tau(  14) = (   0.5638774   0.6085496   0.0000000  )
        15           C   tau(  15) = (   0.5638774   0.6085496   0.8474863  )
        16           C   tau(  16) = (   0.0000000   0.0000000   0.8474863  )

     number of k points=    12  gaussian smearing, width (Ry)=  0.1000
                       cart. coord. in units 2pi/alat
        k(    1) = (   0.0000000   0.0000000   0.0000000), wk =   0.0833333
        k(    2) = (   0.0000000   0.0000000   0.1474950), wk =   0.1666667
        k(    3) = (   0.0000000   0.0000000  -0.2949900), wk =   0.0833333
        k(    4) = (   0.0000000   0.2738752   0.0000000), wk =   0.1666667
        k(    5) = (   0.0000000   0.2738752   0.1474950), wk =   0.3333333
        k(    6) = (   0.0000000   0.2738752  -0.2949900), wk =   0.1666667
        k(    7) = (  -0.4433588   0.0000000   0.0000000), wk =   0.0833333
        k(    8) = (  -0.4433588   0.0000000   0.1474950), wk =   0.1666667
        k(    9) = (  -0.4433588   0.0000000  -0.2949900), wk =   0.0833333
        k(   10) = (  -0.4433588   0.2738752   0.0000000), wk =   0.1666667
        k(   11) = (  -0.4433588   0.2738752   0.1474950), wk =   0.3333333
        k(   12) = (  -0.4433588   0.2738752  -0.2949900), wk =   0.1666667

     Largest allocated arrays     est. size (Mb)     dimensions
     Largest temporary arrays     est. size (Mb)     dimensions

     Initial potential from superposition of free atoms

     Starting from uniform charge
     Starting wfc are    0 randomized atomic wfcs

     Writing output data file Prototype-La-oP16-Fe3C.save

     Self-consistent Calculation

[...]

     iteration # 10     ecut=    40.00 Ry     beta=0.70
     CG style diagonalization
     c_bands:  2 eigenvalues not converged
     ethr =  1.52E-06,  avg # of iterations =  5.0

     total energy              =   -1615.11489393 Ry
     Harris-Foulkes estimate   =   -1615.11494671 Ry
     estimated scf accuracy    <       0.00013720 Ry

     iteration # 11     ecut=    40.00 Ry     beta=0.70
     CG style diagonalization
     ethr =  6.47E-08,  avg # of iterations =  4.7

     End of self-consistent calculation

[...]

          k = 0.0000 0.2739-0.2950 (  6764 PWs)   bands (ev):

[...]

          k =-0.4434 0.2739-0.2950 (  6792 PWs)   bands (ev):

   -35.2036 -35.2036 -35.2035 -35.2035 -11.1244 -11.1244 -11.1179 -11.1179
   -10.2731 -10.2731 -10.2299 -10.2299  -9.6597  -9.6597  -9.6575  -9.6575
    -6.1974  -6.1974  -6.1959  -6.1959  -5.0271  -5.0271  -4.8477  -4.8477
    -3.9655  -3.9655  -3.9629  -3.9629   8.5813   8.5813   8.7291   8.7291
     9.0024   9.0024   9.2566   9.2566   9.8681   9.8681   9.8912   9.8912
    10.7193  10.7193  10.8382  10.8382  11.1631  11.1631  12.0249  12.0249
    12.1196  12.1196  12.3364  12.3364  12.4315  12.4315  12.6671  12.6671
    12.9915  12.9915  13.1508  13.1508  13.5833  13.5833  13.7326  13.7326
    21.2858  21.2858  21.4164  21.4164  22.0948  22.0948  22.3458  22.3458
    23.3198  23.3198  23.3759  23.3759  25.7972  25.7972  26.0827  26.0827
    27.0198  27.0198  27.1450  27.1450  28.2818  28.2818  29.0602  29.0602
    29.3153  29.3153  29.5995  29.5995  29.9950  29.9950  30.1023  30.1023
    30.8685  30.8685  30.9163  30.9163  31.9454  31.9454  32.0835  32.0835
    32.5082  32.5082  32.5234  32.5234  33.1227  33.1227  33.9039  33.9039
    34.2101  34.2101  34.4994  34.4994  34.6936  34.6936  35.1580  35.1581
    35.4414  35.4415  36.1904  36.1918  36.4191  36.4422  36.4444

     the Fermi energy is    32.5616 ev

!    total energy              =   -1615.11494091 Ry
     Harris-Foulkes estimate   =   -1615.11497284 Ry
     estimated scf accuracy    <       0.00003800 Ry

     The total energy is the sum of the following terms:

     one-electron contribution =      57.49836205 Ry
     hartree contribution      =     199.52677991 Ry
     xc contribution           =    -210.47294876 Ry
     ewald contribution        =   -1660.97625170 Ry
     smearing contrib. (-TS)   =      -0.69088240 Ry

     convergence has been achieved in  11 iterations

     Forces acting on atoms (Ry/au):

     atom    1 type  1   force =     0.33885002   -0.38999646   -0.49245196
     atom    2 type  1   force =    -0.33885002   -0.38999646    0.49245196
     atom    3 type  1   force =     0.33885002    0.38999646   -0.49245196
     atom    4 type  1   force =    -0.60123531   -0.23208248    0.00000000
     atom    5 type  1   force =    -0.33885002   -0.38999646   -0.49245196
     atom    6 type  1   force =     0.33885002   -0.38999646    0.49245196
     atom    7 type  1   force =     0.60123531   -0.23208248    0.00000000
     atom    8 type  1   force =    -0.33885002    0.38999646   -0.49245196
     atom    9 type  1   force =     0.33885002    0.38999646    0.49245196
     atom   10 type  1   force =     0.60123531    0.23208248    0.00000000
     atom   11 type  1   force =    -0.33885002    0.38999646    0.49245196
     atom   12 type  1   force =    -0.60123531    0.23208248    0.00000000
     atom   13 type  2   force =     0.00000000    0.00000000    0.00000000
     atom   14 type  2   force =     0.00000000    0.00000000    0.00000000
     atom   15 type  2   force =     0.00000000    0.00000000    0.00000000
     atom   16 type  2   force =     0.00000000    0.00000000    0.00000000

     Total force =     2.395159     Total SCF correction =     0.000000

     entering subroutine stress ...

          total   stress  (Ry/bohr**3)                   (kbar)     P= 3304.33
   0.02300964   0.00000000   0.00000000       3384.83      0.00      0.00
   0.00000000   0.02200194   0.00000000          0.00   3236.60      0.00
   0.00000000   0.00000000   0.02237562          0.00      0.00   3291.57

     Writing output data file Prototype-La-oP16-Fe3C.save

     General routines

     Parallel routines

   This run was terminated on:   1:13:25  22Mar2018

   JOB DONE.