     Program PWSCF v.5.0.2 starts on 22Mar2018 at 16:20:23

     Current dimensions of program PWSCF are:
     Max number of different atomic species (ntypx) = 10
     Max number of k-points (npk) =  40000
     Max angular momentum in pseudopotentials (lmaxx) =  3
     Waiting for input...
     Reading input from standard input

     Subspace diagonalization in iterative solution of the eigenvalue problem:
     a serial algorithm will be used

     bravais-lattice index     =            0
     lattice parameter (alat)  =       7.0151  a.u.
     unit-cell volume          =     862.2778 (a.u.)^3
     number of atoms/cell      =           12
     number of atomic types    =            2
     number of electrons       =       160.00
     number of Kohn-Sham states=           96
     kinetic-energy cutoff     =      40.0000  Ry
     charge density cutoff     =     160.0000  Ry
     convergence threshold     =      1.0E-04
     mixing beta               =       0.7000
     number of iterations used =            8  plain     mixing
     Exchange-correlation      = SLA-PZ-NOGX-NOGC ( 1 1 0 0 0)
     EXX-fraction              =        0.00
     nstep                     =           50

     celldm(1)=   7.015105  celldm(2)=   0.000000  celldm(3)=   0.000000
     celldm(4)=   0.000000  celldm(5)=   0.000000  celldm(6)=   0.000000

     crystal axes: (cart. coord. in units of alat)
               a(1) = (   1.000000   0.000000   0.000000 )
               a(2) = (   0.000000   1.315963   0.000000 )
               a(3) = (   0.000000   0.000000   1.898020 )

     reciprocal axes: (cart. coord. in units 2 pi/alat)
               b(1) = (  1.000000  0.000000  0.000000 )
               b(2) = (  0.000000  0.759900  0.000000 )
               b(3) = (  0.000000  0.000000  0.526865 )

     PseudoPot. # 1 for Pr read from file:
     /home/cwx6513/pp.La/Pr.UPF
     MD5 check sum: 70e2b4b153859e92c8c91247dfc63203
     Pseudo is Norm-conserving, Zval = 13.0
     Generated in analytical, separable form
     Using radial grid of 1255 points,  6 beta functions with:
                l(1) =   0
                l(2) =   0
                l(3) =   1
                l(4) =   1
                l(5) =   2
                l(6) =   3

     PseudoPot. # 2 for Nd read from file:
     /home/cwx6513/pp.La/Nd.UPF
     MD5 check sum: c66c5b6abe7b5840ced9b1e244e3bed6
     Pseudo is Norm-conserving, Zval = 14.0
     Generated in analytical, separable form
     Using radial grid of 1257 points,  6 beta functions with:
                l(1) =   0
                l(2) =   0
                l(3) =   1
                l(4) =   1
                l(5) =   2
                l(6) =   3

     atomic species   valence    mass     pseudopotential
        Co            13.00    58.93320     Pr( 1.00)
        Si            14.00    28.08550     Nd( 1.00)

      8 Sym. Ops., with inversion, found ( 6 have fractional translation)

   Cartesian axes

     site n.     atom                  positions (alat units)
         1           Co  tau(   1) = (   0.7500000   1.0875135   0.8270358  )
         2           Co  tau(   2) = (   0.2500000   0.2284499   1.0709846  )
         3           Co  tau(   3) = (   0.7500000   0.4295318   0.1219744  )
         4           Co  tau(   4) = (   0.2500000   0.8864316   1.7760460  )
         5           Co  tau(   5) = (   0.2500000   0.7067855   0.5358966  )
         6           Co  tau(   6) = (   0.7500000   0.6091779   1.3621238  )
         7           Co  tau(   7) = (   0.2500000   0.0488038   0.4131136  )
         8           Co  tau(   8) = (   0.7500000   1.2671596   1.4849068  )
         9           Si  tau(   9) = (   0.2500000   0.2669484   1.6960710  )
        10           Si  tau(  10) = (   0.7500000   1.0490149   0.2019494  )
        11           Si  tau(  11) = (   0.2500000   0.9249301   1.1509596  )
        12           Si  tau(  12) = (   0.7500000   0.3910333   0.7470608  )

     number of k points=    12  gaussian smearing, width (Ry)=  0.1000
                       cart. coord. in units 2pi/alat
        k(    1) = (   0.0000000   0.0000000   0.0000000), wk =   0.0833333
        k(    2) = (   0.0000000   0.0000000   0.1317162), wk =   0.1666667
        k(    3) = (   0.0000000   0.0000000  -0.2634324), wk =   0.0833333
        k(    4) = (   0.0000000   0.2532999   0.0000000), wk =   0.1666667
        k(    5) = (   0.0000000   0.2532999   0.1317162), wk =   0.3333333
        k(    6) = (   0.0000000   0.2532999  -0.2634324), wk =   0.1666667
        k(    7) = (  -0.5000000   0.0000000   0.0000000), wk =   0.0833333
        k(    8) = (  -0.5000000   0.0000000   0.1317162), wk =   0.1666667
        k(    9) = (  -0.5000000   0.0000000  -0.2634324), wk =   0.0833333
        k(   10) = (  -0.5000000   0.2532999   0.0000000), wk =   0.1666667
        k(   11) = (  -0.5000000   0.2532999   0.1317162), wk =   0.3333333
        k(   12) = (  -0.5000000   0.2532999  -0.2634324), wk =   0.1666667

     Largest allocated arrays     est. size (Mb)     dimensions
     Largest temporary arrays     est. size (Mb)     dimensions

     Initial potential from superposition of free atoms

     starting charge  103.92434, renormalised to  160.00000
     Starting wfc are  160 randomized atomic wfcs

     Self-consistent Calculation

     iteration #  1     ecut=    40.00 Ry     beta=0.70
     CG style diagonalization
     c_bands:  5 eigenvalues not converged
     ethr =  1.00E-02,  avg # of iterations = 15.8

     total energy              =    -302.96647435 Ry
     Harris-Foulkes estimate   =   -1663.24064720 Ry
     estimated scf accuracy    <    1651.26123797 Ry

[...]

     iteration #  3     ecut=    40.00 Ry     beta=0.70
     CG style diagonalization
     ethr =  1.00E-02,  avg # of iterations = 10.5

[...]

     End of self-consistent calculation

          k = 0.0000 0.0000 0.0000 (  3675 PWs)   bands (ev):

    -6.7523  -5.5567  -5.2567  -4.9551  -0.4487  -0.0634   0.7619   0.9764
     1.0987   1.5550   1.5786   1.7316  11.3522  12.7285  13.1049  13.4795
    13.5006  13.6235  13.7297  14.1185  14.2791  14.8344  14.9272  16.4245
    16.5442  17.2016  17.5486  18.2799  18.7848  19.5262  19.5315  20.2162
    20.3273  21.0379  21.2119  21.2547  21.5960  21.6569  22.4233  22.5246
    22.8973  22.9210  23.2424  23.5160  25.3403  25.6877  25.6903  25.9892
    33.2301  33.6643  34.6309  35.1190  35.1792  35.4749  35.7655  35.7792
    36.8751  36.9419  38.0545  38.2782  38.8059  39.0033  40.1626  41.3641
    41.5291  41.7289  42.0087  42.2419  42.4043  42.8283  43.0221  43.0413
    43.9469  44.7775  45.0080  45.0496  45.1588  45.4832  45.4955  45.9628
    46.6123  46.8641  46.9455  47.1595  48.2412  48.4003  48.5652  48.7808
    48.9401  49.2454  49.3125  50.2117  50.2141  50.7224  50.8463  51.0519

[...]

          k =-0.5000 0.0000 0.0000 (  3722 PWs)   bands (ev):

[...]

     the Fermi energy is    45.8489 ev

!    total energy              =   -1173.47116296 Ry
     Harris-Foulkes estimate   =   -1173.47124215 Ry
     estimated scf accuracy    <       0.00009135 Ry

     The total energy is the sum of the following terms:

     one-electron contribution =     436.62071681 Ry
     hartree contribution      =      31.84276796 Ry
     xc contribution           =    -162.79796454 Ry
     ewald contribution        =   -1478.75834010 Ry
     smearing contrib. (-TS)   =      -0.37834309 Ry

     convergence has been achieved in  11 iterations

     Forces acting on atoms (Ry/au):

     atom    1 type  1   force =     0.00000000   -0.01747587   -0.08328057
     atom    2 type  1   force =     0.00000000    0.01747587    0.08328057
     atom    3 type  1   force =     0.00000000   -0.01747587    0.08328057
     atom    4 type  1   force =     0.00000000    0.01747587   -0.08328057
     atom    5 type  1   force =     0.00000000    0.10507129   -0.22401759
     atom    6 type  1   force =     0.00000000   -0.10507129    0.22401759
     atom    7 type  1   force =     0.00000000    0.10507129    0.22401759
     atom    8 type  1   force =     0.00000000   -0.10507129   -0.22401759
     atom    9 type  2   force =     0.00000000   -0.17223915    0.00277335
     atom   10 type  2   force =     0.00000000    0.17223915   -0.00277335
     atom   11 type  2   force =     0.00000000   -0.17223915   -0.00277335
     atom   12 type  2   force =     0.00000000    0.17223915    0.00277335

     Total force =     0.626543     Total SCF correction =     0.017043

     entering subroutine stress ...

          total   stress  (Ry/bohr**3)                   (kbar)     P= 6165.29
   0.04166109   0.00000000   0.00000000       6128.56      0.00      0.00
   0.00000000   0.04081460   0.00000000          0.00   6004.03      0.00
   0.00000000   0.00000000   0.04325661          0.00      0.00   6363.27

     BFGS Geometry Optimization

     number of scf cycles    =   1
     number of bfgs steps    =   0

     enthalpy new            =   -1173.4711629552 Ry

     new trust radius        =       0.5000000000 bohr
     new conv_thr            =       0.0001000000 Ry

     new unit-cell volume =   1093.73978 a.u.^3 (   162.07551 Ang^3 )

CELL_PARAMETERS (alat=  7.01510508)
   1.081996355   0.000000000   0.000000000
   0.000000000   1.421675144   0.000000000
   0.000000000   0.000000000   2.059611444

ATOMIC_POSITIONS (crystal)
Co       0.750000000   0.826251966   0.435243584
Co       0.250000000   0.173748034   0.564756416
Co       0.750000000   0.326251966   0.064756416
Co       0.250000000   0.673748034   0.935243584
Co       0.250000000   0.537982045   0.281020442
Co       0.750000000   0.462017955   0.718979558
Co       0.250000000   0.037982045   0.218979558
Co       0.750000000   0.962017955   0.781020442
Si       0.250000000   0.201385149   0.893616398
Si       0.750000000   0.798614851   0.106383602
Si       0.250000000   0.701385149   0.606383602
Si       0.750000000   0.298614851   0.393616398

     Writing output data file Prototype-La-oP12-Co2Si.save
     NEW-OLD atomic charge density approx. for the potential
     NEW k-points:
        k(    1) = (   0.0000000   0.0000000   0.0000000), wk =   0.0833333
        k(    2) = (   0.0000000   0.0000000   0.1213821), wk =   0.1666667
        k(    3) = (   0.0000000   0.0000000  -0.2427642), wk =   0.0833333
        k(    4) = (   0.0000000   0.2344652   0.0000000), wk =   0.1666667
        k(    5) = (   0.0000000   0.2344652   0.1213821), wk =   0.3333333
        k(    6) = (   0.0000000   0.2344652  -0.2427642), wk =   0.1666667
        k(    7) = (  -0.4621088   0.0000000   0.0000000), wk =   0.0833333
        k(    8) = (  -0.4621088   0.0000000   0.1213821), wk =   0.1666667
        k(    9) = (  -0.4621088   0.0000000  -0.2427642), wk =   0.0833333
        k(   10) = (  -0.4621088   0.2344652   0.0000000), wk =   0.1666667
        k(   11) = (  -0.4621088   0.2344652   0.1213821), wk =   0.3333333
        k(   12) = (  -0.4621088   0.2344652  -0.2427642), wk =   0.1666667
     Check: negative starting charge=   -0.011653

     negative rho (up, down):  0.121E-01 0.000E+00
     extrapolated charge  181.99292, renormalised to  160.00000

[...]

     negative rho (up, down):  0.256E-02 0.000E+00

[...]

     enthalpy old            =   -1173.4711629552 Ry
     enthalpy new            =   -1179.7626377874 Ry

     CASE: enthalpy_new < enthalpy_old

     small trust_radius: resetting bfgs history

     new trust radius        =       2.6889933363 bohr
     new conv_thr            =       0.0001000000 Ry

[...]

     Writing output data file Prototype-La-oP12-Co2Si.save
     Check: negative starting charge=   -0.011653
     NEW-OLD atomic charge density approx. for the potential
     NEW k-points:
        k(    1) = (   0.0000000   0.0000000   0.0000000), wk =   0.0833333
        k(    2) = (   0.0000000   0.0000000   0.0862984), wk =   0.1666667
        k(    3) = (   0.0000000   0.0000000  -0.1725968), wk =   0.0833333
        k(    4) = (   0.0000000   0.1691575   0.0000000), wk =   0.1666667
        k(    5) = (   0.0000000   0.1691575   0.0862984), wk =   0.3333333
        k(    6) = (   0.0000000   0.1691575  -0.1725968), wk =   0.1666667
        k(    7) = (  -0.3299436   0.0000000   0.0000000), wk =   0.0833333
        k(    8) = (  -0.3299436   0.0000000   0.0862984), wk =   0.1666667
        k(    9) = (  -0.3299436   0.0000000  -0.1725968), wk =   0.0833333
        k(   10) = (  -0.3299436   0.1691575   0.0000000), wk =   0.1666667
        k(   11) = (  -0.3299436   0.1691575   0.0862984), wk =   0.3333333
        k(   12) = (  -0.3299436   0.1691575  -0.1725968), wk =   0.1666667
     Check: negative starting charge=   -0.032185

[...]

     Total force =     0.011288     Total SCF correction =     0.002071
     SCF correction compared to forces is large: reduce conv_thr to get better values

[...]

          total   stress  (Ry/bohr**3)                   (kbar)     P=-1180.25
  -0.00803364   0.00000000   0.00000000      -1181.79      0.00      0.00
   0.00000000  -0.00794108   0.00000000          0.00  -1168.17      0.00
   0.00000000   0.00000000  -0.00809488          0.00      0.00  -1190.80

     number of scf cycles    =   3
     number of bfgs steps    =   2

     enthalpy old            =   -1179.7626377874 Ry
     enthalpy new            =   -1171.8289802923 Ry

     CASE: enthalpy_new > enthalpy_old

     new trust radius        =       1.1449579999 bohr

     trust_radius < trust_radius_min

     resetting bfgs history

     Message from routine bfgs:
     history already reset at previous step: stopping
     new conv_thr            =       0.0001000000 Ry

     new unit-cell volume =   1310.71793 a.u.^3 (   194.22836 Ang^3 )

[...]

ATOMIC_POSITIONS (crystal)
Co       0.750000000   0.826307504   0.434944314
Co       0.250000000   0.173692496   0.565055686
Co       0.750000000   0.326307504   0.065055686
Co       0.250000000   0.673692496   0.934944314
Co       0.250000000   0.538475423   0.280103003
Co       0.750000000   0.461524577   0.719896997
Co       0.250000000   0.038475423   0.219896997
Co       0.750000000   0.961524577   0.780103003
Si       0.250000000   0.200039140   0.893844774
Si       0.750000000   0.799960860   0.106155226
Si       0.250000000   0.700039140   0.606155226
Si       0.750000000   0.299960860   0.393844774

     Writing output data file Prototype-La-oP12-Co2Si.save
     Check: negative starting charge=   -0.032185
     NEW-OLD atomic charge density approx. for the potential
     NEW k-points:
        k(    1) = (   0.0000000   0.0000000   0.0000000), wk =   0.0833333
        k(    2) = (   0.0000000   0.0000000   0.1140440), wk =   0.1666667
        k(    3) = (   0.0000000   0.0000000  -0.2280880), wk =   0.0833333
        k(    4) = (   0.0000000   0.2213312   0.0000000), wk =   0.1666667
        k(    5) = (   0.0000000   0.2213312   0.1140440), wk =   0.3333333
        k(    6) = (   0.0000000   0.2213312  -0.2280880), wk =   0.1666667
        k(    7) = (  -0.4347775   0.0000000   0.0000000), wk =   0.0833333
        k(    8) = (  -0.4347775   0.0000000   0.1140440), wk =   0.1666667
        k(    9) = (  -0.4347775   0.0000000  -0.2280880), wk =   0.0833333
        k(   10) = (  -0.4347775   0.2213312   0.0000000), wk =   0.1666667
        k(   11) = (  -0.4347775   0.2213312   0.1140440), wk =   0.3333333
        k(   12) = (  -0.4347775   0.2213312  -0.2280880), wk =   0.1666667
     Check: negative starting charge=   -0.025471

     negative rho (up, down):  0.511E+02 0.000E+00
     extrapolated charge   27.13306, renormalised to  160.00000

[...]

     Total force =     0.260075     Total SCF correction =     0.030029
     SCF correction compared to forces is large: reduce conv_thr to get better values

[...]

     The maximum number of steps has been reached.

     End of BFGS Geometry Optimization
Begin final coordinates
     new unit-cell volume =   1310.71793 a.u.^3 (   194.22836 Ang^3 )

CELL_PARAMETERS (alat=  7.01510508)
   1.150013537   0.000000000   0.000000000
   0.000000000   1.506038689   0.000000000
   0.000000000   0.000000000   2.192136625

ATOMIC_POSITIONS (crystal)
Co       0.750000000   0.826307504   0.434944314
Co       0.250000000   0.173692496   0.565055686
Co       0.750000000   0.326307504   0.065055686
Co       0.250000000   0.673692496   0.934944314
Co       0.250000000   0.538475423   0.280103003
Co       0.750000000   0.461524577   0.719896997
Co       0.250000000   0.038475423   0.219896997
Co       0.750000000   0.961524577   0.780103003
Si       0.250000000   0.200039140   0.893844774
Si       0.750000000   0.799960860   0.106155226
Si       0.250000000   0.700039140   0.606155226
Si       0.750000000   0.299960860   0.393844774
End final coordinates

     A final scf calculation at the relaxed structure.
     The G-vectors are recalculated for the final unit cell
     Results may differ from those at the preceding step.

     bravais-lattice index     =            0
     lattice parameter (alat)  =       7.0151  a.u.
     unit-cell volume          =    1310.7179 (a.u.)^3
     number of atoms/cell      =           12
     number of atomic types    =            2
     number of electrons       =       160.00
     number of Kohn-Sham states=           96
     kinetic-energy cutoff     =      40.0000  Ry
     charge density cutoff     =     160.0000  Ry
     convergence threshold     =      1.0E-04
     mixing beta               =       0.7000
     number of iterations used =            8  plain     mixing
     Exchange-correlation      = SLA-PZ-NOGX-NOGC ( 1 1 0 0 0)
     EXX-fraction              =        0.00

     celldm(1)=   7.015105  celldm(2)=   0.000000  celldm(3)=   0.000000
     celldm(4)=   0.000000  celldm(5)=   0.000000  celldm(6)=   0.000000

     crystal axes: (cart. coord. in units of alat)
               a(1) = (   1.150014   0.000000   0.000000 )
               a(2) = (   0.000000   1.506039   0.000000 )
               a(3) = (   0.000000   0.000000   2.192137 )

     reciprocal axes: (cart. coord. in units 2 pi/alat)
               b(1) = (  0.869555  0.000000  0.000000 )
               b(2) = (  0.000000  0.663994  0.000000 )
               b(3) = (  0.000000  0.000000  0.456176 )

     PseudoPot. # 1 for Pr read from file:
     /home/cwx6513/pp.La/Pr.UPF
     MD5 check sum: 70e2b4b153859e92c8c91247dfc63203
     Pseudo is Norm-conserving, Zval = 13.0
     Generated in analytical, separable form
     Using radial grid of 1255 points,  6 beta functions with:
                l(1) =   0
                l(2) =   0
                l(3) =   1
                l(4) =   1
                l(5) =   2
                l(6) =   3

     PseudoPot. # 2 for Nd read from file:
     /home/cwx6513/pp.La/Nd.UPF
     MD5 check sum: c66c5b6abe7b5840ced9b1e244e3bed6
     Pseudo is Norm-conserving, Zval = 14.0
     Generated in analytical, separable form
     Using radial grid of 1257 points,  6 beta functions with:
                l(1) =   0
                l(2) =   0
                l(3) =   1
                l(4) =   1
                l(5) =   2
                l(6) =   3

     atomic species   valence    mass     pseudopotential
        Co            13.00    58.93320     Pr( 1.00)
        Si            14.00    28.08550     Nd( 1.00)

      8 Sym. Ops., with inversion, found ( 6 have fractional translation)

   Cartesian axes

     site n.     atom                  positions (alat units)
         1           Co  tau(   1) = (   0.8625102   1.2444511   0.9534574  )
         2           Co  tau(   2) = (   0.2875034   0.2615876   1.2386793  )
         3           Co  tau(   3) = (   0.8625102   0.4914317   0.1426110  )
         4           Co  tau(   4) = (   0.2875034   1.0146070   2.0495257  )
         5           Co  tau(   5) = (   0.2875034   0.8109648   0.6140241  )
         6           Co  tau(   6) = (   0.8625102   0.6950739   1.5781126  )
         7           Co  tau(   7) = (   0.2875034   0.0579455   0.4820443  )
         8           Co  tau(   8) = (   0.8625102   1.4480932   1.7100924  )
         9           Si  tau(   9) = (   0.2875034   0.3012667   1.9594299  )
        10           Si  tau(  10) = (   0.8625102   1.2047720   0.2327068  )
        11           Si  tau(  11) = (   0.2875034   1.0542860   1.3287751  )
        12           Si  tau(  12) = (   0.8625102   0.4517527   0.8633616  )

     number of k points=    12  gaussian smearing, width (Ry)=  0.1000
                       cart. coord. in units 2pi/alat
        k(    1) = (   0.0000000   0.0000000   0.0000000), wk =   0.0833333
        k(    2) = (   0.0000000   0.0000000   0.1140440), wk =   0.1666667
        k(    3) = (   0.0000000   0.0000000  -0.2280880), wk =   0.0833333
        k(    4) = (   0.0000000   0.2213312   0.0000000), wk =   0.1666667
        k(    5) = (   0.0000000   0.2213312   0.1140440), wk =   0.3333333
        k(    6) = (   0.0000000   0.2213312  -0.2280880), wk =   0.1666667
        k(    7) = (  -0.4347775   0.0000000   0.0000000), wk =   0.0833333
        k(    8) = (  -0.4347775   0.0000000   0.1140440), wk =   0.1666667
        k(    9) = (  -0.4347775   0.0000000  -0.2280880), wk =   0.0833333
        k(   10) = (  -0.4347775   0.2213312   0.0000000), wk =   0.1666667
        k(   11) = (  -0.4347775   0.2213312   0.1140440), wk =   0.3333333
        k(   12) = (  -0.4347775   0.2213312  -0.2280880), wk =   0.1666667

     Largest allocated arrays     est. size (Mb)     dimensions
     Largest temporary arrays     est. size (Mb)     dimensions

     Initial potential from superposition of free atoms
     Check: negative starting charge=   -0.001081

     starting charge  103.92434, renormalised to  160.00000

     negative rho (up, down):  0.166E-02 0.000E+00
     Starting wfc are  160 randomized atomic wfcs

     Writing output data file Prototype-La-oP12-Co2Si.save

     Self-consistent Calculation

[...]

     negative rho (up, down):  0.802E-04 0.000E+00

[...]

     iteration #  9     ecut=    40.00 Ry     beta=0.70
     CG style diagonalization
     ethr =  3.03E-04,  avg # of iterations =  3.9

[...]

     total energy              =   -1183.20454176 Ry
     Harris-Foulkes estimate   =   -1183.20557942 Ry
     estimated scf accuracy    <       0.00252739 Ry

     iteration # 12     ecut=    40.00 Ry     beta=0.70
     CG style diagonalization
     c_bands:  1 eigenvalues not converged
     c_bands:  1 eigenvalues not converged
     c_bands:  1 eigenvalues not converged
     ethr =  1.58E-06,  avg # of iterations =  3.6

     End of self-consistent calculation

[...]

          k = 0.0000 0.2213-0.2281 (  5572 PWs)   bands (ev):

[...]

          k =-0.4348 0.2213-0.2281 (  5588 PWs)   bands (ev):

   -18.6938 -18.6938 -18.6625 -18.6625 -13.8174 -13.8174 -13.6706 -13.6706
   -13.4728 -13.4728 -13.3137 -13.3137   1.2906   1.2906   1.5448   1.5448
     1.8211   1.8211   2.1480   2.1480   2.2977   2.2977   2.6334   2.6334
     4.9949   4.9949   5.4980   5.4980   5.7348   5.7348   6.3110   6.3110
     6.4074   6.4074   6.5543   6.5543   6.7404   6.7404   7.0003   7.0003
     7.3177   7.3177   7.3784   7.3784   7.4979   7.4979   7.6036   7.6036
    23.4433  23.4433  24.0810  24.0810  24.3255  24.3255  25.0020  25.0020
    25.0697  25.0697  25.4011  25.4011  25.6835  25.6835  25.9217  25.9217
    26.4113  26.4113  26.5569  26.5569  27.2243  27.2243  27.3711  27.3711
    27.6301  27.6301  28.1106  28.1106  28.5769  28.5769  28.8834  28.8834
    29.0254  29.0254  29.9279  29.9279  30.2501  30.2501  30.9058  30.9058
    31.1125  31.1125  31.7668  31.7670  31.8487  31.8490  32.4709  32.4776

     the Fermi energy is    29.4887 ev

!    total energy              =   -1183.20503561 Ry
     Harris-Foulkes estimate   =   -1183.20505524 Ry
     estimated scf accuracy    <       0.00003017 Ry

     The total energy is the sum of the following terms:

     one-electron contribution =     189.45756473 Ry
     hartree contribution      =      65.61987533 Ry
     xc contribution           =    -151.24638626 Ry
     ewald contribution        =   -1286.43651212 Ry
     smearing contrib. (-TS)   =      -0.59957730 Ry

     convergence has been achieved in  12 iterations

     Forces acting on atoms (Ry/au):

     atom    1 type  1   force =     0.00000000    0.00400184   -0.01675856
     atom    2 type  1   force =     0.00000000   -0.00400184    0.01675856
     atom    3 type  1   force =     0.00000000    0.00400184    0.01675856
     atom    4 type  1   force =     0.00000000   -0.00400184   -0.01675856
     atom    5 type  1   force =     0.00000000    0.01316888   -0.07073424
     atom    6 type  1   force =     0.00000000   -0.01316888    0.07073424
     atom    7 type  1   force =     0.00000000    0.01316888    0.07073424
     atom    8 type  1   force =     0.00000000   -0.01316888   -0.07073424
     atom    9 type  2   force =     0.00000000   -0.08616463    0.04277820
     atom   10 type  2   force =     0.00000000    0.08616463   -0.04277820
     atom   11 type  2   force =     0.00000000   -0.08616463   -0.04277820
     atom   12 type  2   force =     0.00000000    0.08616463    0.04277820

     Total force =     0.242717     Total SCF correction =     0.013696

     entering subroutine stress ...

          total   stress  (Ry/bohr**3)                   (kbar)     P= 1158.79
   0.00813963   0.00000000   0.00000000       1197.38      0.00      0.00
   0.00000000   0.00754211   0.00000000          0.00   1109.48      0.00
   0.00000000   0.00000000   0.00795013          0.00      0.00   1169.50

     Writing output data file Prototype-La-oP12-Co2Si.save

     General routines

     Parallel routines

   This run was terminated on:  16:35:43  22Mar2018

   JOB DONE.