     Program PWSCF v.5.0.2 starts on 22Mar2018 at 16: 9: 6

     Current dimensions of program PWSCF are:
     Max number of different atomic species (ntypx) = 10
     Max number of k-points (npk) =  40000
     Max angular momentum in pseudopotentials (lmaxx) =  3
     Waiting for input...
     Reading input from standard input

     Subspace diagonalization in iterative solution of the eigenvalue problem:
     a serial algorithm will be used

     bravais-lattice index     =            0
     lattice parameter (alat)  =       8.5346  a.u.
     unit-cell volume          =     621.6493 (a.u.)^3
     number of atoms/cell      =            8
     number of atomic types    =            2
     number of electrons       =       176.00
     number of Kohn-Sham states=          106
     kinetic-energy cutoff     =      40.0000  Ry
     charge density cutoff     =     160.0000  Ry
     convergence threshold     =      1.0E-04
     mixing beta               =       0.7000
     number of iterations used =            8  plain     mixing
     Exchange-correlation      = SLA-PZ-NOGX-NOGC ( 1 1 0 0 0)
     EXX-fraction              =        0.00
     nstep                     =           50

     celldm(1)=   8.534573  celldm(2)=   0.000000  celldm(3)=   0.000000
     celldm(4)=   0.000000  celldm(5)=   0.000000  celldm(6)=   0.000000

     crystal axes: (cart. coord. in units of alat)
               a(1) = (   1.000000   0.000000   0.000000 )
               a(2) = (   0.000000   1.000000   0.000000 )
               a(3) = (   0.000000   0.000000   1.000000 )

     reciprocal axes: (cart. coord. in units 2 pi/alat)
               b(1) = (  1.000000  0.000000  0.000000 )
               b(2) = (  0.000000  1.000000  0.000000 )
               b(3) = (  0.000000  0.000000  1.000000 )

     PseudoPot. # 1 for Tm read from file:
     /home/cwx6513/pp.La/Tm.UPF
     MD5 check sum: 245516e0878b5372ceeb9443ded2c4e1
     Pseudo is Norm-conserving, Zval = 23.0
     Generated in analytical, separable form
     Using radial grid of 1269 points,  6 beta functions with:
                l(1) =   0
                l(2) =   0
                l(3) =   1
                l(4) =   1
                l(5) =   2
                l(6) =   3

     PseudoPot. # 2 for Tb read from file:
     /home/cwx6513/pp.La/Tb.UPF
     MD5 check sum: 3d6088a3f0cf7fd2e110c43f7f8e95c2
     Pseudo is Norm-conserving, Zval = 19.0
     Generated in analytical, separable form
     Using radial grid of 1263 points,  6 beta functions with:
                l(1) =   0
                l(2) =   0
                l(3) =   1
                l(4) =   1
                l(5) =   2
                l(6) =   3

     atomic species   valence    mass     pseudopotential
        Cr            23.00    51.99610     Tm( 1.00)
        Si            19.00    28.08550     Tb( 1.00)

     48 Sym. Ops., with inversion, found (24 have fractional translation)

   Cartesian axes

     site n.     atom                  positions (alat units)
         1           Cr  tau(   1) = (   0.0000000   0.5000000   0.2500000  )
         2           Cr  tau(   2) = (   0.0000000   0.5000000   0.7500000  )
         3           Cr  tau(   3) = (   0.5000000   0.7500000   0.0000000  )
         4           Cr  tau(   4) = (   0.5000000   0.2500000   0.0000000  )
         5           Cr  tau(   5) = (   0.7500000   0.0000000   0.5000000  )
         6           Cr  tau(   6) = (   0.2500000   0.0000000   0.5000000  )
         7           Si  tau(   7) = (   0.5000000   0.5000000   0.5000000  )
         8           Si  tau(   8) = (   0.0000000   0.0000000   0.0000000  )

     number of k points=    48  gaussian smearing, width (Ry)=  0.1000
                       cart. coord. in units 2pi/alat
        k(    1) = (   0.0000000   0.0000000   0.0000000), wk =   0.0095238
        k(    2) = (   0.0000000   0.0000000   0.1428571), wk =   0.0190476
        k(    3) = (   0.0000000   0.0000000   0.2857143), wk =   0.0190476
        k(    4) = (   0.0000000   0.0000000   0.4285714), wk =   0.0190476
        k(    5) = (   0.0000000   0.1666667   0.0000000), wk =   0.0190476
        k(    6) = (   0.0000000   0.1666667   0.1428571), wk =   0.0380952
        k(    7) = (   0.0000000   0.1666667   0.2857143), wk =   0.0380952
        k(    8) = (   0.0000000   0.1666667   0.4285714), wk =   0.0380952
        k(    9) = (   0.0000000   0.3333333   0.0000000), wk =   0.0190476
        k(   10) = (   0.0000000   0.3333333   0.1428571), wk =   0.0380952
        k(   11) = (   0.0000000   0.3333333   0.2857143), wk =   0.0380952
        k(   12) = (   0.0000000   0.3333333   0.4285714), wk =   0.0380952
        k(   13) = (   0.0000000  -0.5000000   0.0000000), wk =   0.0095238
        k(   14) = (   0.0000000  -0.5000000   0.1428571), wk =   0.0190476
        k(   15) = (   0.0000000  -0.5000000   0.2857143), wk =   0.0190476
        k(   16) = (   0.0000000  -0.5000000   0.4285714), wk =   0.0190476
        k(   17) = (   0.2000000   0.0000000   0.0000000), wk =   0.0190476
        k(   18) = (   0.2000000   0.0000000   0.1428571), wk =   0.0380952
        k(   19) = (   0.2000000   0.0000000   0.2857143), wk =   0.0380952
        k(   20) = (   0.2000000   0.0000000   0.4285714), wk =   0.0380952
        k(   21) = (   0.2000000   0.1666667   0.0000000), wk =   0.0380952
        k(   22) = (   0.2000000   0.1666667   0.1428571), wk =   0.0761905
        k(   23) = (   0.2000000   0.1666667   0.2857143), wk =   0.0761905
        k(   24) = (   0.2000000   0.1666667   0.4285714), wk =   0.0761905
        k(   25) = (   0.2000000   0.3333333   0.0000000), wk =   0.0380952
        k(   26) = (   0.2000000   0.3333333   0.1428571), wk =   0.0761905
        k(   27) = (   0.2000000   0.3333333   0.2857143), wk =   0.0761905
        k(   28) = (   0.2000000   0.3333333   0.4285714), wk =   0.0761905
        k(   29) = (   0.2000000  -0.5000000   0.0000000), wk =   0.0190476
        k(   30) = (   0.2000000  -0.5000000   0.1428571), wk =   0.0380952
        k(   31) = (   0.2000000  -0.5000000   0.2857143), wk =   0.0380952
        k(   32) = (   0.2000000  -0.5000000   0.4285714), wk =   0.0380952
        k(   33) = (   0.4000000   0.0000000   0.0000000), wk =   0.0190476
        k(   34) = (   0.4000000   0.0000000   0.1428571), wk =   0.0380952
        k(   35) = (   0.4000000   0.0000000   0.2857143), wk =   0.0380952
        k(   36) = (   0.4000000   0.0000000   0.4285714), wk =   0.0380952
        k(   37) = (   0.4000000   0.1666667   0.0000000), wk =   0.0380952
        k(   38) = (   0.4000000   0.1666667   0.1428571), wk =   0.0761905
        k(   39) = (   0.4000000   0.1666667   0.2857143), wk =   0.0761905
        k(   40) = (   0.4000000   0.1666667   0.4285714), wk =   0.0761905
        k(   41) = (   0.4000000   0.3333333   0.0000000), wk =   0.0380952
        k(   42) = (   0.4000000   0.3333333   0.1428571), wk =   0.0761905
        k(   43) = (   0.4000000   0.3333333   0.2857143), wk =   0.0761905
        k(   44) = (   0.4000000   0.3333333   0.4285714), wk =   0.0761905
        k(   45) = (   0.4000000  -0.5000000   0.0000000), wk =   0.0190476
        k(   46) = (   0.4000000  -0.5000000   0.1428571), wk =   0.0380952
        k(   47) = (   0.4000000  -0.5000000   0.2857143), wk =   0.0380952
        k(   48) = (   0.4000000  -0.5000000   0.4285714), wk =   0.0380952

     Largest allocated arrays     est. size (Mb)     dimensions
     Largest temporary arrays     est. size (Mb)     dimensions

     Initial potential from superposition of free atoms

     Starting from uniform charge
     Starting wfc are    0 randomized atomic wfcs

     Self-consistent Calculation

     iteration #  1     ecut=    40.00 Ry     beta=0.70
     CG style diagonalization
     c_bands:  5 eigenvalues not converged
     c_bands:  5 eigenvalues not converged
     c_bands:  5 eigenvalues not converged
     c_bands:  2 eigenvalues not converged
     c_bands:  5 eigenvalues not converged
     c_bands:  3 eigenvalues not converged
     c_bands:  2 eigenvalues not converged
     c_bands:  4 eigenvalues not converged
     c_bands:  1 eigenvalues not converged
     c_bands:  4 eigenvalues not converged
     c_bands:  4 eigenvalues not converged
     c_bands:  2 eigenvalues not converged
     c_bands:  3 eigenvalues not converged
     c_bands:  3 eigenvalues not converged
     c_bands:  5 eigenvalues not converged
     c_bands:  3 eigenvalues not converged
     c_bands:  1 eigenvalues not converged
     c_bands:  2 eigenvalues not converged
     c_bands:  5 eigenvalues not converged
     c_bands:  3 eigenvalues not converged
     c_bands:  1 eigenvalues not converged
     c_bands:  3 eigenvalues not converged
     c_bands:  3 eigenvalues not converged
     c_bands:  5 eigenvalues not converged
     c_bands:  5 eigenvalues not converged
     c_bands:  5 eigenvalues not converged
     c_bands:  3 eigenvalues not converged
     c_bands:  5 eigenvalues not converged
     c_bands:  3 eigenvalues not converged
     c_bands:  1 eigenvalues not converged
     c_bands:  1 eigenvalues not converged
     c_bands:  2 eigenvalues not converged
     c_bands:  2 eigenvalues not converged
     c_bands:  2 eigenvalues not converged
     ethr =  1.00E-02,  avg # of iterations = 14.3

     total energy              =   -2234.60891296 Ry
     Harris-Foulkes estimate   =   -3106.49171028 Ry
     estimated scf accuracy    <    1083.46013076 Ry

[...]

     iteration #  4     ecut=    40.00 Ry     beta=0.70
     CG style diagonalization
     ethr =  1.00E-02,  avg # of iterations =  4.8

[...]

     End of self-consistent calculation

          k = 0.0000 0.0000 0.0000 (  2601 PWs)   bands (ev):

   -60.9406 -60.9406 -60.8152 -60.5431 -60.5431 -60.5431 -27.5860 -27.5538
   -21.2247 -21.2247 -21.0925 -19.8617 -19.8617 -19.8617 -19.5252 -19.5252
   -19.5252 -19.4404 -19.4404 -19.4404 -19.3612 -19.3612 -19.3612 -19.0851
   -19.0851 -19.0851   3.4890   3.4890   3.4890   3.4965   3.4965   3.4965
    23.4398  23.4398  23.4708  25.0492  25.0492  25.0492  26.8857  26.9108
    26.9108  26.9108  27.6797  27.6797  27.7590  27.7847  27.7847  27.7847
    29.0144  29.3436  29.3436  29.3436  30.3246  30.3246  30.4225  30.4225
    30.4225  30.4496  30.4496  30.4496  31.2532  31.2532  31.2532  35.1051
    35.1051  39.4782  39.4782  39.5902  39.5902  39.5902  39.7676  39.7676
    39.7676  41.2251  41.2251  41.2251  45.5212  46.9101  46.9101  48.7030
    48.7030  48.7030  51.0439  51.0439  51.3198  51.6064  51.6064  51.6064
    54.1985  54.1985  54.1985  54.3670  54.3670  54.3670  54.8127  55.5287
    55.5287  55.5287  55.9140  55.9140  55.9140  58.3748  60.5232  60.5233
    60.5236  60.5606

[...]

     the Fermi energy is    53.4942 ev

!    total energy              =   -2651.35182084 Ry
     Harris-Foulkes estimate   =   -2651.35182881 Ry
     estimated scf accuracy    <       0.00000990 Ry

     The total energy is the sum of the following terms:

     one-electron contribution =     -75.12387286 Ry
     hartree contribution      =     281.05081838 Ry
     xc contribution           =    -233.83622551 Ry
     ewald contribution        =   -2623.06432198 Ry
[...]

     number of scf cycles    =   3
     number of bfgs steps    =   2

     enthalpy old            =   -2655.3682502068 Ry
     enthalpy new            =   -2653.0860041599 Ry

     CASE: enthalpy_new > enthalpy_old

     new trust radius        =       0.1294099420 bohr

     trust_radius < trust_radius_min

     resetting bfgs history

     Message from routine bfgs:
     history already reset at previous step: stopping
     new conv_thr            =       0.0000010000 Ry

     new unit-cell volume =   1049.61117 a.u.^3 (   155.53633 Ang^3 )

[...]

ATOMIC_POSITIONS (crystal)
Cr       0.000000000   0.500000000   0.250000000
Cr       0.000000000   0.500000000   0.750000000
Cr       0.500000000   0.750000000   0.000000000
Cr       0.500000000   0.250000000   0.000000000
Cr       0.750000000   0.000000000   0.500000000
Cr       0.250000000   0.000000000   0.500000000
Si       0.500000000   0.500000000   0.500000000
Si       0.000000000   0.000000000   0.000000000

     Writing output data file Prototype-La-cP8-Cr3Si.save
     NEW-OLD atomic charge density approx. for the potential
     NEW k-points:
        k(    1) = (   0.0000000   0.0000000   0.0000000), wk =   0.0095238
        k(    2) = (   0.0000000   0.0000000   0.1199704), wk =   0.0190476
        k(    3) = (   0.0000000   0.0000000   0.2399409), wk =   0.0190476
        k(    4) = (   0.0000000   0.0000000   0.3599113), wk =   0.0190476
        k(    5) = (   0.0000000   0.1399655   0.0000000), wk =   0.0190476
        k(    6) = (   0.0000000   0.1399655   0.1199704), wk =   0.0380952
        k(    7) = (   0.0000000   0.1399655   0.2399409), wk =   0.0380952
        k(    8) = (   0.0000000   0.1399655   0.3599113), wk =   0.0380952
        k(    9) = (   0.0000000   0.2799310   0.0000000), wk =   0.0190476
        k(   10) = (   0.0000000   0.2799310   0.1199704), wk =   0.0380952
        k(   11) = (   0.0000000   0.2799310   0.2399409), wk =   0.0380952
        k(   12) = (   0.0000000   0.2799310   0.3599113), wk =   0.0380952
        k(   13) = (   0.0000000  -0.4198966   0.0000000), wk =   0.0095238
        k(   14) = (   0.0000000  -0.4198966   0.1199704), wk =   0.0190476
        k(   15) = (   0.0000000  -0.4198966   0.2399409), wk =   0.0190476
        k(   16) = (   0.0000000  -0.4198966   0.3599113), wk =   0.0190476
        k(   17) = (   0.1679586   0.0000000   0.0000000), wk =   0.0190476
        k(   18) = (   0.1679586   0.0000000   0.1199704), wk =   0.0380952
        k(   19) = (   0.1679586   0.0000000   0.2399409), wk =   0.0380952
        k(   20) = (   0.1679586   0.0000000   0.3599113), wk =   0.0380952
        k(   21) = (   0.1679586   0.1399655   0.0000000), wk =   0.0380952
        k(   22) = (   0.1679586   0.1399655   0.1199704), wk =   0.0761905
        k(   23) = (   0.1679586   0.1399655   0.2399409), wk =   0.0761905
        k(   24) = (   0.1679586   0.1399655   0.3599113), wk =   0.0761905
        k(   25) = (   0.1679586   0.2799310   0.0000000), wk =   0.0380952
        k(   26) = (   0.1679586   0.2799310   0.1199704), wk =   0.0761905
        k(   27) = (   0.1679586   0.2799310   0.2399409), wk =   0.0761905
        k(   28) = (   0.1679586   0.2799310   0.3599113), wk =   0.0761905
        k(   29) = (   0.1679586  -0.4198966   0.0000000), wk =   0.0190476
        k(   30) = (   0.1679586  -0.4198966   0.1199704), wk =   0.0380952
        k(   31) = (   0.1679586  -0.4198966   0.2399409), wk =   0.0380952
        k(   32) = (   0.1679586  -0.4198966   0.3599113), wk =   0.0380952
        k(   33) = (   0.3359173   0.0000000   0.0000000), wk =   0.0190476
        k(   34) = (   0.3359173   0.0000000   0.1199704), wk =   0.0380952
        k(   35) = (   0.3359173   0.0000000   0.2399409), wk =   0.0380952
        k(   36) = (   0.3359173   0.0000000   0.3599113), wk =   0.0380952
        k(   37) = (   0.3359173   0.1399655   0.0000000), wk =   0.0380952
        k(   38) = (   0.3359173   0.1399655   0.1199704), wk =   0.0761905
        k(   39) = (   0.3359173   0.1399655   0.2399409), wk =   0.0761905
        k(   40) = (   0.3359173   0.1399655   0.3599113), wk =   0.0761905
        k(   41) = (   0.3359173   0.2799310   0.0000000), wk =   0.0380952
        k(   42) = (   0.3359173   0.2799310   0.1199704), wk =   0.0761905
        k(   43) = (   0.3359173   0.2799310   0.2399409), wk =   0.0761905
        k(   44) = (   0.3359173   0.2799310   0.3599113), wk =   0.0761905
        k(   45) = (   0.3359173  -0.4198966   0.0000000), wk =   0.0190476
        k(   46) = (   0.3359173  -0.4198966   0.1199704), wk =   0.0380952
        k(   47) = (   0.3359173  -0.4198966   0.2399409), wk =   0.0380952
        k(   48) = (   0.3359173  -0.4198966   0.3599113), wk =   0.0380952

[...]

          total   stress  (Ry/bohr**3)                   (kbar)     P=-1635.91
  -0.01112071   0.00000000   0.00000000      -1635.91      0.00      0.00
   0.00000000  -0.01112071   0.00000000          0.00  -1635.91      0.00
   0.00000000   0.00000000  -0.01112071          0.00      0.00  -1635.91

     The maximum number of steps has been reached.

     End of BFGS Geometry Optimization
Begin final coordinates
     new unit-cell volume =   1049.61117 a.u.^3 (   155.53633 Ang^3 )

CELL_PARAMETERS (alat=  8.53457320)
   1.190769423   0.000000000   0.000000000
   0.000000000   1.190769423   0.000000000
   0.000000000   0.000000000   1.190769423

ATOMIC_POSITIONS (crystal)
Cr       0.000000000   0.500000000   0.250000000
Cr       0.000000000   0.500000000   0.750000000
Cr       0.500000000   0.750000000   0.000000000
Cr       0.500000000   0.250000000   0.000000000
Cr       0.750000000   0.000000000   0.500000000
Cr       0.250000000   0.000000000   0.500000000
Si       0.500000000   0.500000000   0.500000000
Si       0.000000000   0.000000000   0.000000000
End final coordinates

     A final scf calculation at the relaxed structure.
     The G-vectors are recalculated for the final unit cell
     Results may differ from those at the preceding step.

     bravais-lattice index     =            0
     lattice parameter (alat)  =       8.5346  a.u.
     unit-cell volume          =    1049.6112 (a.u.)^3
     number of atoms/cell      =            8
     number of atomic types    =            2
     number of electrons       =       176.00
     number of Kohn-Sham states=          106
     kinetic-energy cutoff     =      40.0000  Ry
     charge density cutoff     =     160.0000  Ry
     convergence threshold     =      1.0E-06
     mixing beta               =       0.7000
     number of iterations used =            8  plain     mixing
     Exchange-correlation      = SLA-PZ-NOGX-NOGC ( 1 1 0 0 0)
     EXX-fraction              =        0.00

     celldm(1)=   8.534573  celldm(2)=   0.000000  celldm(3)=   0.000000
     celldm(4)=   0.000000  celldm(5)=   0.000000  celldm(6)=   0.000000

     crystal axes: (cart. coord. in units of alat)
               a(1) = (   1.190769   0.000000   0.000000 )
               a(2) = (   0.000000   1.190769   0.000000 )
               a(3) = (   0.000000   0.000000   1.190769 )

     reciprocal axes: (cart. coord. in units 2 pi/alat)
               b(1) = (  0.839793  0.000000  0.000000 )
               b(2) = (  0.000000  0.839793  0.000000 )
               b(3) = (  0.000000  0.000000  0.839793 )

     PseudoPot. # 1 for Tm read from file:
     /home/cwx6513/pp.La/Tm.UPF
     MD5 check sum: 245516e0878b5372ceeb9443ded2c4e1
     Pseudo is Norm-conserving, Zval = 23.0
     Generated in analytical, separable form
     Using radial grid of 1269 points,  6 beta functions with:
                l(1) =   0
                l(2) =   0
                l(3) =   1
                l(4) =   1
                l(5) =   2
                l(6) =   3

     PseudoPot. # 2 for Tb read from file:
     /home/cwx6513/pp.La/Tb.UPF
     MD5 check sum: 3d6088a3f0cf7fd2e110c43f7f8e95c2
     Pseudo is Norm-conserving, Zval = 19.0
     Generated in analytical, separable form
     Using radial grid of 1263 points,  6 beta functions with:
                l(1) =   0
                l(2) =   0
                l(3) =   1
                l(4) =   1
                l(5) =   2
                l(6) =   3

     atomic species   valence    mass     pseudopotential
        Cr            23.00    51.99610     Tm( 1.00)
        Si            19.00    28.08550     Tb( 1.00)

     48 Sym. Ops., with inversion, found (24 have fractional translation)

   Cartesian axes

     site n.     atom                  positions (alat units)
         1           Cr  tau(   1) = (   0.0000000   0.5953847   0.2976924  )
         2           Cr  tau(   2) = (   0.0000000   0.5953847   0.8930771  )
         3           Cr  tau(   3) = (   0.5953847   0.8930771   0.0000000  )
         4           Cr  tau(   4) = (   0.5953847   0.2976924   0.0000000  )
         5           Cr  tau(   5) = (   0.8930771   0.0000000   0.5953847  )
         6           Cr  tau(   6) = (   0.2976924   0.0000000   0.5953847  )
         7           Si  tau(   7) = (   0.5953847   0.5953847   0.5953847  )
         8           Si  tau(   8) = (   0.0000000   0.0000000   0.0000000  )

     number of k points=    48  gaussian smearing, width (Ry)=  0.1000
                       cart. coord. in units 2pi/alat
        k(    1) = (   0.0000000   0.0000000   0.0000000), wk =   0.0095238
        k(    2) = (   0.0000000   0.0000000   0.1199704), wk =   0.0190476
        k(    3) = (   0.0000000   0.0000000   0.2399409), wk =   0.0190476
        k(    4) = (   0.0000000   0.0000000   0.3599113), wk =   0.0190476
        k(    5) = (   0.0000000   0.1399655   0.0000000), wk =   0.0190476
        k(    6) = (   0.0000000   0.1399655   0.1199704), wk =   0.0380952
        k(    7) = (   0.0000000   0.1399655   0.2399409), wk =   0.0380952
        k(    8) = (   0.0000000   0.1399655   0.3599113), wk =   0.0380952
        k(    9) = (   0.0000000   0.2799310   0.0000000), wk =   0.0190476
        k(   10) = (   0.0000000   0.2799310   0.1199704), wk =   0.0380952
        k(   11) = (   0.0000000   0.2799310   0.2399409), wk =   0.0380952
        k(   12) = (   0.0000000   0.2799310   0.3599113), wk =   0.0380952
        k(   13) = (   0.0000000  -0.4198966   0.0000000), wk =   0.0095238
        k(   14) = (   0.0000000  -0.4198966   0.1199704), wk =   0.0190476
        k(   15) = (   0.0000000  -0.4198966   0.2399409), wk =   0.0190476
        k(   16) = (   0.0000000  -0.4198966   0.3599113), wk =   0.0190476
        k(   17) = (   0.1679586   0.0000000   0.0000000), wk =   0.0190476
        k(   18) = (   0.1679586   0.0000000   0.1199704), wk =   0.0380952
        k(   19) = (   0.1679586   0.0000000   0.2399409), wk =   0.0380952
        k(   20) = (   0.1679586   0.0000000   0.3599113), wk =   0.0380952
        k(   21) = (   0.1679586   0.1399655   0.0000000), wk =   0.0380952
        k(   22) = (   0.1679586   0.1399655   0.1199704), wk =   0.0761905
        k(   23) = (   0.1679586   0.1399655   0.2399409), wk =   0.0761905
        k(   24) = (   0.1679586   0.1399655   0.3599113), wk =   0.0761905
        k(   25) = (   0.1679586   0.2799310   0.0000000), wk =   0.0380952
        k(   26) = (   0.1679586   0.2799310   0.1199704), wk =   0.0761905
        k(   27) = (   0.1679586   0.2799310   0.2399409), wk =   0.0761905
        k(   28) = (   0.1679586   0.2799310   0.3599113), wk =   0.0761905
        k(   29) = (   0.1679586  -0.4198966   0.0000000), wk =   0.0190476
        k(   30) = (   0.1679586  -0.4198966   0.1199704), wk =   0.0380952
        k(   31) = (   0.1679586  -0.4198966   0.2399409), wk =   0.0380952
        k(   32) = (   0.1679586  -0.4198966   0.3599113), wk =   0.0380952
        k(   33) = (   0.3359173   0.0000000   0.0000000), wk =   0.0190476
        k(   34) = (   0.3359173   0.0000000   0.1199704), wk =   0.0380952
        k(   35) = (   0.3359173   0.0000000   0.2399409), wk =   0.0380952
        k(   36) = (   0.3359173   0.0000000   0.3599113), wk =   0.0380952
        k(   37) = (   0.3359173   0.1399655   0.0000000), wk =   0.0380952
        k(   38) = (   0.3359173   0.1399655   0.1199704), wk =   0.0761905
        k(   39) = (   0.3359173   0.1399655   0.2399409), wk =   0.0761905
        k(   40) = (   0.3359173   0.1399655   0.3599113), wk =   0.0761905
        k(   41) = (   0.3359173   0.2799310   0.0000000), wk =   0.0380952
        k(   42) = (   0.3359173   0.2799310   0.1199704), wk =   0.0761905
        k(   43) = (   0.3359173   0.2799310   0.2399409), wk =   0.0761905
        k(   44) = (   0.3359173   0.2799310   0.3599113), wk =   0.0761905
        k(   45) = (   0.3359173  -0.4198966   0.0000000), wk =   0.0190476
        k(   46) = (   0.3359173  -0.4198966   0.1199704), wk =   0.0380952
        k(   47) = (   0.3359173  -0.4198966   0.2399409), wk =   0.0380952
        k(   48) = (   0.3359173  -0.4198966   0.3599113), wk =   0.0380952

     Largest allocated arrays     est. size (Mb)     dimensions
     Largest temporary arrays     est. size (Mb)     dimensions

     Initial potential from superposition of free atoms

     Starting from uniform charge
     Starting wfc are    0 randomized atomic wfcs

     Writing output data file Prototype-La-cP8-Cr3Si.save

     Self-consistent Calculation

[...]

     iteration #  9     ecut=    40.00 Ry     beta=0.70
     CG style diagonalization
     c_bands:  2 eigenvalues not converged
     c_bands:  1 eigenvalues not converged
     ethr =  1.99E-07,  avg # of iterations =  3.4

[...]

     total energy              =   -2661.76991852 Ry
     Harris-Foulkes estimate   =   -2661.76991920 Ry
     estimated scf accuracy    <       0.00000111 Ry

     iteration # 11     ecut=    40.00 Ry     beta=0.70
     CG style diagonalization
     ethr =  6.30E-10,  avg # of iterations =  4.4

     End of self-consistent calculation

[...]

          k = 0.3359-0.4199 0.3599 (  4506 PWs)   bands (ev):

   -81.6792 -81.6749 -81.6739 -81.6725 -81.6708 -81.6647 -46.3349 -46.3348
   -40.5197 -40.5053 -40.4713 -40.4713 -40.4313 -40.4148 -40.3090 -40.3086
   -40.3059 -40.3058 -40.3051 -40.3032 -40.3019 -40.3015 -40.2985 -40.2973
   -40.2922 -40.2910 -14.7773 -14.7773 -14.7748 -14.7747 -14.7715 -14.7715
     7.7437   7.8600   8.1437   8.1467   8.1791   8.1857   8.2131   8.2246
     8.3183   8.3244   8.3778   8.4037   8.4169   8.4308   8.4851   8.4888
     8.6543   8.6543   8.7397   8.7494   8.7537   8.7735   8.8025   8.8394
     8.9015   8.9134   8.9392   8.9426   8.9600   8.9715  17.0083  17.0152
    17.6942  17.6943  18.2364  18.2470  21.5435  21.5438  22.2608  22.2633
    22.2741  22.2765  23.0146  23.0503  23.1994  23.2094  23.3277  23.3323
    28.4134  28.6299  29.3274  29.4138  30.3607  30.7506  31.4180  31.4982
    31.8121  31.8677  32.2427  32.4939  32.6868  32.7282  33.2399  33.3126
    33.3250  33.3560  34.1402  34.1464  34.7746  34.9201  34.9847  35.0344
    37.9232  38.1059

     the Fermi energy is    30.6311 ev

!    total energy              =   -2661.76991926 Ry
     Harris-Foulkes estimate   =   -2661.76991927 Ry
     estimated scf accuracy    <       0.00000002 Ry

     The total energy is the sum of the following terms:

     one-electron contribution =    -684.42639522 Ry
     hartree contribution      =     450.71366288 Ry
     xc contribution           =    -224.94479041 Ry
     ewald contribution        =   -2202.83143966 Ry
     smearing contrib. (-TS)   =      -0.28095685 Ry

     convergence has been achieved in  11 iterations

     Forces acting on atoms (Ry/au):

     atom    1 type  1   force =     0.00000000    0.00000000    0.00000000
     atom    2 type  1   force =     0.00000000    0.00000000    0.00000000
     atom    3 type  1   force =     0.00000000    0.00000000    0.00000000
     atom    4 type  1   force =     0.00000000    0.00000000    0.00000000
     atom    5 type  1   force =     0.00000000    0.00000000    0.00000000
     atom    6 type  1   force =     0.00000000    0.00000000    0.00000000
     atom    7 type  2   force =     0.00000000    0.00000000    0.00000000
     atom    8 type  2   force =     0.00000000    0.00000000    0.00000000

     Total force =     0.000000     Total SCF correction =     0.000000

     entering subroutine stress ...

          total   stress  (Ry/bohr**3)                   (kbar)     P=  180.64
   0.00122795   0.00000000   0.00000000        180.64      0.00      0.00
   0.00000000   0.00122795   0.00000000          0.00    180.64      0.00
   0.00000000   0.00000000   0.00122795          0.00      0.00    180.64

     Writing output data file Prototype-La-cP8-Cr3Si.save

     General routines

     Parallel routines

   This run was terminated on:  16:49:32  22Mar2018

   JOB DONE.