     Program PWSCF v.5.0.2 starts on 22Mar2018 at 16:21:54

     Current dimensions of program PWSCF are:
     Max number of different atomic species (ntypx) = 10
     Max number of k-points (npk) =  40000
     Max angular momentum in pseudopotentials (lmaxx) =  3
     Waiting for input...
     Reading input from standard input

     Subspace diagonalization in iterative solution of the eigenvalue problem:
     a serial algorithm will be used

     bravais-lattice index     =            0
     lattice parameter (alat)  =       7.0151  a.u.
     unit-cell volume          =     862.2778 (a.u.)^3
     number of atoms/cell      =           12
     number of atomic types    =            2
     number of electrons       =       196.00
     number of Kohn-Sham states=          118
     kinetic-energy cutoff     =      40.0000  Ry
     charge density cutoff     =     160.0000  Ry
     convergence threshold     =      1.0E-04
     mixing beta               =       0.7000
     number of iterations used =            8  plain     mixing
     Exchange-correlation      = SLA-PZ-NOGX-NOGC ( 1 1 0 0 0)
     EXX-fraction              =        0.00
     nstep                     =           50

     celldm(1)=   7.015105  celldm(2)=   0.000000  celldm(3)=   0.000000
     celldm(4)=   0.000000  celldm(5)=   0.000000  celldm(6)=   0.000000

     crystal axes: (cart. coord. in units of alat)
               a(1) = (   1.000000   0.000000   0.000000 )
               a(2) = (   0.000000   1.315963   0.000000 )
               a(3) = (   0.000000   0.000000   1.898020 )

     reciprocal axes: (cart. coord. in units 2 pi/alat)
               b(1) = (  1.000000  0.000000  0.000000 )
               b(2) = (  0.000000  0.759900  0.000000 )
               b(3) = (  0.000000  0.000000  0.526865 )

     PseudoPot. # 1 for Pr read from file:
     /home/cwx6513/pp.La/Pr.UPF
     MD5 check sum: 70e2b4b153859e92c8c91247dfc63203
     Pseudo is Norm-conserving, Zval = 13.0
     Generated in analytical, separable form
     Using radial grid of 1255 points,  6 beta functions with:
                l(1) =   0
                l(2) =   0
                l(3) =   1
                l(4) =   1
                l(5) =   2
                l(6) =   3

     PseudoPot. # 2 for Tm read from file:
     /home/cwx6513/pp.La/Tm.UPF
     MD5 check sum: 245516e0878b5372ceeb9443ded2c4e1
     Pseudo is Norm-conserving, Zval = 23.0
     Generated in analytical, separable form
     Using radial grid of 1269 points,  6 beta functions with:
                l(1) =   0
                l(2) =   0
                l(3) =   1
                l(4) =   1
                l(5) =   2
                l(6) =   3

     atomic species   valence    mass     pseudopotential
        Co            13.00    58.93320     Pr( 1.00)
        Si            23.00    28.08550     Tm( 1.00)

      8 Sym. Ops., with inversion, found ( 6 have fractional translation)

   Cartesian axes

     site n.     atom                  positions (alat units)
         1           Co  tau(   1) = (   0.7500000   1.0875135   0.8270358  )
         2           Co  tau(   2) = (   0.2500000   0.2284499   1.0709846  )
         3           Co  tau(   3) = (   0.7500000   0.4295318   0.1219744  )
         4           Co  tau(   4) = (   0.2500000   0.8864316   1.7760460  )
         5           Co  tau(   5) = (   0.2500000   0.7067855   0.5358966  )
         6           Co  tau(   6) = (   0.7500000   0.6091779   1.3621238  )
         7           Co  tau(   7) = (   0.2500000   0.0488038   0.4131136  )
         8           Co  tau(   8) = (   0.7500000   1.2671596   1.4849068  )
         9           Si  tau(   9) = (   0.2500000   0.2669484   1.6960710  )
        10           Si  tau(  10) = (   0.7500000   1.0490149   0.2019494  )
        11           Si  tau(  11) = (   0.2500000   0.9249301   1.1509596  )
        12           Si  tau(  12) = (   0.7500000   0.3910333   0.7470608  )

     number of k points=    12  gaussian smearing, width (Ry)=  0.1000
                       cart. coord. in units 2pi/alat
        k(    1) = (   0.0000000   0.0000000   0.0000000), wk =   0.0833333
        k(    2) = (   0.0000000   0.0000000   0.1317162), wk =   0.1666667
        k(    3) = (   0.0000000   0.0000000  -0.2634324), wk =   0.0833333
        k(    4) = (   0.0000000   0.2532999   0.0000000), wk =   0.1666667
        k(    5) = (   0.0000000   0.2532999   0.1317162), wk =   0.3333333
        k(    6) = (   0.0000000   0.2532999  -0.2634324), wk =   0.1666667
        k(    7) = (  -0.5000000   0.0000000   0.0000000), wk =   0.0833333
        k(    8) = (  -0.5000000   0.0000000   0.1317162), wk =   0.1666667
        k(    9) = (  -0.5000000   0.0000000  -0.2634324), wk =   0.0833333
        k(   10) = (  -0.5000000   0.2532999   0.0000000), wk =   0.1666667
        k(   11) = (  -0.5000000   0.2532999   0.1317162), wk =   0.3333333
        k(   12) = (  -0.5000000   0.2532999  -0.2634324), wk =   0.1666667

     Largest allocated arrays     est. size (Mb)     dimensions
     Largest temporary arrays     est. size (Mb)     dimensions

     Initial potential from superposition of free atoms

     starting charge  103.92434, renormalised to  196.00000
     Starting wfc are  160 randomized atomic wfcs

     Self-consistent Calculation

     iteration #  1     ecut=    40.00 Ry     beta=0.70
     CG style diagonalization
     ethr =  1.00E-02,  avg # of iterations = 19.5

     total energy              =    -486.22562501 Ry
     Harris-Foulkes estimate   =   -3955.53302313 Ry
     estimated scf accuracy    <    4117.33460798 Ry

[...]

     iteration #  3     ecut=    40.00 Ry     beta=0.70
     CG style diagonalization
     c_bands:  1 eigenvalues not converged
     c_bands:  1 eigenvalues not converged
     ethr =  1.00E-02,  avg # of iterations = 12.3

[...]

     End of self-consistent calculation

          k = 0.0000 0.0000 0.0000 (  3675 PWs)   bands (ev):

   -64.2573 -64.2385 -64.2377 -64.2165 -23.4221 -23.4196 -23.3925 -23.3632
   -23.3558 -23.3508 -23.3499 -23.3437 -23.1883 -23.1675 -23.1335 -23.1002
     1.5433   3.0634   3.3887   4.1896   4.5841   5.0615   5.1409   5.4009
    17.4691  17.8264  18.5577  19.1832  19.3585  19.5343  19.5588  20.0094
    20.3245  20.6000  20.8703  20.9211  21.2804  21.8781  22.1950  22.6238
    23.0613  23.7078  23.8189  23.9715  24.1424  24.5748  24.7134  24.8107
    25.0563  25.1944  25.2369  25.4159  25.6977  25.7695  26.0401  26.1918
    26.2903  26.4227  27.2464  27.5450  27.5596  28.2355  28.2762  28.4396
    28.5587  29.1252  29.3017  29.9659  35.0453  36.6980  37.4397  38.6460
    39.0110  39.9013  40.6520  41.6787  41.8291  42.2291  42.4533  42.6267
    42.8466  43.0878  43.1110  43.2713  43.6934  44.6856  44.7974  44.9056
    46.3097  47.3177  47.8577  47.9403  47.9441  48.2255  48.8670  49.6073
    49.8753  50.2540  50.3152  50.4490  50.5191  50.8245  51.6373  51.7507
    51.8634  52.2409  52.3715  52.6185  53.4081  53.5352  53.7308  54.0679
    55.2522  55.4849  55.7959  55.8891  56.1173  56.7522

[...]

          k =-0.5000 0.0000 0.0000 (  3722 PWs)   bands (ev):

[...]

     the Fermi energy is    49.4124 ev

!    total energy              =   -2197.71257960 Ry
     Harris-Foulkes estimate   =   -2197.71260114 Ry
     estimated scf accuracy    <       0.00002259 Ry

     The total energy is the sum of the following terms:

     one-electron contribution =     110.90664499 Ry
     hartree contribution      =     232.75064264 Ry
     xc contribution           =    -230.70831938 Ry
     ewald contribution        =   -2310.29647565 Ry
     smearing contrib. (-TS)   =      -0.36507220 Ry

     convergence has been achieved in  11 iterations

     Forces acting on atoms (Ry/au):

     atom    1 type  1   force =     0.00000000   -0.05757259   -0.04954660
     atom    2 type  1   force =     0.00000000    0.05757259    0.04954660
     atom    3 type  1   force =     0.00000000   -0.05757259    0.04954660
     atom    4 type  1   force =     0.00000000    0.05757259   -0.04954660
     atom    5 type  1   force =     0.00000000    0.20569541   -0.32414641
     atom    6 type  1   force =     0.00000000   -0.20569541    0.32414641
     atom    7 type  1   force =     0.00000000    0.20569541    0.32414641
     atom    8 type  1   force =     0.00000000   -0.20569541   -0.32414641
     atom    9 type  2   force =     0.00000000   -0.21001311    0.01001372
     atom   10 type  2   force =     0.00000000    0.21001311   -0.01001372
     atom   11 type  2   force =     0.00000000   -0.21001311   -0.01001372
     atom   12 type  2   force =     0.00000000    0.21001311    0.01001372

     Total force =     0.888497     Total SCF correction =     0.023893

     entering subroutine stress ...

          total   stress  (Ry/bohr**3)                   (kbar)     P= 6812.40
   0.05023121   0.00000000   0.00000000       7389.26      0.00      0.00
   0.00000000   0.04287763   0.00000000          0.00   6307.52      0.00
   0.00000000   0.00000000   0.04582050          0.00      0.00   6740.43

     BFGS Geometry Optimization

     number of scf cycles    =   1
     number of bfgs steps    =   0

     enthalpy new            =   -2197.7125796047 Ry

     new trust radius        =       0.5000000000 bohr
     new conv_thr            =       0.0001000000 Ry

     new unit-cell volume =   1081.63607 a.u.^3 (   160.28193 Ang^3 )

CELL_PARAMETERS (alat=  7.01510508)
   1.085136619   0.000000000   0.000000000
   0.000000000   1.411598486   0.000000000
   0.000000000   0.000000000   2.045422440

ATOMIC_POSITIONS (crystal)
Co       0.750000000   0.825978195   0.435483721
Co       0.250000000   0.174021805   0.564516279
Co       0.750000000   0.325978195   0.064516279
Co       0.250000000   0.674021805   0.935483721
Co       0.250000000   0.538596600   0.280694525
Co       0.750000000   0.461403400   0.719305475
Co       0.250000000   0.038596600   0.219305475
Co       0.750000000   0.961403400   0.780694525
Si       0.250000000   0.201311692   0.893650987
Si       0.750000000   0.798688308   0.106349013
Si       0.250000000   0.701311692   0.606349013
Si       0.750000000   0.298688308   0.393650987

     Writing output data file Prototype-La-oP12-Co2Si.save
     NEW-OLD atomic charge density approx. for the potential
     NEW k-points:
        k(    1) = (   0.0000000   0.0000000   0.0000000), wk =   0.0833333
        k(    2) = (   0.0000000   0.0000000   0.1222241), wk =   0.1666667
        k(    3) = (   0.0000000   0.0000000  -0.2444483), wk =   0.0833333
        k(    4) = (   0.0000000   0.2361389   0.0000000), wk =   0.1666667
        k(    5) = (   0.0000000   0.2361389   0.1222241), wk =   0.3333333
        k(    6) = (   0.0000000   0.2361389  -0.2444483), wk =   0.1666667
        k(    7) = (  -0.4607715   0.0000000   0.0000000), wk =   0.0833333
        k(    8) = (  -0.4607715   0.0000000   0.1222241), wk =   0.1666667
        k(    9) = (  -0.4607715   0.0000000  -0.2444483), wk =   0.0833333
        k(   10) = (  -0.4607715   0.2361389   0.0000000), wk =   0.1666667
        k(   11) = (  -0.4607715   0.2361389   0.1222241), wk =   0.3333333
        k(   12) = (  -0.4607715   0.2361389  -0.2444483), wk =   0.1666667
     Check: negative starting charge=   -0.010831

     negative rho (up, down):  0.112E-01 0.000E+00
     extrapolated charge  217.07609, renormalised to  196.00000

[...]

     negative rho (up, down):  0.242E-02 0.000E+00

[...]

     enthalpy old            =   -2197.7125796047 Ry
     enthalpy new            =   -2204.3202502615 Ry

     CASE: enthalpy_new < enthalpy_old

     small trust_radius: resetting bfgs history

     new trust radius        =       3.0918286978 bohr
     new conv_thr            =       0.0001000000 Ry

[...]

     Writing output data file Prototype-La-oP12-Co2Si.save
     Check: negative starting charge=   -0.010831
     NEW-OLD atomic charge density approx. for the potential
     NEW k-points:
        k(    1) = (   0.0000000   0.0000000   0.0000000), wk =   0.0833333
        k(    2) = (   0.0000000   0.0000000   0.0858990), wk =   0.1666667
        k(    3) = (   0.0000000   0.0000000  -0.1717981), wk =   0.0833333
        k(    4) = (   0.0000000   0.1707747   0.0000000), wk =   0.1666667
        k(    5) = (   0.0000000   0.1707747   0.0858990), wk =   0.3333333
        k(    6) = (   0.0000000   0.1707747  -0.1717981), wk =   0.1666667
        k(    7) = (  -0.3134391   0.0000000   0.0000000), wk =   0.0833333
        k(    8) = (  -0.3134391   0.0000000   0.0858990), wk =   0.1666667
        k(    9) = (  -0.3134391   0.0000000  -0.1717981), wk =   0.0833333
        k(   10) = (  -0.3134391   0.1707747   0.0000000), wk =   0.1666667
        k(   11) = (  -0.3134391   0.1707747   0.0858990), wk =   0.3333333
        k(   12) = (  -0.3134391   0.1707747  -0.1717981), wk =   0.1666667
     Check: negative starting charge=   -0.002547

[...]

     Total force =     0.029510     Total SCF correction =     0.009266
     SCF correction compared to forces is large: reduce conv_thr to get better values

[...]

          total   stress  (Ry/bohr**3)                   (kbar)     P=-2821.70
  -0.02100024   0.00000000   0.00000000      -3089.24      0.00      0.00
   0.00000000  -0.01758227   0.00000000          0.00  -2586.44      0.00
   0.00000000   0.00000000  -0.01896211          0.00      0.00  -2789.42

     number of scf cycles    =   3
     number of bfgs steps    =   2

     enthalpy old            =   -2204.3202502615 Ry
     enthalpy new            =   -2181.4428853839 Ry

     CASE: enthalpy_new > enthalpy_old

     new trust radius        =       0.9143240093 bohr

     trust_radius < trust_radius_min

     resetting bfgs history

     Message from routine bfgs:
     history already reset at previous step: stopping
     new conv_thr            =       0.0001000000 Ry

     new unit-cell volume =   1274.13205 a.u.^3 (   188.80689 Ang^3 )

[...]

ATOMIC_POSITIONS (crystal)
Co       0.750000000   0.825546680   0.435367948
Co       0.250000000   0.174453320   0.564632052
Co       0.750000000   0.325546680   0.064632052
Co       0.250000000   0.674453320   0.935367948
Co       0.250000000   0.539838193   0.279454381
Co       0.750000000   0.460161807   0.720545619
Co       0.250000000   0.039838193   0.220545619
Co       0.750000000   0.960161807   0.779454381
Si       0.250000000   0.199970604   0.893732472
Si       0.750000000   0.800029396   0.106267528
Si       0.250000000   0.699970604   0.606267528
Si       0.750000000   0.300029396   0.393732472

     Writing output data file Prototype-La-oP12-Co2Si.save
     Check: negative starting charge=   -0.002547
     NEW-OLD atomic charge density approx. for the potential
     NEW k-points:
        k(    1) = (   0.0000000   0.0000000   0.0000000), wk =   0.0833333
        k(    2) = (   0.0000000   0.0000000   0.1158105), wk =   0.1666667
        k(    3) = (   0.0000000   0.0000000  -0.2316210), wk =   0.0833333
        k(    4) = (   0.0000000   0.2254660   0.0000000), wk =   0.1666667
        k(    5) = (   0.0000000   0.2254660   0.1158105), wk =   0.3333333
        k(    6) = (   0.0000000   0.2254660  -0.2316210), wk =   0.1666667
        k(    7) = (  -0.4323624   0.0000000   0.0000000), wk =   0.0833333
        k(    8) = (  -0.4323624   0.0000000   0.1158105), wk =   0.1666667
        k(    9) = (  -0.4323624   0.0000000  -0.2316210), wk =   0.0833333
        k(   10) = (  -0.4323624   0.2254660   0.0000000), wk =   0.1666667
        k(   11) = (  -0.4323624   0.2254660   0.1158105), wk =   0.3333333
        k(   12) = (  -0.4323624   0.2254660  -0.2316210), wk =   0.1666667
     Check: negative starting charge=   -0.022647

     negative rho (up, down):  0.650E+02 0.000E+00
     extrapolated charge   44.75465, renormalised to  196.00000

[...]

     The maximum number of steps has been reached.

     End of BFGS Geometry Optimization
Begin final coordinates
     new unit-cell volume =   1274.13205 a.u.^3 (   188.80689 Ang^3 )

CELL_PARAMETERS (alat=  7.01510508)
   1.156437299   0.000000000   0.000000000
   0.000000000   1.478419818   0.000000000
   0.000000000   0.000000000   2.158698710

ATOMIC_POSITIONS (crystal)
Co       0.750000000   0.825546680   0.435367948
Co       0.250000000   0.174453320   0.564632052
Co       0.750000000   0.325546680   0.064632052
Co       0.250000000   0.674453320   0.935367948
Co       0.250000000   0.539838193   0.279454381
Co       0.750000000   0.460161807   0.720545619
Co       0.250000000   0.039838193   0.220545619
Co       0.750000000   0.960161807   0.779454381
Si       0.250000000   0.199970604   0.893732472
Si       0.750000000   0.800029396   0.106267528
Si       0.250000000   0.699970604   0.606267528
Si       0.750000000   0.300029396   0.393732472
End final coordinates

     A final scf calculation at the relaxed structure.
     The G-vectors are recalculated for the final unit cell
     Results may differ from those at the preceding step.

     bravais-lattice index     =            0
     lattice parameter (alat)  =       7.0151  a.u.
     unit-cell volume          =    1274.1320 (a.u.)^3
     number of atoms/cell      =           12
     number of atomic types    =            2
     number of electrons       =       196.00
     number of Kohn-Sham states=          118
     kinetic-energy cutoff     =      40.0000  Ry
     charge density cutoff     =     160.0000  Ry
     convergence threshold     =      1.0E-04
     mixing beta               =       0.7000
     number of iterations used =            8  plain     mixing
     Exchange-correlation      = SLA-PZ-NOGX-NOGC ( 1 1 0 0 0)
     EXX-fraction              =        0.00

     celldm(1)=   7.015105  celldm(2)=   0.000000  celldm(3)=   0.000000
     celldm(4)=   0.000000  celldm(5)=   0.000000  celldm(6)=   0.000000

     crystal axes: (cart. coord. in units of alat)
               a(1) = (   1.156437   0.000000   0.000000 )
               a(2) = (   0.000000   1.478420   0.000000 )
               a(3) = (   0.000000   0.000000   2.158699 )

     reciprocal axes: (cart. coord. in units 2 pi/alat)
               b(1) = (  0.864725  0.000000  0.000000 )
               b(2) = (  0.000000  0.676398  0.000000 )
               b(3) = (  0.000000  0.000000  0.463242 )

     PseudoPot. # 1 for Pr read from file:
     /home/cwx6513/pp.La/Pr.UPF
     MD5 check sum: 70e2b4b153859e92c8c91247dfc63203
     Pseudo is Norm-conserving, Zval = 13.0
     Generated in analytical, separable form
     Using radial grid of 1255 points,  6 beta functions with:
                l(1) =   0
                l(2) =   0
                l(3) =   1
                l(4) =   1
                l(5) =   2
                l(6) =   3

     PseudoPot. # 2 for Tm read from file:
     /home/cwx6513/pp.La/Tm.UPF
     MD5 check sum: 245516e0878b5372ceeb9443ded2c4e1
     Pseudo is Norm-conserving, Zval = 23.0
     Generated in analytical, separable form
     Using radial grid of 1269 points,  6 beta functions with:
                l(1) =   0
                l(2) =   0
                l(3) =   1
                l(4) =   1
                l(5) =   2
                l(6) =   3

     atomic species   valence    mass     pseudopotential
        Co            13.00    58.93320     Pr( 1.00)
        Si            23.00    28.08550     Tm( 1.00)

      8 Sym. Ops., with inversion, found ( 6 have fractional translation)

   Cartesian axes

     site n.     atom                  positions (alat units)
         1           Co  tau(   1) = (   0.8673280   1.2205046   0.9398282  )
         2           Co  tau(   2) = (   0.2891093   0.2579152   1.2188705  )
         3           Co  tau(   3) = (   0.8673280   0.4812947   0.1395211  )
         4           Co  tau(   4) = (   0.2891093   0.9971252   2.0191776  )
         5           Co  tau(   5) = (   0.2891093   0.7981075   0.6032578  )
         6           Co  tau(   6) = (   0.8673280   0.6803123   1.5554409  )
         7           Co  tau(   7) = (   0.2891093   0.0588976   0.4760915  )
         8           Co  tau(   8) = (   0.8673280   1.4195222   1.6826072  )
         9           Si  tau(   9) = (   0.2891093   0.2956405   1.9292991  )
        10           Si  tau(  10) = (   0.8673280   1.1827793   0.2293996  )
        11           Si  tau(  11) = (   0.2891093   1.0348504   1.3087489  )
        12           Si  tau(  12) = (   0.8673280   0.4435694   0.8499498  )

     number of k points=    12  gaussian smearing, width (Ry)=  0.1000
                       cart. coord. in units 2pi/alat
        k(    1) = (   0.0000000   0.0000000   0.0000000), wk =   0.0833333
        k(    2) = (   0.0000000   0.0000000   0.1158105), wk =   0.1666667
        k(    3) = (   0.0000000   0.0000000  -0.2316210), wk =   0.0833333
        k(    4) = (   0.0000000   0.2254660   0.0000000), wk =   0.1666667
        k(    5) = (   0.0000000   0.2254660   0.1158105), wk =   0.3333333
        k(    6) = (   0.0000000   0.2254660  -0.2316210), wk =   0.1666667
        k(    7) = (  -0.4323624   0.0000000   0.0000000), wk =   0.0833333
        k(    8) = (  -0.4323624   0.0000000   0.1158105), wk =   0.1666667
        k(    9) = (  -0.4323624   0.0000000  -0.2316210), wk =   0.0833333
        k(   10) = (  -0.4323624   0.2254660   0.0000000), wk =   0.1666667
        k(   11) = (  -0.4323624   0.2254660   0.1158105), wk =   0.3333333
        k(   12) = (  -0.4323624   0.2254660  -0.2316210), wk =   0.1666667

     Largest allocated arrays     est. size (Mb)     dimensions
     Largest temporary arrays     est. size (Mb)     dimensions

     Initial potential from superposition of free atoms
     Check: negative starting charge=   -0.000915

     starting charge  103.92434, renormalised to  196.00000

     negative rho (up, down):  0.172E-02 0.000E+00
     Starting wfc are  160 randomized atomic wfcs

     Writing output data file Prototype-La-oP12-Co2Si.save

     Self-consistent Calculation

[...]

     negative rho (up, down):  0.461E-04 0.000E+00

[...]

     iteration # 11     ecut=    40.00 Ry     beta=0.70
     CG style diagonalization
     c_bands:  1 eigenvalues not converged
     ethr =  1.23E-06,  avg # of iterations =  3.6

     total energy              =   -2209.66640435 Ry
     Harris-Foulkes estimate   =   -2209.66644758 Ry
     estimated scf accuracy    <       0.00011286 Ry

     iteration # 12     ecut=    40.00 Ry     beta=0.70
     CG style diagonalization
     ethr =  5.76E-08,  avg # of iterations =  4.7

     End of self-consistent calculation

[...]

          k = 0.0000 0.2255-0.2316 (  5442 PWs)   bands (ev):

[...]

          k =-0.4324 0.2255-0.2316 (  5456 PWs)   bands (ev):

   -78.9303 -78.9303 -78.9208 -78.9208 -37.6960 -37.6960 -37.6933 -37.6933
   -37.6772 -37.6772 -37.6730 -37.6730 -37.6373 -37.6373 -37.6268 -37.6268
   -10.3691 -10.3691 -10.1874 -10.1874 -10.0141 -10.0141  -9.8841  -9.8841
     7.2704   7.2704   7.5489   7.5489   7.7937   7.7937   7.9274   7.9274
     7.9652   7.9652   8.8013   8.8013   8.9395   8.9395   9.2133   9.2133
     9.5196   9.5196   9.8686   9.8686  10.1922  10.1922  10.2861  10.2861
    11.1252  11.1252  11.1815  11.1815  11.3219  11.3219  11.3951  11.3951
    11.6670  11.6670  11.9056  11.9056  12.2122  12.2122  12.2630  12.2630
    12.5015  12.5015  12.5401  12.5401  22.1112  22.1112  23.0394  23.0394
    26.8649  26.8649  27.0274  27.0274  27.9303  27.9303  28.3689  28.3689
    28.4743  28.4743  29.2609  29.2609  29.3842  29.3842  29.8102  29.8102
    30.4157  30.4157  31.0572  31.0572  31.2412  31.2412  32.5014  32.5014
    32.7557  32.7557  33.1190  33.1190  33.6275  33.6275  34.3355  34.3355
    34.5832  34.5832  34.6598  34.6598  35.1809  35.1809  36.0322  36.0323
    37.8725  37.8727  38.3452  38.3454  39.5036  39.5049

     the Fermi energy is    33.0293 ev

!    total energy              =   -2209.66646579 Ry
     Harris-Foulkes estimate   =   -2209.66648940 Ry
     estimated scf accuracy    <       0.00002604 Ry

     The total energy is the sum of the following terms:

     one-electron contribution =    -275.20639348 Ry
     hartree contribution      =     315.14428247 Ry
     xc contribution           =    -219.44595152 Ry
     ewald contribution        =   -2029.66044309 Ry
     smearing contrib. (-TS)   =      -0.49796017 Ry

     convergence has been achieved in  12 iterations

     Forces acting on atoms (Ry/au):

     atom    1 type  1   force =     0.00000000   -0.04947859    0.00443714
     atom    2 type  1   force =     0.00000000    0.04947859   -0.00443714
     atom    3 type  1   force =     0.00000000   -0.04947859   -0.00443714
     atom    4 type  1   force =     0.00000000    0.04947859    0.00443714
     atom    5 type  1   force =     0.00000000    0.08110621   -0.12540704
     atom    6 type  1   force =     0.00000000   -0.08110621    0.12540704
     atom    7 type  1   force =     0.00000000    0.08110621    0.12540704
     atom    8 type  1   force =     0.00000000   -0.08110621   -0.12540704
     atom    9 type  2   force =     0.00000000   -0.08603519    0.01143422
     atom   10 type  2   force =     0.00000000    0.08603519   -0.01143422
     atom   11 type  2   force =     0.00000000   -0.08603519   -0.01143422
     atom   12 type  2   force =     0.00000000    0.08603519    0.01143422

     Total force =     0.359476     Total SCF correction =     0.005632

     entering subroutine stress ...

          total   stress  (Ry/bohr**3)                   (kbar)     P= 1420.81
   0.01061322   0.00000000   0.00000000       1561.26      0.00      0.00
   0.00000000   0.00876109   0.00000000          0.00   1288.80      0.00
   0.00000000   0.00000000   0.00960104          0.00      0.00   1412.36

     Writing output data file Prototype-La-oP12-Co2Si.save

     General routines

     Parallel routines

   This run was terminated on:  16:46:10  22Mar2018

   JOB DONE.