     Program PWSCF v.5.0.2 starts on 22Mar2018 at 16:21:49

     Current dimensions of program PWSCF are:
     Max number of different atomic species (ntypx) = 10
     Max number of k-points (npk) =  40000
     Max angular momentum in pseudopotentials (lmaxx) =  3
     Waiting for input...
     Reading input from standard input

     Subspace diagonalization in iterative solution of the eigenvalue problem:
     a serial algorithm will be used

     bravais-lattice index     =            0
     lattice parameter (alat)  =       8.5346  a.u.
     unit-cell volume          =     621.6493 (a.u.)^3
     number of atoms/cell      =            8
     number of atomic types    =            2
     number of electrons       =       124.00
     number of Kohn-Sham states=           74
     kinetic-energy cutoff     =      40.0000  Ry
     charge density cutoff     =     160.0000  Ry
     convergence threshold     =      1.0E-04
     mixing beta               =       0.7000
     number of iterations used =            8  plain     mixing
     Exchange-correlation      = SLA-PZ-NOGX-NOGC ( 1 1 0 0 0)
     EXX-fraction              =        0.00
     nstep                     =           50

     celldm(1)=   8.534573  celldm(2)=   0.000000  celldm(3)=   0.000000
     celldm(4)=   0.000000  celldm(5)=   0.000000  celldm(6)=   0.000000

     crystal axes: (cart. coord. in units of alat)
               a(1) = (   1.000000   0.000000   0.000000 )
               a(2) = (   0.000000   1.000000   0.000000 )
               a(3) = (   0.000000   0.000000   1.000000 )

     reciprocal axes: (cart. coord. in units 2 pi/alat)
               b(1) = (  1.000000  0.000000  0.000000 )
               b(2) = (  0.000000  1.000000  0.000000 )
               b(3) = (  0.000000  0.000000  1.000000 )

     PseudoPot. # 1 for Pr read from file:
     /home/cwx6513/pp.La/Pr.UPF
     MD5 check sum: 70e2b4b153859e92c8c91247dfc63203
     Pseudo is Norm-conserving, Zval = 13.0
     Generated in analytical, separable form
     Using radial grid of 1255 points,  6 beta functions with:
                l(1) =   0
                l(2) =   0
                l(3) =   1
                l(4) =   1
                l(5) =   2
                l(6) =   3

     PseudoPot. # 2 for Tm read from file:
     /home/cwx6513/pp.La/Tm.UPF
     MD5 check sum: 245516e0878b5372ceeb9443ded2c4e1
     Pseudo is Norm-conserving, Zval = 23.0
     Generated in analytical, separable form
     Using radial grid of 1269 points,  6 beta functions with:
                l(1) =   0
                l(2) =   0
                l(3) =   1
                l(4) =   1
                l(5) =   2
                l(6) =   3

     atomic species   valence    mass     pseudopotential
        Cr            13.00    51.99610     Pr( 1.00)
        Si            23.00    28.08550     Tm( 1.00)

     48 Sym. Ops., with inversion, found (24 have fractional translation)

   Cartesian axes

     site n.     atom                  positions (alat units)
         1           Cr  tau(   1) = (   0.0000000   0.5000000   0.2500000  )
         2           Cr  tau(   2) = (   0.0000000   0.5000000   0.7500000  )
         3           Cr  tau(   3) = (   0.5000000   0.7500000   0.0000000  )
         4           Cr  tau(   4) = (   0.5000000   0.2500000   0.0000000  )
         5           Cr  tau(   5) = (   0.7500000   0.0000000   0.5000000  )
         6           Cr  tau(   6) = (   0.2500000   0.0000000   0.5000000  )
         7           Si  tau(   7) = (   0.5000000   0.5000000   0.5000000  )
         8           Si  tau(   8) = (   0.0000000   0.0000000   0.0000000  )

     number of k points=    48  gaussian smearing, width (Ry)=  0.1000
                       cart. coord. in units 2pi/alat
        k(    1) = (   0.0000000   0.0000000   0.0000000), wk =   0.0095238
        k(    2) = (   0.0000000   0.0000000   0.1428571), wk =   0.0190476
        k(    3) = (   0.0000000   0.0000000   0.2857143), wk =   0.0190476
        k(    4) = (   0.0000000   0.0000000   0.4285714), wk =   0.0190476
        k(    5) = (   0.0000000   0.1666667   0.0000000), wk =   0.0190476
        k(    6) = (   0.0000000   0.1666667   0.1428571), wk =   0.0380952
        k(    7) = (   0.0000000   0.1666667   0.2857143), wk =   0.0380952
        k(    8) = (   0.0000000   0.1666667   0.4285714), wk =   0.0380952
        k(    9) = (   0.0000000   0.3333333   0.0000000), wk =   0.0190476
        k(   10) = (   0.0000000   0.3333333   0.1428571), wk =   0.0380952
        k(   11) = (   0.0000000   0.3333333   0.2857143), wk =   0.0380952
        k(   12) = (   0.0000000   0.3333333   0.4285714), wk =   0.0380952
        k(   13) = (   0.0000000  -0.5000000   0.0000000), wk =   0.0095238
        k(   14) = (   0.0000000  -0.5000000   0.1428571), wk =   0.0190476
        k(   15) = (   0.0000000  -0.5000000   0.2857143), wk =   0.0190476
        k(   16) = (   0.0000000  -0.5000000   0.4285714), wk =   0.0190476
        k(   17) = (   0.2000000   0.0000000   0.0000000), wk =   0.0190476
        k(   18) = (   0.2000000   0.0000000   0.1428571), wk =   0.0380952
        k(   19) = (   0.2000000   0.0000000   0.2857143), wk =   0.0380952
        k(   20) = (   0.2000000   0.0000000   0.4285714), wk =   0.0380952
        k(   21) = (   0.2000000   0.1666667   0.0000000), wk =   0.0380952
        k(   22) = (   0.2000000   0.1666667   0.1428571), wk =   0.0761905
        k(   23) = (   0.2000000   0.1666667   0.2857143), wk =   0.0761905
        k(   24) = (   0.2000000   0.1666667   0.4285714), wk =   0.0761905
        k(   25) = (   0.2000000   0.3333333   0.0000000), wk =   0.0380952
        k(   26) = (   0.2000000   0.3333333   0.1428571), wk =   0.0761905
        k(   27) = (   0.2000000   0.3333333   0.2857143), wk =   0.0761905
        k(   28) = (   0.2000000   0.3333333   0.4285714), wk =   0.0761905
        k(   29) = (   0.2000000  -0.5000000   0.0000000), wk =   0.0190476
        k(   30) = (   0.2000000  -0.5000000   0.1428571), wk =   0.0380952
        k(   31) = (   0.2000000  -0.5000000   0.2857143), wk =   0.0380952
        k(   32) = (   0.2000000  -0.5000000   0.4285714), wk =   0.0380952
        k(   33) = (   0.4000000   0.0000000   0.0000000), wk =   0.0190476
        k(   34) = (   0.4000000   0.0000000   0.1428571), wk =   0.0380952
        k(   35) = (   0.4000000   0.0000000   0.2857143), wk =   0.0380952
        k(   36) = (   0.4000000   0.0000000   0.4285714), wk =   0.0380952
        k(   37) = (   0.4000000   0.1666667   0.0000000), wk =   0.0380952
        k(   38) = (   0.4000000   0.1666667   0.1428571), wk =   0.0761905
        k(   39) = (   0.4000000   0.1666667   0.2857143), wk =   0.0761905
        k(   40) = (   0.4000000   0.1666667   0.4285714), wk =   0.0761905
        k(   41) = (   0.4000000   0.3333333   0.0000000), wk =   0.0380952
        k(   42) = (   0.4000000   0.3333333   0.1428571), wk =   0.0761905
        k(   43) = (   0.4000000   0.3333333   0.2857143), wk =   0.0761905
        k(   44) = (   0.4000000   0.3333333   0.4285714), wk =   0.0761905
        k(   45) = (   0.4000000  -0.5000000   0.0000000), wk =   0.0190476
        k(   46) = (   0.4000000  -0.5000000   0.1428571), wk =   0.0380952
        k(   47) = (   0.4000000  -0.5000000   0.2857143), wk =   0.0380952
        k(   48) = (   0.4000000  -0.5000000   0.4285714), wk =   0.0380952

     Largest allocated arrays     est. size (Mb)     dimensions
     Largest temporary arrays     est. size (Mb)     dimensions

     Initial potential from superposition of free atoms

     starting charge   77.94326, renormalised to  124.00000
     Starting wfc are  120 randomized atomic wfcs

     Self-consistent Calculation

     iteration #  1     ecut=    40.00 Ry     beta=0.70
     CG style diagonalization
     ethr =  1.00E-02,  avg # of iterations = 18.9

     total energy              =     266.48366263 Ry
     Harris-Foulkes estimate   =   -2312.91875252 Ry
     estimated scf accuracy    <    3035.94266258 Ry

[...]

     iteration #  3     ecut=    40.00 Ry     beta=0.70
     CG style diagonalization
     c_bands:  1 eigenvalues not converged
     c_bands:  1 eigenvalues not converged
     c_bands:  1 eigenvalues not converged
     c_bands:  2 eigenvalues not converged
     c_bands:  1 eigenvalues not converged
     ethr =  1.00E-02,  avg # of iterations = 10.3

[...]

     negative rho (up, down):  0.416E-04 0.000E+00

[...]

     End of self-consistent calculation

          k = 0.0000 0.0000 0.0000 (  2601 PWs)   bands (ev):

   -68.3070 -68.2440 -27.2551 -27.2551 -27.2551 -27.2264 -27.2264 -27.2264
    -2.9816  -1.1440  -1.1440   1.8969   1.8969   1.8969  12.6381  12.6381
    13.9792  15.9479  15.9479  15.9479  17.3152  17.3152  17.3152  19.1081
    19.1081  19.1081  20.3725  20.3725  20.3725  21.0891  21.0891  21.7023
    21.7023  23.9165  23.9165  23.9165  24.0305  24.0305  24.0305  26.4962
    26.4962  26.4962  31.0110  31.1008  34.0208  34.0208  34.0208  36.1012
    37.0944  37.0944  37.0944  39.8765  39.8765  40.0050  42.2845  42.2845
    42.2845  42.3355  42.3355  45.0880  45.0880  45.0880  45.1925  45.1925
    45.1925  47.9163  48.9007  48.9007  48.9008  50.7701  50.7701  50.7703
    50.8440  50.8444

[...]

     the Fermi energy is    44.7106 ev

!    total energy              =   -1285.03148222 Ry
     Harris-Foulkes estimate   =   -1285.03148951 Ry
     estimated scf accuracy    <       0.00000938 Ry

     The total energy is the sum of the following terms:

     one-electron contribution =      71.69906140 Ry
     hartree contribution      =     132.70289031 Ry
     xc contribution           =    -139.78204119 Ry
     ewald contribution        =   -1349.40616745 Ry
     smearing contrib. (-TS)   =      -0.24522530 Ry

     convergence has been achieved in  13 iterations

     Forces acting on atoms (Ry/au):

     atom    1 type  1   force =     0.00000000    0.00000000    0.00000000
     atom    2 type  1   force =     0.00000000    0.00000000    0.00000000
     atom    3 type  1   force =     0.00000000    0.00000000    0.00000000
     atom    4 type  1   force =     0.00000000    0.00000000    0.00000000
     atom    5 type  1   force =     0.00000000    0.00000000    0.00000000
     atom    6 type  1   force =     0.00000000    0.00000000    0.00000000
     atom    7 type  2   force =     0.00000000    0.00000000    0.00000000
     atom    8 type  2   force =     0.00000000    0.00000000    0.00000000

     Total force =     0.000000     Total SCF correction =     0.000000

     entering subroutine stress ...

          total   stress  (Ry/bohr**3)                   (kbar)     P= 5138.28
   0.03492933   0.00000000   0.00000000       5138.28      0.00      0.00
   0.00000000   0.03492933   0.00000000          0.00   5138.28      0.00
   0.00000000   0.00000000   0.03492933          0.00      0.00   5138.28

     BFGS Geometry Optimization

     number of scf cycles    =   1
     number of bfgs steps    =   0

     enthalpy new            =   -1285.0314822227 Ry

     new trust radius        =       0.5000000000 bohr
     new conv_thr            =       0.0001000000 Ry

[...]
  -0.01153845   0.00000000   0.00000000      -1697.36      0.00      0.00
   0.00000000  -0.01153845   0.00000000          0.00  -1697.36      0.00
   0.00000000   0.00000000  -0.01153845          0.00      0.00  -1697.36

     number of scf cycles    =   3
     number of bfgs steps    =   2

     enthalpy old            =   -1288.9653552868 Ry
     enthalpy new            =   -1286.1697617346 Ry

     CASE: enthalpy_new > enthalpy_old

     new trust radius        =       0.3404363019 bohr

     trust_radius < trust_radius_min

     resetting bfgs history

     Message from routine bfgs:
     history already reset at previous step: stopping
     new conv_thr            =       0.0000010000 Ry

     new unit-cell volume =   1041.88779 a.u.^3 (   154.39184 Ang^3 )

[...]

ATOMIC_POSITIONS (crystal)
Cr       0.000000000   0.500000000   0.250000000
Cr       0.000000000   0.500000000   0.750000000
Cr       0.500000000   0.750000000   0.000000000
Cr       0.500000000   0.250000000   0.000000000
Cr       0.750000000   0.000000000   0.500000000
Cr       0.250000000   0.000000000   0.500000000
Si       0.500000000   0.500000000   0.500000000
Si       0.000000000   0.000000000   0.000000000

     Writing output data file Prototype-La-cP8-Cr3Si.save
     Check: negative starting charge=   -0.042055
     NEW-OLD atomic charge density approx. for the potential
     NEW k-points:
        k(    1) = (   0.0000000   0.0000000   0.0000000), wk =   0.0095238
        k(    2) = (   0.0000000   0.0000000   0.1202662), wk =   0.0190476
        k(    3) = (   0.0000000   0.0000000   0.2405323), wk =   0.0190476
        k(    4) = (   0.0000000   0.0000000   0.3607985), wk =   0.0190476
        k(    5) = (   0.0000000   0.1403105   0.0000000), wk =   0.0190476
        k(    6) = (   0.0000000   0.1403105   0.1202662), wk =   0.0380952
        k(    7) = (   0.0000000   0.1403105   0.2405323), wk =   0.0380952
        k(    8) = (   0.0000000   0.1403105   0.3607985), wk =   0.0380952
        k(    9) = (   0.0000000   0.2806210   0.0000000), wk =   0.0190476
        k(   10) = (   0.0000000   0.2806210   0.1202662), wk =   0.0380952
        k(   11) = (   0.0000000   0.2806210   0.2405323), wk =   0.0380952
        k(   12) = (   0.0000000   0.2806210   0.3607985), wk =   0.0380952
        k(   13) = (   0.0000000  -0.4209316   0.0000000), wk =   0.0095238
        k(   14) = (   0.0000000  -0.4209316   0.1202662), wk =   0.0190476
        k(   15) = (   0.0000000  -0.4209316   0.2405323), wk =   0.0190476
        k(   16) = (   0.0000000  -0.4209316   0.3607985), wk =   0.0190476
        k(   17) = (   0.1683726   0.0000000   0.0000000), wk =   0.0190476
        k(   18) = (   0.1683726   0.0000000   0.1202662), wk =   0.0380952
        k(   19) = (   0.1683726   0.0000000   0.2405323), wk =   0.0380952
        k(   20) = (   0.1683726   0.0000000   0.3607985), wk =   0.0380952
        k(   21) = (   0.1683726   0.1403105   0.0000000), wk =   0.0380952
        k(   22) = (   0.1683726   0.1403105   0.1202662), wk =   0.0761905
        k(   23) = (   0.1683726   0.1403105   0.2405323), wk =   0.0761905
        k(   24) = (   0.1683726   0.1403105   0.3607985), wk =   0.0761905
        k(   25) = (   0.1683726   0.2806210   0.0000000), wk =   0.0380952
        k(   26) = (   0.1683726   0.2806210   0.1202662), wk =   0.0761905
        k(   27) = (   0.1683726   0.2806210   0.2405323), wk =   0.0761905
        k(   28) = (   0.1683726   0.2806210   0.3607985), wk =   0.0761905
        k(   29) = (   0.1683726  -0.4209316   0.0000000), wk =   0.0190476
        k(   30) = (   0.1683726  -0.4209316   0.1202662), wk =   0.0380952
        k(   31) = (   0.1683726  -0.4209316   0.2405323), wk =   0.0380952
        k(   32) = (   0.1683726  -0.4209316   0.3607985), wk =   0.0380952
        k(   33) = (   0.3367453   0.0000000   0.0000000), wk =   0.0190476
        k(   34) = (   0.3367453   0.0000000   0.1202662), wk =   0.0380952
        k(   35) = (   0.3367453   0.0000000   0.2405323), wk =   0.0380952
        k(   36) = (   0.3367453   0.0000000   0.3607985), wk =   0.0380952
        k(   37) = (   0.3367453   0.1403105   0.0000000), wk =   0.0380952
        k(   38) = (   0.3367453   0.1403105   0.1202662), wk =   0.0761905
        k(   39) = (   0.3367453   0.1403105   0.2405323), wk =   0.0761905
        k(   40) = (   0.3367453   0.1403105   0.3607985), wk =   0.0761905
        k(   41) = (   0.3367453   0.2806210   0.0000000), wk =   0.0380952
        k(   42) = (   0.3367453   0.2806210   0.1202662), wk =   0.0761905
        k(   43) = (   0.3367453   0.2806210   0.2405323), wk =   0.0761905
        k(   44) = (   0.3367453   0.2806210   0.3607985), wk =   0.0761905
        k(   45) = (   0.3367453  -0.4209316   0.0000000), wk =   0.0190476
        k(   46) = (   0.3367453  -0.4209316   0.1202662), wk =   0.0380952
        k(   47) = (   0.3367453  -0.4209316   0.2405323), wk =   0.0380952
        k(   48) = (   0.3367453  -0.4209316   0.3607985), wk =   0.0380952
     Check: negative starting charge=   -0.020995

     negative rho (up, down):  0.266E+01 0.000E+00
     extrapolated charge   97.15723, renormalised to  124.00000

[...]

     The maximum number of steps has been reached.

     End of BFGS Geometry Optimization
Begin final coordinates
     new unit-cell volume =   1041.88779 a.u.^3 (   154.39184 Ang^3 )

CELL_PARAMETERS (alat=  8.53457320)
   1.187841541   0.000000000   0.000000000
   0.000000000   1.187841541   0.000000000
   0.000000000   0.000000000   1.187841541

ATOMIC_POSITIONS (crystal)
Cr       0.000000000   0.500000000   0.250000000
Cr       0.000000000   0.500000000   0.750000000
Cr       0.500000000   0.750000000   0.000000000
Cr       0.500000000   0.250000000   0.000000000
Cr       0.750000000   0.000000000   0.500000000
Cr       0.250000000   0.000000000   0.500000000
Si       0.500000000   0.500000000   0.500000000
Si       0.000000000   0.000000000   0.000000000
End final coordinates

     A final scf calculation at the relaxed structure.
     The G-vectors are recalculated for the final unit cell
     Results may differ from those at the preceding step.

     bravais-lattice index     =            0
     lattice parameter (alat)  =       8.5346  a.u.
     unit-cell volume          =    1041.8878 (a.u.)^3
     number of atoms/cell      =            8
     number of atomic types    =            2
     number of electrons       =       124.00
     number of Kohn-Sham states=           74
     kinetic-energy cutoff     =      40.0000  Ry
     charge density cutoff     =     160.0000  Ry
     convergence threshold     =      1.0E-06
     mixing beta               =       0.7000
     number of iterations used =            8  plain     mixing
     Exchange-correlation      = SLA-PZ-NOGX-NOGC ( 1 1 0 0 0)
     EXX-fraction              =        0.00

     celldm(1)=   8.534573  celldm(2)=   0.000000  celldm(3)=   0.000000
     celldm(4)=   0.000000  celldm(5)=   0.000000  celldm(6)=   0.000000

     crystal axes: (cart. coord. in units of alat)
               a(1) = (   1.187842   0.000000   0.000000 )
               a(2) = (   0.000000   1.187842   0.000000 )
               a(3) = (   0.000000   0.000000   1.187842 )

     reciprocal axes: (cart. coord. in units 2 pi/alat)
               b(1) = (  0.841863  0.000000  0.000000 )
               b(2) = (  0.000000  0.841863  0.000000 )
               b(3) = (  0.000000  0.000000  0.841863 )

     PseudoPot. # 1 for Pr read from file:
     /home/cwx6513/pp.La/Pr.UPF
     MD5 check sum: 70e2b4b153859e92c8c91247dfc63203
     Pseudo is Norm-conserving, Zval = 13.0
     Generated in analytical, separable form
     Using radial grid of 1255 points,  6 beta functions with:
                l(1) =   0
                l(2) =   0
                l(3) =   1
                l(4) =   1
                l(5) =   2
                l(6) =   3

     PseudoPot. # 2 for Tm read from file:
     /home/cwx6513/pp.La/Tm.UPF
     MD5 check sum: 245516e0878b5372ceeb9443ded2c4e1
     Pseudo is Norm-conserving, Zval = 23.0
     Generated in analytical, separable form
     Using radial grid of 1269 points,  6 beta functions with:
                l(1) =   0
                l(2) =   0
                l(3) =   1
                l(4) =   1
                l(5) =   2
                l(6) =   3

     atomic species   valence    mass     pseudopotential
        Cr            13.00    51.99610     Pr( 1.00)
        Si            23.00    28.08550     Tm( 1.00)

     48 Sym. Ops., with inversion, found (24 have fractional translation)

   Cartesian axes

     site n.     atom                  positions (alat units)
         1           Cr  tau(   1) = (   0.0000000   0.5939208   0.2969604  )
         2           Cr  tau(   2) = (   0.0000000   0.5939208   0.8908812  )
         3           Cr  tau(   3) = (   0.5939208   0.8908812   0.0000000  )
         4           Cr  tau(   4) = (   0.5939208   0.2969604   0.0000000  )
         5           Cr  tau(   5) = (   0.8908812   0.0000000   0.5939208  )
         6           Cr  tau(   6) = (   0.2969604   0.0000000   0.5939208  )
         7           Si  tau(   7) = (   0.5939208   0.5939208   0.5939208  )
         8           Si  tau(   8) = (   0.0000000   0.0000000   0.0000000  )

     number of k points=    48  gaussian smearing, width (Ry)=  0.1000
                       cart. coord. in units 2pi/alat
        k(    1) = (   0.0000000   0.0000000   0.0000000), wk =   0.0095238
        k(    2) = (   0.0000000   0.0000000   0.1202662), wk =   0.0190476
        k(    3) = (   0.0000000   0.0000000   0.2405323), wk =   0.0190476
        k(    4) = (   0.0000000   0.0000000   0.3607985), wk =   0.0190476
        k(    5) = (   0.0000000   0.1403105   0.0000000), wk =   0.0190476
        k(    6) = (   0.0000000   0.1403105   0.1202662), wk =   0.0380952
        k(    7) = (   0.0000000   0.1403105   0.2405323), wk =   0.0380952
        k(    8) = (   0.0000000   0.1403105   0.3607985), wk =   0.0380952
        k(    9) = (   0.0000000   0.2806210   0.0000000), wk =   0.0190476
        k(   10) = (   0.0000000   0.2806210   0.1202662), wk =   0.0380952
        k(   11) = (   0.0000000   0.2806210   0.2405323), wk =   0.0380952
        k(   12) = (   0.0000000   0.2806210   0.3607985), wk =   0.0380952
        k(   13) = (   0.0000000  -0.4209316   0.0000000), wk =   0.0095238
        k(   14) = (   0.0000000  -0.4209316   0.1202662), wk =   0.0190476
        k(   15) = (   0.0000000  -0.4209316   0.2405323), wk =   0.0190476
        k(   16) = (   0.0000000  -0.4209316   0.3607985), wk =   0.0190476
        k(   17) = (   0.1683726   0.0000000   0.0000000), wk =   0.0190476
        k(   18) = (   0.1683726   0.0000000   0.1202662), wk =   0.0380952
        k(   19) = (   0.1683726   0.0000000   0.2405323), wk =   0.0380952
        k(   20) = (   0.1683726   0.0000000   0.3607985), wk =   0.0380952
        k(   21) = (   0.1683726   0.1403105   0.0000000), wk =   0.0380952
        k(   22) = (   0.1683726   0.1403105   0.1202662), wk =   0.0761905
        k(   23) = (   0.1683726   0.1403105   0.2405323), wk =   0.0761905
        k(   24) = (   0.1683726   0.1403105   0.3607985), wk =   0.0761905
        k(   25) = (   0.1683726   0.2806210   0.0000000), wk =   0.0380952
        k(   26) = (   0.1683726   0.2806210   0.1202662), wk =   0.0761905
        k(   27) = (   0.1683726   0.2806210   0.2405323), wk =   0.0761905
        k(   28) = (   0.1683726   0.2806210   0.3607985), wk =   0.0761905
        k(   29) = (   0.1683726  -0.4209316   0.0000000), wk =   0.0190476
        k(   30) = (   0.1683726  -0.4209316   0.1202662), wk =   0.0380952
        k(   31) = (   0.1683726  -0.4209316   0.2405323), wk =   0.0380952
        k(   32) = (   0.1683726  -0.4209316   0.3607985), wk =   0.0380952
        k(   33) = (   0.3367453   0.0000000   0.0000000), wk =   0.0190476
        k(   34) = (   0.3367453   0.0000000   0.1202662), wk =   0.0380952
        k(   35) = (   0.3367453   0.0000000   0.2405323), wk =   0.0380952
        k(   36) = (   0.3367453   0.0000000   0.3607985), wk =   0.0380952
        k(   37) = (   0.3367453   0.1403105   0.0000000), wk =   0.0380952
        k(   38) = (   0.3367453   0.1403105   0.1202662), wk =   0.0761905
        k(   39) = (   0.3367453   0.1403105   0.2405323), wk =   0.0761905
        k(   40) = (   0.3367453   0.1403105   0.3607985), wk =   0.0761905
        k(   41) = (   0.3367453   0.2806210   0.0000000), wk =   0.0380952
        k(   42) = (   0.3367453   0.2806210   0.1202662), wk =   0.0761905
        k(   43) = (   0.3367453   0.2806210   0.2405323), wk =   0.0761905
        k(   44) = (   0.3367453   0.2806210   0.3607985), wk =   0.0761905
        k(   45) = (   0.3367453  -0.4209316   0.0000000), wk =   0.0190476
        k(   46) = (   0.3367453  -0.4209316   0.1202662), wk =   0.0380952
        k(   47) = (   0.3367453  -0.4209316   0.2405323), wk =   0.0380952
        k(   48) = (   0.3367453  -0.4209316   0.3607985), wk =   0.0380952

     Largest allocated arrays     est. size (Mb)     dimensions
     Largest temporary arrays     est. size (Mb)     dimensions

     Initial potential from superposition of free atoms
     Check: negative starting charge=   -0.001115

     starting charge   77.94326, renormalised to  124.00000

     negative rho (up, down):  0.177E-02 0.000E+00
     Starting wfc are  120 randomized atomic wfcs

     Writing output data file Prototype-La-cP8-Cr3Si.save

     Self-consistent Calculation

[...]

     negative rho (up, down):  0.422E-04 0.000E+00

[...]

     iteration # 15     ecut=    40.00 Ry     beta=0.70
     CG style diagonalization
     c_bands:  1 eigenvalues not converged
     ethr =  7.68E-08,  avg # of iterations =  4.2

[...]

     total energy              =   -1292.11334622 Ry
     Harris-Foulkes estimate   =   -1292.11334896 Ry
     estimated scf accuracy    <       0.00000628 Ry

     iteration # 18     ecut=    40.00 Ry     beta=0.70
     CG style diagonalization
     ethr =  5.07E-09,  avg # of iterations =  3.4

     End of self-consistent calculation

[...]

          k = 0.3367-0.4209 0.3608 (  4464 PWs)   bands (ev):

   -85.4391 -85.4390 -44.0987 -44.0986 -44.0931 -44.0931 -44.0907 -44.0906
   -17.1451 -17.1131 -17.0068 -17.0054 -16.9038 -16.8683   1.6641   1.8157
     1.8913   1.9159   2.2619   2.2649   2.5644   2.6366   2.8651   2.8739
     2.9284   2.9738   3.0678   3.0917   3.2687   3.2862   3.3566   3.3936
     4.9378   4.9442   4.9895   4.9925   5.0556   5.0813   5.2825   5.2825
     5.2941   5.2943  16.2683  16.2684  20.9392  21.0019  21.3138  21.3248
    21.4108  21.4433  23.2125  23.2223  23.4029  23.5111  23.5312  23.5752
    24.7704  24.7859  25.0417  25.0623  25.5423  25.6501  25.8344  25.9412
    26.5895  26.6514  27.9560  28.0235  28.2293  28.2679  28.4298  28.4797
    29.0369  29.0895

     the Fermi energy is    25.8955 ev

!    total energy              =   -1292.11334630 Ry
     Harris-Foulkes estimate   =   -1292.11334696 Ry
     estimated scf accuracy    <       0.00000077 Ry

     The total energy is the sum of the following terms:

     one-electron contribution =    -222.32614701 Ry
     hartree contribution      =     197.78331630 Ry
     xc contribution           =    -131.21314442 Ry
     ewald contribution        =   -1136.01530267 Ry
     smearing contrib. (-TS)   =      -0.34206849 Ry

     convergence has been achieved in  18 iterations

     Forces acting on atoms (Ry/au):

     atom    1 type  1   force =     0.00000000    0.00000000    0.00000000
     atom    2 type  1   force =     0.00000000    0.00000000    0.00000000
     atom    3 type  1   force =     0.00000000    0.00000000    0.00000000
     atom    4 type  1   force =     0.00000000    0.00000000    0.00000000
     atom    5 type  1   force =     0.00000000    0.00000000    0.00000000
     atom    6 type  1   force =     0.00000000    0.00000000    0.00000000
     atom    7 type  2   force =     0.00000000    0.00000000    0.00000000
     atom    8 type  2   force =     0.00000000    0.00000000    0.00000000

     Total force =     0.000000     Total SCF correction =     0.000000

     entering subroutine stress ...

          total   stress  (Ry/bohr**3)                   (kbar)     P=  349.07
   0.00237294   0.00000000   0.00000000        349.07      0.00      0.00
   0.00000000   0.00237294   0.00000000          0.00    349.07      0.00
   0.00000000   0.00000000   0.00237294          0.00      0.00    349.07

     Writing output data file Prototype-La-cP8-Cr3Si.save

     General routines

     Parallel routines

   This run was terminated on:  16:55:25  22Mar2018

   JOB DONE.