     Program PWSCF v.5.0.2 starts on 22Mar2018 at  0:36:45

     Current dimensions of program PWSCF are:
     Max number of different atomic species (ntypx) = 10
     Max number of k-points (npk) =  40000
     Max angular momentum in pseudopotentials (lmaxx) =  3
     Waiting for input...
     Reading input from standard input

     Subspace diagonalization in iterative solution of the eigenvalue problem:
     a serial algorithm will be used

     bravais-lattice index     =            0
     lattice parameter (alat)  =      12.0168  a.u.
     unit-cell volume          =    1187.3413 (a.u.)^3
     number of atoms/cell      =            8
     number of atomic types    =            2
     number of electrons       =       114.00
     number of Kohn-Sham states=           68
     kinetic-energy cutoff     =      40.0000  Ry
     charge density cutoff     =     160.0000  Ry
     convergence threshold     =      1.0E-04
     mixing beta               =       0.7000
     number of iterations used =            8  plain     mixing
     Exchange-correlation      = SLA-PZ-NOGX-NOGC ( 1 1 0 0 0)
     EXX-fraction              =        0.00
     nstep                     =           50

     celldm(1)=  12.016801  celldm(2)=   0.000000  celldm(3)=   0.000000
     celldm(4)=   0.000000  celldm(5)=   0.000000  celldm(6)=   0.000000

     crystal axes: (cart. coord. in units of alat)
               a(1) = (   1.000000   0.000000   0.000000 )
               a(2) = (  -0.500000   0.866025   0.000000 )
               a(3) = (   0.000000   0.000000   0.790093 )

     reciprocal axes: (cart. coord. in units 2 pi/alat)
               b(1) = (  1.000000  0.577350  0.000000 )
               b(2) = (  0.000000  1.154701  0.000000 )
               b(3) = (  0.000000  0.000000  1.265674 )

     PseudoPot. # 1 for Ce read from file:
     /home/jld5415/pp.La/Ce.UPF
     MD5 check sum: 44451aa79a44a00cf2bc029dc19922f6
     Pseudo is Norm-conserving, Zval = 12.0
     Generated in analytical, separable form
     Using radial grid of 1255 points,  6 beta functions with:
                l(1) =   0
                l(2) =   0
                l(3) =   1
                l(4) =   1
                l(5) =   2
                l(6) =   3

     PseudoPot. # 2 for Ho read from file:
     /home/jld5415/pp.La/Ho.UPF
     MD5 check sum: f307ee11bce99f5b724fa279e3790763
     Pseudo is Norm-conserving, Zval = 21.0
     Generated in analytical, separable form
     Using radial grid of 1265 points,  6 beta functions with:
                l(1) =   0
                l(2) =   0
                l(3) =   1
                l(4) =   1
                l(5) =   2
                l(6) =   3

     atomic species   valence    mass     pseudopotential
        Mg            12.00    24.30500     Ce( 1.00)
        Cd            21.00   112.41100     Ho( 1.00)

     24 Sym. Ops., with inversion, found (12 have fractional translation)

   Cartesian axes

     site n.     atom                  positions (alat units)
         1           Mg  tau(   1) = (   0.2478935   0.7204716   0.1975233  )
         2           Mg  tau(   2) = (   0.7478935   0.1455538   0.5925699  )
         3           Mg  tau(   3) = (   0.2521065   0.1455538   0.5925699  )
         4           Mg  tau(   4) = (  -0.2478935   0.7204716   0.1975233  )
         5           Mg  tau(   5) = (   0.0000000   0.2911075   0.1975233  )
         6           Mg  tau(   6) = (   0.5000000   0.5749179   0.5925699  )
         7           Cd  tau(   7) = (   0.5000005   0.2886748   0.1975233  )
         8           Cd  tau(   8) = (  -0.0000005   0.5773506   0.5925699  )

     number of k points=    64  gaussian smearing, width (Ry)=  0.1000
                       cart. coord. in units 2pi/alat
        k(    1) = (   0.0000000   0.0000000   0.0000000), wk =   0.0095238
        k(    2) = (   0.0000000   0.0000000   0.1808105), wk =   0.0190476
        k(    3) = (   0.0000000   0.0000000   0.3616210), wk =   0.0190476
        k(    4) = (   0.0000000   0.0000000   0.5424315), wk =   0.0190476
        k(    5) = (   0.0000000   0.1924501   0.0000000), wk =   0.0190476
        k(    6) = (   0.0000000   0.1924501   0.1808105), wk =   0.0380952
        k(    7) = (   0.0000000   0.1924501   0.3616210), wk =   0.0380952
        k(    8) = (   0.0000000   0.1924501   0.5424315), wk =   0.0380952
        k(    9) = (   0.0000000   0.3849002   0.0000000), wk =   0.0190476
        k(   10) = (   0.0000000   0.3849002   0.1808105), wk =   0.0380952
        k(   11) = (   0.0000000   0.3849002   0.3616210), wk =   0.0380952
        k(   12) = (   0.0000000   0.3849002   0.5424315), wk =   0.0380952
        k(   13) = (   0.0000000  -0.5773503   0.0000000), wk =   0.0095238
        k(   14) = (   0.0000000  -0.5773503   0.1808105), wk =   0.0190476
        k(   15) = (   0.0000000  -0.5773503   0.3616210), wk =   0.0190476
        k(   16) = (   0.0000000  -0.5773503   0.5424315), wk =   0.0190476
        k(   17) = (   0.2000000   0.1154701   0.0000000), wk =   0.0190476
        k(   18) = (   0.2000000   0.1154701   0.1808105), wk =   0.0380952
        k(   19) = (   0.2000000   0.1154701   0.3616210), wk =   0.0380952
        k(   20) = (   0.2000000   0.1154701   0.5424315), wk =   0.0380952
        k(   21) = (   0.2000000   0.3079201   0.0000000), wk =   0.0190476
        k(   22) = (   0.2000000   0.3079201   0.1808105), wk =   0.0380952
        k(   23) = (   0.2000000   0.3079201   0.3616210), wk =   0.0380952
        k(   24) = (   0.2000000   0.3079201   0.5424315), wk =   0.0380952
        k(   25) = (   0.2000000   0.5003702   0.0000000), wk =   0.0190476
        k(   26) = (   0.2000000   0.5003702   0.1808105), wk =   0.0380952
        k(   27) = (   0.2000000   0.5003702   0.3616210), wk =   0.0380952
        k(   28) = (   0.2000000   0.5003702   0.5424315), wk =   0.0380952
        k(   29) = (   0.2000000  -0.4618802   0.0000000), wk =   0.0190476
        k(   30) = (   0.2000000  -0.4618802   0.1808105), wk =   0.0380952
        k(   31) = (   0.2000000  -0.4618802   0.3616210), wk =   0.0380952
        k(   32) = (   0.2000000  -0.4618802   0.5424315), wk =   0.0380952
        k(   33) = (   0.2000000  -0.2694301   0.0000000), wk =   0.0190476
        k(   34) = (   0.2000000  -0.2694301   0.1808105), wk =   0.0380952
        k(   35) = (   0.2000000  -0.2694301   0.3616210), wk =   0.0380952
        k(   36) = (   0.2000000  -0.2694301   0.5424315), wk =   0.0380952
        k(   37) = (   0.2000000  -0.0769800   0.0000000), wk =   0.0190476
        k(   38) = (   0.2000000  -0.0769800   0.1808105), wk =   0.0380952
        k(   39) = (   0.2000000  -0.0769800   0.3616210), wk =   0.0380952
        k(   40) = (   0.2000000  -0.0769800   0.5424315), wk =   0.0380952
        k(   41) = (   0.4000000   0.2309401   0.0000000), wk =   0.0190476
        k(   42) = (   0.4000000   0.2309401   0.1808105), wk =   0.0380952
        k(   43) = (   0.4000000   0.2309401   0.3616210), wk =   0.0380952
        k(   44) = (   0.4000000   0.2309401   0.5424315), wk =   0.0380952
        k(   45) = (   0.4000000   0.4233902   0.0000000), wk =   0.0190476
        k(   46) = (   0.4000000   0.4233902   0.1808105), wk =   0.0380952
        k(   47) = (   0.4000000   0.4233902   0.3616210), wk =   0.0380952
        k(   48) = (   0.4000000   0.4233902   0.5424315), wk =   0.0380952
        k(   49) = (   0.4000000   0.6158403   0.0000000), wk =   0.0190476
        k(   50) = (   0.4000000   0.6158403   0.1808105), wk =   0.0380952
        k(   51) = (   0.4000000   0.6158403   0.3616210), wk =   0.0380952
        k(   52) = (   0.4000000   0.6158403   0.5424315), wk =   0.0380952
        k(   53) = (   0.4000000  -0.3464102   0.0000000), wk =   0.0190476
        k(   54) = (   0.4000000  -0.3464102   0.1808105), wk =   0.0380952
        k(   55) = (   0.4000000  -0.3464102   0.3616210), wk =   0.0380952
        k(   56) = (   0.4000000  -0.3464102   0.5424315), wk =   0.0380952
        k(   57) = (   0.4000000  -0.1539601   0.0000000), wk =   0.0190476
        k(   58) = (   0.4000000  -0.1539601   0.1808105), wk =   0.0380952
        k(   59) = (   0.4000000  -0.1539601   0.3616210), wk =   0.0380952
        k(   60) = (   0.4000000  -0.1539601   0.5424315), wk =   0.0380952
        k(   61) = (   0.4000000   0.0384900   0.0000000), wk =   0.0190476
        k(   62) = (   0.4000000   0.0384900   0.1808105), wk =   0.0380952
        k(   63) = (   0.4000000   0.0384900   0.3616210), wk =   0.0380952
        k(   64) = (   0.4000000   0.0384900   0.5424315), wk =   0.0380952

     Largest allocated arrays     est. size (Mb)     dimensions
     Largest temporary arrays     est. size (Mb)     dimensions

     Initial potential from superposition of free atoms

     Starting from uniform charge
     Starting wfc are    0 randomized atomic wfcs

     Self-consistent Calculation

     iteration #  1     ecut=    40.00 Ry     beta=0.70
     CG style diagonalization
     c_bands:  2 eigenvalues not converged
     c_bands:  1 eigenvalues not converged
     c_bands:  4 eigenvalues not converged
     c_bands:  3 eigenvalues not converged
     c_bands:  3 eigenvalues not converged
     c_bands:  2 eigenvalues not converged
     c_bands:  2 eigenvalues not converged
     c_bands:  2 eigenvalues not converged
     c_bands:  1 eigenvalues not converged
     c_bands:  2 eigenvalues not converged
     c_bands:  1 eigenvalues not converged
     c_bands:  5 eigenvalues not converged
     c_bands:  1 eigenvalues not converged
     c_bands:  1 eigenvalues not converged
     c_bands:  4 eigenvalues not converged
     c_bands:  4 eigenvalues not converged
     c_bands:  2 eigenvalues not converged
     c_bands:  5 eigenvalues not converged
     c_bands:  5 eigenvalues not converged
     c_bands:  4 eigenvalues not converged
     c_bands:  2 eigenvalues not converged
     c_bands:  3 eigenvalues not converged
     c_bands:  3 eigenvalues not converged
     c_bands:  3 eigenvalues not converged
     c_bands:  3 eigenvalues not converged
     c_bands:  4 eigenvalues not converged
     c_bands:  1 eigenvalues not converged
     c_bands:  2 eigenvalues not converged
     c_bands:  2 eigenvalues not converged
     c_bands:  3 eigenvalues not converged
     c_bands:  1 eigenvalues not converged
     c_bands:  3 eigenvalues not converged
     c_bands:  4 eigenvalues not converged
     c_bands:  3 eigenvalues not converged
     c_bands:  3 eigenvalues not converged
     c_bands:  4 eigenvalues not converged
     c_bands:  3 eigenvalues not converged
     c_bands:  3 eigenvalues not converged
     c_bands:  2 eigenvalues not converged
     c_bands:  2 eigenvalues not converged
     c_bands:  1 eigenvalues not converged
     c_bands:  3 eigenvalues not converged
     c_bands:  3 eigenvalues not converged
     c_bands:  3 eigenvalues not converged
     c_bands:  3 eigenvalues not converged
     c_bands:  2 eigenvalues not converged
     c_bands:  2 eigenvalues not converged
     c_bands:  2 eigenvalues not converged
     c_bands:  1 eigenvalues not converged
     c_bands:  2 eigenvalues not converged
[...]
        k(   12) = (   0.0000000   0.3773651   0.5221203), wk =   0.0380952
        k(   13) = (   0.0000000  -0.5660476   0.0000000), wk =   0.0095238
        k(   14) = (   0.0000000  -0.5660476   0.1740401), wk =   0.0190476
        k(   15) = (   0.0000000  -0.5660476   0.3480802), wk =   0.0190476
        k(   16) = (   0.0000000  -0.5660476   0.5221203), wk =   0.0190476
        k(   17) = (   0.1960846   0.1132095   0.0000000), wk =   0.0190476
        k(   18) = (   0.1960846   0.1132095   0.1740401), wk =   0.0380952
        k(   19) = (   0.1960846   0.1132095   0.3480802), wk =   0.0380952
        k(   20) = (   0.1960846   0.1132095   0.5221203), wk =   0.0380952
        k(   21) = (   0.1960846   0.3018921   0.0000000), wk =   0.0190476
        k(   22) = (   0.1960846   0.3018921   0.1740401), wk =   0.0380952
        k(   23) = (   0.1960846   0.3018921   0.3480802), wk =   0.0380952
        k(   24) = (   0.1960846   0.3018921   0.5221203), wk =   0.0380952
        k(   25) = (   0.1960846   0.4905746   0.0000000), wk =   0.0190476
        k(   26) = (   0.1960846   0.4905746   0.1740401), wk =   0.0380952
        k(   27) = (   0.1960846   0.4905746   0.3480802), wk =   0.0380952
        k(   28) = (   0.1960846   0.4905746   0.5221203), wk =   0.0380952
        k(   29) = (   0.1960846  -0.4528381   0.0000000), wk =   0.0190476
        k(   30) = (   0.1960846  -0.4528381   0.1740401), wk =   0.0380952
        k(   31) = (   0.1960846  -0.4528381   0.3480802), wk =   0.0380952
        k(   32) = (   0.1960846  -0.4528381   0.5221203), wk =   0.0380952
        k(   33) = (   0.1960846  -0.2641555   0.0000000), wk =   0.0190476
        k(   34) = (   0.1960846  -0.2641555   0.1740401), wk =   0.0380952
        k(   35) = (   0.1960846  -0.2641555   0.3480802), wk =   0.0380952
        k(   36) = (   0.1960846  -0.2641555   0.5221203), wk =   0.0380952
        k(   37) = (   0.1960846  -0.0754730   0.0000000), wk =   0.0190476
        k(   38) = (   0.1960846  -0.0754730   0.1740401), wk =   0.0380952
        k(   39) = (   0.1960846  -0.0754730   0.3480802), wk =   0.0380952
        k(   40) = (   0.1960846  -0.0754730   0.5221203), wk =   0.0380952
        k(   41) = (   0.3921693   0.2264190   0.0000000), wk =   0.0190476
        k(   42) = (   0.3921693   0.2264190   0.1740401), wk =   0.0380952
        k(   43) = (   0.3921693   0.2264190   0.3480802), wk =   0.0380952
        k(   44) = (   0.3921693   0.2264190   0.5221203), wk =   0.0380952
        k(   45) = (   0.3921693   0.4151016   0.0000000), wk =   0.0190476
        k(   46) = (   0.3921693   0.4151016   0.1740401), wk =   0.0380952
        k(   47) = (   0.3921693   0.4151016   0.3480802), wk =   0.0380952
        k(   48) = (   0.3921693   0.4151016   0.5221203), wk =   0.0380952
        k(   49) = (   0.3921693   0.6037841   0.0000000), wk =   0.0190476
        k(   50) = (   0.3921693   0.6037841   0.1740401), wk =   0.0380952
        k(   51) = (   0.3921693   0.6037841   0.3480802), wk =   0.0380952
        k(   52) = (   0.3921693   0.6037841   0.5221203), wk =   0.0380952
        k(   53) = (   0.3921693  -0.3396286   0.0000000), wk =   0.0190476
        k(   54) = (   0.3921693  -0.3396286   0.1740401), wk =   0.0380952
        k(   55) = (   0.3921693  -0.3396286   0.3480802), wk =   0.0380952
        k(   56) = (   0.3921693  -0.3396286   0.5221203), wk =   0.0380952
        k(   57) = (   0.3921693  -0.1509460   0.0000000), wk =   0.0190476
        k(   58) = (   0.3921693  -0.1509460   0.1740401), wk =   0.0380952
        k(   59) = (   0.3921693  -0.1509460   0.3480802), wk =   0.0380952
        k(   60) = (   0.3921693  -0.1509460   0.5221203), wk =   0.0380952
        k(   61) = (   0.3921693   0.0377365   0.0000000), wk =   0.0190476
        k(   62) = (   0.3921693   0.0377365   0.1740401), wk =   0.0380952
        k(   63) = (   0.3921693   0.0377365   0.3480802), wk =   0.0380952
        k(   64) = (   0.3921693   0.0377365   0.5221203), wk =   0.0380952

[...]

     The maximum number of steps has been reached.

     End of BFGS Geometry Optimization
Begin final coordinates
     new unit-cell volume =   1283.28384 a.u.^3 (   190.16304 Ang^3 )

CELL_PARAMETERS (alat= 12.01680127)
   1.019967711   0.000000000   0.000000000
  -0.509983855   0.883317949   0.000000000
   0.000000000   0.000000000   0.820828847

ATOMIC_POSITIONS (crystal)
Mg       0.666047819   0.833023909   0.250000000
Mg       0.833023909   0.166976091   0.750000000
Mg       0.333952181   0.166976091   0.750000000
Mg       0.166976091   0.833023909   0.250000000
Mg       0.166976091   0.333952181   0.250000000
Mg       0.833023909   0.666047819   0.750000000
Cd       0.666667000   0.333333000   0.250000000
Cd       0.333333000   0.666667000   0.750000000
End final coordinates

     A final scf calculation at the relaxed structure.
     The G-vectors are recalculated for the final unit cell
     Results may differ from those at the preceding step.

     bravais-lattice index     =            0
     lattice parameter (alat)  =      12.0168  a.u.
     unit-cell volume          =    1283.2838 (a.u.)^3
     number of atoms/cell      =            8
     number of atomic types    =            2
     number of electrons       =       114.00
     number of Kohn-Sham states=           68
     kinetic-energy cutoff     =      40.0000  Ry
     charge density cutoff     =     160.0000  Ry
     convergence threshold     =      9.5E-06
     mixing beta               =       0.7000
     number of iterations used =            8  plain     mixing
     Exchange-correlation      = SLA-PZ-NOGX-NOGC ( 1 1 0 0 0)
     EXX-fraction              =        0.00

     celldm(1)=  12.016801  celldm(2)=   0.000000  celldm(3)=   0.000000
     celldm(4)=   0.000000  celldm(5)=   0.000000  celldm(6)=   0.000000

     crystal axes: (cart. coord. in units of alat)
               a(1) = (   1.019968   0.000000   0.000000 )
               a(2) = (  -0.509984   0.883318   0.000000 )
               a(3) = (   0.000000   0.000000   0.820829 )

     reciprocal axes: (cart. coord. in units 2 pi/alat)
               b(1) = (  0.980423  0.566048  0.000000 )
               b(2) = (  0.000000  1.132095  0.000000 )
               b(3) = (  0.000000  0.000000  1.218281 )

     PseudoPot. # 1 for Ce read from file:
     /home/jld5415/pp.La/Ce.UPF
     MD5 check sum: 44451aa79a44a00cf2bc029dc19922f6
     Pseudo is Norm-conserving, Zval = 12.0
     Generated in analytical, separable form
     Using radial grid of 1255 points,  6 beta functions with:
                l(1) =   0
                l(2) =   0
                l(3) =   1
                l(4) =   1
                l(5) =   2
                l(6) =   3

     PseudoPot. # 2 for Ho read from file:
     /home/jld5415/pp.La/Ho.UPF
     MD5 check sum: f307ee11bce99f5b724fa279e3790763
     Pseudo is Norm-conserving, Zval = 21.0
     Generated in analytical, separable form
     Using radial grid of 1265 points,  6 beta functions with:
                l(1) =   0
                l(2) =   0
                l(3) =   1
                l(4) =   1
                l(5) =   2
                l(6) =   3

     atomic species   valence    mass     pseudopotential
        Mg            12.00    24.30500     Ce( 1.00)
        Cd            21.00   112.41100     Ho( 1.00)

     24 Sym. Ops., with inversion, found (12 have fractional translation)

   Cartesian axes

     site n.     atom                  positions (alat units)
         1           Mg  tau(   1) = (   0.2545185   0.7358250   0.2052072  )
         2           Mg  tau(   2) = (   0.7645024   0.1474930   0.6156216  )
         3           Mg  tau(   3) = (   0.2554653   0.1474930   0.6156216  )
         4           Mg  tau(   4) = (  -0.2545185   0.7358250   0.2052072  )
         5           Mg  tau(   5) = (   0.0000000   0.2949860   0.2052072  )
         6           Mg  tau(   6) = (   0.5099839   0.5883320   0.6156216  )
         7           Cd  tau(   7) = (   0.5099844   0.2944390   0.2052072  )
         8           Cd  tau(   8) = (  -0.0000005   0.5888789   0.6156216  )

     number of k points=    64  gaussian smearing, width (Ry)=  0.1000
                       cart. coord. in units 2pi/alat
        k(    1) = (   0.0000000   0.0000000   0.0000000), wk =   0.0095238
        k(    2) = (   0.0000000   0.0000000   0.1740401), wk =   0.0190476
        k(    3) = (   0.0000000   0.0000000   0.3480802), wk =   0.0190476
        k(    4) = (   0.0000000   0.0000000   0.5221203), wk =   0.0190476
        k(    5) = (   0.0000000   0.1886825   0.0000000), wk =   0.0190476
        k(    6) = (   0.0000000   0.1886825   0.1740401), wk =   0.0380952
        k(    7) = (   0.0000000   0.1886825   0.3480802), wk =   0.0380952
        k(    8) = (   0.0000000   0.1886825   0.5221203), wk =   0.0380952
        k(    9) = (   0.0000000   0.3773651   0.0000000), wk =   0.0190476
        k(   10) = (   0.0000000   0.3773651   0.1740401), wk =   0.0380952
        k(   11) = (   0.0000000   0.3773651   0.3480802), wk =   0.0380952
        k(   12) = (   0.0000000   0.3773651   0.5221203), wk =   0.0380952
        k(   13) = (   0.0000000  -0.5660476   0.0000000), wk =   0.0095238
        k(   14) = (   0.0000000  -0.5660476   0.1740401), wk =   0.0190476
        k(   15) = (   0.0000000  -0.5660476   0.3480802), wk =   0.0190476
        k(   16) = (   0.0000000  -0.5660476   0.5221203), wk =   0.0190476
        k(   17) = (   0.1960846   0.1132095   0.0000000), wk =   0.0190476
        k(   18) = (   0.1960846   0.1132095   0.1740401), wk =   0.0380952
        k(   19) = (   0.1960846   0.1132095   0.3480802), wk =   0.0380952
        k(   20) = (   0.1960846   0.1132095   0.5221203), wk =   0.0380952
        k(   21) = (   0.1960846   0.3018921   0.0000000), wk =   0.0190476
        k(   22) = (   0.1960846   0.3018921   0.1740401), wk =   0.0380952
        k(   23) = (   0.1960846   0.3018921   0.3480802), wk =   0.0380952
        k(   24) = (   0.1960846   0.3018921   0.5221203), wk =   0.0380952
        k(   25) = (   0.1960846   0.4905746   0.0000000), wk =   0.0190476
        k(   26) = (   0.1960846   0.4905746   0.1740401), wk =   0.0380952
        k(   27) = (   0.1960846   0.4905746   0.3480802), wk =   0.0380952
        k(   28) = (   0.1960846   0.4905746   0.5221203), wk =   0.0380952
        k(   29) = (   0.1960846  -0.4528381   0.0000000), wk =   0.0190476
        k(   30) = (   0.1960846  -0.4528381   0.1740401), wk =   0.0380952
        k(   31) = (   0.1960846  -0.4528381   0.3480802), wk =   0.0380952
        k(   32) = (   0.1960846  -0.4528381   0.5221203), wk =   0.0380952
        k(   33) = (   0.1960846  -0.2641555   0.0000000), wk =   0.0190476
        k(   34) = (   0.1960846  -0.2641555   0.1740401), wk =   0.0380952
        k(   35) = (   0.1960846  -0.2641555   0.3480802), wk =   0.0380952
        k(   36) = (   0.1960846  -0.2641555   0.5221203), wk =   0.0380952
        k(   37) = (   0.1960846  -0.0754730   0.0000000), wk =   0.0190476
        k(   38) = (   0.1960846  -0.0754730   0.1740401), wk =   0.0380952
        k(   39) = (   0.1960846  -0.0754730   0.3480802), wk =   0.0380952
        k(   40) = (   0.1960846  -0.0754730   0.5221203), wk =   0.0380952
        k(   41) = (   0.3921693   0.2264190   0.0000000), wk =   0.0190476
        k(   42) = (   0.3921693   0.2264190   0.1740401), wk =   0.0380952
        k(   43) = (   0.3921693   0.2264190   0.3480802), wk =   0.0380952
        k(   44) = (   0.3921693   0.2264190   0.5221203), wk =   0.0380952
        k(   45) = (   0.3921693   0.4151016   0.0000000), wk =   0.0190476
        k(   46) = (   0.3921693   0.4151016   0.1740401), wk =   0.0380952
        k(   47) = (   0.3921693   0.4151016   0.3480802), wk =   0.0380952
        k(   48) = (   0.3921693   0.4151016   0.5221203), wk =   0.0380952
        k(   49) = (   0.3921693   0.6037841   0.0000000), wk =   0.0190476
        k(   50) = (   0.3921693   0.6037841   0.1740401), wk =   0.0380952
        k(   51) = (   0.3921693   0.6037841   0.3480802), wk =   0.0380952
        k(   52) = (   0.3921693   0.6037841   0.5221203), wk =   0.0380952
        k(   53) = (   0.3921693  -0.3396286   0.0000000), wk =   0.0190476
        k(   54) = (   0.3921693  -0.3396286   0.1740401), wk =   0.0380952
        k(   55) = (   0.3921693  -0.3396286   0.3480802), wk =   0.0380952
        k(   56) = (   0.3921693  -0.3396286   0.5221203), wk =   0.0380952
        k(   57) = (   0.3921693  -0.1509460   0.0000000), wk =   0.0190476
        k(   58) = (   0.3921693  -0.1509460   0.1740401), wk =   0.0380952
        k(   59) = (   0.3921693  -0.1509460   0.3480802), wk =   0.0380952
        k(   60) = (   0.3921693  -0.1509460   0.5221203), wk =   0.0380952
        k(   61) = (   0.3921693   0.0377365   0.0000000), wk =   0.0190476
        k(   62) = (   0.3921693   0.0377365   0.1740401), wk =   0.0380952
        k(   63) = (   0.3921693   0.0377365   0.3480802), wk =   0.0380952
        k(   64) = (   0.3921693   0.0377365   0.5221203), wk =   0.0380952

     Largest allocated arrays     est. size (Mb)     dimensions
     Largest temporary arrays     est. size (Mb)     dimensions

     Initial potential from superposition of free atoms

     Starting from uniform charge
     Starting wfc are    0 randomized atomic wfcs

     Writing output data file Prototype-La-hP8-Mg3Cd.save

     Self-consistent Calculation

[...]

     iteration # 11     ecut=    40.00 Ry     beta=0.70
     CG style diagonalization
     c_bands:  1 eigenvalues not converged
     c_bands:  1 eigenvalues not converged
     c_bands:  1 eigenvalues not converged
     c_bands:  1 eigenvalues not converged
     c_bands:  1 eigenvalues not converged
     c_bands:  1 eigenvalues not converged
     c_bands:  1 eigenvalues not converged
     ethr =  3.00E-07,  avg # of iterations =  3.8

     total energy              =   -1050.76704264 Ry
     Harris-Foulkes estimate   =   -1050.76712142 Ry
     estimated scf accuracy    <       0.00016780 Ry

     iteration # 12     ecut=    40.00 Ry     beta=0.70
     CG style diagonalization
     ethr =  1.47E-07,  avg # of iterations =  3.5

     End of self-consistent calculation

[...]

          k = 0.3922 0.0377 0.5221 (  5495 PWs)   bands (ev):

   -71.7025 -71.6994 -35.8296 -35.8244 -35.8165 -35.8157 -35.8137 -35.8109
   -18.0988 -18.0166 -17.9199 -17.8740 -17.8331 -17.8019  -1.0623  -1.0152
    -0.9237  -0.8974  -0.6844  -0.6339  -0.1247   0.0134   0.2084   0.2323
     0.4257   0.5616   0.6542   0.6952   0.7777   0.8940   0.9579   0.9803
     8.1562   8.1644   8.1795   8.1959   8.2151   8.2188   8.2377   8.2472
     8.2950   8.3125  13.4835  13.5624  16.6696  16.8424  17.2592  17.4194
    17.7194  17.8837  18.0772  18.2350  18.6169  18.7128  18.9469  19.1942
    19.4226  19.4638  20.0103  20.0812  20.6619  20.7908  20.7971  21.8104
    22.0168  22.2352  22.8302  22.9017

     the Fermi energy is    19.6903 ev

!    total energy              =   -1050.76706740 Ry
     Harris-Foulkes estimate   =   -1050.76707239 Ry
     estimated scf accuracy    <       0.00000568 Ry

     The total energy is the sum of the following terms:

     one-electron contribution =    -216.26920828 Ry
     hartree contribution      =     173.20705764 Ry
     xc contribution           =    -112.77361441 Ry
     ewald contribution        =    -894.42537821 Ry
     smearing contrib. (-TS)   =      -0.50592413 Ry

     convergence has been achieved in  12 iterations

     Forces acting on atoms (Ry/au):

     atom    1 type  1   force =     0.00387859    0.00223931    0.00000000
     atom    2 type  1   force =     0.00387859   -0.00223931    0.00000000
     atom    3 type  1   force =    -0.00387859   -0.00223931    0.00000000
     atom    4 type  1   force =    -0.00387859    0.00223931    0.00000000
     atom    5 type  1   force =     0.00000000   -0.00447861    0.00000000
     atom    6 type  1   force =     0.00000000    0.00447861    0.00000000
     atom    7 type  2   force =     0.00000000    0.00000000    0.00000000
     atom    8 type  2   force =     0.00000000    0.00000000    0.00000000

     Total force =     0.010970     Total SCF correction =     0.000000

     entering subroutine stress ...

          total   stress  (Ry/bohr**3)                   (kbar)     P=   44.37
   0.00024230   0.00000000   0.00000000         35.64      0.00      0.00
   0.00000000   0.00024230   0.00000000          0.00     35.64      0.00
   0.00000000   0.00000000   0.00042034          0.00      0.00     61.83

     Writing output data file Prototype-La-hP8-Mg3Cd.save

     General routines

     Parallel routines

   This run was terminated on:   1:22:16  22Mar2018

   JOB DONE.