     Program PWSCF v.5.0.2 starts on 22Mar2018 at  0:36:48

     Current dimensions of program PWSCF are:
     Max number of different atomic species (ntypx) = 10
     Max number of k-points (npk) =  40000
     Max angular momentum in pseudopotentials (lmaxx) =  3
     Waiting for input...
     Reading input from standard input

     Subspace diagonalization in iterative solution of the eigenvalue problem:
     a serial algorithm will be used

     bravais-lattice index     =            0
     lattice parameter (alat)  =      13.3930  a.u.
     unit-cell volume          =    1134.0956 (a.u.)^3
     number of atoms/cell      =            4
     number of atomic types    =            2
     number of electrons       =        66.00
     number of Kohn-Sham states=           40
     kinetic-energy cutoff     =      40.0000  Ry
     charge density cutoff     =     160.0000  Ry
     convergence threshold     =      1.0E-04
     mixing beta               =       0.7000
     number of iterations used =            8  plain     mixing
     Exchange-correlation      = SLA-PZ-NOGX-NOGC ( 1 1 0 0 0)
     EXX-fraction              =        0.00
     nstep                     =           50

     celldm(1)=  13.392972  celldm(2)=   0.000000  celldm(3)=   0.000000
     celldm(4)=   0.000000  celldm(5)=   0.000000  celldm(6)=   0.000000

     crystal axes: (cart. coord. in units of alat)
               a(1) = (   1.000000   0.000000   0.000000 )
               a(2) = (  -0.776311   0.630350   0.000000 )
               a(3) = (   0.000000   0.000000   0.748922 )

     reciprocal axes: (cart. coord. in units 2 pi/alat)
               b(1) = (  1.000000  1.231554  0.000000 )
               b(2) = (  0.000000  1.586419  0.000000 )
               b(3) = (  0.000000  0.000000  1.335252 )

     PseudoPot. # 1 for Ce read from file:
     /home/jld5415/pp.La/Ce.UPF
     MD5 check sum: 44451aa79a44a00cf2bc029dc19922f6
     Pseudo is Norm-conserving, Zval = 12.0
     Generated in analytical, separable form
     Using radial grid of 1255 points,  6 beta functions with:
                l(1) =   0
                l(2) =   0
                l(3) =   1
                l(4) =   1
                l(5) =   2
                l(6) =   3

     PseudoPot. # 2 for Ho read from file:
     /home/jld5415/pp.La/Ho.UPF
     MD5 check sum: f307ee11bce99f5b724fa279e3790763
     Pseudo is Norm-conserving, Zval = 21.0
     Generated in analytical, separable form
     Using radial grid of 1265 points,  6 beta functions with:
                l(1) =   0
                l(2) =   0
                l(3) =   1
                l(4) =   1
                l(5) =   2
                l(6) =   3

     atomic species   valence    mass     pseudopotential
        Tl            12.00   204.38300     Ce( 1.00)
        I             21.00   126.90400     Ho( 1.00)

      2 Sym. Ops., with inversion, found
          (note:  2 additional sym.ops. were found but ignored
           their fractional translations are incommensurate with FFT grid)

   Cartesian axes

     site n.     atom                  positions (alat units)
         1           Tl  tau(   1) = (  -0.0906317   0.3870269   0.5616917  )
         2           Tl  tau(   2) = (   0.3143210   0.2433234   0.1872306  )
         3           I   tau(   3) = (  -0.5408004   0.5467760   0.5616917  )
         4           I   tau(   4) = (   0.7644896   0.0835744   0.1872306  )

     number of k points=   106  gaussian smearing, width (Ry)=  0.1000

     Number of k-points >= 100: set verbosity='high' to print them.

     Largest allocated arrays     est. size (Mb)     dimensions
     Largest temporary arrays     est. size (Mb)     dimensions

     Initial potential from superposition of free atoms

     Starting from uniform charge
     Starting wfc are    0 randomized atomic wfcs

     Self-consistent Calculation

     iteration #  1     ecut=    40.00 Ry     beta=0.70
     CG style diagonalization
     c_bands:  5 eigenvalues not converged
     c_bands:  5 eigenvalues not converged
     c_bands:  5 eigenvalues not converged
     c_bands:  3 eigenvalues not converged
     c_bands:  5 eigenvalues not converged
     c_bands:  5 eigenvalues not converged
     c_bands:  5 eigenvalues not converged
     c_bands:  5 eigenvalues not converged
     c_bands:  5 eigenvalues not converged
     c_bands:  5 eigenvalues not converged
     c_bands:  4 eigenvalues not converged
     c_bands:  5 eigenvalues not converged
     c_bands:  4 eigenvalues not converged
     c_bands:  5 eigenvalues not converged
     c_bands:  5 eigenvalues not converged
     c_bands:  5 eigenvalues not converged
     c_bands:  5 eigenvalues not converged
     c_bands:  4 eigenvalues not converged
     c_bands:  5 eigenvalues not converged
     c_bands:  4 eigenvalues not converged
     c_bands:  5 eigenvalues not converged
     c_bands:  5 eigenvalues not converged
     c_bands:  5 eigenvalues not converged
     c_bands:  5 eigenvalues not converged
     c_bands:  4 eigenvalues not converged
     c_bands:  4 eigenvalues not converged
     c_bands:  4 eigenvalues not converged
     c_bands:  5 eigenvalues not converged
     ethr =  1.00E-02,  avg # of iterations = 18.0

     total energy              =    -298.81447263 Ry
     Harris-Foulkes estimate   =   -1148.07219458 Ry
     estimated scf accuracy    <    1024.65545990 Ry

[...]

     iteration #  4     ecut=    40.00 Ry     beta=0.70
     CG style diagonalization
     ethr =  1.00E-02,  avg # of iterations =  4.9

[...]

     End of self-consistent calculation

     Number of k-points >= 100: set verbosity='high' to print the bands.

     the Fermi energy is    10.1762 ev

!    total energy              =    -741.76639646 Ry
     Harris-Foulkes estimate   =    -741.76640943 Ry
     estimated scf accuracy    <       0.00001480 Ry

     The total energy is the sum of the following terms:

     one-electron contribution =    -371.06878056 Ry
     hartree contribution      =     195.00206185 Ry
     xc contribution           =     -70.29005004 Ry
     ewald contribution        =    -495.05512907 Ry
     smearing contrib. (-TS)   =      -0.35449865 Ry

     convergence has been achieved in  12 iterations

     Forces acting on atoms (Ry/au):

     atom    1 type  1   force =     0.01730950   -0.00610994   -0.00005920
     atom    2 type  1   force =    -0.01730950    0.00610994    0.00005920
     atom    3 type  2   force =    -0.01063938    0.00388334    0.00010828
     atom    4 type  2   force =     0.01063938   -0.00388334   -0.00010828

     Total force =     0.030504     Total SCF correction =     0.000000

     entering subroutine stress ...

          total   stress  (Ry/bohr**3)                   (kbar)     P= -290.31
  -0.00196137  -0.00001106   0.00000001       -288.53     -1.63      0.00
  -0.00001106  -0.00198838   0.00000002         -1.63   -292.50      0.00
   0.00000001   0.00000002  -0.00197064          0.00      0.00   -289.89

     BFGS Geometry Optimization

     number of scf cycles    =   1
     number of bfgs steps    =   0

     enthalpy new            =    -741.7663964621 Ry

     new trust radius        =       0.3348111737 bohr
     new conv_thr            =       0.0001000000 Ry

     new unit-cell volume =    974.38349 a.u.^3 (   144.38874 Ang^3 )

CELL_PARAMETERS (alat= 13.39297219)
   0.950965709  -0.000276521   0.000000170
  -0.738419208   0.599230729   0.000000199
   0.000000127   0.000000393   0.712025798

ATOMIC_POSITIONS (crystal)
Tl       0.386743590   0.613263268   0.749994098
Tl       0.613256410   0.386736732   0.250005902
I        0.132146693   0.867875987   0.750010795
I        0.867853307   0.132124013   0.249989205

     Writing output data file Prototype-La-oS8-TlI.save
     NEW-OLD atomic charge density approx. for the potential
     NEW k-points: (use verbosity='high' to print them)

[...]

     enthalpy old            =    -741.7663964621 Ry
     enthalpy new            =    -742.0432714747 Ry

     CASE: enthalpy_new < enthalpy_old

     small trust_radius: resetting bfgs history

[...]

     number of scf cycles    =   3
     number of bfgs steps    =   2

     enthalpy old            =    -742.0432714747 Ry
     enthalpy new            =    -742.1690931422 Ry

     CASE: enthalpy_new < enthalpy_old

     Message from routine bfgs:
     history already reset at previous step: stopping
     small trust_radius: resetting bfgs history

     new trust radius        =       0.1287128256 bohr
     new conv_thr            =       0.0000295887 Ry

     new unit-cell volume =    816.83819 a.u.^3 (   121.04293 Ang^3 )

[...]

ATOMIC_POSITIONS (crystal)
Tl       0.389285624   0.610712245   0.749974727
Tl       0.610714376   0.389287755   0.250025273
I        0.130193808   0.869832712   0.749997476
I        0.869806192   0.130167288   0.250002524

     Writing output data file Prototype-La-oS8-TlI.save
     NEW-OLD atomic charge density approx. for the potential
     NEW k-points: (use verbosity='high' to print them)

[...]

     The maximum number of steps has been reached.

     End of BFGS Geometry Optimization
Begin final coordinates
     new unit-cell volume =    816.83819 a.u.^3 (   121.04293 Ang^3 )

CELL_PARAMETERS (alat= 13.39297219)
   0.894702508  -0.000037503  -0.000000130
  -0.694590804   0.563967358  -0.000000081
  -0.000000098  -0.000000219   0.673899186

ATOMIC_POSITIONS (crystal)
Tl       0.389285624   0.610712245   0.749974727
Tl       0.610714376   0.389287755   0.250025273
I        0.130193808   0.869832712   0.749997476
I        0.869806192   0.130167288   0.250002524
End final coordinates

     A final scf calculation at the relaxed structure.
     The G-vectors are recalculated for the final unit cell
     Results may differ from those at the preceding step.

     bravais-lattice index     =            0
     lattice parameter (alat)  =      13.3930  a.u.
     unit-cell volume          =     816.8382 (a.u.)^3
     number of atoms/cell      =            4
     number of atomic types    =            2
     number of electrons       =        66.00
     number of Kohn-Sham states=           40
     kinetic-energy cutoff     =      40.0000  Ry
     charge density cutoff     =     160.0000  Ry
     convergence threshold     =      3.0E-05
     mixing beta               =       0.7000
     number of iterations used =            8  plain     mixing
     Exchange-correlation      = SLA-PZ-NOGX-NOGC ( 1 1 0 0 0)
     EXX-fraction              =        0.00

     celldm(1)=  13.392972  celldm(2)=   0.000000  celldm(3)=   0.000000
     celldm(4)=   0.000000  celldm(5)=   0.000000  celldm(6)=   0.000000

     crystal axes: (cart. coord. in units of alat)
               a(1) = (   0.894703  -0.000038   0.000000 )
               a(2) = (  -0.694591   0.563967   0.000000 )
               a(3) = (   0.000000   0.000000   0.673899 )

     reciprocal axes: (cart. coord. in units 2 pi/alat)
               b(1) = (  1.117748  1.376635  0.000001 )
               b(2) = (  0.000074  1.773244  0.000001 )
               b(3) = (  0.000000  0.000000  1.483901 )

     PseudoPot. # 1 for Ce read from file:
     /home/jld5415/pp.La/Ce.UPF
     MD5 check sum: 44451aa79a44a00cf2bc029dc19922f6
     Pseudo is Norm-conserving, Zval = 12.0
     Generated in analytical, separable form
     Using radial grid of 1255 points,  6 beta functions with:
                l(1) =   0
                l(2) =   0
                l(3) =   1
                l(4) =   1
                l(5) =   2
                l(6) =   3

     PseudoPot. # 2 for Ho read from file:
     /home/jld5415/pp.La/Ho.UPF
     MD5 check sum: f307ee11bce99f5b724fa279e3790763
     Pseudo is Norm-conserving, Zval = 21.0
     Generated in analytical, separable form
     Using radial grid of 1265 points,  6 beta functions with:
                l(1) =   0
                l(2) =   0
                l(3) =   1
                l(4) =   1
                l(5) =   2
                l(6) =   3

     atomic species   valence    mass     pseudopotential
        Tl            12.00   204.38300     Ce( 1.00)
        I             21.00   126.90400     Ho( 1.00)

      2 Sym. Ops., with inversion, found
          (note:  2 additional sym.ops. were found but ignored
           their fractional translations are incommensurate with FFT grid)

   Cartesian axes

     site n.     atom                  positions (alat units)
         1           Tl  tau(   1) = (  -0.0759004   0.3444070   0.5054073  )
         2           Tl  tau(   2) = (   0.2760120   0.2195226   0.1684917  )
         3           I   tau(   3) = (  -0.4876931   0.4905522   0.5054226  )
         4           I   tau(   4) = (   0.6878048   0.0733774   0.1684764  )

     number of k points=   106  gaussian smearing, width (Ry)=  0.1000

     Number of k-points >= 100: set verbosity='high' to print them.

     Largest allocated arrays     est. size (Mb)     dimensions
     Largest temporary arrays     est. size (Mb)     dimensions

     Initial potential from superposition of free atoms

     Starting from uniform charge
     Starting wfc are    0 randomized atomic wfcs

     Writing output data file Prototype-La-oS8-TlI.save

     Self-consistent Calculation

[...]

     iteration #  9     ecut=    40.00 Ry     beta=0.70
     CG style diagonalization
     ethr =  4.85E-06,  avg # of iterations =  3.3

[...]

     total energy              =    -741.83417193 Ry
     Harris-Foulkes estimate   =    -741.83418477 Ry
     estimated scf accuracy    <       0.00003581 Ry

     iteration # 11     ecut=    40.00 Ry     beta=0.70
     CG style diagonalization
     c_bands:  1 eigenvalues not converged
     ethr =  5.43E-08,  avg # of iterations =  4.0

     End of self-consistent calculation

     Number of k-points >= 100: set verbosity='high' to print the bands.

     the Fermi energy is    15.4086 ev

!    total energy              =    -741.83417415 Ry
     Harris-Foulkes estimate   =    -741.83418164 Ry
     estimated scf accuracy    <       0.00000863 Ry

     The total energy is the sum of the following terms:

     one-electron contribution =    -280.56669923 Ry
     hartree contribution      =     162.67313914 Ry
     xc contribution           =     -71.16353669 Ry
     ewald contribution        =    -552.51869277 Ry
     smearing contrib. (-TS)   =      -0.25838460 Ry

     convergence has been achieved in  11 iterations

     Forces acting on atoms (Ry/au):

     atom    1 type  1   force =     0.02613313   -0.00929329    0.00054911
     atom    2 type  1   force =    -0.02613313    0.00929329   -0.00054911
     atom    3 type  2   force =    -0.01595276    0.00555403    0.00074633
     atom    4 type  2   force =     0.01595276   -0.00555403   -0.00074633

     Total force =     0.045946     Total SCF correction =     0.000000

     entering subroutine stress ...

          total   stress  (Ry/bohr**3)                   (kbar)     P= -232.77
  -0.00167129   0.00001700  -0.00000004       -245.85      2.50     -0.01
   0.00001700  -0.00162835   0.00000006          2.50   -239.54      0.01
  -0.00000004   0.00000006  -0.00144730         -0.01      0.01   -212.91

     Writing output data file Prototype-La-oS8-TlI.save

     General routines

     Parallel routines

   This run was terminated on:   1:21:37  22Mar2018

   JOB DONE.