     Program PWSCF v.5.0.2 starts on 22Mar2018 at  0:36:46

     Current dimensions of program PWSCF are:
     Max number of different atomic species (ntypx) = 10
     Max number of k-points (npk) =  40000
     Max angular momentum in pseudopotentials (lmaxx) =  3
     Waiting for input...
     Reading input from standard input

     Subspace diagonalization in iterative solution of the eigenvalue problem:
     a serial algorithm will be used

     bravais-lattice index     =            0
     lattice parameter (alat)  =       8.5346  a.u.
     unit-cell volume          =     621.6493 (a.u.)^3
     number of atoms/cell      =            8
     number of atomic types    =            2
     number of electrons       =       114.00
     number of Kohn-Sham states=           68
     kinetic-energy cutoff     =      40.0000  Ry
     charge density cutoff     =     160.0000  Ry
     convergence threshold     =      1.0E-04
     mixing beta               =       0.7000
     number of iterations used =            8  plain     mixing
     Exchange-correlation      = SLA-PZ-NOGX-NOGC ( 1 1 0 0 0)
     EXX-fraction              =        0.00
     nstep                     =           50

     celldm(1)=   8.534573  celldm(2)=   0.000000  celldm(3)=   0.000000
     celldm(4)=   0.000000  celldm(5)=   0.000000  celldm(6)=   0.000000

     crystal axes: (cart. coord. in units of alat)
               a(1) = (   1.000000   0.000000   0.000000 )
               a(2) = (   0.000000   1.000000   0.000000 )
               a(3) = (   0.000000   0.000000   1.000000 )

     reciprocal axes: (cart. coord. in units 2 pi/alat)
               b(1) = (  1.000000  0.000000  0.000000 )
               b(2) = (  0.000000  1.000000  0.000000 )
               b(3) = (  0.000000  0.000000  1.000000 )

     PseudoPot. # 1 for Ce read from file:
     /home/jld5415/pp.La/Ce.UPF
     MD5 check sum: 44451aa79a44a00cf2bc029dc19922f6
     Pseudo is Norm-conserving, Zval = 12.0
     Generated in analytical, separable form
     Using radial grid of 1255 points,  6 beta functions with:
                l(1) =   0
                l(2) =   0
                l(3) =   1
                l(4) =   1
                l(5) =   2
                l(6) =   3

     PseudoPot. # 2 for Ho read from file:
     /home/jld5415/pp.La/Ho.UPF
     MD5 check sum: f307ee11bce99f5b724fa279e3790763
     Pseudo is Norm-conserving, Zval = 21.0
     Generated in analytical, separable form
     Using radial grid of 1265 points,  6 beta functions with:
                l(1) =   0
                l(2) =   0
                l(3) =   1
                l(4) =   1
                l(5) =   2
                l(6) =   3

     atomic species   valence    mass     pseudopotential
        Cr            12.00    51.99610     Ce( 1.00)
        Si            21.00    28.08550     Ho( 1.00)

     48 Sym. Ops., with inversion, found (24 have fractional translation)

   Cartesian axes

     site n.     atom                  positions (alat units)
         1           Cr  tau(   1) = (   0.0000000   0.5000000   0.2500000  )
         2           Cr  tau(   2) = (   0.0000000   0.5000000   0.7500000  )
         3           Cr  tau(   3) = (   0.5000000   0.7500000   0.0000000  )
         4           Cr  tau(   4) = (   0.5000000   0.2500000   0.0000000  )
         5           Cr  tau(   5) = (   0.7500000   0.0000000   0.5000000  )
         6           Cr  tau(   6) = (   0.2500000   0.0000000   0.5000000  )
         7           Si  tau(   7) = (   0.5000000   0.5000000   0.5000000  )
         8           Si  tau(   8) = (   0.0000000   0.0000000   0.0000000  )

     number of k points=    48  gaussian smearing, width (Ry)=  0.1000
                       cart. coord. in units 2pi/alat
        k(    1) = (   0.0000000   0.0000000   0.0000000), wk =   0.0095238
        k(    2) = (   0.0000000   0.0000000   0.1428571), wk =   0.0190476
        k(    3) = (   0.0000000   0.0000000   0.2857143), wk =   0.0190476
        k(    4) = (   0.0000000   0.0000000   0.4285714), wk =   0.0190476
        k(    5) = (   0.0000000   0.1666667   0.0000000), wk =   0.0190476
        k(    6) = (   0.0000000   0.1666667   0.1428571), wk =   0.0380952
        k(    7) = (   0.0000000   0.1666667   0.2857143), wk =   0.0380952
        k(    8) = (   0.0000000   0.1666667   0.4285714), wk =   0.0380952
        k(    9) = (   0.0000000   0.3333333   0.0000000), wk =   0.0190476
        k(   10) = (   0.0000000   0.3333333   0.1428571), wk =   0.0380952
        k(   11) = (   0.0000000   0.3333333   0.2857143), wk =   0.0380952
        k(   12) = (   0.0000000   0.3333333   0.4285714), wk =   0.0380952
        k(   13) = (   0.0000000  -0.5000000   0.0000000), wk =   0.0095238
        k(   14) = (   0.0000000  -0.5000000   0.1428571), wk =   0.0190476
        k(   15) = (   0.0000000  -0.5000000   0.2857143), wk =   0.0190476
        k(   16) = (   0.0000000  -0.5000000   0.4285714), wk =   0.0190476
        k(   17) = (   0.2000000   0.0000000   0.0000000), wk =   0.0190476
        k(   18) = (   0.2000000   0.0000000   0.1428571), wk =   0.0380952
        k(   19) = (   0.2000000   0.0000000   0.2857143), wk =   0.0380952
        k(   20) = (   0.2000000   0.0000000   0.4285714), wk =   0.0380952
        k(   21) = (   0.2000000   0.1666667   0.0000000), wk =   0.0380952
        k(   22) = (   0.2000000   0.1666667   0.1428571), wk =   0.0761905
        k(   23) = (   0.2000000   0.1666667   0.2857143), wk =   0.0761905
        k(   24) = (   0.2000000   0.1666667   0.4285714), wk =   0.0761905
        k(   25) = (   0.2000000   0.3333333   0.0000000), wk =   0.0380952
        k(   26) = (   0.2000000   0.3333333   0.1428571), wk =   0.0761905
        k(   27) = (   0.2000000   0.3333333   0.2857143), wk =   0.0761905
        k(   28) = (   0.2000000   0.3333333   0.4285714), wk =   0.0761905
        k(   29) = (   0.2000000  -0.5000000   0.0000000), wk =   0.0190476
        k(   30) = (   0.2000000  -0.5000000   0.1428571), wk =   0.0380952
        k(   31) = (   0.2000000  -0.5000000   0.2857143), wk =   0.0380952
        k(   32) = (   0.2000000  -0.5000000   0.4285714), wk =   0.0380952
        k(   33) = (   0.4000000   0.0000000   0.0000000), wk =   0.0190476
        k(   34) = (   0.4000000   0.0000000   0.1428571), wk =   0.0380952
        k(   35) = (   0.4000000   0.0000000   0.2857143), wk =   0.0380952
        k(   36) = (   0.4000000   0.0000000   0.4285714), wk =   0.0380952
        k(   37) = (   0.4000000   0.1666667   0.0000000), wk =   0.0380952
        k(   38) = (   0.4000000   0.1666667   0.1428571), wk =   0.0761905
        k(   39) = (   0.4000000   0.1666667   0.2857143), wk =   0.0761905
        k(   40) = (   0.4000000   0.1666667   0.4285714), wk =   0.0761905
        k(   41) = (   0.4000000   0.3333333   0.0000000), wk =   0.0380952
        k(   42) = (   0.4000000   0.3333333   0.1428571), wk =   0.0761905
        k(   43) = (   0.4000000   0.3333333   0.2857143), wk =   0.0761905
        k(   44) = (   0.4000000   0.3333333   0.4285714), wk =   0.0761905
        k(   45) = (   0.4000000  -0.5000000   0.0000000), wk =   0.0190476
        k(   46) = (   0.4000000  -0.5000000   0.1428571), wk =   0.0380952
        k(   47) = (   0.4000000  -0.5000000   0.2857143), wk =   0.0380952
        k(   48) = (   0.4000000  -0.5000000   0.4285714), wk =   0.0380952

     Largest allocated arrays     est. size (Mb)     dimensions
     Largest temporary arrays     est. size (Mb)     dimensions

     Initial potential from superposition of free atoms

     Starting from uniform charge
     Starting wfc are    0 randomized atomic wfcs

     Self-consistent Calculation

     iteration #  1     ecut=    40.00 Ry     beta=0.70
     CG style diagonalization
     c_bands:  2 eigenvalues not converged
     c_bands:  1 eigenvalues not converged
     c_bands:  1 eigenvalues not converged
     c_bands:  2 eigenvalues not converged
     c_bands:  2 eigenvalues not converged
     c_bands:  1 eigenvalues not converged
     c_bands:  1 eigenvalues not converged
     c_bands:  1 eigenvalues not converged
     c_bands:  2 eigenvalues not converged
     c_bands:  1 eigenvalues not converged
     c_bands:  1 eigenvalues not converged
     c_bands:  2 eigenvalues not converged
     c_bands:  3 eigenvalues not converged
     c_bands:  2 eigenvalues not converged
     c_bands:  2 eigenvalues not converged
     c_bands:  1 eigenvalues not converged
     c_bands:  1 eigenvalues not converged
     c_bands:  2 eigenvalues not converged
     c_bands:  2 eigenvalues not converged
     c_bands:  1 eigenvalues not converged
     c_bands:  1 eigenvalues not converged
     c_bands:  1 eigenvalues not converged
     c_bands:  1 eigenvalues not converged
     c_bands:  1 eigenvalues not converged
     c_bands:  1 eigenvalues not converged
     c_bands:  1 eigenvalues not converged
     c_bands:  2 eigenvalues not converged
     c_bands:  2 eigenvalues not converged
     c_bands:  1 eigenvalues not converged
     c_bands:  1 eigenvalues not converged
     c_bands:  1 eigenvalues not converged
     c_bands:  1 eigenvalues not converged
     c_bands:  2 eigenvalues not converged
     c_bands:  2 eigenvalues not converged
     c_bands:  1 eigenvalues not converged
     c_bands:  1 eigenvalues not converged
     c_bands:  2 eigenvalues not converged
     c_bands:  2 eigenvalues not converged
     c_bands:  2 eigenvalues not converged
     ethr =  1.00E-02,  avg # of iterations = 12.7

     total energy              =    -530.82115284 Ry
     Harris-Foulkes estimate   =   -1313.36127970 Ry
     estimated scf accuracy    <     931.14836152 Ry

[...]

     iteration #  4     ecut=    40.00 Ry     beta=0.70
     CG style diagonalization
     ethr =  1.00E-02,  avg # of iterations =  3.8

[...]

     End of self-consistent calculation

          k = 0.0000 0.0000 0.0000 (  2601 PWs)   bands (ev):

   -51.8544 -51.8196 -16.3844 -16.3844 -16.3844 -16.3373 -16.3373 -16.3373
    -0.4018   1.8984   1.8984   5.5356   5.5356   5.5356  13.6809  13.6809
    15.1355  16.9507  16.9507  16.9507  19.2097  19.2097  19.2097  21.8797
    21.8797  21.8797  22.0626  22.0626  22.0626  26.7496  26.7496  27.5601
    27.5601  28.9240  28.9240  28.9240  29.0990  29.0990  29.0990  29.7284
    29.7284  29.7284  32.9822  33.0286  33.9952  33.9952  33.9952  35.5526
    38.1294  38.1294  38.1294  40.5823  40.5823  41.5717  42.7860  42.7860
    42.7860  42.8157  42.8157  45.1205  45.1205  45.1205  46.0461  46.0461
    46.0465  47.9868  48.7489  48.7490

[...]

     the Fermi energy is    42.9372 ev

!    total energy              =   -1042.97369766 Ry
     Harris-Foulkes estimate   =   -1042.97374916 Ry
     estimated scf accuracy    <       0.00005618 Ry

     The total energy is the sum of the following terms:

     one-electron contribution =     123.38581459 Ry
     hartree contribution      =      95.56755102 Ry
     xc contribution           =    -122.92493973 Ry
     ewald contribution        =   -1138.72270453 Ry
     smearing contrib. (-TS)   =      -0.27941900 Ry

     convergence has been achieved in   9 iterations

[...]
     enthalpy new            =   -1047.1020646403 Ry

     CASE: enthalpy_new < enthalpy_old

     small trust_radius: resetting bfgs history

     new trust radius        =       1.4065248685 bohr
     new conv_thr            =       0.0000010000 Ry

[...]

          total   stress  (Ry/bohr**3)                   (kbar)     P=-1158.56
  -0.00787571   0.00000000   0.00000000      -1158.56      0.00      0.00
   0.00000000  -0.00787571   0.00000000          0.00  -1158.56      0.00
   0.00000000   0.00000000  -0.00787571          0.00      0.00  -1158.56

     number of scf cycles    =   3
     number of bfgs steps    =   2

     enthalpy old            =   -1047.1020646403 Ry
     enthalpy new            =   -1045.3088880246 Ry

     CASE: enthalpy_new > enthalpy_old

     new trust radius        =       0.6024757198 bohr

     trust_radius < trust_radius_min

     resetting bfgs history

     Message from routine bfgs:
     history already reset at previous step: stopping
     new conv_thr            =       0.0000010000 Ry

     new unit-cell volume =   1036.94656 a.u.^3 (   153.65963 Ang^3 )

[...]

ATOMIC_POSITIONS (crystal)
Cr       0.000000000   0.500000000   0.250000000
Cr       0.000000000   0.500000000   0.750000000
Cr       0.500000000   0.750000000   0.000000000
Cr       0.500000000   0.250000000   0.000000000
Cr       0.750000000   0.000000000   0.500000000
Cr       0.250000000   0.000000000   0.500000000
Si       0.500000000   0.500000000   0.500000000
Si       0.000000000   0.000000000   0.000000000

     Writing output data file Prototype-La-cP8-Cr3Si.save
     NEW-OLD atomic charge density approx. for the potential
     NEW k-points:
        k(    1) = (   0.0000000   0.0000000   0.0000000), wk =   0.0095238
        k(    2) = (   0.0000000   0.0000000   0.1204569), wk =   0.0190476
        k(    3) = (   0.0000000   0.0000000   0.2409138), wk =   0.0190476
        k(    4) = (   0.0000000   0.0000000   0.3613707), wk =   0.0190476
        k(    5) = (   0.0000000   0.1405330   0.0000000), wk =   0.0190476
        k(    6) = (   0.0000000   0.1405330   0.1204569), wk =   0.0380952
        k(    7) = (   0.0000000   0.1405330   0.2409138), wk =   0.0380952
        k(    8) = (   0.0000000   0.1405330   0.3613707), wk =   0.0380952
        k(    9) = (   0.0000000   0.2810661   0.0000000), wk =   0.0190476
        k(   10) = (   0.0000000   0.2810661   0.1204569), wk =   0.0380952
        k(   11) = (   0.0000000   0.2810661   0.2409138), wk =   0.0380952
        k(   12) = (   0.0000000   0.2810661   0.3613707), wk =   0.0380952
        k(   13) = (   0.0000000  -0.4215991   0.0000000), wk =   0.0095238
        k(   14) = (   0.0000000  -0.4215991   0.1204569), wk =   0.0190476
        k(   15) = (   0.0000000  -0.4215991   0.2409138), wk =   0.0190476
        k(   16) = (   0.0000000  -0.4215991   0.3613707), wk =   0.0190476
        k(   17) = (   0.1686396   0.0000000   0.0000000), wk =   0.0190476
        k(   18) = (   0.1686396   0.0000000   0.1204569), wk =   0.0380952
        k(   19) = (   0.1686396   0.0000000   0.2409138), wk =   0.0380952
        k(   20) = (   0.1686396   0.0000000   0.3613707), wk =   0.0380952
        k(   21) = (   0.1686396   0.1405330   0.0000000), wk =   0.0380952
        k(   22) = (   0.1686396   0.1405330   0.1204569), wk =   0.0761905
        k(   23) = (   0.1686396   0.1405330   0.2409138), wk =   0.0761905
        k(   24) = (   0.1686396   0.1405330   0.3613707), wk =   0.0761905
        k(   25) = (   0.1686396   0.2810661   0.0000000), wk =   0.0380952
        k(   26) = (   0.1686396   0.2810661   0.1204569), wk =   0.0761905
        k(   27) = (   0.1686396   0.2810661   0.2409138), wk =   0.0761905
        k(   28) = (   0.1686396   0.2810661   0.3613707), wk =   0.0761905
        k(   29) = (   0.1686396  -0.4215991   0.0000000), wk =   0.0190476
        k(   30) = (   0.1686396  -0.4215991   0.1204569), wk =   0.0380952
        k(   31) = (   0.1686396  -0.4215991   0.2409138), wk =   0.0380952
        k(   32) = (   0.1686396  -0.4215991   0.3613707), wk =   0.0380952
        k(   33) = (   0.3372793   0.0000000   0.0000000), wk =   0.0190476
        k(   34) = (   0.3372793   0.0000000   0.1204569), wk =   0.0380952
        k(   35) = (   0.3372793   0.0000000   0.2409138), wk =   0.0380952
        k(   36) = (   0.3372793   0.0000000   0.3613707), wk =   0.0380952
        k(   37) = (   0.3372793   0.1405330   0.0000000), wk =   0.0380952
        k(   38) = (   0.3372793   0.1405330   0.1204569), wk =   0.0761905
        k(   39) = (   0.3372793   0.1405330   0.2409138), wk =   0.0761905
        k(   40) = (   0.3372793   0.1405330   0.3613707), wk =   0.0761905
        k(   41) = (   0.3372793   0.2810661   0.0000000), wk =   0.0380952
        k(   42) = (   0.3372793   0.2810661   0.1204569), wk =   0.0761905
        k(   43) = (   0.3372793   0.2810661   0.2409138), wk =   0.0761905
        k(   44) = (   0.3372793   0.2810661   0.3613707), wk =   0.0761905
        k(   45) = (   0.3372793  -0.4215991   0.0000000), wk =   0.0190476
        k(   46) = (   0.3372793  -0.4215991   0.1204569), wk =   0.0380952
        k(   47) = (   0.3372793  -0.4215991   0.2409138), wk =   0.0380952
        k(   48) = (   0.3372793  -0.4215991   0.3613707), wk =   0.0380952

[...]

     The maximum number of steps has been reached.

     End of BFGS Geometry Optimization
Begin final coordinates
     new unit-cell volume =   1036.94656 a.u.^3 (   153.65963 Ang^3 )

CELL_PARAMETERS (alat=  8.53457320)
   1.185960755   0.000000000   0.000000000
   0.000000000   1.185960755   0.000000000
   0.000000000   0.000000000   1.185960755

ATOMIC_POSITIONS (crystal)
Cr       0.000000000   0.500000000   0.250000000
Cr       0.000000000   0.500000000   0.750000000
Cr       0.500000000   0.750000000   0.000000000
Cr       0.500000000   0.250000000   0.000000000
Cr       0.750000000   0.000000000   0.500000000
Cr       0.250000000   0.000000000   0.500000000
Si       0.500000000   0.500000000   0.500000000
Si       0.000000000   0.000000000   0.000000000
End final coordinates

     A final scf calculation at the relaxed structure.
     The G-vectors are recalculated for the final unit cell
     Results may differ from those at the preceding step.

     bravais-lattice index     =            0
     lattice parameter (alat)  =       8.5346  a.u.
     unit-cell volume          =    1036.9466 (a.u.)^3
     number of atoms/cell      =            8
     number of atomic types    =            2
     number of electrons       =       114.00
     number of Kohn-Sham states=           68
     kinetic-energy cutoff     =      40.0000  Ry
     charge density cutoff     =     160.0000  Ry
     convergence threshold     =      1.0E-06
     mixing beta               =       0.7000
     number of iterations used =            8  plain     mixing
     Exchange-correlation      = SLA-PZ-NOGX-NOGC ( 1 1 0 0 0)
     EXX-fraction              =        0.00

     celldm(1)=   8.534573  celldm(2)=   0.000000  celldm(3)=   0.000000
     celldm(4)=   0.000000  celldm(5)=   0.000000  celldm(6)=   0.000000

     crystal axes: (cart. coord. in units of alat)
               a(1) = (   1.185961   0.000000   0.000000 )
               a(2) = (   0.000000   1.185961   0.000000 )
               a(3) = (   0.000000   0.000000   1.185961 )

     reciprocal axes: (cart. coord. in units 2 pi/alat)
               b(1) = (  0.843198  0.000000  0.000000 )
               b(2) = (  0.000000  0.843198  0.000000 )
               b(3) = (  0.000000  0.000000  0.843198 )

     PseudoPot. # 1 for Ce read from file:
     /home/jld5415/pp.La/Ce.UPF
     MD5 check sum: 44451aa79a44a00cf2bc029dc19922f6
     Pseudo is Norm-conserving, Zval = 12.0
     Generated in analytical, separable form
     Using radial grid of 1255 points,  6 beta functions with:
                l(1) =   0
                l(2) =   0
                l(3) =   1
                l(4) =   1
                l(5) =   2
                l(6) =   3

     PseudoPot. # 2 for Ho read from file:
     /home/jld5415/pp.La/Ho.UPF
     MD5 check sum: f307ee11bce99f5b724fa279e3790763
     Pseudo is Norm-conserving, Zval = 21.0
     Generated in analytical, separable form
     Using radial grid of 1265 points,  6 beta functions with:
                l(1) =   0
                l(2) =   0
                l(3) =   1
                l(4) =   1
                l(5) =   2
                l(6) =   3

     atomic species   valence    mass     pseudopotential
        Cr            12.00    51.99610     Ce( 1.00)
        Si            21.00    28.08550     Ho( 1.00)

     48 Sym. Ops., with inversion, found (24 have fractional translation)

   Cartesian axes

     site n.     atom                  positions (alat units)
         1           Cr  tau(   1) = (   0.0000000   0.5929804   0.2964902  )
         2           Cr  tau(   2) = (   0.0000000   0.5929804   0.8894706  )
         3           Cr  tau(   3) = (   0.5929804   0.8894706   0.0000000  )
         4           Cr  tau(   4) = (   0.5929804   0.2964902   0.0000000  )
         5           Cr  tau(   5) = (   0.8894706   0.0000000   0.5929804  )
         6           Cr  tau(   6) = (   0.2964902   0.0000000   0.5929804  )
         7           Si  tau(   7) = (   0.5929804   0.5929804   0.5929804  )
         8           Si  tau(   8) = (   0.0000000   0.0000000   0.0000000  )

     number of k points=    48  gaussian smearing, width (Ry)=  0.1000
                       cart. coord. in units 2pi/alat
        k(    1) = (   0.0000000   0.0000000   0.0000000), wk =   0.0095238
        k(    2) = (   0.0000000   0.0000000   0.1204569), wk =   0.0190476
        k(    3) = (   0.0000000   0.0000000   0.2409138), wk =   0.0190476
        k(    4) = (   0.0000000   0.0000000   0.3613707), wk =   0.0190476
        k(    5) = (   0.0000000   0.1405330   0.0000000), wk =   0.0190476
        k(    6) = (   0.0000000   0.1405330   0.1204569), wk =   0.0380952
        k(    7) = (   0.0000000   0.1405330   0.2409138), wk =   0.0380952
        k(    8) = (   0.0000000   0.1405330   0.3613707), wk =   0.0380952
        k(    9) = (   0.0000000   0.2810661   0.0000000), wk =   0.0190476
        k(   10) = (   0.0000000   0.2810661   0.1204569), wk =   0.0380952
        k(   11) = (   0.0000000   0.2810661   0.2409138), wk =   0.0380952
        k(   12) = (   0.0000000   0.2810661   0.3613707), wk =   0.0380952
        k(   13) = (   0.0000000  -0.4215991   0.0000000), wk =   0.0095238
        k(   14) = (   0.0000000  -0.4215991   0.1204569), wk =   0.0190476
        k(   15) = (   0.0000000  -0.4215991   0.2409138), wk =   0.0190476
        k(   16) = (   0.0000000  -0.4215991   0.3613707), wk =   0.0190476
        k(   17) = (   0.1686396   0.0000000   0.0000000), wk =   0.0190476
        k(   18) = (   0.1686396   0.0000000   0.1204569), wk =   0.0380952
        k(   19) = (   0.1686396   0.0000000   0.2409138), wk =   0.0380952
        k(   20) = (   0.1686396   0.0000000   0.3613707), wk =   0.0380952
        k(   21) = (   0.1686396   0.1405330   0.0000000), wk =   0.0380952
        k(   22) = (   0.1686396   0.1405330   0.1204569), wk =   0.0761905
        k(   23) = (   0.1686396   0.1405330   0.2409138), wk =   0.0761905
        k(   24) = (   0.1686396   0.1405330   0.3613707), wk =   0.0761905
        k(   25) = (   0.1686396   0.2810661   0.0000000), wk =   0.0380952
        k(   26) = (   0.1686396   0.2810661   0.1204569), wk =   0.0761905
        k(   27) = (   0.1686396   0.2810661   0.2409138), wk =   0.0761905
        k(   28) = (   0.1686396   0.2810661   0.3613707), wk =   0.0761905
        k(   29) = (   0.1686396  -0.4215991   0.0000000), wk =   0.0190476
        k(   30) = (   0.1686396  -0.4215991   0.1204569), wk =   0.0380952
        k(   31) = (   0.1686396  -0.4215991   0.2409138), wk =   0.0380952
        k(   32) = (   0.1686396  -0.4215991   0.3613707), wk =   0.0380952
        k(   33) = (   0.3372793   0.0000000   0.0000000), wk =   0.0190476
        k(   34) = (   0.3372793   0.0000000   0.1204569), wk =   0.0380952
        k(   35) = (   0.3372793   0.0000000   0.2409138), wk =   0.0380952
        k(   36) = (   0.3372793   0.0000000   0.3613707), wk =   0.0380952
        k(   37) = (   0.3372793   0.1405330   0.0000000), wk =   0.0380952
        k(   38) = (   0.3372793   0.1405330   0.1204569), wk =   0.0761905
        k(   39) = (   0.3372793   0.1405330   0.2409138), wk =   0.0761905
        k(   40) = (   0.3372793   0.1405330   0.3613707), wk =   0.0761905
        k(   41) = (   0.3372793   0.2810661   0.0000000), wk =   0.0380952
        k(   42) = (   0.3372793   0.2810661   0.1204569), wk =   0.0761905
        k(   43) = (   0.3372793   0.2810661   0.2409138), wk =   0.0761905
        k(   44) = (   0.3372793   0.2810661   0.3613707), wk =   0.0761905
        k(   45) = (   0.3372793  -0.4215991   0.0000000), wk =   0.0190476
        k(   46) = (   0.3372793  -0.4215991   0.1204569), wk =   0.0380952
        k(   47) = (   0.3372793  -0.4215991   0.2409138), wk =   0.0380952
        k(   48) = (   0.3372793  -0.4215991   0.3613707), wk =   0.0380952

     Largest allocated arrays     est. size (Mb)     dimensions
     Largest temporary arrays     est. size (Mb)     dimensions

     Initial potential from superposition of free atoms

     Starting from uniform charge
     Starting wfc are    0 randomized atomic wfcs

     Writing output data file Prototype-La-cP8-Cr3Si.save

     Self-consistent Calculation

[...]

     iteration #  9     ecut=    40.00 Ry     beta=0.70
     CG style diagonalization
     c_bands:  1 eigenvalues not converged
     c_bands:  1 eigenvalues not converged
     c_bands:  1 eigenvalues not converged
     c_bands:  1 eigenvalues not converged
     ethr =  4.29E-07,  avg # of iterations =  3.5

[...]

     total energy              =   -1049.87209936 Ry
     Harris-Foulkes estimate   =   -1049.87210275 Ry
     estimated scf accuracy    <       0.00000572 Ry

     iteration # 11     ecut=    40.00 Ry     beta=0.70
     CG style diagonalization
     ethr =  5.02E-09,  avg # of iterations =  3.6

     End of self-consistent calculation

[...]

          k = 0.3373-0.4216 0.3614 (  4440 PWs)   bands (ev):

   -67.1107 -67.1106 -31.2863 -31.2863 -31.2837 -31.2837 -31.2777 -31.2776
   -12.8779 -12.8368 -12.6863 -12.6835 -12.5407 -12.4928   3.7243   3.8385
     3.8777   3.9765   4.4325   4.4433   4.8104   4.8920   5.3241   5.3637
     5.4991   5.5316   5.7087   5.7154   5.8467   5.8474   5.8598   5.9405
    12.4526  12.4571  12.5051  12.5072  12.5846  12.6252  12.7133  12.7136
    12.7263  12.7266  19.2168  19.2170  21.6407  21.6512  22.0546  22.1556
    22.2549  22.2914  23.7921  23.8016  24.0323  24.0728  24.1113  24.1492
    25.4889  25.5136  25.8577  25.8892  26.6007  26.6212  26.8607  27.1224
    27.8498  27.9616  28.6008  28.6721

     the Fermi energy is    24.9038 ev

!    total energy              =   -1049.87210059 Ry
     Harris-Foulkes estimate   =   -1049.87210060 Ry
     estimated scf accuracy    <       0.00000002 Ry

     The total energy is the sum of the following terms:

     one-electron contribution =    -122.05501175 Ry
     hartree contribution      =     147.84860157 Ry
     xc contribution           =    -115.07494234 Ry
     ewald contribution        =    -960.16895966 Ry
     smearing contrib. (-TS)   =      -0.42178841 Ry

     convergence has been achieved in  11 iterations

     Forces acting on atoms (Ry/au):

     atom    1 type  1   force =     0.00000000    0.00000000    0.00000000
     atom    2 type  1   force =     0.00000000    0.00000000    0.00000000
     atom    3 type  1   force =     0.00000000    0.00000000    0.00000000
     atom    4 type  1   force =     0.00000000    0.00000000    0.00000000
     atom    5 type  1   force =     0.00000000    0.00000000    0.00000000
     atom    6 type  1   force =     0.00000000    0.00000000    0.00000000
     atom    7 type  2   force =     0.00000000    0.00000000    0.00000000
     atom    8 type  2   force =     0.00000000    0.00000000    0.00000000

     Total force =     0.000000     Total SCF correction =     0.000000

     entering subroutine stress ...

          total   stress  (Ry/bohr**3)                   (kbar)     P=  583.39
   0.00396583   0.00000000   0.00000000        583.39      0.00      0.00
   0.00000000   0.00396583   0.00000000          0.00    583.39      0.00
   0.00000000   0.00000000   0.00396583          0.00      0.00    583.39

     Writing output data file Prototype-La-cP8-Cr3Si.save

     General routines

     Parallel routines

   This run was terminated on:   0:59:48  22Mar2018

   JOB DONE.