     Program PWSCF v.5.0.2 starts on 23Mar2018 at  2:19:43

     Current dimensions of program PWSCF are:
     Max number of different atomic species (ntypx) = 10
     Max number of k-points (npk) =  40000
     Max angular momentum in pseudopotentials (lmaxx) =  3
     Waiting for input...
     Reading input from standard input

     Subspace diagonalization in iterative solution of the eigenvalue problem:
     a serial algorithm will be used

     bravais-lattice index     =            0
     lattice parameter (alat)  =       7.0151  a.u.
     unit-cell volume          =     862.2778 (a.u.)^3
     number of atoms/cell      =           12
     number of atomic types    =            2
     number of electrons       =       212.00
     number of Kohn-Sham states=          127
     kinetic-energy cutoff     =      40.0000  Ry
     charge density cutoff     =     160.0000  Ry
     convergence threshold     =      1.0E-04
     mixing beta               =       0.7000
     number of iterations used =            8  plain     mixing
     Exchange-correlation      = SLA-PZ-NOGX-NOGC ( 1 1 0 0 0)
     EXX-fraction              =        0.00
     nstep                     =           50

     celldm(1)=   7.015105  celldm(2)=   0.000000  celldm(3)=   0.000000
     celldm(4)=   0.000000  celldm(5)=   0.000000  celldm(6)=   0.000000

     crystal axes: (cart. coord. in units of alat)
               a(1) = (   1.000000   0.000000   0.000000 )
               a(2) = (   0.000000   1.315963   0.000000 )
               a(3) = (   0.000000   0.000000   1.898020 )

     reciprocal axes: (cart. coord. in units 2 pi/alat)
               b(1) = (  1.000000  0.000000  0.000000 )
               b(2) = (  0.000000  0.759900  0.000000 )
               b(3) = (  0.000000  0.000000  0.526865 )

     PseudoPot. # 1 for Dy read from file:
     /home/cwx6513/pp.La/Dy.UPF
     MD5 check sum: 9597327bec62616a94a14d07f3fd9936
     Pseudo is Norm-conserving, Zval = 20.0
     Generated in analytical, separable form
     Using radial grid of 1265 points,  6 beta functions with:
                l(1) =   0
                l(2) =   0
                l(3) =   1
                l(4) =   1
                l(5) =   2
                l(6) =   3

     PseudoPot. # 2 for Pr read from file:
     /home/cwx6513/pp.La/Pr.UPF
     MD5 check sum: 70e2b4b153859e92c8c91247dfc63203
     Pseudo is Norm-conserving, Zval = 13.0
     Generated in analytical, separable form
     Using radial grid of 1255 points,  6 beta functions with:
                l(1) =   0
                l(2) =   0
                l(3) =   1
                l(4) =   1
                l(5) =   2
                l(6) =   3

     atomic species   valence    mass     pseudopotential
        Co            20.00    58.93320     Dy( 1.00)
        Si            13.00    28.08550     Pr( 1.00)

      8 Sym. Ops., with inversion, found ( 6 have fractional translation)

   Cartesian axes

     site n.     atom                  positions (alat units)
         1           Co  tau(   1) = (   0.7500000   1.0875135   0.8270358  )
         2           Co  tau(   2) = (   0.2500000   0.2284499   1.0709846  )
         3           Co  tau(   3) = (   0.7500000   0.4295318   0.1219744  )
         4           Co  tau(   4) = (   0.2500000   0.8864316   1.7760460  )
         5           Co  tau(   5) = (   0.2500000   0.7067855   0.5358966  )
         6           Co  tau(   6) = (   0.7500000   0.6091779   1.3621238  )
         7           Co  tau(   7) = (   0.2500000   0.0488038   0.4131136  )
         8           Co  tau(   8) = (   0.7500000   1.2671596   1.4849068  )
         9           Si  tau(   9) = (   0.2500000   0.2669484   1.6960710  )
        10           Si  tau(  10) = (   0.7500000   1.0490149   0.2019494  )
        11           Si  tau(  11) = (   0.2500000   0.9249301   1.1509596  )
        12           Si  tau(  12) = (   0.7500000   0.3910333   0.7470608  )

     number of k points=    12  gaussian smearing, width (Ry)=  0.1000
                       cart. coord. in units 2pi/alat
        k(    1) = (   0.0000000   0.0000000   0.0000000), wk =   0.0833333
        k(    2) = (   0.0000000   0.0000000   0.1317162), wk =   0.1666667
        k(    3) = (   0.0000000   0.0000000  -0.2634324), wk =   0.0833333
        k(    4) = (   0.0000000   0.2532999   0.0000000), wk =   0.1666667
        k(    5) = (   0.0000000   0.2532999   0.1317162), wk =   0.3333333
        k(    6) = (   0.0000000   0.2532999  -0.2634324), wk =   0.1666667
        k(    7) = (  -0.5000000   0.0000000   0.0000000), wk =   0.0833333
        k(    8) = (  -0.5000000   0.0000000   0.1317162), wk =   0.1666667
        k(    9) = (  -0.5000000   0.0000000  -0.2634324), wk =   0.0833333
        k(   10) = (  -0.5000000   0.2532999   0.0000000), wk =   0.1666667
        k(   11) = (  -0.5000000   0.2532999   0.1317162), wk =   0.3333333
        k(   12) = (  -0.5000000   0.2532999  -0.2634324), wk =   0.1666667

     Largest allocated arrays     est. size (Mb)     dimensions
     Largest temporary arrays     est. size (Mb)     dimensions

     Initial potential from superposition of free atoms
     Check: negative starting charge=   -0.001196

     starting charge   51.96217, renormalised to  212.00000

     negative rho (up, down):  0.488E-02 0.000E+00
     Starting wfc are   80 randomized atomic wfcs

     Self-consistent Calculation

     iteration #  1     ecut=    40.00 Ry     beta=0.70
     CG style diagonalization
     c_bands:  2 eigenvalues not converged
     c_bands:  2 eigenvalues not converged
     c_bands:  1 eigenvalues not converged
     c_bands:  1 eigenvalues not converged
     c_bands:  1 eigenvalues not converged
     c_bands:  1 eigenvalues not converged
     c_bands:  1 eigenvalues not converged
     c_bands:  1 eigenvalues not converged
     ethr =  1.00E-02,  avg # of iterations = 31.9

     negative rho (up, down):  0.144E-02 0.000E+00

     total energy              =   -1702.61348674 Ry
     Harris-Foulkes estimate   =   -5058.27268690 Ry
     estimated scf accuracy    <    3984.43899756 Ry

[...]

     iteration #  5     ecut=    40.00 Ry     beta=0.70
     CG style diagonalization
     ethr =  1.00E-02,  avg # of iterations =  4.0

[...]

     End of self-consistent calculation

          k = 0.0000 0.0000 0.0000 (  3675 PWs)   bands (ev):

   -36.6126 -36.4591 -36.3761 -36.3091 -36.2727 -36.2032 -36.2012 -36.1809
    -5.1644  -4.8290  -4.6874  -4.5149  -4.4036  -4.3747  -4.2532  -4.0740
    -3.9567  -3.9414  -3.9086  -3.6991  -3.6479  -3.5682  -3.5554  -3.5369
    -3.4048  -3.3680  -3.2614  -3.2387  -3.1794  -3.0161  -2.8527  -2.7621
     4.9809   5.5841   5.6006   5.6879  22.0533  22.5051  22.6714  22.7508
    23.0907  23.2857  23.3551  23.6802  23.6872  23.9066  24.5085  25.1623
    31.1917  31.4975  31.7991  31.8165  31.9256  32.0984  32.3212  32.9113
    33.5815  33.9925  34.2232  34.5879  34.7266  34.7882  35.1588  36.0968
    36.1489  36.1818  36.3403  36.4421  36.5288  36.6302  37.2360  37.2741
    37.3461  37.6691  37.7545  38.5943  39.0014  39.0754  39.3654  39.8573
    39.9487  40.3102  40.5209  40.5547  40.7875  40.7967  40.9910  41.1136
    41.8408  42.0194  44.1141  44.6330  45.7550  46.2963  46.3457  47.2658
    47.3414  47.5786  47.7126  48.0585  49.1507  49.4597  50.3078  50.3516
    50.3703  51.2643  51.3684  51.9659  52.2581  52.4413  52.8354  53.1989
    53.4446  53.4783  53.9325  54.9688  55.0714  55.2361  55.5552  56.1335
    56.4431  57.3287  57.4975  57.6543  57.7497  58.2082  58.6739

[...]

          k =-0.5000 0.0000 0.0000 (  3722 PWs)   bands (ev):

[...]

     the Fermi energy is    50.5233 ev

!    total energy              =   -2440.69254086 Ry
     Harris-Foulkes estimate   =   -2440.69255701 Ry
     estimated scf accuracy    <       0.00001849 Ry

     The total energy is the sum of the following terms:

     one-electron contribution =     266.43905754 Ry
     hartree contribution      =     197.08434343 Ry
     xc contribution           =    -254.30836143 Ry
     ewald contribution        =   -2649.51265082 Ry
     smearing contrib. (-TS)   =      -0.39492957 Ry

     convergence has been achieved in  11 iterations

     Forces acting on atoms (Ry/au):

     atom    1 type  1   force =     0.00000000   -0.10138024   -0.06743988
     atom    2 type  1   force =     0.00000000    0.10138024    0.06743988
     atom    3 type  1   force =     0.00000000   -0.10138024    0.06743988
     atom    4 type  1   force =     0.00000000    0.10138024   -0.06743988
     atom    5 type  1   force =     0.00000000    0.16908801   -0.24308311
     atom    6 type  1   force =     0.00000000   -0.16908801    0.24308311
     atom    7 type  1   force =     0.00000000    0.16908801    0.24308311
     atom    8 type  1   force =     0.00000000   -0.16908801   -0.24308311
     atom    9 type  2   force =     0.00000000   -0.17471852    0.01578513
     atom   10 type  2   force =     0.00000000    0.17471852   -0.01578513
     atom   11 type  2   force =     0.00000000   -0.17471852   -0.01578513
     atom   12 type  2   force =     0.00000000    0.17471852    0.01578513

     Total force =     0.730156     Total SCF correction =     0.012649

     entering subroutine stress ...

          total   stress  (Ry/bohr**3)                   (kbar)     P= 7204.91
   0.05211334   0.00000000   0.00000000       7666.14      0.00      0.00
   0.00000000   0.04639416   0.00000000          0.00   6824.82      0.00
   0.00000000   0.00000000   0.04842640          0.00      0.00   7123.77

     BFGS Geometry Optimization

     number of scf cycles    =   1
     number of bfgs steps    =   0

     enthalpy new            =   -2440.6925408553 Ry

     new trust radius        =       0.5000000000 bohr
     new conv_thr            =       0.0001000000 Ry

     new unit-cell volume =   1086.24436 a.u.^3 (   160.96481 Ang^3 )

CELL_PARAMETERS (alat=  7.01510508)
   1.085136619   0.000000000   0.000000000
   0.000000000   1.415704589   0.000000000
   0.000000000   0.000000000   2.048179121

ATOMIC_POSITIONS (crystal)
Co       0.750000000   0.825683366   0.435405014
Co       0.250000000   0.174316634   0.564594986
Co       0.750000000   0.325683366   0.064594986
Co       0.250000000   0.674316634   0.935405014
Co       0.250000000   0.538282912   0.281151981
Co       0.750000000   0.461717088   0.718848019
Co       0.250000000   0.038282912   0.218848019
Co       0.750000000   0.961717088   0.781151981
Si       0.250000000   0.201617231   0.893677471
Si       0.750000000   0.798382769   0.106322529
Si       0.250000000   0.701617231   0.606322529
Si       0.750000000   0.298382769   0.393677471

     Writing output data file Prototype-La-oP12-Co2Si.save
     Check: negative starting charge=   -0.001196
     NEW-OLD atomic charge density approx. for the potential
     NEW k-points:
        k(    1) = (   0.0000000   0.0000000   0.0000000), wk =   0.0833333
        k(    2) = (   0.0000000   0.0000000   0.1220596), wk =   0.1666667
        k(    3) = (   0.0000000   0.0000000  -0.2441193), wk =   0.0833333
        k(    4) = (   0.0000000   0.2354540   0.0000000), wk =   0.1666667
        k(    5) = (   0.0000000   0.2354540   0.1220596), wk =   0.3333333
        k(    6) = (   0.0000000   0.2354540  -0.2441193), wk =   0.1666667
        k(    7) = (  -0.4607715   0.0000000   0.0000000), wk =   0.0833333
        k(    8) = (  -0.4607715   0.0000000   0.1220596), wk =   0.1666667
        k(    9) = (  -0.4607715   0.0000000  -0.2441193), wk =   0.0833333
        k(   10) = (  -0.4607715   0.2354540   0.0000000), wk =   0.1666667
        k(   11) = (  -0.4607715   0.2354540   0.1220596), wk =   0.3333333
        k(   12) = (  -0.4607715   0.2354540  -0.2441193), wk =   0.1666667
     Check: negative starting charge=   -0.006204

     negative rho (up, down):  0.513E-02 0.000E+00
     extrapolated charge  222.71378, renormalised to  212.00000

[...]

     enthalpy old            =   -2440.6925408553 Ry
     enthalpy new            =   -2447.6567919364 Ry

     CASE: enthalpy_new < enthalpy_old

     small trust_radius: resetting bfgs history

     new trust radius        =       3.0547210109 bohr
     new conv_thr            =       0.0001000000 Ry

[...]

     Writing output data file Prototype-La-oP12-Co2Si.save
     Check: negative starting charge=   -0.006204
     NEW-OLD atomic charge density approx. for the potential
     NEW k-points:
        k(    1) = (   0.0000000   0.0000000   0.0000000), wk =   0.0833333
        k(    2) = (   0.0000000   0.0000000   0.0858693), wk =   0.1666667
        k(    3) = (   0.0000000   0.0000000  -0.1717385), wk =   0.0833333
        k(    4) = (   0.0000000   0.1682613   0.0000000), wk =   0.1666667
        k(    5) = (   0.0000000   0.1682613   0.0858693), wk =   0.3333333
        k(    6) = (   0.0000000   0.1682613  -0.1717385), wk =   0.1666667
        k(    7) = (  -0.3148587   0.0000000   0.0000000), wk =   0.0833333
        k(    8) = (  -0.3148587   0.0000000   0.0858693), wk =   0.1666667
        k(    9) = (  -0.3148587   0.0000000  -0.1717385), wk =   0.0833333
        k(   10) = (  -0.3148587   0.1682613   0.0000000), wk =   0.1666667
        k(   11) = (  -0.3148587   0.1682613   0.0858693), wk =   0.3333333
        k(   12) = (  -0.3148587   0.1682613  -0.1717385), wk =   0.1666667
     extrapolated charge  246.11124, renormalised to  212.00000

[...]

     Total force =     0.031124     Total SCF correction =     0.006905
     SCF correction compared to forces is large: reduce conv_thr to get better values

[...]

          total   stress  (Ry/bohr**3)                   (kbar)     P=-2053.09
  -0.01513099   0.00000000   0.00000000      -2225.84      0.00      0.00
   0.00000000  -0.01307125   0.00000000          0.00  -1922.85      0.00
   0.00000000   0.00000000  -0.01366760          0.00      0.00  -2010.57

     number of scf cycles    =   3
     number of bfgs steps    =   2

     enthalpy old            =   -2447.6567919364 Ry
     enthalpy new            =   -2431.7401732652 Ry

     CASE: enthalpy_new > enthalpy_old

     new trust radius        =       1.0738683845 bohr

     trust_radius < trust_radius_min

     resetting bfgs history

     Message from routine bfgs:
     history already reset at previous step: stopping
     new conv_thr            =       0.0001000000 Ry

     new unit-cell volume =   1284.12221 a.u.^3 (   190.28728 Ang^3 )

[...]

ATOMIC_POSITIONS (crystal)
Co       0.750000000   0.825299908   0.435200721
Co       0.250000000   0.174700092   0.564799279
Co       0.750000000   0.325299908   0.064799279
Co       0.250000000   0.674700092   0.935200721
Co       0.250000000   0.539186954   0.280038682
Co       0.750000000   0.460813046   0.719961318
Co       0.250000000   0.039186954   0.219961318
Co       0.750000000   0.960813046   0.780038682
Si       0.250000000   0.200614979   0.893884823
Si       0.750000000   0.799385021   0.106115177
Si       0.250000000   0.700614979   0.606115177
Si       0.750000000   0.299385021   0.393884823

     Writing output data file Prototype-La-oP12-Co2Si.save
     NEW-OLD atomic charge density approx. for the potential
     NEW k-points:
        k(    1) = (   0.0000000   0.0000000   0.0000000), wk =   0.0833333
        k(    2) = (   0.0000000   0.0000000   0.1156058), wk =   0.1666667
        k(    3) = (   0.0000000   0.0000000  -0.2312116), wk =   0.0833333
        k(    4) = (   0.0000000   0.2239727   0.0000000), wk =   0.1666667
        k(    5) = (   0.0000000   0.2239727   0.1156058), wk =   0.3333333
        k(    6) = (   0.0000000   0.2239727  -0.2312116), wk =   0.1666667
        k(    7) = (  -0.4326237   0.0000000   0.0000000), wk =   0.0833333
        k(    8) = (  -0.4326237   0.0000000   0.1156058), wk =   0.1666667
        k(    9) = (  -0.4326237   0.0000000  -0.2312116), wk =   0.0833333
        k(   10) = (  -0.4326237   0.2239727   0.0000000), wk =   0.1666667
        k(   11) = (  -0.4326237   0.2239727   0.1156058), wk =   0.3333333
        k(   12) = (  -0.4326237   0.2239727  -0.2312116), wk =   0.1666667
     Check: negative starting charge=   -0.011358

     negative rho (up, down):  0.324E+02 0.000E+00
     extrapolated charge  136.01380, renormalised to  212.00000

[...]

     The maximum number of steps has been reached.

     End of BFGS Geometry Optimization
Begin final coordinates
     new unit-cell volume =   1284.12221 a.u.^3 (   190.28728 Ang^3 )

CELL_PARAMETERS (alat=  7.01510508)
   1.155738692   0.000000000   0.000000000
   0.000000000   1.488276802   0.000000000
   0.000000000   0.000000000   2.162521581

ATOMIC_POSITIONS (crystal)
Co       0.750000000   0.825299908   0.435200721
Co       0.250000000   0.174700092   0.564799279
Co       0.750000000   0.325299908   0.064799279
Co       0.250000000   0.674700092   0.935200721
Co       0.250000000   0.539186954   0.280038682
Co       0.750000000   0.460813046   0.719961318
Co       0.250000000   0.039186954   0.219961318
Co       0.750000000   0.960813046   0.780038682
Si       0.250000000   0.200614979   0.893884823
Si       0.750000000   0.799385021   0.106115177
Si       0.250000000   0.700614979   0.606115177
Si       0.750000000   0.299385021   0.393884823
End final coordinates

     A final scf calculation at the relaxed structure.
     The G-vectors are recalculated for the final unit cell
     Results may differ from those at the preceding step.

     bravais-lattice index     =            0
     lattice parameter (alat)  =       7.0151  a.u.
     unit-cell volume          =    1284.1222 (a.u.)^3
     number of atoms/cell      =           12
     number of atomic types    =            2
     number of electrons       =       212.00
     number of Kohn-Sham states=          127
     kinetic-energy cutoff     =      40.0000  Ry
     charge density cutoff     =     160.0000  Ry
     convergence threshold     =      1.0E-04
     mixing beta               =       0.7000
     number of iterations used =            8  plain     mixing
     Exchange-correlation      = SLA-PZ-NOGX-NOGC ( 1 1 0 0 0)
     EXX-fraction              =        0.00

     celldm(1)=   7.015105  celldm(2)=   0.000000  celldm(3)=   0.000000
     celldm(4)=   0.000000  celldm(5)=   0.000000  celldm(6)=   0.000000

     crystal axes: (cart. coord. in units of alat)
               a(1) = (   1.155739   0.000000   0.000000 )
               a(2) = (   0.000000   1.488277   0.000000 )
               a(3) = (   0.000000   0.000000   2.162522 )

     reciprocal axes: (cart. coord. in units 2 pi/alat)
               b(1) = (  0.865247  0.000000  0.000000 )
               b(2) = (  0.000000  0.671918  0.000000 )
               b(3) = (  0.000000  0.000000  0.462423 )

     PseudoPot. # 1 for Dy read from file:
     /home/cwx6513/pp.La/Dy.UPF
     MD5 check sum: 9597327bec62616a94a14d07f3fd9936
     Pseudo is Norm-conserving, Zval = 20.0
     Generated in analytical, separable form
     Using radial grid of 1265 points,  6 beta functions with:
                l(1) =   0
                l(2) =   0
                l(3) =   1
                l(4) =   1
                l(5) =   2
                l(6) =   3

     PseudoPot. # 2 for Pr read from file:
     /home/cwx6513/pp.La/Pr.UPF
     MD5 check sum: 70e2b4b153859e92c8c91247dfc63203
     Pseudo is Norm-conserving, Zval = 13.0
     Generated in analytical, separable form
     Using radial grid of 1255 points,  6 beta functions with:
                l(1) =   0
                l(2) =   0
                l(3) =   1
                l(4) =   1
                l(5) =   2
                l(6) =   3

     atomic species   valence    mass     pseudopotential
        Co            20.00    58.93320     Dy( 1.00)
        Si            13.00    28.08550     Pr( 1.00)

      8 Sym. Ops., with inversion, found ( 6 have fractional translation)

   Cartesian axes

     site n.     atom                  positions (alat units)
         1           Co  tau(   1) = (   0.8668040   1.2282747   0.9411310  )
         2           Co  tau(   2) = (   0.2889347   0.2600021   1.2213906  )
         3           Co  tau(   3) = (   0.8668040   0.4841363   0.1401298  )
         4           Co  tau(   4) = (   0.2889347   1.0041405   2.0223917  )
         5           Co  tau(   5) = (   0.2889347   0.8024594   0.6055897  )
         6           Co  tau(   6) = (   0.8668040   0.6858174   1.5569319  )
         7           Co  tau(   7) = (   0.2889347   0.0583210   0.4756711  )
         8           Co  tau(   8) = (   0.8668040   1.4299558   1.6868505  )
         9           Si  tau(   9) = (   0.2889347   0.2985706   1.9330452  )
        10           Si  tau(  10) = (   0.8668040   1.1897062   0.2294764  )
        11           Si  tau(  11) = (   0.2889347   1.0427090   1.3107372  )
        12           Si  tau(  12) = (   0.8668040   0.4455678   0.8517844  )

     number of k points=    12  gaussian smearing, width (Ry)=  0.1000
                       cart. coord. in units 2pi/alat
        k(    1) = (   0.0000000   0.0000000   0.0000000), wk =   0.0833333
        k(    2) = (   0.0000000   0.0000000   0.1156058), wk =   0.1666667
        k(    3) = (   0.0000000   0.0000000  -0.2312116), wk =   0.0833333
        k(    4) = (   0.0000000   0.2239727   0.0000000), wk =   0.1666667
        k(    5) = (   0.0000000   0.2239727   0.1156058), wk =   0.3333333
        k(    6) = (   0.0000000   0.2239727  -0.2312116), wk =   0.1666667
        k(    7) = (  -0.4326237   0.0000000   0.0000000), wk =   0.0833333
        k(    8) = (  -0.4326237   0.0000000   0.1156058), wk =   0.1666667
        k(    9) = (  -0.4326237   0.0000000  -0.2312116), wk =   0.0833333
        k(   10) = (  -0.4326237   0.2239727   0.0000000), wk =   0.1666667
        k(   11) = (  -0.4326237   0.2239727   0.1156058), wk =   0.3333333
        k(   12) = (  -0.4326237   0.2239727  -0.2312116), wk =   0.1666667

     Largest allocated arrays     est. size (Mb)     dimensions
     Largest temporary arrays     est. size (Mb)     dimensions

     Initial potential from superposition of free atoms
     Check: negative starting charge=   -0.001114

     starting charge   51.96217, renormalised to  212.00000

     negative rho (up, down):  0.455E-02 0.000E+00
     Starting wfc are   80 randomized atomic wfcs

     Writing output data file Prototype-La-oP12-Co2Si.save

     Self-consistent Calculation

[...]

     negative rho (up, down):  0.220E-03 0.000E+00

[...]

     iteration #  9     ecut=    40.00 Ry     beta=0.70
     CG style diagonalization
     ethr =  2.21E-05,  avg # of iterations =  3.7

[...]

     total energy              =   -2452.96398601 Ry
     Harris-Foulkes estimate   =   -2452.96423301 Ry
     estimated scf accuracy    <       0.00048694 Ry

     iteration # 11     ecut=    40.00 Ry     beta=0.70
     CG style diagonalization
     c_bands:  1 eigenvalues not converged
     ethr =  9.95E-08,  avg # of iterations =  3.7

     End of self-consistent calculation

[...]

          k = 0.0000 0.2240-0.2312 (  5482 PWs)   bands (ev):

[...]

          k =-0.4326 0.2240-0.2312 (  5520 PWs)   bands (ev):

   -51.3639 -51.3639 -51.3623 -51.3623 -51.2908 -51.2908 -51.2730 -51.2730
   -18.6124 -18.6124 -18.5395 -18.5395 -18.5279 -18.5279 -18.4934 -18.4934
   -18.4485 -18.4485 -18.3690 -18.3690 -18.3037 -18.3037 -18.2419 -18.2419
   -18.2381 -18.2381 -18.2161 -18.2161 -18.1804 -18.1804 -18.1480 -18.1480
   -10.4581 -10.4581 -10.4573 -10.4573   8.4774   8.4774   8.6017   8.6017
     8.7739   8.7739   8.7774   8.7774   9.0785   9.0785   9.1197   9.1197
    20.2533  20.2533  20.6581  20.6581  20.8663  20.8663  21.1053  21.1053
    21.2558  21.2558  21.3242  21.3242  21.4117  21.4117  21.9071  21.9071
    21.9327  21.9327  22.1627  22.1627  22.2220  22.2220  22.6230  22.6230
    22.7038  22.7038  22.8905  22.8905  22.9723  22.9723  23.1916  23.1916
    23.4705  23.4705  24.1135  24.1135  24.1957  24.1957  24.5861  24.5861
    26.0777  26.0777  26.4065  26.4065  28.3846  28.3846  29.2934  29.2934
    30.5002  30.5002  30.5392  30.5392  31.0404  31.0404  31.7962  31.7962
    32.5058  32.5058  32.7650  32.7650  33.1681  33.1681  33.4146  33.4146
    34.7927  34.7927  35.7443  35.7444  36.5127  36.5128  37.6370  37.6370
    38.3276  38.3276  39.9779  39.9780  40.2647  40.2649  40.7725

     the Fermi energy is    32.7510 ev

!    total energy              =   -2452.96406573 Ry
     Harris-Foulkes estimate   =   -2452.96407399 Ry
     estimated scf accuracy    <       0.00000977 Ry

     The total energy is the sum of the following terms:

     one-electron contribution =    -190.70961884 Ry
     hartree contribution      =     301.80652443 Ry
     xc contribution           =    -243.24084481 Ry
     ewald contribution        =   -2320.34493002 Ry
     smearing contrib. (-TS)   =      -0.47519649 Ry

     convergence has been achieved in  11 iterations

     Forces acting on atoms (Ry/au):

     atom    1 type  1   force =     0.00000000   -0.04323148    0.00250199
     atom    2 type  1   force =     0.00000000    0.04323148   -0.00250199
     atom    3 type  1   force =     0.00000000   -0.04323148   -0.00250199
     atom    4 type  1   force =     0.00000000    0.04323148    0.00250199
     atom    5 type  1   force =     0.00000000    0.05859456   -0.10475787
     atom    6 type  1   force =     0.00000000   -0.05859456    0.10475787
     atom    7 type  1   force =     0.00000000    0.05859456    0.10475787
     atom    8 type  1   force =     0.00000000   -0.05859456   -0.10475787
     atom    9 type  2   force =     0.00000000   -0.06523199    0.02444707
     atom   10 type  2   force =     0.00000000    0.06523199   -0.02444707
     atom   11 type  2   force =     0.00000000   -0.06523199   -0.02444707
     atom   12 type  2   force =     0.00000000    0.06523199    0.02444707

     Total force =     0.290762     Total SCF correction =     0.005462

     entering subroutine stress ...

          total   stress  (Ry/bohr**3)                   (kbar)     P= 1319.68
   0.00980802   0.00000000   0.00000000       1442.81      0.00      0.00
   0.00000000   0.00837152   0.00000000          0.00   1231.49      0.00
   0.00000000   0.00000000   0.00873343          0.00      0.00   1284.73

     Writing output data file Prototype-La-oP12-Co2Si.save

     General routines

     Parallel routines

   This run was terminated on:   2:58:34  23Mar2018

   JOB DONE.