     Program PWSCF v.5.0.2 starts on 23Mar2018 at  2:19:42

     Current dimensions of program PWSCF are:
     Max number of different atomic species (ntypx) = 10
     Max number of k-points (npk) =  40000
     Max angular momentum in pseudopotentials (lmaxx) =  3
     Waiting for input...
     Reading input from standard input

     Subspace diagonalization in iterative solution of the eigenvalue problem:
     a serial algorithm will be used

     bravais-lattice index     =            0
     lattice parameter (alat)  =       9.9235  a.u.
     unit-cell volume          =    1361.0366 (a.u.)^3
     number of atoms/cell      =           12
     number of atomic types    =            2
     number of electrons       =       184.00
     number of Kohn-Sham states=          110
     kinetic-energy cutoff     =      40.0000  Ry
     charge density cutoff     =     160.0000  Ry
     convergence threshold     =      1.0E-04
     mixing beta               =       0.7000
     number of iterations used =            8  plain     mixing
     Exchange-correlation      = SLA-PZ-NOGX-NOGC ( 1 1 0 0 0)
     EXX-fraction              =        0.00
     nstep                     =           50

     celldm(1)=   9.923489  celldm(2)=   0.000000  celldm(3)=   0.000000
     celldm(4)=   0.000000  celldm(5)=   0.000000  celldm(6)=   0.000000

     crystal axes: (cart. coord. in units of alat)
               a(1) = (   1.000000   0.000000   0.000000 )
               a(2) = (  -0.500000   0.866025   0.000000 )
               a(3) = (   0.000000   0.000000   1.608222 )

     reciprocal axes: (cart. coord. in units 2 pi/alat)
               b(1) = (  1.000000  0.577350  0.000000 )
               b(2) = (  0.000000  1.154701  0.000000 )
               b(3) = (  0.000000  0.000000  0.621805 )

     PseudoPot. # 1 for Dy read from file:
     /home/cwx6513/pp.La/Dy.UPF
     MD5 check sum: 9597327bec62616a94a14d07f3fd9936
     Pseudo is Norm-conserving, Zval = 20.0
     Generated in analytical, separable form
     Using radial grid of 1265 points,  6 beta functions with:
                l(1) =   0
                l(2) =   0
                l(3) =   1
                l(4) =   1
                l(5) =   2
                l(6) =   3

     PseudoPot. # 2 for Pr read from file:
     /home/cwx6513/pp.La/Pr.UPF
     MD5 check sum: 70e2b4b153859e92c8c91247dfc63203
     Pseudo is Norm-conserving, Zval = 13.0
     Generated in analytical, separable form
     Using radial grid of 1255 points,  6 beta functions with:
                l(1) =   0
                l(2) =   0
                l(3) =   1
                l(4) =   1
                l(5) =   2
                l(6) =   3

     atomic species   valence    mass     pseudopotential
        Mg            20.00    24.30500     Dy( 1.00)
        Zn            13.00    65.39000     Pr( 1.00)

     24 Sym. Ops., with inversion, found (12 have fractional translation)

   Cartesian axes

     site n.     atom                  positions (alat units)
         1           Mg  tau(   1) = (  -0.0000005   0.5773506   0.1003820  )
         2           Mg  tau(   2) = (   0.5000005   0.2886748   0.9044931  )
         3           Mg  tau(   3) = (   0.5000005   0.2886748   1.5078402  )
         4           Mg  tau(   4) = (  -0.0000005   0.5773506   0.7037291  )
         5           Zn  tau(   5) = (   0.0000000   0.0000000   0.0000000  )
         6           Zn  tau(   6) = (   0.0000000   0.0000000   0.8041111  )
         7           Zn  tau(   7) = (   0.0000000   0.2950739   1.2061667  )
         8           Zn  tau(   8) = (   0.7444585   0.1475370   0.4020556  )
         9           Zn  tau(   9) = (   0.2555415   0.1475370   0.4020556  )
        10           Zn  tau(  10) = (   0.2444585   0.7184884   1.2061667  )
        11           Zn  tau(  11) = (  -0.2444585   0.7184884   1.2061667  )
        12           Zn  tau(  12) = (   0.5000000   0.5709515   0.4020556  )

     number of k points=    12  gaussian smearing, width (Ry)=  0.1000
                       cart. coord. in units 2pi/alat
        k(    1) = (   0.0000000   0.0000000   0.0000000), wk =   0.0833333
        k(    2) = (   0.0000000   0.0000000   0.1554512), wk =   0.1666667
        k(    3) = (   0.0000000   0.0000000  -0.3109023), wk =   0.0833333
        k(    4) = (   0.0000000   0.3849002   0.0000000), wk =   0.1666667
        k(    5) = (   0.0000000   0.3849002   0.1554512), wk =   0.3333333
        k(    6) = (   0.0000000   0.3849002  -0.3109023), wk =   0.1666667
        k(    7) = (  -0.5000000  -0.2886751   0.0000000), wk =   0.0833333
        k(    8) = (  -0.5000000  -0.2886751   0.1554512), wk =   0.1666667
        k(    9) = (  -0.5000000  -0.2886751  -0.3109023), wk =   0.0833333
        k(   10) = (  -0.5000000   0.0962250   0.0000000), wk =   0.1666667
        k(   11) = (  -0.5000000   0.0962250   0.1554512), wk =   0.3333333
        k(   12) = (  -0.5000000   0.0962250  -0.3109023), wk =   0.1666667

     Largest allocated arrays     est. size (Mb)     dimensions
     Largest temporary arrays     est. size (Mb)     dimensions

     Initial potential from superposition of free atoms
     Check: negative starting charge=   -0.000695

     starting charge  103.92434, renormalised to  184.00000

     negative rho (up, down):  0.123E-02 0.000E+00
     Starting wfc are  160 randomized atomic wfcs

     Self-consistent Calculation

     iteration #  1     ecut=    40.00 Ry     beta=0.70
     CG style diagonalization
     ethr =  1.00E-02,  avg # of iterations = 21.9

     negative rho (up, down):  0.346E-03 0.000E+00

     total energy              =     116.68540173 Ry
     Harris-Foulkes estimate   =   -3873.31748325 Ry
     estimated scf accuracy    <    4687.96142543 Ry

[...]

     iteration #  3     ecut=    40.00 Ry     beta=0.70
     CG style diagonalization
     c_bands:  1 eigenvalues not converged
     c_bands:  1 eigenvalues not converged
     ethr =  1.00E-02,  avg # of iterations = 12.7

[...]

     End of self-consistent calculation

          k = 0.0000 0.0000 0.0000 (  5769 PWs)   bands (ev):

   -53.9769 -53.9767 -53.9660 -53.9636 -20.9782 -20.9612 -20.9529 -20.9529
   -20.9311 -20.9311 -20.8882 -20.8674 -20.8589 -20.8589 -20.8577 -20.8577
   -15.6504 -15.2128 -14.0470 -13.5586 -13.5585 -13.5460 -13.5460 -13.4885
     0.4823   1.4146   2.4137   3.6269   3.6269   3.8876   3.8876   4.1311
     4.1312   4.9515   5.9472   5.9472   6.0429   6.0430   6.5920   7.8982
     7.9760   7.9833   8.0580   8.0580   8.5354   8.5354   8.7216   8.7216
    19.0243  19.1936  19.2172  19.2172  19.6425  19.6759  19.6759  19.7602
    19.7602  19.7808  19.7808  20.0325  20.3303  20.3303  20.5254  20.6817
    20.6817  20.6994  20.6994  20.7069  20.7070  21.0668  21.7259  22.8928
    22.8927  23.0748  24.4043  24.6011  24.6010  24.8658  25.0445  25.0445
    25.3259  26.2128  26.2128  26.2260  27.4203  27.4204  27.9016  27.9016
    28.2876  28.2876  28.7546  29.8465  30.7773  30.9771  30.9772  31.2139
    31.5249  32.5790  32.6620  32.6642  32.6683  32.6684  33.0249  33.0254
    33.1910  33.1919  33.5413  34.6138  34.6562  34.7942

[...]

          k =-0.5000-0.2887 0.0000 (  5800 PWs)   bands (ev):

[...]

     the Fermi energy is    29.4300 ev

!    total energy              =   -1783.57263820 Ry
     Harris-Foulkes estimate   =   -1783.57270880 Ry
     estimated scf accuracy    <       0.00009877 Ry

     The total energy is the sum of the following terms:

     one-electron contribution =     -62.01109015 Ry
     hartree contribution      =     200.38281653 Ry
     xc contribution           =    -193.73942202 Ry
     ewald contribution        =   -1727.75975461 Ry
     smearing contrib. (-TS)   =      -0.44518795 Ry

     convergence has been achieved in  11 iterations

     Forces acting on atoms (Ry/au):

     atom    1 type  1   force =     0.00000000    0.00000000    0.01698030
     atom    2 type  1   force =     0.00000000    0.00000000    0.01698030
     atom    3 type  1   force =     0.00000000    0.00000000   -0.01698030
     atom    4 type  1   force =     0.00000000    0.00000000   -0.01698030
     atom    5 type  2   force =     0.00000000    0.00000000    0.00000000
     atom    6 type  2   force =     0.00000000    0.00000000    0.00000000
     atom    7 type  2   force =     0.00000000    0.04726800    0.00000000
     atom    8 type  2   force =    -0.04093529    0.02363400    0.00000000
     atom    9 type  2   force =     0.04093529    0.02363400    0.00000000
     atom   10 type  2   force =    -0.04093529   -0.02363400    0.00000000
     atom   11 type  2   force =     0.04093529   -0.02363400    0.00000000
     atom   12 type  2   force =     0.00000000   -0.04726800    0.00000000

     Total force =     0.120660     Total SCF correction =     0.048679
     SCF correction compared to forces is large: reduce conv_thr to get better values

     entering subroutine stress ...

          total   stress  (Ry/bohr**3)                   (kbar)     P=  982.83
   0.00662192   0.00000000   0.00000000        974.12      0.00      0.00
   0.00000000   0.00662192   0.00000000          0.00    974.12      0.00
   0.00000000   0.00000000   0.00679951          0.00      0.00   1000.24

     BFGS Geometry Optimization

     number of scf cycles    =   1
     number of bfgs steps    =   0

     enthalpy new            =   -1783.5726382005 Ry

     new trust radius        =       0.5000000000 bohr
     new conv_thr            =       0.0001000000 Ry

     new unit-cell volume =   1651.41356 a.u.^3 (   244.71424 Ang^3 )

CELL_PARAMETERS (alat=  9.92348860)
   1.065995045   0.000000000   0.000000000
  -0.532997522   0.923178789   0.000000000
   0.000000000   0.000000000   1.717203317

ATOMIC_POSITIONS (crystal)
Mg       0.333333000   0.666667000   0.062842153
Mg       0.666667000   0.333333000   0.562842153
Mg       0.666667000   0.333333000   0.937157847
Mg       0.333333000   0.666667000   0.437157847
Zn       0.000000000   0.000000000   0.000000000
Zn       0.000000000   0.000000000   0.500000000
Zn       0.171457301   0.342914602   0.750000000
Zn       0.828542699   0.171457301   0.250000000
Zn       0.342914602   0.171457301   0.250000000
Zn       0.657085398   0.828542699   0.750000000
Zn       0.171457301   0.828542699   0.750000000
Zn       0.828542699   0.657085398   0.250000000

     Writing output data file Prototype-La-hP12-MgZn2.save
     Check: negative starting charge=   -0.000695
     NEW-OLD atomic charge density approx. for the potential
     NEW k-points:
        k(    1) = (   0.0000000   0.0000000   0.0000000), wk =   0.0833333
        k(    2) = (   0.0000000   0.0000000   0.1455856), wk =   0.1666667
        k(    3) = (   0.0000000   0.0000000  -0.2911711), wk =   0.0833333
        k(    4) = (   0.0000000   0.3610713   0.0000000), wk =   0.1666667
        k(    5) = (   0.0000000   0.3610713   0.1455856), wk =   0.3333333
        k(    6) = (   0.0000000   0.3610713  -0.2911711), wk =   0.1666667
        k(    7) = (  -0.4690453  -0.2708034   0.0000000), wk =   0.0833333
        k(    8) = (  -0.4690453  -0.2708034   0.1455856), wk =   0.1666667
        k(    9) = (  -0.4690453  -0.2708034  -0.2911711), wk =   0.0833333
        k(   10) = (  -0.4690453   0.0902678   0.0000000), wk =   0.1666667
        k(   11) = (  -0.4690453   0.0902678   0.1455856), wk =   0.3333333
        k(   12) = (  -0.4690453   0.0902678  -0.2911711), wk =   0.1666667
     Check: negative starting charge=   -0.007438

     negative rho (up, down):  0.651E-02 0.000E+00
     extrapolated charge  202.27358, renormalised to  184.00000

[...]

     enthalpy old            =   -1783.5726382005 Ry
     enthalpy new            =   -1784.4521418143 Ry

     CASE: enthalpy_new < enthalpy_old

     small trust_radius: resetting bfgs history

     new trust radius        =       0.0537121190 bohr
     new conv_thr            =       0.0000010000 Ry

[...]

     Writing output data file Prototype-La-hP12-MgZn2.save
     Check: negative starting charge=   -0.007438
     NEW-OLD atomic charge density approx. for the potential
     NEW k-points:
        k(    1) = (   0.0000000   0.0000000   0.0000000), wk =   0.0833333
        k(    2) = (   0.0000000   0.0000000   0.1450432), wk =   0.1666667
        k(    3) = (   0.0000000   0.0000000  -0.2900864), wk =   0.0833333
        k(    4) = (   0.0000000   0.3587007   0.0000000), wk =   0.1666667
        k(    5) = (   0.0000000   0.3587007   0.1450432), wk =   0.3333333
        k(    6) = (   0.0000000   0.3587007  -0.2900864), wk =   0.1666667
        k(    7) = (  -0.4659659  -0.2690255   0.0000000), wk =   0.0833333
        k(    8) = (  -0.4659659  -0.2690255   0.1450432), wk =   0.1666667
        k(    9) = (  -0.4659659  -0.2690255  -0.2900864), wk =   0.0833333
        k(   10) = (  -0.4659659   0.0896752   0.0000000), wk =   0.1666667
        k(   11) = (  -0.4659659   0.0896752   0.1450432), wk =   0.3333333
        k(   12) = (  -0.4659659   0.0896752  -0.2900864), wk =   0.1666667
     Check: negative starting charge=   -0.008260

     negative rho (up, down):  0.740E-03 0.000E+00
     extrapolated charge  185.74220, renormalised to  184.00000

[...]

     number of scf cycles    =   3
     number of bfgs steps    =   2

     enthalpy old            =   -1784.4521418143 Ry
     enthalpy new            =   -1784.4514835601 Ry

     CASE: enthalpy_new > enthalpy_old

     new trust radius        =       0.0244990400 bohr

     trust_radius < trust_radius_min

     resetting bfgs history

     Message from routine bfgs:
     history already reset at previous step: stopping
     new conv_thr            =       0.0000010000 Ry

     new unit-cell volume =   1679.42911 a.u.^3 (   248.86571 Ang^3 )

[...]

ATOMIC_POSITIONS (crystal)
Mg       0.333333000   0.666667000   0.062871807
Mg       0.666667000   0.333333000   0.562871807
Mg       0.666667000   0.333333000   0.937128193
Mg       0.333333000   0.666667000   0.437128193
Zn       0.000000000   0.000000000   0.000000000
Zn       0.000000000   0.000000000   0.500000000
Zn       0.171409624   0.342819249   0.750000000
Zn       0.828590376   0.171409624   0.250000000
Zn       0.342819249   0.171409624   0.250000000
Zn       0.657180751   0.828590376   0.750000000
Zn       0.171409624   0.828590376   0.750000000
Zn       0.828590376   0.657180751   0.250000000

     Writing output data file Prototype-La-hP12-MgZn2.save
     Check: negative starting charge=   -0.008260
     NEW-OLD atomic charge density approx. for the potential
     NEW k-points:
        k(    1) = (   0.0000000   0.0000000   0.0000000), wk =   0.0833333
        k(    2) = (   0.0000000   0.0000000   0.1450483), wk =   0.1666667
        k(    3) = (   0.0000000   0.0000000  -0.2900965), wk =   0.0833333
        k(    4) = (   0.0000000   0.3587095   0.0000000), wk =   0.1666667
        k(    5) = (   0.0000000   0.3587095   0.1450483), wk =   0.3333333
        k(    6) = (   0.0000000   0.3587095  -0.2900965), wk =   0.1666667
        k(    7) = (  -0.4659773  -0.2690321   0.0000000), wk =   0.0833333
        k(    8) = (  -0.4659773  -0.2690321   0.1450483), wk =   0.1666667
        k(    9) = (  -0.4659773  -0.2690321  -0.2900965), wk =   0.0833333
        k(   10) = (  -0.4659773   0.0896774   0.0000000), wk =   0.1666667
        k(   11) = (  -0.4659773   0.0896774   0.1450483), wk =   0.3333333
        k(   12) = (  -0.4659773   0.0896774  -0.2900965), wk =   0.1666667
     Check: negative starting charge=   -0.008255
     extrapolated charge  183.99128, renormalised to  184.00000

[...]

     Threshold (ethr) on eigenvalues was too large:
     Diagonalizing with lowered threshold

     CG style diagonalization
     ethr =  7.03E-09,  avg # of iterations =  3.0

[...]

     Total force =     0.025158     Total SCF correction =     0.001904

[...]

     The maximum number of steps has been reached.

     End of BFGS Geometry Optimization
Begin final coordinates
     new unit-cell volume =   1679.42911 a.u.^3 (   248.86571 Ang^3 )

CELL_PARAMETERS (alat=  9.92348860)
   1.073013614   0.000000000   0.000000000
  -0.536506807   0.929257049   0.000000000
   0.000000000   0.000000000   1.723564159

ATOMIC_POSITIONS (crystal)
Mg       0.333333000   0.666667000   0.062871807
Mg       0.666667000   0.333333000   0.562871807
Mg       0.666667000   0.333333000   0.937128193
Mg       0.333333000   0.666667000   0.437128193
Zn       0.000000000   0.000000000   0.000000000
Zn       0.000000000   0.000000000   0.500000000
Zn       0.171409624   0.342819249   0.750000000
Zn       0.828590376   0.171409624   0.250000000
Zn       0.342819249   0.171409624   0.250000000
Zn       0.657180751   0.828590376   0.750000000
Zn       0.171409624   0.828590376   0.750000000
Zn       0.828590376   0.657180751   0.250000000
End final coordinates

     A final scf calculation at the relaxed structure.
     The G-vectors are recalculated for the final unit cell
     Results may differ from those at the preceding step.

     bravais-lattice index     =            0
     lattice parameter (alat)  =       9.9235  a.u.
     unit-cell volume          =    1679.4291 (a.u.)^3
     number of atoms/cell      =           12
     number of atomic types    =            2
     number of electrons       =       184.00
     number of Kohn-Sham states=          110
     kinetic-energy cutoff     =      40.0000  Ry
     charge density cutoff     =     160.0000  Ry
     convergence threshold     =      1.0E-06
     mixing beta               =       0.7000
     number of iterations used =            8  plain     mixing
     Exchange-correlation      = SLA-PZ-NOGX-NOGC ( 1 1 0 0 0)
     EXX-fraction              =        0.00

     celldm(1)=   9.923489  celldm(2)=   0.000000  celldm(3)=   0.000000
     celldm(4)=   0.000000  celldm(5)=   0.000000  celldm(6)=   0.000000

     crystal axes: (cart. coord. in units of alat)
               a(1) = (   1.073014   0.000000   0.000000 )
               a(2) = (  -0.536507   0.929257   0.000000 )
               a(3) = (   0.000000   0.000000   1.723564 )

     reciprocal axes: (cart. coord. in units 2 pi/alat)
               b(1) = (  0.931955  0.538064  0.000000 )
               b(2) = (  0.000000  1.076129  0.000000 )
               b(3) = (  0.000000  0.000000  0.580193 )

     PseudoPot. # 1 for Dy read from file:
     /home/cwx6513/pp.La/Dy.UPF
     MD5 check sum: 9597327bec62616a94a14d07f3fd9936
     Pseudo is Norm-conserving, Zval = 20.0
     Generated in analytical, separable form
     Using radial grid of 1265 points,  6 beta functions with:
                l(1) =   0
                l(2) =   0
                l(3) =   1
                l(4) =   1
                l(5) =   2
                l(6) =   3

     PseudoPot. # 2 for Pr read from file:
     /home/cwx6513/pp.La/Pr.UPF
     MD5 check sum: 70e2b4b153859e92c8c91247dfc63203
     Pseudo is Norm-conserving, Zval = 13.0
     Generated in analytical, separable form
     Using radial grid of 1255 points,  6 beta functions with:
                l(1) =   0
                l(2) =   0
                l(3) =   1
                l(4) =   1
                l(5) =   2
                l(6) =   3

     atomic species   valence    mass     pseudopotential
        Mg            20.00    24.30500     Dy( 1.00)
        Zn            13.00    65.39000     Pr( 1.00)

     24 Sym. Ops., with inversion, found (12 have fractional translation)

   Cartesian axes

     site n.     atom                  positions (alat units)
         1           Mg  tau(   1) = (  -0.0000005   0.6195050   0.1083636  )
         2           Mg  tau(   2) = (   0.5365073   0.3097520   0.9701457  )
         3           Mg  tau(   3) = (   0.5365073   0.3097520   1.6152006  )
         4           Mg  tau(   4) = (  -0.0000005   0.6195050   0.7534185  )
         5           Zn  tau(   5) = (   0.0000000   0.0000000   0.0000000  )
         6           Zn  tau(   6) = (   0.0000000   0.0000000   0.8617821  )
         7           Zn  tau(   7) = (   0.0000000   0.3185672   1.2926731  )
         8           Zn  tau(   8) = (   0.7971263   0.1592836   0.4308910  )
         9           Zn  tau(   9) = (   0.2758873   0.1592836   0.4308910  )
        10           Zn  tau(  10) = (   0.2606195   0.7699734   1.2926731  )
        11           Zn  tau(  11) = (  -0.2606195   0.7699734   1.2926731  )
        12           Zn  tau(  12) = (   0.5365068   0.6106898   0.4308910  )

     number of k points=    12  gaussian smearing, width (Ry)=  0.1000
                       cart. coord. in units 2pi/alat
        k(    1) = (   0.0000000   0.0000000   0.0000000), wk =   0.0833333
        k(    2) = (   0.0000000   0.0000000   0.1450483), wk =   0.1666667
        k(    3) = (   0.0000000   0.0000000  -0.2900965), wk =   0.0833333
        k(    4) = (   0.0000000   0.3587095   0.0000000), wk =   0.1666667
        k(    5) = (   0.0000000   0.3587095   0.1450483), wk =   0.3333333
        k(    6) = (   0.0000000   0.3587095  -0.2900965), wk =   0.1666667
        k(    7) = (  -0.4659773  -0.2690321   0.0000000), wk =   0.0833333
        k(    8) = (  -0.4659773  -0.2690321   0.1450483), wk =   0.1666667
        k(    9) = (  -0.4659773  -0.2690321  -0.2900965), wk =   0.0833333
        k(   10) = (  -0.4659773   0.0896774   0.0000000), wk =   0.1666667
        k(   11) = (  -0.4659773   0.0896774   0.1450483), wk =   0.3333333
        k(   12) = (  -0.4659773   0.0896774  -0.2900965), wk =   0.1666667

     Largest allocated arrays     est. size (Mb)     dimensions
     Largest temporary arrays     est. size (Mb)     dimensions

     Initial potential from superposition of free atoms
     Check: negative starting charge=   -0.001710

     starting charge  103.92434, renormalised to  184.00000

     negative rho (up, down):  0.303E-02 0.000E+00
     Starting wfc are  160 randomized atomic wfcs

     Writing output data file Prototype-La-hP12-MgZn2.save

     Self-consistent Calculation

[...]

     negative rho (up, down):  0.137E-03 0.000E+00

[...]

     iteration # 14     ecut=    40.00 Ry     beta=0.70
     CG style diagonalization
     c_bands:  1 eigenvalues not converged
     ethr =  7.85E-09,  avg # of iterations =  4.6

     total energy              =   -1785.34897340 Ry
     Harris-Foulkes estimate   =   -1785.34897502 Ry
     estimated scf accuracy    <       0.00000365 Ry

     iteration # 15     ecut=    40.00 Ry     beta=0.70
     CG style diagonalization
     ethr =  1.98E-09,  avg # of iterations =  3.6

     End of self-consistent calculation

[...]

          k = 0.0000 0.3587-0.2901 (  7166 PWs)   bands (ev):

[...]

          k =-0.4660 0.0897-0.2901 (  7176 PWs)   bands (ev):

   -59.4331 -59.4331 -59.4308 -59.4308 -26.3376 -26.3376 -26.3195 -26.3195
   -26.3129 -26.3128 -26.3071 -26.3071 -26.3025 -26.3025 -26.2976 -26.2976
   -20.4489 -20.4489 -20.1540 -20.1540 -19.7186 -19.7186 -19.6129 -19.6129
    -2.3550  -2.3550  -1.5023  -1.5023  -0.9183  -0.9183  -0.8360  -0.8360
    -0.6378  -0.6378  -0.4011  -0.4011   0.0562   0.0562   0.5061   0.5061
     0.8189   0.8189   1.0464   1.0464   1.4837   1.4837   1.5839   1.5839
    14.3169  14.3169  14.3989  14.3989  14.4456  14.4456  14.6417  14.6417
    14.7685  14.7685  14.8804  14.8804  15.0073  15.0073  15.0749  15.0749
    15.3586  15.3586  15.4703  15.4703  17.4085  17.4085  18.0125  18.0125
    19.3329  19.3329  19.6774  19.6774  20.1891  20.1891  20.4057  20.4057
    20.6614  20.6614  21.1111  21.1111  21.5042  21.5042  21.7144  21.7144
    21.9524  21.9524  22.9653  22.9653  23.4267  23.4267  23.6632  23.6632
    24.1734  24.1734  24.3369  24.3369  24.7313  24.7313  25.2419  25.2419
    25.8852  25.8852  26.3440  26.3442  26.6946  26.6947

     the Fermi energy is    23.1310 ev

!    total energy              =   -1785.34897369 Ry
     Harris-Foulkes estimate   =   -1785.34897414 Ry
     estimated scf accuracy    <       0.00000052 Ry

     The total energy is the sum of the following terms:

     one-electron contribution =    -227.16351715 Ry
     hartree contribution      =     243.13037724 Ry
     xc contribution           =    -189.89452863 Ry
     ewald contribution        =   -1610.87015596 Ry
     smearing contrib. (-TS)   =      -0.55114919 Ry

     convergence has been achieved in  15 iterations

     Forces acting on atoms (Ry/au):

     atom    1 type  1   force =     0.00000000    0.00000000    0.01088805
     atom    2 type  1   force =     0.00000000    0.00000000    0.01088805
     atom    3 type  1   force =     0.00000000    0.00000000   -0.01088805
     atom    4 type  1   force =     0.00000000    0.00000000   -0.01088805
     atom    5 type  2   force =     0.00000000    0.00000000    0.00000000
     atom    6 type  2   force =     0.00000000    0.00000000    0.00000000
     atom    7 type  2   force =     0.00000000    0.00182473    0.00000000
     atom    8 type  2   force =    -0.00158026    0.00091236    0.00000000
     atom    9 type  2   force =     0.00158026    0.00091236    0.00000000
     atom   10 type  2   force =    -0.00158026   -0.00091236    0.00000000
     atom   11 type  2   force =     0.00158026   -0.00091236    0.00000000
     atom   12 type  2   force =     0.00000000   -0.00182473    0.00000000

     Total force =     0.022230     Total SCF correction =     0.002641
     SCF correction compared to forces is large: reduce conv_thr to get better values

     entering subroutine stress ...

          total   stress  (Ry/bohr**3)                   (kbar)     P=  167.39
   0.00116232   0.00000000   0.00000000        170.98      0.00      0.00
   0.00000000   0.00116232   0.00000000          0.00    170.98      0.00
   0.00000000   0.00000000   0.00108911          0.00      0.00    160.21

     Writing output data file Prototype-La-hP12-MgZn2.save

     General routines

     Parallel routines

   This run was terminated on:   2:56:44  23Mar2018

   JOB DONE.