     Program PWSCF v.5.0.2 starts on 23Mar2018 at  2:18:12

     Current dimensions of program PWSCF are:
     Max number of different atomic species (ntypx) = 10
     Max number of k-points (npk) =  40000
     Max angular momentum in pseudopotentials (lmaxx) =  3
     Waiting for input...
     Reading input from standard input

     Subspace diagonalization in iterative solution of the eigenvalue problem:
     a serial algorithm will be used

     bravais-lattice index     =            0
     lattice parameter (alat)  =      12.0168  a.u.
     unit-cell volume          =    1187.3413 (a.u.)^3
     number of atoms/cell      =            8
     number of atomic types    =            2
     number of electrons       =       156.00
     number of Kohn-Sham states=           94
     kinetic-energy cutoff     =      40.0000  Ry
     charge density cutoff     =     160.0000  Ry
     convergence threshold     =      1.0E-04
     mixing beta               =       0.7000
     number of iterations used =            8  plain     mixing
     Exchange-correlation      = SLA-PZ-NOGX-NOGC ( 1 1 0 0 0)
     EXX-fraction              =        0.00
     nstep                     =           50

     celldm(1)=  12.016801  celldm(2)=   0.000000  celldm(3)=   0.000000
     celldm(4)=   0.000000  celldm(5)=   0.000000  celldm(6)=   0.000000

     crystal axes: (cart. coord. in units of alat)
               a(1) = (   1.000000   0.000000   0.000000 )
               a(2) = (  -0.500000   0.866025   0.000000 )
               a(3) = (   0.000000   0.000000   0.790093 )

     reciprocal axes: (cart. coord. in units 2 pi/alat)
               b(1) = (  1.000000  0.577350  0.000000 )
               b(2) = (  0.000000  1.154701  0.000000 )
               b(3) = (  0.000000  0.000000  1.265674 )

     PseudoPot. # 1 for Dy read from file:
     /home/cwx6513/pp.La/Dy.UPF
     MD5 check sum: 9597327bec62616a94a14d07f3fd9936
     Pseudo is Norm-conserving, Zval = 20.0
     Generated in analytical, separable form
     Using radial grid of 1265 points,  6 beta functions with:
                l(1) =   0
                l(2) =   0
                l(3) =   1
                l(4) =   1
                l(5) =   2
                l(6) =   3

     PseudoPot. # 2 for Gd read from file:
     /home/cwx6513/pp.La/Gd.UPF
     MD5 check sum: 09a8be538722f05520810cb6aac0efd2
     Pseudo is Norm-conserving, Zval = 18.0
     Generated in analytical, separable form
     Using radial grid of 1263 points,  6 beta functions with:
                l(1) =   0
                l(2) =   0
                l(3) =   1
                l(4) =   1
                l(5) =   2
                l(6) =   3

     atomic species   valence    mass     pseudopotential
        Mg            20.00    24.30500     Dy( 1.00)
        Cd            18.00   112.41100     Gd( 1.00)

     24 Sym. Ops., with inversion, found (12 have fractional translation)

   Cartesian axes

     site n.     atom                  positions (alat units)
         1           Mg  tau(   1) = (   0.2478935   0.7204716   0.1975233  )
         2           Mg  tau(   2) = (   0.7478935   0.1455538   0.5925699  )
         3           Mg  tau(   3) = (   0.2521065   0.1455538   0.5925699  )
         4           Mg  tau(   4) = (  -0.2478935   0.7204716   0.1975233  )
         5           Mg  tau(   5) = (   0.0000000   0.2911075   0.1975233  )
         6           Mg  tau(   6) = (   0.5000000   0.5749179   0.5925699  )
         7           Cd  tau(   7) = (   0.5000005   0.2886748   0.1975233  )
         8           Cd  tau(   8) = (  -0.0000005   0.5773506   0.5925699  )

     number of k points=    64  gaussian smearing, width (Ry)=  0.1000
                       cart. coord. in units 2pi/alat
        k(    1) = (   0.0000000   0.0000000   0.0000000), wk =   0.0095238
        k(    2) = (   0.0000000   0.0000000   0.1808105), wk =   0.0190476
        k(    3) = (   0.0000000   0.0000000   0.3616210), wk =   0.0190476
        k(    4) = (   0.0000000   0.0000000   0.5424315), wk =   0.0190476
        k(    5) = (   0.0000000   0.1924501   0.0000000), wk =   0.0190476
        k(    6) = (   0.0000000   0.1924501   0.1808105), wk =   0.0380952
        k(    7) = (   0.0000000   0.1924501   0.3616210), wk =   0.0380952
        k(    8) = (   0.0000000   0.1924501   0.5424315), wk =   0.0380952
        k(    9) = (   0.0000000   0.3849002   0.0000000), wk =   0.0190476
        k(   10) = (   0.0000000   0.3849002   0.1808105), wk =   0.0380952
        k(   11) = (   0.0000000   0.3849002   0.3616210), wk =   0.0380952
        k(   12) = (   0.0000000   0.3849002   0.5424315), wk =   0.0380952
        k(   13) = (   0.0000000  -0.5773503   0.0000000), wk =   0.0095238
        k(   14) = (   0.0000000  -0.5773503   0.1808105), wk =   0.0190476
        k(   15) = (   0.0000000  -0.5773503   0.3616210), wk =   0.0190476
        k(   16) = (   0.0000000  -0.5773503   0.5424315), wk =   0.0190476
        k(   17) = (   0.2000000   0.1154701   0.0000000), wk =   0.0190476
        k(   18) = (   0.2000000   0.1154701   0.1808105), wk =   0.0380952
        k(   19) = (   0.2000000   0.1154701   0.3616210), wk =   0.0380952
        k(   20) = (   0.2000000   0.1154701   0.5424315), wk =   0.0380952
        k(   21) = (   0.2000000   0.3079201   0.0000000), wk =   0.0190476
        k(   22) = (   0.2000000   0.3079201   0.1808105), wk =   0.0380952
        k(   23) = (   0.2000000   0.3079201   0.3616210), wk =   0.0380952
        k(   24) = (   0.2000000   0.3079201   0.5424315), wk =   0.0380952
        k(   25) = (   0.2000000   0.5003702   0.0000000), wk =   0.0190476
        k(   26) = (   0.2000000   0.5003702   0.1808105), wk =   0.0380952
        k(   27) = (   0.2000000   0.5003702   0.3616210), wk =   0.0380952
        k(   28) = (   0.2000000   0.5003702   0.5424315), wk =   0.0380952
        k(   29) = (   0.2000000  -0.4618802   0.0000000), wk =   0.0190476
        k(   30) = (   0.2000000  -0.4618802   0.1808105), wk =   0.0380952
        k(   31) = (   0.2000000  -0.4618802   0.3616210), wk =   0.0380952
        k(   32) = (   0.2000000  -0.4618802   0.5424315), wk =   0.0380952
        k(   33) = (   0.2000000  -0.2694301   0.0000000), wk =   0.0190476
        k(   34) = (   0.2000000  -0.2694301   0.1808105), wk =   0.0380952
        k(   35) = (   0.2000000  -0.2694301   0.3616210), wk =   0.0380952
        k(   36) = (   0.2000000  -0.2694301   0.5424315), wk =   0.0380952
        k(   37) = (   0.2000000  -0.0769800   0.0000000), wk =   0.0190476
        k(   38) = (   0.2000000  -0.0769800   0.1808105), wk =   0.0380952
        k(   39) = (   0.2000000  -0.0769800   0.3616210), wk =   0.0380952
        k(   40) = (   0.2000000  -0.0769800   0.5424315), wk =   0.0380952
        k(   41) = (   0.4000000   0.2309401   0.0000000), wk =   0.0190476
        k(   42) = (   0.4000000   0.2309401   0.1808105), wk =   0.0380952
        k(   43) = (   0.4000000   0.2309401   0.3616210), wk =   0.0380952
        k(   44) = (   0.4000000   0.2309401   0.5424315), wk =   0.0380952
        k(   45) = (   0.4000000   0.4233902   0.0000000), wk =   0.0190476
        k(   46) = (   0.4000000   0.4233902   0.1808105), wk =   0.0380952
        k(   47) = (   0.4000000   0.4233902   0.3616210), wk =   0.0380952
        k(   48) = (   0.4000000   0.4233902   0.5424315), wk =   0.0380952
        k(   49) = (   0.4000000   0.6158403   0.0000000), wk =   0.0190476
        k(   50) = (   0.4000000   0.6158403   0.1808105), wk =   0.0380952
        k(   51) = (   0.4000000   0.6158403   0.3616210), wk =   0.0380952
        k(   52) = (   0.4000000   0.6158403   0.5424315), wk =   0.0380952
        k(   53) = (   0.4000000  -0.3464102   0.0000000), wk =   0.0190476
        k(   54) = (   0.4000000  -0.3464102   0.1808105), wk =   0.0380952
        k(   55) = (   0.4000000  -0.3464102   0.3616210), wk =   0.0380952
        k(   56) = (   0.4000000  -0.3464102   0.5424315), wk =   0.0380952
        k(   57) = (   0.4000000  -0.1539601   0.0000000), wk =   0.0190476
        k(   58) = (   0.4000000  -0.1539601   0.1808105), wk =   0.0380952
        k(   59) = (   0.4000000  -0.1539601   0.3616210), wk =   0.0380952
        k(   60) = (   0.4000000  -0.1539601   0.5424315), wk =   0.0380952
        k(   61) = (   0.4000000   0.0384900   0.0000000), wk =   0.0190476
        k(   62) = (   0.4000000   0.0384900   0.1808105), wk =   0.0380952
        k(   63) = (   0.4000000   0.0384900   0.3616210), wk =   0.0380952
        k(   64) = (   0.4000000   0.0384900   0.5424315), wk =   0.0380952

     Largest allocated arrays     est. size (Mb)     dimensions
     Largest temporary arrays     est. size (Mb)     dimensions

     Initial potential from superposition of free atoms

     Starting from uniform charge
     Starting wfc are    0 randomized atomic wfcs

     Self-consistent Calculation

     iteration #  1     ecut=    40.00 Ry     beta=0.70
     CG style diagonalization
     c_bands:  5 eigenvalues not converged
     c_bands:  2 eigenvalues not converged
     c_bands:  5 eigenvalues not converged
     c_bands:  2 eigenvalues not converged
     c_bands:  2 eigenvalues not converged
     c_bands:  4 eigenvalues not converged
     c_bands:  5 eigenvalues not converged
     c_bands:  5 eigenvalues not converged
     c_bands:  1 eigenvalues not converged
     c_bands:  4 eigenvalues not converged
     c_bands:  2 eigenvalues not converged
     c_bands:  2 eigenvalues not converged
     c_bands:  2 eigenvalues not converged
     c_bands:  5 eigenvalues not converged
     c_bands:  4 eigenvalues not converged
     c_bands:  3 eigenvalues not converged
     c_bands:  5 eigenvalues not converged
     c_bands:  3 eigenvalues not converged
     c_bands:  2 eigenvalues not converged
     c_bands:  3 eigenvalues not converged
     c_bands:  5 eigenvalues not converged
     c_bands:  4 eigenvalues not converged
     c_bands:  1 eigenvalues not converged
     c_bands:  5 eigenvalues not converged
     c_bands:  3 eigenvalues not converged
     c_bands:  4 eigenvalues not converged
     c_bands:  5 eigenvalues not converged
     c_bands:  3 eigenvalues not converged
     c_bands:  4 eigenvalues not converged
     c_bands:  2 eigenvalues not converged
     c_bands:  4 eigenvalues not converged
     c_bands:  5 eigenvalues not converged
     c_bands:  3 eigenvalues not converged
     c_bands:  2 eigenvalues not converged
     c_bands:  5 eigenvalues not converged
     c_bands:  3 eigenvalues not converged
     c_bands:  4 eigenvalues not converged
     c_bands:  3 eigenvalues not converged
     c_bands:  2 eigenvalues not converged
     c_bands:  2 eigenvalues not converged
     ethr =  1.00E-02,  avg # of iterations = 13.9

     total energy              =   -1689.19988913 Ry
     Harris-Foulkes estimate   =   -2430.34433400 Ry
     estimated scf accuracy    <     939.98244982 Ry

[...]

     iteration #  5     ecut=    40.00 Ry     beta=0.70
     CG style diagonalization
     ethr =  1.00E-02,  avg # of iterations =  3.7

[...]

     End of self-consistent calculation

          k = 0.0000 0.0000 0.0000 (  5047 PWs)   bands (ev):

[...]
        k(   12) = (   0.0000000   0.3889642   0.5400396), wk =   0.0380952
        k(   13) = (   0.0000000  -0.5834463   0.0000000), wk =   0.0095238
        k(   14) = (   0.0000000  -0.5834463   0.1800132), wk =   0.0190476
        k(   15) = (   0.0000000  -0.5834463   0.3600264), wk =   0.0190476
        k(   16) = (   0.0000000  -0.5834463   0.5400396), wk =   0.0190476
        k(   17) = (   0.2021117   0.1166893   0.0000000), wk =   0.0190476
        k(   18) = (   0.2021117   0.1166893   0.1800132), wk =   0.0380952
        k(   19) = (   0.2021117   0.1166893   0.3600264), wk =   0.0380952
        k(   20) = (   0.2021117   0.1166893   0.5400396), wk =   0.0380952
        k(   21) = (   0.2021117   0.3111714   0.0000000), wk =   0.0190476
        k(   22) = (   0.2021117   0.3111714   0.1800132), wk =   0.0380952
        k(   23) = (   0.2021117   0.3111714   0.3600264), wk =   0.0380952
        k(   24) = (   0.2021117   0.3111714   0.5400396), wk =   0.0380952
        k(   25) = (   0.2021117   0.5056535   0.0000000), wk =   0.0190476
        k(   26) = (   0.2021117   0.5056535   0.1800132), wk =   0.0380952
        k(   27) = (   0.2021117   0.5056535   0.3600264), wk =   0.0380952
        k(   28) = (   0.2021117   0.5056535   0.5400396), wk =   0.0380952
        k(   29) = (   0.2021117  -0.4667570   0.0000000), wk =   0.0190476
        k(   30) = (   0.2021117  -0.4667570   0.1800132), wk =   0.0380952
        k(   31) = (   0.2021117  -0.4667570   0.3600264), wk =   0.0380952
        k(   32) = (   0.2021117  -0.4667570   0.5400396), wk =   0.0380952
        k(   33) = (   0.2021117  -0.2722749   0.0000000), wk =   0.0190476
        k(   34) = (   0.2021117  -0.2722749   0.1800132), wk =   0.0380952
        k(   35) = (   0.2021117  -0.2722749   0.3600264), wk =   0.0380952
        k(   36) = (   0.2021117  -0.2722749   0.5400396), wk =   0.0380952
        k(   37) = (   0.2021117  -0.0777928   0.0000000), wk =   0.0190476
        k(   38) = (   0.2021117  -0.0777928   0.1800132), wk =   0.0380952
        k(   39) = (   0.2021117  -0.0777928   0.3600264), wk =   0.0380952
        k(   40) = (   0.2021117  -0.0777928   0.5400396), wk =   0.0380952
        k(   41) = (   0.4042235   0.2333785   0.0000000), wk =   0.0190476
        k(   42) = (   0.4042235   0.2333785   0.1800132), wk =   0.0380952
        k(   43) = (   0.4042235   0.2333785   0.3600264), wk =   0.0380952
        k(   44) = (   0.4042235   0.2333785   0.5400396), wk =   0.0380952
        k(   45) = (   0.4042235   0.4278606   0.0000000), wk =   0.0190476
        k(   46) = (   0.4042235   0.4278606   0.1800132), wk =   0.0380952
        k(   47) = (   0.4042235   0.4278606   0.3600264), wk =   0.0380952
        k(   48) = (   0.4042235   0.4278606   0.5400396), wk =   0.0380952
        k(   49) = (   0.4042235   0.6223427   0.0000000), wk =   0.0190476
        k(   50) = (   0.4042235   0.6223427   0.1800132), wk =   0.0380952
        k(   51) = (   0.4042235   0.6223427   0.3600264), wk =   0.0380952
        k(   52) = (   0.4042235   0.6223427   0.5400396), wk =   0.0380952
        k(   53) = (   0.4042235  -0.3500678   0.0000000), wk =   0.0190476
        k(   54) = (   0.4042235  -0.3500678   0.1800132), wk =   0.0380952
        k(   55) = (   0.4042235  -0.3500678   0.3600264), wk =   0.0380952
        k(   56) = (   0.4042235  -0.3500678   0.5400396), wk =   0.0380952
        k(   57) = (   0.4042235  -0.1555857   0.0000000), wk =   0.0190476
        k(   58) = (   0.4042235  -0.1555857   0.1800132), wk =   0.0380952
        k(   59) = (   0.4042235  -0.1555857   0.3600264), wk =   0.0380952
        k(   60) = (   0.4042235  -0.1555857   0.5400396), wk =   0.0380952
        k(   61) = (   0.4042235   0.0388964   0.0000000), wk =   0.0190476
        k(   62) = (   0.4042235   0.0388964   0.1800132), wk =   0.0380952
        k(   63) = (   0.4042235   0.0388964   0.3600264), wk =   0.0380952
        k(   64) = (   0.4042235   0.0388964   0.5400396), wk =   0.0380952

[...]

     The maximum number of steps has been reached.

     End of BFGS Geometry Optimization
Begin final coordinates
     new unit-cell volume =   1167.80902 a.u.^3 (   173.05144 Ang^3 )

CELL_PARAMETERS (alat= 12.01680127)
   0.989551682   0.000000000   0.000000000
  -0.494775841   0.856976895   0.000000000
   0.000000000   0.000000000   0.793592570

ATOMIC_POSITIONS (crystal)
Mg       0.665970274   0.832985137   0.250000000
Mg       0.832985137   0.167014863   0.750000000
Mg       0.334029726   0.167014863   0.750000000
Mg       0.167014863   0.832985137   0.250000000
Mg       0.167014863   0.334029726   0.250000000
Mg       0.832985137   0.665970274   0.750000000
Cd       0.666667000   0.333333000   0.250000000
Cd       0.333333000   0.666667000   0.750000000
End final coordinates

     A final scf calculation at the relaxed structure.
     The G-vectors are recalculated for the final unit cell
     Results may differ from those at the preceding step.

     bravais-lattice index     =            0
     lattice parameter (alat)  =      12.0168  a.u.
     unit-cell volume          =    1167.8090 (a.u.)^3
     number of atoms/cell      =            8
     number of atomic types    =            2
     number of electrons       =       156.00
     number of Kohn-Sham states=           94
     kinetic-energy cutoff     =      40.0000  Ry
     charge density cutoff     =     160.0000  Ry
     convergence threshold     =      1.7E-05
     mixing beta               =       0.7000
     number of iterations used =            8  plain     mixing
     Exchange-correlation      = SLA-PZ-NOGX-NOGC ( 1 1 0 0 0)
     EXX-fraction              =        0.00

     celldm(1)=  12.016801  celldm(2)=   0.000000  celldm(3)=   0.000000
     celldm(4)=   0.000000  celldm(5)=   0.000000  celldm(6)=   0.000000

     crystal axes: (cart. coord. in units of alat)
               a(1) = (   0.989552   0.000000   0.000000 )
               a(2) = (  -0.494776   0.856977   0.000000 )
               a(3) = (   0.000000   0.000000   0.793593 )

     reciprocal axes: (cart. coord. in units 2 pi/alat)
               b(1) = (  1.010559  0.583446  0.000000 )
               b(2) = (  0.000000  1.166893  0.000000 )
               b(3) = (  0.000000  0.000000  1.260092 )

     PseudoPot. # 1 for Dy read from file:
     /home/cwx6513/pp.La/Dy.UPF
     MD5 check sum: 9597327bec62616a94a14d07f3fd9936
     Pseudo is Norm-conserving, Zval = 20.0
     Generated in analytical, separable form
     Using radial grid of 1265 points,  6 beta functions with:
                l(1) =   0
                l(2) =   0
                l(3) =   1
                l(4) =   1
                l(5) =   2
                l(6) =   3

     PseudoPot. # 2 for Gd read from file:
     /home/cwx6513/pp.La/Gd.UPF
     MD5 check sum: 09a8be538722f05520810cb6aac0efd2
     Pseudo is Norm-conserving, Zval = 18.0
     Generated in analytical, separable form
     Using radial grid of 1263 points,  6 beta functions with:
                l(1) =   0
                l(2) =   0
                l(3) =   1
                l(4) =   1
                l(5) =   2
                l(6) =   3

     atomic species   valence    mass     pseudopotential
        Mg            20.00    24.30500     Dy( 1.00)
        Cd            18.00   112.41100     Gd( 1.00)

     24 Sym. Ops., with inversion, found (12 have fractional translation)

   Cartesian axes

     site n.     atom                  positions (alat units)
         1           Mg  tau(   1) = (   0.2468711   0.7138490   0.1983981  )
         2           Mg  tau(   2) = (   0.7416469   0.1431279   0.5951944  )
         3           Mg  tau(   3) = (   0.2479048   0.1431279   0.5951944  )
         4           Mg  tau(   4) = (  -0.2468711   0.7138490   0.1983981  )
         5           Mg  tau(   5) = (   0.0000000   0.2862558   0.1983981  )
         6           Mg  tau(   6) = (   0.4947758   0.5707211   0.5951944  )
         7           Cd  tau(   7) = (   0.4947763   0.2856587   0.1983981  )
         8           Cd  tau(   8) = (  -0.0000005   0.5713182   0.5951944  )

     number of k points=    64  gaussian smearing, width (Ry)=  0.1000
                       cart. coord. in units 2pi/alat
        k(    1) = (   0.0000000   0.0000000   0.0000000), wk =   0.0095238
        k(    2) = (   0.0000000   0.0000000   0.1800132), wk =   0.0190476
        k(    3) = (   0.0000000   0.0000000   0.3600264), wk =   0.0190476
        k(    4) = (   0.0000000   0.0000000   0.5400396), wk =   0.0190476
        k(    5) = (   0.0000000   0.1944821   0.0000000), wk =   0.0190476
        k(    6) = (   0.0000000   0.1944821   0.1800132), wk =   0.0380952
        k(    7) = (   0.0000000   0.1944821   0.3600264), wk =   0.0380952
        k(    8) = (   0.0000000   0.1944821   0.5400396), wk =   0.0380952
        k(    9) = (   0.0000000   0.3889642   0.0000000), wk =   0.0190476
        k(   10) = (   0.0000000   0.3889642   0.1800132), wk =   0.0380952
        k(   11) = (   0.0000000   0.3889642   0.3600264), wk =   0.0380952
        k(   12) = (   0.0000000   0.3889642   0.5400396), wk =   0.0380952
        k(   13) = (   0.0000000  -0.5834463   0.0000000), wk =   0.0095238
        k(   14) = (   0.0000000  -0.5834463   0.1800132), wk =   0.0190476
        k(   15) = (   0.0000000  -0.5834463   0.3600264), wk =   0.0190476
        k(   16) = (   0.0000000  -0.5834463   0.5400396), wk =   0.0190476
        k(   17) = (   0.2021117   0.1166893   0.0000000), wk =   0.0190476
        k(   18) = (   0.2021117   0.1166893   0.1800132), wk =   0.0380952
        k(   19) = (   0.2021117   0.1166893   0.3600264), wk =   0.0380952
        k(   20) = (   0.2021117   0.1166893   0.5400396), wk =   0.0380952
        k(   21) = (   0.2021117   0.3111714   0.0000000), wk =   0.0190476
        k(   22) = (   0.2021117   0.3111714   0.1800132), wk =   0.0380952
        k(   23) = (   0.2021117   0.3111714   0.3600264), wk =   0.0380952
        k(   24) = (   0.2021117   0.3111714   0.5400396), wk =   0.0380952
        k(   25) = (   0.2021117   0.5056535   0.0000000), wk =   0.0190476
        k(   26) = (   0.2021117   0.5056535   0.1800132), wk =   0.0380952
        k(   27) = (   0.2021117   0.5056535   0.3600264), wk =   0.0380952
        k(   28) = (   0.2021117   0.5056535   0.5400396), wk =   0.0380952
        k(   29) = (   0.2021117  -0.4667570   0.0000000), wk =   0.0190476
        k(   30) = (   0.2021117  -0.4667570   0.1800132), wk =   0.0380952
        k(   31) = (   0.2021117  -0.4667570   0.3600264), wk =   0.0380952
        k(   32) = (   0.2021117  -0.4667570   0.5400396), wk =   0.0380952
        k(   33) = (   0.2021117  -0.2722749   0.0000000), wk =   0.0190476
        k(   34) = (   0.2021117  -0.2722749   0.1800132), wk =   0.0380952
        k(   35) = (   0.2021117  -0.2722749   0.3600264), wk =   0.0380952
        k(   36) = (   0.2021117  -0.2722749   0.5400396), wk =   0.0380952
        k(   37) = (   0.2021117  -0.0777928   0.0000000), wk =   0.0190476
        k(   38) = (   0.2021117  -0.0777928   0.1800132), wk =   0.0380952
        k(   39) = (   0.2021117  -0.0777928   0.3600264), wk =   0.0380952
        k(   40) = (   0.2021117  -0.0777928   0.5400396), wk =   0.0380952
        k(   41) = (   0.4042235   0.2333785   0.0000000), wk =   0.0190476
        k(   42) = (   0.4042235   0.2333785   0.1800132), wk =   0.0380952
        k(   43) = (   0.4042235   0.2333785   0.3600264), wk =   0.0380952
        k(   44) = (   0.4042235   0.2333785   0.5400396), wk =   0.0380952
        k(   45) = (   0.4042235   0.4278606   0.0000000), wk =   0.0190476
        k(   46) = (   0.4042235   0.4278606   0.1800132), wk =   0.0380952
        k(   47) = (   0.4042235   0.4278606   0.3600264), wk =   0.0380952
        k(   48) = (   0.4042235   0.4278606   0.5400396), wk =   0.0380952
        k(   49) = (   0.4042235   0.6223427   0.0000000), wk =   0.0190476
        k(   50) = (   0.4042235   0.6223427   0.1800132), wk =   0.0380952
        k(   51) = (   0.4042235   0.6223427   0.3600264), wk =   0.0380952
        k(   52) = (   0.4042235   0.6223427   0.5400396), wk =   0.0380952
        k(   53) = (   0.4042235  -0.3500678   0.0000000), wk =   0.0190476
        k(   54) = (   0.4042235  -0.3500678   0.1800132), wk =   0.0380952
        k(   55) = (   0.4042235  -0.3500678   0.3600264), wk =   0.0380952
        k(   56) = (   0.4042235  -0.3500678   0.5400396), wk =   0.0380952
        k(   57) = (   0.4042235  -0.1555857   0.0000000), wk =   0.0190476
        k(   58) = (   0.4042235  -0.1555857   0.1800132), wk =   0.0380952
        k(   59) = (   0.4042235  -0.1555857   0.3600264), wk =   0.0380952
        k(   60) = (   0.4042235  -0.1555857   0.5400396), wk =   0.0380952
        k(   61) = (   0.4042235   0.0388964   0.0000000), wk =   0.0190476
        k(   62) = (   0.4042235   0.0388964   0.1800132), wk =   0.0380952
        k(   63) = (   0.4042235   0.0388964   0.3600264), wk =   0.0380952
        k(   64) = (   0.4042235   0.0388964   0.5400396), wk =   0.0380952

     Largest allocated arrays     est. size (Mb)     dimensions
     Largest temporary arrays     est. size (Mb)     dimensions

     Initial potential from superposition of free atoms

     Starting from uniform charge
     Starting wfc are    0 randomized atomic wfcs

     Writing output data file Prototype-La-hP8-Mg3Cd.save

     Self-consistent Calculation

[...]

     iteration # 10     ecut=    40.00 Ry     beta=0.70
     CG style diagonalization
     c_bands:  1 eigenvalues not converged
     ethr =  5.30E-07,  avg # of iterations =  3.6

     total energy              =   -1966.42155525 Ry
     Harris-Foulkes estimate   =   -1966.42157413 Ry
     estimated scf accuracy    <       0.00003995 Ry

     iteration # 11     ecut=    40.00 Ry     beta=0.70
     CG style diagonalization
     ethr =  2.56E-08,  avg # of iterations =  4.0

     End of self-consistent calculation

[...]

          k = 0.4042 0.0389 0.5400 (  4984 PWs)   bands (ev):

   -59.7454 -59.7391 -59.7386 -59.7375 -59.7365 -59.7354 -45.1333 -45.1327
   -26.7582 -26.7560 -26.7232 -26.7188 -26.7080 -26.6985 -26.6515 -26.6313
   -26.6192 -26.6131 -26.6017 -26.5967 -26.5787 -26.5713 -26.5632 -26.5603
   -26.5468 -26.5398 -16.1358 -16.1341 -16.1288 -16.1274 -16.1241 -16.1234
    13.0807  13.1281  13.2907  13.3240  13.3671  13.4713  13.5355  13.5803
    13.6182  13.6667  13.8784  14.0320  14.2136  14.2719  14.3610  14.4898
    14.5196  14.6547  14.7616  14.9341  15.0070  15.0581  15.1854  15.2534
    15.3079  15.3407  15.6695  15.7102  16.0650  16.0985  16.2759  16.8677
    17.7822  18.3059  18.4977  18.7700  19.1247  19.1765  19.3954  19.5151
    19.8545  19.9453  20.3292  20.5935  21.1032  21.4329  23.2559  23.5671
    25.4279  25.8196  27.3084  27.9801  28.3086  28.5141  29.1160  29.5455
    30.3206  30.7156  31.3193  31.4996  31.7532  31.8372

     the Fermi energy is    23.0673 ev

!    total energy              =   -1966.42156499 Ry
     Harris-Foulkes estimate   =   -1966.42156974 Ry
     estimated scf accuracy    <       0.00000579 Ry

     The total energy is the sum of the following terms:

     one-electron contribution =    -424.37150710 Ry
     hartree contribution      =     311.64999961 Ry
     xc contribution           =    -183.37410383 Ry
     ewald contribution        =   -1670.16240300 Ry
     smearing contrib. (-TS)   =      -0.16355066 Ry

     convergence has been achieved in  11 iterations

     Forces acting on atoms (Ry/au):

     atom    1 type  1   force =    -0.01462915   -0.00844614    0.00000000
     atom    2 type  1   force =    -0.01462915    0.00844614    0.00000000
     atom    3 type  1   force =     0.01462915    0.00844614    0.00000000
     atom    4 type  1   force =     0.01462915   -0.00844614    0.00000000
     atom    5 type  1   force =     0.00000000    0.01689229    0.00000000
     atom    6 type  1   force =     0.00000000   -0.01689229    0.00000000
     atom    7 type  2   force =     0.00000000    0.00000000    0.00000000
     atom    8 type  2   force =     0.00000000    0.00000000    0.00000000

     Total force =     0.041377     Total SCF correction =     0.000000

     entering subroutine stress ...

          total   stress  (Ry/bohr**3)                   (kbar)     P= -268.45
  -0.00187258   0.00000000   0.00000000       -275.47      0.00      0.00
   0.00000000  -0.00187258   0.00000000          0.00   -275.47      0.00
   0.00000000   0.00000000  -0.00172941          0.00      0.00   -254.40

     Writing output data file Prototype-La-hP8-Mg3Cd.save

     General routines

     Parallel routines

   This run was terminated on:   3:22:53  23Mar2018

   JOB DONE.