     Program PWSCF v.5.0.2 starts on 22Mar2018 at 21:15:18

     Current dimensions of program PWSCF are:
     Max number of different atomic species (ntypx) = 10
     Max number of k-points (npk) =  40000
     Max angular momentum in pseudopotentials (lmaxx) =  3
     Waiting for input...
     Reading input from standard input

     Subspace diagonalization in iterative solution of the eigenvalue problem:
     a serial algorithm will be used

     bravais-lattice index     =            0
     lattice parameter (alat)  =      12.0168  a.u.
     unit-cell volume          =    1187.3413 (a.u.)^3
     number of atoms/cell      =            8
     number of atomic types    =            2
     number of electrons       =       140.00
     number of Kohn-Sham states=           84
     kinetic-energy cutoff     =      40.0000  Ry
     charge density cutoff     =     160.0000  Ry
     convergence threshold     =      1.0E-04
     mixing beta               =       0.7000
     number of iterations used =            8  plain     mixing
     Exchange-correlation      = SLA-PZ-NOGX-NOGC ( 1 1 0 0 0)
     EXX-fraction              =        0.00
     nstep                     =           50

     celldm(1)=  12.016801  celldm(2)=   0.000000  celldm(3)=   0.000000
     celldm(4)=   0.000000  celldm(5)=   0.000000  celldm(6)=   0.000000

     crystal axes: (cart. coord. in units of alat)
               a(1) = (   1.000000   0.000000   0.000000 )
               a(2) = (  -0.500000   0.866025   0.000000 )
               a(3) = (   0.000000   0.000000   0.790093 )

     reciprocal axes: (cart. coord. in units 2 pi/alat)
               b(1) = (  1.000000  0.577350  0.000000 )
               b(2) = (  0.000000  1.154701  0.000000 )
               b(3) = (  0.000000  0.000000  1.265674 )

     PseudoPot. # 1 for Eu read from file:
     /home/cwx6513/pp.La/Eu.UPF
     MD5 check sum: 5efdbbfc50c6a10138933a6429836ad2
     Pseudo is Norm-conserving, Zval = 17.0
     Generated in analytical, separable form
     Using radial grid of 1261 points,  6 beta functions with:
                l(1) =   0
                l(2) =   0
                l(3) =   1
                l(4) =   1
                l(5) =   2
                l(6) =   3

     PseudoPot. # 2 for Tb read from file:
     /home/cwx6513/pp.La/Tb.UPF
     MD5 check sum: 3d6088a3f0cf7fd2e110c43f7f8e95c2
     Pseudo is Norm-conserving, Zval = 19.0
     Generated in analytical, separable form
     Using radial grid of 1263 points,  6 beta functions with:
                l(1) =   0
                l(2) =   0
                l(3) =   1
                l(4) =   1
                l(5) =   2
                l(6) =   3

     atomic species   valence    mass     pseudopotential
        Mg            17.00    24.30500     Eu( 1.00)
        Cd            19.00   112.41100     Tb( 1.00)

     24 Sym. Ops., with inversion, found (12 have fractional translation)

   Cartesian axes

     site n.     atom                  positions (alat units)
         1           Mg  tau(   1) = (   0.2478935   0.7204716   0.1975233  )
         2           Mg  tau(   2) = (   0.7478935   0.1455538   0.5925699  )
         3           Mg  tau(   3) = (   0.2521065   0.1455538   0.5925699  )
         4           Mg  tau(   4) = (  -0.2478935   0.7204716   0.1975233  )
         5           Mg  tau(   5) = (   0.0000000   0.2911075   0.1975233  )
         6           Mg  tau(   6) = (   0.5000000   0.5749179   0.5925699  )
         7           Cd  tau(   7) = (   0.5000005   0.2886748   0.1975233  )
         8           Cd  tau(   8) = (  -0.0000005   0.5773506   0.5925699  )

     number of k points=    64  gaussian smearing, width (Ry)=  0.1000
                       cart. coord. in units 2pi/alat
        k(    1) = (   0.0000000   0.0000000   0.0000000), wk =   0.0095238
        k(    2) = (   0.0000000   0.0000000   0.1808105), wk =   0.0190476
        k(    3) = (   0.0000000   0.0000000   0.3616210), wk =   0.0190476
        k(    4) = (   0.0000000   0.0000000   0.5424315), wk =   0.0190476
        k(    5) = (   0.0000000   0.1924501   0.0000000), wk =   0.0190476
        k(    6) = (   0.0000000   0.1924501   0.1808105), wk =   0.0380952
        k(    7) = (   0.0000000   0.1924501   0.3616210), wk =   0.0380952
        k(    8) = (   0.0000000   0.1924501   0.5424315), wk =   0.0380952
        k(    9) = (   0.0000000   0.3849002   0.0000000), wk =   0.0190476
        k(   10) = (   0.0000000   0.3849002   0.1808105), wk =   0.0380952
        k(   11) = (   0.0000000   0.3849002   0.3616210), wk =   0.0380952
        k(   12) = (   0.0000000   0.3849002   0.5424315), wk =   0.0380952
        k(   13) = (   0.0000000  -0.5773503   0.0000000), wk =   0.0095238
        k(   14) = (   0.0000000  -0.5773503   0.1808105), wk =   0.0190476
        k(   15) = (   0.0000000  -0.5773503   0.3616210), wk =   0.0190476
        k(   16) = (   0.0000000  -0.5773503   0.5424315), wk =   0.0190476
        k(   17) = (   0.2000000   0.1154701   0.0000000), wk =   0.0190476
        k(   18) = (   0.2000000   0.1154701   0.1808105), wk =   0.0380952
        k(   19) = (   0.2000000   0.1154701   0.3616210), wk =   0.0380952
        k(   20) = (   0.2000000   0.1154701   0.5424315), wk =   0.0380952
        k(   21) = (   0.2000000   0.3079201   0.0000000), wk =   0.0190476
        k(   22) = (   0.2000000   0.3079201   0.1808105), wk =   0.0380952
        k(   23) = (   0.2000000   0.3079201   0.3616210), wk =   0.0380952
        k(   24) = (   0.2000000   0.3079201   0.5424315), wk =   0.0380952
        k(   25) = (   0.2000000   0.5003702   0.0000000), wk =   0.0190476
        k(   26) = (   0.2000000   0.5003702   0.1808105), wk =   0.0380952
        k(   27) = (   0.2000000   0.5003702   0.3616210), wk =   0.0380952
        k(   28) = (   0.2000000   0.5003702   0.5424315), wk =   0.0380952
        k(   29) = (   0.2000000  -0.4618802   0.0000000), wk =   0.0190476
        k(   30) = (   0.2000000  -0.4618802   0.1808105), wk =   0.0380952
        k(   31) = (   0.2000000  -0.4618802   0.3616210), wk =   0.0380952
        k(   32) = (   0.2000000  -0.4618802   0.5424315), wk =   0.0380952
        k(   33) = (   0.2000000  -0.2694301   0.0000000), wk =   0.0190476
        k(   34) = (   0.2000000  -0.2694301   0.1808105), wk =   0.0380952
        k(   35) = (   0.2000000  -0.2694301   0.3616210), wk =   0.0380952
        k(   36) = (   0.2000000  -0.2694301   0.5424315), wk =   0.0380952
        k(   37) = (   0.2000000  -0.0769800   0.0000000), wk =   0.0190476
        k(   38) = (   0.2000000  -0.0769800   0.1808105), wk =   0.0380952
        k(   39) = (   0.2000000  -0.0769800   0.3616210), wk =   0.0380952
        k(   40) = (   0.2000000  -0.0769800   0.5424315), wk =   0.0380952
        k(   41) = (   0.4000000   0.2309401   0.0000000), wk =   0.0190476
        k(   42) = (   0.4000000   0.2309401   0.1808105), wk =   0.0380952
        k(   43) = (   0.4000000   0.2309401   0.3616210), wk =   0.0380952
        k(   44) = (   0.4000000   0.2309401   0.5424315), wk =   0.0380952
        k(   45) = (   0.4000000   0.4233902   0.0000000), wk =   0.0190476
        k(   46) = (   0.4000000   0.4233902   0.1808105), wk =   0.0380952
        k(   47) = (   0.4000000   0.4233902   0.3616210), wk =   0.0380952
        k(   48) = (   0.4000000   0.4233902   0.5424315), wk =   0.0380952
        k(   49) = (   0.4000000   0.6158403   0.0000000), wk =   0.0190476
        k(   50) = (   0.4000000   0.6158403   0.1808105), wk =   0.0380952
        k(   51) = (   0.4000000   0.6158403   0.3616210), wk =   0.0380952
        k(   52) = (   0.4000000   0.6158403   0.5424315), wk =   0.0380952
        k(   53) = (   0.4000000  -0.3464102   0.0000000), wk =   0.0190476
        k(   54) = (   0.4000000  -0.3464102   0.1808105), wk =   0.0380952
        k(   55) = (   0.4000000  -0.3464102   0.3616210), wk =   0.0380952
        k(   56) = (   0.4000000  -0.3464102   0.5424315), wk =   0.0380952
        k(   57) = (   0.4000000  -0.1539601   0.0000000), wk =   0.0190476
        k(   58) = (   0.4000000  -0.1539601   0.1808105), wk =   0.0380952
        k(   59) = (   0.4000000  -0.1539601   0.3616210), wk =   0.0380952
        k(   60) = (   0.4000000  -0.1539601   0.5424315), wk =   0.0380952
        k(   61) = (   0.4000000   0.0384900   0.0000000), wk =   0.0190476
        k(   62) = (   0.4000000   0.0384900   0.1808105), wk =   0.0380952
        k(   63) = (   0.4000000   0.0384900   0.3616210), wk =   0.0380952
        k(   64) = (   0.4000000   0.0384900   0.5424315), wk =   0.0380952

     Largest allocated arrays     est. size (Mb)     dimensions
     Largest temporary arrays     est. size (Mb)     dimensions

     Initial potential from superposition of free atoms

     Starting from uniform charge
     Starting wfc are    0 randomized atomic wfcs

     Self-consistent Calculation

     iteration #  1     ecut=    40.00 Ry     beta=0.70
     CG style diagonalization
     c_bands:  4 eigenvalues not converged
     c_bands:  3 eigenvalues not converged
     c_bands:  3 eigenvalues not converged
     c_bands:  3 eigenvalues not converged
     c_bands:  4 eigenvalues not converged
     c_bands:  4 eigenvalues not converged
     c_bands:  1 eigenvalues not converged
     c_bands:  4 eigenvalues not converged
     c_bands:  4 eigenvalues not converged
     c_bands:  3 eigenvalues not converged
     c_bands:  2 eigenvalues not converged
     c_bands:  4 eigenvalues not converged
     c_bands:  3 eigenvalues not converged
     c_bands:  2 eigenvalues not converged
     c_bands:  1 eigenvalues not converged
     c_bands:  1 eigenvalues not converged
     c_bands:  3 eigenvalues not converged
     c_bands:  4 eigenvalues not converged
     c_bands:  2 eigenvalues not converged
     c_bands:  1 eigenvalues not converged
     c_bands:  1 eigenvalues not converged
     c_bands:  1 eigenvalues not converged
     c_bands:  2 eigenvalues not converged
     c_bands:  3 eigenvalues not converged
     c_bands:  2 eigenvalues not converged
     c_bands:  1 eigenvalues not converged
     c_bands:  3 eigenvalues not converged
     c_bands:  4 eigenvalues not converged
     c_bands:  5 eigenvalues not converged
     c_bands:  1 eigenvalues not converged
     c_bands:  2 eigenvalues not converged
     c_bands:  4 eigenvalues not converged
     c_bands:  5 eigenvalues not converged
     c_bands:  4 eigenvalues not converged
     c_bands:  5 eigenvalues not converged
     c_bands:  5 eigenvalues not converged
     c_bands:  2 eigenvalues not converged
     c_bands:  2 eigenvalues not converged
     c_bands:  5 eigenvalues not converged
     c_bands:  5 eigenvalues not converged
     c_bands:  5 eigenvalues not converged
     c_bands:  2 eigenvalues not converged
     c_bands:  4 eigenvalues not converged
     c_bands:  4 eigenvalues not converged
     c_bands:  5 eigenvalues not converged
     c_bands:  4 eigenvalues not converged
     c_bands:  4 eigenvalues not converged
     c_bands:  5 eigenvalues not converged
     c_bands:  5 eigenvalues not converged
     c_bands:  2 eigenvalues not converged
[...]
        k(   15) = (   0.0000000  -0.5973987   0.3651760), wk =   0.0190476
        k(   16) = (   0.0000000  -0.5973987   0.5477641), wk =   0.0190476
        k(   17) = (   0.2069450   0.1194797   0.0000000), wk =   0.0190476
        k(   18) = (   0.2069450   0.1194797   0.1825880), wk =   0.0380952
        k(   19) = (   0.2069450   0.1194797   0.3651760), wk =   0.0380952
        k(   20) = (   0.2069450   0.1194797   0.5477641), wk =   0.0380952
        k(   21) = (   0.2069450   0.3186127   0.0000000), wk =   0.0190476
        k(   22) = (   0.2069450   0.3186127   0.1825880), wk =   0.0380952
        k(   23) = (   0.2069450   0.3186127   0.3651760), wk =   0.0380952
        k(   24) = (   0.2069450   0.3186127   0.5477641), wk =   0.0380952
        k(   25) = (   0.2069450   0.5177456   0.0000000), wk =   0.0190476
        k(   26) = (   0.2069450   0.5177456   0.1825880), wk =   0.0380952
        k(   27) = (   0.2069450   0.5177456   0.3651760), wk =   0.0380952
        k(   28) = (   0.2069450   0.5177456   0.5477641), wk =   0.0380952
        k(   29) = (   0.2069450  -0.4779190   0.0000000), wk =   0.0190476
        k(   30) = (   0.2069450  -0.4779190   0.1825880), wk =   0.0380952
        k(   31) = (   0.2069450  -0.4779190   0.3651760), wk =   0.0380952
        k(   32) = (   0.2069450  -0.4779190   0.5477641), wk =   0.0380952
        k(   33) = (   0.2069450  -0.2787861   0.0000000), wk =   0.0190476
        k(   34) = (   0.2069450  -0.2787861   0.1825880), wk =   0.0380952
        k(   35) = (   0.2069450  -0.2787861   0.3651760), wk =   0.0380952
        k(   36) = (   0.2069450  -0.2787861   0.5477641), wk =   0.0380952
        k(   37) = (   0.2069450  -0.0796532   0.0000000), wk =   0.0190476
        k(   38) = (   0.2069450  -0.0796532   0.1825880), wk =   0.0380952
        k(   39) = (   0.2069450  -0.0796532   0.3651760), wk =   0.0380952
        k(   40) = (   0.2069450  -0.0796532   0.5477641), wk =   0.0380952
        k(   41) = (   0.4138900   0.2389595   0.0000000), wk =   0.0190476
        k(   42) = (   0.4138900   0.2389595   0.1825880), wk =   0.0380952
        k(   43) = (   0.4138900   0.2389595   0.3651760), wk =   0.0380952
        k(   44) = (   0.4138900   0.2389595   0.5477641), wk =   0.0380952
        k(   45) = (   0.4138900   0.4380924   0.0000000), wk =   0.0190476
        k(   46) = (   0.4138900   0.4380924   0.1825880), wk =   0.0380952
        k(   47) = (   0.4138900   0.4380924   0.3651760), wk =   0.0380952
        k(   48) = (   0.4138900   0.4380924   0.5477641), wk =   0.0380952
        k(   49) = (   0.4138900   0.6372253   0.0000000), wk =   0.0190476
        k(   50) = (   0.4138900   0.6372253   0.1825880), wk =   0.0380952
        k(   51) = (   0.4138900   0.6372253   0.3651760), wk =   0.0380952
        k(   52) = (   0.4138900   0.6372253   0.5477641), wk =   0.0380952
        k(   53) = (   0.4138900  -0.3584392   0.0000000), wk =   0.0190476
        k(   54) = (   0.4138900  -0.3584392   0.1825880), wk =   0.0380952
        k(   55) = (   0.4138900  -0.3584392   0.3651760), wk =   0.0380952
        k(   56) = (   0.4138900  -0.3584392   0.5477641), wk =   0.0380952
        k(   57) = (   0.4138900  -0.1593063   0.0000000), wk =   0.0190476
        k(   58) = (   0.4138900  -0.1593063   0.1825880), wk =   0.0380952
        k(   59) = (   0.4138900  -0.1593063   0.3651760), wk =   0.0380952
        k(   60) = (   0.4138900  -0.1593063   0.5477641), wk =   0.0380952
        k(   61) = (   0.4138900   0.0398266   0.0000000), wk =   0.0190476
        k(   62) = (   0.4138900   0.0398266   0.1825880), wk =   0.0380952
        k(   63) = (   0.4138900   0.0398266   0.3651760), wk =   0.0380952
        k(   64) = (   0.4138900   0.0398266   0.5477641), wk =   0.0380952

[...]

     The maximum number of steps has been reached.

     End of BFGS Geometry Optimization
Begin final coordinates
     new unit-cell volume =   1098.18900 a.u.^3 (   162.73482 Ang^3 )

CELL_PARAMETERS (alat= 12.01680127)
   0.966440385   0.000000000   0.000000000
  -0.483220193   0.836961925   0.000000000
   0.000000000   0.000000000   0.782401515

ATOMIC_POSITIONS (crystal)
Mg       0.667333871   0.833666936   0.250000000
Mg       0.833666936   0.166333064   0.750000000
Mg       0.332666129   0.166333064   0.750000000
Mg       0.166333064   0.833666936   0.250000000
Mg       0.166333064   0.332666129   0.250000000
Mg       0.833666936   0.667333871   0.750000000
Cd       0.666667000   0.333333000   0.250000000
Cd       0.333333000   0.666667000   0.750000000
End final coordinates

     A final scf calculation at the relaxed structure.
     The G-vectors are recalculated for the final unit cell
     Results may differ from those at the preceding step.

     bravais-lattice index     =            0
     lattice parameter (alat)  =      12.0168  a.u.
     unit-cell volume          =    1098.1890 (a.u.)^3
     number of atoms/cell      =            8
     number of atomic types    =            2
     number of electrons       =       140.00
     number of Kohn-Sham states=           84
     kinetic-energy cutoff     =      40.0000  Ry
     charge density cutoff     =     160.0000  Ry
     convergence threshold     =      1.7E-05
     mixing beta               =       0.7000
     number of iterations used =            8  plain     mixing
     Exchange-correlation      = SLA-PZ-NOGX-NOGC ( 1 1 0 0 0)
     EXX-fraction              =        0.00

     celldm(1)=  12.016801  celldm(2)=   0.000000  celldm(3)=   0.000000
     celldm(4)=   0.000000  celldm(5)=   0.000000  celldm(6)=   0.000000

     crystal axes: (cart. coord. in units of alat)
               a(1) = (   0.966440   0.000000   0.000000 )
               a(2) = (  -0.483220   0.836962   0.000000 )
               a(3) = (   0.000000   0.000000   0.782402 )

     reciprocal axes: (cart. coord. in units 2 pi/alat)
               b(1) = (  1.034725  0.597399  0.000000 )
               b(2) = (  0.000000  1.194797  0.000000 )
               b(3) = (  0.000000  0.000000  1.278116 )

     PseudoPot. # 1 for Eu read from file:
     /home/cwx6513/pp.La/Eu.UPF
     MD5 check sum: 5efdbbfc50c6a10138933a6429836ad2
     Pseudo is Norm-conserving, Zval = 17.0
     Generated in analytical, separable form
     Using radial grid of 1261 points,  6 beta functions with:
                l(1) =   0
                l(2) =   0
                l(3) =   1
                l(4) =   1
                l(5) =   2
                l(6) =   3

     PseudoPot. # 2 for Tb read from file:
     /home/cwx6513/pp.La/Tb.UPF
     MD5 check sum: 3d6088a3f0cf7fd2e110c43f7f8e95c2
     Pseudo is Norm-conserving, Zval = 19.0
     Generated in analytical, separable form
     Using radial grid of 1263 points,  6 beta functions with:
                l(1) =   0
                l(2) =   0
                l(3) =   1
                l(4) =   1
                l(5) =   2
                l(6) =   3

     atomic species   valence    mass     pseudopotential
        Mg            17.00    24.30500     Eu( 1.00)
        Cd            19.00   112.41100     Tb( 1.00)

     24 Sym. Ops., with inversion, found (12 have fractional translation)

   Cartesian axes

     site n.     atom                  positions (alat units)
         1           Mg  tau(   1) = (   0.2420937   0.6977475   0.1956004  )
         2           Mg  tau(   2) = (   0.7253139   0.1392144   0.5868011  )
         3           Mg  tau(   3) = (   0.2411265   0.1392144   0.5868011  )
         4           Mg  tau(   4) = (  -0.2420937   0.6977475   0.1956004  )
         5           Mg  tau(   5) = (   0.0000000   0.2784289   0.1956004  )
         6           Mg  tau(   6) = (   0.4832202   0.5585330   0.5868011  )
         7           Cd  tau(   7) = (   0.4832207   0.2789870   0.1956004  )
         8           Cd  tau(   8) = (  -0.0000005   0.5579749   0.5868011  )

     number of k points=    64  gaussian smearing, width (Ry)=  0.1000
                       cart. coord. in units 2pi/alat
        k(    1) = (   0.0000000   0.0000000   0.0000000), wk =   0.0095238
        k(    2) = (   0.0000000   0.0000000   0.1825880), wk =   0.0190476
        k(    3) = (   0.0000000   0.0000000   0.3651760), wk =   0.0190476
        k(    4) = (   0.0000000   0.0000000   0.5477641), wk =   0.0190476
        k(    5) = (   0.0000000   0.1991329   0.0000000), wk =   0.0190476
        k(    6) = (   0.0000000   0.1991329   0.1825880), wk =   0.0380952
        k(    7) = (   0.0000000   0.1991329   0.3651760), wk =   0.0380952
        k(    8) = (   0.0000000   0.1991329   0.5477641), wk =   0.0380952
        k(    9) = (   0.0000000   0.3982658   0.0000000), wk =   0.0190476
        k(   10) = (   0.0000000   0.3982658   0.1825880), wk =   0.0380952
        k(   11) = (   0.0000000   0.3982658   0.3651760), wk =   0.0380952
        k(   12) = (   0.0000000   0.3982658   0.5477641), wk =   0.0380952
        k(   13) = (   0.0000000  -0.5973987   0.0000000), wk =   0.0095238
        k(   14) = (   0.0000000  -0.5973987   0.1825880), wk =   0.0190476
        k(   15) = (   0.0000000  -0.5973987   0.3651760), wk =   0.0190476
        k(   16) = (   0.0000000  -0.5973987   0.5477641), wk =   0.0190476
        k(   17) = (   0.2069450   0.1194797   0.0000000), wk =   0.0190476
        k(   18) = (   0.2069450   0.1194797   0.1825880), wk =   0.0380952
        k(   19) = (   0.2069450   0.1194797   0.3651760), wk =   0.0380952
        k(   20) = (   0.2069450   0.1194797   0.5477641), wk =   0.0380952
        k(   21) = (   0.2069450   0.3186127   0.0000000), wk =   0.0190476
        k(   22) = (   0.2069450   0.3186127   0.1825880), wk =   0.0380952
        k(   23) = (   0.2069450   0.3186127   0.3651760), wk =   0.0380952
        k(   24) = (   0.2069450   0.3186127   0.5477641), wk =   0.0380952
        k(   25) = (   0.2069450   0.5177456   0.0000000), wk =   0.0190476
        k(   26) = (   0.2069450   0.5177456   0.1825880), wk =   0.0380952
        k(   27) = (   0.2069450   0.5177456   0.3651760), wk =   0.0380952
        k(   28) = (   0.2069450   0.5177456   0.5477641), wk =   0.0380952
        k(   29) = (   0.2069450  -0.4779190   0.0000000), wk =   0.0190476
        k(   30) = (   0.2069450  -0.4779190   0.1825880), wk =   0.0380952
        k(   31) = (   0.2069450  -0.4779190   0.3651760), wk =   0.0380952
        k(   32) = (   0.2069450  -0.4779190   0.5477641), wk =   0.0380952
        k(   33) = (   0.2069450  -0.2787861   0.0000000), wk =   0.0190476
        k(   34) = (   0.2069450  -0.2787861   0.1825880), wk =   0.0380952
        k(   35) = (   0.2069450  -0.2787861   0.3651760), wk =   0.0380952
        k(   36) = (   0.2069450  -0.2787861   0.5477641), wk =   0.0380952
        k(   37) = (   0.2069450  -0.0796532   0.0000000), wk =   0.0190476
        k(   38) = (   0.2069450  -0.0796532   0.1825880), wk =   0.0380952
        k(   39) = (   0.2069450  -0.0796532   0.3651760), wk =   0.0380952
        k(   40) = (   0.2069450  -0.0796532   0.5477641), wk =   0.0380952
        k(   41) = (   0.4138900   0.2389595   0.0000000), wk =   0.0190476
        k(   42) = (   0.4138900   0.2389595   0.1825880), wk =   0.0380952
        k(   43) = (   0.4138900   0.2389595   0.3651760), wk =   0.0380952
        k(   44) = (   0.4138900   0.2389595   0.5477641), wk =   0.0380952
        k(   45) = (   0.4138900   0.4380924   0.0000000), wk =   0.0190476
        k(   46) = (   0.4138900   0.4380924   0.1825880), wk =   0.0380952
        k(   47) = (   0.4138900   0.4380924   0.3651760), wk =   0.0380952
        k(   48) = (   0.4138900   0.4380924   0.5477641), wk =   0.0380952
        k(   49) = (   0.4138900   0.6372253   0.0000000), wk =   0.0190476
        k(   50) = (   0.4138900   0.6372253   0.1825880), wk =   0.0380952
        k(   51) = (   0.4138900   0.6372253   0.3651760), wk =   0.0380952
        k(   52) = (   0.4138900   0.6372253   0.5477641), wk =   0.0380952
        k(   53) = (   0.4138900  -0.3584392   0.0000000), wk =   0.0190476
        k(   54) = (   0.4138900  -0.3584392   0.1825880), wk =   0.0380952
        k(   55) = (   0.4138900  -0.3584392   0.3651760), wk =   0.0380952
        k(   56) = (   0.4138900  -0.3584392   0.5477641), wk =   0.0380952
        k(   57) = (   0.4138900  -0.1593063   0.0000000), wk =   0.0190476
        k(   58) = (   0.4138900  -0.1593063   0.1825880), wk =   0.0380952
        k(   59) = (   0.4138900  -0.1593063   0.3651760), wk =   0.0380952
        k(   60) = (   0.4138900  -0.1593063   0.5477641), wk =   0.0380952
        k(   61) = (   0.4138900   0.0398266   0.0000000), wk =   0.0190476
        k(   62) = (   0.4138900   0.0398266   0.1825880), wk =   0.0380952
        k(   63) = (   0.4138900   0.0398266   0.3651760), wk =   0.0380952
        k(   64) = (   0.4138900   0.0398266   0.5477641), wk =   0.0380952

     Largest allocated arrays     est. size (Mb)     dimensions
     Largest temporary arrays     est. size (Mb)     dimensions

     Initial potential from superposition of free atoms

     Starting from uniform charge
     Starting wfc are    0 randomized atomic wfcs

     Writing output data file Prototype-La-hP8-Mg3Cd.save

     Self-consistent Calculation

[...]

     iteration #  8     ecut=    40.00 Ry     beta=0.70
     CG style diagonalization
     c_bands:  1 eigenvalues not converged
     c_bands:  1 eigenvalues not converged
     c_bands:  2 eigenvalues not converged
     c_bands:  1 eigenvalues not converged
     c_bands:  1 eigenvalues not converged
     c_bands:  1 eigenvalues not converged
     c_bands:  1 eigenvalues not converged
     ethr =  4.95E-06,  avg # of iterations =  4.4

[...]

     total energy              =   -1509.82441464 Ry
     Harris-Foulkes estimate   =   -1509.82442481 Ry
     estimated scf accuracy    <       0.00002498 Ry

     iteration # 12     ecut=    40.00 Ry     beta=0.70
     CG style diagonalization
     ethr =  1.78E-08,  avg # of iterations =  3.3

     End of self-consistent calculation

[...]

          k = 0.4139 0.0398 0.5478 (  4685 PWs)   bands (ev):

   -51.9456 -51.9447 -39.9498 -39.9316 -39.9102 -39.9003 -39.8908 -39.8836
   -20.2663 -20.2651 -20.2609 -20.2591 -20.2560 -20.2524 -12.9733 -12.9664
   -12.9269 -12.9085 -12.8490 -12.8252 -12.6705 -12.6135 -12.5581 -12.5513
   -12.5057 -12.4636 -12.4196 -12.4104 -12.3992 -12.3666 -12.3413 -12.3358
    16.1992  16.2456  16.3944  16.4387  16.6087  16.7080  16.8446  16.9281
    16.9412  17.0170  17.2685  17.4013  17.6946  18.0482  18.1053  18.2858
    18.6782  18.7541  19.1114  19.1724  19.3944  19.4852  19.8169  19.8479
    20.0129  20.1215  20.1777  20.4643  20.7257  20.8448  20.8867  21.2000
    21.6215  21.9552  22.1682  22.2089  22.4090  22.5741  22.7476  22.9999
    23.1338  23.4732  23.5735  24.0801  24.7327  25.1507  27.3902  27.6810
    30.1616  30.4338  31.7272  32.0236

     the Fermi energy is    22.7955 ev

!    total energy              =   -1509.82441826 Ry
     Harris-Foulkes estimate   =   -1509.82441866 Ry
     estimated scf accuracy    <       0.00000046 Ry

     The total energy is the sum of the following terms:

     one-electron contribution =    -171.54093189 Ry
     hartree contribution      =     188.25974766 Ry
     xc contribution           =    -152.63610446 Ry
     ewald contribution        =   -1373.34851789 Ry
     smearing contrib. (-TS)   =      -0.55861167 Ry

     convergence has been achieved in  12 iterations

     Forces acting on atoms (Ry/au):

     atom    1 type  1   force =     0.00714526    0.00412532    0.00000000
     atom    2 type  1   force =     0.00714526   -0.00412532    0.00000000
     atom    3 type  1   force =    -0.00714526   -0.00412532    0.00000000
     atom    4 type  1   force =    -0.00714526    0.00412532    0.00000000
     atom    5 type  1   force =     0.00000000   -0.00825063    0.00000000
     atom    6 type  1   force =     0.00000000    0.00825063    0.00000000
     atom    7 type  2   force =     0.00000000    0.00000000    0.00000000
     atom    8 type  2   force =     0.00000000    0.00000000    0.00000000

     Total force =     0.020210     Total SCF correction =     0.000000

     entering subroutine stress ...

          total   stress  (Ry/bohr**3)                   (kbar)     P= -360.57
  -0.00250687   0.00000000   0.00000000       -368.77      0.00      0.00
   0.00000000  -0.00250687   0.00000000          0.00   -368.77      0.00
   0.00000000   0.00000000  -0.00233949          0.00      0.00   -344.15

     Writing output data file Prototype-La-hP8-Mg3Cd.save

     General routines

     Parallel routines

   This run was terminated on:  21:56:17  22Mar2018

   JOB DONE.