     Program PWSCF v.5.0.2 starts on 22Mar2018 at 22:49: 1

     Current dimensions of program PWSCF are:
     Max number of different atomic species (ntypx) = 10
     Max number of k-points (npk) =  40000
     Max angular momentum in pseudopotentials (lmaxx) =  3
     Waiting for input...
     Reading input from standard input

     Subspace diagonalization in iterative solution of the eigenvalue problem:
     a serial algorithm will be used

     bravais-lattice index     =            0
     lattice parameter (alat)  =       8.5346  a.u.
     unit-cell volume          =     621.6493 (a.u.)^3
     number of atoms/cell      =            8
     number of atomic types    =            2
     number of electrons       =       146.00
     number of Kohn-Sham states=           88
     kinetic-energy cutoff     =      40.0000  Ry
     charge density cutoff     =     160.0000  Ry
     convergence threshold     =      1.0E-04
     mixing beta               =       0.7000
     number of iterations used =            8  plain     mixing
     Exchange-correlation      = SLA-PZ-NOGX-NOGC ( 1 1 0 0 0)
     EXX-fraction              =        0.00
     nstep                     =           50

     celldm(1)=   8.534573  celldm(2)=   0.000000  celldm(3)=   0.000000
     celldm(4)=   0.000000  celldm(5)=   0.000000  celldm(6)=   0.000000

     crystal axes: (cart. coord. in units of alat)
               a(1) = (   1.000000   0.000000   0.000000 )
               a(2) = (   0.000000   1.000000   0.000000 )
               a(3) = (   0.000000   0.000000   1.000000 )

     reciprocal axes: (cart. coord. in units 2 pi/alat)
               b(1) = (  1.000000  0.000000  0.000000 )
               b(2) = (  0.000000  1.000000  0.000000 )
               b(3) = (  0.000000  0.000000  1.000000 )

     PseudoPot. # 1 for Gd read from file:
     /home/cwx6513/pp.La/Gd.UPF
     MD5 check sum: 09a8be538722f05520810cb6aac0efd2
     Pseudo is Norm-conserving, Zval = 18.0
     Generated in analytical, separable form
     Using radial grid of 1263 points,  6 beta functions with:
                l(1) =   0
                l(2) =   0
                l(3) =   1
                l(4) =   1
                l(5) =   2
                l(6) =   3

     PseudoPot. # 2 for Tb read from file:
     /home/cwx6513/pp.La/Tb.UPF
     MD5 check sum: 3d6088a3f0cf7fd2e110c43f7f8e95c2
     Pseudo is Norm-conserving, Zval = 19.0
     Generated in analytical, separable form
     Using radial grid of 1263 points,  6 beta functions with:
                l(1) =   0
                l(2) =   0
                l(3) =   1
                l(4) =   1
                l(5) =   2
                l(6) =   3

     atomic species   valence    mass     pseudopotential
        Cr            18.00    51.99610     Gd( 1.00)
        Si            19.00    28.08550     Tb( 1.00)

     48 Sym. Ops., with inversion, found (24 have fractional translation)

   Cartesian axes

     site n.     atom                  positions (alat units)
         1           Cr  tau(   1) = (   0.0000000   0.5000000   0.2500000  )
         2           Cr  tau(   2) = (   0.0000000   0.5000000   0.7500000  )
         3           Cr  tau(   3) = (   0.5000000   0.7500000   0.0000000  )
         4           Cr  tau(   4) = (   0.5000000   0.2500000   0.0000000  )
         5           Cr  tau(   5) = (   0.7500000   0.0000000   0.5000000  )
         6           Cr  tau(   6) = (   0.2500000   0.0000000   0.5000000  )
         7           Si  tau(   7) = (   0.5000000   0.5000000   0.5000000  )
         8           Si  tau(   8) = (   0.0000000   0.0000000   0.0000000  )

     number of k points=    48  gaussian smearing, width (Ry)=  0.1000
                       cart. coord. in units 2pi/alat
        k(    1) = (   0.0000000   0.0000000   0.0000000), wk =   0.0095238
        k(    2) = (   0.0000000   0.0000000   0.1428571), wk =   0.0190476
        k(    3) = (   0.0000000   0.0000000   0.2857143), wk =   0.0190476
        k(    4) = (   0.0000000   0.0000000   0.4285714), wk =   0.0190476
        k(    5) = (   0.0000000   0.1666667   0.0000000), wk =   0.0190476
        k(    6) = (   0.0000000   0.1666667   0.1428571), wk =   0.0380952
        k(    7) = (   0.0000000   0.1666667   0.2857143), wk =   0.0380952
        k(    8) = (   0.0000000   0.1666667   0.4285714), wk =   0.0380952
        k(    9) = (   0.0000000   0.3333333   0.0000000), wk =   0.0190476
        k(   10) = (   0.0000000   0.3333333   0.1428571), wk =   0.0380952
        k(   11) = (   0.0000000   0.3333333   0.2857143), wk =   0.0380952
        k(   12) = (   0.0000000   0.3333333   0.4285714), wk =   0.0380952
        k(   13) = (   0.0000000  -0.5000000   0.0000000), wk =   0.0095238
        k(   14) = (   0.0000000  -0.5000000   0.1428571), wk =   0.0190476
        k(   15) = (   0.0000000  -0.5000000   0.2857143), wk =   0.0190476
        k(   16) = (   0.0000000  -0.5000000   0.4285714), wk =   0.0190476
        k(   17) = (   0.2000000   0.0000000   0.0000000), wk =   0.0190476
        k(   18) = (   0.2000000   0.0000000   0.1428571), wk =   0.0380952
        k(   19) = (   0.2000000   0.0000000   0.2857143), wk =   0.0380952
        k(   20) = (   0.2000000   0.0000000   0.4285714), wk =   0.0380952
        k(   21) = (   0.2000000   0.1666667   0.0000000), wk =   0.0380952
        k(   22) = (   0.2000000   0.1666667   0.1428571), wk =   0.0761905
        k(   23) = (   0.2000000   0.1666667   0.2857143), wk =   0.0761905
        k(   24) = (   0.2000000   0.1666667   0.4285714), wk =   0.0761905
        k(   25) = (   0.2000000   0.3333333   0.0000000), wk =   0.0380952
        k(   26) = (   0.2000000   0.3333333   0.1428571), wk =   0.0761905
        k(   27) = (   0.2000000   0.3333333   0.2857143), wk =   0.0761905
        k(   28) = (   0.2000000   0.3333333   0.4285714), wk =   0.0761905
        k(   29) = (   0.2000000  -0.5000000   0.0000000), wk =   0.0190476
        k(   30) = (   0.2000000  -0.5000000   0.1428571), wk =   0.0380952
        k(   31) = (   0.2000000  -0.5000000   0.2857143), wk =   0.0380952
        k(   32) = (   0.2000000  -0.5000000   0.4285714), wk =   0.0380952
        k(   33) = (   0.4000000   0.0000000   0.0000000), wk =   0.0190476
        k(   34) = (   0.4000000   0.0000000   0.1428571), wk =   0.0380952
        k(   35) = (   0.4000000   0.0000000   0.2857143), wk =   0.0380952
        k(   36) = (   0.4000000   0.0000000   0.4285714), wk =   0.0380952
        k(   37) = (   0.4000000   0.1666667   0.0000000), wk =   0.0380952
        k(   38) = (   0.4000000   0.1666667   0.1428571), wk =   0.0761905
        k(   39) = (   0.4000000   0.1666667   0.2857143), wk =   0.0761905
        k(   40) = (   0.4000000   0.1666667   0.4285714), wk =   0.0761905
        k(   41) = (   0.4000000   0.3333333   0.0000000), wk =   0.0380952
        k(   42) = (   0.4000000   0.3333333   0.1428571), wk =   0.0761905
        k(   43) = (   0.4000000   0.3333333   0.2857143), wk =   0.0761905
        k(   44) = (   0.4000000   0.3333333   0.4285714), wk =   0.0761905
        k(   45) = (   0.4000000  -0.5000000   0.0000000), wk =   0.0190476
        k(   46) = (   0.4000000  -0.5000000   0.1428571), wk =   0.0380952
        k(   47) = (   0.4000000  -0.5000000   0.2857143), wk =   0.0380952
        k(   48) = (   0.4000000  -0.5000000   0.4285714), wk =   0.0380952

     Largest allocated arrays     est. size (Mb)     dimensions
     Largest temporary arrays     est. size (Mb)     dimensions

     Initial potential from superposition of free atoms

     Starting from uniform charge
     Starting wfc are    0 randomized atomic wfcs

     Self-consistent Calculation

     iteration #  1     ecut=    40.00 Ry     beta=0.70
     CG style diagonalization
     c_bands:  3 eigenvalues not converged
     c_bands:  3 eigenvalues not converged
     c_bands:  4 eigenvalues not converged
     c_bands:  3 eigenvalues not converged
     c_bands:  3 eigenvalues not converged
     c_bands:  3 eigenvalues not converged
     c_bands:  5 eigenvalues not converged
     c_bands:  4 eigenvalues not converged
     c_bands:  2 eigenvalues not converged
     c_bands:  2 eigenvalues not converged
     c_bands:  2 eigenvalues not converged
     c_bands:  1 eigenvalues not converged
     c_bands:  2 eigenvalues not converged
     c_bands:  2 eigenvalues not converged
     c_bands:  1 eigenvalues not converged
     c_bands:  3 eigenvalues not converged
     c_bands:  2 eigenvalues not converged
     c_bands:  4 eigenvalues not converged
     c_bands:  5 eigenvalues not converged
     c_bands:  2 eigenvalues not converged
     c_bands:  5 eigenvalues not converged
     c_bands:  4 eigenvalues not converged
     c_bands:  3 eigenvalues not converged
     c_bands:  2 eigenvalues not converged
     c_bands:  5 eigenvalues not converged
     c_bands:  2 eigenvalues not converged
     c_bands:  2 eigenvalues not converged
     c_bands:  2 eigenvalues not converged
     c_bands:  4 eigenvalues not converged
     c_bands:  3 eigenvalues not converged
     c_bands:  2 eigenvalues not converged
     c_bands:  2 eigenvalues not converged
     c_bands:  4 eigenvalues not converged
     c_bands:  4 eigenvalues not converged
     c_bands:  3 eigenvalues not converged
     c_bands:  1 eigenvalues not converged
     c_bands:  1 eigenvalues not converged
     c_bands:  3 eigenvalues not converged
     c_bands:  1 eigenvalues not converged
     c_bands:  5 eigenvalues not converged
     c_bands:  1 eigenvalues not converged
     c_bands:  1 eigenvalues not converged
     ethr =  1.00E-02,  avg # of iterations = 11.6

     total energy              =   -1582.33277247 Ry
     Harris-Foulkes estimate   =   -1826.14973646 Ry
     estimated scf accuracy    <     325.47758518 Ry

     iteration #  2     ecut=    40.00 Ry     beta=0.70
     CG style diagonalization
     ethr =  1.00E-02,  avg # of iterations =  6.7

[...]

     End of self-consistent calculation

          k = 0.0000 0.0000 0.0000 (  2601 PWs)   bands (ev):

   -32.3426 -32.3266 -25.8315 -25.5281 -25.5281 -24.5380 -24.5380 -24.5380
    -1.5760  -1.5760  -1.5760  -1.3290  -1.3290  -1.3290  -0.0777  -0.0777
     0.4856   2.9845   2.9845   2.9845   3.7763   3.7763   3.7763   4.1905
     4.1905   4.1905   4.2763   4.2763   4.2763   6.1202   6.1202   6.1202
    31.3011  31.3011  31.9244  31.9832  31.9832  31.9831  33.2828  33.4674
    33.4674  33.4674  34.0256  34.1553  34.9221  34.9221  34.9825  34.9825
    35.1038  35.1038  35.1038  35.5046  35.5046  35.5046  39.6666  39.6666
    39.6666  40.2923  40.2923  40.3068  40.3068  40.3068  40.3634  40.3634
    40.3634  42.9188  42.9188  44.0970  44.0970  44.0970  45.5129  45.5129
    45.5129  49.7318  49.7318  49.7318  50.1019  51.5665  51.5667  51.5663
    52.7610  52.7611  53.5052  53.5051  53.5053  54.4405  56.6561  56.7138

[...]

     the Fermi energy is    45.6946 ev

!    total energy              =   -1661.03308376 Ry
     Harris-Foulkes estimate   =   -1661.03312439 Ry
     estimated scf accuracy    <       0.00005442 Ry

     The total energy is the sum of the following terms:

[...]

[...]

     enthalpy old            =   -1661.0330837640 Ry
     enthalpy new            =   -1664.1510836265 Ry

     CASE: enthalpy_new < enthalpy_old

     small trust_radius: resetting bfgs history

     new trust radius        =       0.4642053680 bohr
     new conv_thr            =       0.0000010000 Ry

[...]

     number of scf cycles    =   3
     number of bfgs steps    =   2

     enthalpy old            =   -1664.1510836264 Ry
     enthalpy new            =   -1663.5746377638 Ry

     CASE: enthalpy_new > enthalpy_old

     new trust radius        =       0.1275479028 bohr

     trust_radius < trust_radius_min

     resetting bfgs history

     Message from routine bfgs:
     history already reset at previous step: stopping
     new conv_thr            =       0.0000010000 Ry

     new unit-cell volume =   1027.61603 a.u.^3 (   152.27698 Ang^3 )

[...]

ATOMIC_POSITIONS (crystal)
Cr       0.000000000   0.500000000   0.250000000
Cr       0.000000000   0.500000000   0.750000000
Cr       0.500000000   0.750000000   0.000000000
Cr       0.500000000   0.250000000   0.000000000
Cr       0.750000000   0.000000000   0.500000000
Cr       0.250000000   0.000000000   0.500000000
Si       0.500000000   0.500000000   0.500000000
Si       0.000000000   0.000000000   0.000000000

     Writing output data file Prototype-La-cP8-Cr3Si.save
     NEW-OLD atomic charge density approx. for the potential
     NEW k-points:
        k(    1) = (   0.0000000   0.0000000   0.0000000), wk =   0.0095238
        k(    2) = (   0.0000000   0.0000000   0.1208204), wk =   0.0190476
        k(    3) = (   0.0000000   0.0000000   0.2416407), wk =   0.0190476
        k(    4) = (   0.0000000   0.0000000   0.3624611), wk =   0.0190476
        k(    5) = (   0.0000000   0.1409571   0.0000000), wk =   0.0190476
        k(    6) = (   0.0000000   0.1409571   0.1208204), wk =   0.0380952
        k(    7) = (   0.0000000   0.1409571   0.2416407), wk =   0.0380952
        k(    8) = (   0.0000000   0.1409571   0.3624611), wk =   0.0380952
        k(    9) = (   0.0000000   0.2819142   0.0000000), wk =   0.0190476
        k(   10) = (   0.0000000   0.2819142   0.1208204), wk =   0.0380952
        k(   11) = (   0.0000000   0.2819142   0.2416407), wk =   0.0380952
        k(   12) = (   0.0000000   0.2819142   0.3624611), wk =   0.0380952
        k(   13) = (   0.0000000  -0.4228713   0.0000000), wk =   0.0095238
        k(   14) = (   0.0000000  -0.4228713   0.1208204), wk =   0.0190476
        k(   15) = (   0.0000000  -0.4228713   0.2416407), wk =   0.0190476
        k(   16) = (   0.0000000  -0.4228713   0.3624611), wk =   0.0190476
        k(   17) = (   0.1691485   0.0000000   0.0000000), wk =   0.0190476
        k(   18) = (   0.1691485   0.0000000   0.1208204), wk =   0.0380952
        k(   19) = (   0.1691485   0.0000000   0.2416407), wk =   0.0380952
        k(   20) = (   0.1691485   0.0000000   0.3624611), wk =   0.0380952
        k(   21) = (   0.1691485   0.1409571   0.0000000), wk =   0.0380952
        k(   22) = (   0.1691485   0.1409571   0.1208204), wk =   0.0761905
        k(   23) = (   0.1691485   0.1409571   0.2416407), wk =   0.0761905
        k(   24) = (   0.1691485   0.1409571   0.3624611), wk =   0.0761905
        k(   25) = (   0.1691485   0.2819142   0.0000000), wk =   0.0380952
        k(   26) = (   0.1691485   0.2819142   0.1208204), wk =   0.0761905
        k(   27) = (   0.1691485   0.2819142   0.2416407), wk =   0.0761905
        k(   28) = (   0.1691485   0.2819142   0.3624611), wk =   0.0761905
        k(   29) = (   0.1691485  -0.4228713   0.0000000), wk =   0.0190476
        k(   30) = (   0.1691485  -0.4228713   0.1208204), wk =   0.0380952
        k(   31) = (   0.1691485  -0.4228713   0.2416407), wk =   0.0380952
        k(   32) = (   0.1691485  -0.4228713   0.3624611), wk =   0.0380952
        k(   33) = (   0.3382970   0.0000000   0.0000000), wk =   0.0190476
        k(   34) = (   0.3382970   0.0000000   0.1208204), wk =   0.0380952
        k(   35) = (   0.3382970   0.0000000   0.2416407), wk =   0.0380952
        k(   36) = (   0.3382970   0.0000000   0.3624611), wk =   0.0380952
        k(   37) = (   0.3382970   0.1409571   0.0000000), wk =   0.0380952
        k(   38) = (   0.3382970   0.1409571   0.1208204), wk =   0.0761905
        k(   39) = (   0.3382970   0.1409571   0.2416407), wk =   0.0761905
        k(   40) = (   0.3382970   0.1409571   0.3624611), wk =   0.0761905
        k(   41) = (   0.3382970   0.2819142   0.0000000), wk =   0.0380952
        k(   42) = (   0.3382970   0.2819142   0.1208204), wk =   0.0761905
        k(   43) = (   0.3382970   0.2819142   0.2416407), wk =   0.0761905
        k(   44) = (   0.3382970   0.2819142   0.3624611), wk =   0.0761905
        k(   45) = (   0.3382970  -0.4228713   0.0000000), wk =   0.0190476
        k(   46) = (   0.3382970  -0.4228713   0.1208204), wk =   0.0380952
        k(   47) = (   0.3382970  -0.4228713   0.2416407), wk =   0.0380952
        k(   48) = (   0.3382970  -0.4228713   0.3624611), wk =   0.0380952

[...]

     The maximum number of steps has been reached.

     End of BFGS Geometry Optimization
Begin final coordinates
     new unit-cell volume =   1027.61603 a.u.^3 (   152.27698 Ang^3 )

CELL_PARAMETERS (alat=  8.53457320)
   1.182392908   0.000000000   0.000000000
   0.000000000   1.182392908   0.000000000
   0.000000000   0.000000000   1.182392908

ATOMIC_POSITIONS (crystal)
Cr       0.000000000   0.500000000   0.250000000
Cr       0.000000000   0.500000000   0.750000000
Cr       0.500000000   0.750000000   0.000000000
Cr       0.500000000   0.250000000   0.000000000
Cr       0.750000000   0.000000000   0.500000000
Cr       0.250000000   0.000000000   0.500000000
Si       0.500000000   0.500000000   0.500000000
Si       0.000000000   0.000000000   0.000000000
End final coordinates

     A final scf calculation at the relaxed structure.
     The G-vectors are recalculated for the final unit cell
     Results may differ from those at the preceding step.

     bravais-lattice index     =            0
     lattice parameter (alat)  =       8.5346  a.u.
     unit-cell volume          =    1027.6160 (a.u.)^3
     number of atoms/cell      =            8
     number of atomic types    =            2
     number of electrons       =       146.00
     number of Kohn-Sham states=           88
     kinetic-energy cutoff     =      40.0000  Ry
     charge density cutoff     =     160.0000  Ry
     convergence threshold     =      1.0E-06
     mixing beta               =       0.7000
     number of iterations used =            8  plain     mixing
     Exchange-correlation      = SLA-PZ-NOGX-NOGC ( 1 1 0 0 0)
     EXX-fraction              =        0.00

     celldm(1)=   8.534573  celldm(2)=   0.000000  celldm(3)=   0.000000
     celldm(4)=   0.000000  celldm(5)=   0.000000  celldm(6)=   0.000000

     crystal axes: (cart. coord. in units of alat)
               a(1) = (   1.182393   0.000000   0.000000 )
               a(2) = (   0.000000   1.182393   0.000000 )
               a(3) = (   0.000000   0.000000   1.182393 )

     reciprocal axes: (cart. coord. in units 2 pi/alat)
               b(1) = (  0.845743  0.000000  0.000000 )
               b(2) = (  0.000000  0.845743  0.000000 )
               b(3) = (  0.000000  0.000000  0.845743 )

     PseudoPot. # 1 for Gd read from file:
     /home/cwx6513/pp.La/Gd.UPF
     MD5 check sum: 09a8be538722f05520810cb6aac0efd2
     Pseudo is Norm-conserving, Zval = 18.0
     Generated in analytical, separable form
     Using radial grid of 1263 points,  6 beta functions with:
                l(1) =   0
                l(2) =   0
                l(3) =   1
                l(4) =   1
                l(5) =   2
                l(6) =   3

     PseudoPot. # 2 for Tb read from file:
     /home/cwx6513/pp.La/Tb.UPF
     MD5 check sum: 3d6088a3f0cf7fd2e110c43f7f8e95c2
     Pseudo is Norm-conserving, Zval = 19.0
     Generated in analytical, separable form
     Using radial grid of 1263 points,  6 beta functions with:
                l(1) =   0
                l(2) =   0
                l(3) =   1
                l(4) =   1
                l(5) =   2
                l(6) =   3

     atomic species   valence    mass     pseudopotential
        Cr            18.00    51.99610     Gd( 1.00)
        Si            19.00    28.08550     Tb( 1.00)

     48 Sym. Ops., with inversion, found (24 have fractional translation)

   Cartesian axes

     site n.     atom                  positions (alat units)
         1           Cr  tau(   1) = (   0.0000000   0.5911965   0.2955982  )
         2           Cr  tau(   2) = (   0.0000000   0.5911965   0.8867947  )
         3           Cr  tau(   3) = (   0.5911965   0.8867947   0.0000000  )
         4           Cr  tau(   4) = (   0.5911965   0.2955982   0.0000000  )
         5           Cr  tau(   5) = (   0.8867947   0.0000000   0.5911965  )
         6           Cr  tau(   6) = (   0.2955982   0.0000000   0.5911965  )
         7           Si  tau(   7) = (   0.5911965   0.5911965   0.5911965  )
         8           Si  tau(   8) = (   0.0000000   0.0000000   0.0000000  )

     number of k points=    48  gaussian smearing, width (Ry)=  0.1000
                       cart. coord. in units 2pi/alat
        k(    1) = (   0.0000000   0.0000000   0.0000000), wk =   0.0095238
        k(    2) = (   0.0000000   0.0000000   0.1208204), wk =   0.0190476
        k(    3) = (   0.0000000   0.0000000   0.2416407), wk =   0.0190476
        k(    4) = (   0.0000000   0.0000000   0.3624611), wk =   0.0190476
        k(    5) = (   0.0000000   0.1409571   0.0000000), wk =   0.0190476
        k(    6) = (   0.0000000   0.1409571   0.1208204), wk =   0.0380952
        k(    7) = (   0.0000000   0.1409571   0.2416407), wk =   0.0380952
        k(    8) = (   0.0000000   0.1409571   0.3624611), wk =   0.0380952
        k(    9) = (   0.0000000   0.2819142   0.0000000), wk =   0.0190476
        k(   10) = (   0.0000000   0.2819142   0.1208204), wk =   0.0380952
        k(   11) = (   0.0000000   0.2819142   0.2416407), wk =   0.0380952
        k(   12) = (   0.0000000   0.2819142   0.3624611), wk =   0.0380952
        k(   13) = (   0.0000000  -0.4228713   0.0000000), wk =   0.0095238
        k(   14) = (   0.0000000  -0.4228713   0.1208204), wk =   0.0190476
        k(   15) = (   0.0000000  -0.4228713   0.2416407), wk =   0.0190476
        k(   16) = (   0.0000000  -0.4228713   0.3624611), wk =   0.0190476
        k(   17) = (   0.1691485   0.0000000   0.0000000), wk =   0.0190476
        k(   18) = (   0.1691485   0.0000000   0.1208204), wk =   0.0380952
        k(   19) = (   0.1691485   0.0000000   0.2416407), wk =   0.0380952
        k(   20) = (   0.1691485   0.0000000   0.3624611), wk =   0.0380952
        k(   21) = (   0.1691485   0.1409571   0.0000000), wk =   0.0380952
        k(   22) = (   0.1691485   0.1409571   0.1208204), wk =   0.0761905
        k(   23) = (   0.1691485   0.1409571   0.2416407), wk =   0.0761905
        k(   24) = (   0.1691485   0.1409571   0.3624611), wk =   0.0761905
        k(   25) = (   0.1691485   0.2819142   0.0000000), wk =   0.0380952
        k(   26) = (   0.1691485   0.2819142   0.1208204), wk =   0.0761905
        k(   27) = (   0.1691485   0.2819142   0.2416407), wk =   0.0761905
        k(   28) = (   0.1691485   0.2819142   0.3624611), wk =   0.0761905
        k(   29) = (   0.1691485  -0.4228713   0.0000000), wk =   0.0190476
        k(   30) = (   0.1691485  -0.4228713   0.1208204), wk =   0.0380952
        k(   31) = (   0.1691485  -0.4228713   0.2416407), wk =   0.0380952
        k(   32) = (   0.1691485  -0.4228713   0.3624611), wk =   0.0380952
        k(   33) = (   0.3382970   0.0000000   0.0000000), wk =   0.0190476
        k(   34) = (   0.3382970   0.0000000   0.1208204), wk =   0.0380952
        k(   35) = (   0.3382970   0.0000000   0.2416407), wk =   0.0380952
        k(   36) = (   0.3382970   0.0000000   0.3624611), wk =   0.0380952
        k(   37) = (   0.3382970   0.1409571   0.0000000), wk =   0.0380952
        k(   38) = (   0.3382970   0.1409571   0.1208204), wk =   0.0761905
        k(   39) = (   0.3382970   0.1409571   0.2416407), wk =   0.0761905
        k(   40) = (   0.3382970   0.1409571   0.3624611), wk =   0.0761905
        k(   41) = (   0.3382970   0.2819142   0.0000000), wk =   0.0380952
        k(   42) = (   0.3382970   0.2819142   0.1208204), wk =   0.0761905
        k(   43) = (   0.3382970   0.2819142   0.2416407), wk =   0.0761905
        k(   44) = (   0.3382970   0.2819142   0.3624611), wk =   0.0761905
        k(   45) = (   0.3382970  -0.4228713   0.0000000), wk =   0.0190476
        k(   46) = (   0.3382970  -0.4228713   0.1208204), wk =   0.0380952
        k(   47) = (   0.3382970  -0.4228713   0.2416407), wk =   0.0380952
        k(   48) = (   0.3382970  -0.4228713   0.3624611), wk =   0.0380952

     Largest allocated arrays     est. size (Mb)     dimensions
     Largest temporary arrays     est. size (Mb)     dimensions

     Initial potential from superposition of free atoms

     Starting from uniform charge
     Starting wfc are    0 randomized atomic wfcs

     Writing output data file Prototype-La-cP8-Cr3Si.save

     Self-consistent Calculation

[...]

     iteration #  9     ecut=    40.00 Ry     beta=0.70
     CG style diagonalization
     c_bands:  1 eigenvalues not converged
     c_bands:  2 eigenvalues not converged
     c_bands:  1 eigenvalues not converged
     c_bands:  1 eigenvalues not converged
     c_bands:  2 eigenvalues not converged
     c_bands:  1 eigenvalues not converged
     ethr =  6.07E-07,  avg # of iterations =  3.6

[...]

     total energy              =   -1666.86146155 Ry
     Harris-Foulkes estimate   =   -1666.86146264 Ry
     estimated scf accuracy    <       0.00000216 Ry

     iteration # 11     ecut=    40.00 Ry     beta=0.70
     CG style diagonalization
     ethr =  1.23E-09,  avg # of iterations =  3.5

     End of self-consistent calculation

[...]

          k = 0.3383-0.4229 0.3625 (  4390 PWs)   bands (ev):

   -50.0499 -50.0498 -43.3192 -43.3122 -43.2926 -43.2926 -43.2729 -43.2658
   -18.4161 -18.4159 -18.4048 -18.4046 -18.4039 -18.4034 -14.7442 -14.6801
   -14.5151 -14.5140 -14.3632 -14.3570 -14.3516 -14.3043 -14.2374 -14.2226
   -14.1964 -14.1869 -14.1593 -14.1522 -14.1387 -14.1384 -14.1289 -14.1267
    17.5678  17.5837  17.6786  17.7230  17.8027  17.8028  17.9684  17.9779
    18.0236  18.0309  18.8287  18.8291  19.5191  19.5194  19.6634  19.8299
    19.8839  19.9145  20.1399  20.2587  20.6684  20.7072  21.1335  21.1542
    21.2360  21.2856  21.7083  21.7452  22.1395  22.3771  22.4733  22.4858
    22.6504  22.6666  22.9227  22.9236  23.0666  23.1790  23.3295  23.3557
    24.1057  24.1678  24.9495  25.1729  25.3824  25.7134  26.4115  26.5006
    33.2238  33.2441  33.8872  34.2326  34.7499  34.9572  35.9830  36.2437

     the Fermi energy is    24.7363 ev

!    total energy              =   -1666.86146180 Ry
     Harris-Foulkes estimate   =   -1666.86146187 Ry
     estimated scf accuracy    <       0.00000008 Ry

     The total energy is the sum of the following terms:

     one-electron contribution =    -191.52997529 Ry
     hartree contribution      =     212.15777636 Ry
     xc contribution           =    -164.91734827 Ry
     ewald contribution        =   -1522.22013576 Ry
     smearing contrib. (-TS)   =      -0.35177884 Ry

     convergence has been achieved in  11 iterations

     Forces acting on atoms (Ry/au):

     atom    1 type  1   force =     0.00000000    0.00000000    0.00000000
     atom    2 type  1   force =     0.00000000    0.00000000    0.00000000
     atom    3 type  1   force =     0.00000000    0.00000000    0.00000000
     atom    4 type  1   force =     0.00000000    0.00000000    0.00000000
     atom    5 type  1   force =     0.00000000    0.00000000    0.00000000
     atom    6 type  1   force =     0.00000000    0.00000000    0.00000000
     atom    7 type  2   force =     0.00000000    0.00000000    0.00000000
     atom    8 type  2   force =     0.00000000    0.00000000    0.00000000

     Total force =     0.000000     Total SCF correction =     0.000000

     entering subroutine stress ...

          total   stress  (Ry/bohr**3)                   (kbar)     P=  -60.07
  -0.00040835   0.00000000   0.00000000        -60.07      0.00      0.00
   0.00000000  -0.00040835   0.00000000          0.00    -60.07      0.00
   0.00000000   0.00000000  -0.00040835          0.00      0.00    -60.07

     Writing output data file Prototype-La-cP8-Cr3Si.save

     General routines

     Parallel routines

   This run was terminated on:  23:10:32  22Mar2018

   JOB DONE.