     Program PWSCF v.5.0.2 starts on 22Mar2018 at 22:49: 2

     Current dimensions of program PWSCF are:
     Max number of different atomic species (ntypx) = 10
     Max number of k-points (npk) =  40000
     Max angular momentum in pseudopotentials (lmaxx) =  3
     Waiting for input...
     Reading input from standard input

     Subspace diagonalization in iterative solution of the eigenvalue problem:
     a serial algorithm will be used

     bravais-lattice index     =            0
     lattice parameter (alat)  =       9.9235  a.u.
     unit-cell volume          =    1361.0366 (a.u.)^3
     number of atoms/cell      =           12
     number of atomic types    =            2
     number of electrons       =       224.00
     number of Kohn-Sham states=          134
     kinetic-energy cutoff     =      40.0000  Ry
     charge density cutoff     =     160.0000  Ry
     convergence threshold     =      1.0E-04
     mixing beta               =       0.7000
     number of iterations used =            8  plain     mixing
     Exchange-correlation      = SLA-PZ-NOGX-NOGC ( 1 1 0 0 0)
     EXX-fraction              =        0.00
     nstep                     =           50

     celldm(1)=   9.923489  celldm(2)=   0.000000  celldm(3)=   0.000000
     celldm(4)=   0.000000  celldm(5)=   0.000000  celldm(6)=   0.000000

     crystal axes: (cart. coord. in units of alat)
               a(1) = (   1.000000   0.000000   0.000000 )
               a(2) = (  -0.500000   0.866025   0.000000 )
               a(3) = (   0.000000   0.000000   1.608222 )

     reciprocal axes: (cart. coord. in units 2 pi/alat)
               b(1) = (  1.000000  0.577350  0.000000 )
               b(2) = (  0.000000  1.154701  0.000000 )
               b(3) = (  0.000000  0.000000  0.621805 )

     PseudoPot. # 1 for Gd read from file:
     /home/cwx6513/pp.La/Gd.UPF
     MD5 check sum: 09a8be538722f05520810cb6aac0efd2
     Pseudo is Norm-conserving, Zval = 18.0
     Generated in analytical, separable form
     Using radial grid of 1263 points,  6 beta functions with:
                l(1) =   0
                l(2) =   0
                l(3) =   1
                l(4) =   1
                l(5) =   2
                l(6) =   3

     PseudoPot. # 2 for Tb read from file:
     /home/cwx6513/pp.La/Tb.UPF
     MD5 check sum: 3d6088a3f0cf7fd2e110c43f7f8e95c2
     Pseudo is Norm-conserving, Zval = 19.0
     Generated in analytical, separable form
     Using radial grid of 1263 points,  6 beta functions with:
                l(1) =   0
                l(2) =   0
                l(3) =   1
                l(4) =   1
                l(5) =   2
                l(6) =   3

     atomic species   valence    mass     pseudopotential
        Mg            18.00    24.30500     Gd( 1.00)
        Zn            19.00    65.39000     Tb( 1.00)

     24 Sym. Ops., with inversion, found (12 have fractional translation)

   Cartesian axes

     site n.     atom                  positions (alat units)
         1           Mg  tau(   1) = (  -0.0000005   0.5773506   0.1003820  )
         2           Mg  tau(   2) = (   0.5000005   0.2886748   0.9044931  )
         3           Mg  tau(   3) = (   0.5000005   0.2886748   1.5078402  )
         4           Mg  tau(   4) = (  -0.0000005   0.5773506   0.7037291  )
         5           Zn  tau(   5) = (   0.0000000   0.0000000   0.0000000  )
         6           Zn  tau(   6) = (   0.0000000   0.0000000   0.8041111  )
         7           Zn  tau(   7) = (   0.0000000   0.2950739   1.2061667  )
         8           Zn  tau(   8) = (   0.7444585   0.1475370   0.4020556  )
         9           Zn  tau(   9) = (   0.2555415   0.1475370   0.4020556  )
        10           Zn  tau(  10) = (   0.2444585   0.7184884   1.2061667  )
        11           Zn  tau(  11) = (  -0.2444585   0.7184884   1.2061667  )
        12           Zn  tau(  12) = (   0.5000000   0.5709515   0.4020556  )

     number of k points=    12  gaussian smearing, width (Ry)=  0.1000
                       cart. coord. in units 2pi/alat
        k(    1) = (   0.0000000   0.0000000   0.0000000), wk =   0.0833333
        k(    2) = (   0.0000000   0.0000000   0.1554512), wk =   0.1666667
        k(    3) = (   0.0000000   0.0000000  -0.3109023), wk =   0.0833333
        k(    4) = (   0.0000000   0.3849002   0.0000000), wk =   0.1666667
        k(    5) = (   0.0000000   0.3849002   0.1554512), wk =   0.3333333
        k(    6) = (   0.0000000   0.3849002  -0.3109023), wk =   0.1666667
        k(    7) = (  -0.5000000  -0.2886751   0.0000000), wk =   0.0833333
        k(    8) = (  -0.5000000  -0.2886751   0.1554512), wk =   0.1666667
        k(    9) = (  -0.5000000  -0.2886751  -0.3109023), wk =   0.0833333
        k(   10) = (  -0.5000000   0.0962250   0.0000000), wk =   0.1666667
        k(   11) = (  -0.5000000   0.0962250   0.1554512), wk =   0.3333333
        k(   12) = (  -0.5000000   0.0962250  -0.3109023), wk =   0.1666667

     Largest allocated arrays     est. size (Mb)     dimensions
     Largest temporary arrays     est. size (Mb)     dimensions

     Initial potential from superposition of free atoms

     Starting from uniform charge
     Starting wfc are    0 randomized atomic wfcs

     Self-consistent Calculation

     iteration #  1     ecut=    40.00 Ry     beta=0.70
     CG style diagonalization
     c_bands:  1 eigenvalues not converged
     ethr =  1.00E-02,  avg # of iterations = 19.0

     total energy              =   -2129.35308998 Ry
     Harris-Foulkes estimate   =   -3163.23482784 Ry
     estimated scf accuracy    <    1281.15777529 Ry

     iteration #  2     ecut=    40.00 Ry     beta=0.70
     CG style diagonalization
     ethr =  1.00E-02,  avg # of iterations = 17.7

[...]

     End of self-consistent calculation

          k = 0.0000 0.0000 0.0000 (  5769 PWs)   bands (ev):

   -46.5580 -46.5155 -46.2801 -46.2800 -46.2766 -46.2765 -46.2298 -46.1689
   -38.5451 -38.5404 -38.5266 -38.5145 -16.5517 -16.2608 -15.7150 -15.3383
   -15.3383 -15.2803 -15.2803 -15.0981 -15.0980 -14.9060 -14.7404 -14.6747
   -14.6746 -14.5670 -14.5670 -14.2110 -14.2110 -14.2080 -14.1916 -14.1664
   -14.1245 -14.1245 -14.1221 -14.1220  -9.6692  -9.6689  -9.6350  -9.6350
    -9.6253  -9.6253  -9.5183  -9.4858  -9.4653  -9.4653  -9.4648  -9.4648
    16.8696  17.6166  18.0024  19.0428  19.0428  19.4798  19.4799  19.5643
    19.6256  19.7454  19.7454  20.2995  20.2995  20.3279  20.7559  20.9799
    20.9800  21.8415  21.8416  21.9225  22.2201  22.2202  22.7130  22.9744
    22.9744  23.1280  24.0161  24.0161  24.1625  24.1625  24.3074  24.3074
    24.4769  24.4769  24.5093  24.5770  24.5921  24.5921  24.7446  24.7877
    24.9091  24.9091  25.0281  25.0281  25.2832  25.2833  25.8358  26.2827
    26.7111  26.7111  26.7582  26.7582  27.3873  27.3873  27.5793  27.5794
    27.8756  27.8756  27.9246  28.0598  28.0598  28.4192  28.4238  30.6833
    30.7838  32.2741  32.2742  32.6281  33.4865  33.5376  33.5377  34.7576
    35.2384  35.4701  35.4702  35.6428  37.0491  37.0494  37.2773  37.2774
    37.4113  38.0545  38.0614  38.0618  38.0798  38.0799

[...]

          k =-0.5000-0.2887 0.0000 (  5800 PWs)   bands (ev):

[...]

     the Fermi energy is    29.5183 ev

!    total energy              =   -2639.19390924 Ry
     Harris-Foulkes estimate   =   -2639.19394489 Ry
     estimated scf accuracy    <       0.00003700 Ry

     The total energy is the sum of the following terms:

     one-electron contribution =    -244.52331485 Ry
     hartree contribution      =     330.94826495 Ry
     xc contribution           =    -259.89729971 Ry
     ewald contribution        =   -2465.47717812 Ry
     smearing contrib. (-TS)   =      -0.24438152 Ry

     convergence has been achieved in  10 iterations

     Forces acting on atoms (Ry/au):

     atom    1 type  1   force =     0.00000000    0.00000000    0.02850687
     atom    2 type  1   force =     0.00000000    0.00000000    0.02850687
     atom    3 type  1   force =     0.00000000    0.00000000   -0.02850687
     atom    4 type  1   force =     0.00000000    0.00000000   -0.02850687
     atom    5 type  2   force =     0.00000000    0.00000000    0.00000000
     atom    6 type  2   force =     0.00000000    0.00000000    0.00000000
     atom    7 type  2   force =     0.00000000    0.05265687    0.00000000
     atom    8 type  2   force =    -0.04560219    0.02632843    0.00000000
     atom    9 type  2   force =     0.04560219    0.02632843    0.00000000
     atom   10 type  2   force =    -0.04560219   -0.02632843    0.00000000
     atom   11 type  2   force =     0.04560219   -0.02632843    0.00000000
     atom   12 type  2   force =     0.00000000   -0.05265687    0.00000000

     Total force =     0.141021     Total SCF correction =     0.000000

     entering subroutine stress ...

          total   stress  (Ry/bohr**3)                   (kbar)     P=  456.15
   0.00306218   0.00000000   0.00000000        450.46      0.00      0.00
   0.00000000   0.00306218   0.00000000          0.00    450.46      0.00
   0.00000000   0.00000000   0.00317821          0.00      0.00    467.53

     BFGS Geometry Optimization

     number of scf cycles    =   1
     number of bfgs steps    =   0

     enthalpy new            =   -2639.1939092390 Ry

     new trust radius        =       0.5000000000 bohr
     new conv_thr            =       0.0001000000 Ry

     new unit-cell volume =   1649.23323 a.u.^3 (   244.39115 Ang^3 )

CELL_PARAMETERS (alat=  9.92348860)
   1.065291104   0.000000000   0.000000000
  -0.532645552   0.922569159   0.000000000
   0.000000000   0.000000000   1.717203317

ATOMIC_POSITIONS (crystal)
Mg       0.333333000   0.666667000   0.063941428
Mg       0.666667000   0.333333000   0.563941428
Mg       0.666667000   0.333333000   0.936058572
Mg       0.333333000   0.666667000   0.436058572
Zn       0.000000000   0.000000000   0.000000000
Zn       0.000000000   0.000000000   0.500000000
Zn       0.172973840   0.345947681   0.750000000
Zn       0.827026160   0.172973840   0.250000000
Zn       0.345947681   0.172973840   0.250000000
Zn       0.654052319   0.827026160   0.750000000
Zn       0.172973840   0.827026160   0.750000000
Zn       0.827026160   0.654052319   0.250000000

     Writing output data file Prototype-La-hP12-MgZn2.save
     NEW-OLD atomic charge density approx. for the potential
     NEW k-points:
        k(    1) = (   0.0000000   0.0000000   0.0000000), wk =   0.0833333
        k(    2) = (   0.0000000   0.0000000   0.1455856), wk =   0.1666667
        k(    3) = (   0.0000000   0.0000000  -0.2911711), wk =   0.0833333
        k(    4) = (   0.0000000   0.3613099   0.0000000), wk =   0.1666667
        k(    5) = (   0.0000000   0.3613099   0.1455856), wk =   0.3333333
        k(    6) = (   0.0000000   0.3613099  -0.2911711), wk =   0.1666667
        k(    7) = (  -0.4693553  -0.2709824   0.0000000), wk =   0.0833333
        k(    8) = (  -0.4693553  -0.2709824   0.1455856), wk =   0.1666667
        k(    9) = (  -0.4693553  -0.2709824  -0.2911711), wk =   0.0833333
        k(   10) = (  -0.4693553   0.0903275   0.0000000), wk =   0.1666667
        k(   11) = (  -0.4693553   0.0903275   0.1455856), wk =   0.3333333
        k(   12) = (  -0.4693553   0.0903275  -0.2911711), wk =   0.1666667

[...]

     enthalpy old            =   -2639.1939092390 Ry
     enthalpy new            =   -2638.9171836158 Ry

     CASE: enthalpy_new > enthalpy_old

     new trust radius        =       0.1946754493 bohr

     trust_radius < trust_radius_min

     resetting bfgs history

     new conv_thr            =       0.0001000000 Ry

[...]

     number of scf cycles    =   3
     number of bfgs steps    =   1

     enthalpy old            =   -2639.1939092390 Ry
     enthalpy new            =   -2638.9575747976 Ry

     CASE: enthalpy_new > enthalpy_old

     new trust radius        =       0.1941147897 bohr

     trust_radius < trust_radius_min

     resetting bfgs history

     Message from routine bfgs:
     history already reset at previous step: stopping
     new conv_thr            =       0.0001000000 Ry

     new unit-cell volume =   1639.40204 a.u.^3 (   242.93431 Ang^3 )

[...]

ATOMIC_POSITIONS (crystal)
Mg       0.333333000   0.666667000   0.063799184
Mg       0.666667000   0.333333000   0.563799184
Mg       0.666667000   0.333333000   0.936200816
Mg       0.333333000   0.666667000   0.436200816
Zn       0.000000000   0.000000000   0.000000000
Zn       0.000000000   0.000000000   0.500000000
Zn       0.172741892   0.345483785   0.750000000
Zn       0.827258108   0.172741892   0.250000000
Zn       0.345483785   0.172741892   0.250000000
Zn       0.654516215   0.827258108   0.750000000
Zn       0.172741892   0.827258108   0.750000000
Zn       0.827258108   0.654516215   0.250000000

     Writing output data file Prototype-La-hP12-MgZn2.save
     NEW-OLD atomic charge density approx. for the potential
     NEW k-points:
        k(    1) = (   0.0000000   0.0000000   0.0000000), wk =   0.0833333
        k(    2) = (   0.0000000   0.0000000   0.1458528), wk =   0.1666667
        k(    3) = (   0.0000000   0.0000000  -0.2917057), wk =   0.0833333
        k(    4) = (   0.0000000   0.3620594   0.0000000), wk =   0.1666667
        k(    5) = (   0.0000000   0.3620594   0.1458528), wk =   0.3333333
        k(    6) = (   0.0000000   0.3620594  -0.2917057), wk =   0.1666667
        k(    7) = (  -0.4703289  -0.2715445   0.0000000), wk =   0.0833333
        k(    8) = (  -0.4703289  -0.2715445   0.1458528), wk =   0.1666667
        k(    9) = (  -0.4703289  -0.2715445  -0.2917057), wk =   0.0833333
        k(   10) = (  -0.4703289   0.0905148   0.0000000), wk =   0.1666667
        k(   11) = (  -0.4703289   0.0905148   0.1458528), wk =   0.3333333
        k(   12) = (  -0.4703289   0.0905148  -0.2917057), wk =   0.1666667

[...]

     The maximum number of steps has been reached.

     End of BFGS Geometry Optimization
Begin final coordinates
     new unit-cell volume =   1639.40204 a.u.^3 (   242.93431 Ang^3 )

CELL_PARAMETERS (alat=  9.92348860)
   1.063085766   0.000000000   0.000000000
  -0.531542883   0.920659279   0.000000000
   0.000000000   0.000000000   1.714056398

ATOMIC_POSITIONS (crystal)
Mg       0.333333000   0.666667000   0.063799184
Mg       0.666667000   0.333333000   0.563799184
Mg       0.666667000   0.333333000   0.936200816
Mg       0.333333000   0.666667000   0.436200816
Zn       0.000000000   0.000000000   0.000000000
Zn       0.000000000   0.000000000   0.500000000
Zn       0.172741892   0.345483785   0.750000000
Zn       0.827258108   0.172741892   0.250000000
Zn       0.345483785   0.172741892   0.250000000
Zn       0.654516215   0.827258108   0.750000000
Zn       0.172741892   0.827258108   0.750000000
Zn       0.827258108   0.654516215   0.250000000
End final coordinates

     A final scf calculation at the relaxed structure.
     The G-vectors are recalculated for the final unit cell
     Results may differ from those at the preceding step.

     bravais-lattice index     =            0
     lattice parameter (alat)  =       9.9235  a.u.
     unit-cell volume          =    1639.4020 (a.u.)^3
     number of atoms/cell      =           12
     number of atomic types    =            2
     number of electrons       =       224.00
     number of Kohn-Sham states=          134
     kinetic-energy cutoff     =      40.0000  Ry
     charge density cutoff     =     160.0000  Ry
     convergence threshold     =      1.0E-04
     mixing beta               =       0.7000
     number of iterations used =            8  plain     mixing
     Exchange-correlation      = SLA-PZ-NOGX-NOGC ( 1 1 0 0 0)
     EXX-fraction              =        0.00

     celldm(1)=   9.923489  celldm(2)=   0.000000  celldm(3)=   0.000000
     celldm(4)=   0.000000  celldm(5)=   0.000000  celldm(6)=   0.000000

     crystal axes: (cart. coord. in units of alat)
               a(1) = (   1.063086   0.000000   0.000000 )
               a(2) = (  -0.531543   0.920659   0.000000 )
               a(3) = (   0.000000   0.000000   1.714056 )

     reciprocal axes: (cart. coord. in units 2 pi/alat)
               b(1) = (  0.940658  0.543089  0.000000 )
               b(2) = (  0.000000  1.086178  0.000000 )
               b(3) = (  0.000000  0.000000  0.583411 )

     PseudoPot. # 1 for Gd read from file:
     /home/cwx6513/pp.La/Gd.UPF
     MD5 check sum: 09a8be538722f05520810cb6aac0efd2
     Pseudo is Norm-conserving, Zval = 18.0
     Generated in analytical, separable form
     Using radial grid of 1263 points,  6 beta functions with:
                l(1) =   0
                l(2) =   0
                l(3) =   1
                l(4) =   1
                l(5) =   2
                l(6) =   3

     PseudoPot. # 2 for Tb read from file:
     /home/cwx6513/pp.La/Tb.UPF
     MD5 check sum: 3d6088a3f0cf7fd2e110c43f7f8e95c2
     Pseudo is Norm-conserving, Zval = 19.0
     Generated in analytical, separable form
     Using radial grid of 1263 points,  6 beta functions with:
                l(1) =   0
                l(2) =   0
                l(3) =   1
                l(4) =   1
                l(5) =   2
                l(6) =   3

     atomic species   valence    mass     pseudopotential
        Mg            18.00    24.30500     Gd( 1.00)
        Zn            19.00    65.39000     Tb( 1.00)

     24 Sym. Ops., with inversion, found (12 have fractional translation)

   Cartesian axes

     site n.     atom                  positions (alat units)
         1           Mg  tau(   1) = (  -0.0000005   0.6137732   0.1093554  )
         2           Mg  tau(   2) = (   0.5315434   0.3068861   0.9663836  )
         3           Mg  tau(   3) = (   0.5315434   0.3068861   1.6047010  )
         4           Mg  tau(   4) = (  -0.0000005   0.6137732   0.7476728  )
         5           Zn  tau(   5) = (   0.0000000   0.0000000   0.0000000  )
         6           Zn  tau(   6) = (   0.0000000   0.0000000   0.8570282  )
         7           Zn  tau(   7) = (   0.0000000   0.3180729   1.2855423  )
         8           Zn  tau(   8) = (   0.7876266   0.1590364   0.4285141  )
         9           Zn  tau(   9) = (   0.2754592   0.1590364   0.4285141  )
        10           Zn  tau(  10) = (   0.2560837   0.7616229   1.2855423  )
        11           Zn  tau(  11) = (  -0.2560837   0.7616229   1.2855423  )
        12           Zn  tau(  12) = (   0.5315429   0.6025864   0.4285141  )

     number of k points=    12  gaussian smearing, width (Ry)=  0.1000
                       cart. coord. in units 2pi/alat
        k(    1) = (   0.0000000   0.0000000   0.0000000), wk =   0.0833333
        k(    2) = (   0.0000000   0.0000000   0.1458528), wk =   0.1666667
        k(    3) = (   0.0000000   0.0000000  -0.2917057), wk =   0.0833333
        k(    4) = (   0.0000000   0.3620594   0.0000000), wk =   0.1666667
        k(    5) = (   0.0000000   0.3620594   0.1458528), wk =   0.3333333
        k(    6) = (   0.0000000   0.3620594  -0.2917057), wk =   0.1666667
        k(    7) = (  -0.4703289  -0.2715445   0.0000000), wk =   0.0833333
        k(    8) = (  -0.4703289  -0.2715445   0.1458528), wk =   0.1666667
        k(    9) = (  -0.4703289  -0.2715445  -0.2917057), wk =   0.0833333
        k(   10) = (  -0.4703289   0.0905148   0.0000000), wk =   0.1666667
        k(   11) = (  -0.4703289   0.0905148   0.1458528), wk =   0.3333333
        k(   12) = (  -0.4703289   0.0905148  -0.2917057), wk =   0.1666667

     Largest allocated arrays     est. size (Mb)     dimensions
     Largest temporary arrays     est. size (Mb)     dimensions

     Initial potential from superposition of free atoms

     Starting from uniform charge
     Starting wfc are    0 randomized atomic wfcs

     Writing output data file Prototype-La-hP12-MgZn2.save

     Self-consistent Calculation

[...]

     iteration #  6     ecut=    40.00 Ry     beta=0.70
     CG style diagonalization
     ethr =  1.81E-03,  avg # of iterations =  3.7

[...]

     total energy              =   -2640.57451830 Ry
     Harris-Foulkes estimate   =   -2640.57471249 Ry
     estimated scf accuracy    <       0.00038464 Ry

     iteration # 10     ecut=    40.00 Ry     beta=0.70
     CG style diagonalization
     c_bands:  1 eigenvalues not converged
     ethr =  1.72E-07,  avg # of iterations =  3.6

     End of self-consistent calculation

[...]

          k = 0.0000 0.3621-0.2917 (  6996 PWs)   bands (ev):

[...]

          k =-0.4703 0.0905-0.2917 (  7010 PWs)   bands (ev):

   -51.7512 -51.7512 -51.7010 -51.7009 -51.6592 -51.6592 -51.5729 -51.5729
   -44.2361 -44.2360 -44.2308 -44.2306 -20.7243 -20.7243 -20.4630 -20.4630
   -20.2357 -20.2357 -20.1788 -20.1788 -20.1457 -20.1457 -20.0899 -20.0899
   -19.9724 -19.9724 -19.8888 -19.8888 -19.8004 -19.8004 -19.7480 -19.7480
   -19.7250 -19.7250 -19.7111 -19.7111 -15.2454 -15.2453 -15.2213 -15.2212
   -15.1994 -15.1994 -15.1726 -15.1725 -15.1546 -15.1546 -15.1456 -15.1456
    14.4647  14.4647  15.2103  15.2103  15.5481  15.5481  15.8346  15.8346
    15.8763  15.8763  15.9863  15.9863  16.4511  16.4511  16.5490  16.5490
    16.7134  16.7134  16.9642  16.9642  17.1930  17.1930  17.4257  17.4258
    17.6245  17.6245  17.7885  17.7885  18.1037  18.1037  18.4597  18.4597
    18.5894  18.5894  18.7145  18.7145  18.9869  18.9869  19.2319  19.2319
    19.5991  19.5991  20.1467  20.1467  20.1848  20.1849  20.2570  20.2570
    20.5541  20.5541  20.7533  20.7534  20.9414  20.9414  21.1412  21.1413
    21.4616  21.4616  21.6087  21.6087  21.7042  21.7042  22.0711  22.0711
    23.1503  23.1503  24.8111  24.8111  26.5829  26.5829  27.1940  27.1940
    28.3110  28.3110  29.2433  29.2433  30.9215  30.9215  31.7607  31.7608
    32.1878  32.1879  32.6562  32.6563  32.9354  32.9355

     the Fermi energy is    23.2362 ev

!    total energy              =   -2640.57459138 Ry
     Harris-Foulkes estimate   =   -2640.57463129 Ry
     estimated scf accuracy    <       0.00004457 Ry

     The total energy is the sum of the following terms:

     one-electron contribution =    -456.87358141 Ry
     hartree contribution      =     391.77778488 Ry
     xc contribution           =    -256.70921399 Ry
     ewald contribution        =   -2318.45376642 Ry
     smearing contrib. (-TS)   =      -0.31581442 Ry

     convergence has been achieved in  10 iterations

     Forces acting on atoms (Ry/au):

     atom    1 type  1   force =     0.00000000    0.00000000   -0.00952059
     atom    2 type  1   force =     0.00000000    0.00000000   -0.00952059
     atom    3 type  1   force =     0.00000000    0.00000000    0.00952059
     atom    4 type  1   force =     0.00000000    0.00000000    0.00952059
     atom    5 type  2   force =     0.00000000    0.00000000    0.00000000
     atom    6 type  2   force =     0.00000000    0.00000000    0.00000000
     atom    7 type  2   force =     0.00000000   -0.02611454    0.00000000
     atom    8 type  2   force =     0.02261585   -0.01305727    0.00000000
     atom    9 type  2   force =    -0.02261585   -0.01305727    0.00000000
     atom   10 type  2   force =     0.02261585    0.01305727    0.00000000
     atom   11 type  2   force =    -0.02261585    0.01305727    0.00000000
     atom   12 type  2   force =     0.00000000    0.02611454    0.00000000

     Total force =     0.066741     Total SCF correction =     0.000000

     entering subroutine stress ...

          total   stress  (Ry/bohr**3)                   (kbar)     P= -242.82
  -0.00157739   0.00000000   0.00000000       -232.04      0.00      0.00
   0.00000000  -0.00157739   0.00000000          0.00   -232.04      0.00
   0.00000000   0.00000000  -0.00179714          0.00      0.00   -264.37

     Writing output data file Prototype-La-hP12-MgZn2.save

     General routines

     Parallel routines

   This run was terminated on:  23:15: 4  22Mar2018

   JOB DONE.