     Program PWSCF v.5.0.2 starts on 22Mar2018 at 16: 5:53

     Current dimensions of program PWSCF are:
     Max number of different atomic species (ntypx) = 10
     Max number of k-points (npk) =  40000
     Max angular momentum in pseudopotentials (lmaxx) =  3
     Waiting for input...
     Reading input from standard input

     Subspace diagonalization in iterative solution of the eigenvalue problem:
     a serial algorithm will be used

     bravais-lattice index     =            0
     lattice parameter (alat)  =      12.0168  a.u.
     unit-cell volume          =    1187.3413 (a.u.)^3
     number of atoms/cell      =            8
     number of atomic types    =            2
     number of electrons       =       180.00
     number of Kohn-Sham states=          108
     kinetic-energy cutoff     =      40.0000  Ry
     charge density cutoff     =     160.0000  Ry
     convergence threshold     =      1.0E-04
     mixing beta               =       0.7000
     number of iterations used =            8  plain     mixing
     Exchange-correlation      = SLA-PZ-NOGX-NOGC ( 1 1 0 0 0)
     EXX-fraction              =        0.00
     nstep                     =           50

     celldm(1)=  12.016801  celldm(2)=   0.000000  celldm(3)=   0.000000
     celldm(4)=   0.000000  celldm(5)=   0.000000  celldm(6)=   0.000000

     crystal axes: (cart. coord. in units of alat)
               a(1) = (   1.000000   0.000000   0.000000 )
               a(2) = (  -0.500000   0.866025   0.000000 )
               a(3) = (   0.000000   0.000000   0.790093 )

     reciprocal axes: (cart. coord. in units 2 pi/alat)
               b(1) = (  1.000000  0.577350  0.000000 )
               b(2) = (  0.000000  1.154701  0.000000 )
               b(3) = (  0.000000  0.000000  1.265674 )

     PseudoPot. # 1 for Tm read from file:
     /home/cwx6513/pp.La/Tm.UPF
     MD5 check sum: 245516e0878b5372ceeb9443ded2c4e1
     Pseudo is Norm-conserving, Zval = 23.0
     Generated in analytical, separable form
     Using radial grid of 1269 points,  6 beta functions with:
                l(1) =   0
                l(2) =   0
                l(3) =   1
                l(4) =   1
                l(5) =   2
                l(6) =   3

     PseudoPot. # 2 for Ho read from file:
     /home/cwx6513/pp.La/Ho.UPF
     MD5 check sum: f307ee11bce99f5b724fa279e3790763
     Pseudo is Norm-conserving, Zval = 21.0
     Generated in analytical, separable form
     Using radial grid of 1265 points,  6 beta functions with:
                l(1) =   0
                l(2) =   0
                l(3) =   1
                l(4) =   1
                l(5) =   2
                l(6) =   3

     atomic species   valence    mass     pseudopotential
        Mg            23.00    24.30500     Tm( 1.00)
        Cd            21.00   112.41100     Ho( 1.00)

     24 Sym. Ops., with inversion, found (12 have fractional translation)

   Cartesian axes

     site n.     atom                  positions (alat units)
         1           Mg  tau(   1) = (   0.2478935   0.7204716   0.1975233  )
         2           Mg  tau(   2) = (   0.7478935   0.1455538   0.5925699  )
         3           Mg  tau(   3) = (   0.2521065   0.1455538   0.5925699  )
         4           Mg  tau(   4) = (  -0.2478935   0.7204716   0.1975233  )
         5           Mg  tau(   5) = (   0.0000000   0.2911075   0.1975233  )
         6           Mg  tau(   6) = (   0.5000000   0.5749179   0.5925699  )
         7           Cd  tau(   7) = (   0.5000005   0.2886748   0.1975233  )
         8           Cd  tau(   8) = (  -0.0000005   0.5773506   0.5925699  )

     number of k points=    64  gaussian smearing, width (Ry)=  0.1000
                       cart. coord. in units 2pi/alat
        k(    1) = (   0.0000000   0.0000000   0.0000000), wk =   0.0095238
        k(    2) = (   0.0000000   0.0000000   0.1808105), wk =   0.0190476
        k(    3) = (   0.0000000   0.0000000   0.3616210), wk =   0.0190476
        k(    4) = (   0.0000000   0.0000000   0.5424315), wk =   0.0190476
        k(    5) = (   0.0000000   0.1924501   0.0000000), wk =   0.0190476
        k(    6) = (   0.0000000   0.1924501   0.1808105), wk =   0.0380952
        k(    7) = (   0.0000000   0.1924501   0.3616210), wk =   0.0380952
        k(    8) = (   0.0000000   0.1924501   0.5424315), wk =   0.0380952
        k(    9) = (   0.0000000   0.3849002   0.0000000), wk =   0.0190476
        k(   10) = (   0.0000000   0.3849002   0.1808105), wk =   0.0380952
        k(   11) = (   0.0000000   0.3849002   0.3616210), wk =   0.0380952
        k(   12) = (   0.0000000   0.3849002   0.5424315), wk =   0.0380952
        k(   13) = (   0.0000000  -0.5773503   0.0000000), wk =   0.0095238
        k(   14) = (   0.0000000  -0.5773503   0.1808105), wk =   0.0190476
        k(   15) = (   0.0000000  -0.5773503   0.3616210), wk =   0.0190476
        k(   16) = (   0.0000000  -0.5773503   0.5424315), wk =   0.0190476
        k(   17) = (   0.2000000   0.1154701   0.0000000), wk =   0.0190476
        k(   18) = (   0.2000000   0.1154701   0.1808105), wk =   0.0380952
        k(   19) = (   0.2000000   0.1154701   0.3616210), wk =   0.0380952
        k(   20) = (   0.2000000   0.1154701   0.5424315), wk =   0.0380952
        k(   21) = (   0.2000000   0.3079201   0.0000000), wk =   0.0190476
        k(   22) = (   0.2000000   0.3079201   0.1808105), wk =   0.0380952
        k(   23) = (   0.2000000   0.3079201   0.3616210), wk =   0.0380952
        k(   24) = (   0.2000000   0.3079201   0.5424315), wk =   0.0380952
        k(   25) = (   0.2000000   0.5003702   0.0000000), wk =   0.0190476
        k(   26) = (   0.2000000   0.5003702   0.1808105), wk =   0.0380952
        k(   27) = (   0.2000000   0.5003702   0.3616210), wk =   0.0380952
        k(   28) = (   0.2000000   0.5003702   0.5424315), wk =   0.0380952
        k(   29) = (   0.2000000  -0.4618802   0.0000000), wk =   0.0190476
        k(   30) = (   0.2000000  -0.4618802   0.1808105), wk =   0.0380952
        k(   31) = (   0.2000000  -0.4618802   0.3616210), wk =   0.0380952
        k(   32) = (   0.2000000  -0.4618802   0.5424315), wk =   0.0380952
        k(   33) = (   0.2000000  -0.2694301   0.0000000), wk =   0.0190476
        k(   34) = (   0.2000000  -0.2694301   0.1808105), wk =   0.0380952
        k(   35) = (   0.2000000  -0.2694301   0.3616210), wk =   0.0380952
        k(   36) = (   0.2000000  -0.2694301   0.5424315), wk =   0.0380952
        k(   37) = (   0.2000000  -0.0769800   0.0000000), wk =   0.0190476
        k(   38) = (   0.2000000  -0.0769800   0.1808105), wk =   0.0380952
        k(   39) = (   0.2000000  -0.0769800   0.3616210), wk =   0.0380952
        k(   40) = (   0.2000000  -0.0769800   0.5424315), wk =   0.0380952
        k(   41) = (   0.4000000   0.2309401   0.0000000), wk =   0.0190476
        k(   42) = (   0.4000000   0.2309401   0.1808105), wk =   0.0380952
        k(   43) = (   0.4000000   0.2309401   0.3616210), wk =   0.0380952
        k(   44) = (   0.4000000   0.2309401   0.5424315), wk =   0.0380952
        k(   45) = (   0.4000000   0.4233902   0.0000000), wk =   0.0190476
        k(   46) = (   0.4000000   0.4233902   0.1808105), wk =   0.0380952
        k(   47) = (   0.4000000   0.4233902   0.3616210), wk =   0.0380952
        k(   48) = (   0.4000000   0.4233902   0.5424315), wk =   0.0380952
        k(   49) = (   0.4000000   0.6158403   0.0000000), wk =   0.0190476
        k(   50) = (   0.4000000   0.6158403   0.1808105), wk =   0.0380952
        k(   51) = (   0.4000000   0.6158403   0.3616210), wk =   0.0380952
        k(   52) = (   0.4000000   0.6158403   0.5424315), wk =   0.0380952
        k(   53) = (   0.4000000  -0.3464102   0.0000000), wk =   0.0190476
        k(   54) = (   0.4000000  -0.3464102   0.1808105), wk =   0.0380952
        k(   55) = (   0.4000000  -0.3464102   0.3616210), wk =   0.0380952
        k(   56) = (   0.4000000  -0.3464102   0.5424315), wk =   0.0380952
        k(   57) = (   0.4000000  -0.1539601   0.0000000), wk =   0.0190476
        k(   58) = (   0.4000000  -0.1539601   0.1808105), wk =   0.0380952
        k(   59) = (   0.4000000  -0.1539601   0.3616210), wk =   0.0380952
        k(   60) = (   0.4000000  -0.1539601   0.5424315), wk =   0.0380952
        k(   61) = (   0.4000000   0.0384900   0.0000000), wk =   0.0190476
        k(   62) = (   0.4000000   0.0384900   0.1808105), wk =   0.0380952
        k(   63) = (   0.4000000   0.0384900   0.3616210), wk =   0.0380952
        k(   64) = (   0.4000000   0.0384900   0.5424315), wk =   0.0380952

     Largest allocated arrays     est. size (Mb)     dimensions
     Largest temporary arrays     est. size (Mb)     dimensions

     Initial potential from superposition of free atoms

     Starting from uniform charge
     Starting wfc are    0 randomized atomic wfcs

     Self-consistent Calculation

     iteration #  1     ecut=    40.00 Ry     beta=0.70
     CG style diagonalization
     c_bands:  1 eigenvalues not converged
     c_bands:  1 eigenvalues not converged
     c_bands:  1 eigenvalues not converged
     c_bands:  1 eigenvalues not converged
     c_bands:  1 eigenvalues not converged
     c_bands:  1 eigenvalues not converged
     c_bands:  2 eigenvalues not converged
     c_bands:  2 eigenvalues not converged
     c_bands:  1 eigenvalues not converged
     c_bands:  1 eigenvalues not converged
     c_bands:  1 eigenvalues not converged
     c_bands:  1 eigenvalues not converged
     c_bands:  1 eigenvalues not converged
     c_bands:  1 eigenvalues not converged
     c_bands:  2 eigenvalues not converged
     c_bands:  1 eigenvalues not converged
     c_bands:  2 eigenvalues not converged
     c_bands:  1 eigenvalues not converged
     c_bands:  1 eigenvalues not converged
     c_bands:  1 eigenvalues not converged
     c_bands:  1 eigenvalues not converged
     ethr =  1.00E-02,  avg # of iterations = 13.3

     total energy              =   -2455.16280542 Ry
     Harris-Foulkes estimate   =   -3584.96391884 Ry
     estimated scf accuracy    <    1413.89489421 Ry

[...]

     iteration #  4     ecut=    40.00 Ry     beta=0.70
     CG style diagonalization
     ethr =  1.00E-02,  avg # of iterations =  5.3

[...]

     End of self-consistent calculation

          k = 0.0000 0.0000 0.0000 (  5047 PWs)   bands (ev):

   -84.7869 -84.7868 -84.7837 -84.7457 -84.7456 -84.7222 -65.3405 -65.3366
   -43.5211 -43.4756 -43.4755 -43.4697 -43.4658 -43.4456 -43.4456 -43.4374
   -43.4374 -43.4248 -43.4200 -43.4199 -43.3920 -43.3886 -43.3885 -43.3814
   -43.3814 -43.3700 -29.5413 -29.5349 -29.4978 -29.4978 -29.4890 -29.4890
     4.9086   4.9669   4.9669   5.0104   5.1655   5.2062   5.2341   5.2342
     5.2532   5.2787   5.2788   5.3954   5.3954   5.5759   5.6565   5.6566
     5.6708   5.7094   5.7094   5.7792   5.7793   5.8382   5.8383   5.9668
     5.9669   6.1050   6.1050   6.1210   6.2117   6.2176  10.9363  13.4308
    13.8234  13.8234  14.1861  14.2561  14.2561  14.3013  14.3013  14.3249
    14.3249  17.2079  17.2079  17.8341  17.8342  18.2273  18.4266  19.0485
[...]
        k(   21) = (   0.2075873   0.3196015   0.0000000), wk =   0.0190476
        k(   22) = (   0.2075873   0.3196015   0.1862629), wk =   0.0380952
        k(   23) = (   0.2075873   0.3196015   0.3725258), wk =   0.0380952
        k(   24) = (   0.2075873   0.3196015   0.5587888), wk =   0.0380952
        k(   25) = (   0.2075873   0.5193524   0.0000000), wk =   0.0190476
        k(   26) = (   0.2075873   0.5193524   0.1862629), wk =   0.0380952
        k(   27) = (   0.2075873   0.5193524   0.3725258), wk =   0.0380952
        k(   28) = (   0.2075873   0.5193524   0.5587888), wk =   0.0380952
        k(   29) = (   0.2075873  -0.4794023   0.0000000), wk =   0.0190476
        k(   30) = (   0.2075873  -0.4794023   0.1862629), wk =   0.0380952
        k(   31) = (   0.2075873  -0.4794023   0.3725258), wk =   0.0380952
        k(   32) = (   0.2075873  -0.4794023   0.5587888), wk =   0.0380952
        k(   33) = (   0.2075873  -0.2796513   0.0000000), wk =   0.0190476
        k(   34) = (   0.2075873  -0.2796513   0.1862629), wk =   0.0380952
        k(   35) = (   0.2075873  -0.2796513   0.3725258), wk =   0.0380952
        k(   36) = (   0.2075873  -0.2796513   0.5587888), wk =   0.0380952
        k(   37) = (   0.2075873  -0.0799004   0.0000000), wk =   0.0190476
        k(   38) = (   0.2075873  -0.0799004   0.1862629), wk =   0.0380952
        k(   39) = (   0.2075873  -0.0799004   0.3725258), wk =   0.0380952
        k(   40) = (   0.2075873  -0.0799004   0.5587888), wk =   0.0380952
        k(   41) = (   0.4151745   0.2397011   0.0000000), wk =   0.0190476
        k(   42) = (   0.4151745   0.2397011   0.1862629), wk =   0.0380952
        k(   43) = (   0.4151745   0.2397011   0.3725258), wk =   0.0380952
        k(   44) = (   0.4151745   0.2397011   0.5587888), wk =   0.0380952
        k(   45) = (   0.4151745   0.4394521   0.0000000), wk =   0.0190476
        k(   46) = (   0.4151745   0.4394521   0.1862629), wk =   0.0380952
        k(   47) = (   0.4151745   0.4394521   0.3725258), wk =   0.0380952
        k(   48) = (   0.4151745   0.4394521   0.5587888), wk =   0.0380952
        k(   49) = (   0.4151745   0.6392030   0.0000000), wk =   0.0190476
        k(   50) = (   0.4151745   0.6392030   0.1862629), wk =   0.0380952
        k(   51) = (   0.4151745   0.6392030   0.3725258), wk =   0.0380952
        k(   52) = (   0.4151745   0.6392030   0.5587888), wk =   0.0380952
        k(   53) = (   0.4151745  -0.3595517   0.0000000), wk =   0.0190476
        k(   54) = (   0.4151745  -0.3595517   0.1862629), wk =   0.0380952
        k(   55) = (   0.4151745  -0.3595517   0.3725258), wk =   0.0380952
        k(   56) = (   0.4151745  -0.3595517   0.5587888), wk =   0.0380952
        k(   57) = (   0.4151745  -0.1598008   0.0000000), wk =   0.0190476
        k(   58) = (   0.4151745  -0.1598008   0.1862629), wk =   0.0380952
        k(   59) = (   0.4151745  -0.1598008   0.3725258), wk =   0.0380952
        k(   60) = (   0.4151745  -0.1598008   0.5587888), wk =   0.0380952
        k(   61) = (   0.4151745   0.0399502   0.0000000), wk =   0.0190476
        k(   62) = (   0.4151745   0.0399502   0.1862629), wk =   0.0380952
        k(   63) = (   0.4151745   0.0399502   0.3725258), wk =   0.0380952
        k(   64) = (   0.4151745   0.0399502   0.5587888), wk =   0.0380952

[...]

     Threshold (ethr) on eigenvalues was too large:
     Diagonalizing with lowered threshold

     CG style diagonalization
     ethr =  8.47E-09,  avg # of iterations =  3.7

[...]

     The maximum number of steps has been reached.

     End of BFGS Geometry Optimization
Begin final coordinates
     new unit-cell volume =   1069.87093 a.u.^3 (   158.53851 Ang^3 )

CELL_PARAMETERS (alat= 12.01680127)
   0.963450222   0.000000000   0.000000000
  -0.481725111   0.834372368   0.000000000
   0.000000000   0.000000000   0.766965018

ATOMIC_POSITIONS (crystal)
Mg       0.666758411   0.833379205   0.250000000
Mg       0.833379205   0.166620795   0.750000000
Mg       0.333241589   0.166620795   0.750000000
Mg       0.166620795   0.833379205   0.250000000
Mg       0.166620795   0.333241589   0.250000000
Mg       0.833379205   0.666758411   0.750000000
Cd       0.666667000   0.333333000   0.250000000
Cd       0.333333000   0.666667000   0.750000000
End final coordinates

     A final scf calculation at the relaxed structure.
     The G-vectors are recalculated for the final unit cell
     Results may differ from those at the preceding step.

     bravais-lattice index     =            0
     lattice parameter (alat)  =      12.0168  a.u.
     unit-cell volume          =    1069.8709 (a.u.)^3
     number of atoms/cell      =            8
     number of atomic types    =            2
     number of electrons       =       180.00
     number of Kohn-Sham states=          108
     kinetic-energy cutoff     =      40.0000  Ry
     charge density cutoff     =     160.0000  Ry
     convergence threshold     =      1.0E-04
     mixing beta               =       0.7000
     number of iterations used =            8  plain     mixing
     Exchange-correlation      = SLA-PZ-NOGX-NOGC ( 1 1 0 0 0)
     EXX-fraction              =        0.00

     celldm(1)=  12.016801  celldm(2)=   0.000000  celldm(3)=   0.000000
     celldm(4)=   0.000000  celldm(5)=   0.000000  celldm(6)=   0.000000

     crystal axes: (cart. coord. in units of alat)
               a(1) = (   0.963450   0.000000   0.000000 )
               a(2) = (  -0.481725   0.834372   0.000000 )
               a(3) = (   0.000000   0.000000   0.766965 )

     reciprocal axes: (cart. coord. in units 2 pi/alat)
               b(1) = (  1.037936  0.599253  0.000000 )
               b(2) = (  0.000000  1.198506  0.000000 )
               b(3) = (  0.000000  0.000000  1.303840 )

     PseudoPot. # 1 for Tm read from file:
     /home/cwx6513/pp.La/Tm.UPF
     MD5 check sum: 245516e0878b5372ceeb9443ded2c4e1
     Pseudo is Norm-conserving, Zval = 23.0
     Generated in analytical, separable form
     Using radial grid of 1269 points,  6 beta functions with:
                l(1) =   0
                l(2) =   0
                l(3) =   1
                l(4) =   1
                l(5) =   2
                l(6) =   3

     PseudoPot. # 2 for Ho read from file:
     /home/cwx6513/pp.La/Ho.UPF
     MD5 check sum: f307ee11bce99f5b724fa279e3790763
     Pseudo is Norm-conserving, Zval = 21.0
     Generated in analytical, separable form
     Using radial grid of 1265 points,  6 beta functions with:
                l(1) =   0
                l(2) =   0
                l(3) =   1
                l(4) =   1
                l(5) =   2
                l(6) =   3

     atomic species   valence    mass     pseudopotential
        Mg            23.00    24.30500     Tm( 1.00)
        Cd            21.00   112.41100     Ho( 1.00)

     24 Sym. Ops., with inversion, found (12 have fractional translation)

   Cartesian axes

     site n.     atom                  positions (alat units)
         1           Mg  tau(   1) = (   0.2409288   0.6953486   0.1917413  )
         2           Mg  tau(   2) = (   0.7226540   0.1390238   0.5752238  )
         3           Mg  tau(   3) = (   0.2407963   0.1390238   0.5752238  )
         4           Mg  tau(   4) = (  -0.2409288   0.6953486   0.1917413  )
         5           Mg  tau(   5) = (   0.0000000   0.2780476   0.1917413  )
         6           Mg  tau(   6) = (   0.4817251   0.5563248   0.5752238  )
         7           Cd  tau(   7) = (   0.4817256   0.2781238   0.1917413  )
         8           Cd  tau(   8) = (  -0.0000005   0.5562485   0.5752238  )

     number of k points=    64  gaussian smearing, width (Ry)=  0.1000
                       cart. coord. in units 2pi/alat
        k(    1) = (   0.0000000   0.0000000   0.0000000), wk =   0.0095238
        k(    2) = (   0.0000000   0.0000000   0.1862629), wk =   0.0190476
        k(    3) = (   0.0000000   0.0000000   0.3725258), wk =   0.0190476
        k(    4) = (   0.0000000   0.0000000   0.5587888), wk =   0.0190476
        k(    5) = (   0.0000000   0.1997509   0.0000000), wk =   0.0190476
        k(    6) = (   0.0000000   0.1997509   0.1862629), wk =   0.0380952
        k(    7) = (   0.0000000   0.1997509   0.3725258), wk =   0.0380952
        k(    8) = (   0.0000000   0.1997509   0.5587888), wk =   0.0380952
        k(    9) = (   0.0000000   0.3995019   0.0000000), wk =   0.0190476
        k(   10) = (   0.0000000   0.3995019   0.1862629), wk =   0.0380952
        k(   11) = (   0.0000000   0.3995019   0.3725258), wk =   0.0380952
        k(   12) = (   0.0000000   0.3995019   0.5587888), wk =   0.0380952
        k(   13) = (   0.0000000  -0.5992528   0.0000000), wk =   0.0095238
        k(   14) = (   0.0000000  -0.5992528   0.1862629), wk =   0.0190476
        k(   15) = (   0.0000000  -0.5992528   0.3725258), wk =   0.0190476
        k(   16) = (   0.0000000  -0.5992528   0.5587888), wk =   0.0190476
        k(   17) = (   0.2075873   0.1198506   0.0000000), wk =   0.0190476
        k(   18) = (   0.2075873   0.1198506   0.1862629), wk =   0.0380952
        k(   19) = (   0.2075873   0.1198506   0.3725258), wk =   0.0380952
        k(   20) = (   0.2075873   0.1198506   0.5587888), wk =   0.0380952
        k(   21) = (   0.2075873   0.3196015   0.0000000), wk =   0.0190476
        k(   22) = (   0.2075873   0.3196015   0.1862629), wk =   0.0380952
        k(   23) = (   0.2075873   0.3196015   0.3725258), wk =   0.0380952
        k(   24) = (   0.2075873   0.3196015   0.5587888), wk =   0.0380952
        k(   25) = (   0.2075873   0.5193524   0.0000000), wk =   0.0190476
        k(   26) = (   0.2075873   0.5193524   0.1862629), wk =   0.0380952
        k(   27) = (   0.2075873   0.5193524   0.3725258), wk =   0.0380952
        k(   28) = (   0.2075873   0.5193524   0.5587888), wk =   0.0380952
        k(   29) = (   0.2075873  -0.4794023   0.0000000), wk =   0.0190476
        k(   30) = (   0.2075873  -0.4794023   0.1862629), wk =   0.0380952
        k(   31) = (   0.2075873  -0.4794023   0.3725258), wk =   0.0380952
        k(   32) = (   0.2075873  -0.4794023   0.5587888), wk =   0.0380952
        k(   33) = (   0.2075873  -0.2796513   0.0000000), wk =   0.0190476
        k(   34) = (   0.2075873  -0.2796513   0.1862629), wk =   0.0380952
        k(   35) = (   0.2075873  -0.2796513   0.3725258), wk =   0.0380952
        k(   36) = (   0.2075873  -0.2796513   0.5587888), wk =   0.0380952
        k(   37) = (   0.2075873  -0.0799004   0.0000000), wk =   0.0190476
        k(   38) = (   0.2075873  -0.0799004   0.1862629), wk =   0.0380952
        k(   39) = (   0.2075873  -0.0799004   0.3725258), wk =   0.0380952
        k(   40) = (   0.2075873  -0.0799004   0.5587888), wk =   0.0380952
        k(   41) = (   0.4151745   0.2397011   0.0000000), wk =   0.0190476
        k(   42) = (   0.4151745   0.2397011   0.1862629), wk =   0.0380952
        k(   43) = (   0.4151745   0.2397011   0.3725258), wk =   0.0380952
        k(   44) = (   0.4151745   0.2397011   0.5587888), wk =   0.0380952
        k(   45) = (   0.4151745   0.4394521   0.0000000), wk =   0.0190476
        k(   46) = (   0.4151745   0.4394521   0.1862629), wk =   0.0380952
        k(   47) = (   0.4151745   0.4394521   0.3725258), wk =   0.0380952
        k(   48) = (   0.4151745   0.4394521   0.5587888), wk =   0.0380952
        k(   49) = (   0.4151745   0.6392030   0.0000000), wk =   0.0190476
        k(   50) = (   0.4151745   0.6392030   0.1862629), wk =   0.0380952
        k(   51) = (   0.4151745   0.6392030   0.3725258), wk =   0.0380952
        k(   52) = (   0.4151745   0.6392030   0.5587888), wk =   0.0380952
        k(   53) = (   0.4151745  -0.3595517   0.0000000), wk =   0.0190476
        k(   54) = (   0.4151745  -0.3595517   0.1862629), wk =   0.0380952
        k(   55) = (   0.4151745  -0.3595517   0.3725258), wk =   0.0380952
        k(   56) = (   0.4151745  -0.3595517   0.5587888), wk =   0.0380952
        k(   57) = (   0.4151745  -0.1598008   0.0000000), wk =   0.0190476
        k(   58) = (   0.4151745  -0.1598008   0.1862629), wk =   0.0380952
        k(   59) = (   0.4151745  -0.1598008   0.3725258), wk =   0.0380952
        k(   60) = (   0.4151745  -0.1598008   0.5587888), wk =   0.0380952
        k(   61) = (   0.4151745   0.0399502   0.0000000), wk =   0.0190476
        k(   62) = (   0.4151745   0.0399502   0.1862629), wk =   0.0380952
        k(   63) = (   0.4151745   0.0399502   0.3725258), wk =   0.0380952
        k(   64) = (   0.4151745   0.0399502   0.5587888), wk =   0.0380952

     Largest allocated arrays     est. size (Mb)     dimensions
     Largest temporary arrays     est. size (Mb)     dimensions

     Initial potential from superposition of free atoms

     Starting from uniform charge
     Starting wfc are    0 randomized atomic wfcs

     Writing output data file Prototype-La-hP8-Mg3Cd.save

     Self-consistent Calculation

[...]

     iteration #  9     ecut=    40.00 Ry     beta=0.70
     CG style diagonalization
     c_bands:  1 eigenvalues not converged
     c_bands:  1 eigenvalues not converged
     c_bands:  1 eigenvalues not converged
     c_bands:  1 eigenvalues not converged
     c_bands:  1 eigenvalues not converged
     c_bands:  1 eigenvalues not converged
     c_bands:  1 eigenvalues not converged
     c_bands:  1 eigenvalues not converged
     c_bands:  2 eigenvalues not converged
     ethr =  8.38E-07,  avg # of iterations =  4.6

     total energy              =   -2790.19853871 Ry
     Harris-Foulkes estimate   =   -2790.19888618 Ry
     estimated scf accuracy    <       0.00054952 Ry

     iteration # 10     ecut=    40.00 Ry     beta=0.70
     CG style diagonalization
     ethr =  3.05E-07,  avg # of iterations =  3.6

     End of self-consistent calculation

[...]

          k = 0.4152 0.0400 0.5588 (  4565 PWs)   bands (ev):

   -81.6213 -81.6084 -81.6019 -81.5931 -81.5719 -81.5705 -62.3290 -62.3246
   -40.3453 -40.3316 -40.3283 -40.3226 -40.3082 -40.3057 -40.3005 -40.2977
   -40.2814 -40.2741 -40.2699 -40.2663 -40.2601 -40.2502 -40.2488 -40.2432
   -40.2418 -40.2393 -26.5490 -26.5433 -26.5223 -26.5165 -26.5130 -26.5113
     7.9212   7.9317   7.9819   8.0581   8.0722   8.0758   8.1455   8.1934
     8.2234   8.2407   8.3915   8.4245   8.5047   8.6031   8.6122   8.6360
     8.6594   8.7503   8.7759   8.8035   8.8590   8.9330   8.9451   8.9583
     9.0250   9.0629   9.2007   9.2328   9.3143   9.3913  15.1461  15.8852
    16.4454  16.5735  16.7246  16.7483  16.9990  17.0364  17.1646  17.1967
    17.2760  17.5759  18.8005  19.2239  19.8877  20.3978  22.4413  23.3486
    23.7418  24.7599  26.5236  27.1192  27.9021  28.3328  28.5548  29.3643
    30.5162  30.9144  31.6922  31.9577  32.5219  32.7561  32.9062  33.0238
    33.4585  33.8360  34.0525  34.2330  34.3085  34.5518  34.5809  34.9409
    36.5957  36.9392  37.1497  37.3288

     the Fermi energy is    30.5177 ev

!    total energy              =   -2790.19865577 Ry
     Harris-Foulkes estimate   =   -2790.19866524 Ry
     estimated scf accuracy    <       0.00001132 Ry

     The total energy is the sum of the following terms:

     one-electron contribution =    -748.57413319 Ry
     hartree contribution      =     479.93007511 Ry
     xc contribution           =    -232.56893232 Ry
     ewald contribution        =   -2288.73087851 Ry
     smearing contrib. (-TS)   =      -0.25478687 Ry

     convergence has been achieved in  10 iterations

     Forces acting on atoms (Ry/au):

     atom    1 type  1   force =    -0.00963942   -0.00556532    0.00000000
     atom    2 type  1   force =    -0.00963942    0.00556532    0.00000000
     atom    3 type  1   force =     0.00963942    0.00556532    0.00000000
     atom    4 type  1   force =     0.00963942   -0.00556532    0.00000000
     atom    5 type  1   force =     0.00000000    0.01113065    0.00000000
     atom    6 type  1   force =     0.00000000   -0.01113065    0.00000000
     atom    7 type  2   force =     0.00000000    0.00000000    0.00000000
     atom    8 type  2   force =     0.00000000    0.00000000    0.00000000

     Total force =     0.027264     Total SCF correction =     0.000000

     entering subroutine stress ...

          total   stress  (Ry/bohr**3)                   (kbar)     P=  153.73
   0.00095762   0.00000000   0.00000000        140.87      0.00      0.00
   0.00000000   0.00095762   0.00000000          0.00    140.87      0.00
   0.00000000   0.00000000   0.00121990          0.00      0.00    179.45

     Writing output data file Prototype-La-hP8-Mg3Cd.save

     General routines

     Parallel routines

   This run was terminated on:  16:52:36  22Mar2018

   JOB DONE.