     Program PWSCF v.5.0.2 starts on 22Mar2018 at 16: 5:52

     Current dimensions of program PWSCF are:
     Max number of different atomic species (ntypx) = 10
     Max number of k-points (npk) =  40000
     Max angular momentum in pseudopotentials (lmaxx) =  3
     Waiting for input...
     Reading input from standard input

     Subspace diagonalization in iterative solution of the eigenvalue problem:
     a serial algorithm will be used

     bravais-lattice index     =            0
     lattice parameter (alat)  =       8.5346  a.u.
     unit-cell volume          =     621.6493 (a.u.)^3
     number of atoms/cell      =            8
     number of atomic types    =            2
     number of electrons       =       180.00
     number of Kohn-Sham states=          108
     kinetic-energy cutoff     =      40.0000  Ry
     charge density cutoff     =     160.0000  Ry
     convergence threshold     =      1.0E-04
     mixing beta               =       0.7000
     number of iterations used =            8  plain     mixing
     Exchange-correlation      = SLA-PZ-NOGX-NOGC ( 1 1 0 0 0)
     EXX-fraction              =        0.00
     nstep                     =           50

     celldm(1)=   8.534573  celldm(2)=   0.000000  celldm(3)=   0.000000
     celldm(4)=   0.000000  celldm(5)=   0.000000  celldm(6)=   0.000000

     crystal axes: (cart. coord. in units of alat)
               a(1) = (   1.000000   0.000000   0.000000 )
               a(2) = (   0.000000   1.000000   0.000000 )
               a(3) = (   0.000000   0.000000   1.000000 )

     reciprocal axes: (cart. coord. in units 2 pi/alat)
               b(1) = (  1.000000  0.000000  0.000000 )
               b(2) = (  0.000000  1.000000  0.000000 )
               b(3) = (  0.000000  0.000000  1.000000 )

     PseudoPot. # 1 for Tm read from file:
     /home/cwx6513/pp.La/Tm.UPF
     MD5 check sum: 245516e0878b5372ceeb9443ded2c4e1
     Pseudo is Norm-conserving, Zval = 23.0
     Generated in analytical, separable form
     Using radial grid of 1269 points,  6 beta functions with:
                l(1) =   0
                l(2) =   0
                l(3) =   1
                l(4) =   1
                l(5) =   2
                l(6) =   3

     PseudoPot. # 2 for Ho read from file:
     /home/cwx6513/pp.La/Ho.UPF
     MD5 check sum: f307ee11bce99f5b724fa279e3790763
     Pseudo is Norm-conserving, Zval = 21.0
     Generated in analytical, separable form
     Using radial grid of 1265 points,  6 beta functions with:
                l(1) =   0
                l(2) =   0
                l(3) =   1
                l(4) =   1
                l(5) =   2
                l(6) =   3

     atomic species   valence    mass     pseudopotential
        Cr            23.00    51.99610     Tm( 1.00)
        Si            21.00    28.08550     Ho( 1.00)

     48 Sym. Ops., with inversion, found (24 have fractional translation)

   Cartesian axes

     site n.     atom                  positions (alat units)
         1           Cr  tau(   1) = (   0.0000000   0.5000000   0.2500000  )
         2           Cr  tau(   2) = (   0.0000000   0.5000000   0.7500000  )
         3           Cr  tau(   3) = (   0.5000000   0.7500000   0.0000000  )
         4           Cr  tau(   4) = (   0.5000000   0.2500000   0.0000000  )
         5           Cr  tau(   5) = (   0.7500000   0.0000000   0.5000000  )
         6           Cr  tau(   6) = (   0.2500000   0.0000000   0.5000000  )
         7           Si  tau(   7) = (   0.5000000   0.5000000   0.5000000  )
         8           Si  tau(   8) = (   0.0000000   0.0000000   0.0000000  )

     number of k points=    48  gaussian smearing, width (Ry)=  0.1000
                       cart. coord. in units 2pi/alat
        k(    1) = (   0.0000000   0.0000000   0.0000000), wk =   0.0095238
        k(    2) = (   0.0000000   0.0000000   0.1428571), wk =   0.0190476
        k(    3) = (   0.0000000   0.0000000   0.2857143), wk =   0.0190476
        k(    4) = (   0.0000000   0.0000000   0.4285714), wk =   0.0190476
        k(    5) = (   0.0000000   0.1666667   0.0000000), wk =   0.0190476
        k(    6) = (   0.0000000   0.1666667   0.1428571), wk =   0.0380952
        k(    7) = (   0.0000000   0.1666667   0.2857143), wk =   0.0380952
        k(    8) = (   0.0000000   0.1666667   0.4285714), wk =   0.0380952
        k(    9) = (   0.0000000   0.3333333   0.0000000), wk =   0.0190476
        k(   10) = (   0.0000000   0.3333333   0.1428571), wk =   0.0380952
        k(   11) = (   0.0000000   0.3333333   0.2857143), wk =   0.0380952
        k(   12) = (   0.0000000   0.3333333   0.4285714), wk =   0.0380952
        k(   13) = (   0.0000000  -0.5000000   0.0000000), wk =   0.0095238
        k(   14) = (   0.0000000  -0.5000000   0.1428571), wk =   0.0190476
        k(   15) = (   0.0000000  -0.5000000   0.2857143), wk =   0.0190476
        k(   16) = (   0.0000000  -0.5000000   0.4285714), wk =   0.0190476
        k(   17) = (   0.2000000   0.0000000   0.0000000), wk =   0.0190476
        k(   18) = (   0.2000000   0.0000000   0.1428571), wk =   0.0380952
        k(   19) = (   0.2000000   0.0000000   0.2857143), wk =   0.0380952
        k(   20) = (   0.2000000   0.0000000   0.4285714), wk =   0.0380952
        k(   21) = (   0.2000000   0.1666667   0.0000000), wk =   0.0380952
        k(   22) = (   0.2000000   0.1666667   0.1428571), wk =   0.0761905
        k(   23) = (   0.2000000   0.1666667   0.2857143), wk =   0.0761905
        k(   24) = (   0.2000000   0.1666667   0.4285714), wk =   0.0761905
        k(   25) = (   0.2000000   0.3333333   0.0000000), wk =   0.0380952
        k(   26) = (   0.2000000   0.3333333   0.1428571), wk =   0.0761905
        k(   27) = (   0.2000000   0.3333333   0.2857143), wk =   0.0761905
        k(   28) = (   0.2000000   0.3333333   0.4285714), wk =   0.0761905
        k(   29) = (   0.2000000  -0.5000000   0.0000000), wk =   0.0190476
        k(   30) = (   0.2000000  -0.5000000   0.1428571), wk =   0.0380952
        k(   31) = (   0.2000000  -0.5000000   0.2857143), wk =   0.0380952
        k(   32) = (   0.2000000  -0.5000000   0.4285714), wk =   0.0380952
        k(   33) = (   0.4000000   0.0000000   0.0000000), wk =   0.0190476
        k(   34) = (   0.4000000   0.0000000   0.1428571), wk =   0.0380952
        k(   35) = (   0.4000000   0.0000000   0.2857143), wk =   0.0380952
        k(   36) = (   0.4000000   0.0000000   0.4285714), wk =   0.0380952
        k(   37) = (   0.4000000   0.1666667   0.0000000), wk =   0.0380952
        k(   38) = (   0.4000000   0.1666667   0.1428571), wk =   0.0761905
        k(   39) = (   0.4000000   0.1666667   0.2857143), wk =   0.0761905
        k(   40) = (   0.4000000   0.1666667   0.4285714), wk =   0.0761905
        k(   41) = (   0.4000000   0.3333333   0.0000000), wk =   0.0380952
        k(   42) = (   0.4000000   0.3333333   0.1428571), wk =   0.0761905
        k(   43) = (   0.4000000   0.3333333   0.2857143), wk =   0.0761905
        k(   44) = (   0.4000000   0.3333333   0.4285714), wk =   0.0761905
        k(   45) = (   0.4000000  -0.5000000   0.0000000), wk =   0.0190476
        k(   46) = (   0.4000000  -0.5000000   0.1428571), wk =   0.0380952
        k(   47) = (   0.4000000  -0.5000000   0.2857143), wk =   0.0380952
        k(   48) = (   0.4000000  -0.5000000   0.4285714), wk =   0.0380952

     Largest allocated arrays     est. size (Mb)     dimensions
     Largest temporary arrays     est. size (Mb)     dimensions

     Initial potential from superposition of free atoms

     Starting from uniform charge
     Starting wfc are    0 randomized atomic wfcs

     Self-consistent Calculation

     iteration #  1     ecut=    40.00 Ry     beta=0.70
     CG style diagonalization
     c_bands:  2 eigenvalues not converged
     c_bands:  1 eigenvalues not converged
     c_bands:  3 eigenvalues not converged
     c_bands:  1 eigenvalues not converged
     c_bands:  1 eigenvalues not converged
     c_bands:  1 eigenvalues not converged
     c_bands:  2 eigenvalues not converged
     c_bands:  1 eigenvalues not converged
     c_bands:  3 eigenvalues not converged
     c_bands:  2 eigenvalues not converged
     c_bands:  1 eigenvalues not converged
     c_bands:  1 eigenvalues not converged
     c_bands:  1 eigenvalues not converged
     c_bands:  5 eigenvalues not converged
     c_bands:  1 eigenvalues not converged
     c_bands:  1 eigenvalues not converged
     c_bands:  1 eigenvalues not converged
     c_bands:  1 eigenvalues not converged
     c_bands:  1 eigenvalues not converged
     c_bands:  2 eigenvalues not converged
     c_bands:  1 eigenvalues not converged
     c_bands:  1 eigenvalues not converged
     c_bands:  1 eigenvalues not converged
     ethr =  1.00E-02,  avg # of iterations = 12.8

     total energy              =   -2513.72621801 Ry
     Harris-Foulkes estimate   =   -3233.06695103 Ry
     estimated scf accuracy    <     911.07310257 Ry

[...]

     iteration #  3     ecut=    40.00 Ry     beta=0.70
     CG style diagonalization
     ethr =  1.00E-02,  avg # of iterations =  5.6

[...]

     End of self-consistent calculation

          k = 0.0000 0.0000 0.0000 (  2601 PWs)   bands (ev):

   -60.3050 -60.3050 -60.1811 -59.9069 -59.9069 -59.9069 -42.1804 -42.1399
   -20.6131 -20.6131 -20.4964 -19.2406 -19.2406 -19.2406 -18.8999 -18.8999
   -18.8999 -18.8107 -18.8107 -18.8107 -18.7309 -18.7309 -18.7309 -18.4686
   -18.4686 -18.4686  -6.7427  -6.7427  -6.7427  -6.7330  -6.7330  -6.7330
    23.9885  23.9885  24.0619  25.5415  25.5415  25.5415  27.2028  27.2028
    27.2028  27.4784  27.8789  28.0561  28.0561  28.2457  28.2457  28.2457
    28.7880  29.8996  29.8996  29.8996  30.8576  30.8576  30.8576  30.8815
    30.8815  30.8815  30.9475  30.9475  31.6943  31.6943  31.6943  33.2404
    33.2404  35.9790  35.9790  35.9790  36.2210  36.2210  36.5130  36.5130
    36.5130  40.9107  40.9107  40.9107  44.2733  44.3181  44.3181  49.1131
    49.1131  49.1131  49.7952  50.1121  50.1121  51.2068  51.2068  51.2068
    52.7255  52.7255  52.7255  53.3575  53.3575  53.3575  54.2940  54.7711
    54.7711  54.7711  55.8169  55.8169  55.8169  58.5408  60.5105  60.5106
    60.5787  60.5787  60.5789  61.5486

[...]

     the Fermi energy is    53.7418 ev

!    total energy              =   -2778.71502559 Ry
     Harris-Foulkes estimate   =   -2778.71504702 Ry
     estimated scf accuracy    <       0.00002603 Ry

     The total energy is the sum of the following terms:

     one-electron contribution =     -96.34867876 Ry
     hartree contribution      =     296.98703466 Ry
     xc contribution           =    -241.88402964 Ry
     ewald contribution        =   -2737.06929069 Ry
     smearing contrib. (-TS)   =      -0.40006117 Ry

     convergence has been achieved in   8 iterations

     Forces acting on atoms (Ry/au):

     atom    1 type  1   force =     0.00000000    0.00000000    0.00000000
     atom    2 type  1   force =     0.00000000    0.00000000    0.00000000
     atom    3 type  1   force =     0.00000000    0.00000000    0.00000000
     atom    4 type  1   force =     0.00000000    0.00000000    0.00000000
[...]
     new conv_thr            =       0.0000010000 Ry

     new unit-cell volume =   1046.73013 a.u.^3 (   155.10940 Ang^3 )

[...]

ATOMIC_POSITIONS (crystal)
Cr       0.000000000   0.500000000   0.250000000
Cr       0.000000000   0.500000000   0.750000000
Cr       0.500000000   0.750000000   0.000000000
Cr       0.500000000   0.250000000   0.000000000
Cr       0.750000000   0.000000000   0.500000000
Cr       0.250000000   0.000000000   0.500000000
Si       0.500000000   0.500000000   0.500000000
Si       0.000000000   0.000000000   0.000000000

     Writing output data file Prototype-La-cP8-Cr3Si.save
     NEW-OLD atomic charge density approx. for the potential
     NEW k-points:
        k(    1) = (   0.0000000   0.0000000   0.0000000), wk =   0.0095238
        k(    2) = (   0.0000000   0.0000000   0.1200804), wk =   0.0190476
        k(    3) = (   0.0000000   0.0000000   0.2401608), wk =   0.0190476
        k(    4) = (   0.0000000   0.0000000   0.3602413), wk =   0.0190476
        k(    5) = (   0.0000000   0.1400938   0.0000000), wk =   0.0190476
        k(    6) = (   0.0000000   0.1400938   0.1200804), wk =   0.0380952
        k(    7) = (   0.0000000   0.1400938   0.2401608), wk =   0.0380952
        k(    8) = (   0.0000000   0.1400938   0.3602413), wk =   0.0380952
        k(    9) = (   0.0000000   0.2801876   0.0000000), wk =   0.0190476
        k(   10) = (   0.0000000   0.2801876   0.1200804), wk =   0.0380952
        k(   11) = (   0.0000000   0.2801876   0.2401608), wk =   0.0380952
        k(   12) = (   0.0000000   0.2801876   0.3602413), wk =   0.0380952
        k(   13) = (   0.0000000  -0.4202815   0.0000000), wk =   0.0095238
        k(   14) = (   0.0000000  -0.4202815   0.1200804), wk =   0.0190476
        k(   15) = (   0.0000000  -0.4202815   0.2401608), wk =   0.0190476
        k(   16) = (   0.0000000  -0.4202815   0.3602413), wk =   0.0190476
        k(   17) = (   0.1681126   0.0000000   0.0000000), wk =   0.0190476
        k(   18) = (   0.1681126   0.0000000   0.1200804), wk =   0.0380952
        k(   19) = (   0.1681126   0.0000000   0.2401608), wk =   0.0380952
        k(   20) = (   0.1681126   0.0000000   0.3602413), wk =   0.0380952
        k(   21) = (   0.1681126   0.1400938   0.0000000), wk =   0.0380952
        k(   22) = (   0.1681126   0.1400938   0.1200804), wk =   0.0761905
        k(   23) = (   0.1681126   0.1400938   0.2401608), wk =   0.0761905
        k(   24) = (   0.1681126   0.1400938   0.3602413), wk =   0.0761905
        k(   25) = (   0.1681126   0.2801876   0.0000000), wk =   0.0380952
        k(   26) = (   0.1681126   0.2801876   0.1200804), wk =   0.0761905
        k(   27) = (   0.1681126   0.2801876   0.2401608), wk =   0.0761905
        k(   28) = (   0.1681126   0.2801876   0.3602413), wk =   0.0761905
        k(   29) = (   0.1681126  -0.4202815   0.0000000), wk =   0.0190476
        k(   30) = (   0.1681126  -0.4202815   0.1200804), wk =   0.0380952
        k(   31) = (   0.1681126  -0.4202815   0.2401608), wk =   0.0380952
        k(   32) = (   0.1681126  -0.4202815   0.3602413), wk =   0.0380952
        k(   33) = (   0.3362252   0.0000000   0.0000000), wk =   0.0190476
        k(   34) = (   0.3362252   0.0000000   0.1200804), wk =   0.0380952
        k(   35) = (   0.3362252   0.0000000   0.2401608), wk =   0.0380952
        k(   36) = (   0.3362252   0.0000000   0.3602413), wk =   0.0380952
        k(   37) = (   0.3362252   0.1400938   0.0000000), wk =   0.0380952
        k(   38) = (   0.3362252   0.1400938   0.1200804), wk =   0.0761905
        k(   39) = (   0.3362252   0.1400938   0.2401608), wk =   0.0761905
        k(   40) = (   0.3362252   0.1400938   0.3602413), wk =   0.0761905
        k(   41) = (   0.3362252   0.2801876   0.0000000), wk =   0.0380952
        k(   42) = (   0.3362252   0.2801876   0.1200804), wk =   0.0761905
        k(   43) = (   0.3362252   0.2801876   0.2401608), wk =   0.0761905
        k(   44) = (   0.3362252   0.2801876   0.3602413), wk =   0.0761905
        k(   45) = (   0.3362252  -0.4202815   0.0000000), wk =   0.0190476
        k(   46) = (   0.3362252  -0.4202815   0.1200804), wk =   0.0380952
        k(   47) = (   0.3362252  -0.4202815   0.2401608), wk =   0.0380952
        k(   48) = (   0.3362252  -0.4202815   0.3602413), wk =   0.0380952

[...]

          total   stress  (Ry/bohr**3)                   (kbar)     P=-1529.15
  -0.01039496   0.00000000   0.00000000      -1529.15      0.00      0.00
   0.00000000  -0.01039496   0.00000000          0.00  -1529.15      0.00
   0.00000000   0.00000000  -0.01039496          0.00      0.00  -1529.15

     The maximum number of steps has been reached.

     End of BFGS Geometry Optimization
Begin final coordinates
     new unit-cell volume =   1046.73013 a.u.^3 (   155.10940 Ang^3 )

CELL_PARAMETERS (alat=  8.53457320)
   1.189678924   0.000000000   0.000000000
   0.000000000   1.189678924   0.000000000
   0.000000000   0.000000000   1.189678924

ATOMIC_POSITIONS (crystal)
Cr       0.000000000   0.500000000   0.250000000
Cr       0.000000000   0.500000000   0.750000000
Cr       0.500000000   0.750000000   0.000000000
Cr       0.500000000   0.250000000   0.000000000
Cr       0.750000000   0.000000000   0.500000000
Cr       0.250000000   0.000000000   0.500000000
Si       0.500000000   0.500000000   0.500000000
Si       0.000000000   0.000000000   0.000000000
End final coordinates

     A final scf calculation at the relaxed structure.
     The G-vectors are recalculated for the final unit cell
     Results may differ from those at the preceding step.

     bravais-lattice index     =            0
     lattice parameter (alat)  =       8.5346  a.u.
     unit-cell volume          =    1046.7301 (a.u.)^3
     number of atoms/cell      =            8
     number of atomic types    =            2
     number of electrons       =       180.00
     number of Kohn-Sham states=          108
     kinetic-energy cutoff     =      40.0000  Ry
     charge density cutoff     =     160.0000  Ry
     convergence threshold     =      1.0E-06
     mixing beta               =       0.7000
     number of iterations used =            8  plain     mixing
     Exchange-correlation      = SLA-PZ-NOGX-NOGC ( 1 1 0 0 0)
     EXX-fraction              =        0.00

     celldm(1)=   8.534573  celldm(2)=   0.000000  celldm(3)=   0.000000
     celldm(4)=   0.000000  celldm(5)=   0.000000  celldm(6)=   0.000000

     crystal axes: (cart. coord. in units of alat)
               a(1) = (   1.189679   0.000000   0.000000 )
               a(2) = (   0.000000   1.189679   0.000000 )
               a(3) = (   0.000000   0.000000   1.189679 )

     reciprocal axes: (cart. coord. in units 2 pi/alat)
               b(1) = (  0.840563  0.000000  0.000000 )
               b(2) = (  0.000000  0.840563  0.000000 )
               b(3) = (  0.000000  0.000000  0.840563 )

     PseudoPot. # 1 for Tm read from file:
     /home/cwx6513/pp.La/Tm.UPF
     MD5 check sum: 245516e0878b5372ceeb9443ded2c4e1
     Pseudo is Norm-conserving, Zval = 23.0
     Generated in analytical, separable form
     Using radial grid of 1269 points,  6 beta functions with:
                l(1) =   0
                l(2) =   0
                l(3) =   1
                l(4) =   1
                l(5) =   2
                l(6) =   3

     PseudoPot. # 2 for Ho read from file:
     /home/cwx6513/pp.La/Ho.UPF
     MD5 check sum: f307ee11bce99f5b724fa279e3790763
     Pseudo is Norm-conserving, Zval = 21.0
     Generated in analytical, separable form
     Using radial grid of 1265 points,  6 beta functions with:
                l(1) =   0
                l(2) =   0
                l(3) =   1
                l(4) =   1
                l(5) =   2
                l(6) =   3

     atomic species   valence    mass     pseudopotential
        Cr            23.00    51.99610     Tm( 1.00)
        Si            21.00    28.08550     Ho( 1.00)

     48 Sym. Ops., with inversion, found (24 have fractional translation)

   Cartesian axes

     site n.     atom                  positions (alat units)
         1           Cr  tau(   1) = (   0.0000000   0.5948395   0.2974197  )
         2           Cr  tau(   2) = (   0.0000000   0.5948395   0.8922592  )
         3           Cr  tau(   3) = (   0.5948395   0.8922592   0.0000000  )
         4           Cr  tau(   4) = (   0.5948395   0.2974197   0.0000000  )
         5           Cr  tau(   5) = (   0.8922592   0.0000000   0.5948395  )
         6           Cr  tau(   6) = (   0.2974197   0.0000000   0.5948395  )
         7           Si  tau(   7) = (   0.5948395   0.5948395   0.5948395  )
         8           Si  tau(   8) = (   0.0000000   0.0000000   0.0000000  )

     number of k points=    48  gaussian smearing, width (Ry)=  0.1000
                       cart. coord. in units 2pi/alat
        k(    1) = (   0.0000000   0.0000000   0.0000000), wk =   0.0095238
        k(    2) = (   0.0000000   0.0000000   0.1200804), wk =   0.0190476
        k(    3) = (   0.0000000   0.0000000   0.2401608), wk =   0.0190476
        k(    4) = (   0.0000000   0.0000000   0.3602413), wk =   0.0190476
        k(    5) = (   0.0000000   0.1400938   0.0000000), wk =   0.0190476
        k(    6) = (   0.0000000   0.1400938   0.1200804), wk =   0.0380952
        k(    7) = (   0.0000000   0.1400938   0.2401608), wk =   0.0380952
        k(    8) = (   0.0000000   0.1400938   0.3602413), wk =   0.0380952
        k(    9) = (   0.0000000   0.2801876   0.0000000), wk =   0.0190476
        k(   10) = (   0.0000000   0.2801876   0.1200804), wk =   0.0380952
        k(   11) = (   0.0000000   0.2801876   0.2401608), wk =   0.0380952
        k(   12) = (   0.0000000   0.2801876   0.3602413), wk =   0.0380952
        k(   13) = (   0.0000000  -0.4202815   0.0000000), wk =   0.0095238
        k(   14) = (   0.0000000  -0.4202815   0.1200804), wk =   0.0190476
        k(   15) = (   0.0000000  -0.4202815   0.2401608), wk =   0.0190476
        k(   16) = (   0.0000000  -0.4202815   0.3602413), wk =   0.0190476
        k(   17) = (   0.1681126   0.0000000   0.0000000), wk =   0.0190476
        k(   18) = (   0.1681126   0.0000000   0.1200804), wk =   0.0380952
        k(   19) = (   0.1681126   0.0000000   0.2401608), wk =   0.0380952
        k(   20) = (   0.1681126   0.0000000   0.3602413), wk =   0.0380952
        k(   21) = (   0.1681126   0.1400938   0.0000000), wk =   0.0380952
        k(   22) = (   0.1681126   0.1400938   0.1200804), wk =   0.0761905
        k(   23) = (   0.1681126   0.1400938   0.2401608), wk =   0.0761905
        k(   24) = (   0.1681126   0.1400938   0.3602413), wk =   0.0761905
        k(   25) = (   0.1681126   0.2801876   0.0000000), wk =   0.0380952
        k(   26) = (   0.1681126   0.2801876   0.1200804), wk =   0.0761905
        k(   27) = (   0.1681126   0.2801876   0.2401608), wk =   0.0761905
        k(   28) = (   0.1681126   0.2801876   0.3602413), wk =   0.0761905
        k(   29) = (   0.1681126  -0.4202815   0.0000000), wk =   0.0190476
        k(   30) = (   0.1681126  -0.4202815   0.1200804), wk =   0.0380952
        k(   31) = (   0.1681126  -0.4202815   0.2401608), wk =   0.0380952
        k(   32) = (   0.1681126  -0.4202815   0.3602413), wk =   0.0380952
        k(   33) = (   0.3362252   0.0000000   0.0000000), wk =   0.0190476
        k(   34) = (   0.3362252   0.0000000   0.1200804), wk =   0.0380952
        k(   35) = (   0.3362252   0.0000000   0.2401608), wk =   0.0380952
        k(   36) = (   0.3362252   0.0000000   0.3602413), wk =   0.0380952
        k(   37) = (   0.3362252   0.1400938   0.0000000), wk =   0.0380952
        k(   38) = (   0.3362252   0.1400938   0.1200804), wk =   0.0761905
        k(   39) = (   0.3362252   0.1400938   0.2401608), wk =   0.0761905
        k(   40) = (   0.3362252   0.1400938   0.3602413), wk =   0.0761905
        k(   41) = (   0.3362252   0.2801876   0.0000000), wk =   0.0380952
        k(   42) = (   0.3362252   0.2801876   0.1200804), wk =   0.0761905
        k(   43) = (   0.3362252   0.2801876   0.2401608), wk =   0.0761905
        k(   44) = (   0.3362252   0.2801876   0.3602413), wk =   0.0761905
        k(   45) = (   0.3362252  -0.4202815   0.0000000), wk =   0.0190476
        k(   46) = (   0.3362252  -0.4202815   0.1200804), wk =   0.0380952
        k(   47) = (   0.3362252  -0.4202815   0.2401608), wk =   0.0380952
        k(   48) = (   0.3362252  -0.4202815   0.3602413), wk =   0.0380952

     Largest allocated arrays     est. size (Mb)     dimensions
     Largest temporary arrays     est. size (Mb)     dimensions

     Initial potential from superposition of free atoms

     Starting from uniform charge
     Starting wfc are    0 randomized atomic wfcs

     Writing output data file Prototype-La-cP8-Cr3Si.save

     Self-consistent Calculation

[...]

     iteration #  8     ecut=    40.00 Ry     beta=0.70
     CG style diagonalization
     c_bands:  1 eigenvalues not converged
     c_bands:  1 eigenvalues not converged
     c_bands:  1 eigenvalues not converged
     c_bands:  2 eigenvalues not converged
     c_bands:  1 eigenvalues not converged
     c_bands:  1 eigenvalues not converged
     c_bands:  1 eigenvalues not converged
     c_bands:  1 eigenvalues not converged
     c_bands:  2 eigenvalues not converged
     c_bands:  1 eigenvalues not converged
     c_bands:  2 eigenvalues not converged
     ethr =  6.88E-07,  avg # of iterations =  3.7

[...]

     total energy              =   -2789.74162013 Ry
     Harris-Foulkes estimate   =   -2789.74163572 Ry
     estimated scf accuracy    <       0.00002603 Ry

     iteration # 10     ecut=    40.00 Ry     beta=0.70
     CG style diagonalization
     ethr =  1.45E-08,  avg # of iterations =  3.5

     End of self-consistent calculation

[...]

          k = 0.3362-0.4203 0.3602 (  4490 PWs)   bands (ev):

   -81.0030 -80.9988 -80.9973 -80.9960 -80.9947 -80.9886 -61.7063 -61.7061
   -39.8530 -39.8421 -39.8072 -39.8071 -39.7650 -39.7491 -39.6407 -39.6407
   -39.6389 -39.6358 -39.6355 -39.6346 -39.6330 -39.6307 -39.6286 -39.6274
   -39.6211 -39.6192 -25.9247 -25.9246 -25.9221 -25.9219 -25.9156 -25.9156
     8.3839   8.5003   8.7750   8.7823   8.7898   8.8009   8.8287   8.8378
     8.9354   8.9420   8.9952   9.0098   9.0262   9.0487   9.0927   9.0990
     9.2594   9.2596   9.3729   9.3819   9.3916   9.4110   9.4466   9.4787
     9.5305   9.5465   9.5723   9.5790   9.5955   9.6067  16.7565  16.7567
    16.9493  16.9596  17.0734  17.0934  17.6936  17.6937  17.7004  17.7005
    18.5923  18.6172  19.3038  19.3189  19.7830  19.8037  20.9345  20.9355
    28.7039  28.9087  29.5304  29.5779  30.5202  30.9297  31.1746  31.2391
    31.4536  31.5542  31.7136  31.8074  32.4488  32.4497  32.5310  32.6592
    32.9619  33.1876  33.3411  33.4396  33.9095  34.0512  34.1544  34.2283
    37.9835  38.1183  38.4976  38.5227

     the Fermi energy is    31.1581 ev

!    total energy              =   -2789.74162476 Ry
     Harris-Foulkes estimate   =   -2789.74162515 Ry
     estimated scf accuracy    <       0.00000047 Ry

     The total energy is the sum of the following terms:

     one-electron contribution =    -731.63918257 Ry
     hartree contribution      =     475.79948233 Ry
     xc contribution           =    -232.92265108 Ry
     ewald contribution        =   -2300.67897812 Ry
     smearing contrib. (-TS)   =      -0.30029532 Ry

     convergence has been achieved in  10 iterations

     Forces acting on atoms (Ry/au):

     atom    1 type  1   force =     0.00000000    0.00000000    0.00000000
     atom    2 type  1   force =     0.00000000    0.00000000    0.00000000
     atom    3 type  1   force =     0.00000000    0.00000000    0.00000000
     atom    4 type  1   force =     0.00000000    0.00000000    0.00000000
     atom    5 type  1   force =     0.00000000    0.00000000    0.00000000
     atom    6 type  1   force =     0.00000000    0.00000000    0.00000000
     atom    7 type  2   force =     0.00000000    0.00000000    0.00000000
     atom    8 type  2   force =     0.00000000    0.00000000    0.00000000

     Total force =     0.000000     Total SCF correction =     0.000000

     entering subroutine stress ...

          total   stress  (Ry/bohr**3)                   (kbar)     P=  304.03
   0.00206674   0.00000000   0.00000000        304.03      0.00      0.00
   0.00000000   0.00206674   0.00000000          0.00    304.03      0.00
   0.00000000   0.00000000   0.00206674          0.00      0.00    304.03

     Writing output data file Prototype-La-cP8-Cr3Si.save

     General routines

     Parallel routines

   This run was terminated on:  16:32: 1  22Mar2018

   JOB DONE.