     Program PWSCF v.5.0.2 starts on 22Mar2018 at 21:12: 1

     Current dimensions of program PWSCF are:
     Max number of different atomic species (ntypx) = 10
     Max number of k-points (npk) =  40000
     Max angular momentum in pseudopotentials (lmaxx) =  3
     Waiting for input...
     Reading input from standard input

     Subspace diagonalization in iterative solution of the eigenvalue problem:
     a serial algorithm will be used

     bravais-lattice index     =            0
     lattice parameter (alat)  =      12.0168  a.u.
     unit-cell volume          =    1187.3413 (a.u.)^3
     number of atoms/cell      =            8
     number of atomic types    =            2
     number of electrons       =       146.00
     number of Kohn-Sham states=           88
     kinetic-energy cutoff     =      40.0000  Ry
     charge density cutoff     =     160.0000  Ry
     convergence threshold     =      1.0E-04
     mixing beta               =       0.7000
     number of iterations used =            8  plain     mixing
     Exchange-correlation      = SLA-PZ-NOGX-NOGC ( 1 1 0 0 0)
     EXX-fraction              =        0.00
     nstep                     =           50

     celldm(1)=  12.016801  celldm(2)=   0.000000  celldm(3)=   0.000000
     celldm(4)=   0.000000  celldm(5)=   0.000000  celldm(6)=   0.000000

     crystal axes: (cart. coord. in units of alat)
               a(1) = (   1.000000   0.000000   0.000000 )
               a(2) = (  -0.500000   0.866025   0.000000 )
               a(3) = (   0.000000   0.000000   0.790093 )

     reciprocal axes: (cart. coord. in units 2 pi/alat)
               b(1) = (  1.000000  0.577350  0.000000 )
               b(2) = (  0.000000  1.154701  0.000000 )
               b(3) = (  0.000000  0.000000  1.265674 )

     PseudoPot. # 1 for Eu read from file:
     /home/cwx6513/pp.La/Eu.UPF
     MD5 check sum: 5efdbbfc50c6a10138933a6429836ad2
     Pseudo is Norm-conserving, Zval = 17.0
     Generated in analytical, separable form
     Using radial grid of 1261 points,  6 beta functions with:
                l(1) =   0
                l(2) =   0
                l(3) =   1
                l(4) =   1
                l(5) =   2
                l(6) =   3

     PseudoPot. # 2 for Er read from file:
     /home/cwx6513/pp.La/Er.UPF
     MD5 check sum: e152ae21b84514339d8526f066caf99b
     Pseudo is Norm-conserving, Zval = 22.0
     Generated in analytical, separable form
     Using radial grid of 1267 points,  6 beta functions with:
                l(1) =   0
                l(2) =   0
                l(3) =   1
                l(4) =   1
                l(5) =   2
                l(6) =   3

     atomic species   valence    mass     pseudopotential
        Mg            17.00    24.30500     Eu( 1.00)
        Cd            22.00   112.41100     Er( 1.00)

     24 Sym. Ops., with inversion, found (12 have fractional translation)

   Cartesian axes

     site n.     atom                  positions (alat units)
         1           Mg  tau(   1) = (   0.2478935   0.7204716   0.1975233  )
         2           Mg  tau(   2) = (   0.7478935   0.1455538   0.5925699  )
         3           Mg  tau(   3) = (   0.2521065   0.1455538   0.5925699  )
         4           Mg  tau(   4) = (  -0.2478935   0.7204716   0.1975233  )
         5           Mg  tau(   5) = (   0.0000000   0.2911075   0.1975233  )
         6           Mg  tau(   6) = (   0.5000000   0.5749179   0.5925699  )
         7           Cd  tau(   7) = (   0.5000005   0.2886748   0.1975233  )
         8           Cd  tau(   8) = (  -0.0000005   0.5773506   0.5925699  )

     number of k points=    64  gaussian smearing, width (Ry)=  0.1000
                       cart. coord. in units 2pi/alat
        k(    1) = (   0.0000000   0.0000000   0.0000000), wk =   0.0095238
        k(    2) = (   0.0000000   0.0000000   0.1808105), wk =   0.0190476
        k(    3) = (   0.0000000   0.0000000   0.3616210), wk =   0.0190476
        k(    4) = (   0.0000000   0.0000000   0.5424315), wk =   0.0190476
        k(    5) = (   0.0000000   0.1924501   0.0000000), wk =   0.0190476
        k(    6) = (   0.0000000   0.1924501   0.1808105), wk =   0.0380952
        k(    7) = (   0.0000000   0.1924501   0.3616210), wk =   0.0380952
        k(    8) = (   0.0000000   0.1924501   0.5424315), wk =   0.0380952
        k(    9) = (   0.0000000   0.3849002   0.0000000), wk =   0.0190476
        k(   10) = (   0.0000000   0.3849002   0.1808105), wk =   0.0380952
        k(   11) = (   0.0000000   0.3849002   0.3616210), wk =   0.0380952
        k(   12) = (   0.0000000   0.3849002   0.5424315), wk =   0.0380952
        k(   13) = (   0.0000000  -0.5773503   0.0000000), wk =   0.0095238
        k(   14) = (   0.0000000  -0.5773503   0.1808105), wk =   0.0190476
        k(   15) = (   0.0000000  -0.5773503   0.3616210), wk =   0.0190476
        k(   16) = (   0.0000000  -0.5773503   0.5424315), wk =   0.0190476
        k(   17) = (   0.2000000   0.1154701   0.0000000), wk =   0.0190476
        k(   18) = (   0.2000000   0.1154701   0.1808105), wk =   0.0380952
        k(   19) = (   0.2000000   0.1154701   0.3616210), wk =   0.0380952
        k(   20) = (   0.2000000   0.1154701   0.5424315), wk =   0.0380952
        k(   21) = (   0.2000000   0.3079201   0.0000000), wk =   0.0190476
        k(   22) = (   0.2000000   0.3079201   0.1808105), wk =   0.0380952
        k(   23) = (   0.2000000   0.3079201   0.3616210), wk =   0.0380952
        k(   24) = (   0.2000000   0.3079201   0.5424315), wk =   0.0380952
        k(   25) = (   0.2000000   0.5003702   0.0000000), wk =   0.0190476
        k(   26) = (   0.2000000   0.5003702   0.1808105), wk =   0.0380952
        k(   27) = (   0.2000000   0.5003702   0.3616210), wk =   0.0380952
        k(   28) = (   0.2000000   0.5003702   0.5424315), wk =   0.0380952
        k(   29) = (   0.2000000  -0.4618802   0.0000000), wk =   0.0190476
        k(   30) = (   0.2000000  -0.4618802   0.1808105), wk =   0.0380952
        k(   31) = (   0.2000000  -0.4618802   0.3616210), wk =   0.0380952
        k(   32) = (   0.2000000  -0.4618802   0.5424315), wk =   0.0380952
        k(   33) = (   0.2000000  -0.2694301   0.0000000), wk =   0.0190476
        k(   34) = (   0.2000000  -0.2694301   0.1808105), wk =   0.0380952
        k(   35) = (   0.2000000  -0.2694301   0.3616210), wk =   0.0380952
        k(   36) = (   0.2000000  -0.2694301   0.5424315), wk =   0.0380952
        k(   37) = (   0.2000000  -0.0769800   0.0000000), wk =   0.0190476
        k(   38) = (   0.2000000  -0.0769800   0.1808105), wk =   0.0380952
        k(   39) = (   0.2000000  -0.0769800   0.3616210), wk =   0.0380952
        k(   40) = (   0.2000000  -0.0769800   0.5424315), wk =   0.0380952
        k(   41) = (   0.4000000   0.2309401   0.0000000), wk =   0.0190476
        k(   42) = (   0.4000000   0.2309401   0.1808105), wk =   0.0380952
        k(   43) = (   0.4000000   0.2309401   0.3616210), wk =   0.0380952
        k(   44) = (   0.4000000   0.2309401   0.5424315), wk =   0.0380952
        k(   45) = (   0.4000000   0.4233902   0.0000000), wk =   0.0190476
        k(   46) = (   0.4000000   0.4233902   0.1808105), wk =   0.0380952
        k(   47) = (   0.4000000   0.4233902   0.3616210), wk =   0.0380952
        k(   48) = (   0.4000000   0.4233902   0.5424315), wk =   0.0380952
        k(   49) = (   0.4000000   0.6158403   0.0000000), wk =   0.0190476
        k(   50) = (   0.4000000   0.6158403   0.1808105), wk =   0.0380952
        k(   51) = (   0.4000000   0.6158403   0.3616210), wk =   0.0380952
        k(   52) = (   0.4000000   0.6158403   0.5424315), wk =   0.0380952
        k(   53) = (   0.4000000  -0.3464102   0.0000000), wk =   0.0190476
        k(   54) = (   0.4000000  -0.3464102   0.1808105), wk =   0.0380952
        k(   55) = (   0.4000000  -0.3464102   0.3616210), wk =   0.0380952
        k(   56) = (   0.4000000  -0.3464102   0.5424315), wk =   0.0380952
        k(   57) = (   0.4000000  -0.1539601   0.0000000), wk =   0.0190476
        k(   58) = (   0.4000000  -0.1539601   0.1808105), wk =   0.0380952
        k(   59) = (   0.4000000  -0.1539601   0.3616210), wk =   0.0380952
        k(   60) = (   0.4000000  -0.1539601   0.5424315), wk =   0.0380952
        k(   61) = (   0.4000000   0.0384900   0.0000000), wk =   0.0190476
        k(   62) = (   0.4000000   0.0384900   0.1808105), wk =   0.0380952
        k(   63) = (   0.4000000   0.0384900   0.3616210), wk =   0.0380952
        k(   64) = (   0.4000000   0.0384900   0.5424315), wk =   0.0380952

     Largest allocated arrays     est. size (Mb)     dimensions
     Largest temporary arrays     est. size (Mb)     dimensions

     Initial potential from superposition of free atoms

     Starting from uniform charge
     Starting wfc are    0 randomized atomic wfcs

     Self-consistent Calculation

     iteration #  1     ecut=    40.00 Ry     beta=0.70
     CG style diagonalization
     c_bands:  4 eigenvalues not converged
     c_bands:  2 eigenvalues not converged
     c_bands:  5 eigenvalues not converged
     c_bands:  3 eigenvalues not converged
     c_bands:  4 eigenvalues not converged
     c_bands:  5 eigenvalues not converged
     c_bands:  2 eigenvalues not converged
     c_bands:  4 eigenvalues not converged
     c_bands:  5 eigenvalues not converged
     c_bands:  3 eigenvalues not converged
     c_bands:  3 eigenvalues not converged
     c_bands:  3 eigenvalues not converged
     c_bands:  5 eigenvalues not converged
     c_bands:  2 eigenvalues not converged
     c_bands:  2 eigenvalues not converged
     c_bands:  4 eigenvalues not converged
     c_bands:  5 eigenvalues not converged
     c_bands:  4 eigenvalues not converged
     c_bands:  5 eigenvalues not converged
     c_bands:  4 eigenvalues not converged
     c_bands:  4 eigenvalues not converged
     c_bands:  5 eigenvalues not converged
     c_bands:  4 eigenvalues not converged
     c_bands:  4 eigenvalues not converged
     c_bands:  5 eigenvalues not converged
     ethr =  1.00E-02,  avg # of iterations = 14.8

     total energy              =   -1099.19869740 Ry
     Harris-Foulkes estimate   =   -2195.92865978 Ry
     estimated scf accuracy    <    1325.62050219 Ry

[...]

     iteration #  4     ecut=    40.00 Ry     beta=0.70
     CG style diagonalization
     ethr =  1.00E-02,  avg # of iterations =  6.0

[...]

     End of self-consistent calculation

          k = 0.0000 0.0000 0.0000 (  5047 PWs)   bands (ev):

   -78.9226 -78.9169 -40.8417 -40.8378 -40.8378 -40.8355 -40.8274 -40.8274
   -40.8129 -40.7460 -40.7459 -40.7430 -40.7131 -40.7130 -13.8248 -13.8005
   -13.6719 -13.6145 -13.6144 -13.6140 -13.6139 -13.5751 -13.5751 -13.4480
   -13.3272 -13.3272 -13.2246 -13.2178 -13.2178 -13.2134 -13.2025 -13.2024
     6.1495   6.1495   6.1552   6.1584   6.1584   6.1674   6.1928   6.1928
     6.2457   6.2457  12.2223  13.4113  16.0671  16.5847  16.9627  16.9942
    16.9942  17.0503  17.0503  17.7077  17.7078  18.0888  18.2527  18.2795
    18.2796  18.8124  18.8124  19.1018  19.1239  19.1239  20.2796  20.2796
[...]
        k(   13) = (   0.0000000  -0.5881394   0.0000000), wk =   0.0095238
        k(   14) = (   0.0000000  -0.5881394   0.1806659), wk =   0.0190476
        k(   15) = (   0.0000000  -0.5881394   0.3613317), wk =   0.0190476
        k(   16) = (   0.0000000  -0.5881394   0.5419976), wk =   0.0190476
        k(   17) = (   0.2037375   0.1176279   0.0000000), wk =   0.0190476
        k(   18) = (   0.2037375   0.1176279   0.1806659), wk =   0.0380952
        k(   19) = (   0.2037375   0.1176279   0.3613317), wk =   0.0380952
        k(   20) = (   0.2037375   0.1176279   0.5419976), wk =   0.0380952
        k(   21) = (   0.2037375   0.3136744   0.0000000), wk =   0.0190476
        k(   22) = (   0.2037375   0.3136744   0.1806659), wk =   0.0380952
        k(   23) = (   0.2037375   0.3136744   0.3613317), wk =   0.0380952
        k(   24) = (   0.2037375   0.3136744   0.5419976), wk =   0.0380952
        k(   25) = (   0.2037375   0.5097208   0.0000000), wk =   0.0190476
        k(   26) = (   0.2037375   0.5097208   0.1806659), wk =   0.0380952
        k(   27) = (   0.2037375   0.5097208   0.3613317), wk =   0.0380952
        k(   28) = (   0.2037375   0.5097208   0.5419976), wk =   0.0380952
        k(   29) = (   0.2037375  -0.4705115   0.0000000), wk =   0.0190476
        k(   30) = (   0.2037375  -0.4705115   0.1806659), wk =   0.0380952
        k(   31) = (   0.2037375  -0.4705115   0.3613317), wk =   0.0380952
        k(   32) = (   0.2037375  -0.4705115   0.5419976), wk =   0.0380952
        k(   33) = (   0.2037375  -0.2744651   0.0000000), wk =   0.0190476
        k(   34) = (   0.2037375  -0.2744651   0.1806659), wk =   0.0380952
        k(   35) = (   0.2037375  -0.2744651   0.3613317), wk =   0.0380952
        k(   36) = (   0.2037375  -0.2744651   0.5419976), wk =   0.0380952
        k(   37) = (   0.2037375  -0.0784186   0.0000000), wk =   0.0190476
        k(   38) = (   0.2037375  -0.0784186   0.1806659), wk =   0.0380952
        k(   39) = (   0.2037375  -0.0784186   0.3613317), wk =   0.0380952
        k(   40) = (   0.2037375  -0.0784186   0.5419976), wk =   0.0380952
        k(   41) = (   0.4074749   0.2352558   0.0000000), wk =   0.0190476
        k(   42) = (   0.4074749   0.2352558   0.1806659), wk =   0.0380952
        k(   43) = (   0.4074749   0.2352558   0.3613317), wk =   0.0380952
        k(   44) = (   0.4074749   0.2352558   0.5419976), wk =   0.0380952
        k(   45) = (   0.4074749   0.4313022   0.0000000), wk =   0.0190476
        k(   46) = (   0.4074749   0.4313022   0.1806659), wk =   0.0380952
        k(   47) = (   0.4074749   0.4313022   0.3613317), wk =   0.0380952
        k(   48) = (   0.4074749   0.4313022   0.5419976), wk =   0.0380952
        k(   49) = (   0.4074749   0.6273487   0.0000000), wk =   0.0190476
        k(   50) = (   0.4074749   0.6273487   0.1806659), wk =   0.0380952
        k(   51) = (   0.4074749   0.6273487   0.3613317), wk =   0.0380952
        k(   52) = (   0.4074749   0.6273487   0.5419976), wk =   0.0380952
        k(   53) = (   0.4074749  -0.3528837   0.0000000), wk =   0.0190476
        k(   54) = (   0.4074749  -0.3528837   0.1806659), wk =   0.0380952
        k(   55) = (   0.4074749  -0.3528837   0.3613317), wk =   0.0380952
        k(   56) = (   0.4074749  -0.3528837   0.5419976), wk =   0.0380952
        k(   57) = (   0.4074749  -0.1568372   0.0000000), wk =   0.0190476
        k(   58) = (   0.4074749  -0.1568372   0.1806659), wk =   0.0380952
        k(   59) = (   0.4074749  -0.1568372   0.3613317), wk =   0.0380952
        k(   60) = (   0.4074749  -0.1568372   0.5419976), wk =   0.0380952
        k(   61) = (   0.4074749   0.0392093   0.0000000), wk =   0.0190476
        k(   62) = (   0.4074749   0.0392093   0.1806659), wk =   0.0380952
        k(   63) = (   0.4074749   0.0392093   0.3613317), wk =   0.0380952
        k(   64) = (   0.4074749   0.0392093   0.5419976), wk =   0.0380952

[...]

     The maximum number of steps has been reached.

     End of BFGS Geometry Optimization
Begin final coordinates
     new unit-cell volume =   1145.09449 a.u.^3 (   169.68549 Ang^3 )

CELL_PARAMETERS (alat= 12.01680127)
   0.981655457   0.000000000   0.000000000
  -0.490827728   0.850138563   0.000000000
   0.000000000   0.000000000   0.790725761

ATOMIC_POSITIONS (crystal)
Mg       0.670198081   0.835099041   0.250000000
Mg       0.835099041   0.164900959   0.750000000
Mg       0.329801919   0.164900959   0.750000000
Mg       0.164900959   0.835099041   0.250000000
Mg       0.164900959   0.329801919   0.250000000
Mg       0.835099041   0.670198081   0.750000000
Cd       0.666667000   0.333333000   0.250000000
Cd       0.333333000   0.666667000   0.750000000
End final coordinates

     A final scf calculation at the relaxed structure.
     The G-vectors are recalculated for the final unit cell
     Results may differ from those at the preceding step.

     bravais-lattice index     =            0
     lattice parameter (alat)  =      12.0168  a.u.
     unit-cell volume          =    1145.0945 (a.u.)^3
     number of atoms/cell      =            8
     number of atomic types    =            2
     number of electrons       =       146.00
     number of Kohn-Sham states=           88
     kinetic-energy cutoff     =      40.0000  Ry
     charge density cutoff     =     160.0000  Ry
     convergence threshold     =      3.0E-05
     mixing beta               =       0.7000
     number of iterations used =            8  plain     mixing
     Exchange-correlation      = SLA-PZ-NOGX-NOGC ( 1 1 0 0 0)
     EXX-fraction              =        0.00

     celldm(1)=  12.016801  celldm(2)=   0.000000  celldm(3)=   0.000000
     celldm(4)=   0.000000  celldm(5)=   0.000000  celldm(6)=   0.000000

     crystal axes: (cart. coord. in units of alat)
               a(1) = (   0.981655   0.000000   0.000000 )
               a(2) = (  -0.490828   0.850139   0.000000 )
               a(3) = (   0.000000   0.000000   0.790726 )

     reciprocal axes: (cart. coord. in units 2 pi/alat)
               b(1) = (  1.018687  0.588139  0.000000 )
               b(2) = (  0.000000  1.176279  0.000000 )
               b(3) = (  0.000000  0.000000  1.264661 )

     PseudoPot. # 1 for Eu read from file:
     /home/cwx6513/pp.La/Eu.UPF
     MD5 check sum: 5efdbbfc50c6a10138933a6429836ad2
     Pseudo is Norm-conserving, Zval = 17.0
     Generated in analytical, separable form
     Using radial grid of 1261 points,  6 beta functions with:
                l(1) =   0
                l(2) =   0
                l(3) =   1
                l(4) =   1
                l(5) =   2
                l(6) =   3

     PseudoPot. # 2 for Er read from file:
     /home/cwx6513/pp.La/Er.UPF
     MD5 check sum: e152ae21b84514339d8526f066caf99b
     Pseudo is Norm-conserving, Zval = 22.0
     Generated in analytical, separable form
     Using radial grid of 1267 points,  6 beta functions with:
                l(1) =   0
                l(2) =   0
                l(3) =   1
                l(4) =   1
                l(5) =   2
                l(6) =   3

     atomic species   valence    mass     pseudopotential
        Mg            17.00    24.30500     Eu( 1.00)
        Cd            22.00   112.41100     Er( 1.00)

     24 Sym. Ops., with inversion, found (12 have fractional translation)

   Cartesian axes

     site n.     atom                  positions (alat units)
         1           Mg  tau(   1) = (   0.2480138   0.7099499   0.1976814  )
         2           Mg  tau(   2) = (   0.7388416   0.1401887   0.5930443  )
         3           Mg  tau(   3) = (   0.2428139   0.1401887   0.5930443  )
         4           Mg  tau(   4) = (  -0.2480138   0.7099499   0.1976814  )
         5           Mg  tau(   5) = (   0.0000000   0.2803773   0.1976814  )
         6           Mg  tau(   6) = (   0.4908277   0.5697612   0.5930443  )
         7           Cd  tau(   7) = (   0.4908282   0.2833792   0.1976814  )
         8           Cd  tau(   8) = (  -0.0000005   0.5667593   0.5930443  )

     number of k points=    64  gaussian smearing, width (Ry)=  0.1000
                       cart. coord. in units 2pi/alat
        k(    1) = (   0.0000000   0.0000000   0.0000000), wk =   0.0095238
        k(    2) = (   0.0000000   0.0000000   0.1806659), wk =   0.0190476
        k(    3) = (   0.0000000   0.0000000   0.3613317), wk =   0.0190476
        k(    4) = (   0.0000000   0.0000000   0.5419976), wk =   0.0190476
        k(    5) = (   0.0000000   0.1960465   0.0000000), wk =   0.0190476
        k(    6) = (   0.0000000   0.1960465   0.1806659), wk =   0.0380952
        k(    7) = (   0.0000000   0.1960465   0.3613317), wk =   0.0380952
        k(    8) = (   0.0000000   0.1960465   0.5419976), wk =   0.0380952
        k(    9) = (   0.0000000   0.3920929   0.0000000), wk =   0.0190476
        k(   10) = (   0.0000000   0.3920929   0.1806659), wk =   0.0380952
        k(   11) = (   0.0000000   0.3920929   0.3613317), wk =   0.0380952
        k(   12) = (   0.0000000   0.3920929   0.5419976), wk =   0.0380952
        k(   13) = (   0.0000000  -0.5881394   0.0000000), wk =   0.0095238
        k(   14) = (   0.0000000  -0.5881394   0.1806659), wk =   0.0190476
        k(   15) = (   0.0000000  -0.5881394   0.3613317), wk =   0.0190476
        k(   16) = (   0.0000000  -0.5881394   0.5419976), wk =   0.0190476
        k(   17) = (   0.2037375   0.1176279   0.0000000), wk =   0.0190476
        k(   18) = (   0.2037375   0.1176279   0.1806659), wk =   0.0380952
        k(   19) = (   0.2037375   0.1176279   0.3613317), wk =   0.0380952
        k(   20) = (   0.2037375   0.1176279   0.5419976), wk =   0.0380952
        k(   21) = (   0.2037375   0.3136744   0.0000000), wk =   0.0190476
        k(   22) = (   0.2037375   0.3136744   0.1806659), wk =   0.0380952
        k(   23) = (   0.2037375   0.3136744   0.3613317), wk =   0.0380952
        k(   24) = (   0.2037375   0.3136744   0.5419976), wk =   0.0380952
        k(   25) = (   0.2037375   0.5097208   0.0000000), wk =   0.0190476
        k(   26) = (   0.2037375   0.5097208   0.1806659), wk =   0.0380952
        k(   27) = (   0.2037375   0.5097208   0.3613317), wk =   0.0380952
        k(   28) = (   0.2037375   0.5097208   0.5419976), wk =   0.0380952
        k(   29) = (   0.2037375  -0.4705115   0.0000000), wk =   0.0190476
        k(   30) = (   0.2037375  -0.4705115   0.1806659), wk =   0.0380952
        k(   31) = (   0.2037375  -0.4705115   0.3613317), wk =   0.0380952
        k(   32) = (   0.2037375  -0.4705115   0.5419976), wk =   0.0380952
        k(   33) = (   0.2037375  -0.2744651   0.0000000), wk =   0.0190476
        k(   34) = (   0.2037375  -0.2744651   0.1806659), wk =   0.0380952
        k(   35) = (   0.2037375  -0.2744651   0.3613317), wk =   0.0380952
        k(   36) = (   0.2037375  -0.2744651   0.5419976), wk =   0.0380952
        k(   37) = (   0.2037375  -0.0784186   0.0000000), wk =   0.0190476
        k(   38) = (   0.2037375  -0.0784186   0.1806659), wk =   0.0380952
        k(   39) = (   0.2037375  -0.0784186   0.3613317), wk =   0.0380952
        k(   40) = (   0.2037375  -0.0784186   0.5419976), wk =   0.0380952
        k(   41) = (   0.4074749   0.2352558   0.0000000), wk =   0.0190476
        k(   42) = (   0.4074749   0.2352558   0.1806659), wk =   0.0380952
        k(   43) = (   0.4074749   0.2352558   0.3613317), wk =   0.0380952
        k(   44) = (   0.4074749   0.2352558   0.5419976), wk =   0.0380952
        k(   45) = (   0.4074749   0.4313022   0.0000000), wk =   0.0190476
        k(   46) = (   0.4074749   0.4313022   0.1806659), wk =   0.0380952
        k(   47) = (   0.4074749   0.4313022   0.3613317), wk =   0.0380952
        k(   48) = (   0.4074749   0.4313022   0.5419976), wk =   0.0380952
        k(   49) = (   0.4074749   0.6273487   0.0000000), wk =   0.0190476
        k(   50) = (   0.4074749   0.6273487   0.1806659), wk =   0.0380952
        k(   51) = (   0.4074749   0.6273487   0.3613317), wk =   0.0380952
        k(   52) = (   0.4074749   0.6273487   0.5419976), wk =   0.0380952
        k(   53) = (   0.4074749  -0.3528837   0.0000000), wk =   0.0190476
        k(   54) = (   0.4074749  -0.3528837   0.1806659), wk =   0.0380952
        k(   55) = (   0.4074749  -0.3528837   0.3613317), wk =   0.0380952
        k(   56) = (   0.4074749  -0.3528837   0.5419976), wk =   0.0380952
        k(   57) = (   0.4074749  -0.1568372   0.0000000), wk =   0.0190476
        k(   58) = (   0.4074749  -0.1568372   0.1806659), wk =   0.0380952
        k(   59) = (   0.4074749  -0.1568372   0.3613317), wk =   0.0380952
        k(   60) = (   0.4074749  -0.1568372   0.5419976), wk =   0.0380952
        k(   61) = (   0.4074749   0.0392093   0.0000000), wk =   0.0190476
        k(   62) = (   0.4074749   0.0392093   0.1806659), wk =   0.0380952
        k(   63) = (   0.4074749   0.0392093   0.3613317), wk =   0.0380952
        k(   64) = (   0.4074749   0.0392093   0.5419976), wk =   0.0380952

     Largest allocated arrays     est. size (Mb)     dimensions
     Largest temporary arrays     est. size (Mb)     dimensions

     Initial potential from superposition of free atoms

     Starting from uniform charge
     Starting wfc are    0 randomized atomic wfcs

     Writing output data file Prototype-La-hP8-Mg3Cd.save

     Self-consistent Calculation

[...]

     iteration # 10     ecut=    40.00 Ry     beta=0.70
     CG style diagonalization
     c_bands:  1 eigenvalues not converged
     c_bands:  1 eigenvalues not converged
     c_bands:  1 eigenvalues not converged
     ethr =  2.02E-07,  avg # of iterations =  4.4

     total energy              =   -1709.78109764 Ry
     Harris-Foulkes estimate   =   -1709.78111301 Ry
     estimated scf accuracy    <       0.00003085 Ry

     iteration # 11     ecut=    40.00 Ry     beta=0.70
     CG style diagonalization
     ethr =  2.11E-08,  avg # of iterations =  3.7

     End of self-consistent calculation

[...]

          k = 0.4075 0.0392 0.5420 (  4887 PWs)   bands (ev):

   -77.9571 -77.9534 -39.8929 -39.8885 -39.8773 -39.8754 -39.8702 -39.8685
   -39.8065 -39.7947 -39.7806 -39.7794 -39.7725 -39.7709 -12.8477 -12.8364
   -12.8200 -12.8073 -12.7584 -12.7456 -12.5620 -12.5215 -12.4724 -12.4701
   -12.4222 -12.3834 -12.3541 -12.3489 -12.3326 -12.3025 -12.2665 -12.2606
     7.1028   7.1100   7.1153   7.1203   7.1337   7.1384   7.1610   7.1616
     7.1824   7.1863  14.3045  14.4182  17.0573  17.2137  17.7024  17.7373
    17.9710  18.1133  18.2217  18.3473  18.4740  18.6014  18.8414  18.8553
    19.2009  19.2431  19.5371  19.5557  20.0595  20.1566  20.1922  20.8769
    20.9543  21.0778  21.4225  21.5423  21.6127  21.6930  21.9574  22.0418
    22.5917  22.7151  22.9897  23.2811  23.3215  23.7420  25.2514  25.4215
    26.9265  27.2202  29.4211  29.6313  30.2773  30.5302  30.6713  31.3131

     the Fermi energy is    22.8423 ev

!    total energy              =   -1709.78110594 Ry
     Harris-Foulkes estimate   =   -1709.78110702 Ry
     estimated scf accuracy    <       0.00000132 Ry

     The total energy is the sum of the following terms:

     one-electron contribution =    -314.65886350 Ry
     hartree contribution      =     251.33866883 Ry
     xc contribution           =    -164.40047387 Ry
     ewald contribution        =   -1481.61137920 Ry
     smearing contrib. (-TS)   =      -0.44905819 Ry

     convergence has been achieved in  11 iterations

     Forces acting on atoms (Ry/au):

     atom    1 type  1   force =     0.00105661    0.00061003    0.00000000
     atom    2 type  1   force =     0.00105661   -0.00061003    0.00000000
     atom    3 type  1   force =    -0.00105661   -0.00061003    0.00000000
     atom    4 type  1   force =    -0.00105661    0.00061003    0.00000000
     atom    5 type  1   force =     0.00000000   -0.00122007    0.00000000
     atom    6 type  1   force =     0.00000000    0.00122007    0.00000000
     atom    7 type  2   force =     0.00000000    0.00000000    0.00000000
     atom    8 type  2   force =     0.00000000    0.00000000    0.00000000

     Total force =     0.002989     Total SCF correction =     0.000000

     entering subroutine stress ...

          total   stress  (Ry/bohr**3)                   (kbar)     P= -401.89
  -0.00274860   0.00000000   0.00000000       -404.33      0.00      0.00
   0.00000000  -0.00274860   0.00000000          0.00   -404.33      0.00
   0.00000000   0.00000000  -0.00269885          0.00      0.00   -397.01

     Writing output data file Prototype-La-hP8-Mg3Cd.save

     General routines

     Parallel routines

   This run was terminated on:  22:12:27  22Mar2018

   JOB DONE.