     Program PWSCF v.5.0.2 starts on 22Mar2018 at 21:11:59

     Current dimensions of program PWSCF are:
     Max number of different atomic species (ntypx) = 10
     Max number of k-points (npk) =  40000
     Max angular momentum in pseudopotentials (lmaxx) =  3
     Waiting for input...
     Reading input from standard input

     Subspace diagonalization in iterative solution of the eigenvalue problem:
     a serial algorithm will be used

     bravais-lattice index     =            0
     lattice parameter (alat)  =       8.5346  a.u.
     unit-cell volume          =     621.6493 (a.u.)^3
     number of atoms/cell      =            8
     number of atomic types    =            2
     number of electrons       =       146.00
     number of Kohn-Sham states=           88
     kinetic-energy cutoff     =      40.0000  Ry
     charge density cutoff     =     160.0000  Ry
     convergence threshold     =      1.0E-04
     mixing beta               =       0.7000
     number of iterations used =            8  plain     mixing
     Exchange-correlation      = SLA-PZ-NOGX-NOGC ( 1 1 0 0 0)
     EXX-fraction              =        0.00
     nstep                     =           50

     celldm(1)=   8.534573  celldm(2)=   0.000000  celldm(3)=   0.000000
     celldm(4)=   0.000000  celldm(5)=   0.000000  celldm(6)=   0.000000

     crystal axes: (cart. coord. in units of alat)
               a(1) = (   1.000000   0.000000   0.000000 )
               a(2) = (   0.000000   1.000000   0.000000 )
               a(3) = (   0.000000   0.000000   1.000000 )

     reciprocal axes: (cart. coord. in units 2 pi/alat)
               b(1) = (  1.000000  0.000000  0.000000 )
               b(2) = (  0.000000  1.000000  0.000000 )
               b(3) = (  0.000000  0.000000  1.000000 )

     PseudoPot. # 1 for Eu read from file:
     /home/cwx6513/pp.La/Eu.UPF
     MD5 check sum: 5efdbbfc50c6a10138933a6429836ad2
     Pseudo is Norm-conserving, Zval = 17.0
     Generated in analytical, separable form
     Using radial grid of 1261 points,  6 beta functions with:
                l(1) =   0
                l(2) =   0
                l(3) =   1
                l(4) =   1
                l(5) =   2
                l(6) =   3

     PseudoPot. # 2 for Er read from file:
     /home/cwx6513/pp.La/Er.UPF
     MD5 check sum: e152ae21b84514339d8526f066caf99b
     Pseudo is Norm-conserving, Zval = 22.0
     Generated in analytical, separable form
     Using radial grid of 1267 points,  6 beta functions with:
                l(1) =   0
                l(2) =   0
                l(3) =   1
                l(4) =   1
                l(5) =   2
                l(6) =   3

     atomic species   valence    mass     pseudopotential
        Cr            17.00    51.99610     Eu( 1.00)
        Si            22.00    28.08550     Er( 1.00)

     48 Sym. Ops., with inversion, found (24 have fractional translation)

   Cartesian axes

     site n.     atom                  positions (alat units)
         1           Cr  tau(   1) = (   0.0000000   0.5000000   0.2500000  )
         2           Cr  tau(   2) = (   0.0000000   0.5000000   0.7500000  )
         3           Cr  tau(   3) = (   0.5000000   0.7500000   0.0000000  )
         4           Cr  tau(   4) = (   0.5000000   0.2500000   0.0000000  )
         5           Cr  tau(   5) = (   0.7500000   0.0000000   0.5000000  )
         6           Cr  tau(   6) = (   0.2500000   0.0000000   0.5000000  )
         7           Si  tau(   7) = (   0.5000000   0.5000000   0.5000000  )
         8           Si  tau(   8) = (   0.0000000   0.0000000   0.0000000  )

     number of k points=    48  gaussian smearing, width (Ry)=  0.1000
                       cart. coord. in units 2pi/alat
        k(    1) = (   0.0000000   0.0000000   0.0000000), wk =   0.0095238
        k(    2) = (   0.0000000   0.0000000   0.1428571), wk =   0.0190476
        k(    3) = (   0.0000000   0.0000000   0.2857143), wk =   0.0190476
        k(    4) = (   0.0000000   0.0000000   0.4285714), wk =   0.0190476
        k(    5) = (   0.0000000   0.1666667   0.0000000), wk =   0.0190476
        k(    6) = (   0.0000000   0.1666667   0.1428571), wk =   0.0380952
        k(    7) = (   0.0000000   0.1666667   0.2857143), wk =   0.0380952
        k(    8) = (   0.0000000   0.1666667   0.4285714), wk =   0.0380952
        k(    9) = (   0.0000000   0.3333333   0.0000000), wk =   0.0190476
        k(   10) = (   0.0000000   0.3333333   0.1428571), wk =   0.0380952
        k(   11) = (   0.0000000   0.3333333   0.2857143), wk =   0.0380952
        k(   12) = (   0.0000000   0.3333333   0.4285714), wk =   0.0380952
        k(   13) = (   0.0000000  -0.5000000   0.0000000), wk =   0.0095238
        k(   14) = (   0.0000000  -0.5000000   0.1428571), wk =   0.0190476
        k(   15) = (   0.0000000  -0.5000000   0.2857143), wk =   0.0190476
        k(   16) = (   0.0000000  -0.5000000   0.4285714), wk =   0.0190476
        k(   17) = (   0.2000000   0.0000000   0.0000000), wk =   0.0190476
        k(   18) = (   0.2000000   0.0000000   0.1428571), wk =   0.0380952
        k(   19) = (   0.2000000   0.0000000   0.2857143), wk =   0.0380952
        k(   20) = (   0.2000000   0.0000000   0.4285714), wk =   0.0380952
        k(   21) = (   0.2000000   0.1666667   0.0000000), wk =   0.0380952
        k(   22) = (   0.2000000   0.1666667   0.1428571), wk =   0.0761905
        k(   23) = (   0.2000000   0.1666667   0.2857143), wk =   0.0761905
        k(   24) = (   0.2000000   0.1666667   0.4285714), wk =   0.0761905
        k(   25) = (   0.2000000   0.3333333   0.0000000), wk =   0.0380952
        k(   26) = (   0.2000000   0.3333333   0.1428571), wk =   0.0761905
        k(   27) = (   0.2000000   0.3333333   0.2857143), wk =   0.0761905
        k(   28) = (   0.2000000   0.3333333   0.4285714), wk =   0.0761905
        k(   29) = (   0.2000000  -0.5000000   0.0000000), wk =   0.0190476
        k(   30) = (   0.2000000  -0.5000000   0.1428571), wk =   0.0380952
        k(   31) = (   0.2000000  -0.5000000   0.2857143), wk =   0.0380952
        k(   32) = (   0.2000000  -0.5000000   0.4285714), wk =   0.0380952
        k(   33) = (   0.4000000   0.0000000   0.0000000), wk =   0.0190476
        k(   34) = (   0.4000000   0.0000000   0.1428571), wk =   0.0380952
        k(   35) = (   0.4000000   0.0000000   0.2857143), wk =   0.0380952
        k(   36) = (   0.4000000   0.0000000   0.4285714), wk =   0.0380952
        k(   37) = (   0.4000000   0.1666667   0.0000000), wk =   0.0380952
        k(   38) = (   0.4000000   0.1666667   0.1428571), wk =   0.0761905
        k(   39) = (   0.4000000   0.1666667   0.2857143), wk =   0.0761905
        k(   40) = (   0.4000000   0.1666667   0.4285714), wk =   0.0761905
        k(   41) = (   0.4000000   0.3333333   0.0000000), wk =   0.0380952
        k(   42) = (   0.4000000   0.3333333   0.1428571), wk =   0.0761905
        k(   43) = (   0.4000000   0.3333333   0.2857143), wk =   0.0761905
        k(   44) = (   0.4000000   0.3333333   0.4285714), wk =   0.0761905
        k(   45) = (   0.4000000  -0.5000000   0.0000000), wk =   0.0190476
        k(   46) = (   0.4000000  -0.5000000   0.1428571), wk =   0.0380952
        k(   47) = (   0.4000000  -0.5000000   0.2857143), wk =   0.0380952
        k(   48) = (   0.4000000  -0.5000000   0.4285714), wk =   0.0380952

     Largest allocated arrays     est. size (Mb)     dimensions
     Largest temporary arrays     est. size (Mb)     dimensions

     Initial potential from superposition of free atoms

     Starting from uniform charge
     Starting wfc are    0 randomized atomic wfcs

     Self-consistent Calculation

     iteration #  1     ecut=    40.00 Ry     beta=0.70
     CG style diagonalization
     c_bands:  1 eigenvalues not converged
     ethr =  1.00E-02,  avg # of iterations = 11.2

     total energy              =   -1258.85098116 Ry
     Harris-Foulkes estimate   =   -1964.06258003 Ry
     estimated scf accuracy    <     855.59302442 Ry

[...]

     iteration #  4     ecut=    40.00 Ry     beta=0.70
     CG style diagonalization
     ethr =  1.00E-02,  avg # of iterations =  3.5

[...]

     End of self-consistent calculation

          k = 0.0000 0.0000 0.0000 (  2601 PWs)   bands (ev):

   -56.4712 -56.4210 -19.4942 -18.9739 -18.9739 -18.7999 -18.7999 -18.7999
   -18.6856 -18.6856 -18.6856 -17.6292 -17.6292 -17.6292   4.1389   4.1389
     4.8126   6.8529   6.8529   6.8529   8.4551   8.4551   8.4551   8.8190
     8.8190   8.8190   9.1801   9.1801   9.1801  11.6121  11.6121  11.6121
    26.6492  26.6492  27.3162  27.3162  27.4821  27.4821  27.4821  27.5476
    27.5476  27.5476  31.2546  32.3993  33.1119  33.1119  33.1119  35.2192
    35.3310  35.4876  35.4876  35.4876  35.5947  35.5947  39.4295  39.4295
    39.4295  39.7672  39.7672  41.1694  41.1694  41.1694  42.2873  42.2873
    42.2873  45.4848  45.4848  46.3577  46.3577  46.3577  46.9877  46.9877
    46.9877  48.1512  50.5352  50.5352  50.5352  50.8698  50.8698  50.8698
    52.2491  52.2492  53.6238  53.9067  53.9068  53.9069  54.7393  54.7393

[...]

     the Fermi energy is    46.9843 ev

!    total energy              =   -1703.12745717 Ry
     Harris-Foulkes estimate   =   -1703.12746365 Ry
     estimated scf accuracy    <       0.00000753 Ry

     The total energy is the sum of the following terms:

     one-electron contribution =     145.72379327 Ry
     hartree contribution      =     137.87462207 Ry
     xc contribution           =    -174.29774726 Ry
     ewald contribution        =   -1812.20075568 Ry
     smearing contrib. (-TS)   =      -0.22736958 Ry

     convergence has been achieved in   9 iterations

     Forces acting on atoms (Ry/au):

     atom    1 type  1   force =     0.00000000    0.00000000    0.00000000
     atom    2 type  1   force =     0.00000000    0.00000000    0.00000000
     atom    3 type  1   force =     0.00000000    0.00000000    0.00000000
     atom    4 type  1   force =     0.00000000    0.00000000    0.00000000
     atom    5 type  1   force =     0.00000000    0.00000000    0.00000000
     atom    6 type  1   force =     0.00000000    0.00000000    0.00000000
     atom    7 type  2   force =     0.00000000    0.00000000    0.00000000
     atom    8 type  2   force =     0.00000000    0.00000000    0.00000000

     Total force =     0.000000     Total SCF correction =     0.000000

     entering subroutine stress ...

          total   stress  (Ry/bohr**3)                   (kbar)     P= 4860.29
   0.03303959   0.00000000   0.00000000       4860.29      0.00      0.00
   0.00000000   0.03303959   0.00000000          0.00   4860.29      0.00
   0.00000000   0.00000000   0.03303959          0.00      0.00   4860.29

     BFGS Geometry Optimization

     number of scf cycles    =   1
     number of bfgs steps    =   0

     enthalpy new            =   -1703.1274571729 Ry

     new trust radius        =       0.5000000000 bohr
     new conv_thr            =       0.0001000000 Ry

     new unit-cell volume =    828.02266 a.u.^3 (   122.70030 Ang^3 )

CELL_PARAMETERS (alat=  8.53457320)
   1.100269143   0.000000000   0.000000000
[...]
        k(   48) = (   0.3635474  -0.4544343   0.3895151), wk =   0.0380952

[...]

     enthalpy old            =   -1703.1274571729 Ry
     enthalpy new            =   -1706.2261532718 Ry

     CASE: enthalpy_new < enthalpy_old

     small trust_radius: resetting bfgs history

     new trust radius        =       0.3754647059 bohr
     new conv_thr            =       0.0000010000 Ry

[...]

     number of scf cycles    =   3
     number of bfgs steps    =   2

     enthalpy old            =   -1706.2261532718 Ry
     enthalpy new            =   -1705.7527659152 Ry

     CASE: enthalpy_new > enthalpy_old

     new trust radius        =       0.0914249884 bohr

     trust_radius < trust_radius_min

     resetting bfgs history

     Message from routine bfgs:
     history already reset at previous step: stopping
     new conv_thr            =       0.0000010000 Ry

     new unit-cell volume =    989.66710 a.u.^3 (   146.65353 Ang^3 )

[...]

ATOMIC_POSITIONS (crystal)
Cr       0.000000000   0.500000000   0.250000000
Cr       0.000000000   0.500000000   0.750000000
Cr       0.500000000   0.750000000   0.000000000
Cr       0.500000000   0.250000000   0.000000000
Cr       0.750000000   0.000000000   0.500000000
Cr       0.250000000   0.000000000   0.500000000
Si       0.500000000   0.500000000   0.500000000
Si       0.000000000   0.000000000   0.000000000

     Writing output data file Prototype-La-cP8-Cr3Si.save
     NEW-OLD atomic charge density approx. for the potential
     NEW k-points:
        k(    1) = (   0.0000000   0.0000000   0.0000000), wk =   0.0095238
        k(    2) = (   0.0000000   0.0000000   0.1223453), wk =   0.0190476
        k(    3) = (   0.0000000   0.0000000   0.2446907), wk =   0.0190476
        k(    4) = (   0.0000000   0.0000000   0.3670360), wk =   0.0190476
        k(    5) = (   0.0000000   0.1427362   0.0000000), wk =   0.0190476
        k(    6) = (   0.0000000   0.1427362   0.1223453), wk =   0.0380952
        k(    7) = (   0.0000000   0.1427362   0.2446907), wk =   0.0380952
        k(    8) = (   0.0000000   0.1427362   0.3670360), wk =   0.0380952
        k(    9) = (   0.0000000   0.2854724   0.0000000), wk =   0.0190476
        k(   10) = (   0.0000000   0.2854724   0.1223453), wk =   0.0380952
        k(   11) = (   0.0000000   0.2854724   0.2446907), wk =   0.0380952
        k(   12) = (   0.0000000   0.2854724   0.3670360), wk =   0.0380952
        k(   13) = (   0.0000000  -0.4282086   0.0000000), wk =   0.0095238
        k(   14) = (   0.0000000  -0.4282086   0.1223453), wk =   0.0190476
        k(   15) = (   0.0000000  -0.4282086   0.2446907), wk =   0.0190476
        k(   16) = (   0.0000000  -0.4282086   0.3670360), wk =   0.0190476
        k(   17) = (   0.1712835   0.0000000   0.0000000), wk =   0.0190476
        k(   18) = (   0.1712835   0.0000000   0.1223453), wk =   0.0380952
        k(   19) = (   0.1712835   0.0000000   0.2446907), wk =   0.0380952
        k(   20) = (   0.1712835   0.0000000   0.3670360), wk =   0.0380952
        k(   21) = (   0.1712835   0.1427362   0.0000000), wk =   0.0380952
        k(   22) = (   0.1712835   0.1427362   0.1223453), wk =   0.0761905
        k(   23) = (   0.1712835   0.1427362   0.2446907), wk =   0.0761905
        k(   24) = (   0.1712835   0.1427362   0.3670360), wk =   0.0761905
        k(   25) = (   0.1712835   0.2854724   0.0000000), wk =   0.0380952
        k(   26) = (   0.1712835   0.2854724   0.1223453), wk =   0.0761905
        k(   27) = (   0.1712835   0.2854724   0.2446907), wk =   0.0761905
        k(   28) = (   0.1712835   0.2854724   0.3670360), wk =   0.0761905
        k(   29) = (   0.1712835  -0.4282086   0.0000000), wk =   0.0190476
        k(   30) = (   0.1712835  -0.4282086   0.1223453), wk =   0.0380952
        k(   31) = (   0.1712835  -0.4282086   0.2446907), wk =   0.0380952
        k(   32) = (   0.1712835  -0.4282086   0.3670360), wk =   0.0380952
        k(   33) = (   0.3425669   0.0000000   0.0000000), wk =   0.0190476
        k(   34) = (   0.3425669   0.0000000   0.1223453), wk =   0.0380952
        k(   35) = (   0.3425669   0.0000000   0.2446907), wk =   0.0380952
        k(   36) = (   0.3425669   0.0000000   0.3670360), wk =   0.0380952
        k(   37) = (   0.3425669   0.1427362   0.0000000), wk =   0.0380952
        k(   38) = (   0.3425669   0.1427362   0.1223453), wk =   0.0761905
        k(   39) = (   0.3425669   0.1427362   0.2446907), wk =   0.0761905
        k(   40) = (   0.3425669   0.1427362   0.3670360), wk =   0.0761905
        k(   41) = (   0.3425669   0.2854724   0.0000000), wk =   0.0380952
        k(   42) = (   0.3425669   0.2854724   0.1223453), wk =   0.0761905
        k(   43) = (   0.3425669   0.2854724   0.2446907), wk =   0.0761905
        k(   44) = (   0.3425669   0.2854724   0.3670360), wk =   0.0761905
        k(   45) = (   0.3425669  -0.4282086   0.0000000), wk =   0.0190476
        k(   46) = (   0.3425669  -0.4282086   0.1223453), wk =   0.0380952
        k(   47) = (   0.3425669  -0.4282086   0.2446907), wk =   0.0380952
        k(   48) = (   0.3425669  -0.4282086   0.3670360), wk =   0.0380952

[...]

     The maximum number of steps has been reached.

     End of BFGS Geometry Optimization
Begin final coordinates
     new unit-cell volume =    989.66710 a.u.^3 (   146.65353 Ang^3 )

CELL_PARAMETERS (alat=  8.53457320)
   1.167655074   0.000000000   0.000000000
   0.000000000   1.167655074   0.000000000
   0.000000000   0.000000000   1.167655074

ATOMIC_POSITIONS (crystal)
Cr       0.000000000   0.500000000   0.250000000
Cr       0.000000000   0.500000000   0.750000000
Cr       0.500000000   0.750000000   0.000000000
Cr       0.500000000   0.250000000   0.000000000
Cr       0.750000000   0.000000000   0.500000000
Cr       0.250000000   0.000000000   0.500000000
Si       0.500000000   0.500000000   0.500000000
Si       0.000000000   0.000000000   0.000000000
End final coordinates

     A final scf calculation at the relaxed structure.
     The G-vectors are recalculated for the final unit cell
     Results may differ from those at the preceding step.

     bravais-lattice index     =            0
     lattice parameter (alat)  =       8.5346  a.u.
     unit-cell volume          =     989.6671 (a.u.)^3
     number of atoms/cell      =            8
     number of atomic types    =            2
     number of electrons       =       146.00
     number of Kohn-Sham states=           88
     kinetic-energy cutoff     =      40.0000  Ry
     charge density cutoff     =     160.0000  Ry
     convergence threshold     =      1.0E-06
     mixing beta               =       0.7000
     number of iterations used =            8  plain     mixing
     Exchange-correlation      = SLA-PZ-NOGX-NOGC ( 1 1 0 0 0)
     EXX-fraction              =        0.00

     celldm(1)=   8.534573  celldm(2)=   0.000000  celldm(3)=   0.000000
     celldm(4)=   0.000000  celldm(5)=   0.000000  celldm(6)=   0.000000

     crystal axes: (cart. coord. in units of alat)
               a(1) = (   1.167655   0.000000   0.000000 )
               a(2) = (   0.000000   1.167655   0.000000 )
               a(3) = (   0.000000   0.000000   1.167655 )

     reciprocal axes: (cart. coord. in units 2 pi/alat)
               b(1) = (  0.856417  0.000000  0.000000 )
               b(2) = (  0.000000  0.856417  0.000000 )
               b(3) = (  0.000000  0.000000  0.856417 )

     PseudoPot. # 1 for Eu read from file:
     /home/cwx6513/pp.La/Eu.UPF
     MD5 check sum: 5efdbbfc50c6a10138933a6429836ad2
     Pseudo is Norm-conserving, Zval = 17.0
     Generated in analytical, separable form
     Using radial grid of 1261 points,  6 beta functions with:
                l(1) =   0
                l(2) =   0
                l(3) =   1
                l(4) =   1
                l(5) =   2
                l(6) =   3

     PseudoPot. # 2 for Er read from file:
     /home/cwx6513/pp.La/Er.UPF
     MD5 check sum: e152ae21b84514339d8526f066caf99b
     Pseudo is Norm-conserving, Zval = 22.0
     Generated in analytical, separable form
     Using radial grid of 1267 points,  6 beta functions with:
                l(1) =   0
                l(2) =   0
                l(3) =   1
                l(4) =   1
                l(5) =   2
                l(6) =   3

     atomic species   valence    mass     pseudopotential
        Cr            17.00    51.99610     Eu( 1.00)
        Si            22.00    28.08550     Er( 1.00)

     48 Sym. Ops., with inversion, found (24 have fractional translation)

   Cartesian axes

     site n.     atom                  positions (alat units)
         1           Cr  tau(   1) = (   0.0000000   0.5838275   0.2919138  )
         2           Cr  tau(   2) = (   0.0000000   0.5838275   0.8757413  )
         3           Cr  tau(   3) = (   0.5838275   0.8757413   0.0000000  )
         4           Cr  tau(   4) = (   0.5838275   0.2919138   0.0000000  )
         5           Cr  tau(   5) = (   0.8757413   0.0000000   0.5838275  )
         6           Cr  tau(   6) = (   0.2919138   0.0000000   0.5838275  )
         7           Si  tau(   7) = (   0.5838275   0.5838275   0.5838275  )
         8           Si  tau(   8) = (   0.0000000   0.0000000   0.0000000  )

     number of k points=    48  gaussian smearing, width (Ry)=  0.1000
                       cart. coord. in units 2pi/alat
        k(    1) = (   0.0000000   0.0000000   0.0000000), wk =   0.0095238
        k(    2) = (   0.0000000   0.0000000   0.1223453), wk =   0.0190476
        k(    3) = (   0.0000000   0.0000000   0.2446907), wk =   0.0190476
        k(    4) = (   0.0000000   0.0000000   0.3670360), wk =   0.0190476
        k(    5) = (   0.0000000   0.1427362   0.0000000), wk =   0.0190476
        k(    6) = (   0.0000000   0.1427362   0.1223453), wk =   0.0380952
        k(    7) = (   0.0000000   0.1427362   0.2446907), wk =   0.0380952
        k(    8) = (   0.0000000   0.1427362   0.3670360), wk =   0.0380952
        k(    9) = (   0.0000000   0.2854724   0.0000000), wk =   0.0190476
        k(   10) = (   0.0000000   0.2854724   0.1223453), wk =   0.0380952
        k(   11) = (   0.0000000   0.2854724   0.2446907), wk =   0.0380952
        k(   12) = (   0.0000000   0.2854724   0.3670360), wk =   0.0380952
        k(   13) = (   0.0000000  -0.4282086   0.0000000), wk =   0.0095238
        k(   14) = (   0.0000000  -0.4282086   0.1223453), wk =   0.0190476
        k(   15) = (   0.0000000  -0.4282086   0.2446907), wk =   0.0190476
        k(   16) = (   0.0000000  -0.4282086   0.3670360), wk =   0.0190476
        k(   17) = (   0.1712835   0.0000000   0.0000000), wk =   0.0190476
        k(   18) = (   0.1712835   0.0000000   0.1223453), wk =   0.0380952
        k(   19) = (   0.1712835   0.0000000   0.2446907), wk =   0.0380952
        k(   20) = (   0.1712835   0.0000000   0.3670360), wk =   0.0380952
        k(   21) = (   0.1712835   0.1427362   0.0000000), wk =   0.0380952
        k(   22) = (   0.1712835   0.1427362   0.1223453), wk =   0.0761905
        k(   23) = (   0.1712835   0.1427362   0.2446907), wk =   0.0761905
        k(   24) = (   0.1712835   0.1427362   0.3670360), wk =   0.0761905
        k(   25) = (   0.1712835   0.2854724   0.0000000), wk =   0.0380952
        k(   26) = (   0.1712835   0.2854724   0.1223453), wk =   0.0761905
        k(   27) = (   0.1712835   0.2854724   0.2446907), wk =   0.0761905
        k(   28) = (   0.1712835   0.2854724   0.3670360), wk =   0.0761905
        k(   29) = (   0.1712835  -0.4282086   0.0000000), wk =   0.0190476
        k(   30) = (   0.1712835  -0.4282086   0.1223453), wk =   0.0380952
        k(   31) = (   0.1712835  -0.4282086   0.2446907), wk =   0.0380952
        k(   32) = (   0.1712835  -0.4282086   0.3670360), wk =   0.0380952
        k(   33) = (   0.3425669   0.0000000   0.0000000), wk =   0.0190476
        k(   34) = (   0.3425669   0.0000000   0.1223453), wk =   0.0380952
        k(   35) = (   0.3425669   0.0000000   0.2446907), wk =   0.0380952
        k(   36) = (   0.3425669   0.0000000   0.3670360), wk =   0.0380952
        k(   37) = (   0.3425669   0.1427362   0.0000000), wk =   0.0380952
        k(   38) = (   0.3425669   0.1427362   0.1223453), wk =   0.0761905
        k(   39) = (   0.3425669   0.1427362   0.2446907), wk =   0.0761905
        k(   40) = (   0.3425669   0.1427362   0.3670360), wk =   0.0761905
        k(   41) = (   0.3425669   0.2854724   0.0000000), wk =   0.0380952
        k(   42) = (   0.3425669   0.2854724   0.1223453), wk =   0.0761905
        k(   43) = (   0.3425669   0.2854724   0.2446907), wk =   0.0761905
        k(   44) = (   0.3425669   0.2854724   0.3670360), wk =   0.0761905
        k(   45) = (   0.3425669  -0.4282086   0.0000000), wk =   0.0190476
        k(   46) = (   0.3425669  -0.4282086   0.1223453), wk =   0.0380952
        k(   47) = (   0.3425669  -0.4282086   0.2446907), wk =   0.0380952
        k(   48) = (   0.3425669  -0.4282086   0.3670360), wk =   0.0380952

     Largest allocated arrays     est. size (Mb)     dimensions
     Largest temporary arrays     est. size (Mb)     dimensions

     Initial potential from superposition of free atoms

     Starting from uniform charge
     Starting wfc are    0 randomized atomic wfcs

     Writing output data file Prototype-La-cP8-Cr3Si.save

     Self-consistent Calculation

[...]

     iteration #  9     ecut=    40.00 Ry     beta=0.70
     CG style diagonalization
     c_bands:  1 eigenvalues not converged
     c_bands:  1 eigenvalues not converged
     c_bands:  1 eigenvalues not converged
     c_bands:  1 eigenvalues not converged
     ethr =  1.28E-07,  avg # of iterations =  3.7

[...]

     total energy              =   -1709.18834742 Ry
     Harris-Foulkes estimate   =   -1709.18835365 Ry
     estimated scf accuracy    <       0.00001023 Ry

     iteration # 11     ecut=    40.00 Ry     beta=0.70
     CG style diagonalization
     ethr =  7.01E-09,  avg # of iterations =  3.7

     End of self-consistent calculation

[...]

          k = 0.3426-0.4282 0.3670 (  4234 PWs)   bands (ev):

   -73.7797 -73.7796 -35.7703 -35.7665 -35.7538 -35.7521 -35.7371 -35.7363
   -35.5847 -35.5777 -35.5577 -35.5563 -35.5342 -35.5248  -8.9849  -8.8952
    -8.6773  -8.6740  -8.6202  -8.6177  -8.4905  -8.4466  -8.3514  -8.3336
    -8.2963  -8.2864  -8.2392  -8.2274  -8.2179  -8.2071  -8.2053  -8.2035
    11.0492  11.0494  11.0578  11.0588  11.0634  11.0705  11.0817  11.0829
    11.0916  11.0932  18.2834  18.2834  21.1328  21.2552  21.5136  21.5725
    21.7120  21.7304  22.2655  22.2728  22.4443  22.4484  22.5096  22.6020
    23.0597  23.2716  23.6634  23.7359  23.8390  23.9220  24.0386  24.0623
    24.6205  24.6870  25.5811  25.6749  25.7774  25.8302  25.9314  26.0629
    26.4855  26.5200  27.1305  27.2901  27.4934  27.7561  28.3732  28.4445
    33.4307  33.4312  35.5714  35.7282  36.1991  36.2509  37.0310  37.0378

     the Fermi energy is    27.4627 ev

!    total energy              =   -1709.18835011 Ry
     Harris-Foulkes estimate   =   -1709.18835051 Ry
     estimated scf accuracy    <       0.00000052 Ry

     The total energy is the sum of the following terms:

     one-electron contribution =    -214.35601927 Ry
     hartree contribution      =     223.84809862 Ry
     xc contribution           =    -166.24825717 Ry
     ewald contribution        =   -1552.00006885 Ry
     smearing contrib. (-TS)   =      -0.43210344 Ry

     convergence has been achieved in  11 iterations

     Forces acting on atoms (Ry/au):

     atom    1 type  1   force =     0.00000000    0.00000000    0.00000000
     atom    2 type  1   force =     0.00000000    0.00000000    0.00000000
     atom    3 type  1   force =     0.00000000    0.00000000    0.00000000
     atom    4 type  1   force =     0.00000000    0.00000000    0.00000000
     atom    5 type  1   force =     0.00000000    0.00000000    0.00000000
     atom    6 type  1   force =     0.00000000    0.00000000    0.00000000
     atom    7 type  2   force =     0.00000000    0.00000000    0.00000000
     atom    8 type  2   force =     0.00000000    0.00000000    0.00000000

     Total force =     0.000000     Total SCF correction =     0.000000

     entering subroutine stress ...

          total   stress  (Ry/bohr**3)                   (kbar)     P=   52.70
   0.00035828   0.00000000   0.00000000         52.70      0.00      0.00
   0.00000000   0.00035828   0.00000000          0.00     52.70      0.00
   0.00000000   0.00000000   0.00035828          0.00      0.00     52.70

     Writing output data file Prototype-La-cP8-Cr3Si.save

     General routines

     Parallel routines

   This run was terminated on:  21:52: 9  22Mar2018

   JOB DONE.