     Program PWSCF v.5.0.2 starts on 22Mar2018 at 16:20:26

     Current dimensions of program PWSCF are:
     Max number of different atomic species (ntypx) = 10
     Max number of k-points (npk) =  40000
     Max angular momentum in pseudopotentials (lmaxx) =  3
     Waiting for input...
     Reading input from standard input

     Subspace diagonalization in iterative solution of the eigenvalue problem:
     a serial algorithm will be used

     bravais-lattice index     =            0
     lattice parameter (alat)  =       7.0151  a.u.
     unit-cell volume          =     862.2778 (a.u.)^3
     number of atoms/cell      =           12
     number of atomic types    =            2
     number of electrons       =       168.00
     number of Kohn-Sham states=          101
     kinetic-energy cutoff     =      40.0000  Ry
     charge density cutoff     =     160.0000  Ry
     convergence threshold     =      1.0E-04
     mixing beta               =       0.7000
     number of iterations used =            8  plain     mixing
     Exchange-correlation      = SLA-PZ-NOGX-NOGC ( 1 1 0 0 0)
     EXX-fraction              =        0.00
     nstep                     =           50

     celldm(1)=   7.015105  celldm(2)=   0.000000  celldm(3)=   0.000000
     celldm(4)=   0.000000  celldm(5)=   0.000000  celldm(6)=   0.000000

     crystal axes: (cart. coord. in units of alat)
               a(1) = (   1.000000   0.000000   0.000000 )
               a(2) = (   0.000000   1.315963   0.000000 )
               a(3) = (   0.000000   0.000000   1.898020 )

     reciprocal axes: (cart. coord. in units 2 pi/alat)
               b(1) = (  1.000000  0.000000  0.000000 )
               b(2) = (  0.000000  0.759900  0.000000 )
               b(3) = (  0.000000  0.000000  0.526865 )

     PseudoPot. # 1 for Pr read from file:
     /home/cwx6513/pp.La/Pr.UPF
     MD5 check sum: 70e2b4b153859e92c8c91247dfc63203
     Pseudo is Norm-conserving, Zval = 13.0
     Generated in analytical, separable form
     Using radial grid of 1255 points,  6 beta functions with:
                l(1) =   0
                l(2) =   0
                l(3) =   1
                l(4) =   1
                l(5) =   2
                l(6) =   3

     PseudoPot. # 2 for Sm read from file:
     /home/cwx6513/pp.La/Sm.UPF
     MD5 check sum: 5079e8b144a06bfcdbc14fb02b96ab09
     Pseudo is Norm-conserving, Zval = 16.0
     Generated in analytical, separable form
     Using radial grid of 1259 points,  6 beta functions with:
                l(1) =   0
                l(2) =   0
                l(3) =   1
                l(4) =   1
                l(5) =   2
                l(6) =   3

     atomic species   valence    mass     pseudopotential
        Co            13.00    58.93320     Pr( 1.00)
        Si            16.00    28.08550     Sm( 1.00)

      8 Sym. Ops., with inversion, found ( 6 have fractional translation)

   Cartesian axes

     site n.     atom                  positions (alat units)
         1           Co  tau(   1) = (   0.7500000   1.0875135   0.8270358  )
         2           Co  tau(   2) = (   0.2500000   0.2284499   1.0709846  )
         3           Co  tau(   3) = (   0.7500000   0.4295318   0.1219744  )
         4           Co  tau(   4) = (   0.2500000   0.8864316   1.7760460  )
         5           Co  tau(   5) = (   0.2500000   0.7067855   0.5358966  )
         6           Co  tau(   6) = (   0.7500000   0.6091779   1.3621238  )
         7           Co  tau(   7) = (   0.2500000   0.0488038   0.4131136  )
         8           Co  tau(   8) = (   0.7500000   1.2671596   1.4849068  )
         9           Si  tau(   9) = (   0.2500000   0.2669484   1.6960710  )
        10           Si  tau(  10) = (   0.7500000   1.0490149   0.2019494  )
        11           Si  tau(  11) = (   0.2500000   0.9249301   1.1509596  )
        12           Si  tau(  12) = (   0.7500000   0.3910333   0.7470608  )

     number of k points=    12  gaussian smearing, width (Ry)=  0.1000
                       cart. coord. in units 2pi/alat
        k(    1) = (   0.0000000   0.0000000   0.0000000), wk =   0.0833333
        k(    2) = (   0.0000000   0.0000000   0.1317162), wk =   0.1666667
        k(    3) = (   0.0000000   0.0000000  -0.2634324), wk =   0.0833333
        k(    4) = (   0.0000000   0.2532999   0.0000000), wk =   0.1666667
        k(    5) = (   0.0000000   0.2532999   0.1317162), wk =   0.3333333
        k(    6) = (   0.0000000   0.2532999  -0.2634324), wk =   0.1666667
        k(    7) = (  -0.5000000   0.0000000   0.0000000), wk =   0.0833333
        k(    8) = (  -0.5000000   0.0000000   0.1317162), wk =   0.1666667
        k(    9) = (  -0.5000000   0.0000000  -0.2634324), wk =   0.0833333
        k(   10) = (  -0.5000000   0.2532999   0.0000000), wk =   0.1666667
        k(   11) = (  -0.5000000   0.2532999   0.1317162), wk =   0.3333333
        k(   12) = (  -0.5000000   0.2532999  -0.2634324), wk =   0.1666667

     Largest allocated arrays     est. size (Mb)     dimensions
     Largest temporary arrays     est. size (Mb)     dimensions

     Initial potential from superposition of free atoms

     starting charge  103.92434, renormalised to  168.00000
     Starting wfc are  160 randomized atomic wfcs

     Self-consistent Calculation

     iteration #  1     ecut=    40.00 Ry     beta=0.70
     CG style diagonalization
     ethr =  1.00E-02,  avg # of iterations = 16.9

     total energy              =    -253.54134032 Ry
     Harris-Foulkes estimate   =   -2047.55868876 Ry
     estimated scf accuracy    <    2163.31600155 Ry

     iteration #  2     ecut=    40.00 Ry     beta=0.70
     CG style diagonalization
     c_bands:  5 eigenvalues not converged
     ethr =  1.00E-02,  avg # of iterations = 19.1

[...]

     End of self-consistent calculation

          k = 0.0000 0.0000 0.0000 (  3675 PWs)   bands (ev):

   -14.5429 -14.3056 -14.2316 -14.1444  -0.3654  -0.2902  -0.0418   1.4082
     1.6218   1.8125   2.0221   2.1301   7.8579   8.5850   8.6670   8.7927
     9.0419   9.2839   9.4467   9.7003   9.7017   9.8524  10.4297  10.8997
    16.5172  16.7906  17.3229  17.8381  18.9623  19.1330  19.5604  19.8871
    20.0899  20.3682  20.5254  20.8476  21.1906  21.2424  21.7142  22.0976
    22.1848  22.6899  22.7752  23.2730  25.0516  25.0530  25.2011  25.7146
    32.9172  33.3733  34.2086  34.7437  34.8354  35.0432  35.2126  35.3661
    36.2211  36.6733  37.2049  37.8131  37.9838  38.0795  39.6532  40.2679
    40.4865  40.6990  41.2266  42.0286  42.2967  42.3047  42.4658  42.4685
    42.7150  43.5813  43.8337  44.1614  44.5684  44.6399  45.4206  45.4406
    45.6267  45.7377  46.1406  46.3965  47.1638  47.3580  47.7489  47.8922
    48.1973  48.4533  48.8326  49.0408  49.4353  50.2403  50.4881  50.6589
    50.7942  50.8694  51.9602  52.7469  52.8371

[...]

          k =-0.5000 0.0000 0.0000 (  3722 PWs)   bands (ev):

[...]

     the Fermi energy is    46.3822 ev

!    total energy              =   -1338.15909143 Ry
     Harris-Foulkes estimate   =   -1338.15911224 Ry
     estimated scf accuracy    <       0.00002299 Ry

     The total energy is the sum of the following terms:

     one-electron contribution =     422.62723927 Ry
     hartree contribution      =      52.32061734 Ry
     xc contribution           =    -175.70590817 Ry
     ewald contribution        =   -1636.94236376 Ry
     smearing contrib. (-TS)   =      -0.45867611 Ry

     convergence has been achieved in  12 iterations

     Forces acting on atoms (Ry/au):

     atom    1 type  1   force =     0.00000000   -0.03265518   -0.11830653
     atom    2 type  1   force =     0.00000000    0.03265518    0.11830653
     atom    3 type  1   force =     0.00000000   -0.03265518    0.11830653
     atom    4 type  1   force =     0.00000000    0.03265518   -0.11830653
     atom    5 type  1   force =     0.00000000    0.13285508   -0.23314169
     atom    6 type  1   force =     0.00000000   -0.13285508    0.23314169
     atom    7 type  1   force =     0.00000000    0.13285508    0.23314169
     atom    8 type  1   force =     0.00000000   -0.13285508   -0.23314169
     atom    9 type  2   force =     0.00000000   -0.14620623   -0.03996845
     atom   10 type  2   force =     0.00000000    0.14620623    0.03996845
     atom   11 type  2   force =     0.00000000   -0.14620623    0.03996845
     atom   12 type  2   force =     0.00000000    0.14620623   -0.03996845

     Total force =     0.663452     Total SCF correction =     0.005538

     entering subroutine stress ...

          total   stress  (Ry/bohr**3)                   (kbar)     P= 6353.48
   0.04426237   0.00000000   0.00000000       6511.22      0.00      0.00
   0.00000000   0.04111151   0.00000000          0.00   6047.71      0.00
   0.00000000   0.00000000   0.04419639          0.00      0.00   6501.51

     BFGS Geometry Optimization

     number of scf cycles    =   1
     number of bfgs steps    =   0

     enthalpy new            =   -1338.1590914251 Ry

     new trust radius        =       0.5000000000 bohr
     new conv_thr            =       0.0001000000 Ry

     new unit-cell volume =   1095.51249 a.u.^3 (   162.33820 Ang^3 )

CELL_PARAMETERS (alat=  7.01510508)
   1.085136619   0.000000000   0.000000000
   0.000000000   1.420024615   0.000000000
   0.000000000   0.000000000   2.059370553

ATOMIC_POSITIONS (crystal)
Co       0.750000000   0.826128845   0.435052379
Co       0.250000000   0.173871155   0.564947621
Co       0.750000000   0.326128845   0.064947621
Co       0.250000000   0.673871155   0.935052379
Co       0.250000000   0.538193240   0.280997817
Co       0.750000000   0.461806760   0.719002183
Co       0.250000000   0.038193240   0.219002183
Co       0.750000000   0.961806760   0.780997817
Si       0.250000000   0.201635489   0.893369047
Si       0.750000000   0.798364511   0.106630953
Si       0.250000000   0.701635489   0.606630953
Si       0.750000000   0.298364511   0.393369047

     Writing output data file Prototype-La-oP12-Co2Si.save
     NEW-OLD atomic charge density approx. for the potential
     NEW k-points:
        k(    1) = (   0.0000000   0.0000000   0.0000000), wk =   0.0833333
        k(    2) = (   0.0000000   0.0000000   0.1213963), wk =   0.1666667
        k(    3) = (   0.0000000   0.0000000  -0.2427926), wk =   0.0833333
        k(    4) = (   0.0000000   0.2347377   0.0000000), wk =   0.1666667
        k(    5) = (   0.0000000   0.2347377   0.1213963), wk =   0.3333333
        k(    6) = (   0.0000000   0.2347377  -0.2427926), wk =   0.1666667
        k(    7) = (  -0.4607715   0.0000000   0.0000000), wk =   0.0833333
        k(    8) = (  -0.4607715   0.0000000   0.1213963), wk =   0.1666667
        k(    9) = (  -0.4607715   0.0000000  -0.2427926), wk =   0.0833333
        k(   10) = (  -0.4607715   0.2347377   0.0000000), wk =   0.1666667
        k(   11) = (  -0.4607715   0.2347377   0.1213963), wk =   0.3333333
        k(   12) = (  -0.4607715   0.2347377  -0.2427926), wk =   0.1666667
     Check: negative starting charge=   -0.011681

     negative rho (up, down):  0.121E-01 0.000E+00
     extrapolated charge  190.12550, renormalised to  168.00000

[...]

     negative rho (up, down):  0.258E-02 0.000E+00

[...]

     enthalpy old            =   -1338.1590914251 Ry
     enthalpy new            =   -1344.6792718756 Ry

     CASE: enthalpy_new < enthalpy_old

     small trust_radius: resetting bfgs history

     new trust radius        =       2.7666896959 bohr
     new conv_thr            =       0.0001000000 Ry

[...]

     Writing output data file Prototype-La-oP12-Co2Si.save
     Check: negative starting charge=   -0.011681
     NEW-OLD atomic charge density approx. for the potential
     NEW k-points:
        k(    1) = (   0.0000000   0.0000000   0.0000000), wk =   0.0833333
        k(    2) = (   0.0000000   0.0000000   0.0859565), wk =   0.1666667
        k(    3) = (   0.0000000   0.0000000  -0.1719129), wk =   0.0833333
        k(    4) = (   0.0000000   0.1694801   0.0000000), wk =   0.1666667
        k(    5) = (   0.0000000   0.1694801   0.0859565), wk =   0.3333333
        k(    6) = (   0.0000000   0.1694801  -0.1719129), wk =   0.1666667
        k(    7) = (  -0.3249566   0.0000000   0.0000000), wk =   0.0833333
        k(    8) = (  -0.3249566   0.0000000   0.0859565), wk =   0.1666667
        k(    9) = (  -0.3249566   0.0000000  -0.1719129), wk =   0.0833333
        k(   10) = (  -0.3249566   0.1694801   0.0000000), wk =   0.1666667
        k(   11) = (  -0.3249566   0.1694801   0.0859565), wk =   0.3333333
        k(   12) = (  -0.3249566   0.1694801  -0.1719129), wk =   0.1666667
     Check: negative starting charge=   -0.042777

[...]

     Total force =     0.025444     Total SCF correction =     0.003536
     SCF correction compared to forces is large: reduce conv_thr to get better values

[...]

          total   stress  (Ry/bohr**3)                   (kbar)     P=-1158.25
  -0.00799302   0.00000000   0.00000000      -1175.81      0.00      0.00
   0.00000000  -0.00770652   0.00000000          0.00  -1133.67      0.00
   0.00000000   0.00000000  -0.00792129          0.00      0.00  -1165.26

     number of scf cycles    =   3
     number of bfgs steps    =   2

     enthalpy old            =   -1344.6792718756 Ry
     enthalpy new            =   -1336.2626078027 Ry

     CASE: enthalpy_new > enthalpy_old

     new trust radius        =       1.1713020142 bohr

     trust_radius < trust_radius_min

     resetting bfgs history

     Message from routine bfgs:
     history already reset at previous step: stopping
     new conv_thr            =       0.0001000000 Ry

     new unit-cell volume =   1309.40017 a.u.^3 (   194.03308 Ang^3 )

[...]

ATOMIC_POSITIONS (crystal)
Co       0.750000000   0.825903197   0.434632231
Co       0.250000000   0.174096803   0.565367769
Co       0.750000000   0.325903197   0.065367769
Co       0.250000000   0.674096803   0.934632231
Co       0.250000000   0.538809109   0.280094812
Co       0.750000000   0.461190891   0.719905188
Co       0.250000000   0.038809109   0.219905188
Co       0.750000000   0.961190891   0.780094812
Si       0.250000000   0.200371333   0.893387255
Si       0.750000000   0.799628667   0.106612745
Si       0.250000000   0.700371333   0.606612745
Si       0.750000000   0.299628667   0.393387255

     Writing output data file Prototype-La-oP12-Co2Si.save
     Check: negative starting charge=   -0.042777
     NEW-OLD atomic charge density approx. for the potential
     NEW k-points:
        k(    1) = (   0.0000000   0.0000000   0.0000000), wk =   0.0833333
        k(    2) = (   0.0000000   0.0000000   0.1142086), wk =   0.1666667
        k(    3) = (   0.0000000   0.0000000  -0.2284172), wk =   0.0833333
        k(    4) = (   0.0000000   0.2221784   0.0000000), wk =   0.1666667
        k(    5) = (   0.0000000   0.2221784   0.1142086), wk =   0.3333333
        k(    6) = (   0.0000000   0.2221784  -0.2284172), wk =   0.1666667
        k(    7) = (  -0.4329305   0.0000000   0.0000000), wk =   0.0833333
        k(    8) = (  -0.4329305   0.0000000   0.1142086), wk =   0.1666667
        k(    9) = (  -0.4329305   0.0000000  -0.2284172), wk =   0.0833333
        k(   10) = (  -0.4329305   0.2221784   0.0000000), wk =   0.1666667
        k(   11) = (  -0.4329305   0.2221784   0.1142086), wk =   0.3333333
        k(   12) = (  -0.4329305   0.2221784  -0.2284172), wk =   0.1666667
     Check: negative starting charge=   -0.025093

     negative rho (up, down):  0.544E+02 0.000E+00
     extrapolated charge   30.75980, renormalised to  168.00000

[...]

     Total force =     0.227645     Total SCF correction =     0.011314

[...]

     The maximum number of steps has been reached.

     End of BFGS Geometry Optimization
Begin final coordinates
     new unit-cell volume =   1309.40017 a.u.^3 (   194.03308 Ang^3 )

CELL_PARAMETERS (alat=  7.01510508)
   1.154919729   0.000000000   0.000000000
   0.000000000   1.500295912   0.000000000
   0.000000000   0.000000000   2.188976637

ATOMIC_POSITIONS (crystal)
Co       0.750000000   0.825903197   0.434632231
Co       0.250000000   0.174096803   0.565367769
Co       0.750000000   0.325903197   0.065367769
Co       0.250000000   0.674096803   0.934632231
Co       0.250000000   0.538809109   0.280094812
Co       0.750000000   0.461190891   0.719905188
Co       0.250000000   0.038809109   0.219905188
Co       0.750000000   0.961190891   0.780094812
Si       0.250000000   0.200371333   0.893387255
Si       0.750000000   0.799628667   0.106612745
Si       0.250000000   0.700371333   0.606612745
Si       0.750000000   0.299628667   0.393387255
End final coordinates

     A final scf calculation at the relaxed structure.
     The G-vectors are recalculated for the final unit cell
     Results may differ from those at the preceding step.

     bravais-lattice index     =            0
     lattice parameter (alat)  =       7.0151  a.u.
     unit-cell volume          =    1309.4002 (a.u.)^3
     number of atoms/cell      =           12
     number of atomic types    =            2
     number of electrons       =       168.00
     number of Kohn-Sham states=          101
     kinetic-energy cutoff     =      40.0000  Ry
     charge density cutoff     =     160.0000  Ry
     convergence threshold     =      1.0E-04
     mixing beta               =       0.7000
     number of iterations used =            8  plain     mixing
     Exchange-correlation      = SLA-PZ-NOGX-NOGC ( 1 1 0 0 0)
     EXX-fraction              =        0.00

     celldm(1)=   7.015105  celldm(2)=   0.000000  celldm(3)=   0.000000
     celldm(4)=   0.000000  celldm(5)=   0.000000  celldm(6)=   0.000000

     crystal axes: (cart. coord. in units of alat)
               a(1) = (   1.154920   0.000000   0.000000 )
               a(2) = (   0.000000   1.500296   0.000000 )
               a(3) = (   0.000000   0.000000   2.188977 )

     reciprocal axes: (cart. coord. in units 2 pi/alat)
               b(1) = (  0.865861  0.000000  0.000000 )
               b(2) = (  0.000000  0.666535  0.000000 )
               b(3) = (  0.000000  0.000000  0.456834 )

     PseudoPot. # 1 for Pr read from file:
     /home/cwx6513/pp.La/Pr.UPF
     MD5 check sum: 70e2b4b153859e92c8c91247dfc63203
     Pseudo is Norm-conserving, Zval = 13.0
     Generated in analytical, separable form
     Using radial grid of 1255 points,  6 beta functions with:
                l(1) =   0
                l(2) =   0
                l(3) =   1
                l(4) =   1
                l(5) =   2
                l(6) =   3

     PseudoPot. # 2 for Sm read from file:
     /home/cwx6513/pp.La/Sm.UPF
     MD5 check sum: 5079e8b144a06bfcdbc14fb02b96ab09
     Pseudo is Norm-conserving, Zval = 16.0
     Generated in analytical, separable form
     Using radial grid of 1259 points,  6 beta functions with:
                l(1) =   0
                l(2) =   0
                l(3) =   1
                l(4) =   1
                l(5) =   2
                l(6) =   3

     atomic species   valence    mass     pseudopotential
        Co            13.00    58.93320     Pr( 1.00)
        Si            16.00    28.08550     Sm( 1.00)

      8 Sym. Ops., with inversion, found ( 6 have fractional translation)

   Cartesian axes

     site n.     atom                  positions (alat units)
         1           Co  tau(   1) = (   0.8661898   1.2390992   0.9513998  )
         2           Co  tau(   2) = (   0.2887299   0.2611967   1.2375768  )
         3           Co  tau(   3) = (   0.8661898   0.4889512   0.1430885  )
         4           Co  tau(   4) = (   0.2887299   1.0113447   2.0458881  )
         5           Co  tau(   5) = (   0.2887299   0.8083731   0.6131210  )
         6           Co  tau(   6) = (   0.8661898   0.6919228   1.5758556  )
         7           Co  tau(   7) = (   0.2887299   0.0582251   0.4813673  )
         8           Co  tau(   8) = (   0.8661898   1.4420708   1.7076093  )
         9           Si  tau(   9) = (   0.2887299   0.3006163   1.9556038  )
        10           Si  tau(  10) = (   0.8661898   1.1996796   0.2333728  )
        11           Si  tau(  11) = (   0.2887299   1.0507642   1.3278611  )
        12           Si  tau(  12) = (   0.8661898   0.4495317   0.8611155  )

     number of k points=    12  gaussian smearing, width (Ry)=  0.1000
                       cart. coord. in units 2pi/alat
        k(    1) = (   0.0000000   0.0000000   0.0000000), wk =   0.0833333
        k(    2) = (   0.0000000   0.0000000   0.1142086), wk =   0.1666667
        k(    3) = (   0.0000000   0.0000000  -0.2284172), wk =   0.0833333
        k(    4) = (   0.0000000   0.2221784   0.0000000), wk =   0.1666667
        k(    5) = (   0.0000000   0.2221784   0.1142086), wk =   0.3333333
        k(    6) = (   0.0000000   0.2221784  -0.2284172), wk =   0.1666667
        k(    7) = (  -0.4329305   0.0000000   0.0000000), wk =   0.0833333
        k(    8) = (  -0.4329305   0.0000000   0.1142086), wk =   0.1666667
        k(    9) = (  -0.4329305   0.0000000  -0.2284172), wk =   0.0833333
        k(   10) = (  -0.4329305   0.2221784   0.0000000), wk =   0.1666667
        k(   11) = (  -0.4329305   0.2221784   0.1142086), wk =   0.3333333
        k(   12) = (  -0.4329305   0.2221784  -0.2284172), wk =   0.1666667

     Largest allocated arrays     est. size (Mb)     dimensions
     Largest temporary arrays     est. size (Mb)     dimensions

     Initial potential from superposition of free atoms
     Check: negative starting charge=   -0.001049

     starting charge  103.92434, renormalised to  168.00000

     negative rho (up, down):  0.170E-02 0.000E+00
     Starting wfc are  160 randomized atomic wfcs

     Writing output data file Prototype-La-oP12-Co2Si.save

     Self-consistent Calculation

[...]

     negative rho (up, down):  0.758E-04 0.000E+00

[...]

     iteration # 12     ecut=    40.00 Ry     beta=0.70
     CG style diagonalization
     ethr =  5.92E-05,  avg # of iterations =  3.1

     total energy              =   -1348.19004655 Ry
     Harris-Foulkes estimate   =   -1348.19400455 Ry
     estimated scf accuracy    <       0.01266000 Ry

     iteration # 13     ecut=    40.00 Ry     beta=0.70
     CG style diagonalization
     c_bands:  1 eigenvalues not converged
     c_bands:  1 eigenvalues not converged
     ethr =  7.54E-06,  avg # of iterations =  4.2

     End of self-consistent calculation

[...]

          k = 0.0000 0.2222-0.2284 (  5574 PWs)   bands (ev):

[...]

          k =-0.4329 0.2222-0.2284 (  5588 PWs)   bands (ev):

   -28.2812 -28.2812 -28.2740 -28.2740 -13.6285 -13.6285 -13.5094 -13.5094
   -13.2575 -13.2575 -13.0753 -13.0753  -4.0282  -4.0282  -3.9875  -3.9875
    -3.8686  -3.8686  -3.7547  -3.7547  -3.6477  -3.6477  -3.5645  -3.5645
     4.8673   4.8673   5.2518   5.2518   5.5478   5.5478   5.6782   5.6783
     5.8581   5.8581   6.4547   6.4547   6.8241   6.8241   7.0850   7.0850
     7.3460   7.3460   7.3463   7.3463   7.6136   7.6136   7.7166   7.7166
    22.9943  22.9943  23.4939  23.4939  23.7455  23.7455  24.2761  24.2761
    24.4385  24.4385  24.7456  24.7456  24.9649  24.9649  25.2147  25.2147
    25.9620  25.9620  26.0599  26.0599  26.8951  26.8951  26.8985  26.8985
    27.2512  27.2512  27.5201  27.5201  27.7944  27.7944  28.1953  28.1953
    28.4132  28.4132  29.3325  29.3325  29.6066  29.6064  30.1978  30.1979
    30.4748  30.4749  31.1135  31.1136  31.2369  31.2369  31.6888  31.6885
    31.9469  31.9470  32.4160  32.4151  33.3376

     the Fermi energy is    29.7314 ev

!    total energy              =   -1348.19353793 Ry
     Harris-Foulkes estimate   =   -1348.19359919 Ry
     estimated scf accuracy    <       0.00008229 Ry

     The total energy is the sum of the following terms:

     one-electron contribution =     146.24468522 Ry
     hartree contribution      =      94.85736638 Ry
     xc contribution           =    -164.01386948 Ry
     ewald contribution        =   -1424.67322258 Ry
     smearing contrib. (-TS)   =      -0.60849748 Ry

     convergence has been achieved in  13 iterations

     Forces acting on atoms (Ry/au):

     atom    1 type  1   force =     0.00000000   -0.01767471   -0.02920187
     atom    2 type  1   force =     0.00000000    0.01767471    0.02920187
     atom    3 type  1   force =     0.00000000   -0.01767471    0.02920187
     atom    4 type  1   force =     0.00000000    0.01767471   -0.02920187
     atom    5 type  1   force =     0.00000000    0.02091576   -0.06406612
     atom    6 type  1   force =     0.00000000   -0.02091576    0.06406612
     atom    7 type  1   force =     0.00000000    0.02091576    0.06406612
     atom    8 type  1   force =     0.00000000   -0.02091576   -0.06406612
     atom    9 type  2   force =     0.00000000   -0.07657013    0.04026295
     atom   10 type  2   force =     0.00000000    0.07657013   -0.04026295
     atom   11 type  2   force =     0.00000000   -0.07657013   -0.04026295
     atom   12 type  2   force =     0.00000000    0.07657013    0.04026295

     Total force =     0.229706     Total SCF correction =     0.023555
     SCF correction compared to forces is large: reduce conv_thr to get better values

     entering subroutine stress ...

          total   stress  (Ry/bohr**3)                   (kbar)     P= 1158.02
   0.00821264   0.00000000   0.00000000       1208.12      0.00      0.00
   0.00000000   0.00748779   0.00000000          0.00   1101.49      0.00
   0.00000000   0.00000000   0.00791575          0.00      0.00   1164.45

     Writing output data file Prototype-La-oP12-Co2Si.save

     General routines

     Parallel routines

   This run was terminated on:  16:37:51  22Mar2018

   JOB DONE.