     Program PWSCF v.5.0.2 starts on 22Mar2018 at 16:20:26

     Current dimensions of program PWSCF are:
     Max number of different atomic species (ntypx) = 10
     Max number of k-points (npk) =  40000
     Max angular momentum in pseudopotentials (lmaxx) =  3
     Waiting for input...
     Reading input from standard input

     Subspace diagonalization in iterative solution of the eigenvalue problem:
     a serial algorithm will be used

     bravais-lattice index     =            0
     lattice parameter (alat)  =      12.0168  a.u.
     unit-cell volume          =    1187.3413 (a.u.)^3
     number of atoms/cell      =            8
     number of atomic types    =            2
     number of electrons       =       110.00
     number of Kohn-Sham states=           66
     kinetic-energy cutoff     =      40.0000  Ry
     charge density cutoff     =     160.0000  Ry
     convergence threshold     =      1.0E-04
     mixing beta               =       0.7000
     number of iterations used =            8  plain     mixing
     Exchange-correlation      = SLA-PZ-NOGX-NOGC ( 1 1 0 0 0)
     EXX-fraction              =        0.00
     nstep                     =           50

     celldm(1)=  12.016801  celldm(2)=   0.000000  celldm(3)=   0.000000
     celldm(4)=   0.000000  celldm(5)=   0.000000  celldm(6)=   0.000000

     crystal axes: (cart. coord. in units of alat)
               a(1) = (   1.000000   0.000000   0.000000 )
               a(2) = (  -0.500000   0.866025   0.000000 )
               a(3) = (   0.000000   0.000000   0.790093 )

     reciprocal axes: (cart. coord. in units 2 pi/alat)
               b(1) = (  1.000000  0.577350  0.000000 )
               b(2) = (  0.000000  1.154701  0.000000 )
               b(3) = (  0.000000  0.000000  1.265674 )

     PseudoPot. # 1 for Pr read from file:
     /home/cwx6513/pp.La/Pr.UPF
     MD5 check sum: 70e2b4b153859e92c8c91247dfc63203
     Pseudo is Norm-conserving, Zval = 13.0
     Generated in analytical, separable form
     Using radial grid of 1255 points,  6 beta functions with:
                l(1) =   0
                l(2) =   0
                l(3) =   1
                l(4) =   1
                l(5) =   2
                l(6) =   3

     PseudoPot. # 2 for Sm read from file:
     /home/cwx6513/pp.La/Sm.UPF
     MD5 check sum: 5079e8b144a06bfcdbc14fb02b96ab09
     Pseudo is Norm-conserving, Zval = 16.0
     Generated in analytical, separable form
     Using radial grid of 1259 points,  6 beta functions with:
                l(1) =   0
                l(2) =   0
                l(3) =   1
                l(4) =   1
                l(5) =   2
                l(6) =   3

     atomic species   valence    mass     pseudopotential
        Mg            13.00    24.30500     Pr( 1.00)
        Cd            16.00   112.41100     Sm( 1.00)

     24 Sym. Ops., with inversion, found (12 have fractional translation)

   Cartesian axes

     site n.     atom                  positions (alat units)
         1           Mg  tau(   1) = (   0.2478935   0.7204716   0.1975233  )
         2           Mg  tau(   2) = (   0.7478935   0.1455538   0.5925699  )
         3           Mg  tau(   3) = (   0.2521065   0.1455538   0.5925699  )
         4           Mg  tau(   4) = (  -0.2478935   0.7204716   0.1975233  )
         5           Mg  tau(   5) = (   0.0000000   0.2911075   0.1975233  )
         6           Mg  tau(   6) = (   0.5000000   0.5749179   0.5925699  )
         7           Cd  tau(   7) = (   0.5000005   0.2886748   0.1975233  )
         8           Cd  tau(   8) = (  -0.0000005   0.5773506   0.5925699  )

     number of k points=    64  gaussian smearing, width (Ry)=  0.1000
                       cart. coord. in units 2pi/alat
        k(    1) = (   0.0000000   0.0000000   0.0000000), wk =   0.0095238
        k(    2) = (   0.0000000   0.0000000   0.1808105), wk =   0.0190476
        k(    3) = (   0.0000000   0.0000000   0.3616210), wk =   0.0190476
        k(    4) = (   0.0000000   0.0000000   0.5424315), wk =   0.0190476
        k(    5) = (   0.0000000   0.1924501   0.0000000), wk =   0.0190476
        k(    6) = (   0.0000000   0.1924501   0.1808105), wk =   0.0380952
        k(    7) = (   0.0000000   0.1924501   0.3616210), wk =   0.0380952
        k(    8) = (   0.0000000   0.1924501   0.5424315), wk =   0.0380952
        k(    9) = (   0.0000000   0.3849002   0.0000000), wk =   0.0190476
        k(   10) = (   0.0000000   0.3849002   0.1808105), wk =   0.0380952
        k(   11) = (   0.0000000   0.3849002   0.3616210), wk =   0.0380952
        k(   12) = (   0.0000000   0.3849002   0.5424315), wk =   0.0380952
        k(   13) = (   0.0000000  -0.5773503   0.0000000), wk =   0.0095238
        k(   14) = (   0.0000000  -0.5773503   0.1808105), wk =   0.0190476
        k(   15) = (   0.0000000  -0.5773503   0.3616210), wk =   0.0190476
        k(   16) = (   0.0000000  -0.5773503   0.5424315), wk =   0.0190476
        k(   17) = (   0.2000000   0.1154701   0.0000000), wk =   0.0190476
        k(   18) = (   0.2000000   0.1154701   0.1808105), wk =   0.0380952
        k(   19) = (   0.2000000   0.1154701   0.3616210), wk =   0.0380952
        k(   20) = (   0.2000000   0.1154701   0.5424315), wk =   0.0380952
        k(   21) = (   0.2000000   0.3079201   0.0000000), wk =   0.0190476
        k(   22) = (   0.2000000   0.3079201   0.1808105), wk =   0.0380952
        k(   23) = (   0.2000000   0.3079201   0.3616210), wk =   0.0380952
        k(   24) = (   0.2000000   0.3079201   0.5424315), wk =   0.0380952
        k(   25) = (   0.2000000   0.5003702   0.0000000), wk =   0.0190476
        k(   26) = (   0.2000000   0.5003702   0.1808105), wk =   0.0380952
        k(   27) = (   0.2000000   0.5003702   0.3616210), wk =   0.0380952
        k(   28) = (   0.2000000   0.5003702   0.5424315), wk =   0.0380952
        k(   29) = (   0.2000000  -0.4618802   0.0000000), wk =   0.0190476
        k(   30) = (   0.2000000  -0.4618802   0.1808105), wk =   0.0380952
        k(   31) = (   0.2000000  -0.4618802   0.3616210), wk =   0.0380952
        k(   32) = (   0.2000000  -0.4618802   0.5424315), wk =   0.0380952
        k(   33) = (   0.2000000  -0.2694301   0.0000000), wk =   0.0190476
        k(   34) = (   0.2000000  -0.2694301   0.1808105), wk =   0.0380952
        k(   35) = (   0.2000000  -0.2694301   0.3616210), wk =   0.0380952
        k(   36) = (   0.2000000  -0.2694301   0.5424315), wk =   0.0380952
        k(   37) = (   0.2000000  -0.0769800   0.0000000), wk =   0.0190476
        k(   38) = (   0.2000000  -0.0769800   0.1808105), wk =   0.0380952
        k(   39) = (   0.2000000  -0.0769800   0.3616210), wk =   0.0380952
        k(   40) = (   0.2000000  -0.0769800   0.5424315), wk =   0.0380952
        k(   41) = (   0.4000000   0.2309401   0.0000000), wk =   0.0190476
        k(   42) = (   0.4000000   0.2309401   0.1808105), wk =   0.0380952
        k(   43) = (   0.4000000   0.2309401   0.3616210), wk =   0.0380952
        k(   44) = (   0.4000000   0.2309401   0.5424315), wk =   0.0380952
        k(   45) = (   0.4000000   0.4233902   0.0000000), wk =   0.0190476
        k(   46) = (   0.4000000   0.4233902   0.1808105), wk =   0.0380952
        k(   47) = (   0.4000000   0.4233902   0.3616210), wk =   0.0380952
        k(   48) = (   0.4000000   0.4233902   0.5424315), wk =   0.0380952
        k(   49) = (   0.4000000   0.6158403   0.0000000), wk =   0.0190476
        k(   50) = (   0.4000000   0.6158403   0.1808105), wk =   0.0380952
        k(   51) = (   0.4000000   0.6158403   0.3616210), wk =   0.0380952
        k(   52) = (   0.4000000   0.6158403   0.5424315), wk =   0.0380952
        k(   53) = (   0.4000000  -0.3464102   0.0000000), wk =   0.0190476
        k(   54) = (   0.4000000  -0.3464102   0.1808105), wk =   0.0380952
        k(   55) = (   0.4000000  -0.3464102   0.3616210), wk =   0.0380952
        k(   56) = (   0.4000000  -0.3464102   0.5424315), wk =   0.0380952
        k(   57) = (   0.4000000  -0.1539601   0.0000000), wk =   0.0190476
        k(   58) = (   0.4000000  -0.1539601   0.1808105), wk =   0.0380952
        k(   59) = (   0.4000000  -0.1539601   0.3616210), wk =   0.0380952
        k(   60) = (   0.4000000  -0.1539601   0.5424315), wk =   0.0380952
        k(   61) = (   0.4000000   0.0384900   0.0000000), wk =   0.0190476
        k(   62) = (   0.4000000   0.0384900   0.1808105), wk =   0.0380952
        k(   63) = (   0.4000000   0.0384900   0.3616210), wk =   0.0380952
        k(   64) = (   0.4000000   0.0384900   0.5424315), wk =   0.0380952

     Largest allocated arrays     est. size (Mb)     dimensions
     Largest temporary arrays     est. size (Mb)     dimensions

     Initial potential from superposition of free atoms
     Check: negative starting charge=   -0.002192

     starting charge   77.94326, renormalised to  110.00000

     negative rho (up, down):  0.309E-02 0.000E+00
     Starting wfc are  120 randomized atomic wfcs

     Self-consistent Calculation

     iteration #  1     ecut=    40.00 Ry     beta=0.70
     CG style diagonalization
     ethr =  1.00E-02,  avg # of iterations = 17.5

     negative rho (up, down):  0.912E-03 0.000E+00

     total energy              =     380.60121853 Ry
     Harris-Foulkes estimate   =   -1503.43396842 Ry
     estimated scf accuracy    <    2224.94961248 Ry

[...]

     iteration #  3     ecut=    40.00 Ry     beta=0.70
     CG style diagonalization
     c_bands:  1 eigenvalues not converged
     c_bands:  1 eigenvalues not converged
     c_bands:  1 eigenvalues not converged
     c_bands:  1 eigenvalues not converged
     c_bands:  1 eigenvalues not converged
     c_bands:  1 eigenvalues not converged
     c_bands:  1 eigenvalues not converged
     c_bands:  1 eigenvalues not converged
     c_bands:  1 eigenvalues not converged
     c_bands:  1 eigenvalues not converged
     c_bands:  1 eigenvalues not converged
     c_bands:  1 eigenvalues not converged
     c_bands:  1 eigenvalues not converged
     c_bands:  1 eigenvalues not converged
     c_bands:  2 eigenvalues not converged
     c_bands:  2 eigenvalues not converged
     c_bands:  1 eigenvalues not converged
     c_bands:  1 eigenvalues not converged
     c_bands:  1 eigenvalues not converged
     c_bands:  1 eigenvalues not converged
     c_bands:  1 eigenvalues not converged
     c_bands:  2 eigenvalues not converged
     c_bands:  1 eigenvalues not converged
     c_bands:  2 eigenvalues not converged
     c_bands:  2 eigenvalues not converged
     c_bands:  1 eigenvalues not converged
     c_bands:  1 eigenvalues not converged
     c_bands:  1 eigenvalues not converged
     c_bands:  3 eigenvalues not converged
     ethr =  1.00E-02,  avg # of iterations = 10.3

[...]

     End of self-consistent calculation

          k = 0.0000 0.0000 0.0000 (  5047 PWs)   bands (ev):

   -36.2198 -36.2179 -22.3265 -21.9960 -21.9960 -21.9435 -21.8066 -21.8065
   -11.4554 -11.4308 -11.3976 -11.3976 -11.3760 -11.3760  -3.2622  -3.0235
    -2.7527  -2.4298  -2.4298  -2.3821  -2.3821  -2.3201  -2.3201  -1.8172
[...]
        k(   21) = (   0.1993957   0.3069898   0.0000000), wk =   0.0190476
        k(   22) = (   0.1993957   0.3069898   0.1787151), wk =   0.0380952
        k(   23) = (   0.1993957   0.3069898   0.3574301), wk =   0.0380952
        k(   24) = (   0.1993957   0.3069898   0.5361452), wk =   0.0380952
        k(   25) = (   0.1993957   0.4988584   0.0000000), wk =   0.0190476
        k(   26) = (   0.1993957   0.4988584   0.1787151), wk =   0.0380952
        k(   27) = (   0.1993957   0.4988584   0.3574301), wk =   0.0380952
        k(   28) = (   0.1993957   0.4988584   0.5361452), wk =   0.0380952
        k(   29) = (   0.1993957  -0.4604847   0.0000000), wk =   0.0190476
        k(   30) = (   0.1993957  -0.4604847   0.1787151), wk =   0.0380952
        k(   31) = (   0.1993957  -0.4604847   0.3574301), wk =   0.0380952
        k(   32) = (   0.1993957  -0.4604847   0.5361452), wk =   0.0380952
        k(   33) = (   0.1993957  -0.2686161   0.0000000), wk =   0.0190476
        k(   34) = (   0.1993957  -0.2686161   0.1787151), wk =   0.0380952
        k(   35) = (   0.1993957  -0.2686161   0.3574301), wk =   0.0380952
        k(   36) = (   0.1993957  -0.2686161   0.5361452), wk =   0.0380952
        k(   37) = (   0.1993957  -0.0767474   0.0000000), wk =   0.0190476
        k(   38) = (   0.1993957  -0.0767474   0.1787151), wk =   0.0380952
        k(   39) = (   0.1993957  -0.0767474   0.3574301), wk =   0.0380952
        k(   40) = (   0.1993957  -0.0767474   0.5361452), wk =   0.0380952
        k(   41) = (   0.3987914   0.2302423   0.0000000), wk =   0.0190476
        k(   42) = (   0.3987914   0.2302423   0.1787151), wk =   0.0380952
        k(   43) = (   0.3987914   0.2302423   0.3574301), wk =   0.0380952
        k(   44) = (   0.3987914   0.2302423   0.5361452), wk =   0.0380952
        k(   45) = (   0.3987914   0.4221109   0.0000000), wk =   0.0190476
        k(   46) = (   0.3987914   0.4221109   0.1787151), wk =   0.0380952
        k(   47) = (   0.3987914   0.4221109   0.3574301), wk =   0.0380952
        k(   48) = (   0.3987914   0.4221109   0.5361452), wk =   0.0380952
        k(   49) = (   0.3987914   0.6139796   0.0000000), wk =   0.0190476
        k(   50) = (   0.3987914   0.6139796   0.1787151), wk =   0.0380952
        k(   51) = (   0.3987914   0.6139796   0.3574301), wk =   0.0380952
        k(   52) = (   0.3987914   0.6139796   0.5361452), wk =   0.0380952
        k(   53) = (   0.3987914  -0.3453635   0.0000000), wk =   0.0190476
        k(   54) = (   0.3987914  -0.3453635   0.1787151), wk =   0.0380952
        k(   55) = (   0.3987914  -0.3453635   0.3574301), wk =   0.0380952
        k(   56) = (   0.3987914  -0.3453635   0.5361452), wk =   0.0380952
        k(   57) = (   0.3987914  -0.1534949   0.0000000), wk =   0.0190476
        k(   58) = (   0.3987914  -0.1534949   0.1787151), wk =   0.0380952
        k(   59) = (   0.3987914  -0.1534949   0.3574301), wk =   0.0380952
        k(   60) = (   0.3987914  -0.1534949   0.5361452), wk =   0.0380952
        k(   61) = (   0.3987914   0.0383737   0.0000000), wk =   0.0190476
        k(   62) = (   0.3987914   0.0383737   0.1787151), wk =   0.0380952
        k(   63) = (   0.3987914   0.0383737   0.3574301), wk =   0.0380952
        k(   64) = (   0.3987914   0.0383737   0.5361452), wk =   0.0380952
     Check: negative starting charge=   -0.002651
     extrapolated charge  109.80437, renormalised to  110.00000

[...]

     Total force =     0.005356     Total SCF correction =     0.000898
     SCF correction compared to forces is large: reduce conv_thr to get better values

[...]

     The maximum number of steps has been reached.

     End of BFGS Geometry Optimization
Begin final coordinates
     new unit-cell volume =   1208.55496 a.u.^3 (   179.08937 Ang^3 )

CELL_PARAMETERS (alat= 12.01680127)
   1.003030599   0.000000000   0.000000000
  -0.501515300   0.868649980   0.000000000
   0.000000000   0.000000000   0.799356981

ATOMIC_POSITIONS (crystal)
Mg       0.662664505   0.831332252   0.250000000
Mg       0.831332252   0.168667748   0.750000000
Mg       0.337335495   0.168667748   0.750000000
Mg       0.168667748   0.831332252   0.250000000
Mg       0.168667748   0.337335495   0.250000000
Mg       0.831332252   0.662664505   0.750000000
Cd       0.666667000   0.333333000   0.250000000
Cd       0.333333000   0.666667000   0.750000000
End final coordinates

     A final scf calculation at the relaxed structure.
     The G-vectors are recalculated for the final unit cell
     Results may differ from those at the preceding step.

     bravais-lattice index     =            0
     lattice parameter (alat)  =      12.0168  a.u.
     unit-cell volume          =    1208.5550 (a.u.)^3
     number of atoms/cell      =            8
     number of atomic types    =            2
     number of electrons       =       110.00
     number of Kohn-Sham states=           66
     kinetic-energy cutoff     =      40.0000  Ry
     charge density cutoff     =     160.0000  Ry
     convergence threshold     =      2.4E-06
     mixing beta               =       0.7000
     number of iterations used =            8  plain     mixing
     Exchange-correlation      = SLA-PZ-NOGX-NOGC ( 1 1 0 0 0)
     EXX-fraction              =        0.00

     celldm(1)=  12.016801  celldm(2)=   0.000000  celldm(3)=   0.000000
     celldm(4)=   0.000000  celldm(5)=   0.000000  celldm(6)=   0.000000

     crystal axes: (cart. coord. in units of alat)
               a(1) = (   1.003031   0.000000   0.000000 )
               a(2) = (  -0.501515   0.868650   0.000000 )
               a(3) = (   0.000000   0.000000   0.799357 )

     reciprocal axes: (cart. coord. in units 2 pi/alat)
               b(1) = (  0.996979  0.575606  0.000000 )
               b(2) = (  0.000000  1.151212  0.000000 )
               b(3) = (  0.000000  0.000000  1.251006 )

     PseudoPot. # 1 for Pr read from file:
     /home/cwx6513/pp.La/Pr.UPF
     MD5 check sum: 70e2b4b153859e92c8c91247dfc63203
     Pseudo is Norm-conserving, Zval = 13.0
     Generated in analytical, separable form
     Using radial grid of 1255 points,  6 beta functions with:
                l(1) =   0
                l(2) =   0
                l(3) =   1
                l(4) =   1
                l(5) =   2
                l(6) =   3

     PseudoPot. # 2 for Sm read from file:
     /home/cwx6513/pp.La/Sm.UPF
     MD5 check sum: 5079e8b144a06bfcdbc14fb02b96ab09
     Pseudo is Norm-conserving, Zval = 16.0
     Generated in analytical, separable form
     Using radial grid of 1259 points,  6 beta functions with:
                l(1) =   0
                l(2) =   0
                l(3) =   1
                l(4) =   1
                l(5) =   2
                l(6) =   3

     atomic species   valence    mass     pseudopotential
        Mg            13.00    24.30500     Pr( 1.00)
        Cd            16.00   112.41100     Sm( 1.00)

     24 Sym. Ops., with inversion, found (12 have fractional translation)

   Cartesian axes

     site n.     atom                  positions (alat units)
         1           Mg  tau(   1) = (   0.2477469   0.7221367   0.1998392  )
         2           Mg  tau(   2) = (   0.7492622   0.1465132   0.5995177  )
         3           Mg  tau(   3) = (   0.2537684   0.1465132   0.5995177  )
         4           Mg  tau(   4) = (  -0.2477469   0.7221367   0.1998392  )
         5           Mg  tau(   5) = (   0.0000000   0.2930265   0.1998392  )
         6           Mg  tau(   6) = (   0.5015153   0.5756235   0.5995177  )
         7           Cd  tau(   7) = (   0.5015158   0.2895497   0.1998392  )
         8           Cd  tau(   8) = (  -0.0000005   0.5791003   0.5995177  )

     number of k points=    64  gaussian smearing, width (Ry)=  0.1000
                       cart. coord. in units 2pi/alat
        k(    1) = (   0.0000000   0.0000000   0.0000000), wk =   0.0095238
        k(    2) = (   0.0000000   0.0000000   0.1787151), wk =   0.0190476
        k(    3) = (   0.0000000   0.0000000   0.3574301), wk =   0.0190476
        k(    4) = (   0.0000000   0.0000000   0.5361452), wk =   0.0190476
        k(    5) = (   0.0000000   0.1918686   0.0000000), wk =   0.0190476
        k(    6) = (   0.0000000   0.1918686   0.1787151), wk =   0.0380952
        k(    7) = (   0.0000000   0.1918686   0.3574301), wk =   0.0380952
        k(    8) = (   0.0000000   0.1918686   0.5361452), wk =   0.0380952
        k(    9) = (   0.0000000   0.3837372   0.0000000), wk =   0.0190476
        k(   10) = (   0.0000000   0.3837372   0.1787151), wk =   0.0380952
        k(   11) = (   0.0000000   0.3837372   0.3574301), wk =   0.0380952
        k(   12) = (   0.0000000   0.3837372   0.5361452), wk =   0.0380952
        k(   13) = (   0.0000000  -0.5756058   0.0000000), wk =   0.0095238
        k(   14) = (   0.0000000  -0.5756058   0.1787151), wk =   0.0190476
        k(   15) = (   0.0000000  -0.5756058   0.3574301), wk =   0.0190476
        k(   16) = (   0.0000000  -0.5756058   0.5361452), wk =   0.0190476
        k(   17) = (   0.1993957   0.1151212   0.0000000), wk =   0.0190476
        k(   18) = (   0.1993957   0.1151212   0.1787151), wk =   0.0380952
        k(   19) = (   0.1993957   0.1151212   0.3574301), wk =   0.0380952
        k(   20) = (   0.1993957   0.1151212   0.5361452), wk =   0.0380952
        k(   21) = (   0.1993957   0.3069898   0.0000000), wk =   0.0190476
        k(   22) = (   0.1993957   0.3069898   0.1787151), wk =   0.0380952
        k(   23) = (   0.1993957   0.3069898   0.3574301), wk =   0.0380952
        k(   24) = (   0.1993957   0.3069898   0.5361452), wk =   0.0380952
        k(   25) = (   0.1993957   0.4988584   0.0000000), wk =   0.0190476
        k(   26) = (   0.1993957   0.4988584   0.1787151), wk =   0.0380952
        k(   27) = (   0.1993957   0.4988584   0.3574301), wk =   0.0380952
        k(   28) = (   0.1993957   0.4988584   0.5361452), wk =   0.0380952
        k(   29) = (   0.1993957  -0.4604847   0.0000000), wk =   0.0190476
        k(   30) = (   0.1993957  -0.4604847   0.1787151), wk =   0.0380952
        k(   31) = (   0.1993957  -0.4604847   0.3574301), wk =   0.0380952
        k(   32) = (   0.1993957  -0.4604847   0.5361452), wk =   0.0380952
        k(   33) = (   0.1993957  -0.2686161   0.0000000), wk =   0.0190476
        k(   34) = (   0.1993957  -0.2686161   0.1787151), wk =   0.0380952
        k(   35) = (   0.1993957  -0.2686161   0.3574301), wk =   0.0380952
        k(   36) = (   0.1993957  -0.2686161   0.5361452), wk =   0.0380952
        k(   37) = (   0.1993957  -0.0767474   0.0000000), wk =   0.0190476
        k(   38) = (   0.1993957  -0.0767474   0.1787151), wk =   0.0380952
        k(   39) = (   0.1993957  -0.0767474   0.3574301), wk =   0.0380952
        k(   40) = (   0.1993957  -0.0767474   0.5361452), wk =   0.0380952
        k(   41) = (   0.3987914   0.2302423   0.0000000), wk =   0.0190476
        k(   42) = (   0.3987914   0.2302423   0.1787151), wk =   0.0380952
        k(   43) = (   0.3987914   0.2302423   0.3574301), wk =   0.0380952
        k(   44) = (   0.3987914   0.2302423   0.5361452), wk =   0.0380952
        k(   45) = (   0.3987914   0.4221109   0.0000000), wk =   0.0190476
        k(   46) = (   0.3987914   0.4221109   0.1787151), wk =   0.0380952
        k(   47) = (   0.3987914   0.4221109   0.3574301), wk =   0.0380952
        k(   48) = (   0.3987914   0.4221109   0.5361452), wk =   0.0380952
        k(   49) = (   0.3987914   0.6139796   0.0000000), wk =   0.0190476
        k(   50) = (   0.3987914   0.6139796   0.1787151), wk =   0.0380952
        k(   51) = (   0.3987914   0.6139796   0.3574301), wk =   0.0380952
        k(   52) = (   0.3987914   0.6139796   0.5361452), wk =   0.0380952
        k(   53) = (   0.3987914  -0.3453635   0.0000000), wk =   0.0190476
        k(   54) = (   0.3987914  -0.3453635   0.1787151), wk =   0.0380952
        k(   55) = (   0.3987914  -0.3453635   0.3574301), wk =   0.0380952
        k(   56) = (   0.3987914  -0.3453635   0.5361452), wk =   0.0380952
        k(   57) = (   0.3987914  -0.1534949   0.0000000), wk =   0.0190476
        k(   58) = (   0.3987914  -0.1534949   0.1787151), wk =   0.0380952
        k(   59) = (   0.3987914  -0.1534949   0.3574301), wk =   0.0380952
        k(   60) = (   0.3987914  -0.1534949   0.5361452), wk =   0.0380952
        k(   61) = (   0.3987914   0.0383737   0.0000000), wk =   0.0190476
        k(   62) = (   0.3987914   0.0383737   0.1787151), wk =   0.0380952
        k(   63) = (   0.3987914   0.0383737   0.3574301), wk =   0.0380952
        k(   64) = (   0.3987914   0.0383737   0.5361452), wk =   0.0380952

     Largest allocated arrays     est. size (Mb)     dimensions
     Largest temporary arrays     est. size (Mb)     dimensions

     Initial potential from superposition of free atoms
     Check: negative starting charge=   -0.002101

     starting charge   77.94326, renormalised to  110.00000

     negative rho (up, down):  0.297E-02 0.000E+00
     Starting wfc are  120 randomized atomic wfcs

     Writing output data file Prototype-La-hP8-Mg3Cd.save

     Self-consistent Calculation

[...]

     negative rho (up, down):  0.150E-04 0.000E+00

[...]

     iteration # 16     ecut=    40.00 Ry     beta=0.70
     CG style diagonalization
     c_bands:  1 eigenvalues not converged
     c_bands:  1 eigenvalues not converged
     c_bands:  1 eigenvalues not converged
     c_bands:  1 eigenvalues not converged
     c_bands:  1 eigenvalues not converged
     c_bands:  1 eigenvalues not converged
     c_bands:  2 eigenvalues not converged
     c_bands:  1 eigenvalues not converged
     c_bands:  1 eigenvalues not converged
     c_bands:  1 eigenvalues not converged
     c_bands:  1 eigenvalues not converged
     ethr =  2.63E-06,  avg # of iterations =  3.6

[...]

     total energy              =    -860.96392488 Ry
     Harris-Foulkes estimate   =    -860.96393257 Ry
     estimated scf accuracy    <       0.00002770 Ry

     iteration # 21     ecut=    40.00 Ry     beta=0.70
     CG style diagonalization
     ethr =  2.52E-08,  avg # of iterations =  3.5

     End of self-consistent calculation

[...]

          k = 0.3988 0.0384 0.5361 (  5161 PWs)   bands (ev):

   -36.6279 -36.6275 -22.5558 -22.4956 -22.4177 -22.3779 -22.3503 -22.3259
   -11.8211 -11.8201 -11.7903 -11.7886 -11.7843 -11.7828  -3.2906  -3.2615
    -3.1570  -3.1319  -2.9489  -2.9038  -2.5133  -2.4250  -2.2408  -2.2318
    -2.0716  -1.9636  -1.8686  -1.8400  -1.7672  -1.6842  -1.6346  -1.6121
    16.2018  16.2608  16.3807  16.5914  16.6387  16.8115  17.0950  17.2191
    17.3462  17.3888  17.5923  17.8938  18.0237  18.1676  18.2054  18.5524
    19.0630  19.2136  19.7615  19.8514  20.0043  20.1270  20.4218  20.5945
    20.6703  20.7318  21.0809  21.3230  21.6310  21.7359  21.9001  22.2275
    23.0053  23.6420

     the Fermi energy is    20.4119 ev

!    total energy              =    -860.96392908 Ry
     Harris-Foulkes estimate   =    -860.96392939 Ry
     estimated scf accuracy    <       0.00000035 Ry

     The total energy is the sum of the following terms:

     one-electron contribution =     -17.84470171 Ry
     hartree contribution      =      82.66886305 Ry
     xc contribution           =    -101.98952477 Ry
     ewald contribution        =    -823.16418913 Ry
     smearing contrib. (-TS)   =      -0.63437652 Ry

     convergence has been achieved in  21 iterations

     Forces acting on atoms (Ry/au):

     atom    1 type  1   force =    -0.00195477   -0.00112859    0.00000000
     atom    2 type  1   force =    -0.00195477    0.00112859    0.00000000
     atom    3 type  1   force =     0.00195477    0.00112859    0.00000000
     atom    4 type  1   force =     0.00195477   -0.00112859    0.00000000
     atom    5 type  1   force =     0.00000000    0.00225717    0.00000000
     atom    6 type  1   force =     0.00000000   -0.00225717    0.00000000
     atom    7 type  2   force =     0.00000000    0.00000000    0.00000000
     atom    8 type  2   force =     0.00000000    0.00000000    0.00000000

     Total force =     0.005529     Total SCF correction =     0.000338

     entering subroutine stress ...

          total   stress  (Ry/bohr**3)                   (kbar)     P=    8.90
   0.00002610   0.00000000   0.00000000          3.84      0.00      0.00
   0.00000000   0.00002610   0.00000000          0.00      3.84      0.00
   0.00000000   0.00000000   0.00012929          0.00      0.00     19.02

     Writing output data file Prototype-La-hP8-Mg3Cd.save

     General routines

     Parallel routines

   This run was terminated on:  17: 9: 4  22Mar2018

   JOB DONE.