     Program PWSCF v.5.0.2 starts on 22Mar2018 at 22:50:30

     Current dimensions of program PWSCF are:
     Max number of different atomic species (ntypx) = 10
     Max number of k-points (npk) =  40000
     Max angular momentum in pseudopotentials (lmaxx) =  3
     Waiting for input...
     Reading input from standard input

     Subspace diagonalization in iterative solution of the eigenvalue problem:
     a serial algorithm will be used

     bravais-lattice index     =            0
     lattice parameter (alat)  =      12.0168  a.u.
     unit-cell volume          =    1187.3413 (a.u.)^3
     number of atoms/cell      =            8
     number of atomic types    =            2
     number of electrons       =       156.00
     number of Kohn-Sham states=           94
     kinetic-energy cutoff     =      40.0000  Ry
     charge density cutoff     =     160.0000  Ry
     convergence threshold     =      1.0E-04
     mixing beta               =       0.7000
     number of iterations used =            8  plain     mixing
     Exchange-correlation      = SLA-PZ-NOGX-NOGC ( 1 1 0 0 0)
     EXX-fraction              =        0.00
     nstep                     =           50

     celldm(1)=  12.016801  celldm(2)=   0.000000  celldm(3)=   0.000000
     celldm(4)=   0.000000  celldm(5)=   0.000000  celldm(6)=   0.000000

     crystal axes: (cart. coord. in units of alat)
               a(1) = (   1.000000   0.000000   0.000000 )
               a(2) = (  -0.500000   0.866025   0.000000 )
               a(3) = (   0.000000   0.000000   0.790093 )

     reciprocal axes: (cart. coord. in units 2 pi/alat)
               b(1) = (  1.000000  0.577350  0.000000 )
               b(2) = (  0.000000  1.154701  0.000000 )
               b(3) = (  0.000000  0.000000  1.265674 )

     PseudoPot. # 1 for Gd read from file:
     /home/cwx6513/pp.La/Gd.UPF
     MD5 check sum: 09a8be538722f05520810cb6aac0efd2
     Pseudo is Norm-conserving, Zval = 18.0
     Generated in analytical, separable form
     Using radial grid of 1263 points,  6 beta functions with:
                l(1) =   0
                l(2) =   0
                l(3) =   1
                l(4) =   1
                l(5) =   2
                l(6) =   3

     PseudoPot. # 2 for Yb read from file:
     /home/cwx6513/pp.La/Yb.UPF
     MD5 check sum: 3e859b81cc28c53ec6aa3a2e888efcdf
     Pseudo is Norm-conserving, Zval = 24.0
     Generated in analytical, separable form
     Using radial grid of 1269 points,  6 beta functions with:
                l(1) =   0
                l(2) =   0
                l(3) =   1
                l(4) =   1
                l(5) =   2
                l(6) =   3

     atomic species   valence    mass     pseudopotential
        Mg            18.00    24.30500     Gd( 1.00)
        Cd            24.00   112.41100     Yb( 1.00)

     24 Sym. Ops., with inversion, found (12 have fractional translation)

   Cartesian axes

     site n.     atom                  positions (alat units)
         1           Mg  tau(   1) = (   0.2478935   0.7204716   0.1975233  )
         2           Mg  tau(   2) = (   0.7478935   0.1455538   0.5925699  )
         3           Mg  tau(   3) = (   0.2521065   0.1455538   0.5925699  )
         4           Mg  tau(   4) = (  -0.2478935   0.7204716   0.1975233  )
         5           Mg  tau(   5) = (   0.0000000   0.2911075   0.1975233  )
         6           Mg  tau(   6) = (   0.5000000   0.5749179   0.5925699  )
         7           Cd  tau(   7) = (   0.5000005   0.2886748   0.1975233  )
         8           Cd  tau(   8) = (  -0.0000005   0.5773506   0.5925699  )

     number of k points=    64  gaussian smearing, width (Ry)=  0.1000
                       cart. coord. in units 2pi/alat
        k(    1) = (   0.0000000   0.0000000   0.0000000), wk =   0.0095238
        k(    2) = (   0.0000000   0.0000000   0.1808105), wk =   0.0190476
        k(    3) = (   0.0000000   0.0000000   0.3616210), wk =   0.0190476
        k(    4) = (   0.0000000   0.0000000   0.5424315), wk =   0.0190476
        k(    5) = (   0.0000000   0.1924501   0.0000000), wk =   0.0190476
        k(    6) = (   0.0000000   0.1924501   0.1808105), wk =   0.0380952
        k(    7) = (   0.0000000   0.1924501   0.3616210), wk =   0.0380952
        k(    8) = (   0.0000000   0.1924501   0.5424315), wk =   0.0380952
        k(    9) = (   0.0000000   0.3849002   0.0000000), wk =   0.0190476
        k(   10) = (   0.0000000   0.3849002   0.1808105), wk =   0.0380952
        k(   11) = (   0.0000000   0.3849002   0.3616210), wk =   0.0380952
        k(   12) = (   0.0000000   0.3849002   0.5424315), wk =   0.0380952
        k(   13) = (   0.0000000  -0.5773503   0.0000000), wk =   0.0095238
        k(   14) = (   0.0000000  -0.5773503   0.1808105), wk =   0.0190476
        k(   15) = (   0.0000000  -0.5773503   0.3616210), wk =   0.0190476
        k(   16) = (   0.0000000  -0.5773503   0.5424315), wk =   0.0190476
        k(   17) = (   0.2000000   0.1154701   0.0000000), wk =   0.0190476
        k(   18) = (   0.2000000   0.1154701   0.1808105), wk =   0.0380952
        k(   19) = (   0.2000000   0.1154701   0.3616210), wk =   0.0380952
        k(   20) = (   0.2000000   0.1154701   0.5424315), wk =   0.0380952
        k(   21) = (   0.2000000   0.3079201   0.0000000), wk =   0.0190476
        k(   22) = (   0.2000000   0.3079201   0.1808105), wk =   0.0380952
        k(   23) = (   0.2000000   0.3079201   0.3616210), wk =   0.0380952
        k(   24) = (   0.2000000   0.3079201   0.5424315), wk =   0.0380952
        k(   25) = (   0.2000000   0.5003702   0.0000000), wk =   0.0190476
        k(   26) = (   0.2000000   0.5003702   0.1808105), wk =   0.0380952
        k(   27) = (   0.2000000   0.5003702   0.3616210), wk =   0.0380952
        k(   28) = (   0.2000000   0.5003702   0.5424315), wk =   0.0380952
        k(   29) = (   0.2000000  -0.4618802   0.0000000), wk =   0.0190476
        k(   30) = (   0.2000000  -0.4618802   0.1808105), wk =   0.0380952
        k(   31) = (   0.2000000  -0.4618802   0.3616210), wk =   0.0380952
        k(   32) = (   0.2000000  -0.4618802   0.5424315), wk =   0.0380952
        k(   33) = (   0.2000000  -0.2694301   0.0000000), wk =   0.0190476
        k(   34) = (   0.2000000  -0.2694301   0.1808105), wk =   0.0380952
        k(   35) = (   0.2000000  -0.2694301   0.3616210), wk =   0.0380952
        k(   36) = (   0.2000000  -0.2694301   0.5424315), wk =   0.0380952
        k(   37) = (   0.2000000  -0.0769800   0.0000000), wk =   0.0190476
        k(   38) = (   0.2000000  -0.0769800   0.1808105), wk =   0.0380952
        k(   39) = (   0.2000000  -0.0769800   0.3616210), wk =   0.0380952
        k(   40) = (   0.2000000  -0.0769800   0.5424315), wk =   0.0380952
        k(   41) = (   0.4000000   0.2309401   0.0000000), wk =   0.0190476
        k(   42) = (   0.4000000   0.2309401   0.1808105), wk =   0.0380952
        k(   43) = (   0.4000000   0.2309401   0.3616210), wk =   0.0380952
        k(   44) = (   0.4000000   0.2309401   0.5424315), wk =   0.0380952
        k(   45) = (   0.4000000   0.4233902   0.0000000), wk =   0.0190476
        k(   46) = (   0.4000000   0.4233902   0.1808105), wk =   0.0380952
        k(   47) = (   0.4000000   0.4233902   0.3616210), wk =   0.0380952
        k(   48) = (   0.4000000   0.4233902   0.5424315), wk =   0.0380952
        k(   49) = (   0.4000000   0.6158403   0.0000000), wk =   0.0190476
        k(   50) = (   0.4000000   0.6158403   0.1808105), wk =   0.0380952
        k(   51) = (   0.4000000   0.6158403   0.3616210), wk =   0.0380952
        k(   52) = (   0.4000000   0.6158403   0.5424315), wk =   0.0380952
        k(   53) = (   0.4000000  -0.3464102   0.0000000), wk =   0.0190476
        k(   54) = (   0.4000000  -0.3464102   0.1808105), wk =   0.0380952
        k(   55) = (   0.4000000  -0.3464102   0.3616210), wk =   0.0380952
        k(   56) = (   0.4000000  -0.3464102   0.5424315), wk =   0.0380952
        k(   57) = (   0.4000000  -0.1539601   0.0000000), wk =   0.0190476
        k(   58) = (   0.4000000  -0.1539601   0.1808105), wk =   0.0380952
        k(   59) = (   0.4000000  -0.1539601   0.3616210), wk =   0.0380952
        k(   60) = (   0.4000000  -0.1539601   0.5424315), wk =   0.0380952
        k(   61) = (   0.4000000   0.0384900   0.0000000), wk =   0.0190476
        k(   62) = (   0.4000000   0.0384900   0.1808105), wk =   0.0380952
        k(   63) = (   0.4000000   0.0384900   0.3616210), wk =   0.0380952
        k(   64) = (   0.4000000   0.0384900   0.5424315), wk =   0.0380952

     Largest allocated arrays     est. size (Mb)     dimensions
     Largest temporary arrays     est. size (Mb)     dimensions

     Initial potential from superposition of free atoms

     Starting from uniform charge
     Starting wfc are    0 randomized atomic wfcs

     Self-consistent Calculation

     iteration #  1     ecut=    40.00 Ry     beta=0.70
     CG style diagonalization
     ethr =  1.00E-02,  avg # of iterations = 17.7

     total energy              =   -1433.86409564 Ry
     Harris-Foulkes estimate   =   -2666.78352495 Ry
     estimated scf accuracy    <    1492.05609520 Ry

     iteration #  2     ecut=    40.00 Ry     beta=0.70
     CG style diagonalization
     c_bands:  3 eigenvalues not converged
     c_bands:  4 eigenvalues not converged
     c_bands:  4 eigenvalues not converged
     c_bands:  5 eigenvalues not converged
     c_bands:  3 eigenvalues not converged
     c_bands:  3 eigenvalues not converged
     c_bands:  4 eigenvalues not converged
     c_bands:  4 eigenvalues not converged
     c_bands:  3 eigenvalues not converged
     c_bands:  4 eigenvalues not converged
     c_bands:  5 eigenvalues not converged
     c_bands:  3 eigenvalues not converged
     c_bands:  4 eigenvalues not converged
     c_bands:  4 eigenvalues not converged
     c_bands:  4 eigenvalues not converged
     c_bands:  2 eigenvalues not converged
     c_bands:  2 eigenvalues not converged
     c_bands:  5 eigenvalues not converged
     c_bands:  4 eigenvalues not converged
     c_bands:  4 eigenvalues not converged
     c_bands:  4 eigenvalues not converged
     c_bands:  3 eigenvalues not converged
     c_bands:  2 eigenvalues not converged
     c_bands:  3 eigenvalues not converged
     c_bands:  5 eigenvalues not converged
     c_bands:  2 eigenvalues not converged
     c_bands:  2 eigenvalues not converged
     c_bands:  4 eigenvalues not converged
     c_bands:  2 eigenvalues not converged
     c_bands:  4 eigenvalues not converged
     c_bands:  1 eigenvalues not converged
     c_bands:  3 eigenvalues not converged
     c_bands:  5 eigenvalues not converged
     c_bands:  4 eigenvalues not converged
     c_bands:  5 eigenvalues not converged
     c_bands:  3 eigenvalues not converged
     c_bands:  3 eigenvalues not converged
     c_bands:  2 eigenvalues not converged
     c_bands:  4 eigenvalues not converged
     c_bands:  2 eigenvalues not converged
     c_bands:  5 eigenvalues not converged
     c_bands:  5 eigenvalues not converged
     c_bands:  4 eigenvalues not converged
[...]
        k(   13) = (   0.0000000  -0.5851875   0.0000000), wk =   0.0095238
        k(   14) = (   0.0000000  -0.5851875   0.1808652), wk =   0.0190476
        k(   15) = (   0.0000000  -0.5851875   0.3617304), wk =   0.0190476
        k(   16) = (   0.0000000  -0.5851875   0.5425956), wk =   0.0190476
        k(   17) = (   0.2027149   0.1170375   0.0000000), wk =   0.0190476
        k(   18) = (   0.2027149   0.1170375   0.1808652), wk =   0.0380952
        k(   19) = (   0.2027149   0.1170375   0.3617304), wk =   0.0380952
        k(   20) = (   0.2027149   0.1170375   0.5425956), wk =   0.0380952
        k(   21) = (   0.2027149   0.3121000   0.0000000), wk =   0.0190476
        k(   22) = (   0.2027149   0.3121000   0.1808652), wk =   0.0380952
        k(   23) = (   0.2027149   0.3121000   0.3617304), wk =   0.0380952
        k(   24) = (   0.2027149   0.3121000   0.5425956), wk =   0.0380952
        k(   25) = (   0.2027149   0.5071625   0.0000000), wk =   0.0190476
        k(   26) = (   0.2027149   0.5071625   0.1808652), wk =   0.0380952
        k(   27) = (   0.2027149   0.5071625   0.3617304), wk =   0.0380952
        k(   28) = (   0.2027149   0.5071625   0.5425956), wk =   0.0380952
        k(   29) = (   0.2027149  -0.4681500   0.0000000), wk =   0.0190476
        k(   30) = (   0.2027149  -0.4681500   0.1808652), wk =   0.0380952
        k(   31) = (   0.2027149  -0.4681500   0.3617304), wk =   0.0380952
        k(   32) = (   0.2027149  -0.4681500   0.5425956), wk =   0.0380952
        k(   33) = (   0.2027149  -0.2730875   0.0000000), wk =   0.0190476
        k(   34) = (   0.2027149  -0.2730875   0.1808652), wk =   0.0380952
        k(   35) = (   0.2027149  -0.2730875   0.3617304), wk =   0.0380952
        k(   36) = (   0.2027149  -0.2730875   0.5425956), wk =   0.0380952
        k(   37) = (   0.2027149  -0.0780250   0.0000000), wk =   0.0190476
        k(   38) = (   0.2027149  -0.0780250   0.1808652), wk =   0.0380952
        k(   39) = (   0.2027149  -0.0780250   0.3617304), wk =   0.0380952
        k(   40) = (   0.2027149  -0.0780250   0.5425956), wk =   0.0380952
        k(   41) = (   0.4054298   0.2340750   0.0000000), wk =   0.0190476
        k(   42) = (   0.4054298   0.2340750   0.1808652), wk =   0.0380952
        k(   43) = (   0.4054298   0.2340750   0.3617304), wk =   0.0380952
        k(   44) = (   0.4054298   0.2340750   0.5425956), wk =   0.0380952
        k(   45) = (   0.4054298   0.4291375   0.0000000), wk =   0.0190476
        k(   46) = (   0.4054298   0.4291375   0.1808652), wk =   0.0380952
        k(   47) = (   0.4054298   0.4291375   0.3617304), wk =   0.0380952
        k(   48) = (   0.4054298   0.4291375   0.5425956), wk =   0.0380952
        k(   49) = (   0.4054298   0.6242001   0.0000000), wk =   0.0190476
        k(   50) = (   0.4054298   0.6242001   0.1808652), wk =   0.0380952
        k(   51) = (   0.4054298   0.6242001   0.3617304), wk =   0.0380952
        k(   52) = (   0.4054298   0.6242001   0.5425956), wk =   0.0380952
        k(   53) = (   0.4054298  -0.3511125   0.0000000), wk =   0.0190476
        k(   54) = (   0.4054298  -0.3511125   0.1808652), wk =   0.0380952
        k(   55) = (   0.4054298  -0.3511125   0.3617304), wk =   0.0380952
        k(   56) = (   0.4054298  -0.3511125   0.5425956), wk =   0.0380952
        k(   57) = (   0.4054298  -0.1560500   0.0000000), wk =   0.0190476
        k(   58) = (   0.4054298  -0.1560500   0.1808652), wk =   0.0380952
        k(   59) = (   0.4054298  -0.1560500   0.3617304), wk =   0.0380952
        k(   60) = (   0.4054298  -0.1560500   0.5425956), wk =   0.0380952
        k(   61) = (   0.4054298   0.0390125   0.0000000), wk =   0.0190476
        k(   62) = (   0.4054298   0.0390125   0.1808652), wk =   0.0380952
        k(   63) = (   0.4054298   0.0390125   0.3617304), wk =   0.0380952
        k(   64) = (   0.4054298   0.0390125   0.5425956), wk =   0.0380952

[...]

     The maximum number of steps has been reached.

     End of BFGS Geometry Optimization
Begin final coordinates
     new unit-cell volume =   1155.40109 a.u.^3 (   171.21278 Ang^3 )

CELL_PARAMETERS (alat= 12.01680127)
   0.986607234   0.000000000   0.000000000
  -0.493303617   0.854426928   0.000000000
   0.000000000   0.000000000   0.789854167

ATOMIC_POSITIONS (crystal)
Mg       0.666191774   0.833095887   0.250000000
Mg       0.833095887   0.166904113   0.750000000
Mg       0.333808226   0.166904113   0.750000000
Mg       0.166904113   0.833095887   0.250000000
Mg       0.166904113   0.333808226   0.250000000
Mg       0.833095887   0.666191774   0.750000000
Cd       0.666667000   0.333333000   0.250000000
Cd       0.333333000   0.666667000   0.750000000
End final coordinates

     A final scf calculation at the relaxed structure.
     The G-vectors are recalculated for the final unit cell
     Results may differ from those at the preceding step.

     bravais-lattice index     =            0
     lattice parameter (alat)  =      12.0168  a.u.
     unit-cell volume          =    1155.4011 (a.u.)^3
     number of atoms/cell      =            8
     number of atomic types    =            2
     number of electrons       =       156.00
     number of Kohn-Sham states=           94
     kinetic-energy cutoff     =      40.0000  Ry
     charge density cutoff     =     160.0000  Ry
     convergence threshold     =      3.3E-06
     mixing beta               =       0.7000
     number of iterations used =            8  plain     mixing
     Exchange-correlation      = SLA-PZ-NOGX-NOGC ( 1 1 0 0 0)
     EXX-fraction              =        0.00

     celldm(1)=  12.016801  celldm(2)=   0.000000  celldm(3)=   0.000000
     celldm(4)=   0.000000  celldm(5)=   0.000000  celldm(6)=   0.000000

     crystal axes: (cart. coord. in units of alat)
               a(1) = (   0.986607   0.000000   0.000000 )
               a(2) = (  -0.493304   0.854427   0.000000 )
               a(3) = (   0.000000   0.000000   0.789854 )

     reciprocal axes: (cart. coord. in units 2 pi/alat)
               b(1) = (  1.013575  0.585188  0.000000 )
               b(2) = (  0.000000  1.170375  0.000000 )
               b(3) = (  0.000000  0.000000  1.266056 )

     PseudoPot. # 1 for Gd read from file:
     /home/cwx6513/pp.La/Gd.UPF
     MD5 check sum: 09a8be538722f05520810cb6aac0efd2
     Pseudo is Norm-conserving, Zval = 18.0
     Generated in analytical, separable form
     Using radial grid of 1263 points,  6 beta functions with:
                l(1) =   0
                l(2) =   0
                l(3) =   1
                l(4) =   1
                l(5) =   2
                l(6) =   3

     PseudoPot. # 2 for Yb read from file:
     /home/cwx6513/pp.La/Yb.UPF
     MD5 check sum: 3e859b81cc28c53ec6aa3a2e888efcdf
     Pseudo is Norm-conserving, Zval = 24.0
     Generated in analytical, separable form
     Using radial grid of 1269 points,  6 beta functions with:
                l(1) =   0
                l(2) =   0
                l(3) =   1
                l(4) =   1
                l(5) =   2
                l(6) =   3

     atomic species   valence    mass     pseudopotential
        Mg            18.00    24.30500     Gd( 1.00)
        Cd            24.00   112.41100     Yb( 1.00)

     24 Sym. Ops., with inversion, found (12 have fractional translation)

   Cartesian axes

     site n.     atom                  positions (alat units)
         1           Mg  tau(   1) = (   0.2463004   0.7118196   0.1974635  )
         2           Mg  tau(   2) = (   0.7396040   0.1426074   0.5923906  )
         3           Mg  tau(   3) = (   0.2470032   0.1426074   0.5923906  )
         4           Mg  tau(   4) = (  -0.2463004   0.7118196   0.1974635  )
         5           Mg  tau(   5) = (   0.0000000   0.2852147   0.1974635  )
         6           Mg  tau(   6) = (   0.4933036   0.5692122   0.5923906  )
         7           Cd  tau(   7) = (   0.4933041   0.2848087   0.1974635  )
         8           Cd  tau(   8) = (  -0.0000005   0.5696182   0.5923906  )

     number of k points=    64  gaussian smearing, width (Ry)=  0.1000
                       cart. coord. in units 2pi/alat
        k(    1) = (   0.0000000   0.0000000   0.0000000), wk =   0.0095238
        k(    2) = (   0.0000000   0.0000000   0.1808652), wk =   0.0190476
        k(    3) = (   0.0000000   0.0000000   0.3617304), wk =   0.0190476
        k(    4) = (   0.0000000   0.0000000   0.5425956), wk =   0.0190476
        k(    5) = (   0.0000000   0.1950625   0.0000000), wk =   0.0190476
        k(    6) = (   0.0000000   0.1950625   0.1808652), wk =   0.0380952
        k(    7) = (   0.0000000   0.1950625   0.3617304), wk =   0.0380952
        k(    8) = (   0.0000000   0.1950625   0.5425956), wk =   0.0380952
        k(    9) = (   0.0000000   0.3901250   0.0000000), wk =   0.0190476
        k(   10) = (   0.0000000   0.3901250   0.1808652), wk =   0.0380952
        k(   11) = (   0.0000000   0.3901250   0.3617304), wk =   0.0380952
        k(   12) = (   0.0000000   0.3901250   0.5425956), wk =   0.0380952
        k(   13) = (   0.0000000  -0.5851875   0.0000000), wk =   0.0095238
        k(   14) = (   0.0000000  -0.5851875   0.1808652), wk =   0.0190476
        k(   15) = (   0.0000000  -0.5851875   0.3617304), wk =   0.0190476
        k(   16) = (   0.0000000  -0.5851875   0.5425956), wk =   0.0190476
        k(   17) = (   0.2027149   0.1170375   0.0000000), wk =   0.0190476
        k(   18) = (   0.2027149   0.1170375   0.1808652), wk =   0.0380952
        k(   19) = (   0.2027149   0.1170375   0.3617304), wk =   0.0380952
        k(   20) = (   0.2027149   0.1170375   0.5425956), wk =   0.0380952
        k(   21) = (   0.2027149   0.3121000   0.0000000), wk =   0.0190476
        k(   22) = (   0.2027149   0.3121000   0.1808652), wk =   0.0380952
        k(   23) = (   0.2027149   0.3121000   0.3617304), wk =   0.0380952
        k(   24) = (   0.2027149   0.3121000   0.5425956), wk =   0.0380952
        k(   25) = (   0.2027149   0.5071625   0.0000000), wk =   0.0190476
        k(   26) = (   0.2027149   0.5071625   0.1808652), wk =   0.0380952
        k(   27) = (   0.2027149   0.5071625   0.3617304), wk =   0.0380952
        k(   28) = (   0.2027149   0.5071625   0.5425956), wk =   0.0380952
        k(   29) = (   0.2027149  -0.4681500   0.0000000), wk =   0.0190476
        k(   30) = (   0.2027149  -0.4681500   0.1808652), wk =   0.0380952
        k(   31) = (   0.2027149  -0.4681500   0.3617304), wk =   0.0380952
        k(   32) = (   0.2027149  -0.4681500   0.5425956), wk =   0.0380952
        k(   33) = (   0.2027149  -0.2730875   0.0000000), wk =   0.0190476
        k(   34) = (   0.2027149  -0.2730875   0.1808652), wk =   0.0380952
        k(   35) = (   0.2027149  -0.2730875   0.3617304), wk =   0.0380952
        k(   36) = (   0.2027149  -0.2730875   0.5425956), wk =   0.0380952
        k(   37) = (   0.2027149  -0.0780250   0.0000000), wk =   0.0190476
        k(   38) = (   0.2027149  -0.0780250   0.1808652), wk =   0.0380952
        k(   39) = (   0.2027149  -0.0780250   0.3617304), wk =   0.0380952
        k(   40) = (   0.2027149  -0.0780250   0.5425956), wk =   0.0380952
        k(   41) = (   0.4054298   0.2340750   0.0000000), wk =   0.0190476
        k(   42) = (   0.4054298   0.2340750   0.1808652), wk =   0.0380952
        k(   43) = (   0.4054298   0.2340750   0.3617304), wk =   0.0380952
        k(   44) = (   0.4054298   0.2340750   0.5425956), wk =   0.0380952
        k(   45) = (   0.4054298   0.4291375   0.0000000), wk =   0.0190476
        k(   46) = (   0.4054298   0.4291375   0.1808652), wk =   0.0380952
        k(   47) = (   0.4054298   0.4291375   0.3617304), wk =   0.0380952
        k(   48) = (   0.4054298   0.4291375   0.5425956), wk =   0.0380952
        k(   49) = (   0.4054298   0.6242001   0.0000000), wk =   0.0190476
        k(   50) = (   0.4054298   0.6242001   0.1808652), wk =   0.0380952
        k(   51) = (   0.4054298   0.6242001   0.3617304), wk =   0.0380952
        k(   52) = (   0.4054298   0.6242001   0.5425956), wk =   0.0380952
        k(   53) = (   0.4054298  -0.3511125   0.0000000), wk =   0.0190476
        k(   54) = (   0.4054298  -0.3511125   0.1808652), wk =   0.0380952
        k(   55) = (   0.4054298  -0.3511125   0.3617304), wk =   0.0380952
        k(   56) = (   0.4054298  -0.3511125   0.5425956), wk =   0.0380952
        k(   57) = (   0.4054298  -0.1560500   0.0000000), wk =   0.0190476
        k(   58) = (   0.4054298  -0.1560500   0.1808652), wk =   0.0380952
        k(   59) = (   0.4054298  -0.1560500   0.3617304), wk =   0.0380952
        k(   60) = (   0.4054298  -0.1560500   0.5425956), wk =   0.0380952
        k(   61) = (   0.4054298   0.0390125   0.0000000), wk =   0.0190476
        k(   62) = (   0.4054298   0.0390125   0.1808652), wk =   0.0380952
        k(   63) = (   0.4054298   0.0390125   0.3617304), wk =   0.0380952
        k(   64) = (   0.4054298   0.0390125   0.5425956), wk =   0.0380952

     Largest allocated arrays     est. size (Mb)     dimensions
     Largest temporary arrays     est. size (Mb)     dimensions

     Initial potential from superposition of free atoms

     Starting from uniform charge
     Starting wfc are    0 randomized atomic wfcs

     Writing output data file Prototype-La-hP8-Mg3Cd.save

     Self-consistent Calculation

[...]

     iteration # 10     ecut=    40.00 Ry     beta=0.70
     CG style diagonalization
     c_bands:  1 eigenvalues not converged
     c_bands:  1 eigenvalues not converged
     ethr =  1.62E-07,  avg # of iterations =  4.2

     total energy              =   -2027.73316724 Ry
     Harris-Foulkes estimate   =   -2027.73328341 Ry
     estimated scf accuracy    <       0.00022101 Ry

     iteration # 11     ecut=    40.00 Ry     beta=0.70
     CG style diagonalization
     ethr =  1.42E-07,  avg # of iterations =  3.4

     End of self-consistent calculation

[...]

          k = 0.4054 0.0390 0.5426 (  4932 PWs)   bands (ev):

  -101.0499-101.0449 -59.8106 -59.8091 -59.8054 -59.8046 -59.8042 -59.8009
   -44.7458 -44.7364 -44.7264 -44.7216 -44.7184 -44.7148 -15.9423 -15.9293
   -15.9211 -15.9122 -15.8696 -15.8672 -15.7442 -15.7262 -15.6900 -15.6842
   -15.6475 -15.6211 -15.5971 -15.5887 -15.5859 -15.5606 -15.5339 -15.5289
    -1.5969  -1.5961  -1.5939  -1.5922  -1.5898  -1.5890  -1.5804  -1.5790
    -1.5743  -1.5724  11.3625  11.4625  16.1107  16.1651  16.8861  16.9357
    17.1132  17.2538  17.7218  17.7924  18.0224  18.2035  18.2708  18.4155
    18.4610  18.4948  18.9024  18.9946  19.2724  19.4169  19.5380  20.1373
    20.1611  20.2949  20.5719  20.6036  20.6783  20.7448  20.9620  21.0727
    21.6076  21.6746  21.7616  22.0446  22.2862  22.3547  23.2879  23.3724
    24.7740  25.0627  26.9211  27.6066  28.4925  28.6660  29.1289  29.5103
    29.6846  30.2407  30.9569  31.3872  31.5220  31.6001

     the Fermi energy is    23.3101 ev

!    total energy              =   -2027.73321484 Ry
     Harris-Foulkes estimate   =   -2027.73321553 Ry
     estimated scf accuracy    <       0.00000096 Ry

     The total energy is the sum of the following terms:

     one-electron contribution =    -485.86659658 Ry
     hartree contribution      =     330.75060737 Ry
     xc contribution           =    -183.66067113 Ry
     ewald contribution        =   -1688.63931960 Ry
     smearing contrib. (-TS)   =      -0.31723490 Ry

     convergence has been achieved in  11 iterations

     Forces acting on atoms (Ry/au):

     atom    1 type  1   force =     0.01403141    0.00810104    0.00000000
     atom    2 type  1   force =     0.01403141   -0.00810104    0.00000000
     atom    3 type  1   force =    -0.01403141   -0.00810104    0.00000000
     atom    4 type  1   force =    -0.01403141    0.00810104    0.00000000
     atom    5 type  1   force =     0.00000000   -0.01620207    0.00000000
     atom    6 type  1   force =     0.00000000    0.01620207    0.00000000
     atom    7 type  2   force =     0.00000000    0.00000000    0.00000000
     atom    8 type  2   force =     0.00000000    0.00000000    0.00000000

     Total force =     0.039687     Total SCF correction =     0.000000

     entering subroutine stress ...

          total   stress  (Ry/bohr**3)                   (kbar)     P= -304.93
  -0.00210120   0.00000000   0.00000000       -309.10      0.00      0.00
   0.00000000  -0.00210120   0.00000000          0.00   -309.10      0.00
   0.00000000   0.00000000  -0.00201627          0.00      0.00   -296.60

     Writing output data file Prototype-La-hP8-Mg3Cd.save

     General routines

     Parallel routines

   This run was terminated on:   0: 2:15  23Mar2018

   JOB DONE.