     Program PWSCF v.5.0.2 starts on 22Mar2018 at 22:50:30

     Current dimensions of program PWSCF are:
     Max number of different atomic species (ntypx) = 10
     Max number of k-points (npk) =  40000
     Max angular momentum in pseudopotentials (lmaxx) =  3
     Waiting for input...
     Reading input from standard input

     Subspace diagonalization in iterative solution of the eigenvalue problem:
     a serial algorithm will be used

     bravais-lattice index     =            0
     lattice parameter (alat)  =       7.0151  a.u.
     unit-cell volume          =     862.2778 (a.u.)^3
     number of atoms/cell      =           12
     number of atomic types    =            2
     number of electrons       =       240.00
     number of Kohn-Sham states=          144
     kinetic-energy cutoff     =      40.0000  Ry
     charge density cutoff     =     160.0000  Ry
     convergence threshold     =      1.0E-04
     mixing beta               =       0.7000
     number of iterations used =            8  plain     mixing
     Exchange-correlation      = SLA-PZ-NOGX-NOGC ( 1 1 0 0 0)
     EXX-fraction              =        0.00
     nstep                     =           50

     celldm(1)=   7.015105  celldm(2)=   0.000000  celldm(3)=   0.000000
     celldm(4)=   0.000000  celldm(5)=   0.000000  celldm(6)=   0.000000

     crystal axes: (cart. coord. in units of alat)
               a(1) = (   1.000000   0.000000   0.000000 )
               a(2) = (   0.000000   1.315963   0.000000 )
               a(3) = (   0.000000   0.000000   1.898020 )

     reciprocal axes: (cart. coord. in units 2 pi/alat)
               b(1) = (  1.000000  0.000000  0.000000 )
               b(2) = (  0.000000  0.759900  0.000000 )
               b(3) = (  0.000000  0.000000  0.526865 )

     PseudoPot. # 1 for Gd read from file:
     /home/cwx6513/pp.La/Gd.UPF
     MD5 check sum: 09a8be538722f05520810cb6aac0efd2
     Pseudo is Norm-conserving, Zval = 18.0
     Generated in analytical, separable form
     Using radial grid of 1263 points,  6 beta functions with:
                l(1) =   0
                l(2) =   0
                l(3) =   1
                l(4) =   1
                l(5) =   2
                l(6) =   3

     PseudoPot. # 2 for Yb read from file:
     /home/cwx6513/pp.La/Yb.UPF
     MD5 check sum: 3e859b81cc28c53ec6aa3a2e888efcdf
     Pseudo is Norm-conserving, Zval = 24.0
     Generated in analytical, separable form
     Using radial grid of 1269 points,  6 beta functions with:
                l(1) =   0
                l(2) =   0
                l(3) =   1
                l(4) =   1
                l(5) =   2
                l(6) =   3

     atomic species   valence    mass     pseudopotential
        Co            18.00    58.93320     Gd( 1.00)
        Si            24.00    28.08550     Yb( 1.00)

      8 Sym. Ops., with inversion, found ( 6 have fractional translation)

   Cartesian axes

     site n.     atom                  positions (alat units)
         1           Co  tau(   1) = (   0.7500000   1.0875135   0.8270358  )
         2           Co  tau(   2) = (   0.2500000   0.2284499   1.0709846  )
         3           Co  tau(   3) = (   0.7500000   0.4295318   0.1219744  )
         4           Co  tau(   4) = (   0.2500000   0.8864316   1.7760460  )
         5           Co  tau(   5) = (   0.2500000   0.7067855   0.5358966  )
         6           Co  tau(   6) = (   0.7500000   0.6091779   1.3621238  )
         7           Co  tau(   7) = (   0.2500000   0.0488038   0.4131136  )
         8           Co  tau(   8) = (   0.7500000   1.2671596   1.4849068  )
         9           Si  tau(   9) = (   0.2500000   0.2669484   1.6960710  )
        10           Si  tau(  10) = (   0.7500000   1.0490149   0.2019494  )
        11           Si  tau(  11) = (   0.2500000   0.9249301   1.1509596  )
        12           Si  tau(  12) = (   0.7500000   0.3910333   0.7470608  )

     number of k points=    12  gaussian smearing, width (Ry)=  0.1000
                       cart. coord. in units 2pi/alat
        k(    1) = (   0.0000000   0.0000000   0.0000000), wk =   0.0833333
        k(    2) = (   0.0000000   0.0000000   0.1317162), wk =   0.1666667
        k(    3) = (   0.0000000   0.0000000  -0.2634324), wk =   0.0833333
        k(    4) = (   0.0000000   0.2532999   0.0000000), wk =   0.1666667
        k(    5) = (   0.0000000   0.2532999   0.1317162), wk =   0.3333333
        k(    6) = (   0.0000000   0.2532999  -0.2634324), wk =   0.1666667
        k(    7) = (  -0.5000000   0.0000000   0.0000000), wk =   0.0833333
        k(    8) = (  -0.5000000   0.0000000   0.1317162), wk =   0.1666667
        k(    9) = (  -0.5000000   0.0000000  -0.2634324), wk =   0.0833333
        k(   10) = (  -0.5000000   0.2532999   0.0000000), wk =   0.1666667
        k(   11) = (  -0.5000000   0.2532999   0.1317162), wk =   0.3333333
        k(   12) = (  -0.5000000   0.2532999  -0.2634324), wk =   0.1666667

     Largest allocated arrays     est. size (Mb)     dimensions
     Largest temporary arrays     est. size (Mb)     dimensions

     Initial potential from superposition of free atoms

     Starting from uniform charge
     Starting wfc are    0 randomized atomic wfcs

     Self-consistent Calculation

     iteration #  1     ecut=    40.00 Ry     beta=0.70
     CG style diagonalization
     c_bands:  3 eigenvalues not converged
     c_bands:  1 eigenvalues not converged
     c_bands:  3 eigenvalues not converged
     c_bands:  2 eigenvalues not converged
     c_bands:  3 eigenvalues not converged
     c_bands:  2 eigenvalues not converged
     c_bands:  1 eigenvalues not converged
     c_bands:  3 eigenvalues not converged
     c_bands:  3 eigenvalues not converged
     c_bands:  4 eigenvalues not converged
     c_bands:  2 eigenvalues not converged
     c_bands:  4 eigenvalues not converged
     ethr =  1.00E-02,  avg # of iterations = 13.9

     total energy              =   -2315.62031905 Ry
     Harris-Foulkes estimate   =   -3841.09587826 Ry
     estimated scf accuracy    <    1839.06945093 Ry

     iteration #  2     ecut=    40.00 Ry     beta=0.70
     CG style diagonalization
     ethr =  1.00E-02,  avg # of iterations = 16.5

[...]

     End of self-consistent calculation

          k = 0.0000 0.0000 0.0000 (  3675 PWs)   bands (ev):

   -72.7392 -72.7093 -72.7037 -72.6750 -31.8666 -31.8660 -31.8531 -31.8381
   -31.8336 -31.8265 -31.8260 -31.8251 -31.6558 -31.6453 -31.6289 -31.6136
   -19.4687 -19.1327 -19.0336 -18.9779 -18.8015 -18.5721 -18.4475 -18.4390
     7.3340   7.7494   7.9039   8.0572   8.1867   8.2104   8.4633   8.4936
     8.8061   8.8243   9.1710   9.2652   9.4094   9.5006   9.6040   9.6521
     9.8528   9.8860  10.0551  10.2598  10.3736  10.6602  11.1347  11.2727
    24.3105  24.4214  24.4269  24.5718  24.6229  24.6235  24.7362  24.7663
    24.7756  24.8775  25.0060  25.1033  25.1119  25.3195  25.4216  25.5796
    25.6595  25.6754  25.6916  25.7506  32.9068  33.8624  35.7280  35.8830
    37.1321  37.5317  38.6191  38.9866  39.6685  39.7164  39.7274  39.7643
    39.7801  39.8166  39.9321  40.0077  41.0161  41.1951  41.2290  42.1883
    42.2886  42.5215  43.8901  44.0057  44.0165  44.0364  44.0908  45.4122
    45.5035  45.6306  45.7698  45.8734  45.8887  46.4230  47.4829  47.6362
    47.6377  47.6475  47.7895  48.3683  48.3857  48.7830  49.0512  50.2398
    50.8664  51.0023  52.3396  52.6574  53.6294  53.7994  53.9810  55.2936
    55.6471  55.8340  55.9081  57.0861  57.1043  57.1648  57.2861  57.4832
    57.7859  57.9797  58.0987  58.1385  58.6901  58.7400  59.1131  59.5362
    59.7089  59.7912  59.9043  60.0480  60.1450  60.7916  61.5294  61.5585

[...]

          k =-0.5000 0.0000 0.0000 (  3722 PWs)   bands (ev):

[...]

     the Fermi energy is    55.1505 ev

!    total energy              =   -3234.26762505 Ry
     Harris-Foulkes estimate   =   -3234.26766947 Ry
     estimated scf accuracy    <       0.00004909 Ry

     The total energy is the sum of the following terms:

     one-electron contribution =     132.17161196 Ry
     hartree contribution      =     295.80958165 Ry
     xc contribution           =    -305.29276971 Ry
     ewald contribution        =   -3356.64677044 Ry
     smearing contrib. (-TS)   =      -0.30927851 Ry

     convergence has been achieved in  10 iterations

     Forces acting on atoms (Ry/au):

     atom    1 type  1   force =     0.00000000   -0.08004054   -0.06025478
     atom    2 type  1   force =     0.00000000    0.08004054    0.06025478
     atom    3 type  1   force =     0.00000000   -0.08004054    0.06025478
     atom    4 type  1   force =     0.00000000    0.08004054   -0.06025478
     atom    5 type  1   force =     0.00000000    0.14554996   -0.25284067
     atom    6 type  1   force =     0.00000000   -0.14554996    0.25284067
     atom    7 type  1   force =     0.00000000    0.14554996    0.25284067
     atom    8 type  1   force =     0.00000000   -0.14554996   -0.25284067
     atom    9 type  2   force =     0.00000000   -0.15821159    0.00950537
     atom   10 type  2   force =     0.00000000    0.15821159   -0.00950537
     atom   11 type  2   force =     0.00000000   -0.15821159   -0.00950537
     atom   12 type  2   force =     0.00000000    0.15821159    0.00950537

     Total force =     0.693604     Total SCF correction =     0.000000

     entering subroutine stress ...

          total   stress  (Ry/bohr**3)                   (kbar)     P= 7357.24
   0.05157610   0.00000000   0.00000000       7587.10      0.00      0.00
   0.00000000   0.04791479   0.00000000          0.00   7048.51      0.00
   0.00000000   0.00000000   0.05054968          0.00      0.00   7436.11

     BFGS Geometry Optimization

     number of scf cycles    =   1
     number of bfgs steps    =   0

     enthalpy new            =   -3234.2676250505 Ry

     new trust radius        =       0.5000000000 bohr
     new conv_thr            =       0.0001000000 Ry

     new unit-cell volume =   1093.94698 a.u.^3 (   162.10622 Ang^3 )

CELL_PARAMETERS (alat=  7.01510508)
   1.085136619   0.000000000   0.000000000
   0.000000000   1.420046750   0.000000000
   0.000000000   0.000000000   2.056395619

ATOMIC_POSITIONS (crystal)
Co       0.750000000   0.825828521   0.435437197
Co       0.250000000   0.174171479   0.564562803
Co       0.750000000   0.325828521   0.064562803
Co       0.250000000   0.674171479   0.935437197
Co       0.250000000   0.538127027   0.281091167
Co       0.750000000   0.461872973   0.718908833
Co       0.250000000   0.038127027   0.218908833
Co       0.750000000   0.961872973   0.781091167
Si       0.250000000   0.201722412   0.893647137
Si       0.750000000   0.798277588   0.106352863
Si       0.250000000   0.701722412   0.606352863
Si       0.750000000   0.298277588   0.393647137

     Writing output data file Prototype-La-oP12-Co2Si.save
     NEW-OLD atomic charge density approx. for the potential
     NEW k-points:
        k(    1) = (   0.0000000   0.0000000   0.0000000), wk =   0.0833333
        k(    2) = (   0.0000000   0.0000000   0.1215719), wk =   0.1666667
        k(    3) = (   0.0000000   0.0000000  -0.2431439), wk =   0.0833333
        k(    4) = (   0.0000000   0.2347341   0.0000000), wk =   0.1666667
        k(    5) = (   0.0000000   0.2347341   0.1215719), wk =   0.3333333
        k(    6) = (   0.0000000   0.2347341  -0.2431439), wk =   0.1666667
        k(    7) = (  -0.4607715   0.0000000   0.0000000), wk =   0.0833333
        k(    8) = (  -0.4607715   0.0000000   0.1215719), wk =   0.1666667
        k(    9) = (  -0.4607715   0.0000000  -0.2431439), wk =   0.0833333
        k(   10) = (  -0.4607715   0.2347341   0.0000000), wk =   0.1666667
        k(   11) = (  -0.4607715   0.2347341   0.1215719), wk =   0.3333333
        k(   12) = (  -0.4607715   0.2347341  -0.2431439), wk =   0.1666667

[...]

     enthalpy old            =   -3234.2676250505 Ry
     enthalpy new            =   -3241.3334339477 Ry

     CASE: enthalpy_new < enthalpy_old

     small trust_radius: resetting bfgs history

     new trust radius        =       2.5625283796 bohr
     new conv_thr            =       0.0001000000 Ry

[...]

          total   stress  (Ry/bohr**3)                   (kbar)     P=-3534.32
  -0.02498243   0.00000000   0.00000000      -3675.04      0.00      0.00
   0.00000000  -0.02278481   0.00000000          0.00  -3351.76      0.00
   0.00000000   0.00000000  -0.02431023          0.00      0.00  -3576.16

     number of scf cycles    =   3
     number of bfgs steps    =   2

     enthalpy old            =   -3241.3334339477 Ry
     enthalpy new            =   -3217.0938088981 Ry

     CASE: enthalpy_new > enthalpy_old

     new trust radius        =       0.6431582540 bohr

     trust_radius < trust_radius_min

     resetting bfgs history

     Message from routine bfgs:
     history already reset at previous step: stopping
     new conv_thr            =       0.0001000000 Ry

     new unit-cell volume =   1308.84087 a.u.^3 (   193.95020 Ang^3 )

[...]

ATOMIC_POSITIONS (crystal)
Co       0.750000000   0.825720822   0.435351028
Co       0.250000000   0.174279178   0.564648972
Co       0.750000000   0.325720822   0.064648972
Co       0.250000000   0.674279178   0.935351028
Co       0.250000000   0.539174939   0.279731377
Co       0.750000000   0.460825061   0.720268623
Co       0.250000000   0.039174939   0.220268623
Co       0.750000000   0.960825061   0.779731377
Si       0.250000000   0.200945085   0.893786411
Si       0.750000000   0.799054915   0.106213589
Si       0.250000000   0.700945085   0.606213589
Si       0.750000000   0.299054915   0.393786411

     Writing output data file Prototype-La-oP12-Co2Si.save
     NEW-OLD atomic charge density approx. for the potential
     NEW k-points:
        k(    1) = (   0.0000000   0.0000000   0.0000000), wk =   0.0833333
        k(    2) = (   0.0000000   0.0000000   0.1143461), wk =   0.1666667
        k(    3) = (   0.0000000   0.0000000  -0.2286922), wk =   0.0833333
        k(    4) = (   0.0000000   0.2221833   0.0000000), wk =   0.1666667
        k(    5) = (   0.0000000   0.2221833   0.1143461), wk =   0.3333333
        k(    6) = (   0.0000000   0.2221833  -0.2286922), wk =   0.1666667
        k(    7) = (  -0.4325852   0.0000000   0.0000000), wk =   0.0833333
        k(    8) = (  -0.4325852   0.0000000   0.1143461), wk =   0.1666667
        k(    9) = (  -0.4325852   0.0000000  -0.2286922), wk =   0.0833333
        k(   10) = (  -0.4325852   0.2221833   0.0000000), wk =   0.1666667
        k(   11) = (  -0.4325852   0.2221833   0.1143461), wk =   0.3333333
        k(   12) = (  -0.4325852   0.2221833  -0.2286922), wk =   0.1666667

[...]

     The maximum number of steps has been reached.

     End of BFGS Geometry Optimization
Begin final coordinates
     new unit-cell volume =   1308.84087 a.u.^3 (   193.95020 Ang^3 )

CELL_PARAMETERS (alat=  7.01510508)
   1.155841586   0.000000000   0.000000000
   0.000000000   1.500262849   0.000000000
   0.000000000   0.000000000   2.186344710

ATOMIC_POSITIONS (crystal)
Co       0.750000000   0.825720822   0.435351028
Co       0.250000000   0.174279178   0.564648972
Co       0.750000000   0.325720822   0.064648972
Co       0.250000000   0.674279178   0.935351028
Co       0.250000000   0.539174939   0.279731377
Co       0.750000000   0.460825061   0.720268623
Co       0.250000000   0.039174939   0.220268623
Co       0.750000000   0.960825061   0.779731377
Si       0.250000000   0.200945085   0.893786411
Si       0.750000000   0.799054915   0.106213589
Si       0.250000000   0.700945085   0.606213589
Si       0.750000000   0.299054915   0.393786411
End final coordinates

     A final scf calculation at the relaxed structure.
     The G-vectors are recalculated for the final unit cell
     Results may differ from those at the preceding step.

     bravais-lattice index     =            0
     lattice parameter (alat)  =       7.0151  a.u.
     unit-cell volume          =    1308.8409 (a.u.)^3
     number of atoms/cell      =           12
     number of atomic types    =            2
     number of electrons       =       240.00
     number of Kohn-Sham states=          144
     kinetic-energy cutoff     =      40.0000  Ry
     charge density cutoff     =     160.0000  Ry
     convergence threshold     =      1.0E-04
     mixing beta               =       0.7000
     number of iterations used =            8  plain     mixing
     Exchange-correlation      = SLA-PZ-NOGX-NOGC ( 1 1 0 0 0)
     EXX-fraction              =        0.00

     celldm(1)=   7.015105  celldm(2)=   0.000000  celldm(3)=   0.000000
     celldm(4)=   0.000000  celldm(5)=   0.000000  celldm(6)=   0.000000

     crystal axes: (cart. coord. in units of alat)
               a(1) = (   1.155842   0.000000   0.000000 )
               a(2) = (   0.000000   1.500263   0.000000 )
               a(3) = (   0.000000   0.000000   2.186345 )

     reciprocal axes: (cart. coord. in units 2 pi/alat)
               b(1) = (  0.865170  0.000000  0.000000 )
               b(2) = (  0.000000  0.666550  0.000000 )
               b(3) = (  0.000000  0.000000  0.457384 )

     PseudoPot. # 1 for Gd read from file:
     /home/cwx6513/pp.La/Gd.UPF
     MD5 check sum: 09a8be538722f05520810cb6aac0efd2
     Pseudo is Norm-conserving, Zval = 18.0
     Generated in analytical, separable form
     Using radial grid of 1263 points,  6 beta functions with:
                l(1) =   0
                l(2) =   0
                l(3) =   1
                l(4) =   1
                l(5) =   2
                l(6) =   3

     PseudoPot. # 2 for Yb read from file:
     /home/cwx6513/pp.La/Yb.UPF
     MD5 check sum: 3e859b81cc28c53ec6aa3a2e888efcdf
     Pseudo is Norm-conserving, Zval = 24.0
     Generated in analytical, separable form
     Using radial grid of 1269 points,  6 beta functions with:
                l(1) =   0
                l(2) =   0
                l(3) =   1
                l(4) =   1
                l(5) =   2
                l(6) =   3

     atomic species   valence    mass     pseudopotential
        Co            18.00    58.93320     Gd( 1.00)
        Si            24.00    28.08550     Yb( 1.00)

      8 Sym. Ops., with inversion, found ( 6 have fractional translation)

   Cartesian axes

     site n.     atom                  positions (alat units)
         1           Co  tau(   1) = (   0.8668812   1.2387983   0.9518274  )
         2           Co  tau(   2) = (   0.2889604   0.2614646   1.2345173  )
         3           Co  tau(   3) = (   0.8668812   0.4886668   0.1413449  )
         4           Co  tau(   4) = (   0.2889604   1.0115960   2.0449998  )
         5           Co  tau(   5) = (   0.2889604   0.8089041   0.6115892  )
         6           Co  tau(   6) = (   0.8668812   0.6913587   1.5747555  )
         7           Co  tau(   7) = (   0.2889604   0.0587727   0.4815831  )
         8           Co  tau(   8) = (   0.8668812   1.4414901   1.7047616  )
         9           Si  tau(   9) = (   0.2889604   0.3014704   1.9541252  )
        10           Si  tau(  10) = (   0.8668812   1.1987924   0.2322195  )
        11           Si  tau(  11) = (   0.2889604   1.0516019   1.3253919  )
        12           Si  tau(  12) = (   0.8668812   0.4486610   0.8609528  )

     number of k points=    12  gaussian smearing, width (Ry)=  0.1000
                       cart. coord. in units 2pi/alat
        k(    1) = (   0.0000000   0.0000000   0.0000000), wk =   0.0833333
        k(    2) = (   0.0000000   0.0000000   0.1143461), wk =   0.1666667
        k(    3) = (   0.0000000   0.0000000  -0.2286922), wk =   0.0833333
        k(    4) = (   0.0000000   0.2221833   0.0000000), wk =   0.1666667
        k(    5) = (   0.0000000   0.2221833   0.1143461), wk =   0.3333333
        k(    6) = (   0.0000000   0.2221833  -0.2286922), wk =   0.1666667
        k(    7) = (  -0.4325852   0.0000000   0.0000000), wk =   0.0833333
        k(    8) = (  -0.4325852   0.0000000   0.1143461), wk =   0.1666667
        k(    9) = (  -0.4325852   0.0000000  -0.2286922), wk =   0.0833333
        k(   10) = (  -0.4325852   0.2221833   0.0000000), wk =   0.1666667
        k(   11) = (  -0.4325852   0.2221833   0.1143461), wk =   0.3333333
        k(   12) = (  -0.4325852   0.2221833  -0.2286922), wk =   0.1666667

     Largest allocated arrays     est. size (Mb)     dimensions
     Largest temporary arrays     est. size (Mb)     dimensions

     Initial potential from superposition of free atoms

     Starting from uniform charge
     Starting wfc are    0 randomized atomic wfcs

     Writing output data file Prototype-La-oP12-Co2Si.save

     Self-consistent Calculation

[...]

     iteration #  9     ecut=    40.00 Ry     beta=0.70
     CG style diagonalization
     c_bands:  3 eigenvalues not converged
     c_bands:  2 eigenvalues not converged
     c_bands:  1 eigenvalues not converged
     c_bands:  1 eigenvalues not converged
     c_bands:  2 eigenvalues not converged
     c_bands:  1 eigenvalues not converged
     c_bands:  2 eigenvalues not converged
     ethr =  4.61E-06,  avg # of iterations =  4.8

[...]

     total energy              =   -3247.32660132 Ry
     Harris-Foulkes estimate   =   -3247.32680337 Ry
     estimated scf accuracy    <       0.00035309 Ry

     iteration # 11     ecut=    40.00 Ry     beta=0.70
     CG style diagonalization
     ethr =  1.47E-07,  avg # of iterations =  4.2

     End of self-consistent calculation

[...]

          k = 0.0000 0.2222-0.2287 (  5572 PWs)   bands (ev):

[...]

          k =-0.4326 0.2222-0.2287 (  5580 PWs)   bands (ev):

   -91.0914 -91.0914 -91.0820 -91.0820 -49.9498 -49.9498 -49.9498 -49.9498
   -49.9219 -49.9219 -49.9205 -49.9205 -49.8799 -49.8799 -49.8792 -49.8792
   -35.7734 -35.7734 -35.7727 -35.7727 -35.4759 -35.4759 -35.4319 -35.4319
    -7.2850  -7.2850  -7.2030  -7.2030  -7.1958  -7.1958  -7.1643  -7.1643
    -6.9974  -6.9974  -6.9216  -6.9216  -6.7595  -6.7595  -6.6203  -6.6203
    -6.6103  -6.6103  -6.5427  -6.5427  -6.4339  -6.4339  -6.3035  -6.3035
     7.7681   7.7681   7.7770   7.7770   7.8387   7.8387   7.8521   7.8521
     7.9109   7.9109   7.9157   7.9157   7.9462   7.9462   7.9564   7.9564
     8.0453   8.0453   8.0791   8.0791  19.6071  19.6071  19.6897  19.6897
    23.3443  23.3443  23.9229  23.9229  24.8947  24.8947  25.1649  25.1649
    25.2537  25.2537  25.8182  25.8182  25.9010  25.9010  26.2023  26.2023
    26.2971  26.2971  26.9535  26.9535  27.0782  27.0782  27.8063  27.8063
    27.9893  27.9893  28.1537  28.1537  28.7721  28.7721  29.1253  29.1253
    29.2045  29.2045  29.4017  29.4017  29.7216  29.7216  30.4170  30.4170
    31.6072  31.6072  31.9688  31.9688  32.8564  32.8564  34.4716  34.4716
    35.1299  35.1299  35.5762  35.5762  37.5185  37.5185  37.5263  37.5263
    38.9596  38.9597  39.4741  39.4741  39.7506  39.7507  40.4935  40.4936
    40.7041  40.7041  41.1671  41.1671  41.7333  41.7337  42.0285  42.0830

     the Fermi energy is    34.6542 ev

!    total energy              =   -3247.32677217 Ry
     Harris-Foulkes estimate   =   -3247.32679035 Ry
     estimated scf accuracy    <       0.00002184 Ry

     The total energy is the sum of the following terms:

     one-electron contribution =    -473.94605444 Ry
     hartree contribution      =     441.85774517 Ry
     xc contribution           =    -292.96498842 Ry
     ewald contribution        =   -2922.00393623 Ry
     smearing contrib. (-TS)   =      -0.26953825 Ry

     convergence has been achieved in  11 iterations

     Forces acting on atoms (Ry/au):

     atom    1 type  1   force =     0.00000000   -0.01915765   -0.01869697
     atom    2 type  1   force =     0.00000000    0.01915765    0.01869697
     atom    3 type  1   force =     0.00000000   -0.01915765    0.01869697
     atom    4 type  1   force =     0.00000000    0.01915765   -0.01869697
     atom    5 type  1   force =     0.00000000    0.04516666   -0.08642510
     atom    6 type  1   force =     0.00000000   -0.04516666    0.08642510
     atom    7 type  1   force =     0.00000000    0.04516666    0.08642510
     atom    8 type  1   force =     0.00000000   -0.04516666   -0.08642510
     atom    9 type  2   force =     0.00000000   -0.05822909   -0.00421400
     atom   10 type  2   force =     0.00000000    0.05822909    0.00421400
     atom   11 type  2   force =     0.00000000   -0.05822909    0.00421400
     atom   12 type  2   force =     0.00000000    0.05822909   -0.00421400

     Total force =     0.233532     Total SCF correction =     0.000000

     entering subroutine stress ...

          total   stress  (Ry/bohr**3)                   (kbar)     P=  942.63
   0.00665310   0.00000000   0.00000000        978.70      0.00      0.00
   0.00000000   0.00610768   0.00000000          0.00    898.47      0.00
   0.00000000   0.00000000   0.00646290          0.00      0.00    950.73

     Writing output data file Prototype-La-oP12-Co2Si.save

     General routines

     Parallel routines

   This run was terminated on:  23:14:21  22Mar2018

   JOB DONE.