     Program PWSCF v.5.0.2 starts on 22Mar2018 at 18:42: 0

     Current dimensions of program PWSCF are:
     Max number of different atomic species (ntypx) = 10
     Max number of k-points (npk) =  40000
     Max angular momentum in pseudopotentials (lmaxx) =  3
     Waiting for input...
     Reading input from standard input

     Subspace diagonalization in iterative solution of the eigenvalue problem:
     a serial algorithm will be used

     bravais-lattice index     =            0
     lattice parameter (alat)  =       9.9235  a.u.
     unit-cell volume          =    1361.0366 (a.u.)^3
     number of atoms/cell      =           12
     number of atomic types    =            2
     number of electrons       =       240.00
     number of Kohn-Sham states=          144
     kinetic-energy cutoff     =      40.0000  Ry
     charge density cutoff     =     160.0000  Ry
     convergence threshold     =      1.0E-04
     mixing beta               =       0.7000
     number of iterations used =            8  plain     mixing
     Exchange-correlation      = SLA-PZ-NOGX-NOGC ( 1 1 0 0 0)
     EXX-fraction              =        0.00
     nstep                     =           50

     celldm(1)=   9.923489  celldm(2)=   0.000000  celldm(3)=   0.000000
     celldm(4)=   0.000000  celldm(5)=   0.000000  celldm(6)=   0.000000

     crystal axes: (cart. coord. in units of alat)
               a(1) = (   1.000000   0.000000   0.000000 )
               a(2) = (  -0.500000   0.866025   0.000000 )
               a(3) = (   0.000000   0.000000   1.608222 )

     reciprocal axes: (cart. coord. in units 2 pi/alat)
               b(1) = (  1.000000  0.577350  0.000000 )
               b(2) = (  0.000000  1.154701  0.000000 )
               b(3) = (  0.000000  0.000000  0.621805 )

     PseudoPot. # 1 for Sm read from file:
     /home/cwx6513/pp.La/Sm.UPF
     MD5 check sum: 5079e8b144a06bfcdbc14fb02b96ab09
     Pseudo is Norm-conserving, Zval = 16.0
     Generated in analytical, separable form
     Using radial grid of 1259 points,  6 beta functions with:
                l(1) =   0
                l(2) =   0
                l(3) =   1
                l(4) =   1
                l(5) =   2
                l(6) =   3

     PseudoPot. # 2 for Er read from file:
     /home/cwx6513/pp.La/Er.UPF
     MD5 check sum: e152ae21b84514339d8526f066caf99b
     Pseudo is Norm-conserving, Zval = 22.0
     Generated in analytical, separable form
     Using radial grid of 1267 points,  6 beta functions with:
                l(1) =   0
                l(2) =   0
                l(3) =   1
                l(4) =   1
                l(5) =   2
                l(6) =   3

     atomic species   valence    mass     pseudopotential
        Mg            16.00    24.30500     Sm( 1.00)
        Zn            22.00    65.39000     Er( 1.00)

     24 Sym. Ops., with inversion, found (12 have fractional translation)

   Cartesian axes

     site n.     atom                  positions (alat units)
         1           Mg  tau(   1) = (  -0.0000005   0.5773506   0.1003820  )
         2           Mg  tau(   2) = (   0.5000005   0.2886748   0.9044931  )
         3           Mg  tau(   3) = (   0.5000005   0.2886748   1.5078402  )
         4           Mg  tau(   4) = (  -0.0000005   0.5773506   0.7037291  )
         5           Zn  tau(   5) = (   0.0000000   0.0000000   0.0000000  )
         6           Zn  tau(   6) = (   0.0000000   0.0000000   0.8041111  )
         7           Zn  tau(   7) = (   0.0000000   0.2950739   1.2061667  )
         8           Zn  tau(   8) = (   0.7444585   0.1475370   0.4020556  )
         9           Zn  tau(   9) = (   0.2555415   0.1475370   0.4020556  )
        10           Zn  tau(  10) = (   0.2444585   0.7184884   1.2061667  )
        11           Zn  tau(  11) = (  -0.2444585   0.7184884   1.2061667  )
        12           Zn  tau(  12) = (   0.5000000   0.5709515   0.4020556  )

     number of k points=    12  gaussian smearing, width (Ry)=  0.1000
                       cart. coord. in units 2pi/alat
        k(    1) = (   0.0000000   0.0000000   0.0000000), wk =   0.0833333
        k(    2) = (   0.0000000   0.0000000   0.1554512), wk =   0.1666667
        k(    3) = (   0.0000000   0.0000000  -0.3109023), wk =   0.0833333
        k(    4) = (   0.0000000   0.3849002   0.0000000), wk =   0.1666667
        k(    5) = (   0.0000000   0.3849002   0.1554512), wk =   0.3333333
        k(    6) = (   0.0000000   0.3849002  -0.3109023), wk =   0.1666667
        k(    7) = (  -0.5000000  -0.2886751   0.0000000), wk =   0.0833333
        k(    8) = (  -0.5000000  -0.2886751   0.1554512), wk =   0.1666667
        k(    9) = (  -0.5000000  -0.2886751  -0.3109023), wk =   0.0833333
        k(   10) = (  -0.5000000   0.0962250   0.0000000), wk =   0.1666667
        k(   11) = (  -0.5000000   0.0962250   0.1554512), wk =   0.3333333
        k(   12) = (  -0.5000000   0.0962250  -0.3109023), wk =   0.1666667

     Largest allocated arrays     est. size (Mb)     dimensions
     Largest temporary arrays     est. size (Mb)     dimensions

     Initial potential from superposition of free atoms

     Starting from uniform charge
     Starting wfc are    0 randomized atomic wfcs

     Self-consistent Calculation

     iteration #  1     ecut=    40.00 Ry     beta=0.70
     CG style diagonalization
     ethr =  1.00E-02,  avg # of iterations = 20.5

     total energy              =   -1975.83421646 Ry
     Harris-Foulkes estimate   =   -4299.30313056 Ry
     estimated scf accuracy    <    2785.89867843 Ry

[...]

     iteration #  3     ecut=    40.00 Ry     beta=0.70
     CG style diagonalization
     c_bands:  1 eigenvalues not converged
     c_bands:  1 eigenvalues not converged
     c_bands:  1 eigenvalues not converged
     c_bands:  5 eigenvalues not converged
     c_bands:  2 eigenvalues not converged
     ethr =  1.00E-02,  avg # of iterations = 13.0

[...]

     End of self-consistent calculation

          k = 0.0000 0.0000 0.0000 (  5769 PWs)   bands (ev):

   -69.6696 -69.6625 -69.6374 -69.6005 -69.6005 -69.5879 -69.5878 -69.5699
   -32.6024 -32.4438 -32.1805 -31.9112 -31.9112 -31.8828 -31.8828 -31.8723
   -31.7574 -31.7573 -31.6437 -31.5633 -31.5632 -31.5386 -31.5386 -31.4543
   -31.4543 -31.4253 -31.4090 -31.4090 -31.3424 -31.3423 -31.3291 -31.3134
   -23.7730 -23.7455 -23.7068 -23.6803   0.6947   0.7013   0.7302   0.7302
     0.7550   0.7550   1.0198   1.0279   1.0557   1.0557   1.0843   1.0843
    10.5569  11.1017  11.5429  12.3460  12.3460  12.5223  12.5223  12.8535
    12.8535  12.8976  13.2365  13.2365  13.9290  14.2512  14.3341  14.3341
    14.5669  14.5669  14.9663  15.3022  15.3022  15.5751  15.5751  15.6411
    15.8800  15.8800  15.9801  16.0005  16.0005  16.0109  16.0680  16.0680
    16.1257  16.1257  16.9105  16.9106  17.2791  17.2791  17.3100  17.7679
    17.7689  19.1872  21.3385  24.1544  24.7318  25.8433  25.8434  26.0789
    26.2304  26.2304  26.3392  26.3393  27.3599  27.3600  28.0806  28.0806
    28.8062  28.8062  29.5616  29.8896  31.4132  31.7886  31.7886  32.1412
    32.1412  32.6066  32.6066  32.7849  32.7849  33.1665  33.1685  33.2926
    33.2927  33.8645  34.5606  35.0636  35.0636  35.5052  35.8087  36.0092
    36.0093  37.2829  37.2829  37.6556  37.6557  37.6607  37.6948  37.8572
    37.8730  38.1833  38.1834  38.4159  38.4159  38.9188  38.9190  39.0905

[...]

          k =-0.5000-0.2887 0.0000 (  5800 PWs)   bands (ev):

[...]

     the Fermi energy is    33.7704 ev

!    total energy              =   -3236.46472401 Ry
     Harris-Foulkes estimate   =   -3236.46472559 Ry
     estimated scf accuracy    <       0.00000195 Ry

     The total energy is the sum of the following terms:

     one-electron contribution =    -629.69151550 Ry
     hartree contribution      =     514.16467510 Ry
     xc contribution           =    -293.51356467 Ry
     ewald contribution        =   -2827.00503651 Ry
     smearing contrib. (-TS)   =      -0.41928243 Ry

     convergence has been achieved in  11 iterations

     Forces acting on atoms (Ry/au):

     atom    1 type  1   force =     0.00000000    0.00000000    0.00012773
     atom    2 type  1   force =     0.00000000    0.00000000    0.00012773
     atom    3 type  1   force =     0.00000000    0.00000000   -0.00012773
     atom    4 type  1   force =     0.00000000    0.00000000   -0.00012773
     atom    5 type  2   force =     0.00000000    0.00000000    0.00000000
     atom    6 type  2   force =     0.00000000    0.00000000    0.00000000
     atom    7 type  2   force =     0.00000000    0.16650555    0.00000000
     atom    8 type  2   force =    -0.14419803    0.08325277    0.00000000
     atom    9 type  2   force =     0.14419803    0.08325277    0.00000000
     atom   10 type  2   force =    -0.14419803   -0.08325277    0.00000000
     atom   11 type  2   force =     0.14419803   -0.08325277    0.00000000
     atom   12 type  2   force =     0.00000000   -0.16650555    0.00000000

     Total force =     0.407854     Total SCF correction =     0.000000

     entering subroutine stress ...

          total   stress  (Ry/bohr**3)                   (kbar)     P=  983.82
   0.00671452   0.00000000   0.00000000        987.74      0.00      0.00
   0.00000000   0.00671452   0.00000000          0.00    987.74      0.00
   0.00000000   0.00000000   0.00663453          0.00      0.00    975.97

     BFGS Geometry Optimization

     number of scf cycles    =   1
     number of bfgs steps    =   0

     enthalpy new            =   -3236.4647240128 Ry

     new trust radius        =       0.5000000000 bohr
     new conv_thr            =       0.0001000000 Ry

     new unit-cell volume =   1655.64924 a.u.^3 (   245.34190 Ang^3 )

CELL_PARAMETERS (alat=  9.92348860)
   1.067764947   0.000000000   0.000000000
  -0.533882474   0.924711570   0.000000000
   0.000000000   0.000000000   1.715905066

ATOMIC_POSITIONS (crystal)
Mg       0.333333000   0.666667000   0.062421231
Mg       0.666667000   0.333333000   0.562421231
Mg       0.666667000   0.333333000   0.937578769
Mg       0.333333000   0.666667000   0.437578769
Zn       0.000000000   0.000000000   0.000000000
Zn       0.000000000   0.000000000   0.500000000
Zn       0.174271697   0.348543393   0.750000000
Zn       0.825728303   0.174271697   0.250000000
Zn       0.348543393   0.174271697   0.250000000
Zn       0.651456607   0.825728303   0.750000000
Zn       0.174271697   0.825728303   0.750000000
Zn       0.825728303   0.651456607   0.250000000

     Writing output data file Prototype-La-hP12-MgZn2.save
     NEW-OLD atomic charge density approx. for the potential
     NEW k-points:
        k(    1) = (   0.0000000   0.0000000   0.0000000), wk =   0.0833333
        k(    2) = (   0.0000000   0.0000000   0.1456957), wk =   0.1666667
        k(    3) = (   0.0000000   0.0000000  -0.2913914), wk =   0.0833333
        k(    4) = (   0.0000000   0.3604728   0.0000000), wk =   0.1666667
        k(    5) = (   0.0000000   0.3604728   0.1456957), wk =   0.3333333
        k(    6) = (   0.0000000   0.3604728  -0.2913914), wk =   0.1666667
        k(    7) = (  -0.4682679  -0.2703546   0.0000000), wk =   0.0833333
        k(    8) = (  -0.4682679  -0.2703546   0.1456957), wk =   0.1666667
        k(    9) = (  -0.4682679  -0.2703546  -0.2913914), wk =   0.0833333
        k(   10) = (  -0.4682679   0.0901182   0.0000000), wk =   0.1666667
        k(   11) = (  -0.4682679   0.0901182   0.1456957), wk =   0.3333333
        k(   12) = (  -0.4682679   0.0901182  -0.2913914), wk =   0.1666667

[...]

     enthalpy old            =   -3236.4647240128 Ry
     enthalpy new            =   -3237.0207506976 Ry

     CASE: enthalpy_new < enthalpy_old

     small trust_radius: resetting bfgs history

     new trust radius        =       0.4671003295 bohr
     new conv_thr            =       0.0000321902 Ry

[...]

     number of scf cycles    =   3
     number of bfgs steps    =   2

     enthalpy old            =   -3237.0207506976 Ry
     enthalpy new            =   -3236.8222277252 Ry

     CASE: enthalpy_new > enthalpy_old

     new trust radius        =       0.1642331589 bohr

     trust_radius < trust_radius_min

     resetting bfgs history

     Message from routine bfgs:
     history already reset at previous step: stopping
     new conv_thr            =       0.0000321902 Ry

     new unit-cell volume =   1410.91546 a.u.^3 (   209.07610 Ang^3 )

[...]

ATOMIC_POSITIONS (crystal)
Mg       0.333333000   0.666667000   0.061361865
Mg       0.666667000   0.333333000   0.561361865
Mg       0.666667000   0.333333000   0.938638135
Mg       0.333333000   0.666667000   0.438638135
Zn       0.000000000   0.000000000   0.000000000
Zn       0.000000000   0.000000000   0.500000000
Zn       0.172346888   0.344693776   0.750000000
Zn       0.827653112   0.172346888   0.250000000
Zn       0.344693776   0.172346888   0.250000000
Zn       0.655306224   0.827653112   0.750000000
Zn       0.172346888   0.827653112   0.750000000
Zn       0.827653112   0.655306224   0.250000000

     Writing output data file Prototype-La-hP12-MgZn2.save
     NEW-OLD atomic charge density approx. for the potential
     NEW k-points:
        k(    1) = (   0.0000000   0.0000000   0.0000000), wk =   0.0833333
        k(    2) = (   0.0000000   0.0000000   0.1548921), wk =   0.1666667
        k(    3) = (   0.0000000   0.0000000  -0.3097843), wk =   0.0833333
        k(    4) = (   0.0000000   0.3787170   0.0000000), wk =   0.1666667
        k(    5) = (   0.0000000   0.3787170   0.1548921), wk =   0.3333333
        k(    6) = (   0.0000000   0.3787170  -0.3097843), wk =   0.1666667
        k(    7) = (  -0.4919678  -0.2840378   0.0000000), wk =   0.0833333
        k(    8) = (  -0.4919678  -0.2840378   0.1548921), wk =   0.1666667
        k(    9) = (  -0.4919678  -0.2840378  -0.3097843), wk =   0.0833333
        k(   10) = (  -0.4919678   0.0946793   0.0000000), wk =   0.1666667
        k(   11) = (  -0.4919678   0.0946793   0.1548921), wk =   0.3333333
        k(   12) = (  -0.4919678   0.0946793  -0.3097843), wk =   0.1666667

[...]

     The maximum number of steps has been reached.

     End of BFGS Geometry Optimization
Begin final coordinates
     new unit-cell volume =   1410.91546 a.u.^3 (   209.07610 Ang^3 )

CELL_PARAMETERS (alat=  9.92348860)
   1.016326585   0.000000000   0.000000000
  -0.508163292   0.880164641   0.000000000
   0.000000000   0.000000000   1.614026504

ATOMIC_POSITIONS (crystal)
Mg       0.333333000   0.666667000   0.061361865
Mg       0.666667000   0.333333000   0.561361865
Mg       0.666667000   0.333333000   0.938638135
Mg       0.333333000   0.666667000   0.438638135
Zn       0.000000000   0.000000000   0.000000000
Zn       0.000000000   0.000000000   0.500000000
Zn       0.172346888   0.344693776   0.750000000
Zn       0.827653112   0.172346888   0.250000000
Zn       0.344693776   0.172346888   0.250000000
Zn       0.655306224   0.827653112   0.750000000
Zn       0.172346888   0.827653112   0.750000000
Zn       0.827653112   0.655306224   0.250000000
End final coordinates

     A final scf calculation at the relaxed structure.
     The G-vectors are recalculated for the final unit cell
     Results may differ from those at the preceding step.

     bravais-lattice index     =            0
     lattice parameter (alat)  =       9.9235  a.u.
     unit-cell volume          =    1410.9155 (a.u.)^3
     number of atoms/cell      =           12
     number of atomic types    =            2
     number of electrons       =       240.00
     number of Kohn-Sham states=          144
     kinetic-energy cutoff     =      40.0000  Ry
     charge density cutoff     =     160.0000  Ry
     convergence threshold     =      3.2E-05
     mixing beta               =       0.7000
     number of iterations used =            8  plain     mixing
     Exchange-correlation      = SLA-PZ-NOGX-NOGC ( 1 1 0 0 0)
     EXX-fraction              =        0.00

     celldm(1)=   9.923489  celldm(2)=   0.000000  celldm(3)=   0.000000
     celldm(4)=   0.000000  celldm(5)=   0.000000  celldm(6)=   0.000000

     crystal axes: (cart. coord. in units of alat)
               a(1) = (   1.016327   0.000000   0.000000 )
               a(2) = (  -0.508163   0.880165   0.000000 )
               a(3) = (   0.000000   0.000000   1.614027 )

     reciprocal axes: (cart. coord. in units 2 pi/alat)
               b(1) = (  0.983936  0.568076  0.000000 )
               b(2) = (  0.000000  1.136151  0.000000 )
               b(3) = (  0.000000  0.000000  0.619569 )

     PseudoPot. # 1 for Sm read from file:
     /home/cwx6513/pp.La/Sm.UPF
     MD5 check sum: 5079e8b144a06bfcdbc14fb02b96ab09
     Pseudo is Norm-conserving, Zval = 16.0
     Generated in analytical, separable form
     Using radial grid of 1259 points,  6 beta functions with:
                l(1) =   0
                l(2) =   0
                l(3) =   1
                l(4) =   1
                l(5) =   2
                l(6) =   3

     PseudoPot. # 2 for Er read from file:
     /home/cwx6513/pp.La/Er.UPF
     MD5 check sum: e152ae21b84514339d8526f066caf99b
     Pseudo is Norm-conserving, Zval = 22.0
     Generated in analytical, separable form
     Using radial grid of 1267 points,  6 beta functions with:
                l(1) =   0
                l(2) =   0
                l(3) =   1
                l(4) =   1
                l(5) =   2
                l(6) =   3

     atomic species   valence    mass     pseudopotential
        Mg            16.00    24.30500     Sm( 1.00)
        Zn            22.00    65.39000     Er( 1.00)

     24 Sym. Ops., with inversion, found (12 have fractional translation)

   Cartesian axes

     site n.     atom                  positions (alat units)
         1           Mg  tau(   1) = (  -0.0000005   0.5867767   0.0990397  )
         2           Mg  tau(   2) = (   0.5081638   0.2933879   0.9060529  )
         3           Mg  tau(   3) = (   0.5081638   0.2933879   1.5149868  )
         4           Mg  tau(   4) = (  -0.0000005   0.5867767   0.7079736  )
         5           Zn  tau(   5) = (   0.0000000   0.0000000   0.0000000  )
         6           Zn  tau(   6) = (   0.0000000   0.0000000   0.8070133  )
         7           Zn  tau(   7) = (   0.0000000   0.3033873   1.2105199  )
         8           Zn  tau(   8) = (   0.7535855   0.1516936   0.4035066  )
         9           Zn  tau(   9) = (   0.2627411   0.1516936   0.4035066  )
        10           Zn  tau(  10) = (   0.2454222   0.7284710   1.2105199  )
        11           Zn  tau(  11) = (  -0.2454222   0.7284710   1.2105199  )
        12           Zn  tau(  12) = (   0.5081633   0.5767774   0.4035066  )

     number of k points=    12  gaussian smearing, width (Ry)=  0.1000
                       cart. coord. in units 2pi/alat
        k(    1) = (   0.0000000   0.0000000   0.0000000), wk =   0.0833333
        k(    2) = (   0.0000000   0.0000000   0.1548921), wk =   0.1666667
        k(    3) = (   0.0000000   0.0000000  -0.3097843), wk =   0.0833333
        k(    4) = (   0.0000000   0.3787170   0.0000000), wk =   0.1666667
        k(    5) = (   0.0000000   0.3787170   0.1548921), wk =   0.3333333
        k(    6) = (   0.0000000   0.3787170  -0.3097843), wk =   0.1666667
        k(    7) = (  -0.4919678  -0.2840378   0.0000000), wk =   0.0833333
        k(    8) = (  -0.4919678  -0.2840378   0.1548921), wk =   0.1666667
        k(    9) = (  -0.4919678  -0.2840378  -0.3097843), wk =   0.0833333
        k(   10) = (  -0.4919678   0.0946793   0.0000000), wk =   0.1666667
        k(   11) = (  -0.4919678   0.0946793   0.1548921), wk =   0.3333333
        k(   12) = (  -0.4919678   0.0946793  -0.3097843), wk =   0.1666667

     Largest allocated arrays     est. size (Mb)     dimensions
     Largest temporary arrays     est. size (Mb)     dimensions

     Initial potential from superposition of free atoms

     Starting from uniform charge
     Starting wfc are    0 randomized atomic wfcs

     Writing output data file Prototype-La-hP12-MgZn2.save

     Self-consistent Calculation

[...]

     iteration #  9     ecut=    40.00 Ry     beta=0.70
     CG style diagonalization
     c_bands:  1 eigenvalues not converged
     c_bands:  1 eigenvalues not converged
     c_bands:  1 eigenvalues not converged
     c_bands:  1 eigenvalues not converged
     c_bands:  2 eigenvalues not converged
     ethr =  2.11E-06,  avg # of iterations =  4.5

[...]

     total energy              =   -3237.09745291 Ry
     Harris-Foulkes estimate   =   -3237.09751443 Ry
     estimated scf accuracy    <       0.00012053 Ry

     iteration # 11     ecut=    40.00 Ry     beta=0.70
     CG style diagonalization
     ethr =  5.02E-08,  avg # of iterations =  3.8

     End of self-consistent calculation

[...]

          k = 0.0000 0.3787-0.3098 (  6018 PWs)   bands (ev):

[...]

          k =-0.4920 0.0947-0.3098 (  6032 PWs)   bands (ev):

   -70.7929 -70.7929 -70.7879 -70.7879 -70.7617 -70.7617 -70.7475 -70.7475
   -33.3938 -33.3938 -33.2300 -33.2300 -32.9870 -32.9870 -32.9323 -32.9323
   -32.8385 -32.8385 -32.8142 -32.8142 -32.7204 -32.7204 -32.6541 -32.6541
   -32.6054 -32.6054 -32.5799 -32.5798 -32.5605 -32.5605 -32.5528 -32.5528
   -25.0176 -25.0174 -24.9892 -24.9890  -0.5562  -0.5561  -0.5070  -0.5070
    -0.4160  -0.4159  -0.2790  -0.2788  -0.1944  -0.1943  -0.1525  -0.1525
    10.9578  10.9578  11.6429  11.6430  11.8885  11.8885  12.1047  12.1047
    12.2103  12.2103  12.8822  12.8822  13.0174  13.0175  13.2823  13.2823
    13.5526  13.5526  13.6255  13.6255  13.8866  13.8866  14.0472  14.0472
    14.2453  14.2454  14.5370  14.5370  14.6417  14.6417  14.8668  14.8668
    14.9102  14.9102  14.9798  14.9798  15.2077  15.2077  15.7937  15.7937
    18.1443  18.1444  20.1529  20.1530  23.1313  23.1313  23.7472  23.7472
    26.0622  26.0622  26.7895  26.7895  27.2842  27.2843  27.6660  27.6660
    27.8282  27.8282  28.6113  28.6114  29.5822  29.5823  30.0376  30.0376
    30.4247  30.4248  30.5034  30.5035  31.5493  31.5493  32.1028  32.1028
    32.6491  32.6491  33.6255  33.6256  34.4517  34.4517  35.2699  35.2699
    35.7651  35.7651  36.2850  36.2850  36.5192  36.5192  37.1129  37.1129
    37.3729  37.3729  37.9022  37.9023  38.2451  38.2451  38.8064  38.8065

     the Fermi energy is    32.3944 ev

!    total energy              =   -3237.09748746 Ry
     Harris-Foulkes estimate   =   -3237.09748912 Ry
     estimated scf accuracy    <       0.00000209 Ry

     The total energy is the sum of the following terms:

     one-electron contribution =    -674.95963996 Ry
     hartree contribution      =     526.23870588 Ry
     xc contribution           =    -292.74324655 Ry
     ewald contribution        =   -2795.20022197 Ry
     smearing contrib. (-TS)   =      -0.43308487 Ry

     convergence has been achieved in  11 iterations

     Forces acting on atoms (Ry/au):

     atom    1 type  1   force =     0.00000000    0.00000000    0.01162391
     atom    2 type  1   force =     0.00000000    0.00000000    0.01162391
     atom    3 type  1   force =     0.00000000    0.00000000   -0.01162391
     atom    4 type  1   force =     0.00000000    0.00000000   -0.01162391
     atom    5 type  2   force =     0.00000000    0.00000000    0.00000000
     atom    6 type  2   force =     0.00000000    0.00000000    0.00000000
     atom    7 type  2   force =     0.00000000    0.07078960    0.00000000
     atom    8 type  2   force =    -0.06130560    0.03539480    0.00000000
     atom    9 type  2   force =     0.06130560    0.03539480    0.00000000
     atom   10 type  2   force =    -0.06130560   -0.03539480    0.00000000
     atom   11 type  2   force =     0.06130560   -0.03539480    0.00000000
     atom   12 type  2   force =     0.00000000   -0.07078960    0.00000000

     Total force =     0.174950     Total SCF correction =     0.000000

     entering subroutine stress ...

          total   stress  (Ry/bohr**3)                   (kbar)     P=  760.28
   0.00520372   0.00000000   0.00000000        765.49      0.00      0.00
   0.00000000   0.00520372   0.00000000          0.00    765.49      0.00
   0.00000000   0.00000000   0.00509730          0.00      0.00    749.84

     Writing output data file Prototype-La-hP12-MgZn2.save

     General routines

     Parallel routines

   This run was terminated on:  19: 6:57  22Mar2018

   JOB DONE.