     Program PWSCF v.5.0.2 starts on 22Mar2018 at 18:42: 2

     Current dimensions of program PWSCF are:
     Max number of different atomic species (ntypx) = 10
     Max number of k-points (npk) =  40000
     Max angular momentum in pseudopotentials (lmaxx) =  3
     Waiting for input...
     Reading input from standard input

     Subspace diagonalization in iterative solution of the eigenvalue problem:
     a serial algorithm will be used

     bravais-lattice index     =            0
     lattice parameter (alat)  =       7.0151  a.u.
     unit-cell volume          =     862.2778 (a.u.)^3
     number of atoms/cell      =           12
     number of atomic types    =            2
     number of electrons       =       216.00
     number of Kohn-Sham states=          130
     kinetic-energy cutoff     =      40.0000  Ry
     charge density cutoff     =     160.0000  Ry
     convergence threshold     =      1.0E-04
     mixing beta               =       0.7000
     number of iterations used =            8  plain     mixing
     Exchange-correlation      = SLA-PZ-NOGX-NOGC ( 1 1 0 0 0)
     EXX-fraction              =        0.00
     nstep                     =           50

     celldm(1)=   7.015105  celldm(2)=   0.000000  celldm(3)=   0.000000
     celldm(4)=   0.000000  celldm(5)=   0.000000  celldm(6)=   0.000000

     crystal axes: (cart. coord. in units of alat)
               a(1) = (   1.000000   0.000000   0.000000 )
               a(2) = (   0.000000   1.315963   0.000000 )
               a(3) = (   0.000000   0.000000   1.898020 )

     reciprocal axes: (cart. coord. in units 2 pi/alat)
               b(1) = (  1.000000  0.000000  0.000000 )
               b(2) = (  0.000000  0.759900  0.000000 )
               b(3) = (  0.000000  0.000000  0.526865 )

     PseudoPot. # 1 for Sm read from file:
     /home/cwx6513/pp.La/Sm.UPF
     MD5 check sum: 5079e8b144a06bfcdbc14fb02b96ab09
     Pseudo is Norm-conserving, Zval = 16.0
     Generated in analytical, separable form
     Using radial grid of 1259 points,  6 beta functions with:
                l(1) =   0
                l(2) =   0
                l(3) =   1
                l(4) =   1
                l(5) =   2
                l(6) =   3

     PseudoPot. # 2 for Er read from file:
     /home/cwx6513/pp.La/Er.UPF
     MD5 check sum: e152ae21b84514339d8526f066caf99b
     Pseudo is Norm-conserving, Zval = 22.0
     Generated in analytical, separable form
     Using radial grid of 1267 points,  6 beta functions with:
                l(1) =   0
                l(2) =   0
                l(3) =   1
                l(4) =   1
                l(5) =   2
                l(6) =   3

     atomic species   valence    mass     pseudopotential
        Co            16.00    58.93320     Sm( 1.00)
        Si            22.00    28.08550     Er( 1.00)

      8 Sym. Ops., with inversion, found ( 6 have fractional translation)

   Cartesian axes

     site n.     atom                  positions (alat units)
         1           Co  tau(   1) = (   0.7500000   1.0875135   0.8270358  )
         2           Co  tau(   2) = (   0.2500000   0.2284499   1.0709846  )
         3           Co  tau(   3) = (   0.7500000   0.4295318   0.1219744  )
         4           Co  tau(   4) = (   0.2500000   0.8864316   1.7760460  )
         5           Co  tau(   5) = (   0.2500000   0.7067855   0.5358966  )
         6           Co  tau(   6) = (   0.7500000   0.6091779   1.3621238  )
         7           Co  tau(   7) = (   0.2500000   0.0488038   0.4131136  )
         8           Co  tau(   8) = (   0.7500000   1.2671596   1.4849068  )
         9           Si  tau(   9) = (   0.2500000   0.2669484   1.6960710  )
        10           Si  tau(  10) = (   0.7500000   1.0490149   0.2019494  )
        11           Si  tau(  11) = (   0.2500000   0.9249301   1.1509596  )
        12           Si  tau(  12) = (   0.7500000   0.3910333   0.7470608  )

     number of k points=    12  gaussian smearing, width (Ry)=  0.1000
                       cart. coord. in units 2pi/alat
        k(    1) = (   0.0000000   0.0000000   0.0000000), wk =   0.0833333
        k(    2) = (   0.0000000   0.0000000   0.1317162), wk =   0.1666667
        k(    3) = (   0.0000000   0.0000000  -0.2634324), wk =   0.0833333
        k(    4) = (   0.0000000   0.2532999   0.0000000), wk =   0.1666667
        k(    5) = (   0.0000000   0.2532999   0.1317162), wk =   0.3333333
        k(    6) = (   0.0000000   0.2532999  -0.2634324), wk =   0.1666667
        k(    7) = (  -0.5000000   0.0000000   0.0000000), wk =   0.0833333
        k(    8) = (  -0.5000000   0.0000000   0.1317162), wk =   0.1666667
        k(    9) = (  -0.5000000   0.0000000  -0.2634324), wk =   0.0833333
        k(   10) = (  -0.5000000   0.2532999   0.0000000), wk =   0.1666667
        k(   11) = (  -0.5000000   0.2532999   0.1317162), wk =   0.3333333
        k(   12) = (  -0.5000000   0.2532999  -0.2634324), wk =   0.1666667

     Largest allocated arrays     est. size (Mb)     dimensions
     Largest temporary arrays     est. size (Mb)     dimensions

     Initial potential from superposition of free atoms

     Starting from uniform charge
     Starting wfc are    0 randomized atomic wfcs

     Self-consistent Calculation

     iteration #  1     ecut=    40.00 Ry     beta=0.70
     CG style diagonalization
     ethr =  1.00E-02,  avg # of iterations = 17.2

     total energy              =   -1746.36733411 Ry
     Harris-Foulkes estimate   =   -2964.12612817 Ry
     estimated scf accuracy    <    1474.04250631 Ry

     iteration #  2     ecut=    40.00 Ry     beta=0.70
     CG style diagonalization
     c_bands:  4 eigenvalues not converged
     c_bands:  5 eigenvalues not converged
     c_bands:  3 eigenvalues not converged
     c_bands:  3 eigenvalues not converged
     c_bands:  5 eigenvalues not converged
     c_bands:  4 eigenvalues not converged
     c_bands:  1 eigenvalues not converged
     c_bands:  1 eigenvalues not converged
     c_bands:  3 eigenvalues not converged
     ethr =  1.00E-02,  avg # of iterations = 13.4

[...]

     End of self-consistent calculation

          k = 0.0000 0.0000 0.0000 (  3675 PWs)   bands (ev):

   -52.9040 -52.8951 -52.8910 -52.8751 -15.5073 -15.4817 -15.4520 -15.4370
   -15.4058 -15.4015 -15.3957 -15.3658 -15.2498 -15.1957 -15.1267 -15.0921
   -10.0715  -9.2413  -9.0947  -8.9563  -8.7524  -8.4091  -8.4032  -8.3985
    11.8634  12.4841  12.8172  13.0381  13.1931  13.2014  13.7796  13.8157
    14.3057  14.3176  14.6078  14.6480  14.8803  15.1651  15.4853  15.5370
    15.6421  15.7823  15.9345  16.4000  16.5828  16.9429  17.4165  17.6844
    28.6551  28.8990  29.2646  29.3511  29.5063  29.5095  29.5354  29.7137
    29.9661  30.0245  30.4057  30.5382  30.6895  30.9130  31.3209  31.4146
    31.4415  31.5484  31.7570  31.8211  35.6510  35.9939  38.3980  38.7167
    38.7370  39.0806  40.4346  40.6825  40.9015  41.1338  41.1685  41.2486
    41.5506  41.5714  42.1189  42.2983  42.6661  42.8445  43.0423  43.4680
    44.6787  44.7286  45.2718  45.7462  45.7631  45.8368  46.7405  47.3457
    47.6312  47.8374  47.8814  48.1971  48.6215  48.6263  49.3713  50.1305
    50.3322  50.3999  50.4661  50.5226  51.1345  51.4271  52.5757  52.8225
    53.3359  54.3695  54.3959  55.5832  55.6004  55.9389  56.0313  56.3668
    56.5023  57.0309  57.0983  57.2203  58.1725  58.2626  58.3926  58.3947
    58.4657  58.5699

[...]

          k =-0.5000 0.0000 0.0000 (  3722 PWs)   bands (ev):

[...]

     the Fermi energy is    50.7914 ev

!    total energy              =   -2516.62878788 Ry
     Harris-Foulkes estimate   =   -2516.62883751 Ry
     estimated scf accuracy    <       0.00005343 Ry

     The total energy is the sum of the following terms:

     one-electron contribution =     265.16039565 Ry
     hartree contribution      =     203.60356253 Ry
     xc contribution           =    -259.86556426 Ry
     ewald contribution        =   -2725.18169761 Ry
     smearing contrib. (-TS)   =      -0.34548419 Ry

     convergence has been achieved in  10 iterations

     Forces acting on atoms (Ry/au):

     atom    1 type  1   force =     0.00000000   -0.01349859   -0.05673795
     atom    2 type  1   force =     0.00000000    0.01349859    0.05673795
     atom    3 type  1   force =     0.00000000   -0.01349859    0.05673795
     atom    4 type  1   force =     0.00000000    0.01349859   -0.05673795
     atom    5 type  1   force =     0.00000000    0.14177678   -0.27732266
     atom    6 type  1   force =     0.00000000   -0.14177678    0.27732266
     atom    7 type  1   force =     0.00000000    0.14177678    0.27732266
     atom    8 type  1   force =     0.00000000   -0.14177678   -0.27732266
     atom    9 type  2   force =     0.00000000   -0.18409961    0.03040005
     atom   10 type  2   force =     0.00000000    0.18409961   -0.03040005
     atom   11 type  2   force =     0.00000000   -0.18409961   -0.03040005
     atom   12 type  2   force =     0.00000000    0.18409961    0.03040005

     Total force =     0.735464     Total SCF correction =     0.000000

     entering subroutine stress ...

          total   stress  (Ry/bohr**3)                   (kbar)     P= 7083.25
   0.05160857   0.00000000   0.00000000       7591.88      0.00      0.00
   0.00000000   0.04489993   0.00000000          0.00   6605.01      0.00
   0.00000000   0.00000000   0.04794434          0.00      0.00   7052.85

     BFGS Geometry Optimization

     number of scf cycles    =   1
     number of bfgs steps    =   0

     enthalpy new            =   -2516.6287878825 Ry

     new trust radius        =       0.5000000000 bohr
     new conv_thr            =       0.0001000000 Ry

     new unit-cell volume =   1084.48239 a.u.^3 (   160.70371 Ang^3 )

CELL_PARAMETERS (alat=  7.01510508)
   1.085136619   0.000000000   0.000000000
   0.000000000   1.413436313   0.000000000
   0.000000000   0.000000000   2.048138395

ATOMIC_POSITIONS (crystal)
Co       0.750000000   0.826304514   0.435454814
Co       0.250000000   0.173695486   0.564545186
Co       0.750000000   0.326304514   0.064545186
Co       0.250000000   0.673695486   0.935454814
Co       0.250000000   0.538099402   0.280970626
Co       0.750000000   0.461900598   0.719029374
Co       0.250000000   0.038099402   0.219029374
Co       0.750000000   0.961900598   0.780970626
Si       0.250000000   0.201538080   0.893750659
Si       0.750000000   0.798461920   0.106249341
Si       0.250000000   0.701538080   0.606249341
Si       0.750000000   0.298461920   0.393750659

     Writing output data file Prototype-La-oP12-Co2Si.save
     NEW-OLD atomic charge density approx. for the potential
     NEW k-points:
        k(    1) = (   0.0000000   0.0000000   0.0000000), wk =   0.0833333
        k(    2) = (   0.0000000   0.0000000   0.1220621), wk =   0.1666667
        k(    3) = (   0.0000000   0.0000000  -0.2441241), wk =   0.0833333
        k(    4) = (   0.0000000   0.2358319   0.0000000), wk =   0.1666667
        k(    5) = (   0.0000000   0.2358319   0.1220621), wk =   0.3333333
        k(    6) = (   0.0000000   0.2358319  -0.2441241), wk =   0.1666667
        k(    7) = (  -0.4607715   0.0000000   0.0000000), wk =   0.0833333
        k(    8) = (  -0.4607715   0.0000000   0.1220621), wk =   0.1666667
        k(    9) = (  -0.4607715   0.0000000  -0.2441241), wk =   0.0833333
        k(   10) = (  -0.4607715   0.2358319   0.0000000), wk =   0.1666667
        k(   11) = (  -0.4607715   0.2358319   0.1220621), wk =   0.3333333
        k(   12) = (  -0.4607715   0.2358319  -0.2441241), wk =   0.1666667

[...]

     enthalpy old            =   -2516.6287878825 Ry
     enthalpy new            =   -2523.2480416424 Ry

     CASE: enthalpy_new < enthalpy_old

     small trust_radius: resetting bfgs history

     new trust radius        =       2.7506946439 bohr
     new conv_thr            =       0.0001000000 Ry

[...]

          total   stress  (Ry/bohr**3)                   (kbar)     P=-2250.81
  -0.01651064   0.00000000   0.00000000      -2428.80      0.00      0.00
   0.00000000  -0.01425768   0.00000000          0.00  -2097.38      0.00
   0.00000000   0.00000000  -0.01513374          0.00      0.00  -2226.25

     number of scf cycles    =   3
     number of bfgs steps    =   2

     enthalpy old            =   -2523.2480416424 Ry
     enthalpy new            =   -2506.7120196771 Ry

     CASE: enthalpy_new > enthalpy_old

     new trust radius        =       0.8569539292 bohr

     trust_radius < trust_radius_min

     resetting bfgs history

     Message from routine bfgs:
     history already reset at previous step: stopping
     new conv_thr            =       0.0001000000 Ry

     new unit-cell volume =   1285.29461 a.u.^3 (   190.46101 Ang^3 )

[...]

ATOMIC_POSITIONS (crystal)
Co       0.750000000   0.826152555   0.435341266
Co       0.250000000   0.173847445   0.564658734
Co       0.750000000   0.326152555   0.064658734
Co       0.250000000   0.673847445   0.935341266
Co       0.250000000   0.538977670   0.279669957
Co       0.750000000   0.461022330   0.720330043
Co       0.250000000   0.038977670   0.220330043
Co       0.750000000   0.961022330   0.779669957
Si       0.250000000   0.200264835   0.893936517
Si       0.750000000   0.799735165   0.106063483
Si       0.250000000   0.700264835   0.606063483
Si       0.750000000   0.299735165   0.393936517

     Writing output data file Prototype-La-oP12-Co2Si.save
     NEW-OLD atomic charge density approx. for the potential
     NEW k-points:
        k(    1) = (   0.0000000   0.0000000   0.0000000), wk =   0.0833333
        k(    2) = (   0.0000000   0.0000000   0.1154289), wk =   0.1666667
        k(    3) = (   0.0000000   0.0000000  -0.2308578), wk =   0.0833333
        k(    4) = (   0.0000000   0.2243171   0.0000000), wk =   0.1666667
        k(    5) = (   0.0000000   0.2243171   0.1154289), wk =   0.3333333
        k(    6) = (   0.0000000   0.2243171  -0.2308578), wk =   0.1666667
        k(    7) = (  -0.4322268   0.0000000   0.0000000), wk =   0.0833333
        k(    8) = (  -0.4322268   0.0000000   0.1154289), wk =   0.1666667
        k(    9) = (  -0.4322268   0.0000000  -0.2308578), wk =   0.0833333
        k(   10) = (  -0.4322268   0.2243171   0.0000000), wk =   0.1666667
        k(   11) = (  -0.4322268   0.2243171   0.1154289), wk =   0.3333333
        k(   12) = (  -0.4322268   0.2243171  -0.2308578), wk =   0.1666667

[...]

     The maximum number of steps has been reached.

     End of BFGS Geometry Optimization
Begin final coordinates
     new unit-cell volume =   1285.29461 a.u.^3 (   190.46101 Ang^3 )

CELL_PARAMETERS (alat=  7.01510508)
   1.156800085   0.000000000   0.000000000
   0.000000000   1.485991526   0.000000000
   0.000000000   0.000000000   2.165835658

ATOMIC_POSITIONS (crystal)
Co       0.750000000   0.826152555   0.435341266
Co       0.250000000   0.173847445   0.564658734
Co       0.750000000   0.326152555   0.064658734
Co       0.250000000   0.673847445   0.935341266
Co       0.250000000   0.538977670   0.279669957
Co       0.750000000   0.461022330   0.720330043
Co       0.250000000   0.038977670   0.220330043
Co       0.750000000   0.961022330   0.779669957
Si       0.250000000   0.200264835   0.893936517
Si       0.750000000   0.799735165   0.106063483
Si       0.250000000   0.700264835   0.606063483
Si       0.750000000   0.299735165   0.393936517
End final coordinates

     A final scf calculation at the relaxed structure.
     The G-vectors are recalculated for the final unit cell
     Results may differ from those at the preceding step.

     bravais-lattice index     =            0
     lattice parameter (alat)  =       7.0151  a.u.
     unit-cell volume          =    1285.2946 (a.u.)^3
     number of atoms/cell      =           12
     number of atomic types    =            2
     number of electrons       =       216.00
     number of Kohn-Sham states=          130
     kinetic-energy cutoff     =      40.0000  Ry
     charge density cutoff     =     160.0000  Ry
     convergence threshold     =      1.0E-04
     mixing beta               =       0.7000
     number of iterations used =            8  plain     mixing
     Exchange-correlation      = SLA-PZ-NOGX-NOGC ( 1 1 0 0 0)
     EXX-fraction              =        0.00

     celldm(1)=   7.015105  celldm(2)=   0.000000  celldm(3)=   0.000000
     celldm(4)=   0.000000  celldm(5)=   0.000000  celldm(6)=   0.000000

     crystal axes: (cart. coord. in units of alat)
               a(1) = (   1.156800   0.000000   0.000000 )
               a(2) = (   0.000000   1.485992   0.000000 )
               a(3) = (   0.000000   0.000000   2.165836 )

     reciprocal axes: (cart. coord. in units 2 pi/alat)
               b(1) = (  0.864454  0.000000  0.000000 )
               b(2) = (  0.000000  0.672951  0.000000 )
               b(3) = (  0.000000  0.000000  0.461716 )

     PseudoPot. # 1 for Sm read from file:
     /home/cwx6513/pp.La/Sm.UPF
     MD5 check sum: 5079e8b144a06bfcdbc14fb02b96ab09
     Pseudo is Norm-conserving, Zval = 16.0
     Generated in analytical, separable form
     Using radial grid of 1259 points,  6 beta functions with:
                l(1) =   0
                l(2) =   0
                l(3) =   1
                l(4) =   1
                l(5) =   2
                l(6) =   3

     PseudoPot. # 2 for Er read from file:
     /home/cwx6513/pp.La/Er.UPF
     MD5 check sum: e152ae21b84514339d8526f066caf99b
     Pseudo is Norm-conserving, Zval = 22.0
     Generated in analytical, separable form
     Using radial grid of 1267 points,  6 beta functions with:
                l(1) =   0
                l(2) =   0
                l(3) =   1
                l(4) =   1
                l(5) =   2
                l(6) =   3

     atomic species   valence    mass     pseudopotential
        Co            16.00    58.93320     Sm( 1.00)
        Si            22.00    28.08550     Er( 1.00)

      8 Sym. Ops., with inversion, found ( 6 have fractional translation)

   Cartesian axes

     site n.     atom                  positions (alat units)
         1           Co  tau(   1) = (   0.8676001   1.2276557   0.9428776  )
         2           Co  tau(   2) = (   0.2892000   0.2583358   1.2229580  )
         3           Co  tau(   3) = (   0.8676001   0.4846599   0.1400402  )
         4           Co  tau(   4) = (   0.2892000   1.0013316   2.0257955  )
         5           Co  tau(   5) = (   0.2892000   0.8009163   0.6057192  )
         6           Co  tau(   6) = (   0.8676001   0.6850753   1.5601165  )
         7           Co  tau(   7) = (   0.2892000   0.0579205   0.4771987  )
         8           Co  tau(   8) = (   0.8676001   1.4280710   1.6886370  )
         9           Si  tau(   9) = (   0.2892000   0.2975918   1.9361196  )
        10           Si  tau(  10) = (   0.8676001   1.1883997   0.2297161  )
        11           Si  tau(  11) = (   0.2892000   1.0405876   1.3126339  )
        12           Si  tau(  12) = (   0.8676001   0.4454039   0.8532018  )

     number of k points=    12  gaussian smearing, width (Ry)=  0.1000
                       cart. coord. in units 2pi/alat
        k(    1) = (   0.0000000   0.0000000   0.0000000), wk =   0.0833333
        k(    2) = (   0.0000000   0.0000000   0.1154289), wk =   0.1666667
        k(    3) = (   0.0000000   0.0000000  -0.2308578), wk =   0.0833333
        k(    4) = (   0.0000000   0.2243171   0.0000000), wk =   0.1666667
        k(    5) = (   0.0000000   0.2243171   0.1154289), wk =   0.3333333
        k(    6) = (   0.0000000   0.2243171  -0.2308578), wk =   0.1666667
        k(    7) = (  -0.4322268   0.0000000   0.0000000), wk =   0.0833333
        k(    8) = (  -0.4322268   0.0000000   0.1154289), wk =   0.1666667
        k(    9) = (  -0.4322268   0.0000000  -0.2308578), wk =   0.0833333
        k(   10) = (  -0.4322268   0.2243171   0.0000000), wk =   0.1666667
        k(   11) = (  -0.4322268   0.2243171   0.1154289), wk =   0.3333333
        k(   12) = (  -0.4322268   0.2243171  -0.2308578), wk =   0.1666667

     Largest allocated arrays     est. size (Mb)     dimensions
     Largest temporary arrays     est. size (Mb)     dimensions

     Initial potential from superposition of free atoms

     Starting from uniform charge
     Starting wfc are    0 randomized atomic wfcs

     Writing output data file Prototype-La-oP12-Co2Si.save

     Self-consistent Calculation

[...]

     iteration # 10     ecut=    40.00 Ry     beta=0.70
     CG style diagonalization
     c_bands:  2 eigenvalues not converged
     ethr =  7.17E-07,  avg # of iterations =  4.2

     total energy              =   -2528.10025115 Ry
     Harris-Foulkes estimate   =   -2528.10032994 Ry
     estimated scf accuracy    <       0.00015146 Ry

     iteration # 11     ecut=    40.00 Ry     beta=0.70
     CG style diagonalization
     ethr =  7.01E-08,  avg # of iterations =  3.7

     End of self-consistent calculation

[...]

          k = 0.0000 0.2243-0.2309 (  5484 PWs)   bands (ev):

[...]

          k =-0.4322 0.2243-0.2309 (  5512 PWs)   bands (ev):

   -68.6489 -68.6489 -68.6466 -68.6466 -30.7128 -30.7128 -30.7100 -30.7100
   -30.6890 -30.6890 -30.6859 -30.6859 -30.6527 -30.6527 -30.6523 -30.6523
   -25.0817 -25.0817 -25.0270 -25.0270 -24.9801 -24.9801 -24.9321 -24.9321
    -1.2769  -1.2769  -1.0415  -1.0415  -1.0063  -1.0063  -0.8827  -0.8827
    -0.8728  -0.8728  -0.4477  -0.4477  -0.2980  -0.2980  -0.1497  -0.1497
    -0.0425  -0.0425  -0.0362  -0.0362   0.1116   0.1116   0.1800   0.1800
    15.5950  15.5950  15.6026  15.6026  15.6346  15.6346  15.7399  15.7399
    15.8139  15.8139  15.8165  15.8165  15.8996  15.8996  15.9292  15.9292
    16.1360  16.1360  16.2047  16.2047  22.5953  22.5953  23.0001  23.0001
    25.4259  25.4259  25.8897  25.8897  26.3234  26.3234  26.8727  26.8727
    26.9507  26.9507  27.5302  27.5302  27.5480  27.5480  27.8272  27.8272
    28.0422  28.0422  28.5473  28.5473  28.9532  28.9532  29.7246  29.7246
    29.9289  29.9289  30.1671  30.1671  30.8797  30.8797  31.4592  31.4592
    31.5065  31.5065  31.7696  31.7696  32.2354  32.2354  32.8451  32.8451
    34.3650  34.3650  34.9857  34.9857  36.0632  36.0633  38.3187  38.3188
    39.2186  39.2188  39.2377  39.2379  39.8981  39.8982  40.1928  40.1931
    40.5675  40.5676

     the Fermi energy is    32.6526 ev

!    total energy              =   -2528.10028255 Ry
     Harris-Foulkes estimate   =   -2528.10028725 Ry
     estimated scf accuracy    <       0.00000596 Ry

     The total energy is the sum of the following terms:

     one-electron contribution =    -196.74503864 Ry
     hartree contribution      =     304.01884901 Ry
     xc contribution           =    -247.86359588 Ry
     ewald contribution        =   -2387.01186901 Ry
     smearing contrib. (-TS)   =      -0.49862803 Ry

     convergence has been achieved in  11 iterations

     Forces acting on atoms (Ry/au):

     atom    1 type  1   force =     0.00000000   -0.02616534    0.00401048
     atom    2 type  1   force =     0.00000000    0.02616534   -0.00401048
     atom    3 type  1   force =     0.00000000   -0.02616534   -0.00401048
     atom    4 type  1   force =     0.00000000    0.02616534    0.00401048
     atom    5 type  1   force =     0.00000000    0.03755127   -0.09311585
     atom    6 type  1   force =     0.00000000   -0.03755127    0.09311585
     atom    7 type  1   force =     0.00000000    0.03755127    0.09311585
     atom    8 type  1   force =     0.00000000   -0.03755127   -0.09311585
     atom    9 type  2   force =     0.00000000   -0.08252386    0.01493974
     atom   10 type  2   force =     0.00000000    0.08252386   -0.01493974
     atom   11 type  2   force =     0.00000000   -0.08252386   -0.01493974
     atom   12 type  2   force =     0.00000000    0.08252386    0.01493974

     Total force =     0.266944     Total SCF correction =     0.000000

     entering subroutine stress ...

          total   stress  (Ry/bohr**3)                   (kbar)     P=  997.69
   0.00730497   0.00000000   0.00000000       1074.60      0.00      0.00
   0.00000000   0.00632977   0.00000000          0.00    931.14      0.00
   0.00000000   0.00000000   0.00671164          0.00      0.00    987.32

     Writing output data file Prototype-La-oP12-Co2Si.save

     General routines

     Parallel routines

   This run was terminated on:  18:58:14  22Mar2018

   JOB DONE.