     Program PWSCF v.5.0.2 starts on 22Mar2018 at 17:34:57

     Current dimensions of program PWSCF are:
     Max number of different atomic species (ntypx) = 10
     Max number of k-points (npk) =  40000
     Max angular momentum in pseudopotentials (lmaxx) =  3
     Waiting for input...
     Reading input from standard input

     Subspace diagonalization in iterative solution of the eigenvalue problem:
     a serial algorithm will be used

     bravais-lattice index     =            0
     lattice parameter (alat)  =       7.0151  a.u.
     unit-cell volume          =     862.2778 (a.u.)^3
     number of atoms/cell      =           12
     number of atomic types    =            2
     number of electrons       =       176.00
     number of Kohn-Sham states=          106
     kinetic-energy cutoff     =      40.0000  Ry
     charge density cutoff     =     160.0000  Ry
     convergence threshold     =      1.0E-04
     mixing beta               =       0.7000
     number of iterations used =            8  plain     mixing
     Exchange-correlation      = SLA-PZ-NOGX-NOGC ( 1 1 0 0 0)
     EXX-fraction              =        0.00
     nstep                     =           50

     celldm(1)=   7.015105  celldm(2)=   0.000000  celldm(3)=   0.000000
     celldm(4)=   0.000000  celldm(5)=   0.000000  celldm(6)=   0.000000

     crystal axes: (cart. coord. in units of alat)
               a(1) = (   1.000000   0.000000   0.000000 )
               a(2) = (   0.000000   1.315963   0.000000 )
               a(3) = (   0.000000   0.000000   1.898020 )

     reciprocal axes: (cart. coord. in units 2 pi/alat)
               b(1) = (  1.000000  0.000000  0.000000 )
               b(2) = (  0.000000  0.759900  0.000000 )
               b(3) = (  0.000000  0.000000  0.526865 )

     PseudoPot. # 1 for Nd read from file:
     /home/cwx6513/pp.La/Nd.UPF
     MD5 check sum: c66c5b6abe7b5840ced9b1e244e3bed6
     Pseudo is Norm-conserving, Zval = 14.0
     Generated in analytical, separable form
     Using radial grid of 1257 points,  6 beta functions with:
                l(1) =   0
                l(2) =   0
                l(3) =   1
                l(4) =   1
                l(5) =   2
                l(6) =   3

     PseudoPot. # 2 for Sm read from file:
     /home/cwx6513/pp.La/Sm.UPF
     MD5 check sum: 5079e8b144a06bfcdbc14fb02b96ab09
     Pseudo is Norm-conserving, Zval = 16.0
     Generated in analytical, separable form
     Using radial grid of 1259 points,  6 beta functions with:
                l(1) =   0
                l(2) =   0
                l(3) =   1
                l(4) =   1
                l(5) =   2
                l(6) =   3

     atomic species   valence    mass     pseudopotential
        Co            14.00    58.93320     Nd( 1.00)
        Si            16.00    28.08550     Sm( 1.00)

      8 Sym. Ops., with inversion, found ( 6 have fractional translation)

   Cartesian axes

     site n.     atom                  positions (alat units)
         1           Co  tau(   1) = (   0.7500000   1.0875135   0.8270358  )
         2           Co  tau(   2) = (   0.2500000   0.2284499   1.0709846  )
         3           Co  tau(   3) = (   0.7500000   0.4295318   0.1219744  )
         4           Co  tau(   4) = (   0.2500000   0.8864316   1.7760460  )
         5           Co  tau(   5) = (   0.2500000   0.7067855   0.5358966  )
         6           Co  tau(   6) = (   0.7500000   0.6091779   1.3621238  )
         7           Co  tau(   7) = (   0.2500000   0.0488038   0.4131136  )
         8           Co  tau(   8) = (   0.7500000   1.2671596   1.4849068  )
         9           Si  tau(   9) = (   0.2500000   0.2669484   1.6960710  )
        10           Si  tau(  10) = (   0.7500000   1.0490149   0.2019494  )
        11           Si  tau(  11) = (   0.2500000   0.9249301   1.1509596  )
        12           Si  tau(  12) = (   0.7500000   0.3910333   0.7470608  )

     number of k points=    12  gaussian smearing, width (Ry)=  0.1000
                       cart. coord. in units 2pi/alat
        k(    1) = (   0.0000000   0.0000000   0.0000000), wk =   0.0833333
        k(    2) = (   0.0000000   0.0000000   0.1317162), wk =   0.1666667
        k(    3) = (   0.0000000   0.0000000  -0.2634324), wk =   0.0833333
        k(    4) = (   0.0000000   0.2532999   0.0000000), wk =   0.1666667
        k(    5) = (   0.0000000   0.2532999   0.1317162), wk =   0.3333333
        k(    6) = (   0.0000000   0.2532999  -0.2634324), wk =   0.1666667
        k(    7) = (  -0.5000000   0.0000000   0.0000000), wk =   0.0833333
        k(    8) = (  -0.5000000   0.0000000   0.1317162), wk =   0.1666667
        k(    9) = (  -0.5000000   0.0000000  -0.2634324), wk =   0.0833333
        k(   10) = (  -0.5000000   0.2532999   0.0000000), wk =   0.1666667
        k(   11) = (  -0.5000000   0.2532999   0.1317162), wk =   0.3333333
        k(   12) = (  -0.5000000   0.2532999  -0.2634324), wk =   0.1666667

     Largest allocated arrays     est. size (Mb)     dimensions
     Largest temporary arrays     est. size (Mb)     dimensions

     Initial potential from superposition of free atoms

     Starting from uniform charge
     Starting wfc are    0 randomized atomic wfcs

     Self-consistent Calculation

     iteration #  1     ecut=    40.00 Ry     beta=0.70
     CG style diagonalization
     ethr =  1.00E-02,  avg # of iterations = 11.3

     total energy              =   -1395.96171635 Ry
     Harris-Foulkes estimate   =   -1555.87002938 Ry
     estimated scf accuracy    <     213.01310279 Ry

     iteration #  2     ecut=    40.00 Ry     beta=0.70
     CG style diagonalization
     c_bands:  1 eigenvalues not converged
     ethr =  1.00E-02,  avg # of iterations =  8.3

[...]

     End of self-consistent calculation

          k = 0.0000 0.0000 0.0000 (  3675 PWs)   bands (ev):

   -13.8191 -13.4952 -13.3998 -13.3073  -3.7446  -3.6764  -3.5235  -2.6111
    -2.4283  -1.9963  -1.9494  -1.9415   8.2450   9.1903   9.2129   9.4130
     9.6246   9.7153   9.7161   9.8153  10.2661  10.5407  10.5779  11.2591
    15.0188  15.0786  15.3933  15.9532  17.0604  17.3763  17.4194  17.8873
    18.0518  18.2690  18.5918  18.7767  18.8025  19.1591  19.3751  19.5041
    19.8129  20.1388  20.2243  20.5237  22.1195  22.2038  22.2251  22.5772
    33.2336  33.5402  34.2222  34.9502  34.9528  35.1154  35.1951  35.4987
    36.2429  36.4522  37.2999  37.7460  38.0027  38.0509  39.1378  40.3511
    40.4586  40.6532  40.9325  41.4350  42.0150  42.1468  42.3348  42.5260
    42.6768  42.8158  43.2421  43.7974  43.9015  44.2080  44.6614  44.9571
    45.1137  45.1299  45.6568  45.7533  46.7259  46.8368  46.9590  47.3217
    47.6617  47.8060  47.9240  48.8893  49.0609  49.4905  49.9840  50.2373
    50.5862  50.9236  51.4712  52.2014  52.2955  52.8828  52.8924  53.0296
    53.1053  53.1828

[...]

          k =-0.5000 0.0000 0.0000 (  3722 PWs)   bands (ev):

[...]

     the Fermi energy is    47.1095 ev

!    total energy              =   -1478.51441973 Ry
     Harris-Foulkes estimate   =   -1478.51442893 Ry
     estimated scf accuracy    <       0.00001212 Ry

     The total energy is the sum of the following terms:

     one-electron contribution =     443.79302442 Ry
     hartree contribution      =      57.03875105 Ry
     xc contribution           =    -187.44986118 Ry
     ewald contribution        =   -1791.47492356 Ry
     smearing contrib. (-TS)   =      -0.42141045 Ry

     convergence has been achieved in   9 iterations

     Forces acting on atoms (Ry/au):

     atom    1 type  1   force =     0.00000000   -0.05673768   -0.12884935
     atom    2 type  1   force =     0.00000000    0.05673768    0.12884935
     atom    3 type  1   force =     0.00000000   -0.05673768    0.12884935
     atom    4 type  1   force =     0.00000000    0.05673768   -0.12884935
     atom    5 type  1   force =     0.00000000    0.14283475   -0.22065729
     atom    6 type  1   force =     0.00000000   -0.14283475    0.22065729
     atom    7 type  1   force =     0.00000000    0.14283475    0.22065729
     atom    8 type  1   force =     0.00000000   -0.14283475   -0.22065729
     atom    9 type  2   force =     0.00000000   -0.13876275   -0.06195030
     atom   10 type  2   force =     0.00000000    0.13876275    0.06195030
     atom   11 type  2   force =     0.00000000   -0.13876275    0.06195030
     atom   12 type  2   force =     0.00000000    0.13876275   -0.06195030

     Total force =     0.669345     Total SCF correction =     0.000000

     entering subroutine stress ...

          total   stress  (Ry/bohr**3)                   (kbar)     P= 6438.93
   0.04501138   0.00000000   0.00000000       6621.40      0.00      0.00
   0.00000000   0.04195763   0.00000000          0.00   6172.18      0.00
   0.00000000   0.00000000   0.04434381          0.00      0.00   6523.20

     BFGS Geometry Optimization

     number of scf cycles    =   1
     number of bfgs steps    =   0

     enthalpy new            =   -1478.5144197348 Ry

     new trust radius        =       0.5000000000 bohr
     new conv_thr            =       0.0001000000 Ry

     new unit-cell volume =   1094.65429 a.u.^3 (   162.21103 Ang^3 )

CELL_PARAMETERS (alat=  7.01510508)
   1.085136619   0.000000000   0.000000000
   0.000000000   1.420399035   0.000000000
   0.000000000   0.000000000   2.057214863

ATOMIC_POSITIONS (crystal)
Co       0.750000000   0.825936006   0.435003848
Co       0.250000000   0.174063994   0.564996152
Co       0.750000000   0.325936006   0.064996152
Co       0.250000000   0.674063994   0.935003848
Co       0.250000000   0.538256604   0.281091174
Co       0.750000000   0.461743396   0.718908826
Co       0.250000000   0.038256604   0.218908826
Co       0.750000000   0.961743396   0.781091174
Si       0.250000000   0.201716768   0.893247984
Si       0.750000000   0.798283232   0.106752016
Si       0.250000000   0.701716768   0.606752016
Si       0.750000000   0.298283232   0.393247984

     Writing output data file Prototype-La-oP12-Co2Si.save
     NEW-OLD atomic charge density approx. for the potential
     NEW k-points:
        k(    1) = (   0.0000000   0.0000000   0.0000000), wk =   0.0833333
        k(    2) = (   0.0000000   0.0000000   0.1215235), wk =   0.1666667
        k(    3) = (   0.0000000   0.0000000  -0.2430470), wk =   0.0833333
        k(    4) = (   0.0000000   0.2346758   0.0000000), wk =   0.1666667
        k(    5) = (   0.0000000   0.2346758   0.1215235), wk =   0.3333333
        k(    6) = (   0.0000000   0.2346758  -0.2430470), wk =   0.1666667
        k(    7) = (  -0.4607715   0.0000000   0.0000000), wk =   0.0833333
        k(    8) = (  -0.4607715   0.0000000   0.1215235), wk =   0.1666667
        k(    9) = (  -0.4607715   0.0000000  -0.2430470), wk =   0.0833333
        k(   10) = (  -0.4607715   0.2346758   0.0000000), wk =   0.1666667
        k(   11) = (  -0.4607715   0.2346758   0.1215235), wk =   0.3333333
        k(   12) = (  -0.4607715   0.2346758  -0.2430470), wk =   0.1666667

[...]

     enthalpy old            =   -1478.5144197348 Ry
     enthalpy new            =   -1484.9845556499 Ry

     CASE: enthalpy_new < enthalpy_old

     small trust_radius: resetting bfgs history

     new trust radius        =       2.6557864917 bohr
     new conv_thr            =       0.0001000000 Ry

[...]

          total   stress  (Ry/bohr**3)                   (kbar)     P=-1200.48
  -0.00828997   0.00000000   0.00000000      -1219.50      0.00      0.00
   0.00000000  -0.00799943   0.00000000          0.00  -1176.76      0.00
   0.00000000   0.00000000  -0.00819271          0.00      0.00  -1205.19

     number of scf cycles    =   3
     number of bfgs steps    =   2

     enthalpy old            =   -1484.9845556499 Ry
     enthalpy new            =   -1475.8047540591 Ry

     CASE: enthalpy_new > enthalpy_old

     new trust radius        =       1.0625259878 bohr

     trust_radius < trust_radius_min

     resetting bfgs history

     Message from routine bfgs:
     history already reset at previous step: stopping
     new conv_thr            =       0.0001000000 Ry

     new unit-cell volume =   1309.59703 a.u.^3 (   194.06225 Ang^3 )

[...]

ATOMIC_POSITIONS (crystal)
Co       0.750000000   0.825479646   0.434568321
Co       0.250000000   0.174520354   0.565431679
Co       0.750000000   0.325479646   0.065431679
Co       0.250000000   0.674520354   0.934568321
Co       0.250000000   0.539042934   0.280132393
Co       0.750000000   0.460957066   0.719867607
Co       0.250000000   0.039042934   0.219867607
Co       0.750000000   0.960957066   0.780132393
Si       0.250000000   0.200871263   0.893205542
Si       0.750000000   0.799128737   0.106794458
Si       0.250000000   0.700871263   0.606794458
Si       0.750000000   0.299128737   0.393205542

     Writing output data file Prototype-La-oP12-Co2Si.save
     NEW-OLD atomic charge density approx. for the potential
     NEW k-points:
        k(    1) = (   0.0000000   0.0000000   0.0000000), wk =   0.0833333
        k(    2) = (   0.0000000   0.0000000   0.1143149), wk =   0.1666667
        k(    3) = (   0.0000000   0.0000000  -0.2286299), wk =   0.0833333
        k(    4) = (   0.0000000   0.2220223   0.0000000), wk =   0.1666667
        k(    5) = (   0.0000000   0.2220223   0.1143149), wk =   0.3333333
        k(    6) = (   0.0000000   0.2220223  -0.2286299), wk =   0.1666667
        k(    7) = (  -0.4327668   0.0000000   0.0000000), wk =   0.0833333
        k(    8) = (  -0.4327668   0.0000000   0.1143149), wk =   0.1666667
        k(    9) = (  -0.4327668   0.0000000  -0.2286299), wk =   0.0833333
        k(   10) = (  -0.4327668   0.2220223   0.0000000), wk =   0.1666667
        k(   11) = (  -0.4327668   0.2220223   0.1143149), wk =   0.3333333
        k(   12) = (  -0.4327668   0.2220223  -0.2286299), wk =   0.1666667

[...]

     The maximum number of steps has been reached.

     End of BFGS Geometry Optimization
Begin final coordinates
     new unit-cell volume =   1309.59703 a.u.^3 (   194.06225 Ang^3 )

CELL_PARAMETERS (alat=  7.01510508)
   1.155356575   0.000000000   0.000000000
   0.000000000   1.501350543   0.000000000
   0.000000000   0.000000000   2.186940624

ATOMIC_POSITIONS (crystal)
Co       0.750000000   0.825479646   0.434568321
Co       0.250000000   0.174520354   0.565431679
Co       0.750000000   0.325479646   0.065431679
Co       0.250000000   0.674520354   0.934568321
Co       0.250000000   0.539042934   0.280132393
Co       0.750000000   0.460957066   0.719867607
Co       0.250000000   0.039042934   0.219867607
Co       0.750000000   0.960957066   0.780132393
Si       0.250000000   0.200871263   0.893205542
Si       0.750000000   0.799128737   0.106794458
Si       0.250000000   0.700871263   0.606794458
Si       0.750000000   0.299128737   0.393205542
End final coordinates

     A final scf calculation at the relaxed structure.
     The G-vectors are recalculated for the final unit cell
     Results may differ from those at the preceding step.

     bravais-lattice index     =            0
     lattice parameter (alat)  =       7.0151  a.u.
     unit-cell volume          =    1309.5970 (a.u.)^3
     number of atoms/cell      =           12
     number of atomic types    =            2
     number of electrons       =       176.00
     number of Kohn-Sham states=          106
     kinetic-energy cutoff     =      40.0000  Ry
     charge density cutoff     =     160.0000  Ry
     convergence threshold     =      1.0E-04
     mixing beta               =       0.7000
     number of iterations used =            8  plain     mixing
     Exchange-correlation      = SLA-PZ-NOGX-NOGC ( 1 1 0 0 0)
     EXX-fraction              =        0.00

     celldm(1)=   7.015105  celldm(2)=   0.000000  celldm(3)=   0.000000
     celldm(4)=   0.000000  celldm(5)=   0.000000  celldm(6)=   0.000000

     crystal axes: (cart. coord. in units of alat)
               a(1) = (   1.155357   0.000000   0.000000 )
               a(2) = (   0.000000   1.501351   0.000000 )
               a(3) = (   0.000000   0.000000   2.186941 )

     reciprocal axes: (cart. coord. in units 2 pi/alat)
               b(1) = (  0.865534  0.000000  0.000000 )
               b(2) = (  0.000000  0.666067  0.000000 )
               b(3) = (  0.000000  0.000000  0.457260 )

     PseudoPot. # 1 for Nd read from file:
     /home/cwx6513/pp.La/Nd.UPF
     MD5 check sum: c66c5b6abe7b5840ced9b1e244e3bed6
     Pseudo is Norm-conserving, Zval = 14.0
     Generated in analytical, separable form
     Using radial grid of 1257 points,  6 beta functions with:
                l(1) =   0
                l(2) =   0
                l(3) =   1
                l(4) =   1
                l(5) =   2
                l(6) =   3

     PseudoPot. # 2 for Sm read from file:
     /home/cwx6513/pp.La/Sm.UPF
     MD5 check sum: 5079e8b144a06bfcdbc14fb02b96ab09
     Pseudo is Norm-conserving, Zval = 16.0
     Generated in analytical, separable form
     Using radial grid of 1259 points,  6 beta functions with:
                l(1) =   0
                l(2) =   0
                l(3) =   1
                l(4) =   1
                l(5) =   2
                l(6) =   3

     atomic species   valence    mass     pseudopotential
        Co            14.00    58.93320     Nd( 1.00)
        Si            16.00    28.08550     Sm( 1.00)

      8 Sym. Ops., with inversion, found ( 6 have fractional translation)

   Cartesian axes

     site n.     atom                  positions (alat units)
         1           Co  tau(   1) = (   0.8665174   1.2393343   0.9503751  )
         2           Co  tau(   2) = (   0.2888391   0.2620162   1.2365655  )
         3           Co  tau(   3) = (   0.8665174   0.4886590   0.1430952  )
         4           Co  tau(   4) = (   0.2888391   1.0126915   2.0438454  )
         5           Co  tau(   5) = (   0.2888391   0.8092924   0.6126329  )
         6           Co  tau(   6) = (   0.8665174   0.6920581   1.5743077  )
         7           Co  tau(   7) = (   0.2888391   0.0586171   0.4808374  )
         8           Co  tau(   8) = (   0.8665174   1.4427334   1.7061032  )
         9           Si  tau(   9) = (   0.2888391   0.3015782   1.9533875  )
        10           Si  tau(  10) = (   0.8665174   1.1997724   0.2335531  )
        11           Si  tau(  11) = (   0.2888391   1.0522535   1.3270235  )
        12           Si  tau(  12) = (   0.8665174   0.4490971   0.8599172  )

     number of k points=    12  gaussian smearing, width (Ry)=  0.1000
                       cart. coord. in units 2pi/alat
        k(    1) = (   0.0000000   0.0000000   0.0000000), wk =   0.0833333
        k(    2) = (   0.0000000   0.0000000   0.1143149), wk =   0.1666667
        k(    3) = (   0.0000000   0.0000000  -0.2286299), wk =   0.0833333
        k(    4) = (   0.0000000   0.2220223   0.0000000), wk =   0.1666667
        k(    5) = (   0.0000000   0.2220223   0.1143149), wk =   0.3333333
        k(    6) = (   0.0000000   0.2220223  -0.2286299), wk =   0.1666667
        k(    7) = (  -0.4327668   0.0000000   0.0000000), wk =   0.0833333
        k(    8) = (  -0.4327668   0.0000000   0.1143149), wk =   0.1666667
        k(    9) = (  -0.4327668   0.0000000  -0.2286299), wk =   0.0833333
        k(   10) = (  -0.4327668   0.2220223   0.0000000), wk =   0.1666667
        k(   11) = (  -0.4327668   0.2220223   0.1143149), wk =   0.3333333
        k(   12) = (  -0.4327668   0.2220223  -0.2286299), wk =   0.1666667

     Largest allocated arrays     est. size (Mb)     dimensions
     Largest temporary arrays     est. size (Mb)     dimensions

     Initial potential from superposition of free atoms

     Starting from uniform charge
     Starting wfc are    0 randomized atomic wfcs

     Writing output data file Prototype-La-oP12-Co2Si.save

     Self-consistent Calculation

[...]

     iteration # 10     ecut=    40.00 Ry     beta=0.70
     CG style diagonalization
     c_bands:  1 eigenvalues not converged
     ethr =  1.56E-06,  avg # of iterations =  3.9

     total energy              =   -1488.44450807 Ry
     Harris-Foulkes estimate   =   -1488.44495987 Ry
     estimated scf accuracy    <       0.00111829 Ry

     iteration # 11     ecut=    40.00 Ry     beta=0.70
     CG style diagonalization
     ethr =  6.35E-07,  avg # of iterations =  3.4

     End of self-consistent calculation

[...]

          k = 0.0000 0.2220-0.2286 (  5572 PWs)   bands (ev):

[...]

          k =-0.4328 0.2220-0.2286 (  5580 PWs)   bands (ev):

   -27.9924 -27.9924 -27.9845 -27.9845 -18.1542 -18.1542 -18.0982 -18.0982
   -17.8938 -17.8938 -17.7445 -17.7445  -3.8067  -3.8067  -3.7477  -3.7477
    -3.6395  -3.6395  -3.5390  -3.5390  -3.3818  -3.3818  -3.2895  -3.2895
     2.3341   2.3342   2.6313   2.6313   2.8915   2.8915   2.9920   2.9920
     3.1362   3.1362   3.5187   3.5187   3.7783   3.7783   3.9925   3.9925
     4.1929   4.1929   4.2100   4.2100   4.3761   4.3761   4.4825   4.4825
    22.9931  22.9931  23.5006  23.5006  23.6381  23.6381  24.1893  24.1893
    24.2614  24.2614  24.6369  24.6369  24.8253  24.8253  25.0461  25.0461
    25.6222  25.6222  25.9245  25.9245  26.4334  26.4334  26.5248  26.5248
    26.8021  26.8021  27.2137  27.2137  27.2547  27.2547  27.6271  27.6271
    27.9491  27.9491  28.8816  28.8816  29.0759  29.0759  29.7620  29.7620
    29.9612  29.9612  30.3785  30.3785  30.4863  30.4863  31.1004  31.1004
    31.2511  31.2511  31.6051  31.6051  32.6122  32.6122  33.3086  33.3087
    34.2549  34.2556

     the Fermi energy is    30.0548 ev

!    total energy              =   -1488.44469611 Ry
     Harris-Foulkes estimate   =   -1488.44471574 Ry
     estimated scf accuracy    <       0.00001974 Ry

     The total energy is the sum of the following terms:

     one-electron contribution =     141.39721914 Ry
     hartree contribution      =     105.12052827 Ry
     xc contribution           =    -175.30097268 Ry
     ewald contribution        =   -1559.03868448 Ry
     smearing contrib. (-TS)   =      -0.62278635 Ry

     convergence has been achieved in  11 iterations

     Forces acting on atoms (Ry/au):

     atom    1 type  1   force =     0.00000000   -0.02533651   -0.03230747
     atom    2 type  1   force =     0.00000000    0.02533651    0.03230747
     atom    3 type  1   force =     0.00000000   -0.02533651    0.03230747
     atom    4 type  1   force =     0.00000000    0.02533651   -0.03230747
     atom    5 type  1   force =     0.00000000    0.03264854   -0.06453917
     atom    6 type  1   force =     0.00000000   -0.03264854    0.06453917
     atom    7 type  1   force =     0.00000000    0.03264854    0.06453917
     atom    8 type  1   force =     0.00000000   -0.03264854   -0.06453917
     atom    9 type  2   force =     0.00000000   -0.04187495    0.00060910
     atom   10 type  2   force =     0.00000000    0.04187495   -0.00060910
     atom   11 type  2   force =     0.00000000   -0.04187495   -0.00060910
     atom   12 type  2   force =     0.00000000    0.04187495    0.00060910

     Total force =     0.186235     Total SCF correction =     0.000000

     entering subroutine stress ...

          total   stress  (Ry/bohr**3)                   (kbar)     P= 1031.33
   0.00732329   0.00000000   0.00000000       1077.29      0.00      0.00
   0.00000000   0.00668928   0.00000000          0.00    984.03      0.00
   0.00000000   0.00000000   0.00702003          0.00      0.00   1032.68

     Writing output data file Prototype-La-oP12-Co2Si.save

     General routines

     Parallel routines

   This run was terminated on:  17:47:50  22Mar2018

   JOB DONE.