     Program PWSCF v.5.0.2 starts on 22Mar2018 at 17:34:55

     Current dimensions of program PWSCF are:
     Max number of different atomic species (ntypx) = 10
     Max number of k-points (npk) =  40000
     Max angular momentum in pseudopotentials (lmaxx) =  3
     Waiting for input...
     Reading input from standard input

     Subspace diagonalization in iterative solution of the eigenvalue problem:
     a serial algorithm will be used

     bravais-lattice index     =            0
     lattice parameter (alat)  =      12.0168  a.u.
     unit-cell volume          =    1187.3413 (a.u.)^3
     number of atoms/cell      =            8
     number of atomic types    =            2
     number of electrons       =       116.00
     number of Kohn-Sham states=           70
     kinetic-energy cutoff     =      40.0000  Ry
     charge density cutoff     =     160.0000  Ry
     convergence threshold     =      1.0E-04
     mixing beta               =       0.7000
     number of iterations used =            8  plain     mixing
     Exchange-correlation      = SLA-PZ-NOGX-NOGC ( 1 1 0 0 0)
     EXX-fraction              =        0.00
     nstep                     =           50

     celldm(1)=  12.016801  celldm(2)=   0.000000  celldm(3)=   0.000000
     celldm(4)=   0.000000  celldm(5)=   0.000000  celldm(6)=   0.000000

     crystal axes: (cart. coord. in units of alat)
               a(1) = (   1.000000   0.000000   0.000000 )
               a(2) = (  -0.500000   0.866025   0.000000 )
               a(3) = (   0.000000   0.000000   0.790093 )

     reciprocal axes: (cart. coord. in units 2 pi/alat)
               b(1) = (  1.000000  0.577350  0.000000 )
               b(2) = (  0.000000  1.154701  0.000000 )
               b(3) = (  0.000000  0.000000  1.265674 )

     PseudoPot. # 1 for Nd read from file:
     /home/cwx6513/pp.La/Nd.UPF
     MD5 check sum: c66c5b6abe7b5840ced9b1e244e3bed6
     Pseudo is Norm-conserving, Zval = 14.0
     Generated in analytical, separable form
     Using radial grid of 1257 points,  6 beta functions with:
                l(1) =   0
                l(2) =   0
                l(3) =   1
                l(4) =   1
                l(5) =   2
                l(6) =   3

     PseudoPot. # 2 for Sm read from file:
     /home/cwx6513/pp.La/Sm.UPF
     MD5 check sum: 5079e8b144a06bfcdbc14fb02b96ab09
     Pseudo is Norm-conserving, Zval = 16.0
     Generated in analytical, separable form
     Using radial grid of 1259 points,  6 beta functions with:
                l(1) =   0
                l(2) =   0
                l(3) =   1
                l(4) =   1
                l(5) =   2
                l(6) =   3

     atomic species   valence    mass     pseudopotential
        Mg            14.00    24.30500     Nd( 1.00)
        Cd            16.00   112.41100     Sm( 1.00)

     24 Sym. Ops., with inversion, found (12 have fractional translation)

   Cartesian axes

     site n.     atom                  positions (alat units)
         1           Mg  tau(   1) = (   0.2478935   0.7204716   0.1975233  )
         2           Mg  tau(   2) = (   0.7478935   0.1455538   0.5925699  )
         3           Mg  tau(   3) = (   0.2521065   0.1455538   0.5925699  )
         4           Mg  tau(   4) = (  -0.2478935   0.7204716   0.1975233  )
         5           Mg  tau(   5) = (   0.0000000   0.2911075   0.1975233  )
         6           Mg  tau(   6) = (   0.5000000   0.5749179   0.5925699  )
         7           Cd  tau(   7) = (   0.5000005   0.2886748   0.1975233  )
         8           Cd  tau(   8) = (  -0.0000005   0.5773506   0.5925699  )

     number of k points=    64  gaussian smearing, width (Ry)=  0.1000
                       cart. coord. in units 2pi/alat
        k(    1) = (   0.0000000   0.0000000   0.0000000), wk =   0.0095238
        k(    2) = (   0.0000000   0.0000000   0.1808105), wk =   0.0190476
        k(    3) = (   0.0000000   0.0000000   0.3616210), wk =   0.0190476
        k(    4) = (   0.0000000   0.0000000   0.5424315), wk =   0.0190476
        k(    5) = (   0.0000000   0.1924501   0.0000000), wk =   0.0190476
        k(    6) = (   0.0000000   0.1924501   0.1808105), wk =   0.0380952
        k(    7) = (   0.0000000   0.1924501   0.3616210), wk =   0.0380952
        k(    8) = (   0.0000000   0.1924501   0.5424315), wk =   0.0380952
        k(    9) = (   0.0000000   0.3849002   0.0000000), wk =   0.0190476
        k(   10) = (   0.0000000   0.3849002   0.1808105), wk =   0.0380952
        k(   11) = (   0.0000000   0.3849002   0.3616210), wk =   0.0380952
        k(   12) = (   0.0000000   0.3849002   0.5424315), wk =   0.0380952
        k(   13) = (   0.0000000  -0.5773503   0.0000000), wk =   0.0095238
        k(   14) = (   0.0000000  -0.5773503   0.1808105), wk =   0.0190476
        k(   15) = (   0.0000000  -0.5773503   0.3616210), wk =   0.0190476
        k(   16) = (   0.0000000  -0.5773503   0.5424315), wk =   0.0190476
        k(   17) = (   0.2000000   0.1154701   0.0000000), wk =   0.0190476
        k(   18) = (   0.2000000   0.1154701   0.1808105), wk =   0.0380952
        k(   19) = (   0.2000000   0.1154701   0.3616210), wk =   0.0380952
        k(   20) = (   0.2000000   0.1154701   0.5424315), wk =   0.0380952
        k(   21) = (   0.2000000   0.3079201   0.0000000), wk =   0.0190476
        k(   22) = (   0.2000000   0.3079201   0.1808105), wk =   0.0380952
        k(   23) = (   0.2000000   0.3079201   0.3616210), wk =   0.0380952
        k(   24) = (   0.2000000   0.3079201   0.5424315), wk =   0.0380952
        k(   25) = (   0.2000000   0.5003702   0.0000000), wk =   0.0190476
        k(   26) = (   0.2000000   0.5003702   0.1808105), wk =   0.0380952
        k(   27) = (   0.2000000   0.5003702   0.3616210), wk =   0.0380952
        k(   28) = (   0.2000000   0.5003702   0.5424315), wk =   0.0380952
        k(   29) = (   0.2000000  -0.4618802   0.0000000), wk =   0.0190476
        k(   30) = (   0.2000000  -0.4618802   0.1808105), wk =   0.0380952
        k(   31) = (   0.2000000  -0.4618802   0.3616210), wk =   0.0380952
        k(   32) = (   0.2000000  -0.4618802   0.5424315), wk =   0.0380952
        k(   33) = (   0.2000000  -0.2694301   0.0000000), wk =   0.0190476
        k(   34) = (   0.2000000  -0.2694301   0.1808105), wk =   0.0380952
        k(   35) = (   0.2000000  -0.2694301   0.3616210), wk =   0.0380952
        k(   36) = (   0.2000000  -0.2694301   0.5424315), wk =   0.0380952
        k(   37) = (   0.2000000  -0.0769800   0.0000000), wk =   0.0190476
        k(   38) = (   0.2000000  -0.0769800   0.1808105), wk =   0.0380952
        k(   39) = (   0.2000000  -0.0769800   0.3616210), wk =   0.0380952
        k(   40) = (   0.2000000  -0.0769800   0.5424315), wk =   0.0380952
        k(   41) = (   0.4000000   0.2309401   0.0000000), wk =   0.0190476
        k(   42) = (   0.4000000   0.2309401   0.1808105), wk =   0.0380952
        k(   43) = (   0.4000000   0.2309401   0.3616210), wk =   0.0380952
        k(   44) = (   0.4000000   0.2309401   0.5424315), wk =   0.0380952
        k(   45) = (   0.4000000   0.4233902   0.0000000), wk =   0.0190476
        k(   46) = (   0.4000000   0.4233902   0.1808105), wk =   0.0380952
        k(   47) = (   0.4000000   0.4233902   0.3616210), wk =   0.0380952
        k(   48) = (   0.4000000   0.4233902   0.5424315), wk =   0.0380952
        k(   49) = (   0.4000000   0.6158403   0.0000000), wk =   0.0190476
        k(   50) = (   0.4000000   0.6158403   0.1808105), wk =   0.0380952
        k(   51) = (   0.4000000   0.6158403   0.3616210), wk =   0.0380952
        k(   52) = (   0.4000000   0.6158403   0.5424315), wk =   0.0380952
        k(   53) = (   0.4000000  -0.3464102   0.0000000), wk =   0.0190476
        k(   54) = (   0.4000000  -0.3464102   0.1808105), wk =   0.0380952
        k(   55) = (   0.4000000  -0.3464102   0.3616210), wk =   0.0380952
        k(   56) = (   0.4000000  -0.3464102   0.5424315), wk =   0.0380952
        k(   57) = (   0.4000000  -0.1539601   0.0000000), wk =   0.0190476
        k(   58) = (   0.4000000  -0.1539601   0.1808105), wk =   0.0380952
        k(   59) = (   0.4000000  -0.1539601   0.3616210), wk =   0.0380952
        k(   60) = (   0.4000000  -0.1539601   0.5424315), wk =   0.0380952
        k(   61) = (   0.4000000   0.0384900   0.0000000), wk =   0.0190476
        k(   62) = (   0.4000000   0.0384900   0.1808105), wk =   0.0380952
        k(   63) = (   0.4000000   0.0384900   0.3616210), wk =   0.0380952
        k(   64) = (   0.4000000   0.0384900   0.5424315), wk =   0.0380952

     Largest allocated arrays     est. size (Mb)     dimensions
     Largest temporary arrays     est. size (Mb)     dimensions

     Initial potential from superposition of free atoms

     Starting from uniform charge
     Starting wfc are    0 randomized atomic wfcs

     Self-consistent Calculation

     iteration #  1     ecut=    40.00 Ry     beta=0.70
     CG style diagonalization
     ethr =  1.00E-02,  avg # of iterations = 14.9

     total energy              =    -593.02127958 Ry
     Harris-Foulkes estimate   =   -1118.04734493 Ry
     estimated scf accuracy    <     648.29283874 Ry

     iteration #  2     ecut=    40.00 Ry     beta=0.70
     CG style diagonalization
     c_bands:  5 eigenvalues not converged
     c_bands:  5 eigenvalues not converged
     c_bands:  5 eigenvalues not converged
     c_bands:  3 eigenvalues not converged
     c_bands:  2 eigenvalues not converged
     c_bands:  3 eigenvalues not converged
     c_bands:  1 eigenvalues not converged
     c_bands:  5 eigenvalues not converged
     c_bands:  3 eigenvalues not converged
     c_bands:  2 eigenvalues not converged
     c_bands:  3 eigenvalues not converged
     c_bands:  4 eigenvalues not converged
     c_bands:  3 eigenvalues not converged
     c_bands:  2 eigenvalues not converged
     c_bands:  4 eigenvalues not converged
     c_bands:  3 eigenvalues not converged
     c_bands:  4 eigenvalues not converged
     c_bands:  4 eigenvalues not converged
     c_bands:  2 eigenvalues not converged
     c_bands:  2 eigenvalues not converged
     c_bands:  5 eigenvalues not converged
     c_bands:  4 eigenvalues not converged
     c_bands:  4 eigenvalues not converged
     c_bands:  5 eigenvalues not converged
     c_bands:  2 eigenvalues not converged
     c_bands:  2 eigenvalues not converged
     c_bands:  3 eigenvalues not converged
     c_bands:  2 eigenvalues not converged
     c_bands:  3 eigenvalues not converged
     c_bands:  5 eigenvalues not converged
     c_bands:  4 eigenvalues not converged
     c_bands:  4 eigenvalues not converged
     c_bands:  4 eigenvalues not converged
     c_bands:  4 eigenvalues not converged
     c_bands:  3 eigenvalues not converged
     c_bands:  5 eigenvalues not converged
     c_bands:  4 eigenvalues not converged
     c_bands:  2 eigenvalues not converged
     c_bands:  2 eigenvalues not converged
     c_bands:  5 eigenvalues not converged
     c_bands:  2 eigenvalues not converged
     c_bands:  2 eigenvalues not converged
     c_bands:  2 eigenvalues not converged
[...]
        k(    9) = (   0.0000000   0.3918688   0.0000000), wk =   0.0190476
        k(   10) = (   0.0000000   0.3918688   0.1831677), wk =   0.0380952
        k(   11) = (   0.0000000   0.3918688   0.3663354), wk =   0.0380952
        k(   12) = (   0.0000000   0.3918688   0.5495031), wk =   0.0380952
        k(   13) = (   0.0000000  -0.5878032   0.0000000), wk =   0.0095238
        k(   14) = (   0.0000000  -0.5878032   0.1831677), wk =   0.0190476
        k(   15) = (   0.0000000  -0.5878032   0.3663354), wk =   0.0190476
        k(   16) = (   0.0000000  -0.5878032   0.5495031), wk =   0.0190476
        k(   17) = (   0.2036210   0.1175606   0.0000000), wk =   0.0190476
        k(   18) = (   0.2036210   0.1175606   0.1831677), wk =   0.0380952
        k(   19) = (   0.2036210   0.1175606   0.3663354), wk =   0.0380952
        k(   20) = (   0.2036210   0.1175606   0.5495031), wk =   0.0380952
        k(   21) = (   0.2036210   0.3134950   0.0000000), wk =   0.0190476
        k(   22) = (   0.2036210   0.3134950   0.1831677), wk =   0.0380952
        k(   23) = (   0.2036210   0.3134950   0.3663354), wk =   0.0380952
        k(   24) = (   0.2036210   0.3134950   0.5495031), wk =   0.0380952
        k(   25) = (   0.2036210   0.5094295   0.0000000), wk =   0.0190476
        k(   26) = (   0.2036210   0.5094295   0.1831677), wk =   0.0380952
        k(   27) = (   0.2036210   0.5094295   0.3663354), wk =   0.0380952
        k(   28) = (   0.2036210   0.5094295   0.5495031), wk =   0.0380952
        k(   29) = (   0.2036210  -0.4702426   0.0000000), wk =   0.0190476
        k(   30) = (   0.2036210  -0.4702426   0.1831677), wk =   0.0380952
        k(   31) = (   0.2036210  -0.4702426   0.3663354), wk =   0.0380952
        k(   32) = (   0.2036210  -0.4702426   0.5495031), wk =   0.0380952
        k(   33) = (   0.2036210  -0.2743082   0.0000000), wk =   0.0190476
        k(   34) = (   0.2036210  -0.2743082   0.1831677), wk =   0.0380952
        k(   35) = (   0.2036210  -0.2743082   0.3663354), wk =   0.0380952
        k(   36) = (   0.2036210  -0.2743082   0.5495031), wk =   0.0380952
        k(   37) = (   0.2036210  -0.0783738   0.0000000), wk =   0.0190476
        k(   38) = (   0.2036210  -0.0783738   0.1831677), wk =   0.0380952
        k(   39) = (   0.2036210  -0.0783738   0.3663354), wk =   0.0380952
        k(   40) = (   0.2036210  -0.0783738   0.5495031), wk =   0.0380952
        k(   41) = (   0.4072420   0.2351213   0.0000000), wk =   0.0190476
        k(   42) = (   0.4072420   0.2351213   0.1831677), wk =   0.0380952
        k(   43) = (   0.4072420   0.2351213   0.3663354), wk =   0.0380952
        k(   44) = (   0.4072420   0.2351213   0.5495031), wk =   0.0380952
        k(   45) = (   0.4072420   0.4310557   0.0000000), wk =   0.0190476
        k(   46) = (   0.4072420   0.4310557   0.1831677), wk =   0.0380952
        k(   47) = (   0.4072420   0.4310557   0.3663354), wk =   0.0380952
        k(   48) = (   0.4072420   0.4310557   0.5495031), wk =   0.0380952
        k(   49) = (   0.4072420   0.6269901   0.0000000), wk =   0.0190476
        k(   50) = (   0.4072420   0.6269901   0.1831677), wk =   0.0380952
        k(   51) = (   0.4072420   0.6269901   0.3663354), wk =   0.0380952
        k(   52) = (   0.4072420   0.6269901   0.5495031), wk =   0.0380952
        k(   53) = (   0.4072420  -0.3526819   0.0000000), wk =   0.0190476
        k(   54) = (   0.4072420  -0.3526819   0.1831677), wk =   0.0380952
        k(   55) = (   0.4072420  -0.3526819   0.3663354), wk =   0.0380952
        k(   56) = (   0.4072420  -0.3526819   0.5495031), wk =   0.0380952
        k(   57) = (   0.4072420  -0.1567475   0.0000000), wk =   0.0190476
        k(   58) = (   0.4072420  -0.1567475   0.1831677), wk =   0.0380952
        k(   59) = (   0.4072420  -0.1567475   0.3663354), wk =   0.0380952
        k(   60) = (   0.4072420  -0.1567475   0.5495031), wk =   0.0380952
        k(   61) = (   0.4072420   0.0391869   0.0000000), wk =   0.0190476
        k(   62) = (   0.4072420   0.0391869   0.1831677), wk =   0.0380952
        k(   63) = (   0.4072420   0.0391869   0.3663354), wk =   0.0380952
        k(   64) = (   0.4072420   0.0391869   0.5495031), wk =   0.0380952

[...]

     The maximum number of steps has been reached.

     End of BFGS Geometry Optimization
Begin final coordinates
     new unit-cell volume =   1130.74638 a.u.^3 (   167.55932 Ang^3 )

CELL_PARAMETERS (alat= 12.01680127)
   0.982216928   0.000000000   0.000000000
  -0.491108464   0.850624812   0.000000000
   0.000000000   0.000000000   0.779925476

ATOMIC_POSITIONS (crystal)
Mg       0.665446833   0.832723416   0.250000000
Mg       0.832723416   0.167276584   0.750000000
Mg       0.334553167   0.167276584   0.750000000
Mg       0.167276584   0.832723416   0.250000000
Mg       0.167276584   0.334553167   0.250000000
Mg       0.832723416   0.665446833   0.750000000
Cd       0.666667000   0.333333000   0.250000000
Cd       0.333333000   0.666667000   0.750000000
End final coordinates

     A final scf calculation at the relaxed structure.
     The G-vectors are recalculated for the final unit cell
     Results may differ from those at the preceding step.

     bravais-lattice index     =            0
     lattice parameter (alat)  =      12.0168  a.u.
     unit-cell volume          =    1130.7464 (a.u.)^3
     number of atoms/cell      =            8
     number of atomic types    =            2
     number of electrons       =       116.00
     number of Kohn-Sham states=           70
     kinetic-energy cutoff     =      40.0000  Ry
     charge density cutoff     =     160.0000  Ry
     convergence threshold     =      1.0E-06
     mixing beta               =       0.7000
     number of iterations used =            8  plain     mixing
     Exchange-correlation      = SLA-PZ-NOGX-NOGC ( 1 1 0 0 0)
     EXX-fraction              =        0.00

     celldm(1)=  12.016801  celldm(2)=   0.000000  celldm(3)=   0.000000
     celldm(4)=   0.000000  celldm(5)=   0.000000  celldm(6)=   0.000000

     crystal axes: (cart. coord. in units of alat)
               a(1) = (   0.982217   0.000000   0.000000 )
               a(2) = (  -0.491108   0.850625   0.000000 )
               a(3) = (   0.000000   0.000000   0.779925 )

     reciprocal axes: (cart. coord. in units 2 pi/alat)
               b(1) = (  1.018105  0.587803  0.000000 )
               b(2) = (  0.000000  1.175606  0.000000 )
               b(3) = (  0.000000  0.000000  1.282174 )

     PseudoPot. # 1 for Nd read from file:
     /home/cwx6513/pp.La/Nd.UPF
     MD5 check sum: c66c5b6abe7b5840ced9b1e244e3bed6
     Pseudo is Norm-conserving, Zval = 14.0
     Generated in analytical, separable form
     Using radial grid of 1257 points,  6 beta functions with:
                l(1) =   0
                l(2) =   0
                l(3) =   1
                l(4) =   1
                l(5) =   2
                l(6) =   3

     PseudoPot. # 2 for Sm read from file:
     /home/cwx6513/pp.La/Sm.UPF
     MD5 check sum: 5079e8b144a06bfcdbc14fb02b96ab09
     Pseudo is Norm-conserving, Zval = 16.0
     Generated in analytical, separable form
     Using radial grid of 1259 points,  6 beta functions with:
                l(1) =   0
                l(2) =   0
                l(3) =   1
                l(4) =   1
                l(5) =   2
                l(6) =   3

     atomic species   valence    mass     pseudopotential
        Mg            14.00    24.30500     Nd( 1.00)
        Cd            16.00   112.41100     Sm( 1.00)

     24 Sym. Ops., with inversion, found (12 have fractional translation)

   Cartesian axes

     site n.     atom                  positions (alat units)
         1           Mg  tau(   1) = (   0.2446556   0.7083352   0.1949814  )
         2           Mg  tau(   2) = (   0.7357641   0.1422896   0.5849441  )
         3           Mg  tau(   3) = (   0.2464528   0.1422896   0.5849441  )
         4           Mg  tau(   4) = (  -0.2446556   0.7083352   0.1949814  )
         5           Mg  tau(   5) = (   0.0000000   0.2845792   0.1949814  )
         6           Mg  tau(   6) = (   0.4911085   0.5660456   0.5849441  )
         7           Cd  tau(   7) = (   0.4911090   0.2835413   0.1949814  )
         8           Cd  tau(   8) = (  -0.0000005   0.5670835   0.5849441  )

     number of k points=    64  gaussian smearing, width (Ry)=  0.1000
                       cart. coord. in units 2pi/alat
        k(    1) = (   0.0000000   0.0000000   0.0000000), wk =   0.0095238
        k(    2) = (   0.0000000   0.0000000   0.1831677), wk =   0.0190476
        k(    3) = (   0.0000000   0.0000000   0.3663354), wk =   0.0190476
        k(    4) = (   0.0000000   0.0000000   0.5495031), wk =   0.0190476
        k(    5) = (   0.0000000   0.1959344   0.0000000), wk =   0.0190476
        k(    6) = (   0.0000000   0.1959344   0.1831677), wk =   0.0380952
        k(    7) = (   0.0000000   0.1959344   0.3663354), wk =   0.0380952
        k(    8) = (   0.0000000   0.1959344   0.5495031), wk =   0.0380952
        k(    9) = (   0.0000000   0.3918688   0.0000000), wk =   0.0190476
        k(   10) = (   0.0000000   0.3918688   0.1831677), wk =   0.0380952
        k(   11) = (   0.0000000   0.3918688   0.3663354), wk =   0.0380952
        k(   12) = (   0.0000000   0.3918688   0.5495031), wk =   0.0380952
        k(   13) = (   0.0000000  -0.5878032   0.0000000), wk =   0.0095238
        k(   14) = (   0.0000000  -0.5878032   0.1831677), wk =   0.0190476
        k(   15) = (   0.0000000  -0.5878032   0.3663354), wk =   0.0190476
        k(   16) = (   0.0000000  -0.5878032   0.5495031), wk =   0.0190476
        k(   17) = (   0.2036210   0.1175606   0.0000000), wk =   0.0190476
        k(   18) = (   0.2036210   0.1175606   0.1831677), wk =   0.0380952
        k(   19) = (   0.2036210   0.1175606   0.3663354), wk =   0.0380952
        k(   20) = (   0.2036210   0.1175606   0.5495031), wk =   0.0380952
        k(   21) = (   0.2036210   0.3134950   0.0000000), wk =   0.0190476
        k(   22) = (   0.2036210   0.3134950   0.1831677), wk =   0.0380952
        k(   23) = (   0.2036210   0.3134950   0.3663354), wk =   0.0380952
        k(   24) = (   0.2036210   0.3134950   0.5495031), wk =   0.0380952
        k(   25) = (   0.2036210   0.5094295   0.0000000), wk =   0.0190476
        k(   26) = (   0.2036210   0.5094295   0.1831677), wk =   0.0380952
        k(   27) = (   0.2036210   0.5094295   0.3663354), wk =   0.0380952
        k(   28) = (   0.2036210   0.5094295   0.5495031), wk =   0.0380952
        k(   29) = (   0.2036210  -0.4702426   0.0000000), wk =   0.0190476
        k(   30) = (   0.2036210  -0.4702426   0.1831677), wk =   0.0380952
        k(   31) = (   0.2036210  -0.4702426   0.3663354), wk =   0.0380952
        k(   32) = (   0.2036210  -0.4702426   0.5495031), wk =   0.0380952
        k(   33) = (   0.2036210  -0.2743082   0.0000000), wk =   0.0190476
        k(   34) = (   0.2036210  -0.2743082   0.1831677), wk =   0.0380952
        k(   35) = (   0.2036210  -0.2743082   0.3663354), wk =   0.0380952
        k(   36) = (   0.2036210  -0.2743082   0.5495031), wk =   0.0380952
        k(   37) = (   0.2036210  -0.0783738   0.0000000), wk =   0.0190476
        k(   38) = (   0.2036210  -0.0783738   0.1831677), wk =   0.0380952
        k(   39) = (   0.2036210  -0.0783738   0.3663354), wk =   0.0380952
        k(   40) = (   0.2036210  -0.0783738   0.5495031), wk =   0.0380952
        k(   41) = (   0.4072420   0.2351213   0.0000000), wk =   0.0190476
        k(   42) = (   0.4072420   0.2351213   0.1831677), wk =   0.0380952
        k(   43) = (   0.4072420   0.2351213   0.3663354), wk =   0.0380952
        k(   44) = (   0.4072420   0.2351213   0.5495031), wk =   0.0380952
        k(   45) = (   0.4072420   0.4310557   0.0000000), wk =   0.0190476
        k(   46) = (   0.4072420   0.4310557   0.1831677), wk =   0.0380952
        k(   47) = (   0.4072420   0.4310557   0.3663354), wk =   0.0380952
        k(   48) = (   0.4072420   0.4310557   0.5495031), wk =   0.0380952
        k(   49) = (   0.4072420   0.6269901   0.0000000), wk =   0.0190476
        k(   50) = (   0.4072420   0.6269901   0.1831677), wk =   0.0380952
        k(   51) = (   0.4072420   0.6269901   0.3663354), wk =   0.0380952
        k(   52) = (   0.4072420   0.6269901   0.5495031), wk =   0.0380952
        k(   53) = (   0.4072420  -0.3526819   0.0000000), wk =   0.0190476
        k(   54) = (   0.4072420  -0.3526819   0.1831677), wk =   0.0380952
        k(   55) = (   0.4072420  -0.3526819   0.3663354), wk =   0.0380952
        k(   56) = (   0.4072420  -0.3526819   0.5495031), wk =   0.0380952
        k(   57) = (   0.4072420  -0.1567475   0.0000000), wk =   0.0190476
        k(   58) = (   0.4072420  -0.1567475   0.1831677), wk =   0.0380952
        k(   59) = (   0.4072420  -0.1567475   0.3663354), wk =   0.0380952
        k(   60) = (   0.4072420  -0.1567475   0.5495031), wk =   0.0380952
        k(   61) = (   0.4072420   0.0391869   0.0000000), wk =   0.0190476
        k(   62) = (   0.4072420   0.0391869   0.1831677), wk =   0.0380952
        k(   63) = (   0.4072420   0.0391869   0.3663354), wk =   0.0380952
        k(   64) = (   0.4072420   0.0391869   0.5495031), wk =   0.0380952

     Largest allocated arrays     est. size (Mb)     dimensions
     Largest temporary arrays     est. size (Mb)     dimensions

     Initial potential from superposition of free atoms

     Starting from uniform charge
     Starting wfc are    0 randomized atomic wfcs

     Writing output data file Prototype-La-hP8-Mg3Cd.save

     Self-consistent Calculation

[...]

     iteration # 13     ecut=    40.00 Ry     beta=0.70
     CG style diagonalization
     c_bands:  1 eigenvalues not converged
     ethr =  1.97E-08,  avg # of iterations =  5.4

[...]

     total energy              =    -965.88750309 Ry
     Harris-Foulkes estimate   =    -965.88750316 Ry
     estimated scf accuracy    <       0.00000119 Ry

     iteration # 16     ecut=    40.00 Ry     beta=0.70
     CG style diagonalization
     ethr =  1.02E-09,  avg # of iterations =  4.1

     End of self-consistent calculation

[...]

          k = 0.4072 0.0392 0.5495 (  4833 PWs)   bands (ev):

   -35.0663 -35.0659 -25.6911 -25.6354 -25.5768 -25.5445 -25.5203 -25.4992
   -10.2786 -10.2761 -10.2549 -10.2500 -10.2423 -10.2383  -4.7199  -4.6831
    -4.6067  -4.5848  -4.4321  -4.3900  -4.0017  -3.9300  -3.7827  -3.7762
    -3.6357  -3.5470  -3.4793  -3.4454  -3.3917  -3.3206  -3.2731  -3.2534
    17.3055  17.3651  17.4915  17.7146  17.7656  17.9543  18.2929  18.4226
    18.5122  18.5556  18.7265  19.0132  19.1584  19.2024  19.2260  19.4759
    20.1834  20.2410  20.8842  20.9309  21.1191  21.2202  21.4146  21.5723
    21.6655  21.7926  22.2613  22.4214  22.5993  22.6625  22.8849  23.1269
    23.9692  24.5914  24.8273  24.9977  25.3395  25.4779

     the Fermi energy is    22.1113 ev

!    total energy              =    -965.88750332 Ry
     Harris-Foulkes estimate   =    -965.88750350 Ry
     estimated scf accuracy    <       0.00000022 Ry

     The total energy is the sum of the following terms:

     one-electron contribution =      -8.11360254 Ry
     hartree contribution      =      87.89000200 Ry
     xc contribution           =    -111.09846090 Ry
     ewald contribution        =    -933.98062794 Ry
     smearing contrib. (-TS)   =      -0.58481395 Ry

     convergence has been achieved in  16 iterations

     Forces acting on atoms (Ry/au):

     atom    1 type  1   force =     0.00200318    0.00115653    0.00000000
     atom    2 type  1   force =     0.00200318   -0.00115653    0.00000000
     atom    3 type  1   force =    -0.00200318   -0.00115653    0.00000000
     atom    4 type  1   force =    -0.00200318    0.00115653    0.00000000
     atom    5 type  1   force =     0.00000000   -0.00231307    0.00000000
     atom    6 type  1   force =     0.00000000    0.00231307    0.00000000
     atom    7 type  2   force =     0.00000000    0.00000000    0.00000000
     atom    8 type  2   force =     0.00000000    0.00000000    0.00000000

     Total force =     0.005666     Total SCF correction =     0.000000

     entering subroutine stress ...

          total   stress  (Ry/bohr**3)                   (kbar)     P=  -18.21
  -0.00014038   0.00000000   0.00000000        -20.65      0.00      0.00
   0.00000000  -0.00014038   0.00000000          0.00    -20.65      0.00
   0.00000000   0.00000000  -0.00009068          0.00      0.00    -13.34

     Writing output data file Prototype-La-hP8-Mg3Cd.save

     General routines

     Parallel routines

   This run was terminated on:  18:26:24  22Mar2018

   JOB DONE.