     Program PWSCF v.5.0.2 starts on 22Mar2018 at  0:39:29

     Current dimensions of program PWSCF are:
     Max number of different atomic species (ntypx) = 10
     Max number of k-points (npk) =  40000
     Max angular momentum in pseudopotentials (lmaxx) =  3
     Waiting for input...
     Reading input from standard input

     Subspace diagonalization in iterative solution of the eigenvalue problem:
     a serial algorithm will be used

     bravais-lattice index     =            0
     lattice parameter (alat)  =      12.8532  a.u.
     unit-cell volume          =    1390.2597 (a.u.)^3
     number of atoms/cell      =            6
     number of atomic types    =            2
     number of electrons       =        88.00
     number of Kohn-Sham states=           53
     kinetic-energy cutoff     =      40.0000  Ry
     charge density cutoff     =     160.0000  Ry
     convergence threshold     =      1.0E-04
     mixing beta               =       0.7000
     number of iterations used =            8  plain     mixing
     Exchange-correlation      = SLA-PZ-NOGX-NOGC ( 1 1 0 0 0)
     EXX-fraction              =        0.00
     nstep                     =           50

     celldm(1)=  12.853229  celldm(2)=   0.000000  celldm(3)=   0.000000
     celldm(4)=   0.000000  celldm(5)=   0.000000  celldm(6)=   0.000000

     crystal axes: (cart. coord. in units of alat)
               a(1) = (   1.000000   0.000000   0.000000 )
               a(2) = (  -0.036574   0.999331   0.000000 )
               a(3) = (  -0.266883  -0.706777   0.655164 )

     reciprocal axes: (cart. coord. in units 2 pi/alat)
               b(1) = (  1.000000  0.036598  0.446834 )
               b(2) = (  0.000000  1.000669  1.079502 )
               b(3) = (  0.000000  0.000000  1.526336 )

     PseudoPot. # 1 for Ce read from file:
     /home/jld5415/pp.La/Ce.UPF
     MD5 check sum: 44451aa79a44a00cf2bc029dc19922f6
     Pseudo is Norm-conserving, Zval = 12.0
     Generated in analytical, separable form
     Using radial grid of 1255 points,  6 beta functions with:
                l(1) =   0
                l(2) =   0
                l(3) =   1
                l(4) =   1
                l(5) =   2
                l(6) =   3

     PseudoPot. # 2 for Sm read from file:
     /home/jld5415/pp.La/Sm.UPF
     MD5 check sum: 5079e8b144a06bfcdbc14fb02b96ab09
     Pseudo is Norm-conserving, Zval = 16.0
     Generated in analytical, separable form
     Using radial grid of 1259 points,  6 beta functions with:
                l(1) =   0
                l(2) =   0
                l(3) =   1
                l(4) =   1
                l(5) =   2
                l(6) =   3

     atomic species   valence    mass     pseudopotential
        K             12.00    39.09830     Ce( 1.00)
        Hg            16.00   200.59000     Sm( 1.00)

      2 Sym. Ops., with inversion, found

   Cartesian axes

     site n.     atom                  positions (alat units)
         1           K   tau(   1) = (  -0.0340766   0.4201429   0.4913727  )
         2           K   tau(   2) = (   0.7306201  -0.1275892   0.1637909  )
         3           Hg  tau(   3) = (   0.2308977  -0.0548727   0.3630373  )
         4           Hg  tau(   4) = (   0.4656458   0.3474265   0.2921263  )
         5           Hg  tau(   5) = (   0.5181090  -0.3317640   0.6197082  )
         6           Hg  tau(   6) = (   0.1784345   0.6243178   0.0354555  )

     number of k points=   253  gaussian smearing, width (Ry)=  0.1000

     Number of k-points >= 100: set verbosity='high' to print them.

     Largest allocated arrays     est. size (Mb)     dimensions
     Largest temporary arrays     est. size (Mb)     dimensions

     Initial potential from superposition of free atoms

     Starting from uniform charge
     Starting wfc are    0 randomized atomic wfcs

     Self-consistent Calculation

     iteration #  1     ecut=    40.00 Ry     beta=0.70
     CG style diagonalization
     c_bands:  1 eigenvalues not converged
     c_bands:  1 eigenvalues not converged
     c_bands:  1 eigenvalues not converged
     c_bands:  1 eigenvalues not converged
     c_bands:  1 eigenvalues not converged
     c_bands:  1 eigenvalues not converged
     c_bands:  1 eigenvalues not converged
     c_bands:  1 eigenvalues not converged
     c_bands:  1 eigenvalues not converged
     c_bands:  1 eigenvalues not converged
     c_bands:  1 eigenvalues not converged
     c_bands:  1 eigenvalues not converged
     c_bands:  1 eigenvalues not converged
     c_bands:  1 eigenvalues not converged
     c_bands:  1 eigenvalues not converged
     c_bands:  1 eigenvalues not converged
     c_bands:  1 eigenvalues not converged
     c_bands:  1 eigenvalues not converged
     c_bands:  1 eigenvalues not converged
     c_bands:  1 eigenvalues not converged
     c_bands:  1 eigenvalues not converged
     c_bands:  1 eigenvalues not converged
     c_bands:  1 eigenvalues not converged
     c_bands:  1 eigenvalues not converged
     c_bands:  1 eigenvalues not converged
     c_bands:  1 eigenvalues not converged
     c_bands:  1 eigenvalues not converged
     c_bands:  1 eigenvalues not converged
     ethr =  1.00E-02,  avg # of iterations = 17.9

     total energy              =    -541.88516189 Ry
     Harris-Foulkes estimate   =   -1009.08341103 Ry
     estimated scf accuracy    <     581.59832924 Ry

     iteration #  2     ecut=    40.00 Ry     beta=0.70
     CG style diagonalization
     ethr =  1.00E-02,  avg # of iterations = 18.5

[...]

     End of self-consistent calculation

     Number of k-points >= 100: set verbosity='high' to print the bands.

     the Fermi energy is    11.9089 ev

!    total energy              =    -760.66180886 Ry
     Harris-Foulkes estimate   =    -760.66187752 Ry
     estimated scf accuracy    <       0.00007665 Ry

     The total energy is the sum of the following terms:

     one-electron contribution =    -218.42127091 Ry
     hartree contribution      =     139.82569482 Ry
     xc contribution           =     -83.18679357 Ry
     ewald contribution        =    -598.23009246 Ry
     smearing contrib. (-TS)   =      -0.64934674 Ry

     convergence has been achieved in  13 iterations

     Forces acting on atoms (Ry/au):

     atom    1 type  1   force =     0.01507925    0.00498653    0.00474903
     atom    2 type  1   force =    -0.01507925   -0.00498653   -0.00474903
     atom    3 type  2   force =     0.02879040   -0.00305488    0.01477774
     atom    4 type  2   force =    -0.02879040    0.00305488   -0.01477774
     atom    5 type  2   force =    -0.02668916    0.01342446   -0.01825655
     atom    6 type  2   force =     0.02668916   -0.01342446    0.01825655

     Total force =     0.071515     Total SCF correction =     0.000000

     entering subroutine stress ...

          total   stress  (Ry/bohr**3)                   (kbar)     P= -285.82
  -0.00194059  -0.00005759   0.00004091       -285.47     -8.47      6.02
  -0.00005759  -0.00195023  -0.00003719         -8.47   -286.89     -5.47
   0.00004091  -0.00003719  -0.00193811          6.02     -5.47   -285.11

     BFGS Geometry Optimization

     number of scf cycles    =   1
     number of bfgs steps    =   0

     enthalpy new            =    -760.6618088634 Ry

     new trust radius        =       0.3638077137 bohr
     new conv_thr            =       0.0001000000 Ry

     new unit-cell volume =   1197.34260 a.u.^3 (   177.42787 Ang^3 )

CELL_PARAMETERS (alat= 12.85322937)
   0.951485166  -0.001439794   0.001022845
  -0.036237979   0.950660498  -0.000966459
  -0.252247432  -0.672542618   0.623803271

ATOMIC_POSITIONS (crystal)
K        0.202214483   0.951649075   0.750563953
K        0.797785517   0.048350925   0.249436047
Hg       0.393851975   0.337993303   0.555871875
Hg       0.606148025   0.662006697   0.444128125
Hg       0.780201091   0.336501832   0.943715013
Hg       0.219798909   0.663498168   0.056284987

     Writing output data file Prototype-La-oI12-KHg2.save
     NEW-OLD atomic charge density approx. for the potential
     NEW k-points: (use verbosity='high' to print them)

[...]

     enthalpy old            =    -760.6618088634 Ry
     enthalpy new            =    -760.9991875321 Ry

     CASE: enthalpy_new < enthalpy_old

     small trust_radius: resetting bfgs history

[...]

     number of scf cycles    =   3
     number of bfgs steps    =   2

     enthalpy old            =    -760.9991875321 Ry
     enthalpy new            =    -761.1467427148 Ry

     CASE: enthalpy_new < enthalpy_old

     Message from routine bfgs:
     history already reset at previous step: stopping
     small trust_radius: resetting bfgs history

     new trust radius        =       0.1397743596 bohr
     new conv_thr            =       0.0000098378 Ry

     new unit-cell volume =   1006.43907 a.u.^3 (   149.13888 Ang^3 )

[...]

ATOMIC_POSITIONS (crystal)
K        0.201438584   0.951019022   0.750417094
K        0.798561416   0.048980978   0.249582906
Hg       0.394819903   0.339173304   0.555654108
Hg       0.605180097   0.660826696   0.444345892
Hg       0.781607959   0.337772078   0.943852267
Hg       0.218392041   0.662227922   0.056147733

     Writing output data file Prototype-La-oI12-KHg2.save
     NEW-OLD atomic charge density approx. for the potential
     NEW k-points: (use verbosity='high' to print them)

[...]

     The maximum number of steps has been reached.

     End of BFGS Geometry Optimization
Begin final coordinates
     new unit-cell volume =   1006.43907 a.u.^3 (   149.13888 Ang^3 )

CELL_PARAMETERS (alat= 12.85322937)
   0.896960233  -0.002735923  -0.000220815
  -0.035538181   0.896373387   0.000161406
  -0.237595263  -0.633059244   0.589528304

ATOMIC_POSITIONS (crystal)
K        0.201438584   0.951019022   0.750417094
K        0.798561416   0.048980978   0.249582906
Hg       0.394819903   0.339173304   0.555654108
Hg       0.605180097   0.660826696   0.444345892
Hg       0.781607959   0.337772078   0.943852267
Hg       0.218392041   0.662227922   0.056147733
End final coordinates

     A final scf calculation at the relaxed structure.
     The G-vectors are recalculated for the final unit cell
     Results may differ from those at the preceding step.

     bravais-lattice index     =            0
     lattice parameter (alat)  =      12.8532  a.u.
     unit-cell volume          =    1006.4391 (a.u.)^3
     number of atoms/cell      =            6
     number of atomic types    =            2
     number of electrons       =        88.00
     number of Kohn-Sham states=           53
     kinetic-energy cutoff     =      40.0000  Ry
     charge density cutoff     =     160.0000  Ry
     convergence threshold     =      9.8E-06
     mixing beta               =       0.7000
     number of iterations used =            8  plain     mixing
     Exchange-correlation      = SLA-PZ-NOGX-NOGC ( 1 1 0 0 0)
     EXX-fraction              =        0.00

     celldm(1)=  12.853229  celldm(2)=   0.000000  celldm(3)=   0.000000
     celldm(4)=   0.000000  celldm(5)=   0.000000  celldm(6)=   0.000000

     crystal axes: (cart. coord. in units of alat)
               a(1) = (   0.896960  -0.002736  -0.000221 )
               a(2) = (  -0.035538   0.896373   0.000161 )
               a(3) = (  -0.237595  -0.633059   0.589528 )

     reciprocal axes: (cart. coord. in units 2 pi/alat)
               b(1) = (  1.115134  0.044122  0.496808 )
               b(2) = (  0.003698  1.115537  1.199399 )
               b(3) = (  0.000417 -0.000289  1.696129 )

     PseudoPot. # 1 for Ce read from file:
     /home/jld5415/pp.La/Ce.UPF
     MD5 check sum: 44451aa79a44a00cf2bc029dc19922f6
     Pseudo is Norm-conserving, Zval = 12.0
     Generated in analytical, separable form
     Using radial grid of 1255 points,  6 beta functions with:
                l(1) =   0
                l(2) =   0
                l(3) =   1
                l(4) =   1
                l(5) =   2
                l(6) =   3

     PseudoPot. # 2 for Sm read from file:
     /home/jld5415/pp.La/Sm.UPF
     MD5 check sum: 5079e8b144a06bfcdbc14fb02b96ab09
     Pseudo is Norm-conserving, Zval = 16.0
     Generated in analytical, separable form
     Using radial grid of 1259 points,  6 beta functions with:
                l(1) =   0
                l(2) =   0
                l(3) =   1
                l(4) =   1
                l(5) =   2
                l(6) =   3

     atomic species   valence    mass     pseudopotential
        K             12.00    39.09830     Ce( 1.00)
        Hg            16.00   200.59000     Sm( 1.00)

      2 Sym. Ops., with inversion, found

   Cartesian axes

     site n.     atom                  positions (alat units)
         1           K   tau(   1) = (  -0.0314106   0.3768585   0.4425011  )
         2           K   tau(   2) = (   0.6552374  -0.1162803   0.1469678  )
         3           Hg  tau(   3) = (   0.2100634  -0.0488162   0.3275414  )
         4           Hg  tau(   4) = (   0.4137634   0.3093945   0.2619275  )
         5           Hg  tau(   5) = (   0.4648126  -0.2968829   0.5563096  )
         6           Hg  tau(   6) = (   0.1590142   0.5574611   0.0331593  )

     number of k points=   253  gaussian smearing, width (Ry)=  0.1000

     Number of k-points >= 100: set verbosity='high' to print them.

     Largest allocated arrays     est. size (Mb)     dimensions
     Largest temporary arrays     est. size (Mb)     dimensions

     Initial potential from superposition of free atoms

     Starting from uniform charge
     Starting wfc are    0 randomized atomic wfcs

     Writing output data file Prototype-La-oI12-KHg2.save

     Self-consistent Calculation

[...]

     iteration # 12     ecut=    40.00 Ry     beta=0.70
     CG style diagonalization
     c_bands:  1 eigenvalues not converged
     ethr =  1.01E-06,  avg # of iterations =  3.4

     total energy              =    -761.05778339 Ry
     Harris-Foulkes estimate   =    -761.05779113 Ry
     estimated scf accuracy    <       0.00002036 Ry

     iteration # 13     ecut=    40.00 Ry     beta=0.70
     CG style diagonalization
     ethr =  2.31E-08,  avg # of iterations =  5.5

     End of self-consistent calculation

     Number of k-points >= 100: set verbosity='high' to print the bands.

     the Fermi energy is    18.1125 ev

!    total energy              =    -761.05780523 Ry
     Harris-Foulkes estimate   =    -761.05780788 Ry
     estimated scf accuracy    <       0.00000371 Ry

     The total energy is the sum of the following terms:

     one-electron contribution =    -120.65105868 Ry
     hartree contribution      =     110.71986097 Ry
     xc contribution           =     -84.98404637 Ry
     ewald contribution        =    -665.69193107 Ry
     smearing contrib. (-TS)   =      -0.45063008 Ry

     convergence has been achieved in  13 iterations

     Forces acting on atoms (Ry/au):

     atom    1 type  1   force =    -0.01052190   -0.00826181   -0.00117272
     atom    2 type  1   force =     0.01052190    0.00826181    0.00117272
     atom    3 type  2   force =    -0.00603895    0.01303559   -0.00864561
     atom    4 type  2   force =     0.00603895   -0.01303559    0.00864561
     atom    5 type  2   force =     0.01996484   -0.00121102    0.00975376
     atom    6 type  2   force =    -0.01996484    0.00121102   -0.00975376

     Total force =     0.043742     Total SCF correction =     0.000000

     entering subroutine stress ...

          total   stress  (Ry/bohr**3)                   (kbar)     P= -104.59
  -0.00074776   0.00001990  -0.00008805       -110.00      2.93    -12.95
   0.00001990  -0.00073238   0.00007832          2.93   -107.74     11.52
  -0.00008805   0.00007832  -0.00065292        -12.95     11.52    -96.05

     Writing output data file Prototype-La-oI12-KHg2.save

     General routines

     Parallel routines

   This run was terminated on:   3:55:46  22Mar2018

   JOB DONE.