     Program PWSCF v.5.0.2 starts on 22Mar2018 at  0:39:30

     Current dimensions of program PWSCF are:
     Max number of different atomic species (ntypx) = 10
     Max number of k-points (npk) =  40000
     Max angular momentum in pseudopotentials (lmaxx) =  3
     Waiting for input...
     Reading input from standard input

     Subspace diagonalization in iterative solution of the eigenvalue problem:
     a serial algorithm will be used

     bravais-lattice index     =            0
     lattice parameter (alat)  =       8.8008  a.u.
     unit-cell volume          =    1116.9454 (a.u.)^3
     number of atoms/cell      =           16
     number of atomic types    =            2
     number of electrons       =       208.00
     number of Kohn-Sham states=          125
     kinetic-energy cutoff     =      40.0000  Ry
     charge density cutoff     =     160.0000  Ry
     convergence threshold     =      1.0E-04
     mixing beta               =       0.7000
     number of iterations used =            8  plain     mixing
     Exchange-correlation      = SLA-PZ-NOGX-NOGC ( 1 1 0 0 0)
     EXX-fraction              =        0.00
     nstep                     =           50

     celldm(1)=   8.800765  celldm(2)=   0.000000  celldm(3)=   0.000000
     celldm(4)=   0.000000  celldm(5)=   0.000000  celldm(6)=   0.000000

     crystal axes: (cart. coord. in units of alat)
               a(1) = (   1.000000   0.000000   0.000000 )
               a(2) = (   0.000000   1.083771   0.000000 )
               a(3) = (   0.000000   0.000000   1.511935 )

     reciprocal axes: (cart. coord. in units 2 pi/alat)
               b(1) = (  1.000000  0.000000  0.000000 )
               b(2) = (  0.000000  0.922704  0.000000 )
               b(3) = (  0.000000  0.000000  0.661404 )

     PseudoPot. # 1 for Ce read from file:
     /home/jld5415/pp.La/Ce.UPF
     MD5 check sum: 44451aa79a44a00cf2bc029dc19922f6
     Pseudo is Norm-conserving, Zval = 12.0
     Generated in analytical, separable form
     Using radial grid of 1255 points,  6 beta functions with:
                l(1) =   0
                l(2) =   0
                l(3) =   1
                l(4) =   1
                l(5) =   2
                l(6) =   3

     PseudoPot. # 2 for Sm read from file:
     /home/jld5415/pp.La/Sm.UPF
     MD5 check sum: 5079e8b144a06bfcdbc14fb02b96ab09
     Pseudo is Norm-conserving, Zval = 16.0
     Generated in analytical, separable form
     Using radial grid of 1259 points,  6 beta functions with:
                l(1) =   0
                l(2) =   0
                l(3) =   1
                l(4) =   1
                l(5) =   2
                l(6) =   3

     atomic species   valence    mass     pseudopotential
        Fe            12.00    55.84500     Ce( 1.00)
        C             16.00    12.01070     Sm( 1.00)

      8 Sym. Ops., with inversion, found ( 6 have fractional translation)

   Cartesian axes

     site n.     atom                  positions (alat units)
         1           Fe  tau(   1) = (   0.3472940   0.1827628   1.3947267  )
         2           Fe  tau(   2) = (   0.1527060   0.7246484   0.8731757  )
         3           Fe  tau(   3) = (   0.8472940   0.3591227   0.6387592  )
         4           Fe  tau(   4) = (   0.3396640   0.4879235   0.3779837  )
         5           Fe  tau(   5) = (   0.1527060   0.7246484   1.3947267  )
         6           Fe  tau(   6) = (   0.3472940   0.1827628   0.8731757  )
         7           Fe  tau(   7) = (   0.1603360   1.0298091   0.3779837  )
         8           Fe  tau(   8) = (   0.6527060   0.9010083   0.6387592  )
         9           Fe  tau(   9) = (   0.8472940   0.3591227   0.1172082  )
        10           Fe  tau(  10) = (   0.6603360   0.5958476   1.1339512  )
        11           Fe  tau(  11) = (   0.6527060   0.9010083   0.1172082  )
        12           Fe  tau(  12) = (   0.8396640   0.0539620   1.1339512  )
        13           C   tau(  13) = (   0.0000000   0.0000000   0.0000000  )
        14           C   tau(  14) = (   0.5000000   0.5418856   0.0000000  )
        15           C   tau(  15) = (   0.5000000   0.5418856   0.7559674  )
        16           C   tau(  16) = (   0.0000000   0.0000000   0.7559674  )

     number of k points=    12  gaussian smearing, width (Ry)=  0.1000
                       cart. coord. in units 2pi/alat
        k(    1) = (   0.0000000   0.0000000   0.0000000), wk =   0.0833333
        k(    2) = (   0.0000000   0.0000000   0.1653510), wk =   0.1666667
        k(    3) = (   0.0000000   0.0000000  -0.3307021), wk =   0.0833333
        k(    4) = (   0.0000000   0.3075680   0.0000000), wk =   0.1666667
        k(    5) = (   0.0000000   0.3075680   0.1653510), wk =   0.3333333
        k(    6) = (   0.0000000   0.3075680  -0.3307021), wk =   0.1666667
        k(    7) = (  -0.5000000   0.0000000   0.0000000), wk =   0.0833333
        k(    8) = (  -0.5000000   0.0000000   0.1653510), wk =   0.1666667
        k(    9) = (  -0.5000000   0.0000000  -0.3307021), wk =   0.0833333
        k(   10) = (  -0.5000000   0.3075680   0.0000000), wk =   0.1666667
        k(   11) = (  -0.5000000   0.3075680   0.1653510), wk =   0.3333333
        k(   12) = (  -0.5000000   0.3075680  -0.3307021), wk =   0.1666667

     Largest allocated arrays     est. size (Mb)     dimensions
     Largest temporary arrays     est. size (Mb)     dimensions

     Initial potential from superposition of free atoms

     Starting from uniform charge
     Starting wfc are    0 randomized atomic wfcs

     Self-consistent Calculation

     iteration #  1     ecut=    40.00 Ry     beta=0.70
     CG style diagonalization
     ethr =  1.00E-02,  avg # of iterations = 18.3

     total energy              =    -841.04332174 Ry
     Harris-Foulkes estimate   =   -1872.76997972 Ry
     estimated scf accuracy    <    1234.34196209 Ry

     iteration #  2     ecut=    40.00 Ry     beta=0.70
     CG style diagonalization
     c_bands:  5 eigenvalues not converged
     c_bands:  2 eigenvalues not converged
     c_bands:  1 eigenvalues not converged
     c_bands:  3 eigenvalues not converged
     c_bands:  1 eigenvalues not converged
     c_bands:  2 eigenvalues not converged
     c_bands:  4 eigenvalues not converged
     c_bands:  2 eigenvalues not converged
     c_bands:  2 eigenvalues not converged
     ethr =  1.00E-02,  avg # of iterations = 14.4

[...]

     End of self-consistent calculation

          k = 0.0000 0.0000 0.0000 (  4785 PWs)   bands (ev):

   -20.5539 -20.4197 -20.1989 -20.0715  -2.3872  -2.3545  -2.1113  -2.0090
    -1.9527  -1.4599   1.0123   1.1261   1.1973   1.2001   1.5801   1.7361
     3.4473   4.1859   4.3477   4.5436   5.1835   5.6178  11.2845  11.5980
    12.2561  12.9878  13.6292  13.6971  16.3744  16.9559  16.9656  17.3389
    17.8413  18.1348  18.3387  18.4503  20.5539  21.0294  22.0526  22.0952
    22.1431  22.5909  22.7198  23.0096  23.2101  23.3694  23.4430  24.1161
    24.3862  24.6714  24.7363  24.8725  25.1690  25.4365  25.9993  26.0476
    26.3511  26.4767  27.9238  28.0240  28.3784  28.4734  29.1450  29.6628
    30.7990  30.8021  30.8558  31.0806  32.4622  32.7331  32.9824  33.9097
    35.4986  36.0242  36.2301  36.6946  36.7681  38.5569  38.8576  39.3516
    39.5434  39.6979  39.9864  40.8318  40.9563  41.1761  42.0064  42.2801
    42.6207  42.9887  43.1485  43.2298  43.5531  43.6890  43.7636  43.8102
    43.9232  44.1320  44.2764  44.3085  44.7012  44.9792  45.2323  45.5523
    45.6686  45.9003  46.3015  46.3887  46.7201  46.7494  46.8499  47.1255
    47.1657  47.2361  47.7540  48.0228  48.4286  48.9553  48.9598  49.0244
    49.1810  49.4732  49.6670  49.9486  50.6203

[...]

          k =-0.5000 0.0000 0.0000 (  4798 PWs)   bands (ev):

[...]

     the Fermi energy is    45.8296 ev

!    total energy              =   -1498.64925662 Ry
     Harris-Foulkes estimate   =   -1498.64928867 Ry
     estimated scf accuracy    <       0.00003513 Ry

     The total energy is the sum of the following terms:

     one-electron contribution =     352.74633027 Ry
     hartree contribution      =     145.43091989 Ry
     xc contribution           =    -217.97752703 Ry
     ewald contribution        =   -1778.29918584 Ry
     smearing contrib. (-TS)   =      -0.54979392 Ry

     convergence has been achieved in  10 iterations

     Forces acting on atoms (Ry/au):

     atom    1 type  1   force =     0.90262154   -0.93111967   -1.29477080
     atom    2 type  1   force =    -0.90262154   -0.93111967    1.29477080
     atom    3 type  1   force =     0.90262154    0.93111967   -1.29477080
     atom    4 type  1   force =    -1.54206335   -0.57601615    0.00000000
     atom    5 type  1   force =    -0.90262154   -0.93111967   -1.29477080
     atom    6 type  1   force =     0.90262154   -0.93111967    1.29477080
     atom    7 type  1   force =     1.54206335   -0.57601615    0.00000000
     atom    8 type  1   force =    -0.90262154    0.93111967   -1.29477080
     atom    9 type  1   force =     0.90262154    0.93111967    1.29477080
     atom   10 type  1   force =     1.54206335    0.57601615    0.00000000
     atom   11 type  1   force =    -0.90262154    0.93111967    1.29477080
     atom   12 type  1   force =    -1.54206335    0.57601615    0.00000000
     atom   13 type  2   force =     0.00000000    0.00000000    0.00000000
     atom   14 type  2   force =     0.00000000    0.00000000    0.00000000
     atom   15 type  2   force =     0.00000000    0.00000000    0.00000000
     atom   16 type  2   force =     0.00000000    0.00000000    0.00000000

     Total force =     6.140370     Total SCF correction =     0.000000

     entering subroutine stress ...

          total   stress  (Ry/bohr**3)                   (kbar)     P=11050.23
   0.07601836   0.00000000   0.00000000      11182.68      0.00      0.00
   0.00000000   0.07561579   0.00000000          0.00  11123.46      0.00
   0.00000000   0.00000000   0.07371974          0.00      0.00  10844.55

     BFGS Geometry Optimization

     number of scf cycles    =   1
     number of bfgs steps    =   0

     enthalpy new            =   -1498.6492566232 Ry

     new trust radius        =       0.5000000000 bohr
     new conv_thr            =       0.0001000000 Ry

     new unit-cell volume =   1383.38983 a.u.^3 (   204.99722 Ang^3 )

CELL_PARAMETERS (alat=  8.80076499)
   1.074803866   0.000000000   0.000000000
   0.000000000   1.164412087   0.000000000
   0.000000000   0.000000000   1.621613616

ATOMIC_POSITIONS (crystal)
Fe       0.351330926   0.164793507   0.918647946
Fe       0.148669074   0.664793507   0.581352054
Fe       0.851330926   0.335206493   0.418647946
Fe       0.332767205   0.447831929   0.250000000
Fe       0.148669074   0.664793507   0.918647946
Fe       0.351330926   0.164793507   0.581352054
Fe       0.167232795   0.947831929   0.250000000
Fe       0.648669074   0.835206493   0.418647946
Fe       0.851330926   0.335206493   0.081352054
Fe       0.667232795   0.552168071   0.750000000
Fe       0.648669074   0.835206493   0.081352054
Fe       0.832767205   0.052168071   0.750000000
C        0.000000000   0.000000000   0.000000000
C        0.500000000   0.500000000   0.000000000
C        0.500000000   0.500000000   0.500000000
C        0.000000000   0.000000000   0.500000000

     Writing output data file Prototype-La-oP16-Fe3C.save
     NEW-OLD atomic charge density approx. for the potential
     NEW k-points:
        k(    1) = (   0.0000000   0.0000000   0.0000000), wk =   0.0833333
        k(    2) = (   0.0000000   0.0000000   0.1541674), wk =   0.1666667
        k(    3) = (   0.0000000   0.0000000  -0.3083349), wk =   0.0833333
        k(    4) = (   0.0000000   0.2862675   0.0000000), wk =   0.1666667
        k(    5) = (   0.0000000   0.2862675   0.1541674), wk =   0.3333333
        k(    6) = (   0.0000000   0.2862675  -0.3083349), wk =   0.1666667
        k(    7) = (  -0.4652012   0.0000000   0.0000000), wk =   0.0833333
        k(    8) = (  -0.4652012   0.0000000   0.1541674), wk =   0.1666667
        k(    9) = (  -0.4652012   0.0000000  -0.3083349), wk =   0.0833333
        k(   10) = (  -0.4652012   0.2862675   0.0000000), wk =   0.1666667
        k(   11) = (  -0.4652012   0.2862675   0.1541674), wk =   0.3333333
        k(   12) = (  -0.4652012   0.2862675  -0.3083349), wk =   0.1666667

[...]

          total   stress  (Ry/bohr**3)                   (kbar)     P= 5412.92
   0.03732162   0.00000000   0.00000000       5490.20      0.00      0.00
   0.00000000   0.03641812   0.00000000          0.00   5357.29      0.00
   0.00000000   0.00000000   0.03664917          0.00      0.00   5391.28

[...]

     enthalpy old            =   -1498.6492566232 Ry
     enthalpy new            =   -1514.1374112233 Ry

     CASE: enthalpy_new < enthalpy_old

     small trust_radius: resetting bfgs history

     new trust radius        =       6.9406915331 bohr
     new conv_thr            =       0.0001000000 Ry

[...]

     number of scf cycles    =   3
     number of bfgs steps    =   2

     enthalpy old            =   -1514.1374112233 Ry
     enthalpy new            =   -1491.5545726117 Ry

     CASE: enthalpy_new > enthalpy_old

     new trust radius        =       4.1613759434 bohr

     trust_radius < trust_radius_min

     resetting bfgs history

     Message from routine bfgs:
     history already reset at previous step: stopping
     new conv_thr            =       0.0001000000 Ry

     new unit-cell volume =   1590.07335 a.u.^3 (   235.62456 Ang^3 )

[...]

ATOMIC_POSITIONS (crystal)
Fe       0.352770668   0.163353694   0.917249052
Fe       0.147229332   0.663353694   0.582750948
Fe       0.852770668   0.336646306   0.417249052
Fe       0.330283535   0.446913596   0.250000000
Fe       0.147229332   0.663353694   0.917249052
Fe       0.352770668   0.163353694   0.582750948
Fe       0.169716465   0.946913596   0.250000000
Fe       0.647229332   0.836646306   0.417249052
Fe       0.852770668   0.336646306   0.082750948
Fe       0.669716465   0.553086404   0.750000000
Fe       0.647229332   0.836646306   0.082750948
Fe       0.830283535   0.053086404   0.750000000
C        0.000000000   0.000000000   0.000000000
C        0.500000000   0.500000000   0.000000000
C        0.500000000   0.500000000   0.500000000
C        0.000000000   0.000000000   0.500000000

     Writing output data file Prototype-La-oP16-Fe3C.save
     NEW-OLD atomic charge density approx. for the potential
     NEW k-points:
        k(    1) = (   0.0000000   0.0000000   0.0000000), wk =   0.0833333
        k(    2) = (   0.0000000   0.0000000   0.1472283), wk =   0.1666667
        k(    3) = (   0.0000000   0.0000000  -0.2944566), wk =   0.0833333
        k(    4) = (   0.0000000   0.2735338   0.0000000), wk =   0.1666667
        k(    5) = (   0.0000000   0.2735338   0.1472283), wk =   0.3333333
        k(    6) = (   0.0000000   0.2735338  -0.2944566), wk =   0.1666667
        k(    7) = (  -0.4435377   0.0000000   0.0000000), wk =   0.0833333
        k(    8) = (  -0.4435377   0.0000000   0.1472283), wk =   0.1666667
        k(    9) = (  -0.4435377   0.0000000  -0.2944566), wk =   0.0833333
        k(   10) = (  -0.4435377   0.2735338   0.0000000), wk =   0.1666667
        k(   11) = (  -0.4435377   0.2735338   0.1472283), wk =   0.3333333
        k(   12) = (  -0.4435377   0.2735338  -0.2944566), wk =   0.1666667

[...]

     The maximum number of steps has been reached.

     End of BFGS Geometry Optimization
Begin final coordinates
     new unit-cell volume =   1590.07335 a.u.^3 (   235.62456 Ang^3 )

CELL_PARAMETERS (alat=  8.80076499)
   1.127299779   0.000000000   0.000000000
   0.000000000   1.218618532   0.000000000
   0.000000000   0.000000000   1.698043017

ATOMIC_POSITIONS (crystal)
Fe       0.352770668   0.163353694   0.917249052
Fe       0.147229332   0.663353694   0.582750948
Fe       0.852770668   0.336646306   0.417249052
Fe       0.330283535   0.446913596   0.250000000
Fe       0.147229332   0.663353694   0.917249052
Fe       0.352770668   0.163353694   0.582750948
Fe       0.169716465   0.946913596   0.250000000
Fe       0.647229332   0.836646306   0.417249052
Fe       0.852770668   0.336646306   0.082750948
Fe       0.669716465   0.553086404   0.750000000
Fe       0.647229332   0.836646306   0.082750948
Fe       0.830283535   0.053086404   0.750000000
C        0.000000000   0.000000000   0.000000000
C        0.500000000   0.500000000   0.000000000
C        0.500000000   0.500000000   0.500000000
C        0.000000000   0.000000000   0.500000000
End final coordinates

     A final scf calculation at the relaxed structure.
     The G-vectors are recalculated for the final unit cell
     Results may differ from those at the preceding step.

     bravais-lattice index     =            0
     lattice parameter (alat)  =       8.8008  a.u.
     unit-cell volume          =    1590.0734 (a.u.)^3
     number of atoms/cell      =           16
     number of atomic types    =            2
     number of electrons       =       208.00
     number of Kohn-Sham states=          125
     kinetic-energy cutoff     =      40.0000  Ry
     charge density cutoff     =     160.0000  Ry
     convergence threshold     =      1.0E-04
     mixing beta               =       0.7000
     number of iterations used =            8  plain     mixing
     Exchange-correlation      = SLA-PZ-NOGX-NOGC ( 1 1 0 0 0)
     EXX-fraction              =        0.00

     celldm(1)=   8.800765  celldm(2)=   0.000000  celldm(3)=   0.000000
     celldm(4)=   0.000000  celldm(5)=   0.000000  celldm(6)=   0.000000

     crystal axes: (cart. coord. in units of alat)
               a(1) = (   1.127300   0.000000   0.000000 )
               a(2) = (   0.000000   1.218619   0.000000 )
               a(3) = (   0.000000   0.000000   1.698043 )

     reciprocal axes: (cart. coord. in units 2 pi/alat)
               b(1) = (  0.887075  0.000000  0.000000 )
               b(2) = (  0.000000  0.820601  0.000000 )
               b(3) = (  0.000000  0.000000  0.588913 )

     PseudoPot. # 1 for Ce read from file:
     /home/jld5415/pp.La/Ce.UPF
     MD5 check sum: 44451aa79a44a00cf2bc029dc19922f6
     Pseudo is Norm-conserving, Zval = 12.0
     Generated in analytical, separable form
     Using radial grid of 1255 points,  6 beta functions with:
                l(1) =   0
                l(2) =   0
                l(3) =   1
                l(4) =   1
                l(5) =   2
                l(6) =   3

     PseudoPot. # 2 for Sm read from file:
     /home/jld5415/pp.La/Sm.UPF
     MD5 check sum: 5079e8b144a06bfcdbc14fb02b96ab09
     Pseudo is Norm-conserving, Zval = 16.0
     Generated in analytical, separable form
     Using radial grid of 1259 points,  6 beta functions with:
                l(1) =   0
                l(2) =   0
                l(3) =   1
                l(4) =   1
                l(5) =   2
                l(6) =   3

     atomic species   valence    mass     pseudopotential
        Fe            12.00    55.84500     Ce( 1.00)
        C             16.00    12.01070     Sm( 1.00)

      8 Sym. Ops., with inversion, found ( 6 have fractional translation)

   Cartesian axes

     site n.     atom                  positions (alat units)
         1           Fe  tau(   1) = (   0.3976783   0.1990658   1.5575283  )
         2           Fe  tau(   2) = (   0.1659716   0.8083751   0.9895362  )
         3           Fe  tau(   3) = (   0.9613282   0.4102434   0.7085068  )
         4           Fe  tau(   4) = (   0.3723286   0.5446172   0.4245108  )
         5           Fe  tau(   5) = (   0.1659716   0.8083751   1.5575283  )
         6           Fe  tau(   6) = (   0.3976783   0.1990658   0.9895362  )
         7           Fe  tau(   7) = (   0.1913213   1.1539265   0.4245108  )
         8           Fe  tau(   8) = (   0.7296215   1.0195527   0.7085068  )
         9           Fe  tau(   9) = (   0.9613282   0.4102434   0.1405147  )
        10           Fe  tau(  10) = (   0.7549712   0.6740013   1.2735323  )
        11           Fe  tau(  11) = (   0.7296215   1.0195527   0.1405147  )
        12           Fe  tau(  12) = (   0.9359784   0.0646921   1.2735323  )
        13           C   tau(  13) = (   0.0000000   0.0000000   0.0000000  )
        14           C   tau(  14) = (   0.5636499   0.6093093   0.0000000  )
        15           C   tau(  15) = (   0.5636499   0.6093093   0.8490215  )
        16           C   tau(  16) = (   0.0000000   0.0000000   0.8490215  )

     number of k points=    12  gaussian smearing, width (Ry)=  0.1000
                       cart. coord. in units 2pi/alat
        k(    1) = (   0.0000000   0.0000000   0.0000000), wk =   0.0833333
        k(    2) = (   0.0000000   0.0000000   0.1472283), wk =   0.1666667
        k(    3) = (   0.0000000   0.0000000  -0.2944566), wk =   0.0833333
        k(    4) = (   0.0000000   0.2735338   0.0000000), wk =   0.1666667
        k(    5) = (   0.0000000   0.2735338   0.1472283), wk =   0.3333333
        k(    6) = (   0.0000000   0.2735338  -0.2944566), wk =   0.1666667
        k(    7) = (  -0.4435377   0.0000000   0.0000000), wk =   0.0833333
        k(    8) = (  -0.4435377   0.0000000   0.1472283), wk =   0.1666667
        k(    9) = (  -0.4435377   0.0000000  -0.2944566), wk =   0.0833333
        k(   10) = (  -0.4435377   0.2735338   0.0000000), wk =   0.1666667
        k(   11) = (  -0.4435377   0.2735338   0.1472283), wk =   0.3333333
        k(   12) = (  -0.4435377   0.2735338  -0.2944566), wk =   0.1666667

     Largest allocated arrays     est. size (Mb)     dimensions
     Largest temporary arrays     est. size (Mb)     dimensions

     Initial potential from superposition of free atoms

     Starting from uniform charge
     Starting wfc are    0 randomized atomic wfcs

     Writing output data file Prototype-La-oP16-Fe3C.save

     Self-consistent Calculation

[...]

     iteration #  6     ecut=    40.00 Ry     beta=0.70
     CG style diagonalization
     ethr =  4.58E-03,  avg # of iterations =  3.9

[...]

     total energy              =   -1521.42912321 Ry
     Harris-Foulkes estimate   =   -1521.42922573 Ry
     estimated scf accuracy    <       0.00022463 Ry

     iteration # 11     ecut=    40.00 Ry     beta=0.70
     CG style diagonalization
     c_bands:  1 eigenvalues not converged
     ethr =  1.08E-07,  avg # of iterations =  4.1

     End of self-consistent calculation

[...]

          k = 0.0000 0.2735-0.2945 (  6772 PWs)   bands (ev):

[...]

          k =-0.4435 0.2735-0.2945 (  6824 PWs)   bands (ev):

   -29.1920 -29.1920 -29.1920 -29.1920  -9.5870  -9.5870  -9.5771  -9.5771
    -8.4762  -8.4762  -8.3509  -8.3509  -7.2938  -7.2938  -7.2795  -7.2795
    -5.4411  -5.4411  -5.4237  -5.4237  -3.5829  -3.5829  -3.4910  -3.4910
    -2.2429  -2.2429  -2.2417  -2.2417   8.5840   8.5840   8.7820   8.7820
     8.9924   8.9924   9.1922   9.1922   9.8317   9.8317   9.9456   9.9456
    10.7009  10.7009  10.7685  10.7685  11.2007  11.2007  11.8901  11.8901
    12.0427  12.0427  12.2469  12.2469  12.6820  12.6820  12.6909  12.6909
    13.1776  13.1776  13.2288  13.2288  13.4969  13.4969  13.6092  13.6092
    21.9509  21.9509  22.0925  22.0925  22.8343  22.8343  23.2357  23.2357
    24.0505  24.0505  24.1915  24.1915  26.5175  26.5175  26.9275  26.9275
    27.5991  27.5991  27.9646  27.9646  28.4379  28.4379  29.0205  29.0205
    29.5211  29.5211  29.5272  29.5272  30.2029  30.2029  30.2105  30.2105
    30.8437  30.8437  30.9485  30.9485  32.0697  32.0697  32.1084  32.1084
    32.6064  32.6064  32.8334  32.8334  33.1498  33.1498  34.0563  34.0563
    34.3257  34.3257  34.5736  34.5737  34.7235  34.7235  35.2538  35.2538
    35.5522  35.5523  36.2686  36.2690  36.4905

     the Fermi energy is    32.2405 ev

!    total energy              =   -1521.42917917 Ry
     Harris-Foulkes estimate   =   -1521.42919114 Ry
     estimated scf accuracy    <       0.00001424 Ry

     The total energy is the sum of the following terms:

     one-electron contribution =     104.50499898 Ry
     hartree contribution      =     172.38398283 Ry
     xc contribution           =    -203.43245892 Ry
     ewald contribution        =   -1594.21172409 Ry
     smearing contrib. (-TS)   =      -0.67397797 Ry

     convergence has been achieved in  11 iterations

     Forces acting on atoms (Ry/au):

     atom    1 type  1   force =     0.33001333   -0.37077216   -0.48298118
     atom    2 type  1   force =    -0.33001333   -0.37077216    0.48298118
     atom    3 type  1   force =     0.33001333    0.37077216   -0.48298118
     atom    4 type  1   force =    -0.57874871   -0.23339064    0.00000000
     atom    5 type  1   force =    -0.33001333   -0.37077216   -0.48298118
     atom    6 type  1   force =     0.33001333   -0.37077216    0.48298118
     atom    7 type  1   force =     0.57874871   -0.23339064    0.00000000
     atom    8 type  1   force =    -0.33001333    0.37077216   -0.48298118
     atom    9 type  1   force =     0.33001333    0.37077216    0.48298118
     atom   10 type  1   force =     0.57874871    0.23339064    0.00000000
     atom   11 type  1   force =    -0.33001333    0.37077216    0.48298118
     atom   12 type  1   force =    -0.57874871    0.23339064    0.00000000
     atom   13 type  2   force =     0.00000000    0.00000000    0.00000000
     atom   14 type  2   force =     0.00000000    0.00000000    0.00000000
     atom   15 type  2   force =     0.00000000    0.00000000    0.00000000
     atom   16 type  2   force =     0.00000000    0.00000000    0.00000000

     Total force =     2.322692     Total SCF correction =     0.000000

     entering subroutine stress ...

          total   stress  (Ry/bohr**3)                   (kbar)     P= 3312.50
   0.02283746   0.00000000   0.00000000       3359.51      0.00      0.00
   0.00000000   0.02215669   0.00000000          0.00   3259.36      0.00
   0.00000000   0.00000000   0.02255970          0.00      0.00   3318.65

     Writing output data file Prototype-La-oP16-Fe3C.save

     General routines

     Parallel routines

   This run was terminated on:   1: 9: 5  22Mar2018

   JOB DONE.