     Program PWSCF v.5.0.2 starts on 22Mar2018 at  0:39:28

     Current dimensions of program PWSCF are:
     Max number of different atomic species (ntypx) = 10
     Max number of k-points (npk) =  40000
     Max angular momentum in pseudopotentials (lmaxx) =  3
     Waiting for input...
     Reading input from standard input

     Subspace diagonalization in iterative solution of the eigenvalue problem:
     a serial algorithm will be used

     bravais-lattice index     =            0
     lattice parameter (alat)  =       8.5346  a.u.
     unit-cell volume          =     621.6493 (a.u.)^3
     number of atoms/cell      =            8
     number of atomic types    =            2
     number of electrons       =       104.00
     number of Kohn-Sham states=           62
     kinetic-energy cutoff     =      40.0000  Ry
     charge density cutoff     =     160.0000  Ry
     convergence threshold     =      1.0E-04
     mixing beta               =       0.7000
     number of iterations used =            8  plain     mixing
     Exchange-correlation      = SLA-PZ-NOGX-NOGC ( 1 1 0 0 0)
     EXX-fraction              =        0.00
     nstep                     =           50

     celldm(1)=   8.534573  celldm(2)=   0.000000  celldm(3)=   0.000000
     celldm(4)=   0.000000  celldm(5)=   0.000000  celldm(6)=   0.000000

     crystal axes: (cart. coord. in units of alat)
               a(1) = (   1.000000   0.000000   0.000000 )
               a(2) = (   0.000000   1.000000   0.000000 )
               a(3) = (   0.000000   0.000000   1.000000 )

     reciprocal axes: (cart. coord. in units 2 pi/alat)
               b(1) = (  1.000000  0.000000  0.000000 )
               b(2) = (  0.000000  1.000000  0.000000 )
               b(3) = (  0.000000  0.000000  1.000000 )

     PseudoPot. # 1 for Ce read from file:
     /home/jld5415/pp.La/Ce.UPF
     MD5 check sum: 44451aa79a44a00cf2bc029dc19922f6
     Pseudo is Norm-conserving, Zval = 12.0
     Generated in analytical, separable form
     Using radial grid of 1255 points,  6 beta functions with:
                l(1) =   0
                l(2) =   0
                l(3) =   1
                l(4) =   1
                l(5) =   2
                l(6) =   3

     PseudoPot. # 2 for Sm read from file:
     /home/jld5415/pp.La/Sm.UPF
     MD5 check sum: 5079e8b144a06bfcdbc14fb02b96ab09
     Pseudo is Norm-conserving, Zval = 16.0
     Generated in analytical, separable form
     Using radial grid of 1259 points,  6 beta functions with:
                l(1) =   0
                l(2) =   0
                l(3) =   1
                l(4) =   1
                l(5) =   2
                l(6) =   3

     atomic species   valence    mass     pseudopotential
        Cr            12.00    51.99610     Ce( 1.00)
        Si            16.00    28.08550     Sm( 1.00)

     48 Sym. Ops., with inversion, found (24 have fractional translation)

   Cartesian axes

     site n.     atom                  positions (alat units)
         1           Cr  tau(   1) = (   0.0000000   0.5000000   0.2500000  )
         2           Cr  tau(   2) = (   0.0000000   0.5000000   0.7500000  )
         3           Cr  tau(   3) = (   0.5000000   0.7500000   0.0000000  )
         4           Cr  tau(   4) = (   0.5000000   0.2500000   0.0000000  )
         5           Cr  tau(   5) = (   0.7500000   0.0000000   0.5000000  )
         6           Cr  tau(   6) = (   0.2500000   0.0000000   0.5000000  )
         7           Si  tau(   7) = (   0.5000000   0.5000000   0.5000000  )
         8           Si  tau(   8) = (   0.0000000   0.0000000   0.0000000  )

     number of k points=    48  gaussian smearing, width (Ry)=  0.1000
                       cart. coord. in units 2pi/alat
        k(    1) = (   0.0000000   0.0000000   0.0000000), wk =   0.0095238
        k(    2) = (   0.0000000   0.0000000   0.1428571), wk =   0.0190476
        k(    3) = (   0.0000000   0.0000000   0.2857143), wk =   0.0190476
        k(    4) = (   0.0000000   0.0000000   0.4285714), wk =   0.0190476
        k(    5) = (   0.0000000   0.1666667   0.0000000), wk =   0.0190476
        k(    6) = (   0.0000000   0.1666667   0.1428571), wk =   0.0380952
        k(    7) = (   0.0000000   0.1666667   0.2857143), wk =   0.0380952
        k(    8) = (   0.0000000   0.1666667   0.4285714), wk =   0.0380952
        k(    9) = (   0.0000000   0.3333333   0.0000000), wk =   0.0190476
        k(   10) = (   0.0000000   0.3333333   0.1428571), wk =   0.0380952
        k(   11) = (   0.0000000   0.3333333   0.2857143), wk =   0.0380952
        k(   12) = (   0.0000000   0.3333333   0.4285714), wk =   0.0380952
        k(   13) = (   0.0000000  -0.5000000   0.0000000), wk =   0.0095238
        k(   14) = (   0.0000000  -0.5000000   0.1428571), wk =   0.0190476
        k(   15) = (   0.0000000  -0.5000000   0.2857143), wk =   0.0190476
        k(   16) = (   0.0000000  -0.5000000   0.4285714), wk =   0.0190476
        k(   17) = (   0.2000000   0.0000000   0.0000000), wk =   0.0190476
        k(   18) = (   0.2000000   0.0000000   0.1428571), wk =   0.0380952
        k(   19) = (   0.2000000   0.0000000   0.2857143), wk =   0.0380952
        k(   20) = (   0.2000000   0.0000000   0.4285714), wk =   0.0380952
        k(   21) = (   0.2000000   0.1666667   0.0000000), wk =   0.0380952
        k(   22) = (   0.2000000   0.1666667   0.1428571), wk =   0.0761905
        k(   23) = (   0.2000000   0.1666667   0.2857143), wk =   0.0761905
        k(   24) = (   0.2000000   0.1666667   0.4285714), wk =   0.0761905
        k(   25) = (   0.2000000   0.3333333   0.0000000), wk =   0.0380952
        k(   26) = (   0.2000000   0.3333333   0.1428571), wk =   0.0761905
        k(   27) = (   0.2000000   0.3333333   0.2857143), wk =   0.0761905
        k(   28) = (   0.2000000   0.3333333   0.4285714), wk =   0.0761905
        k(   29) = (   0.2000000  -0.5000000   0.0000000), wk =   0.0190476
        k(   30) = (   0.2000000  -0.5000000   0.1428571), wk =   0.0380952
        k(   31) = (   0.2000000  -0.5000000   0.2857143), wk =   0.0380952
        k(   32) = (   0.2000000  -0.5000000   0.4285714), wk =   0.0380952
        k(   33) = (   0.4000000   0.0000000   0.0000000), wk =   0.0190476
        k(   34) = (   0.4000000   0.0000000   0.1428571), wk =   0.0380952
        k(   35) = (   0.4000000   0.0000000   0.2857143), wk =   0.0380952
        k(   36) = (   0.4000000   0.0000000   0.4285714), wk =   0.0380952
        k(   37) = (   0.4000000   0.1666667   0.0000000), wk =   0.0380952
        k(   38) = (   0.4000000   0.1666667   0.1428571), wk =   0.0761905
        k(   39) = (   0.4000000   0.1666667   0.2857143), wk =   0.0761905
        k(   40) = (   0.4000000   0.1666667   0.4285714), wk =   0.0761905
        k(   41) = (   0.4000000   0.3333333   0.0000000), wk =   0.0380952
        k(   42) = (   0.4000000   0.3333333   0.1428571), wk =   0.0761905
        k(   43) = (   0.4000000   0.3333333   0.2857143), wk =   0.0761905
        k(   44) = (   0.4000000   0.3333333   0.4285714), wk =   0.0761905
        k(   45) = (   0.4000000  -0.5000000   0.0000000), wk =   0.0190476
        k(   46) = (   0.4000000  -0.5000000   0.1428571), wk =   0.0380952
        k(   47) = (   0.4000000  -0.5000000   0.2857143), wk =   0.0380952
        k(   48) = (   0.4000000  -0.5000000   0.4285714), wk =   0.0380952

     Largest allocated arrays     est. size (Mb)     dimensions
     Largest temporary arrays     est. size (Mb)     dimensions

     Initial potential from superposition of free atoms

     Starting from uniform charge
     Starting wfc are    0 randomized atomic wfcs

     Self-consistent Calculation

     iteration #  1     ecut=    40.00 Ry     beta=0.70
     CG style diagonalization
     c_bands:  2 eigenvalues not converged
     c_bands:  2 eigenvalues not converged
     c_bands:  4 eigenvalues not converged
     c_bands:  3 eigenvalues not converged
     c_bands:  2 eigenvalues not converged
     c_bands:  2 eigenvalues not converged
     c_bands:  4 eigenvalues not converged
     c_bands:  3 eigenvalues not converged
     c_bands:  2 eigenvalues not converged
     c_bands:  2 eigenvalues not converged
     c_bands:  4 eigenvalues not converged
     c_bands:  2 eigenvalues not converged
     c_bands:  1 eigenvalues not converged
     c_bands:  1 eigenvalues not converged
     c_bands:  2 eigenvalues not converged
     c_bands:  2 eigenvalues not converged
     c_bands:  4 eigenvalues not converged
     c_bands:  2 eigenvalues not converged
     c_bands:  5 eigenvalues not converged
     c_bands:  4 eigenvalues not converged
     c_bands:  4 eigenvalues not converged
     c_bands:  1 eigenvalues not converged
     c_bands:  1 eigenvalues not converged
     c_bands:  3 eigenvalues not converged
     c_bands:  3 eigenvalues not converged
     c_bands:  3 eigenvalues not converged
     c_bands:  4 eigenvalues not converged
     c_bands:  3 eigenvalues not converged
     c_bands:  1 eigenvalues not converged
     c_bands:  2 eigenvalues not converged
     c_bands:  3 eigenvalues not converged
     c_bands:  2 eigenvalues not converged
     c_bands:  1 eigenvalues not converged
     c_bands:  3 eigenvalues not converged
     c_bands:  4 eigenvalues not converged
     c_bands:  3 eigenvalues not converged
     c_bands:  4 eigenvalues not converged
     c_bands:  2 eigenvalues not converged
     c_bands:  3 eigenvalues not converged
     c_bands:  1 eigenvalues not converged
     c_bands:  2 eigenvalues not converged
     c_bands:  3 eigenvalues not converged
     c_bands:  3 eigenvalues not converged
     c_bands:  2 eigenvalues not converged
     c_bands:  4 eigenvalues not converged
     c_bands:  2 eigenvalues not converged
     c_bands:  3 eigenvalues not converged
     ethr =  1.00E-02,  avg # of iterations = 12.5

     total energy              =    -611.65655547 Ry
     Harris-Foulkes estimate   =    -821.02595738 Ry
     estimated scf accuracy    <     260.71289362 Ry

[...]

     iteration #  3     ecut=    40.00 Ry     beta=0.70
     CG style diagonalization
     ethr =  1.00E-02,  avg # of iterations =  9.1

[...]

     End of self-consistent calculation

          k = 0.0000 0.0000 0.0000 (  2601 PWs)   bands (ev):

   -18.1855 -18.1074  -1.3989   0.5507   0.5507   3.1936   3.1936   3.1936
     5.6551   5.6551   5.6551   6.4503   6.4503   6.4503  12.5287  12.5287
    14.3172  16.8081  16.8081  16.8081  18.7550  18.7550  18.7550  21.5074
    21.5074  21.5074  21.7483  21.7483  21.7483  27.8810  27.8810  27.8810
    33.7127  33.7127  33.8764  33.8764  33.8764  34.4128  34.5806  36.6455
    36.6455  36.9306  36.9306  36.9306  37.1498  37.4677  37.4677  37.4677
    39.2892  39.2892  39.2892  39.7145  39.7145  43.4038  43.4038  43.4038
    43.6393  43.8631  43.8627  44.3407  44.3406  44.3408

[...]

     the Fermi energy is    41.6154 ev

!    total energy              =    -760.44407902 Ry
     Harris-Foulkes estimate   =    -760.44408188 Ry
     estimated scf accuracy    <       0.00000458 Ry

     The total energy is the sum of the following terms:

     one-electron contribution =     233.07952522 Ry
[...]
        k(   44) = (   0.3635474   0.3029562   0.3895151), wk =   0.0761905
        k(   45) = (   0.3635474  -0.4544343   0.0000000), wk =   0.0190476
        k(   46) = (   0.3635474  -0.4544343   0.1298384), wk =   0.0380952
        k(   47) = (   0.3635474  -0.4544343   0.2596767), wk =   0.0380952
        k(   48) = (   0.3635474  -0.4544343   0.3895151), wk =   0.0380952

[...]

     enthalpy old            =    -760.4440790184 Ry
     enthalpy new            =    -764.3702742287 Ry

     CASE: enthalpy_new < enthalpy_old

     small trust_radius: resetting bfgs history

     new trust radius        =       1.3795318371 bohr
     new conv_thr            =       0.0000010000 Ry

[...]

     number of scf cycles    =   3
     number of bfgs steps    =   2

     enthalpy old            =    -764.3702742287 Ry
     enthalpy new            =    -763.4326045152 Ry

     CASE: enthalpy_new > enthalpy_old

     new trust radius        =       0.6596607959 bohr

     trust_radius < trust_radius_min

     resetting bfgs history

     Message from routine bfgs:
     history already reset at previous step: stopping
     new conv_thr            =       0.0000010000 Ry

     new unit-cell volume =   1037.37142 a.u.^3 (   153.72258 Ang^3 )

[...]

ATOMIC_POSITIONS (crystal)
Cr       0.000000000   0.500000000   0.250000000
Cr       0.000000000   0.500000000   0.750000000
Cr       0.500000000   0.750000000   0.000000000
Cr       0.500000000   0.250000000   0.000000000
Cr       0.750000000   0.000000000   0.500000000
Cr       0.250000000   0.000000000   0.500000000
Si       0.500000000   0.500000000   0.500000000
Si       0.000000000   0.000000000   0.000000000

     Writing output data file Prototype-La-cP8-Cr3Si.save
     NEW-OLD atomic charge density approx. for the potential
     NEW k-points:
        k(    1) = (   0.0000000   0.0000000   0.0000000), wk =   0.0095238
        k(    2) = (   0.0000000   0.0000000   0.1204404), wk =   0.0190476
        k(    3) = (   0.0000000   0.0000000   0.2408809), wk =   0.0190476
        k(    4) = (   0.0000000   0.0000000   0.3613213), wk =   0.0190476
        k(    5) = (   0.0000000   0.1405138   0.0000000), wk =   0.0190476
        k(    6) = (   0.0000000   0.1405138   0.1204404), wk =   0.0380952
        k(    7) = (   0.0000000   0.1405138   0.2408809), wk =   0.0380952
        k(    8) = (   0.0000000   0.1405138   0.3613213), wk =   0.0380952
        k(    9) = (   0.0000000   0.2810277   0.0000000), wk =   0.0190476
        k(   10) = (   0.0000000   0.2810277   0.1204404), wk =   0.0380952
        k(   11) = (   0.0000000   0.2810277   0.2408809), wk =   0.0380952
        k(   12) = (   0.0000000   0.2810277   0.3613213), wk =   0.0380952
        k(   13) = (   0.0000000  -0.4215415   0.0000000), wk =   0.0095238
        k(   14) = (   0.0000000  -0.4215415   0.1204404), wk =   0.0190476
        k(   15) = (   0.0000000  -0.4215415   0.2408809), wk =   0.0190476
        k(   16) = (   0.0000000  -0.4215415   0.3613213), wk =   0.0190476
        k(   17) = (   0.1686166   0.0000000   0.0000000), wk =   0.0190476
        k(   18) = (   0.1686166   0.0000000   0.1204404), wk =   0.0380952
        k(   19) = (   0.1686166   0.0000000   0.2408809), wk =   0.0380952
        k(   20) = (   0.1686166   0.0000000   0.3613213), wk =   0.0380952
        k(   21) = (   0.1686166   0.1405138   0.0000000), wk =   0.0380952
        k(   22) = (   0.1686166   0.1405138   0.1204404), wk =   0.0761905
        k(   23) = (   0.1686166   0.1405138   0.2408809), wk =   0.0761905
        k(   24) = (   0.1686166   0.1405138   0.3613213), wk =   0.0761905
        k(   25) = (   0.1686166   0.2810277   0.0000000), wk =   0.0380952
        k(   26) = (   0.1686166   0.2810277   0.1204404), wk =   0.0761905
        k(   27) = (   0.1686166   0.2810277   0.2408809), wk =   0.0761905
        k(   28) = (   0.1686166   0.2810277   0.3613213), wk =   0.0761905
        k(   29) = (   0.1686166  -0.4215415   0.0000000), wk =   0.0190476
        k(   30) = (   0.1686166  -0.4215415   0.1204404), wk =   0.0380952
        k(   31) = (   0.1686166  -0.4215415   0.2408809), wk =   0.0380952
        k(   32) = (   0.1686166  -0.4215415   0.3613213), wk =   0.0380952
        k(   33) = (   0.3372332   0.0000000   0.0000000), wk =   0.0190476
        k(   34) = (   0.3372332   0.0000000   0.1204404), wk =   0.0380952
        k(   35) = (   0.3372332   0.0000000   0.2408809), wk =   0.0380952
        k(   36) = (   0.3372332   0.0000000   0.3613213), wk =   0.0380952
        k(   37) = (   0.3372332   0.1405138   0.0000000), wk =   0.0380952
        k(   38) = (   0.3372332   0.1405138   0.1204404), wk =   0.0761905
        k(   39) = (   0.3372332   0.1405138   0.2408809), wk =   0.0761905
        k(   40) = (   0.3372332   0.1405138   0.3613213), wk =   0.0761905
        k(   41) = (   0.3372332   0.2810277   0.0000000), wk =   0.0380952
        k(   42) = (   0.3372332   0.2810277   0.1204404), wk =   0.0761905
        k(   43) = (   0.3372332   0.2810277   0.2408809), wk =   0.0761905
        k(   44) = (   0.3372332   0.2810277   0.3613213), wk =   0.0761905
        k(   45) = (   0.3372332  -0.4215415   0.0000000), wk =   0.0190476
        k(   46) = (   0.3372332  -0.4215415   0.1204404), wk =   0.0380952
        k(   47) = (   0.3372332  -0.4215415   0.2408809), wk =   0.0380952
        k(   48) = (   0.3372332  -0.4215415   0.3613213), wk =   0.0380952

[...]

     The maximum number of steps has been reached.

     End of BFGS Geometry Optimization
Begin final coordinates
     new unit-cell volume =   1037.37142 a.u.^3 (   153.72258 Ang^3 )

CELL_PARAMETERS (alat=  8.53457320)
   1.186122705   0.000000000   0.000000000
   0.000000000   1.186122705   0.000000000
   0.000000000   0.000000000   1.186122705

ATOMIC_POSITIONS (crystal)
Cr       0.000000000   0.500000000   0.250000000
Cr       0.000000000   0.500000000   0.750000000
Cr       0.500000000   0.750000000   0.000000000
Cr       0.500000000   0.250000000   0.000000000
Cr       0.750000000   0.000000000   0.500000000
Cr       0.250000000   0.000000000   0.500000000
Si       0.500000000   0.500000000   0.500000000
Si       0.000000000   0.000000000   0.000000000
End final coordinates

     A final scf calculation at the relaxed structure.
     The G-vectors are recalculated for the final unit cell
     Results may differ from those at the preceding step.

     bravais-lattice index     =            0
     lattice parameter (alat)  =       8.5346  a.u.
     unit-cell volume          =    1037.3714 (a.u.)^3
     number of atoms/cell      =            8
     number of atomic types    =            2
     number of electrons       =       104.00
     number of Kohn-Sham states=           62
     kinetic-energy cutoff     =      40.0000  Ry
     charge density cutoff     =     160.0000  Ry
     convergence threshold     =      1.0E-06
     mixing beta               =       0.7000
     number of iterations used =            8  plain     mixing
     Exchange-correlation      = SLA-PZ-NOGX-NOGC ( 1 1 0 0 0)
     EXX-fraction              =        0.00

     celldm(1)=   8.534573  celldm(2)=   0.000000  celldm(3)=   0.000000
     celldm(4)=   0.000000  celldm(5)=   0.000000  celldm(6)=   0.000000

     crystal axes: (cart. coord. in units of alat)
               a(1) = (   1.186123   0.000000   0.000000 )
               a(2) = (   0.000000   1.186123   0.000000 )
               a(3) = (   0.000000   0.000000   1.186123 )

     reciprocal axes: (cart. coord. in units 2 pi/alat)
               b(1) = (  0.843083  0.000000  0.000000 )
               b(2) = (  0.000000  0.843083  0.000000 )
               b(3) = (  0.000000  0.000000  0.843083 )

     PseudoPot. # 1 for Ce read from file:
     /home/jld5415/pp.La/Ce.UPF
     MD5 check sum: 44451aa79a44a00cf2bc029dc19922f6
     Pseudo is Norm-conserving, Zval = 12.0
     Generated in analytical, separable form
     Using radial grid of 1255 points,  6 beta functions with:
                l(1) =   0
                l(2) =   0
                l(3) =   1
                l(4) =   1
                l(5) =   2
                l(6) =   3

     PseudoPot. # 2 for Sm read from file:
     /home/jld5415/pp.La/Sm.UPF
     MD5 check sum: 5079e8b144a06bfcdbc14fb02b96ab09
     Pseudo is Norm-conserving, Zval = 16.0
     Generated in analytical, separable form
     Using radial grid of 1259 points,  6 beta functions with:
                l(1) =   0
                l(2) =   0
                l(3) =   1
                l(4) =   1
                l(5) =   2
                l(6) =   3

     atomic species   valence    mass     pseudopotential
        Cr            12.00    51.99610     Ce( 1.00)
        Si            16.00    28.08550     Sm( 1.00)

     48 Sym. Ops., with inversion, found (24 have fractional translation)

   Cartesian axes

     site n.     atom                  positions (alat units)
         1           Cr  tau(   1) = (   0.0000000   0.5930614   0.2965307  )
         2           Cr  tau(   2) = (   0.0000000   0.5930614   0.8895920  )
         3           Cr  tau(   3) = (   0.5930614   0.8895920   0.0000000  )
         4           Cr  tau(   4) = (   0.5930614   0.2965307   0.0000000  )
         5           Cr  tau(   5) = (   0.8895920   0.0000000   0.5930614  )
         6           Cr  tau(   6) = (   0.2965307   0.0000000   0.5930614  )
         7           Si  tau(   7) = (   0.5930614   0.5930614   0.5930614  )
         8           Si  tau(   8) = (   0.0000000   0.0000000   0.0000000  )

     number of k points=    48  gaussian smearing, width (Ry)=  0.1000
                       cart. coord. in units 2pi/alat
        k(    1) = (   0.0000000   0.0000000   0.0000000), wk =   0.0095238
        k(    2) = (   0.0000000   0.0000000   0.1204404), wk =   0.0190476
        k(    3) = (   0.0000000   0.0000000   0.2408809), wk =   0.0190476
        k(    4) = (   0.0000000   0.0000000   0.3613213), wk =   0.0190476
        k(    5) = (   0.0000000   0.1405138   0.0000000), wk =   0.0190476
        k(    6) = (   0.0000000   0.1405138   0.1204404), wk =   0.0380952
        k(    7) = (   0.0000000   0.1405138   0.2408809), wk =   0.0380952
        k(    8) = (   0.0000000   0.1405138   0.3613213), wk =   0.0380952
        k(    9) = (   0.0000000   0.2810277   0.0000000), wk =   0.0190476
        k(   10) = (   0.0000000   0.2810277   0.1204404), wk =   0.0380952
        k(   11) = (   0.0000000   0.2810277   0.2408809), wk =   0.0380952
        k(   12) = (   0.0000000   0.2810277   0.3613213), wk =   0.0380952
        k(   13) = (   0.0000000  -0.4215415   0.0000000), wk =   0.0095238
        k(   14) = (   0.0000000  -0.4215415   0.1204404), wk =   0.0190476
        k(   15) = (   0.0000000  -0.4215415   0.2408809), wk =   0.0190476
        k(   16) = (   0.0000000  -0.4215415   0.3613213), wk =   0.0190476
        k(   17) = (   0.1686166   0.0000000   0.0000000), wk =   0.0190476
        k(   18) = (   0.1686166   0.0000000   0.1204404), wk =   0.0380952
        k(   19) = (   0.1686166   0.0000000   0.2408809), wk =   0.0380952
        k(   20) = (   0.1686166   0.0000000   0.3613213), wk =   0.0380952
        k(   21) = (   0.1686166   0.1405138   0.0000000), wk =   0.0380952
        k(   22) = (   0.1686166   0.1405138   0.1204404), wk =   0.0761905
        k(   23) = (   0.1686166   0.1405138   0.2408809), wk =   0.0761905
        k(   24) = (   0.1686166   0.1405138   0.3613213), wk =   0.0761905
        k(   25) = (   0.1686166   0.2810277   0.0000000), wk =   0.0380952
        k(   26) = (   0.1686166   0.2810277   0.1204404), wk =   0.0761905
        k(   27) = (   0.1686166   0.2810277   0.2408809), wk =   0.0761905
        k(   28) = (   0.1686166   0.2810277   0.3613213), wk =   0.0761905
        k(   29) = (   0.1686166  -0.4215415   0.0000000), wk =   0.0190476
        k(   30) = (   0.1686166  -0.4215415   0.1204404), wk =   0.0380952
        k(   31) = (   0.1686166  -0.4215415   0.2408809), wk =   0.0380952
        k(   32) = (   0.1686166  -0.4215415   0.3613213), wk =   0.0380952
        k(   33) = (   0.3372332   0.0000000   0.0000000), wk =   0.0190476
        k(   34) = (   0.3372332   0.0000000   0.1204404), wk =   0.0380952
        k(   35) = (   0.3372332   0.0000000   0.2408809), wk =   0.0380952
        k(   36) = (   0.3372332   0.0000000   0.3613213), wk =   0.0380952
        k(   37) = (   0.3372332   0.1405138   0.0000000), wk =   0.0380952
        k(   38) = (   0.3372332   0.1405138   0.1204404), wk =   0.0761905
        k(   39) = (   0.3372332   0.1405138   0.2408809), wk =   0.0761905
        k(   40) = (   0.3372332   0.1405138   0.3613213), wk =   0.0761905
        k(   41) = (   0.3372332   0.2810277   0.0000000), wk =   0.0380952
        k(   42) = (   0.3372332   0.2810277   0.1204404), wk =   0.0761905
        k(   43) = (   0.3372332   0.2810277   0.2408809), wk =   0.0761905
        k(   44) = (   0.3372332   0.2810277   0.3613213), wk =   0.0761905
        k(   45) = (   0.3372332  -0.4215415   0.0000000), wk =   0.0190476
        k(   46) = (   0.3372332  -0.4215415   0.1204404), wk =   0.0380952
        k(   47) = (   0.3372332  -0.4215415   0.2408809), wk =   0.0380952
        k(   48) = (   0.3372332  -0.4215415   0.3613213), wk =   0.0380952

     Largest allocated arrays     est. size (Mb)     dimensions
     Largest temporary arrays     est. size (Mb)     dimensions

     Initial potential from superposition of free atoms

     Starting from uniform charge
     Starting wfc are    0 randomized atomic wfcs

     Writing output data file Prototype-La-cP8-Cr3Si.save

     Self-consistent Calculation

[...]

     negative rho (up, down):  0.161E-03 0.000E+00

[...]

     iteration # 16     ecut=    40.00 Ry     beta=0.70
     CG style diagonalization
     c_bands:  1 eigenvalues not converged
     ethr =  9.78E-08,  avg # of iterations =  4.2

     total energy              =    -766.26282166 Ry
     Harris-Foulkes estimate   =    -766.26283314 Ry
     estimated scf accuracy    <       0.00003085 Ry

     iteration # 17     ecut=    40.00 Ry     beta=0.70
     CG style diagonalization
     ethr =  2.97E-08,  avg # of iterations =  3.6

     End of self-consistent calculation

[...]

          k = 0.3372-0.4215 0.3613 (  4442 PWs)   bands (ev):

   -33.3280 -33.3280 -13.8292 -13.7878 -13.6292 -13.6280 -13.4785 -13.4309
    -8.6137  -8.6131  -8.5977  -8.5973  -8.5798  -8.5775   2.9358   3.1175
     3.2246   3.2555   3.6435   3.6560   4.0158   4.0981   4.4957   4.5403
     4.7029   4.7250   4.9252   4.9354   4.9989   5.0146   5.0223   5.0871
    19.4261  19.4570  19.6429  19.6710  19.8782  20.0111  20.1646  20.1762
    20.2569  20.2799  21.6350  21.6538  22.0031  22.0034  22.5936  22.7421
    23.2820  23.2920  24.3769  24.3894  25.0187  25.0268  25.5777  25.6026
    26.4529  26.8065  27.1176  27.2053  27.4907  27.5026

     the Fermi energy is    24.1393 ev

!    total energy              =    -766.26282751 Ry
     Harris-Foulkes estimate   =    -766.26282763 Ry
     estimated scf accuracy    <       0.00000014 Ry

     The total energy is the sum of the following terms:

     one-electron contribution =      43.44307977 Ry
     hartree contribution      =      63.41622131 Ry
     xc contribution           =     -95.98290719 Ry
     ewald contribution        =    -776.68074782 Ry
     smearing contrib. (-TS)   =      -0.45847359 Ry

     convergence has been achieved in  17 iterations

     Forces acting on atoms (Ry/au):

     atom    1 type  1   force =     0.00000000    0.00000000    0.00000000
     atom    2 type  1   force =     0.00000000    0.00000000    0.00000000
     atom    3 type  1   force =     0.00000000    0.00000000    0.00000000
     atom    4 type  1   force =     0.00000000    0.00000000    0.00000000
     atom    5 type  1   force =     0.00000000    0.00000000    0.00000000
     atom    6 type  1   force =     0.00000000    0.00000000    0.00000000
     atom    7 type  2   force =     0.00000000    0.00000000    0.00000000
     atom    8 type  2   force =     0.00000000    0.00000000    0.00000000

     Total force =     0.000000     Total SCF correction =     0.000000

     entering subroutine stress ...

          total   stress  (Ry/bohr**3)                   (kbar)     P=  547.61
   0.00372256   0.00000000   0.00000000        547.61      0.00      0.00
   0.00000000   0.00372256   0.00000000          0.00    547.61      0.00
   0.00000000   0.00000000   0.00372256          0.00      0.00    547.61

     Writing output data file Prototype-La-cP8-Cr3Si.save

     General routines

     Parallel routines

   This run was terminated on:   0:59:36  22Mar2018

   JOB DONE.