     Program PWSCF v.5.0.2 starts on 23Mar2018 at 10:11:41

     Current dimensions of program PWSCF are:
     Max number of different atomic species (ntypx) = 10
     Max number of k-points (npk) =  40000
     Max angular momentum in pseudopotentials (lmaxx) =  3
     Waiting for input...
     Reading input from standard input

     bravais-lattice index     =            0
     lattice parameter (alat)  =       7.2815  a.u.
     unit-cell volume          =     272.9900 (a.u.)^3
     number of atoms/cell      =            1
     number of atomic types    =            1
     number of electrons       =        24.00
     number of Kohn-Sham states=           16
     kinetic-energy cutoff     =      60.0000  Ry
     charge density cutoff     =     240.0000  Ry
     convergence threshold     =      1.0E-06
     mixing beta               =       0.7000
     number of iterations used =            8  plain     mixing
     Exchange-correlation      = SLA-PZ-NOGX-NOGC ( 1 1 0 0 0)
     EXX-fraction              =        0.00
     nstep                     =           50

     celldm(1)=   7.281496  celldm(2)=   0.000000  celldm(3)=   0.000000
     celldm(4)=   0.000000  celldm(5)=   0.000000  celldm(6)=   0.000000

     crystal axes: (cart. coord. in units of alat)
               a(1) = (   1.000000   0.000000   0.000000 )
               a(2) = (   0.500000   0.866025   0.000000 )
               a(3) = (   0.500000   0.288675   0.816497 )

     reciprocal axes: (cart. coord. in units 2 pi/alat)
               b(1) = (  1.000000 -0.577350 -0.408248 )
               b(2) = (  0.000000  1.154701 -0.408248 )
               b(3) = (  0.000000  0.000000  1.224745 )

     PseudoPot. # 1 for Yb read from file:
     /home/cwx6513/pp.La/Yb.UPF
     MD5 check sum: 3e859b81cc28c53ec6aa3a2e888efcdf
     Pseudo is Norm-conserving, Zval = 24.0
     Generated in analytical, separable form
     Using radial grid of 1269 points,  6 beta functions with:
                l(1) =   0
                l(2) =   0
                l(3) =   1
                l(4) =   1
                l(5) =   2
                l(6) =   3

     atomic species   valence    mass     pseudopotential
        Yb            24.00   173.04000     Yb( 1.00)

     12 Sym. Ops., with inversion, found

   Cartesian axes

     site n.     atom                  positions (alat units)
         1           Yb  tau(   1) = (   0.0000000   0.0000000   0.0000000  )

     number of k points=   859  gaussian smearing, width (Ry)=  0.1000

     Number of k-points >= 100: set verbosity='high' to print them.

     Largest allocated arrays     est. size (Mb)     dimensions
     Largest temporary arrays     est. size (Mb)     dimensions

     Initial potential from superposition of free atoms

     Starting from uniform charge
     Starting wfc are    0 randomized atomic wfcs

     Self-consistent Calculation

     iteration #  1     ecut=    60.00 Ry     beta=0.70
     CG style diagonalization
     c_bands:  1 eigenvalues not converged
     c_bands:  1 eigenvalues not converged
     c_bands:  1 eigenvalues not converged
     c_bands:  1 eigenvalues not converged
     c_bands:  5 eigenvalues not converged
     c_bands:  5 eigenvalues not converged
     c_bands:  1 eigenvalues not converged
     c_bands:  1 eigenvalues not converged
     c_bands:  1 eigenvalues not converged
     c_bands:  1 eigenvalues not converged
     c_bands:  1 eigenvalues not converged
     c_bands:  1 eigenvalues not converged
     c_bands:  1 eigenvalues not converged
     c_bands:  1 eigenvalues not converged
     c_bands:  1 eigenvalues not converged
     c_bands:  1 eigenvalues not converged
     c_bands:  1 eigenvalues not converged
     c_bands:  1 eigenvalues not converged
     c_bands:  1 eigenvalues not converged
     c_bands:  1 eigenvalues not converged
     c_bands:  1 eigenvalues not converged
     c_bands:  1 eigenvalues not converged
     c_bands:  1 eigenvalues not converged
     c_bands:  1 eigenvalues not converged
     c_bands:  5 eigenvalues not converged
     c_bands:  1 eigenvalues not converged
     c_bands:  1 eigenvalues not converged
     c_bands:  1 eigenvalues not converged
     c_bands:  1 eigenvalues not converged
     c_bands:  1 eigenvalues not converged
     c_bands:  1 eigenvalues not converged
     c_bands:  1 eigenvalues not converged
     c_bands:  1 eigenvalues not converged
     c_bands:  5 eigenvalues not converged
     c_bands:  1 eigenvalues not converged
     c_bands:  5 eigenvalues not converged
     c_bands:  1 eigenvalues not converged
     c_bands:  1 eigenvalues not converged
     c_bands:  1 eigenvalues not converged
     c_bands:  1 eigenvalues not converged
     c_bands:  5 eigenvalues not converged
     c_bands:  5 eigenvalues not converged
     c_bands:  1 eigenvalues not converged
     c_bands:  5 eigenvalues not converged
     c_bands:  1 eigenvalues not converged
     c_bands:  1 eigenvalues not converged
     c_bands:  1 eigenvalues not converged
     c_bands:  1 eigenvalues not converged
     c_bands:  1 eigenvalues not converged
     c_bands:  1 eigenvalues not converged
     c_bands:  1 eigenvalues not converged
     c_bands:  1 eigenvalues not converged
     c_bands:  1 eigenvalues not converged
     c_bands:  1 eigenvalues not converged
     c_bands:  5 eigenvalues not converged
     c_bands:  1 eigenvalues not converged
     c_bands:  1 eigenvalues not converged
     c_bands:  1 eigenvalues not converged
     c_bands:  1 eigenvalues not converged
     c_bands:  1 eigenvalues not converged
     c_bands:  1 eigenvalues not converged
     c_bands:  5 eigenvalues not converged
     c_bands:  5 eigenvalues not converged
     c_bands:  1 eigenvalues not converged
     c_bands:  1 eigenvalues not converged
     c_bands:  1 eigenvalues not converged
     c_bands:  1 eigenvalues not converged
     c_bands:  1 eigenvalues not converged
     c_bands:  5 eigenvalues not converged
     c_bands:  1 eigenvalues not converged
     c_bands:  1 eigenvalues not converged
     c_bands:  1 eigenvalues not converged
     c_bands:  1 eigenvalues not converged
     ethr =  1.00E-02,  avg # of iterations = 22.1

     total energy              =    -360.34967801 Ry
     Harris-Foulkes estimate   =    -595.64341958 Ry
     estimated scf accuracy    <     291.79847168 Ry

     iteration #  2     ecut=    60.00 Ry     beta=0.70
     CG style diagonalization
     ethr =  1.00E-02,  avg # of iterations =  7.9

[...]

     negative rho (up, down):  0.327E-03 0.000E+00

[...]

     End of self-consistent calculation

     Number of k-points >= 100: set verbosity='high' to print the bands.

     the Fermi energy is    12.5367 ev

!    total energy              =    -410.07036292 Ry
     Harris-Foulkes estimate   =    -410.07036317 Ry
     estimated scf accuracy    <       0.00000031 Ry

     The total energy is the sum of the following terms:

     one-electron contribution =    -233.89981402 Ry
     hartree contribution      =     111.66959135 Ry
     xc contribution           =     -31.31326745 Ry
     ewald contribution        =    -256.45617391 Ry
     smearing contrib. (-TS)   =      -0.07069888 Ry

     convergence has been achieved in  10 iterations

     Forces acting on atoms (Ry/au):

     atom    1 type  1   force =     0.00000000    0.00000000    0.00000000

     Total force =     0.000000     Total SCF correction =     0.000000

     entering subroutine stress ...

          total   stress  (Ry/bohr**3)                   (kbar)     P= -136.75
  -0.00092961   0.00000000   0.00000000       -136.75      0.00      0.00
   0.00000000  -0.00092961   0.00000000          0.00   -136.75      0.00
   0.00000000   0.00000000  -0.00092958          0.00      0.00   -136.75

     BFGS Geometry Optimization

     number of scf cycles    =   1
     number of bfgs steps    =   0

     enthalpy new            =    -410.0703629233 Ry

     new trust radius        =       0.0767966984 bohr
     new conv_thr            =       0.0000010000 Ry

     new unit-cell volume =    254.39613 a.u.^3 (    37.69762 Ang^3 )

CELL_PARAMETERS (alat=  7.28149578)
   0.976759838   0.000000000   0.000000000
   0.488379919   0.845898833   0.000000000
   0.488379919   0.281966278   0.797521637

ATOMIC_POSITIONS (crystal)
Yb       0.000000000   0.000000000   0.000000000

     Writing output data file Element-Yb.q.save
     NEW-OLD atomic charge density approx. for the potential
     NEW k-points: (use verbosity='high' to print them)

[...]

     enthalpy old            =    -410.0703629233 Ry
     enthalpy new            =    -410.0880838247 Ry

     CASE: enthalpy_new < enthalpy_old

     WARNING: bfgs curvature condition failed, Theta= 0.624
     uphill step: resetting bfgs history

[...]

          total   stress  (Ry/bohr**3)                   (kbar)     P=-2778.64
  -0.01888400   0.00000000   0.00000000      -2777.93      0.00      0.00
   0.00000000  -0.01888400   0.00000000          0.00  -2777.93      0.00
   0.00000000   0.00000000  -0.01889837          0.00      0.00  -2780.05

[...]

     WARNING: bfgs curvature condition failed, Theta= 0.056
     new trust radius        =       0.1470259111 bohr
     new conv_thr            =       0.0000000100 Ry

[...]

     WARNING: bfgs curvature condition failed, Theta= 0.035
     new trust radius        =       0.4357010157 bohr
     new conv_thr            =       0.0000000100 Ry

[...]

     negative rho (up, down):  0.469E-07 0.000E+00

[...]

     CASE: enthalpy_new > enthalpy_old

[...]

     CASE: enthalpy_new < enthalpy_old

     small trust_radius: resetting bfgs history

     new trust radius        =       0.0100000000 bohr
     new conv_thr            =       0.0000000100 Ry

[...]

     number of scf cycles    =  13
     number of bfgs steps    =  10

     enthalpy old            =    -466.3933155781 Ry
     enthalpy new            =    -466.3902862670 Ry

     CASE: enthalpy_new > enthalpy_old

     new trust radius        =       0.0014721826 bohr

     trust_radius < trust_radius_min

     resetting bfgs history

     Message from routine bfgs:
     history already reset at previous step: stopping
     new conv_thr            =       0.0000000100 Ry

     new unit-cell volume =     48.89503 a.u.^3 (     7.24550 Ang^3 )

[...]

ATOMIC_POSITIONS (crystal)
Yb       0.000000000   0.000000000   0.000000000

     Writing output data file Element-Yb.q.save
     NEW-OLD atomic charge density approx. for the potential
     NEW k-points: (use verbosity='high' to print them)

[...]

          total   stress  (Ry/bohr**3)                   (kbar)     P=********
  -0.06744599   0.00000000   0.00000000      -9921.65      0.00      0.00
   0.00000000  -0.06744599   0.00000000          0.00  -9921.65      0.00
   0.00000000   0.00000000  -0.07927571          0.00      0.00 -11661.86

     The maximum number of steps has been reached.

     End of BFGS Geometry Optimization
Begin final coordinates
     new unit-cell volume =     48.89503 a.u.^3 (     7.24550 Ang^3 )

CELL_PARAMETERS (alat=  7.28149578)
   0.561395771   0.000000000   0.000000000
   0.280697886   0.486182999   0.000000000
   0.280697886   0.162061000   0.464017126

ATOMIC_POSITIONS (crystal)
Yb       0.000000000   0.000000000   0.000000000
End final coordinates

     A final scf calculation at the relaxed structure.
     The G-vectors are recalculated for the final unit cell
     Results may differ from those at the preceding step.

     bravais-lattice index     =            0
     lattice parameter (alat)  =       7.2815  a.u.
     unit-cell volume          =      48.8950 (a.u.)^3
     number of atoms/cell      =            1
     number of atomic types    =            1
     number of electrons       =        24.00
     number of Kohn-Sham states=           16
     kinetic-energy cutoff     =      60.0000  Ry
     charge density cutoff     =     240.0000  Ry
     convergence threshold     =      1.0E-08
     mixing beta               =       0.7000
     number of iterations used =            8  plain     mixing
     Exchange-correlation      = SLA-PZ-NOGX-NOGC ( 1 1 0 0 0)
     EXX-fraction              =        0.00

     celldm(1)=   7.281496  celldm(2)=   0.000000  celldm(3)=   0.000000
     celldm(4)=   0.000000  celldm(5)=   0.000000  celldm(6)=   0.000000

     crystal axes: (cart. coord. in units of alat)
               a(1) = (   0.561396   0.000000   0.000000 )
               a(2) = (   0.280698   0.486183   0.000000 )
               a(3) = (   0.280698   0.162061   0.464017 )

     reciprocal axes: (cart. coord. in units 2 pi/alat)
               b(1) = (  1.781275 -1.028419 -0.718364 )
               b(2) = (  0.000000  2.056839 -0.718364 )
               b(3) = (  0.000000  0.000000  2.155093 )

     PseudoPot. # 1 for Yb read from file:
     /home/cwx6513/pp.La/Yb.UPF
     MD5 check sum: 3e859b81cc28c53ec6aa3a2e888efcdf
     Pseudo is Norm-conserving, Zval = 24.0
     Generated in analytical, separable form
     Using radial grid of 1269 points,  6 beta functions with:
                l(1) =   0
                l(2) =   0
                l(3) =   1
                l(4) =   1
                l(5) =   2
                l(6) =   3

     atomic species   valence    mass     pseudopotential
        Yb            24.00   173.04000     Yb( 1.00)

     12 Sym. Ops., with inversion, found

   Cartesian axes

     site n.     atom                  positions (alat units)
         1           Yb  tau(   1) = (   0.0000000   0.0000000   0.0000000  )

     number of k points=   859  gaussian smearing, width (Ry)=  0.1000

     Number of k-points >= 100: set verbosity='high' to print them.

     Largest allocated arrays     est. size (Mb)     dimensions
     Largest temporary arrays     est. size (Mb)     dimensions

     Initial potential from superposition of free atoms

     Starting from uniform charge
     Starting wfc are    0 randomized atomic wfcs

     Writing output data file Element-Yb.q.save

     Self-consistent Calculation

[...]

     iteration #  7     ecut=    60.00 Ry     beta=0.70
     CG style diagonalization
     c_bands:  1 eigenvalues not converged
     c_bands:  1 eigenvalues not converged
     c_bands:  1 eigenvalues not converged
     c_bands:  1 eigenvalues not converged
     c_bands:  1 eigenvalues not converged
     c_bands:  1 eigenvalues not converged
     c_bands:  1 eigenvalues not converged
     c_bands:  1 eigenvalues not converged
     c_bands:  1 eigenvalues not converged
     c_bands:  1 eigenvalues not converged
     ethr =  3.12E-07,  avg # of iterations =  3.3

[...]

     total energy              =    -406.27416502 Ry
     Harris-Foulkes estimate   =    -406.27416503 Ry
     estimated scf accuracy    <       0.00000002 Ry

     iteration # 10     ecut=    60.00 Ry     beta=0.70
     CG style diagonalization
     ethr =  1.02E-10,  avg # of iterations =  3.8

     End of self-consistent calculation

     Number of k-points >= 100: set verbosity='high' to print the bands.

     the Fermi energy is    81.2730 ev

!    total energy              =    -406.27416502 Ry
     Harris-Foulkes estimate   =    -406.27416502 Ry
     estimated scf accuracy    <          5.9E-11 Ry

     The total energy is the sum of the following terms:

     one-electron contribution =      55.89489947 Ry
     hartree contribution      =      28.29945107 Ry
     xc contribution           =     -35.46878723 Ry
     ewald contribution        =    -454.95114369 Ry
     smearing contrib. (-TS)   =      -0.04858465 Ry

     convergence has been achieved in  10 iterations

     Forces acting on atoms (Ry/au):

     atom    1 type  1   force =     0.00000000    0.00000000    0.00000000

     Total force =     0.000000     Total SCF correction =     0.000000

     entering subroutine stress ...

          total   stress  (Ry/bohr**3)                   (kbar)     P= 8125.66
   0.05638648   0.00000000   0.00000000       8294.74      0.00      0.00
   0.00000000   0.05638648   0.00000000          0.00   8294.74      0.00
   0.00000000   0.00000000   0.05293849          0.00      0.00   7787.52

     Writing output data file Element-Yb.q.save

     General routines

     Parallel routines

   This run was terminated on:  11:29:11  23Mar2018

   JOB DONE.