     Program PWSCF v.5.0.2 starts on 22Mar2018 at  0:39:33

     Current dimensions of program PWSCF are:
     Max number of different atomic species (ntypx) = 10
     Max number of k-points (npk) =  40000
     Max angular momentum in pseudopotentials (lmaxx) =  3
     Waiting for input...
     Reading input from standard input

     Subspace diagonalization in iterative solution of the eigenvalue problem:
     a serial algorithm will be used

     bravais-lattice index     =            0
     lattice parameter (alat)  =       7.0151  a.u.
     unit-cell volume          =     862.2778 (a.u.)^3
     number of atoms/cell      =           12
     number of atomic types    =            2
     number of electrons       =       172.00
     number of Kohn-Sham states=          103
     kinetic-energy cutoff     =      40.0000  Ry
     charge density cutoff     =     160.0000  Ry
     convergence threshold     =      1.0E-04
     mixing beta               =       0.7000
     number of iterations used =            8  plain     mixing
     Exchange-correlation      = SLA-PZ-NOGX-NOGC ( 1 1 0 0 0)
     EXX-fraction              =        0.00
     nstep                     =           50

     celldm(1)=   7.015105  celldm(2)=   0.000000  celldm(3)=   0.000000
     celldm(4)=   0.000000  celldm(5)=   0.000000  celldm(6)=   0.000000

     crystal axes: (cart. coord. in units of alat)
               a(1) = (   1.000000   0.000000   0.000000 )
               a(2) = (   0.000000   1.315963   0.000000 )
               a(3) = (   0.000000   0.000000   1.898020 )

     reciprocal axes: (cart. coord. in units 2 pi/alat)
               b(1) = (  1.000000  0.000000  0.000000 )
               b(2) = (  0.000000  0.759900  0.000000 )
               b(3) = (  0.000000  0.000000  0.526865 )

     PseudoPot. # 1 for Ce read from file:
     /home/jld5415/pp.La/Ce.UPF
     MD5 check sum: 44451aa79a44a00cf2bc029dc19922f6
     Pseudo is Norm-conserving, Zval = 12.0
     Generated in analytical, separable form
     Using radial grid of 1255 points,  6 beta functions with:
                l(1) =   0
                l(2) =   0
                l(3) =   1
                l(4) =   1
                l(5) =   2
                l(6) =   3

     PseudoPot. # 2 for Tb read from file:
     /home/jld5415/pp.La/Tb.UPF
     MD5 check sum: 3d6088a3f0cf7fd2e110c43f7f8e95c2
     Pseudo is Norm-conserving, Zval = 19.0
     Generated in analytical, separable form
     Using radial grid of 1263 points,  6 beta functions with:
                l(1) =   0
                l(2) =   0
                l(3) =   1
                l(4) =   1
                l(5) =   2
                l(6) =   3

     atomic species   valence    mass     pseudopotential
        Co            12.00    58.93320     Ce( 1.00)
        Si            19.00    28.08550     Tb( 1.00)

      8 Sym. Ops., with inversion, found ( 6 have fractional translation)

   Cartesian axes

     site n.     atom                  positions (alat units)
         1           Co  tau(   1) = (   0.7500000   1.0875135   0.8270358  )
         2           Co  tau(   2) = (   0.2500000   0.2284499   1.0709846  )
         3           Co  tau(   3) = (   0.7500000   0.4295318   0.1219744  )
         4           Co  tau(   4) = (   0.2500000   0.8864316   1.7760460  )
         5           Co  tau(   5) = (   0.2500000   0.7067855   0.5358966  )
         6           Co  tau(   6) = (   0.7500000   0.6091779   1.3621238  )
         7           Co  tau(   7) = (   0.2500000   0.0488038   0.4131136  )
         8           Co  tau(   8) = (   0.7500000   1.2671596   1.4849068  )
         9           Si  tau(   9) = (   0.2500000   0.2669484   1.6960710  )
        10           Si  tau(  10) = (   0.7500000   1.0490149   0.2019494  )
        11           Si  tau(  11) = (   0.2500000   0.9249301   1.1509596  )
        12           Si  tau(  12) = (   0.7500000   0.3910333   0.7470608  )

     number of k points=    12  gaussian smearing, width (Ry)=  0.1000
                       cart. coord. in units 2pi/alat
        k(    1) = (   0.0000000   0.0000000   0.0000000), wk =   0.0833333
        k(    2) = (   0.0000000   0.0000000   0.1317162), wk =   0.1666667
        k(    3) = (   0.0000000   0.0000000  -0.2634324), wk =   0.0833333
        k(    4) = (   0.0000000   0.2532999   0.0000000), wk =   0.1666667
        k(    5) = (   0.0000000   0.2532999   0.1317162), wk =   0.3333333
        k(    6) = (   0.0000000   0.2532999  -0.2634324), wk =   0.1666667
        k(    7) = (  -0.5000000   0.0000000   0.0000000), wk =   0.0833333
        k(    8) = (  -0.5000000   0.0000000   0.1317162), wk =   0.1666667
        k(    9) = (  -0.5000000   0.0000000  -0.2634324), wk =   0.0833333
        k(   10) = (  -0.5000000   0.2532999   0.0000000), wk =   0.1666667
        k(   11) = (  -0.5000000   0.2532999   0.1317162), wk =   0.3333333
        k(   12) = (  -0.5000000   0.2532999  -0.2634324), wk =   0.1666667

     Largest allocated arrays     est. size (Mb)     dimensions
     Largest temporary arrays     est. size (Mb)     dimensions

     Initial potential from superposition of free atoms

     Starting from uniform charge
     Starting wfc are    0 randomized atomic wfcs

     Self-consistent Calculation

     iteration #  1     ecut=    40.00 Ry     beta=0.70
     CG style diagonalization
     ethr =  1.00E-02,  avg # of iterations = 16.8

     total energy              =    -846.18445272 Ry
     Harris-Foulkes estimate   =   -1794.17206395 Ry
     estimated scf accuracy    <    1146.78315385 Ry

     iteration #  2     ecut=    40.00 Ry     beta=0.70
     CG style diagonalization
     c_bands:  4 eigenvalues not converged
     c_bands:  3 eigenvalues not converged
     c_bands:  3 eigenvalues not converged
     c_bands:  3 eigenvalues not converged
     c_bands:  3 eigenvalues not converged
     c_bands:  2 eigenvalues not converged
     ethr =  1.00E-02,  avg # of iterations = 15.7

[...]

     End of self-consistent calculation

          k = 0.0000 0.0000 0.0000 (  3675 PWs)   bands (ev):

   -33.6590 -33.6281 -33.6224 -33.6092  -3.2744  -3.2734  -3.0570  -2.9927
    -2.9559  -2.9546  -2.8669  -2.8249  -2.7945  -2.6324  -2.3865  -2.3119
     3.3885   5.5300   6.0689   6.3817   7.0826   7.7952   7.8746   8.0957
    18.0572  18.7692  19.8888  19.9169  20.3948  20.5769  20.8654  21.8535
    21.9949  22.4863  22.8400  22.8474  23.1150  23.8705  23.9537  24.7262
    24.9996  25.0919  25.8073  26.4808  27.5129  27.9690  28.3537  29.1644
    30.7609  31.7477  32.4225  32.4739  32.4919  32.6781  33.1106  33.3462
    33.5921  34.3886  34.8257  35.0601  35.4788  36.8052  36.8698  37.0701
    37.6217  37.7306  37.7917  38.0957  38.2850  40.6978  40.9450  42.2275
    42.4958  42.7889  42.9985  43.1932  43.3877  43.4891  43.6155  44.4288
    44.5308  45.1441  45.9452  46.0238  46.1509  46.3127  46.4832  47.5845
    47.6118  47.7271  48.5812  49.1495  49.6063  49.8303  49.9446  50.3554
    50.7312  51.3626  51.9501  52.1444  52.2680  52.9217  52.9445

[...]

          k =-0.5000 0.0000 0.0000 (  3722 PWs)   bands (ev):

[...]

     the Fermi energy is    46.4390 ev

!    total energy              =   -1521.64887667 Ry
     Harris-Foulkes estimate   =   -1521.64887943 Ry
     estimated scf accuracy    <       0.00000369 Ry

     The total energy is the sum of the following terms:

     one-electron contribution =     308.39325486 Ry
     hartree contribution      =     109.32426011 Ry
     xc contribution           =    -186.45914215 Ry
     ewald contribution        =   -1752.52437797 Ry
     smearing contrib. (-TS)   =      -0.38287152 Ry

     convergence has been achieved in  11 iterations

     Forces acting on atoms (Ry/au):

     atom    1 type  1   force =     0.00000000   -0.05894070   -0.07123110
     atom    2 type  1   force =     0.00000000    0.05894070    0.07123110
     atom    3 type  1   force =     0.00000000   -0.05894070    0.07123110
     atom    4 type  1   force =     0.00000000    0.05894070   -0.07123110
     atom    5 type  1   force =     0.00000000    0.13958946   -0.28916911
     atom    6 type  1   force =     0.00000000   -0.13958946    0.28916911
     atom    7 type  1   force =     0.00000000    0.13958946    0.28916911
     atom    8 type  1   force =     0.00000000   -0.13958946   -0.28916911
     atom    9 type  2   force =     0.00000000   -0.16947613   -0.02766997
     atom   10 type  2   force =     0.00000000    0.16947613    0.02766997
     atom   11 type  2   force =     0.00000000   -0.16947613    0.02766997
     atom   12 type  2   force =     0.00000000    0.16947613   -0.02766997

     Total force =     0.751371     Total SCF correction =     0.000000

     entering subroutine stress ...

          total   stress  (Ry/bohr**3)                   (kbar)     P= 6495.91
   0.04911381   0.00000000   0.00000000       7224.89      0.00      0.00
   0.00000000   0.04013628   0.00000000          0.00   5904.25      0.00
   0.00000000   0.00000000   0.04322472          0.00      0.00   6358.58

     BFGS Geometry Optimization

     number of scf cycles    =   1
     number of bfgs steps    =   0

     enthalpy new            =   -1521.6488766654 Ry

     new trust radius        =       0.5000000000 bohr
     new conv_thr            =       0.0001000000 Ry

     new unit-cell volume =   1075.77662 a.u.^3 (   159.41365 Ang^3 )

CELL_PARAMETERS (alat=  7.01510508)
   1.085136619   0.000000000   0.000000000
   0.000000000   1.407520827   0.000000000
   0.000000000   0.000000000   2.040235545

ATOMIC_POSITIONS (crystal)
Co       0.750000000   0.825958299   0.435365057
Co       0.250000000   0.174041701   0.564634943
Co       0.750000000   0.325958299   0.064634943
Co       0.250000000   0.674041701   0.935365057
Co       0.250000000   0.538134449   0.280839123
Co       0.750000000   0.461865551   0.719160877
Co       0.250000000   0.038134449   0.219160877
Co       0.750000000   0.961865551   0.780839123
Si       0.250000000   0.201581074   0.893455906
Si       0.750000000   0.798418926   0.106544094
Si       0.250000000   0.701581074   0.606544094
Si       0.750000000   0.298418926   0.393455906

     Writing output data file Prototype-La-oP12-Co2Si.save
     NEW-OLD atomic charge density approx. for the potential
     NEW k-points:
        k(    1) = (   0.0000000   0.0000000   0.0000000), wk =   0.0833333
        k(    2) = (   0.0000000   0.0000000   0.1225349), wk =   0.1666667
        k(    3) = (   0.0000000   0.0000000  -0.2450697), wk =   0.0833333
        k(    4) = (   0.0000000   0.2368230   0.0000000), wk =   0.1666667
        k(    5) = (   0.0000000   0.2368230   0.1225349), wk =   0.3333333
        k(    6) = (   0.0000000   0.2368230  -0.2450697), wk =   0.1666667
        k(    7) = (  -0.4607715   0.0000000   0.0000000), wk =   0.0833333
        k(    8) = (  -0.4607715   0.0000000   0.1225349), wk =   0.1666667
        k(    9) = (  -0.4607715   0.0000000  -0.2450697), wk =   0.0833333
        k(   10) = (  -0.4607715   0.2368230   0.0000000), wk =   0.1666667
        k(   11) = (  -0.4607715   0.2368230   0.1225349), wk =   0.3333333
        k(   12) = (  -0.4607715   0.2368230  -0.2450697), wk =   0.1666667

[...]

     enthalpy old            =   -1521.6488766654 Ry
     enthalpy new            =   -1527.9451405079 Ry

     CASE: enthalpy_new < enthalpy_old

     small trust_radius: resetting bfgs history

     new trust radius        =       3.2213629086 bohr
     new conv_thr            =       0.0001000000 Ry

[...]

          total   stress  (Ry/bohr**3)                   (kbar)     P=-1277.09
  -0.00940981   0.00000000   0.00000000      -1384.23      0.00      0.00
   0.00000000  -0.00814587   0.00000000          0.00  -1198.30      0.00
   0.00000000   0.00000000  -0.00848874          0.00      0.00  -1248.74

     number of scf cycles    =   3
     number of bfgs steps    =   2

     enthalpy old            =   -1527.9451405079 Ry
     enthalpy new            =   -1518.7906240979 Ry

     CASE: enthalpy_new > enthalpy_old

     new trust radius        =       1.3761110080 bohr

     trust_radius < trust_radius_min

     resetting bfgs history

     Message from routine bfgs:
     history already reset at previous step: stopping
     new conv_thr            =       0.0001000000 Ry

     new unit-cell volume =   1264.95187 a.u.^3 (   187.44652 Ang^3 )

[...]

ATOMIC_POSITIONS (crystal)
Co       0.750000000   0.825517234   0.435250192
Co       0.250000000   0.174482766   0.564749808
Co       0.750000000   0.325517234   0.064749808
Co       0.250000000   0.674482766   0.935250192
Co       0.250000000   0.538772012   0.279819653
Co       0.750000000   0.461227988   0.720180347
Co       0.250000000   0.038772012   0.220180347
Co       0.750000000   0.961227988   0.779819653
Si       0.250000000   0.200527029   0.893542033
Si       0.750000000   0.799472971   0.106457967
Si       0.250000000   0.700527029   0.606457967
Si       0.750000000   0.299472971   0.393542033

     Writing output data file Prototype-La-oP12-Co2Si.save
     NEW-OLD atomic charge density approx. for the potential
     NEW k-points:
        k(    1) = (   0.0000000   0.0000000   0.0000000), wk =   0.0833333
        k(    2) = (   0.0000000   0.0000000   0.1163605), wk =   0.1666667
        k(    3) = (   0.0000000   0.0000000  -0.2327210), wk =   0.0833333
        k(    4) = (   0.0000000   0.2260241   0.0000000), wk =   0.1666667
        k(    5) = (   0.0000000   0.2260241   0.1163605), wk =   0.3333333
        k(    6) = (   0.0000000   0.2260241  -0.2327210), wk =   0.1666667
        k(    7) = (  -0.4323714   0.0000000   0.0000000), wk =   0.0833333
        k(    8) = (  -0.4323714   0.0000000   0.1163605), wk =   0.1666667
        k(    9) = (  -0.4323714   0.0000000  -0.2327210), wk =   0.0833333
        k(   10) = (  -0.4323714   0.2260241   0.0000000), wk =   0.1666667
        k(   11) = (  -0.4323714   0.2260241   0.1163605), wk =   0.3333333
        k(   12) = (  -0.4323714   0.2260241  -0.2327210), wk =   0.1666667

[...]

     The maximum number of steps has been reached.

     End of BFGS Geometry Optimization
Begin final coordinates
     new unit-cell volume =   1264.95187 a.u.^3 (   187.44652 Ang^3 )

CELL_PARAMETERS (alat=  7.01510508)
   1.156413115   0.000000000   0.000000000
   0.000000000   1.474769072   0.000000000
   0.000000000   0.000000000   2.148495400

ATOMIC_POSITIONS (crystal)
Co       0.750000000   0.825517234   0.435250192
Co       0.250000000   0.174482766   0.564749808
Co       0.750000000   0.325517234   0.064749808
Co       0.250000000   0.674482766   0.935250192
Co       0.250000000   0.538772012   0.279819653
Co       0.750000000   0.461227988   0.720180347
Co       0.250000000   0.038772012   0.220180347
Co       0.750000000   0.961227988   0.779819653
Si       0.250000000   0.200527029   0.893542033
Si       0.750000000   0.799472971   0.106457967
Si       0.250000000   0.700527029   0.606457967
Si       0.750000000   0.299472971   0.393542033
End final coordinates

     A final scf calculation at the relaxed structure.
     The G-vectors are recalculated for the final unit cell
     Results may differ from those at the preceding step.

     bravais-lattice index     =            0
     lattice parameter (alat)  =       7.0151  a.u.
     unit-cell volume          =    1264.9519 (a.u.)^3
     number of atoms/cell      =           12
     number of atomic types    =            2
     number of electrons       =       172.00
     number of Kohn-Sham states=          103
     kinetic-energy cutoff     =      40.0000  Ry
     charge density cutoff     =     160.0000  Ry
     convergence threshold     =      1.0E-04
     mixing beta               =       0.7000
     number of iterations used =            8  plain     mixing
     Exchange-correlation      = SLA-PZ-NOGX-NOGC ( 1 1 0 0 0)
     EXX-fraction              =        0.00

     celldm(1)=   7.015105  celldm(2)=   0.000000  celldm(3)=   0.000000
     celldm(4)=   0.000000  celldm(5)=   0.000000  celldm(6)=   0.000000

     crystal axes: (cart. coord. in units of alat)
               a(1) = (   1.156413   0.000000   0.000000 )
               a(2) = (   0.000000   1.474769   0.000000 )
               a(3) = (   0.000000   0.000000   2.148495 )

     reciprocal axes: (cart. coord. in units 2 pi/alat)
               b(1) = (  0.864743  0.000000  0.000000 )
               b(2) = (  0.000000  0.678072  0.000000 )
               b(3) = (  0.000000  0.000000  0.465442 )

     PseudoPot. # 1 for Ce read from file:
     /home/jld5415/pp.La/Ce.UPF
     MD5 check sum: 44451aa79a44a00cf2bc029dc19922f6
     Pseudo is Norm-conserving, Zval = 12.0
     Generated in analytical, separable form
     Using radial grid of 1255 points,  6 beta functions with:
                l(1) =   0
                l(2) =   0
                l(3) =   1
                l(4) =   1
                l(5) =   2
                l(6) =   3

     PseudoPot. # 2 for Tb read from file:
     /home/jld5415/pp.La/Tb.UPF
     MD5 check sum: 3d6088a3f0cf7fd2e110c43f7f8e95c2
     Pseudo is Norm-conserving, Zval = 19.0
     Generated in analytical, separable form
     Using radial grid of 1263 points,  6 beta functions with:
                l(1) =   0
                l(2) =   0
                l(3) =   1
                l(4) =   1
                l(5) =   2
                l(6) =   3

     atomic species   valence    mass     pseudopotential
        Co            12.00    58.93320     Ce( 1.00)
        Si            19.00    28.08550     Tb( 1.00)

      8 Sym. Ops., with inversion, found ( 6 have fractional translation)

   Cartesian axes

     site n.     atom                  positions (alat units)
         1           Co  tau(   1) = (   0.8673098   1.2174473   0.9351330  )
         2           Co  tau(   2) = (   0.2891033   0.2573218   1.2133624  )
         3           Co  tau(   3) = (   0.8673098   0.4800627   0.1391147  )
         4           Co  tau(   4) = (   0.2891033   0.9947063   2.0093807  )
         5           Co  tau(   5) = (   0.2891033   0.7945643   0.6011912  )
         6           Co  tau(   6) = (   0.8673098   0.6802048   1.5473042  )
         7           Co  tau(   7) = (   0.2891033   0.0571798   0.4730565  )
         8           Co  tau(   8) = (   0.8673098   1.4175893   1.6754389  )
         9           Si  tau(   9) = (   0.2891033   0.2957311   1.9197709  )
        10           Si  tau(  10) = (   0.8673098   1.1790380   0.2287245  )
        11           Si  tau(  11) = (   0.2891033   1.0331156   1.3029722  )
        12           Si  tau(  12) = (   0.8673098   0.4416535   0.8455232  )

     number of k points=    12  gaussian smearing, width (Ry)=  0.1000
                       cart. coord. in units 2pi/alat
        k(    1) = (   0.0000000   0.0000000   0.0000000), wk =   0.0833333
        k(    2) = (   0.0000000   0.0000000   0.1163605), wk =   0.1666667
        k(    3) = (   0.0000000   0.0000000  -0.2327210), wk =   0.0833333
        k(    4) = (   0.0000000   0.2260241   0.0000000), wk =   0.1666667
        k(    5) = (   0.0000000   0.2260241   0.1163605), wk =   0.3333333
        k(    6) = (   0.0000000   0.2260241  -0.2327210), wk =   0.1666667
        k(    7) = (  -0.4323714   0.0000000   0.0000000), wk =   0.0833333
        k(    8) = (  -0.4323714   0.0000000   0.1163605), wk =   0.1666667
        k(    9) = (  -0.4323714   0.0000000  -0.2327210), wk =   0.0833333
        k(   10) = (  -0.4323714   0.2260241   0.0000000), wk =   0.1666667
        k(   11) = (  -0.4323714   0.2260241   0.1163605), wk =   0.3333333
        k(   12) = (  -0.4323714   0.2260241  -0.2327210), wk =   0.1666667

     Largest allocated arrays     est. size (Mb)     dimensions
     Largest temporary arrays     est. size (Mb)     dimensions

     Initial potential from superposition of free atoms

     Starting from uniform charge
     Starting wfc are    0 randomized atomic wfcs

     Writing output data file Prototype-La-oP12-Co2Si.save

     Self-consistent Calculation

[...]

     iteration # 10     ecut=    40.00 Ry     beta=0.70
     CG style diagonalization
     c_bands:  1 eigenvalues not converged
     ethr =  4.00E-06,  avg # of iterations =  5.0

     total energy              =   -1532.22661632 Ry
     Harris-Foulkes estimate   =   -1532.22867766 Ry
     estimated scf accuracy    <       0.00369206 Ry

     iteration # 11     ecut=    40.00 Ry     beta=0.70
     CG style diagonalization
     ethr =  2.15E-06,  avg # of iterations =  3.6

     End of self-consistent calculation

[...]

          k = 0.0000 0.2260-0.2327 (  5410 PWs)   bands (ev):

[...]

          k =-0.4324 0.2260-0.2327 (  5432 PWs)   bands (ev):

   -46.3109 -46.3109 -46.3108 -46.3108 -15.0110 -15.0110 -14.9843 -14.9843
   -14.9312 -14.9312 -14.9270 -14.9270 -14.7553 -14.7553 -14.7424 -14.7424
    -7.1842  -7.1842  -6.9900  -6.9900  -6.7872  -6.7872  -6.5752  -6.5752
     8.3148   8.3148   8.7970   8.7970   9.0222   9.0222   9.3279   9.3279
     9.4231   9.4231  10.5820  10.5820  11.0961  11.0961  11.4442  11.4442
    11.8320  11.8320  11.8423  11.8423  12.2569  12.2569  12.4312  12.4312
    21.4137  21.4137  21.6863  21.6863  22.0440  22.0440  22.2116  22.2116
    22.5855  22.5855  22.7914  22.7914  23.1162  23.1162  23.1462  23.1462
    23.4419  23.4419  23.5761  23.5761  26.2948  26.2948  27.3562  27.3562
    28.4091  28.4092  28.6007  28.6007  28.6334  28.6334  29.1339  29.1339
    29.2737  29.2737  30.2929  30.2929  30.5444  30.5444  31.2510  31.2510
    31.4734  31.4734  32.2195  32.2195  32.4887  32.4886  33.5542  33.5543
    33.6201  33.6202  34.0550  34.0551  34.8153  34.8153  36.0035

     the Fermi energy is    31.0648 ev

!    total energy              =   -1532.22743796 Ry
     Harris-Foulkes estimate   =   -1532.22744891 Ry
     estimated scf accuracy    <       0.00001476 Ry

     The total energy is the sum of the following terms:

     one-electron contribution =      26.85936468 Ry
     hartree contribution      =     160.93136886 Ry
     xc contribution           =    -176.17202972 Ry
     ewald contribution        =   -1543.31381959 Ry
     smearing contrib. (-TS)   =      -0.53232219 Ry

     convergence has been achieved in  11 iterations

     Forces acting on atoms (Ry/au):

     atom    1 type  1   force =     0.00000000   -0.04186729   -0.00146217
     atom    2 type  1   force =     0.00000000    0.04186729    0.00146217
     atom    3 type  1   force =     0.00000000   -0.04186729    0.00146217
     atom    4 type  1   force =     0.00000000    0.04186729   -0.00146217
     atom    5 type  1   force =     0.00000000    0.03987678   -0.10212497
     atom    6 type  1   force =     0.00000000   -0.03987678    0.10212497
     atom    7 type  1   force =     0.00000000    0.03987678    0.10212497
     atom    8 type  1   force =     0.00000000   -0.03987678   -0.10212497
     atom    9 type  2   force =     0.00000000   -0.08723296    0.01719865
     atom   10 type  2   force =     0.00000000    0.08723296   -0.01719865
     atom   11 type  2   force =     0.00000000   -0.08723296   -0.01719865
     atom   12 type  2   force =     0.00000000    0.08723296    0.01719865

     Total force =     0.294483     Total SCF correction =     0.000000

     entering subroutine stress ...

          total   stress  (Ry/bohr**3)                   (kbar)     P= 1445.70
   0.01081055   0.00000000   0.00000000       1590.29      0.00      0.00
   0.00000000   0.00912840   0.00000000          0.00   1342.83      0.00
   0.00000000   0.00000000   0.00954396          0.00      0.00   1403.96

     Writing output data file Prototype-La-oP12-Co2Si.save

     General routines

     Parallel routines

   This run was terminated on:   0:57:40  22Mar2018

   JOB DONE.