     Program PWSCF v.5.0.2 starts on 22Mar2018 at  0:39:33

     Current dimensions of program PWSCF are:
     Max number of different atomic species (ntypx) = 10
     Max number of k-points (npk) =  40000
     Max angular momentum in pseudopotentials (lmaxx) =  3
     Waiting for input...
     Reading input from standard input

     Subspace diagonalization in iterative solution of the eigenvalue problem:
     a serial algorithm will be used

     bravais-lattice index     =            0
     lattice parameter (alat)  =       9.9235  a.u.
     unit-cell volume          =    1361.0366 (a.u.)^3
     number of atoms/cell      =           12
     number of atomic types    =            2
     number of electrons       =       200.00
     number of Kohn-Sham states=          120
     kinetic-energy cutoff     =      40.0000  Ry
     charge density cutoff     =     160.0000  Ry
     convergence threshold     =      1.0E-04
     mixing beta               =       0.7000
     number of iterations used =            8  plain     mixing
     Exchange-correlation      = SLA-PZ-NOGX-NOGC ( 1 1 0 0 0)
     EXX-fraction              =        0.00
     nstep                     =           50

     celldm(1)=   9.923489  celldm(2)=   0.000000  celldm(3)=   0.000000
     celldm(4)=   0.000000  celldm(5)=   0.000000  celldm(6)=   0.000000

     crystal axes: (cart. coord. in units of alat)
               a(1) = (   1.000000   0.000000   0.000000 )
               a(2) = (  -0.500000   0.866025   0.000000 )
               a(3) = (   0.000000   0.000000   1.608222 )

     reciprocal axes: (cart. coord. in units 2 pi/alat)
               b(1) = (  1.000000  0.577350  0.000000 )
               b(2) = (  0.000000  1.154701  0.000000 )
               b(3) = (  0.000000  0.000000  0.621805 )

     PseudoPot. # 1 for Ce read from file:
     /home/jld5415/pp.La/Ce.UPF
     MD5 check sum: 44451aa79a44a00cf2bc029dc19922f6
     Pseudo is Norm-conserving, Zval = 12.0
     Generated in analytical, separable form
     Using radial grid of 1255 points,  6 beta functions with:
                l(1) =   0
                l(2) =   0
                l(3) =   1
                l(4) =   1
                l(5) =   2
                l(6) =   3

     PseudoPot. # 2 for Tb read from file:
     /home/jld5415/pp.La/Tb.UPF
     MD5 check sum: 3d6088a3f0cf7fd2e110c43f7f8e95c2
     Pseudo is Norm-conserving, Zval = 19.0
     Generated in analytical, separable form
     Using radial grid of 1263 points,  6 beta functions with:
                l(1) =   0
                l(2) =   0
                l(3) =   1
                l(4) =   1
                l(5) =   2
                l(6) =   3

     atomic species   valence    mass     pseudopotential
        Mg            12.00    24.30500     Ce( 1.00)
        Zn            19.00    65.39000     Tb( 1.00)

     24 Sym. Ops., with inversion, found (12 have fractional translation)

   Cartesian axes

     site n.     atom                  positions (alat units)
         1           Mg  tau(   1) = (  -0.0000005   0.5773506   0.1003820  )
         2           Mg  tau(   2) = (   0.5000005   0.2886748   0.9044931  )
         3           Mg  tau(   3) = (   0.5000005   0.2886748   1.5078402  )
         4           Mg  tau(   4) = (  -0.0000005   0.5773506   0.7037291  )
         5           Zn  tau(   5) = (   0.0000000   0.0000000   0.0000000  )
         6           Zn  tau(   6) = (   0.0000000   0.0000000   0.8041111  )
         7           Zn  tau(   7) = (   0.0000000   0.2950739   1.2061667  )
         8           Zn  tau(   8) = (   0.7444585   0.1475370   0.4020556  )
         9           Zn  tau(   9) = (   0.2555415   0.1475370   0.4020556  )
        10           Zn  tau(  10) = (   0.2444585   0.7184884   1.2061667  )
        11           Zn  tau(  11) = (  -0.2444585   0.7184884   1.2061667  )
        12           Zn  tau(  12) = (   0.5000000   0.5709515   0.4020556  )

     number of k points=    12  gaussian smearing, width (Ry)=  0.1000
                       cart. coord. in units 2pi/alat
        k(    1) = (   0.0000000   0.0000000   0.0000000), wk =   0.0833333
        k(    2) = (   0.0000000   0.0000000   0.1554512), wk =   0.1666667
        k(    3) = (   0.0000000   0.0000000  -0.3109023), wk =   0.0833333
        k(    4) = (   0.0000000   0.3849002   0.0000000), wk =   0.1666667
        k(    5) = (   0.0000000   0.3849002   0.1554512), wk =   0.3333333
        k(    6) = (   0.0000000   0.3849002  -0.3109023), wk =   0.1666667
        k(    7) = (  -0.5000000  -0.2886751   0.0000000), wk =   0.0833333
        k(    8) = (  -0.5000000  -0.2886751   0.1554512), wk =   0.1666667
        k(    9) = (  -0.5000000  -0.2886751  -0.3109023), wk =   0.0833333
        k(   10) = (  -0.5000000   0.0962250   0.0000000), wk =   0.1666667
        k(   11) = (  -0.5000000   0.0962250   0.1554512), wk =   0.3333333
        k(   12) = (  -0.5000000   0.0962250  -0.3109023), wk =   0.1666667

     Largest allocated arrays     est. size (Mb)     dimensions
     Largest temporary arrays     est. size (Mb)     dimensions

     Initial potential from superposition of free atoms

     Starting from uniform charge
     Starting wfc are    0 randomized atomic wfcs

     Self-consistent Calculation

     iteration #  1     ecut=    40.00 Ry     beta=0.70
     CG style diagonalization
     c_bands:  1 eigenvalues not converged
     ethr =  1.00E-02,  avg # of iterations = 20.0

     total energy              =   -1476.61349806 Ry
     Harris-Foulkes estimate   =   -2825.32081744 Ry
     estimated scf accuracy    <    1634.19637780 Ry

     iteration #  2     ecut=    40.00 Ry     beta=0.70
     CG style diagonalization
     ethr =  1.00E-02,  avg # of iterations = 19.3

[...]

     End of self-consistent calculation

          k = 0.0000 0.0000 0.0000 (  5769 PWs)   bands (ev):

   -47.1410 -47.1004 -46.8661 -46.8661 -46.8626 -46.8626 -46.8042 -46.7451
   -17.0743 -16.7878 -16.2703 -15.9274 -15.9274 -15.8694 -15.8694 -15.7140
   -15.7140 -15.5409 -15.2930 -15.2929 -15.2508 -15.1828 -15.1828 -14.8277
   -14.8115 -14.7702 -14.7702 -14.7391 -14.7391 -14.7306 -14.6840 -14.6840
    -8.2838  -8.1189  -7.9293  -7.7862   9.0218   9.0403   9.0981   9.0981
     9.1002   9.1003  10.1646  10.1801  10.2038  10.2038  10.2935  10.2935
    16.4158  17.1567  17.7107  18.5122  18.5122  18.9253  18.9254  19.4392
    19.5562  19.5562  19.8245  19.8245  20.4558  20.5113  20.7833  20.7833
    21.0298  21.8184  21.8184  22.3525  22.3525  22.5009  22.8800  22.9180
    22.9180  23.8274  23.8832  23.8838  23.8838  23.9095  23.9095  23.9475
    23.9475  24.0192  24.3602  24.3602  25.4643  25.5693  25.5693  26.5240
    26.5240  27.2958  27.2958  27.4252  27.7772  27.7773  27.8632  27.8680
    28.5253  28.5254  29.0236  29.0528  29.6502  29.6502  30.2944  30.2944
    30.9025  30.9025  32.2968  32.5867  33.4752  34.0805  34.0805  34.2123
    34.2124  36.3723  36.3724  36.3771  36.3773  36.5480  36.8370  37.2046

[...]

          k =-0.5000-0.2887 0.0000 (  5800 PWs)   bands (ev):

[...]

     the Fermi energy is    29.8029 ev

!    total energy              =   -2142.20609361 Ry
     Harris-Foulkes estimate   =   -2142.20611229 Ry
     estimated scf accuracy    <       0.00001478 Ry

     The total energy is the sum of the following terms:

     one-electron contribution =    -270.65604392 Ry
     hartree contribution      =     320.28341195 Ry
     xc contribution           =    -221.13272269 Ry
     ewald contribution        =   -1970.20225182 Ry
     smearing contrib. (-TS)   =      -0.49848713 Ry

     convergence has been achieved in  11 iterations

     Forces acting on atoms (Ry/au):

     atom    1 type  1   force =     0.00000000    0.00000000   -0.00184064
     atom    2 type  1   force =     0.00000000    0.00000000   -0.00184064
     atom    3 type  1   force =     0.00000000    0.00000000    0.00184064
     atom    4 type  1   force =     0.00000000    0.00000000    0.00184064
     atom    5 type  2   force =     0.00000000    0.00000000    0.00000000
     atom    6 type  2   force =     0.00000000    0.00000000    0.00000000
     atom    7 type  2   force =     0.00000000    0.04862064    0.00000000
     atom    8 type  2   force =    -0.04210671    0.02431032    0.00000000
     atom    9 type  2   force =     0.04210671    0.02431032    0.00000000
     atom   10 type  2   force =    -0.04210671   -0.02431032    0.00000000
     atom   11 type  2   force =     0.04210671   -0.02431032    0.00000000
     atom   12 type  2   force =     0.00000000   -0.04862064    0.00000000

     Total force =     0.119153     Total SCF correction =     0.000000

     entering subroutine stress ...

          total   stress  (Ry/bohr**3)                   (kbar)     P=  848.04
   0.00568063   0.00000000   0.00000000        835.65      0.00      0.00
   0.00000000   0.00568063   0.00000000          0.00    835.65      0.00
   0.00000000   0.00000000   0.00593329          0.00      0.00    872.82

     BFGS Geometry Optimization

     number of scf cycles    =   1
     number of bfgs steps    =   0

     enthalpy new            =   -2142.2060936123 Ry

     new trust radius        =       0.5000000000 bohr
     new conv_thr            =       0.0001000000 Ry

     new unit-cell volume =   1647.95833 a.u.^3 (   244.20223 Ang^3 )

CELL_PARAMETERS (alat=  9.92348860)
   1.064879277   0.000000000   0.000000000
  -0.532439638   0.922212506   0.000000000
   0.000000000   0.000000000   1.717203317

ATOMIC_POSITIONS (crystal)
Mg       0.333333000   0.666667000   0.062365310
Mg       0.666667000   0.333333000   0.562365310
Mg       0.666667000   0.333333000   0.937634690
Mg       0.333333000   0.666667000   0.437634690
Zn       0.000000000   0.000000000   0.000000000
Zn       0.000000000   0.000000000   0.500000000
Zn       0.171653304   0.343306609   0.750000000
Zn       0.828346696   0.171653304   0.250000000
Zn       0.343306609   0.171653304   0.250000000
Zn       0.656693391   0.828346696   0.750000000
Zn       0.171653304   0.828346696   0.750000000
Zn       0.828346696   0.656693391   0.250000000

     Writing output data file Prototype-La-hP12-MgZn2.save
     NEW-OLD atomic charge density approx. for the potential
     NEW k-points:
        k(    1) = (   0.0000000   0.0000000   0.0000000), wk =   0.0833333
        k(    2) = (   0.0000000   0.0000000   0.1455856), wk =   0.1666667
        k(    3) = (   0.0000000   0.0000000  -0.2911711), wk =   0.0833333
        k(    4) = (   0.0000000   0.3614496   0.0000000), wk =   0.1666667
        k(    5) = (   0.0000000   0.3614496   0.1455856), wk =   0.3333333
        k(    6) = (   0.0000000   0.3614496  -0.2911711), wk =   0.1666667
        k(    7) = (  -0.4695368  -0.2710872   0.0000000), wk =   0.0833333
        k(    8) = (  -0.4695368  -0.2710872   0.1455856), wk =   0.1666667
        k(    9) = (  -0.4695368  -0.2710872  -0.2911711), wk =   0.0833333
        k(   10) = (  -0.4695368   0.0903624   0.0000000), wk =   0.1666667
        k(   11) = (  -0.4695368   0.0903624   0.1455856), wk =   0.3333333
        k(   12) = (  -0.4695368   0.0903624  -0.2911711), wk =   0.1666667

[...]

     enthalpy old            =   -2142.2060936123 Ry
     enthalpy new            =   -2142.6613498953 Ry

     CASE: enthalpy_new < enthalpy_old

     small trust_radius: resetting bfgs history

     new trust radius        =       0.3380251364 bohr
     new conv_thr            =       0.0000391410 Ry

[...]

     number of scf cycles    =   3
     number of bfgs steps    =   2

     enthalpy old            =   -2142.6613498953 Ry
     enthalpy new            =   -2142.5923545011 Ry

     CASE: enthalpy_new > enthalpy_old

     new trust radius        =       0.1375079370 bohr

     trust_radius < trust_radius_min

     resetting bfgs history

     Message from routine bfgs:
     history already reset at previous step: stopping
     new conv_thr            =       0.0000391410 Ry

     new unit-cell volume =   1447.10320 a.u.^3 (   214.43857 Ang^3 )

[...]

ATOMIC_POSITIONS (crystal)
Mg       0.333333000   0.666667000   0.062394809
Mg       0.666667000   0.333333000   0.562394809
Mg       0.666667000   0.333333000   0.937605191
Mg       0.333333000   0.666667000   0.437605191
Zn       0.000000000   0.000000000   0.000000000
Zn       0.000000000   0.000000000   0.500000000
Zn       0.169331948   0.338663897   0.750000000
Zn       0.830668052   0.169331948   0.250000000
Zn       0.338663897   0.169331948   0.250000000
Zn       0.661336103   0.830668052   0.750000000
Zn       0.169331948   0.830668052   0.750000000
Zn       0.830668052   0.661336103   0.250000000

     Writing output data file Prototype-La-hP12-MgZn2.save
     NEW-OLD atomic charge density approx. for the potential
     NEW k-points:
        k(    1) = (   0.0000000   0.0000000   0.0000000), wk =   0.0833333
        k(    2) = (   0.0000000   0.0000000   0.1521767), wk =   0.1666667
        k(    3) = (   0.0000000   0.0000000  -0.3043534), wk =   0.0833333
        k(    4) = (   0.0000000   0.3772734   0.0000000), wk =   0.1666667
        k(    5) = (   0.0000000   0.3772734   0.1521767), wk =   0.3333333
        k(    6) = (   0.0000000   0.3772734  -0.3043534), wk =   0.1666667
        k(    7) = (  -0.4900925  -0.2829550   0.0000000), wk =   0.0833333
        k(    8) = (  -0.4900925  -0.2829550   0.1521767), wk =   0.1666667
        k(    9) = (  -0.4900925  -0.2829550  -0.3043534), wk =   0.0833333
        k(   10) = (  -0.4900925   0.0943183   0.0000000), wk =   0.1666667
        k(   11) = (  -0.4900925   0.0943183   0.1521767), wk =   0.3333333
        k(   12) = (  -0.4900925   0.0943183  -0.3043534), wk =   0.1666667

[...]

     The maximum number of steps has been reached.

     End of BFGS Geometry Optimization
Begin final coordinates
     new unit-cell volume =   1447.10320 a.u.^3 (   214.43857 Ang^3 )

CELL_PARAMETERS (alat=  9.92348860)
   1.020215571   0.000000000   0.000000000
  -0.510107785   0.883532601   0.000000000
   0.000000000   0.000000000   1.642827072

ATOMIC_POSITIONS (crystal)
Mg       0.333333000   0.666667000   0.062394809
Mg       0.666667000   0.333333000   0.562394809
Mg       0.666667000   0.333333000   0.937605191
Mg       0.333333000   0.666667000   0.437605191
Zn       0.000000000   0.000000000   0.000000000
Zn       0.000000000   0.000000000   0.500000000
Zn       0.169331948   0.338663897   0.750000000
Zn       0.830668052   0.169331948   0.250000000
Zn       0.338663897   0.169331948   0.250000000
Zn       0.661336103   0.830668052   0.750000000
Zn       0.169331948   0.830668052   0.750000000
Zn       0.830668052   0.661336103   0.250000000
End final coordinates

     A final scf calculation at the relaxed structure.
     The G-vectors are recalculated for the final unit cell
     Results may differ from those at the preceding step.

     bravais-lattice index     =            0
     lattice parameter (alat)  =       9.9235  a.u.
     unit-cell volume          =    1447.1032 (a.u.)^3
     number of atoms/cell      =           12
     number of atomic types    =            2
     number of electrons       =       200.00
     number of Kohn-Sham states=          120
     kinetic-energy cutoff     =      40.0000  Ry
     charge density cutoff     =     160.0000  Ry
     convergence threshold     =      3.9E-05
     mixing beta               =       0.7000
     number of iterations used =            8  plain     mixing
     Exchange-correlation      = SLA-PZ-NOGX-NOGC ( 1 1 0 0 0)
     EXX-fraction              =        0.00

     celldm(1)=   9.923489  celldm(2)=   0.000000  celldm(3)=   0.000000
     celldm(4)=   0.000000  celldm(5)=   0.000000  celldm(6)=   0.000000

     crystal axes: (cart. coord. in units of alat)
               a(1) = (   1.020216   0.000000   0.000000 )
               a(2) = (  -0.510108   0.883533   0.000000 )
               a(3) = (   0.000000   0.000000   1.642827 )

     reciprocal axes: (cart. coord. in units 2 pi/alat)
               b(1) = (  0.980185  0.565910  0.000000 )
               b(2) = (  0.000000  1.131820  0.000000 )
               b(3) = (  0.000000  0.000000  0.608707 )

     PseudoPot. # 1 for Ce read from file:
     /home/jld5415/pp.La/Ce.UPF
     MD5 check sum: 44451aa79a44a00cf2bc029dc19922f6
     Pseudo is Norm-conserving, Zval = 12.0
     Generated in analytical, separable form
     Using radial grid of 1255 points,  6 beta functions with:
                l(1) =   0
                l(2) =   0
                l(3) =   1
                l(4) =   1
                l(5) =   2
                l(6) =   3

     PseudoPot. # 2 for Tb read from file:
     /home/jld5415/pp.La/Tb.UPF
     MD5 check sum: 3d6088a3f0cf7fd2e110c43f7f8e95c2
     Pseudo is Norm-conserving, Zval = 19.0
     Generated in analytical, separable form
     Using radial grid of 1263 points,  6 beta functions with:
                l(1) =   0
                l(2) =   0
                l(3) =   1
                l(4) =   1
                l(5) =   2
                l(6) =   3

     atomic species   valence    mass     pseudopotential
        Mg            12.00    24.30500     Ce( 1.00)
        Zn            19.00    65.39000     Tb( 1.00)

     24 Sym. Ops., with inversion, found (12 have fractional translation)

   Cartesian axes

     site n.     atom                  positions (alat units)
         1           Mg  tau(   1) = (  -0.0000005   0.5890220   0.1025039  )
         2           Mg  tau(   2) = (   0.5101083   0.2945106   0.9239174  )
         3           Mg  tau(   3) = (   0.5101083   0.2945106   1.5403232  )
         4           Mg  tau(   4) = (  -0.0000005   0.5890220   0.7189097  )
         5           Zn  tau(   5) = (   0.0000000   0.0000000   0.0000000  )
         6           Zn  tau(   6) = (   0.0000000   0.0000000   0.8214135  )
         7           Zn  tau(   7) = (   0.0000000   0.2992206   1.2321203  )
         8           Zn  tau(   8) = (   0.7610829   0.1496103   0.4107068  )
         9           Zn  tau(   9) = (   0.2591326   0.1496103   0.4107068  )
        10           Zn  tau(  10) = (   0.2509751   0.7339223   1.2321203  )
        11           Zn  tau(  11) = (  -0.2509751   0.7339223   1.2321203  )
        12           Zn  tau(  12) = (   0.5101078   0.5843120   0.4107068  )

     number of k points=    12  gaussian smearing, width (Ry)=  0.1000
                       cart. coord. in units 2pi/alat
        k(    1) = (   0.0000000   0.0000000   0.0000000), wk =   0.0833333
        k(    2) = (   0.0000000   0.0000000   0.1521767), wk =   0.1666667
        k(    3) = (   0.0000000   0.0000000  -0.3043534), wk =   0.0833333
        k(    4) = (   0.0000000   0.3772734   0.0000000), wk =   0.1666667
        k(    5) = (   0.0000000   0.3772734   0.1521767), wk =   0.3333333
        k(    6) = (   0.0000000   0.3772734  -0.3043534), wk =   0.1666667
        k(    7) = (  -0.4900925  -0.2829550   0.0000000), wk =   0.0833333
        k(    8) = (  -0.4900925  -0.2829550   0.1521767), wk =   0.1666667
        k(    9) = (  -0.4900925  -0.2829550  -0.3043534), wk =   0.0833333
        k(   10) = (  -0.4900925   0.0943183   0.0000000), wk =   0.1666667
        k(   11) = (  -0.4900925   0.0943183   0.1521767), wk =   0.3333333
        k(   12) = (  -0.4900925   0.0943183  -0.3043534), wk =   0.1666667

     Largest allocated arrays     est. size (Mb)     dimensions
     Largest temporary arrays     est. size (Mb)     dimensions

     Initial potential from superposition of free atoms

     Starting from uniform charge
     Starting wfc are    0 randomized atomic wfcs

     Writing output data file Prototype-La-hP12-MgZn2.save

     Self-consistent Calculation

[...]

     iteration #  9     ecut=    40.00 Ry     beta=0.70
     CG style diagonalization
     ethr =  2.90E-05,  avg # of iterations =  3.2

[...]

     total energy              =   -2142.96202554 Ry
     Harris-Foulkes estimate   =   -2142.96234748 Ry
     estimated scf accuracy    <       0.00067788 Ry

     iteration # 11     ecut=    40.00 Ry     beta=0.70
     CG style diagonalization
     c_bands:  2 eigenvalues not converged
     c_bands:  1 eigenvalues not converged
     ethr =  3.39E-07,  avg # of iterations =  3.8

     End of self-consistent calculation

[...]

          k = 0.0000 0.3773-0.3044 (  6174 PWs)   bands (ev):

[...]

          k =-0.4901 0.0943-0.3044 (  6180 PWs)   bands (ev):

   -48.7130 -48.7130 -48.6518 -48.6518 -48.5780 -48.5780 -48.4944 -48.4944
   -17.9857 -17.9856 -17.6156 -17.6156 -17.3470 -17.3470 -17.2888 -17.2888
   -17.2119 -17.2119 -17.1378 -17.1378 -17.0278 -17.0278 -16.8511 -16.8511
   -16.7032 -16.7032 -16.6417 -16.6417 -16.5511 -16.5511 -16.5203 -16.5203
   -10.1562 -10.1561 -10.0274 -10.0273   7.1152   7.1152   7.1570   7.1571
     7.4690   7.4691   7.9458   7.9458   8.2887   8.2887   8.3296   8.3296
    16.7588  16.7588  17.7030  17.7030  18.0197  18.0197  18.3106  18.3106
    18.5215  18.5215  18.7942  18.7943  19.2841  19.2841  19.3904  19.3904
    19.8309  19.8309  19.9959  19.9959  20.2139  20.2139  20.5941  20.5941
    20.8970  20.8970  21.3083  21.3084  21.5936  21.5936  21.8601  21.8602
    22.0860  22.0860  22.2398  22.2398  22.3962  22.3962  22.9283  22.9283
    23.6872  23.6872  24.3616  24.3616  25.8511  25.8511  26.5312  26.5312
    27.2942  27.2942  27.6640  27.6640  27.7921  27.7921  28.5393  28.5393
    29.2233  29.2233  30.2824  30.2824  30.6339  30.6339  31.0743  31.0744
    31.7225  31.7225  32.3506  32.3508  34.1614  34.1615  34.7945  34.7947

     the Fermi energy is    27.7561 ev

!    total energy              =   -2142.96223017 Ry
     Harris-Foulkes estimate   =   -2142.96224042 Ry
     estimated scf accuracy    <       0.00000934 Ry

     The total energy is the sum of the following terms:

     one-electron contribution =    -329.47768875 Ry
     hartree contribution      =     336.24442819 Ry
     xc contribution           =    -219.93936396 Ry
     ewald contribution        =   -1929.26322648 Ry
     smearing contrib. (-TS)   =      -0.52637916 Ry

     convergence has been achieved in  11 iterations

     Forces acting on atoms (Ry/au):

     atom    1 type  1   force =     0.00000000    0.00000000   -0.00625043
     atom    2 type  1   force =     0.00000000    0.00000000   -0.00625043
     atom    3 type  1   force =     0.00000000    0.00000000    0.00625043
     atom    4 type  1   force =     0.00000000    0.00000000    0.00625043
     atom    5 type  2   force =     0.00000000    0.00000000    0.00000000
     atom    6 type  2   force =     0.00000000    0.00000000    0.00000000
     atom    7 type  2   force =     0.00000000    0.07239370    0.00000000
     atom    8 type  2   force =    -0.06269478    0.03619685    0.00000000
     atom    9 type  2   force =     0.06269478    0.03619685    0.00000000
     atom   10 type  2   force =    -0.06269478   -0.03619685    0.00000000
     atom   11 type  2   force =     0.06269478   -0.03619685    0.00000000
     atom   12 type  2   force =     0.00000000   -0.07239370    0.00000000

     Total force =     0.177768     Total SCF correction =     0.000000

     entering subroutine stress ...

          total   stress  (Ry/bohr**3)                   (kbar)     P=  520.84
   0.00344928   0.00000000   0.00000000        507.41      0.00      0.00
   0.00000000   0.00344928   0.00000000          0.00    507.41      0.00
   0.00000000   0.00000000   0.00372329          0.00      0.00    547.71

     Writing output data file Prototype-La-hP12-MgZn2.save

     General routines

     Parallel routines

   This run was terminated on:   1:12:23  22Mar2018

   JOB DONE.