     Program PWSCF v.5.0.2 starts on 22Mar2018 at  0:39:33

     Current dimensions of program PWSCF are:
     Max number of different atomic species (ntypx) = 10
     Max number of k-points (npk) =  40000
     Max angular momentum in pseudopotentials (lmaxx) =  3
     Waiting for input...
     Reading input from standard input

     Subspace diagonalization in iterative solution of the eigenvalue problem:
     a serial algorithm will be used

     bravais-lattice index     =            0
     lattice parameter (alat)  =      12.8532  a.u.
     unit-cell volume          =    1390.2597 (a.u.)^3
     number of atoms/cell      =            6
     number of atomic types    =            2
     number of electrons       =       100.00
     number of Kohn-Sham states=           60
     kinetic-energy cutoff     =      40.0000  Ry
     charge density cutoff     =     160.0000  Ry
     convergence threshold     =      1.0E-04
     mixing beta               =       0.7000
     number of iterations used =            8  plain     mixing
     Exchange-correlation      = SLA-PZ-NOGX-NOGC ( 1 1 0 0 0)
     EXX-fraction              =        0.00
     nstep                     =           50

     celldm(1)=  12.853229  celldm(2)=   0.000000  celldm(3)=   0.000000
     celldm(4)=   0.000000  celldm(5)=   0.000000  celldm(6)=   0.000000

     crystal axes: (cart. coord. in units of alat)
               a(1) = (   1.000000   0.000000   0.000000 )
               a(2) = (  -0.036574   0.999331   0.000000 )
               a(3) = (  -0.266883  -0.706777   0.655164 )

     reciprocal axes: (cart. coord. in units 2 pi/alat)
               b(1) = (  1.000000  0.036598  0.446834 )
               b(2) = (  0.000000  1.000669  1.079502 )
               b(3) = (  0.000000  0.000000  1.526336 )

     PseudoPot. # 1 for Ce read from file:
     /home/jld5415/pp.La/Ce.UPF
     MD5 check sum: 44451aa79a44a00cf2bc029dc19922f6
     Pseudo is Norm-conserving, Zval = 12.0
     Generated in analytical, separable form
     Using radial grid of 1255 points,  6 beta functions with:
                l(1) =   0
                l(2) =   0
                l(3) =   1
                l(4) =   1
                l(5) =   2
                l(6) =   3

     PseudoPot. # 2 for Tb read from file:
     /home/jld5415/pp.La/Tb.UPF
     MD5 check sum: 3d6088a3f0cf7fd2e110c43f7f8e95c2
     Pseudo is Norm-conserving, Zval = 19.0
     Generated in analytical, separable form
     Using radial grid of 1263 points,  6 beta functions with:
                l(1) =   0
                l(2) =   0
                l(3) =   1
                l(4) =   1
                l(5) =   2
                l(6) =   3

     atomic species   valence    mass     pseudopotential
        K             12.00    39.09830     Ce( 1.00)
        Hg            19.00   200.59000     Tb( 1.00)

      2 Sym. Ops., with inversion, found

   Cartesian axes

     site n.     atom                  positions (alat units)
         1           K   tau(   1) = (  -0.0340766   0.4201429   0.4913727  )
         2           K   tau(   2) = (   0.7306201  -0.1275892   0.1637909  )
         3           Hg  tau(   3) = (   0.2308977  -0.0548727   0.3630373  )
         4           Hg  tau(   4) = (   0.4656458   0.3474265   0.2921263  )
         5           Hg  tau(   5) = (   0.5181090  -0.3317640   0.6197082  )
         6           Hg  tau(   6) = (   0.1784345   0.6243178   0.0354555  )

     number of k points=   253  gaussian smearing, width (Ry)=  0.1000

     Number of k-points >= 100: set verbosity='high' to print them.

     Largest allocated arrays     est. size (Mb)     dimensions
     Largest temporary arrays     est. size (Mb)     dimensions

     Initial potential from superposition of free atoms

     Starting from uniform charge
     Starting wfc are    0 randomized atomic wfcs

     Self-consistent Calculation

     iteration #  1     ecut=    40.00 Ry     beta=0.70
     CG style diagonalization
     ethr =  1.00E-02,  avg # of iterations = 18.0

     total energy              =    -698.06790674 Ry
     Harris-Foulkes estimate   =   -1537.37331998 Ry
     estimated scf accuracy    <    1027.38783683 Ry

     iteration #  2     ecut=    40.00 Ry     beta=0.70
     CG style diagonalization
     c_bands:  2 eigenvalues not converged
     c_bands:  2 eigenvalues not converged
     c_bands:  1 eigenvalues not converged
     c_bands:  3 eigenvalues not converged
     c_bands:  2 eigenvalues not converged
     c_bands:  2 eigenvalues not converged
     c_bands:  4 eigenvalues not converged
     c_bands:  1 eigenvalues not converged
     c_bands:  5 eigenvalues not converged
     c_bands:  2 eigenvalues not converged
     c_bands:  4 eigenvalues not converged
     c_bands:  3 eigenvalues not converged
     c_bands:  3 eigenvalues not converged
     c_bands:  1 eigenvalues not converged
     c_bands:  3 eigenvalues not converged
     c_bands:  5 eigenvalues not converged
     c_bands:  2 eigenvalues not converged
     c_bands:  1 eigenvalues not converged
     c_bands:  5 eigenvalues not converged
     c_bands:  1 eigenvalues not converged
     c_bands:  2 eigenvalues not converged
     c_bands:  4 eigenvalues not converged
     c_bands:  3 eigenvalues not converged
     c_bands:  3 eigenvalues not converged
     c_bands:  3 eigenvalues not converged
     c_bands:  2 eigenvalues not converged
     c_bands:  1 eigenvalues not converged
     c_bands:  1 eigenvalues not converged
     c_bands:  2 eigenvalues not converged
     c_bands:  4 eigenvalues not converged
     c_bands:  5 eigenvalues not converged
     c_bands:  2 eigenvalues not converged
     c_bands:  2 eigenvalues not converged
     c_bands:  2 eigenvalues not converged
     c_bands:  3 eigenvalues not converged
     c_bands:  2 eigenvalues not converged
     c_bands:  2 eigenvalues not converged
     c_bands:  3 eigenvalues not converged
     c_bands:  3 eigenvalues not converged
     c_bands:  2 eigenvalues not converged
     c_bands:  2 eigenvalues not converged
     c_bands:  2 eigenvalues not converged
     c_bands:  5 eigenvalues not converged
     c_bands:  2 eigenvalues not converged
     c_bands:  3 eigenvalues not converged
     c_bands:  5 eigenvalues not converged
     c_bands:  4 eigenvalues not converged
     c_bands:  2 eigenvalues not converged
     c_bands:  3 eigenvalues not converged
     c_bands:  1 eigenvalues not converged
     c_bands:  1 eigenvalues not converged
     c_bands:  3 eigenvalues not converged
     c_bands:  5 eigenvalues not converged
     c_bands:  4 eigenvalues not converged
     c_bands:  4 eigenvalues not converged
     c_bands:  2 eigenvalues not converged
     c_bands:  2 eigenvalues not converged
     c_bands:  1 eigenvalues not converged
     c_bands:  4 eigenvalues not converged
     c_bands:  5 eigenvalues not converged
[...]
     c_bands:  2 eigenvalues not converged
     c_bands:  3 eigenvalues not converged
     c_bands:  5 eigenvalues not converged
     c_bands:  2 eigenvalues not converged
     c_bands:  2 eigenvalues not converged
     c_bands:  2 eigenvalues not converged
     c_bands:  2 eigenvalues not converged
     c_bands:  3 eigenvalues not converged
     c_bands:  3 eigenvalues not converged
     c_bands:  1 eigenvalues not converged
     c_bands:  2 eigenvalues not converged
     c_bands:  1 eigenvalues not converged
     c_bands:  3 eigenvalues not converged
     c_bands:  3 eigenvalues not converged
     c_bands:  2 eigenvalues not converged
     ethr =  1.00E-02,  avg # of iterations = 14.7

[...]

     End of self-consistent calculation

     Number of k-points >= 100: set verbosity='high' to print the bands.

     the Fermi energy is    12.1943 ev

!    total energy              =   -1072.27139663 Ry
     Harris-Foulkes estimate   =   -1072.27140714 Ry
     estimated scf accuracy    <       0.00001372 Ry

     The total energy is the sum of the following terms:

     one-electron contribution =    -443.16982924 Ry
     hartree contribution      =     255.11912229 Ry
     xc contribution           =    -106.23676352 Ry
     ewald contribution        =    -777.59328388 Ry
     smearing contrib. (-TS)   =      -0.39064228 Ry

     convergence has been achieved in  12 iterations

     Forces acting on atoms (Ry/au):

     atom    1 type  1   force =     0.00331730    0.00489709   -0.00066261
     atom    2 type  1   force =    -0.00331730   -0.00489709    0.00066261
     atom    3 type  2   force =     0.00728669    0.01137513   -0.00169674
     atom    4 type  2   force =    -0.00728669   -0.01137513    0.00169674
     atom    5 type  2   force =     0.01354868    0.00942295    0.00206089
     atom    6 type  2   force =    -0.01354868   -0.00942295   -0.00206089

     Total force =     0.031540     Total SCF correction =     0.000000

     entering subroutine stress ...

          total   stress  (Ry/bohr**3)                   (kbar)     P= -404.10
  -0.00275794   0.00000048  -0.00002615       -405.71      0.07     -3.85
   0.00000048  -0.00275776   0.00002487          0.07   -405.68      3.66
  -0.00002615   0.00002487  -0.00272533         -3.85      3.66   -400.91

     BFGS Geometry Optimization

     number of scf cycles    =   1
     number of bfgs steps    =   0

     enthalpy new            =   -1072.2713966265 Ry

     new trust radius        =       0.5000000000 bohr
     new conv_thr            =       0.0001000000 Ry

     new unit-cell volume =   1129.91913 a.u.^3 (   167.43674 Ang^3 )

CELL_PARAMETERS (alat= 12.85322937)
   0.932954052   0.000011751  -0.000635595
  -0.034109658   0.932333989   0.000627494
  -0.249414262  -0.659000894   0.611499350

ATOMIC_POSITIONS (crystal)
K        0.201104128   0.951178620   0.749923485
K        0.798895872   0.048821380   0.250076515
Hg       0.391632409   0.337712585   0.553921070
Hg       0.608367591   0.662287415   0.446078930
Hg       0.783994778   0.337871678   0.946120980
Hg       0.216005222   0.662128322   0.053879020

     Writing output data file Prototype-La-oI12-KHg2.save
     NEW-OLD atomic charge density approx. for the potential
     NEW k-points: (use verbosity='high' to print them)

[...]

     enthalpy old            =   -1072.2713966265 Ry
     enthalpy new            =   -1072.8287962168 Ry

     CASE: enthalpy_new < enthalpy_old

     small trust_radius: resetting bfgs history

[...]

     number of scf cycles    =   3
     number of bfgs steps    =   2

     enthalpy old            =   -1072.8287962168 Ry
     enthalpy new            =   -1072.9254080648 Ry

     CASE: enthalpy_new < enthalpy_old

     Message from routine bfgs:
     history already reset at previous step: stopping
     small trust_radius: resetting bfgs history

     new trust radius        =       0.0596731214 bohr
     new conv_thr            =       0.0000241980 Ry

     new unit-cell volume =   1000.49862 a.u.^3 (   148.25860 Ang^3 )

[...]

ATOMIC_POSITIONS (crystal)
K        0.201407839   0.951273511   0.750129975
K        0.798592161   0.048726489   0.249870025
Hg       0.389737057   0.338879328   0.550850897
Hg       0.610262943   0.661120672   0.449149103
Hg       0.787972857   0.338848238   0.949116521
Hg       0.212027143   0.661151762   0.050883479

     Writing output data file Prototype-La-oI12-KHg2.save
     NEW-OLD atomic charge density approx. for the potential
     NEW k-points: (use verbosity='high' to print them)

[...]

     The maximum number of steps has been reached.

     End of BFGS Geometry Optimization
Begin final coordinates
     new unit-cell volume =   1000.49862 a.u.^3 (   148.25860 Ang^3 )

CELL_PARAMETERS (alat= 12.85322937)
   0.894399321   0.004096574  -0.006853316
  -0.028619261   0.894204670   0.006739972
  -0.246083558  -0.629370887   0.586348934

ATOMIC_POSITIONS (crystal)
K        0.201407839   0.951273511   0.750129975
K        0.798592161   0.048726489   0.249870025
Hg       0.389737057   0.338879328   0.550850897
Hg       0.610262943   0.661120672   0.449149103
Hg       0.787972857   0.338848238   0.949116521
Hg       0.212027143   0.661151762   0.050883479
End final coordinates

     A final scf calculation at the relaxed structure.
     The G-vectors are recalculated for the final unit cell
     Results may differ from those at the preceding step.

     bravais-lattice index     =            0
     lattice parameter (alat)  =      12.8532  a.u.
     unit-cell volume          =    1000.4986 (a.u.)^3
     number of atoms/cell      =            6
     number of atomic types    =            2
     number of electrons       =       100.00
     number of Kohn-Sham states=           60
     kinetic-energy cutoff     =      40.0000  Ry
     charge density cutoff     =     160.0000  Ry
     convergence threshold     =      2.4E-05
     mixing beta               =       0.7000
     number of iterations used =            8  plain     mixing
     Exchange-correlation      = SLA-PZ-NOGX-NOGC ( 1 1 0 0 0)
     EXX-fraction              =        0.00

     celldm(1)=  12.853229  celldm(2)=   0.000000  celldm(3)=   0.000000
     celldm(4)=   0.000000  celldm(5)=   0.000000  celldm(6)=   0.000000

     crystal axes: (cart. coord. in units of alat)
               a(1) = (   0.894399   0.004097  -0.006853 )
               a(2) = (  -0.028619   0.894205   0.006740 )
               a(3) = (  -0.246084  -0.629371   0.586349 )

     reciprocal axes: (cart. coord. in units 2 pi/alat)
               b(1) = (  1.121793  0.032095  0.505253 )
               b(2) = (  0.004056  1.109453  1.192559 )
               b(3) = (  0.013065 -0.012378  1.697666 )

     PseudoPot. # 1 for Ce read from file:
     /home/jld5415/pp.La/Ce.UPF
     MD5 check sum: 44451aa79a44a00cf2bc029dc19922f6
     Pseudo is Norm-conserving, Zval = 12.0
     Generated in analytical, separable form
     Using radial grid of 1255 points,  6 beta functions with:
                l(1) =   0
                l(2) =   0
                l(3) =   1
                l(4) =   1
                l(5) =   2
                l(6) =   3

     PseudoPot. # 2 for Tb read from file:
     /home/jld5415/pp.La/Tb.UPF
     MD5 check sum: 3d6088a3f0cf7fd2e110c43f7f8e95c2
     Pseudo is Norm-conserving, Zval = 19.0
     Generated in analytical, separable form
     Using radial grid of 1263 points,  6 beta functions with:
                l(1) =   0
                l(2) =   0
                l(3) =   1
                l(4) =   1
                l(5) =   2
                l(6) =   3

     atomic species   valence    mass     pseudopotential
        K             12.00    39.09830     Ce( 1.00)
        Hg            19.00   200.59000     Tb( 1.00)

      2 Sym. Ops., with inversion, found

   Cartesian axes

     site n.     atom                  positions (alat units)
         1           K   tau(   1) = (  -0.0316804   0.3793483   0.4448692  )
         2           K   tau(   2) = (   0.6513769  -0.1104180   0.1413664  )
         3           Hg  tau(   3) = (   0.2033267  -0.0420655   0.3226039  )
         4           Hg  tau(   4) = (   0.4163698   0.3109958   0.2636317  )
         5           Hg  tau(   5) = (   0.4615028  -0.2911186   0.5533971  )
         6           Hg  tau(   6) = (   0.1581937   0.5600490   0.0328385  )

     number of k points=   253  gaussian smearing, width (Ry)=  0.1000

     Number of k-points >= 100: set verbosity='high' to print them.

     Largest allocated arrays     est. size (Mb)     dimensions
     Largest temporary arrays     est. size (Mb)     dimensions

     Initial potential from superposition of free atoms

     Starting from uniform charge
     Starting wfc are    0 randomized atomic wfcs

     Writing output data file Prototype-La-oI12-KHg2.save

     Self-consistent Calculation

[...]

     iteration # 11     ecut=    40.00 Ry     beta=0.70
     CG style diagonalization
     c_bands:  1 eigenvalues not converged
     c_bands:  1 eigenvalues not converged
     c_bands:  1 eigenvalues not converged
     c_bands:  1 eigenvalues not converged
     c_bands:  1 eigenvalues not converged
     c_bands:  1 eigenvalues not converged
     ethr =  1.57E-07,  avg # of iterations =  5.4

     total energy              =   -1072.33326350 Ry
     Harris-Foulkes estimate   =   -1072.33336430 Ry
     estimated scf accuracy    <       0.00021591 Ry

     iteration # 12     ecut=    40.00 Ry     beta=0.70
     CG style diagonalization
     ethr =  1.57E-07,  avg # of iterations =  3.6

     End of self-consistent calculation

     Number of k-points >= 100: set verbosity='high' to print the bands.

     the Fermi energy is    18.7623 ev

!    total energy              =   -1072.33329061 Ry
     Harris-Foulkes estimate   =   -1072.33329762 Ry
     estimated scf accuracy    <       0.00000761 Ry

     The total energy is the sum of the following terms:

     one-electron contribution =    -299.35043767 Ry
     hartree contribution      =     205.37240074 Ry
     xc contribution           =    -107.65648483 Ry
     ewald contribution        =    -870.40389305 Ry
     smearing contrib. (-TS)   =      -0.29487580 Ry

     convergence has been achieved in  12 iterations

     Forces acting on atoms (Ry/au):

     atom    1 type  1   force =     0.00343501    0.00001496    0.00158206
     atom    2 type  1   force =    -0.00343501   -0.00001496   -0.00158206
     atom    3 type  2   force =    -0.01405075    0.01916844   -0.01490834
     atom    4 type  2   force =     0.01405075   -0.01916844    0.01490834
     atom    5 type  2   force =     0.01107809   -0.01913215    0.01384192
     atom    6 type  2   force =    -0.01107809    0.01913215   -0.01384192

     Total force =     0.054439     Total SCF correction =     0.000000

     entering subroutine stress ...

          total   stress  (Ry/bohr**3)                   (kbar)     P= -272.12
  -0.00187451   0.00015854  -0.00017106       -275.75     23.32    -25.16
   0.00015854  -0.00186473   0.00016697         23.32   -274.31     24.56
  -0.00017106   0.00016697  -0.00181030        -25.16     24.56   -266.30

     Writing output data file Prototype-La-oI12-KHg2.save

     General routines

     Parallel routines

   This run was terminated on:   4:20:18  22Mar2018

   JOB DONE.