     Program PWSCF v.5.0.2 starts on 22Mar2018 at 16:20:26

     Current dimensions of program PWSCF are:
     Max number of different atomic species (ntypx) = 10
     Max number of k-points (npk) =  40000
     Max angular momentum in pseudopotentials (lmaxx) =  3
     Waiting for input...
     Reading input from standard input

     Subspace diagonalization in iterative solution of the eigenvalue problem:
     a serial algorithm will be used

     bravais-lattice index     =            0
     lattice parameter (alat)  =       9.9235  a.u.
     unit-cell volume          =    1361.0366 (a.u.)^3
     number of atoms/cell      =           12
     number of atomic types    =            2
     number of electrons       =       180.00
     number of Kohn-Sham states=          108
     kinetic-energy cutoff     =      40.0000  Ry
     charge density cutoff     =     160.0000  Ry
     convergence threshold     =      1.0E-04
     mixing beta               =       0.7000
     number of iterations used =            8  plain     mixing
     Exchange-correlation      = SLA-PZ-NOGX-NOGC ( 1 1 0 0 0)
     EXX-fraction              =        0.00
     nstep                     =           50

     celldm(1)=   9.923489  celldm(2)=   0.000000  celldm(3)=   0.000000
     celldm(4)=   0.000000  celldm(5)=   0.000000  celldm(6)=   0.000000

     crystal axes: (cart. coord. in units of alat)
               a(1) = (   1.000000   0.000000   0.000000 )
               a(2) = (  -0.500000   0.866025   0.000000 )
               a(3) = (   0.000000   0.000000   1.608222 )

     reciprocal axes: (cart. coord. in units 2 pi/alat)
               b(1) = (  1.000000  0.577350  0.000000 )
               b(2) = (  0.000000  1.154701  0.000000 )
               b(3) = (  0.000000  0.000000  0.621805 )

     PseudoPot. # 1 for Pr read from file:
     /home/cwx6513/pp.La/Pr.UPF
     MD5 check sum: 70e2b4b153859e92c8c91247dfc63203
     Pseudo is Norm-conserving, Zval = 13.0
     Generated in analytical, separable form
     Using radial grid of 1255 points,  6 beta functions with:
                l(1) =   0
                l(2) =   0
                l(3) =   1
                l(4) =   1
                l(5) =   2
                l(6) =   3

     PseudoPot. # 2 for Sm read from file:
     /home/cwx6513/pp.La/Sm.UPF
     MD5 check sum: 5079e8b144a06bfcdbc14fb02b96ab09
     Pseudo is Norm-conserving, Zval = 16.0
     Generated in analytical, separable form
     Using radial grid of 1259 points,  6 beta functions with:
                l(1) =   0
                l(2) =   0
                l(3) =   1
                l(4) =   1
                l(5) =   2
                l(6) =   3

     atomic species   valence    mass     pseudopotential
        Mg            13.00    24.30500     Pr( 1.00)
        Zn            16.00    65.39000     Sm( 1.00)

     24 Sym. Ops., with inversion, found (12 have fractional translation)

   Cartesian axes

     site n.     atom                  positions (alat units)
         1           Mg  tau(   1) = (  -0.0000005   0.5773506   0.1003820  )
         2           Mg  tau(   2) = (   0.5000005   0.2886748   0.9044931  )
         3           Mg  tau(   3) = (   0.5000005   0.2886748   1.5078402  )
         4           Mg  tau(   4) = (  -0.0000005   0.5773506   0.7037291  )
         5           Zn  tau(   5) = (   0.0000000   0.0000000   0.0000000  )
         6           Zn  tau(   6) = (   0.0000000   0.0000000   0.8041111  )
         7           Zn  tau(   7) = (   0.0000000   0.2950739   1.2061667  )
         8           Zn  tau(   8) = (   0.7444585   0.1475370   0.4020556  )
         9           Zn  tau(   9) = (   0.2555415   0.1475370   0.4020556  )
        10           Zn  tau(  10) = (   0.2444585   0.7184884   1.2061667  )
        11           Zn  tau(  11) = (  -0.2444585   0.7184884   1.2061667  )
        12           Zn  tau(  12) = (   0.5000000   0.5709515   0.4020556  )

     number of k points=    12  gaussian smearing, width (Ry)=  0.1000
                       cart. coord. in units 2pi/alat
        k(    1) = (   0.0000000   0.0000000   0.0000000), wk =   0.0833333
        k(    2) = (   0.0000000   0.0000000   0.1554512), wk =   0.1666667
        k(    3) = (   0.0000000   0.0000000  -0.3109023), wk =   0.0833333
        k(    4) = (   0.0000000   0.3849002   0.0000000), wk =   0.1666667
        k(    5) = (   0.0000000   0.3849002   0.1554512), wk =   0.3333333
        k(    6) = (   0.0000000   0.3849002  -0.3109023), wk =   0.1666667
        k(    7) = (  -0.5000000  -0.2886751   0.0000000), wk =   0.0833333
        k(    8) = (  -0.5000000  -0.2886751   0.1554512), wk =   0.1666667
        k(    9) = (  -0.5000000  -0.2886751  -0.3109023), wk =   0.0833333
        k(   10) = (  -0.5000000   0.0962250   0.0000000), wk =   0.1666667
        k(   11) = (  -0.5000000   0.0962250   0.1554512), wk =   0.3333333
        k(   12) = (  -0.5000000   0.0962250  -0.3109023), wk =   0.1666667

     Largest allocated arrays     est. size (Mb)     dimensions
     Largest temporary arrays     est. size (Mb)     dimensions

     Initial potential from superposition of free atoms
     Check: negative starting charge=   -0.002087

     starting charge   51.96217, renormalised to  180.00000

     negative rho (up, down):  0.723E-02 0.000E+00
     Starting wfc are   80 randomized atomic wfcs

     Self-consistent Calculation

     iteration #  1     ecut=    40.00 Ry     beta=0.70
     CG style diagonalization
     c_bands:  5 eigenvalues not converged
     c_bands:  5 eigenvalues not converged
     c_bands:  5 eigenvalues not converged
     c_bands:  4 eigenvalues not converged
     c_bands:  4 eigenvalues not converged
     c_bands:  3 eigenvalues not converged
     c_bands:  2 eigenvalues not converged
     c_bands:  2 eigenvalues not converged
     c_bands:  2 eigenvalues not converged
     c_bands:  2 eigenvalues not converged
     c_bands:  2 eigenvalues not converged
     ethr =  1.00E-02,  avg # of iterations = 27.1

     negative rho (up, down):  0.214E-02 0.000E+00

     total energy              =    -942.68215708 Ry
     Harris-Foulkes estimate   =   -4369.84579162 Ry
     estimated scf accuracy    <    4004.20805410 Ry

[...]

     iteration #  5     ecut=    40.00 Ry     beta=0.70
     CG style diagonalization
     ethr =  1.00E-02,  avg # of iterations =  4.3

[...]

     End of self-consistent calculation

          k = 0.0000 0.0000 0.0000 (  5769 PWs)   bands (ev):

   -29.8405 -29.6170 -29.2513 -29.0063 -28.9511 -28.9510 -28.9493 -28.9493
   -14.3747 -14.3130 -14.1613 -14.0710  -7.5901  -7.0292  -6.4104  -5.6041
    -5.6041  -5.4529  -5.4529  -5.3525  -5.3525  -4.8061  -4.3793  -4.3793
    -4.3328  -4.3328  -4.3165  -3.3819  -3.3749  -3.3749  -3.3555  -3.3539
    -3.1320  -3.1320  -3.0462  -3.0462   5.2227   5.2584   5.2651   5.2651
     5.3090   5.3090   6.0114   6.1132   6.1192   6.1192   6.1362   6.1362
    19.0715  19.9617  20.1078  21.1304  21.1304  21.7835  21.7835  22.0842
    22.0842  22.0905  22.1098  22.4763  22.5324  22.5324  22.9774  22.9774
    23.3723  24.0541  24.3074  24.3074  24.7729  24.7729  25.5652  25.9664
    25.9664  26.7104  26.8778  26.8778  27.0868  27.0869  27.1054  27.1054
    27.5808  27.5809  27.6737  27.6737  27.7850  27.8471  27.9270  28.3257
    28.3257  28.3465  28.3805  28.3805  28.9796  28.9796  29.5239  30.5594
    30.8846  30.8846  31.1822  31.1823  32.1740  32.1742  32.5065  32.5066
    33.0786  33.3667  33.3672  33.7416

[...]

          k =-0.5000-0.2887 0.0000 (  5800 PWs)   bands (ev):

[...]

     the Fermi energy is    28.7724 ev

!    total energy              =   -1583.42375744 Ry
     Harris-Foulkes estimate   =   -1583.42378561 Ry
     estimated scf accuracy    <       0.00003083 Ry

     The total energy is the sum of the following terms:

     one-electron contribution =      33.50238851 Ry
     hartree contribution      =     154.21201067 Ry
     xc contribution           =    -181.71332546 Ry
     ewald contribution        =   -1588.74807322 Ry
     smearing contrib. (-TS)   =      -0.67675794 Ry

     convergence has been achieved in  14 iterations

     Forces acting on atoms (Ry/au):

     atom    1 type  1   force =     0.00000000    0.00000000    0.02854669
     atom    2 type  1   force =     0.00000000    0.00000000    0.02854669
     atom    3 type  1   force =     0.00000000    0.00000000   -0.02854669
     atom    4 type  1   force =     0.00000000    0.00000000   -0.02854669
     atom    5 type  2   force =     0.00000000    0.00000000    0.00000000
     atom    6 type  2   force =     0.00000000    0.00000000    0.00000000
     atom    7 type  2   force =     0.00000000    0.04273881    0.00000000
     atom    8 type  2   force =    -0.03701289    0.02136940    0.00000000
     atom    9 type  2   force =     0.03701289    0.02136940    0.00000000
     atom   10 type  2   force =    -0.03701289   -0.02136940    0.00000000
     atom   11 type  2   force =     0.03701289   -0.02136940    0.00000000
     atom   12 type  2   force =     0.00000000   -0.04273881    0.00000000

     Total force =     0.119245     Total SCF correction =     0.002416

     entering subroutine stress ...

          total   stress  (Ry/bohr**3)                   (kbar)     P=  958.03
   0.00654800   0.00000000   0.00000000        963.24      0.00      0.00
   0.00000000   0.00654800   0.00000000          0.00    963.24      0.00
   0.00000000   0.00000000   0.00644164          0.00      0.00    947.60

     BFGS Geometry Optimization

     number of scf cycles    =   1
     number of bfgs steps    =   0

     enthalpy new            =   -1583.4237574419 Ry

     new trust radius        =       0.5000000000 bohr
     new conv_thr            =       0.0001000000 Ry

     new unit-cell volume =   1655.19380 a.u.^3 (   245.27441 Ang^3 )

CELL_PARAMETERS (alat=  9.92348860)
   1.067764947   0.000000000   0.000000000
  -0.533882474   0.924711570   0.000000000
   0.000000000   0.000000000   1.715433052

ATOMIC_POSITIONS (crystal)
Mg       0.333333000   0.666667000   0.063158460
Mg       0.666667000   0.333333000   0.563158460
Mg       0.666667000   0.333333000   0.936841540
Mg       0.333333000   0.666667000   0.436841540
Zn       0.000000000   0.000000000   0.000000000
Zn       0.000000000   0.000000000   0.500000000
Zn       0.171390328   0.342780655   0.750000000
Zn       0.828609672   0.171390328   0.250000000
Zn       0.342780655   0.171390328   0.250000000
Zn       0.657219345   0.828609672   0.750000000
Zn       0.171390328   0.828609672   0.750000000
Zn       0.828609672   0.657219345   0.250000000

     Writing output data file Prototype-La-hP12-MgZn2.save
     Check: negative starting charge=   -0.002087
     NEW-OLD atomic charge density approx. for the potential
     NEW k-points:
        k(    1) = (   0.0000000   0.0000000   0.0000000), wk =   0.0833333
        k(    2) = (   0.0000000   0.0000000   0.1457358), wk =   0.1666667
        k(    3) = (   0.0000000   0.0000000  -0.2914716), wk =   0.0833333
        k(    4) = (   0.0000000   0.3604728   0.0000000), wk =   0.1666667
        k(    5) = (   0.0000000   0.3604728   0.1457358), wk =   0.3333333
        k(    6) = (   0.0000000   0.3604728  -0.2914716), wk =   0.1666667
        k(    7) = (  -0.4682679  -0.2703546   0.0000000), wk =   0.0833333
        k(    8) = (  -0.4682679  -0.2703546   0.1457358), wk =   0.1666667
        k(    9) = (  -0.4682679  -0.2703546  -0.2914716), wk =   0.0833333
        k(   10) = (  -0.4682679   0.0901182   0.0000000), wk =   0.1666667
        k(   11) = (  -0.4682679   0.0901182   0.1457358), wk =   0.3333333
        k(   12) = (  -0.4682679   0.0901182  -0.2914716), wk =   0.1666667
     Check: negative starting charge=   -0.006990

     negative rho (up, down):  0.466E-02 0.000E+00
     extrapolated charge  189.23460, renormalised to  180.00000

[...]

     enthalpy old            =   -1583.4237574419 Ry
     enthalpy new            =   -1584.2332273001 Ry

     CASE: enthalpy_new < enthalpy_old

     small trust_radius: resetting bfgs history

[...]

     number of scf cycles    =   3
     number of bfgs steps    =   2

     enthalpy old            =   -1584.2332273001 Ry
     enthalpy new            =   -1584.2347334449 Ry

     CASE: enthalpy_new < enthalpy_old

     Message from routine bfgs:
     history already reset at previous step: stopping
     small trust_radius: resetting bfgs history

     new trust radius        =       0.0342197536 bohr
     new conv_thr            =       0.0000140866 Ry

     new unit-cell volume =   1653.90753 a.u.^3 (   245.08381 Ang^3 )

[...]

ATOMIC_POSITIONS (crystal)
Mg       0.333333000   0.666667000   0.064993098
Mg       0.666667000   0.333333000   0.564993098
Mg       0.666667000   0.333333000   0.935006902
Mg       0.333333000   0.666667000   0.435006902
Zn       0.000000000   0.000000000   0.000000000
Zn       0.000000000   0.000000000   0.500000000
Zn       0.171521929   0.343043859   0.750000000
Zn       0.828478071   0.171521929   0.250000000
Zn       0.343043859   0.171521929   0.250000000
Zn       0.656956141   0.828478071   0.750000000
Zn       0.171521929   0.828478071   0.750000000
Zn       0.828478071   0.656956141   0.250000000

     Writing output data file Prototype-La-hP12-MgZn2.save
     Check: negative starting charge=   -0.006185
     NEW-OLD atomic charge density approx. for the potential
     NEW k-points:
        k(    1) = (   0.0000000   0.0000000   0.0000000), wk =   0.0833333
        k(    2) = (   0.0000000   0.0000000   0.1458613), wk =   0.1666667
        k(    3) = (   0.0000000   0.0000000  -0.2917226), wk =   0.0833333
        k(    4) = (   0.0000000   0.3604577   0.0000000), wk =   0.1666667
        k(    5) = (   0.0000000   0.3604577   0.1458613), wk =   0.3333333
        k(    6) = (   0.0000000   0.3604577  -0.2917226), wk =   0.1666667
        k(    7) = (  -0.4682483  -0.2703433   0.0000000), wk =   0.0833333
        k(    8) = (  -0.4682483  -0.2703433   0.1458613), wk =   0.1666667
        k(    9) = (  -0.4682483  -0.2703433  -0.2917226), wk =   0.0833333
        k(   10) = (  -0.4682483   0.0901144   0.0000000), wk =   0.1666667
        k(   11) = (  -0.4682483   0.0901144   0.1458613), wk =   0.3333333
        k(   12) = (  -0.4682483   0.0901144  -0.2917226), wk =   0.1666667
     Check: negative starting charge=   -0.005889

     negative rho (up, down):  0.517E-03 0.000E+00
     extrapolated charge  180.64192, renormalised to  180.00000

[...]

     The maximum number of steps has been reached.

     End of BFGS Geometry Optimization
Begin final coordinates
     new unit-cell volume =   1653.90753 a.u.^3 (   245.08381 Ang^3 )

CELL_PARAMETERS (alat=  9.92348860)
   1.067809533   0.000000000   0.000000000
  -0.533904767   0.924750182   0.000000000
   0.000000000   0.000000000   1.713956829

ATOMIC_POSITIONS (crystal)
Mg       0.333333000   0.666667000   0.064993098
Mg       0.666667000   0.333333000   0.564993098
Mg       0.666667000   0.333333000   0.935006902
Mg       0.333333000   0.666667000   0.435006902
Zn       0.000000000   0.000000000   0.000000000
Zn       0.000000000   0.000000000   0.500000000
Zn       0.171521929   0.343043859   0.750000000
Zn       0.828478071   0.171521929   0.250000000
Zn       0.343043859   0.171521929   0.250000000
Zn       0.656956141   0.828478071   0.750000000
Zn       0.171521929   0.828478071   0.750000000
Zn       0.828478071   0.656956141   0.250000000
End final coordinates

     A final scf calculation at the relaxed structure.
     The G-vectors are recalculated for the final unit cell
     Results may differ from those at the preceding step.

     bravais-lattice index     =            0
     lattice parameter (alat)  =       9.9235  a.u.
     unit-cell volume          =    1653.9075 (a.u.)^3
     number of atoms/cell      =           12
     number of atomic types    =            2
     number of electrons       =       180.00
     number of Kohn-Sham states=          108
     kinetic-energy cutoff     =      40.0000  Ry
     charge density cutoff     =     160.0000  Ry
     convergence threshold     =      1.4E-05
     mixing beta               =       0.7000
     number of iterations used =            8  plain     mixing
     Exchange-correlation      = SLA-PZ-NOGX-NOGC ( 1 1 0 0 0)
     EXX-fraction              =        0.00

     celldm(1)=   9.923489  celldm(2)=   0.000000  celldm(3)=   0.000000
     celldm(4)=   0.000000  celldm(5)=   0.000000  celldm(6)=   0.000000

     crystal axes: (cart. coord. in units of alat)
               a(1) = (   1.067810   0.000000   0.000000 )
               a(2) = (  -0.533905   0.924750   0.000000 )
               a(3) = (   0.000000   0.000000   1.713957 )

     reciprocal axes: (cart. coord. in units 2 pi/alat)
               b(1) = (  0.936497  0.540687  0.000000 )
               b(2) = (  0.000000  1.081373  0.000000 )
               b(3) = (  0.000000  0.000000  0.583445 )

     PseudoPot. # 1 for Pr read from file:
     /home/cwx6513/pp.La/Pr.UPF
     MD5 check sum: 70e2b4b153859e92c8c91247dfc63203
     Pseudo is Norm-conserving, Zval = 13.0
     Generated in analytical, separable form
     Using radial grid of 1255 points,  6 beta functions with:
                l(1) =   0
                l(2) =   0
                l(3) =   1
                l(4) =   1
                l(5) =   2
                l(6) =   3

     PseudoPot. # 2 for Sm read from file:
     /home/cwx6513/pp.La/Sm.UPF
     MD5 check sum: 5079e8b144a06bfcdbc14fb02b96ab09
     Pseudo is Norm-conserving, Zval = 16.0
     Generated in analytical, separable form
     Using radial grid of 1259 points,  6 beta functions with:
                l(1) =   0
                l(2) =   0
                l(3) =   1
                l(4) =   1
                l(5) =   2
                l(6) =   3

     atomic species   valence    mass     pseudopotential
        Mg            13.00    24.30500     Pr( 1.00)
        Zn            16.00    65.39000     Sm( 1.00)

     24 Sym. Ops., with inversion, found (12 have fractional translation)

   Cartesian axes

     site n.     atom                  positions (alat units)
         1           Mg  tau(   1) = (  -0.0000005   0.6165004   0.1113954  )
         2           Mg  tau(   2) = (   0.5339053   0.3082498   0.9683738  )
         3           Mg  tau(   3) = (   0.5339053   0.3082498   1.6025615  )
         4           Mg  tau(   4) = (  -0.0000005   0.6165004   0.7455830  )
         5           Zn  tau(   5) = (   0.0000000   0.0000000   0.0000000  )
         6           Zn  tau(   6) = (   0.0000000   0.0000000   0.8569784  )
         7           Zn  tau(   7) = (   0.0000000   0.3172299   1.2854676  )
         8           Zn  tau(   8) = (   0.7930804   0.1586149   0.4284892  )
         9           Zn  tau(   9) = (   0.2747291   0.1586149   0.4284892  )
        10           Zn  tau(  10) = (   0.2591756   0.7661352   1.2854676  )
        11           Zn  tau(  11) = (  -0.2591756   0.7661352   1.2854676  )
        12           Zn  tau(  12) = (   0.5339048   0.6075203   0.4284892  )

     number of k points=    12  gaussian smearing, width (Ry)=  0.1000
                       cart. coord. in units 2pi/alat
        k(    1) = (   0.0000000   0.0000000   0.0000000), wk =   0.0833333
        k(    2) = (   0.0000000   0.0000000   0.1458613), wk =   0.1666667
        k(    3) = (   0.0000000   0.0000000  -0.2917226), wk =   0.0833333
        k(    4) = (   0.0000000   0.3604577   0.0000000), wk =   0.1666667
        k(    5) = (   0.0000000   0.3604577   0.1458613), wk =   0.3333333
        k(    6) = (   0.0000000   0.3604577  -0.2917226), wk =   0.1666667
        k(    7) = (  -0.4682483  -0.2703433   0.0000000), wk =   0.0833333
        k(    8) = (  -0.4682483  -0.2703433   0.1458613), wk =   0.1666667
        k(    9) = (  -0.4682483  -0.2703433  -0.2917226), wk =   0.0833333
        k(   10) = (  -0.4682483   0.0901144   0.0000000), wk =   0.1666667
        k(   11) = (  -0.4682483   0.0901144   0.1458613), wk =   0.3333333
        k(   12) = (  -0.4682483   0.0901144  -0.2917226), wk =   0.1666667

     Largest allocated arrays     est. size (Mb)     dimensions
     Largest temporary arrays     est. size (Mb)     dimensions

     Initial potential from superposition of free atoms
     Check: negative starting charge=   -0.001188

     starting charge   51.96217, renormalised to  180.00000

     negative rho (up, down):  0.411E-02 0.000E+00
     Starting wfc are   80 randomized atomic wfcs

     Writing output data file Prototype-La-hP12-MgZn2.save

     Self-consistent Calculation

[...]

     negative rho (up, down):  0.733E-05 0.000E+00

[...]

     iteration # 15     ecut=    40.00 Ry     beta=0.70
     CG style diagonalization
     c_bands:  1 eigenvalues not converged
     c_bands:  1 eigenvalues not converged
     c_bands:  1 eigenvalues not converged
     c_bands:  1 eigenvalues not converged
     ethr =  3.01E-07,  avg # of iterations =  3.4

     total energy              =   -1584.70609598 Ry
     Harris-Foulkes estimate   =   -1584.70613927 Ry
     estimated scf accuracy    <       0.00022653 Ry

     iteration # 16     ecut=    40.00 Ry     beta=0.70
     CG style diagonalization
     ethr =  1.26E-07,  avg # of iterations =  3.4

     End of self-consistent calculation

[...]

          k = 0.0000 0.3605-0.2917 (  7056 PWs)   bands (ev):

[...]

          k =-0.4682 0.0901-0.2917 (  7072 PWs)   bands (ev):

   -34.7654 -34.7654 -34.6515 -34.6515 -34.4746 -34.4746 -34.4671 -34.4671
   -20.2899 -20.2898 -20.2319 -20.2318 -10.9937 -10.9937 -10.5486 -10.5486
   -10.1811 -10.1811 -10.1472 -10.1472 -10.0517 -10.0517  -9.9153  -9.9153
    -9.6639  -9.6639  -9.4813  -9.4813  -9.3514  -9.3514  -9.2727  -9.2727
    -9.0920  -9.0920  -9.0394  -9.0394  -0.4051  -0.4050  -0.3715  -0.3715
    -0.2317  -0.2316  -0.0330  -0.0329   0.1180   0.1180   0.1438   0.1439
    16.7185  16.7185  17.3273  17.3273  17.7184  17.7184  17.8934  17.8934
    18.1170  18.1170  18.2127  18.2127  18.4571  18.4571  18.6513  18.6513
    18.8311  18.8311  19.2160  19.2160  19.4490  19.4490  19.9463  19.9463
    20.0939  20.0939  20.4653  20.4653  20.5741  20.5741  21.1471  21.1471
    21.4453  21.4453  21.6419  21.6419  22.1242  22.1242  22.2374  22.2374
    22.7219  22.7219  23.3539  23.3540  23.5096  23.5096  23.6894  23.6894
    24.1658  24.1658  24.5452  24.5452  24.7612  24.7612  25.1298  25.1298
    25.6553  25.6556  26.0210  26.0214

     the Fermi energy is    22.9584 ev

!    total energy              =   -1584.70611265 Ry
     Harris-Foulkes estimate   =   -1584.70612403 Ry
     estimated scf accuracy    <       0.00001207 Ry

     The total energy is the sum of the following terms:

     one-electron contribution =    -100.58350146 Ry
     hartree contribution      =     183.82455995 Ry
     xc contribution           =    -177.68978845 Ry
     ewald contribution        =   -1489.43587308 Ry
     smearing contrib. (-TS)   =      -0.82150961 Ry

     convergence has been achieved in  16 iterations

     Forces acting on atoms (Ry/au):

     atom    1 type  1   force =     0.00000000    0.00000000    0.01127983
     atom    2 type  1   force =     0.00000000    0.00000000    0.01127983
     atom    3 type  1   force =     0.00000000    0.00000000   -0.01127983
     atom    4 type  1   force =     0.00000000    0.00000000   -0.01127983
     atom    5 type  2   force =     0.00000000    0.00000000    0.00000000
     atom    6 type  2   force =     0.00000000    0.00000000    0.00000000
     atom    7 type  2   force =     0.00000000    0.00941045    0.00000000
     atom    8 type  2   force =    -0.00814969    0.00470523    0.00000000
     atom    9 type  2   force =     0.00814969    0.00470523    0.00000000
     atom   10 type  2   force =    -0.00814969   -0.00470523    0.00000000
     atom   11 type  2   force =     0.00814969   -0.00470523    0.00000000
     atom   12 type  2   force =     0.00000000   -0.00941045    0.00000000

     Total force =     0.032253     Total SCF correction =     0.000930

     entering subroutine stress ...

          total   stress  (Ry/bohr**3)                   (kbar)     P=  122.05
   0.00084440   0.00000000   0.00000000        124.22      0.00      0.00
   0.00000000   0.00084440   0.00000000          0.00    124.22      0.00
   0.00000000   0.00000000   0.00080015          0.00      0.00    117.71

     Writing output data file Prototype-La-hP12-MgZn2.save

     General routines

     Parallel routines

   This run was terminated on:  16:50:50  22Mar2018

   JOB DONE.