     Program PWSCF v.5.0.2 starts on 22Mar2018 at 16:21:54

     Current dimensions of program PWSCF are:
     Max number of different atomic species (ntypx) = 10
     Max number of k-points (npk) =  40000
     Max angular momentum in pseudopotentials (lmaxx) =  3
     Waiting for input...
     Reading input from standard input

     Subspace diagonalization in iterative solution of the eigenvalue problem:
     a serial algorithm will be used

     bravais-lattice index     =            0
     lattice parameter (alat)  =       7.0151  a.u.
     unit-cell volume          =     862.2778 (a.u.)^3
     number of atoms/cell      =           12
     number of atomic types    =            2
     number of electrons       =       200.00
     number of Kohn-Sham states=          120
     kinetic-energy cutoff     =      40.0000  Ry
     charge density cutoff     =     160.0000  Ry
     convergence threshold     =      1.0E-04
     mixing beta               =       0.7000
     number of iterations used =            8  plain     mixing
     Exchange-correlation      = SLA-PZ-NOGX-NOGC ( 1 1 0 0 0)
     EXX-fraction              =        0.00
     nstep                     =           50

     celldm(1)=   7.015105  celldm(2)=   0.000000  celldm(3)=   0.000000
     celldm(4)=   0.000000  celldm(5)=   0.000000  celldm(6)=   0.000000

     crystal axes: (cart. coord. in units of alat)
               a(1) = (   1.000000   0.000000   0.000000 )
               a(2) = (   0.000000   1.315963   0.000000 )
               a(3) = (   0.000000   0.000000   1.898020 )

     reciprocal axes: (cart. coord. in units 2 pi/alat)
               b(1) = (  1.000000  0.000000  0.000000 )
               b(2) = (  0.000000  0.759900  0.000000 )
               b(3) = (  0.000000  0.000000  0.526865 )

     PseudoPot. # 1 for Pr read from file:
     /home/cwx6513/pp.La/Pr.UPF
     MD5 check sum: 70e2b4b153859e92c8c91247dfc63203
     Pseudo is Norm-conserving, Zval = 13.0
     Generated in analytical, separable form
     Using radial grid of 1255 points,  6 beta functions with:
                l(1) =   0
                l(2) =   0
                l(3) =   1
                l(4) =   1
                l(5) =   2
                l(6) =   3

     PseudoPot. # 2 for Yb read from file:
     /home/cwx6513/pp.La/Yb.UPF
     MD5 check sum: 3e859b81cc28c53ec6aa3a2e888efcdf
     Pseudo is Norm-conserving, Zval = 24.0
     Generated in analytical, separable form
     Using radial grid of 1269 points,  6 beta functions with:
                l(1) =   0
                l(2) =   0
                l(3) =   1
                l(4) =   1
                l(5) =   2
                l(6) =   3

     atomic species   valence    mass     pseudopotential
        Co            13.00    58.93320     Pr( 1.00)
        Si            24.00    28.08550     Yb( 1.00)

      8 Sym. Ops., with inversion, found ( 6 have fractional translation)

   Cartesian axes

     site n.     atom                  positions (alat units)
         1           Co  tau(   1) = (   0.7500000   1.0875135   0.8270358  )
         2           Co  tau(   2) = (   0.2500000   0.2284499   1.0709846  )
         3           Co  tau(   3) = (   0.7500000   0.4295318   0.1219744  )
         4           Co  tau(   4) = (   0.2500000   0.8864316   1.7760460  )
         5           Co  tau(   5) = (   0.2500000   0.7067855   0.5358966  )
         6           Co  tau(   6) = (   0.7500000   0.6091779   1.3621238  )
         7           Co  tau(   7) = (   0.2500000   0.0488038   0.4131136  )
         8           Co  tau(   8) = (   0.7500000   1.2671596   1.4849068  )
         9           Si  tau(   9) = (   0.2500000   0.2669484   1.6960710  )
        10           Si  tau(  10) = (   0.7500000   1.0490149   0.2019494  )
        11           Si  tau(  11) = (   0.2500000   0.9249301   1.1509596  )
        12           Si  tau(  12) = (   0.7500000   0.3910333   0.7470608  )

     number of k points=    12  gaussian smearing, width (Ry)=  0.1000
                       cart. coord. in units 2pi/alat
        k(    1) = (   0.0000000   0.0000000   0.0000000), wk =   0.0833333
        k(    2) = (   0.0000000   0.0000000   0.1317162), wk =   0.1666667
        k(    3) = (   0.0000000   0.0000000  -0.2634324), wk =   0.0833333
        k(    4) = (   0.0000000   0.2532999   0.0000000), wk =   0.1666667
        k(    5) = (   0.0000000   0.2532999   0.1317162), wk =   0.3333333
        k(    6) = (   0.0000000   0.2532999  -0.2634324), wk =   0.1666667
        k(    7) = (  -0.5000000   0.0000000   0.0000000), wk =   0.0833333
        k(    8) = (  -0.5000000   0.0000000   0.1317162), wk =   0.1666667
        k(    9) = (  -0.5000000   0.0000000  -0.2634324), wk =   0.0833333
        k(   10) = (  -0.5000000   0.2532999   0.0000000), wk =   0.1666667
        k(   11) = (  -0.5000000   0.2532999   0.1317162), wk =   0.3333333
        k(   12) = (  -0.5000000   0.2532999  -0.2634324), wk =   0.1666667

     Largest allocated arrays     est. size (Mb)     dimensions
     Largest temporary arrays     est. size (Mb)     dimensions

     Initial potential from superposition of free atoms

     starting charge  103.92434, renormalised to  200.00000
     Starting wfc are  160 randomized atomic wfcs

     Self-consistent Calculation

     iteration #  1     ecut=    40.00 Ry     beta=0.70
     CG style diagonalization
     ethr =  1.00E-02,  avg # of iterations = 20.7

     total energy              =    -604.81528196 Ry
     Harris-Foulkes estimate   =   -4299.32587989 Ry
     estimated scf accuracy    <    4377.74988764 Ry

     iteration #  2     ecut=    40.00 Ry     beta=0.70
     CG style diagonalization
     c_bands:  1 eigenvalues not converged
     ethr =  1.00E-02,  avg # of iterations = 18.7

[...]

     End of self-consistent calculation

          k = 0.0000 0.0000 0.0000 (  3675 PWs)   bands (ev):

   -76.2918 -76.2621 -76.2563 -76.2277 -35.4025 -35.4023 -35.3896 -35.3748
   -35.3494 -35.3492 -35.3487 -35.3428 -35.2199 -35.2116 -35.1966 -35.1804
     1.9302   3.4423   3.7054   4.5761   4.9601   5.4774   5.5607   5.8328
    17.2128  17.2554  17.6538  18.0500  18.7379  18.8776  18.9152  19.0588
    19.5375  19.6525  19.7388  19.9483  20.2051  20.4397  20.9041  20.9610
    21.2017  21.3386  21.4892  21.5438  21.6800  21.6839  22.3448  22.6116
    23.2246  23.8521  24.1124  24.1715  24.7751  24.7888  24.8820  24.9201
    25.0556  25.5841  26.2863  26.7358  26.8757  26.8763  26.9291  27.1145
    27.6051  28.5944  28.7837  28.9679  34.3891  35.5575  36.1517  37.7320
    37.9770  39.3657  39.6804  41.4071  41.5612  41.5965  41.6195  42.3099
    42.5765  43.0961  43.1754  43.2140  43.6328  43.9233  44.3135  44.6764
    46.5701  46.5776  46.8663  47.6694  47.8374  48.0677  48.3845  49.1609
    49.4455  50.0124  50.0752  50.1536  50.3203  50.7737  50.9578  50.9673
    51.2540  51.7395  52.3264  52.3424  53.0981  53.4156  53.6794  54.0782
    54.6758  55.2719  55.3887  55.7677  55.9164  56.1621  56.4649  56.6558

[...]

          k =-0.5000 0.0000 0.0000 (  3722 PWs)   bands (ev):

[...]

     the Fermi energy is    49.9346 ev

!    total energy              =   -2366.65370631 Ry
     Harris-Foulkes estimate   =   -2366.65374079 Ry
     estimated scf accuracy    <       0.00003636 Ry

     The total energy is the sum of the following terms:

     one-electron contribution =      24.64003205 Ry
     hartree contribution      =     269.54449378 Ry
     xc contribution           =    -238.75203660 Ry
     ewald contribution        =   -2421.69119374 Ry
     smearing contrib. (-TS)   =      -0.39500181 Ry

     convergence has been achieved in  11 iterations

     Forces acting on atoms (Ry/au):

     atom    1 type  1   force =     0.00000000   -0.04448995   -0.04066833
     atom    2 type  1   force =     0.00000000    0.04448995    0.04066833
     atom    3 type  1   force =     0.00000000   -0.04448995    0.04066833
     atom    4 type  1   force =     0.00000000    0.04448995   -0.04066833
     atom    5 type  1   force =     0.00000000    0.20536456   -0.32944061
     atom    6 type  1   force =     0.00000000   -0.20536456    0.32944061
     atom    7 type  1   force =     0.00000000    0.20536456    0.32944061
     atom    8 type  1   force =     0.00000000   -0.20536456   -0.32944061
     atom    9 type  2   force =     0.00000000   -0.21813111    0.00632536
     atom   10 type  2   force =     0.00000000    0.21813111   -0.00632536
     atom   11 type  2   force =     0.00000000   -0.21813111   -0.00632536
     atom   12 type  2   force =     0.00000000    0.21813111    0.00632536

     Total force =     0.898800     Total SCF correction =     0.031502

     entering subroutine stress ...

          total   stress  (Ry/bohr**3)                   (kbar)     P= 6988.11
   0.05114572   0.00000000   0.00000000       7523.79      0.00      0.00
   0.00000000   0.04430489   0.00000000          0.00   6517.47      0.00
   0.00000000   0.00000000   0.04706211          0.00      0.00   6923.07

     BFGS Geometry Optimization

     number of scf cycles    =   1
     number of bfgs steps    =   0

     enthalpy new            =   -2366.6537063145 Ry

     new trust radius        =       0.5000000000 bohr
     new conv_thr            =       0.0001000000 Ry

     new unit-cell volume =   1083.40279 a.u.^3 (   160.54373 Ang^3 )

CELL_PARAMETERS (alat=  7.01510508)
   1.085136619   0.000000000   0.000000000
   0.000000000   1.413014959   0.000000000
   0.000000000   0.000000000   2.046709608

ATOMIC_POSITIONS (crystal)
Co       0.750000000   0.826080114   0.435532629
Co       0.250000000   0.173919886   0.564467371
Co       0.750000000   0.326080114   0.064467371
Co       0.250000000   0.673919886   0.935532629
Co       0.250000000   0.538567203   0.280697562
Co       0.750000000   0.461432797   0.719302438
Co       0.250000000   0.038567203   0.219302438
Co       0.750000000   0.961432797   0.780697562
Si       0.250000000   0.201280717   0.893631631
Si       0.750000000   0.798719283   0.106368369
Si       0.250000000   0.701280717   0.606368369
Si       0.750000000   0.298719283   0.393631631

     Writing output data file Prototype-La-oP12-Co2Si.save
     NEW-OLD atomic charge density approx. for the potential
     NEW k-points:
        k(    1) = (   0.0000000   0.0000000   0.0000000), wk =   0.0833333
        k(    2) = (   0.0000000   0.0000000   0.1221473), wk =   0.1666667
        k(    3) = (   0.0000000   0.0000000  -0.2442945), wk =   0.0833333
        k(    4) = (   0.0000000   0.2359022   0.0000000), wk =   0.1666667
        k(    5) = (   0.0000000   0.2359022   0.1221473), wk =   0.3333333
        k(    6) = (   0.0000000   0.2359022  -0.2442945), wk =   0.1666667
        k(    7) = (  -0.4607715   0.0000000   0.0000000), wk =   0.0833333
        k(    8) = (  -0.4607715   0.0000000   0.1221473), wk =   0.1666667
        k(    9) = (  -0.4607715   0.0000000  -0.2442945), wk =   0.0833333
        k(   10) = (  -0.4607715   0.2359022   0.0000000), wk =   0.1666667
        k(   11) = (  -0.4607715   0.2359022   0.1221473), wk =   0.3333333
        k(   12) = (  -0.4607715   0.2359022  -0.2442945), wk =   0.1666667
     Check: negative starting charge=   -0.010949

     negative rho (up, down):  0.114E-01 0.000E+00
     extrapolated charge  221.21119, renormalised to  200.00000

[...]

     negative rho (up, down):  0.247E-02 0.000E+00

[...]

     enthalpy old            =   -2366.6537063145 Ry
     enthalpy new            =   -2373.5730074060 Ry

     CASE: enthalpy_new < enthalpy_old

     small trust_radius: resetting bfgs history

     new trust radius        =       3.2177004957 bohr
     new conv_thr            =       0.0001000000 Ry

[...]

     Writing output data file Prototype-La-oP12-Co2Si.save
     Check: negative starting charge=   -0.010949
     NEW-OLD atomic charge density approx. for the potential
     NEW k-points:
        k(    1) = (   0.0000000   0.0000000   0.0000000), wk =   0.0833333
        k(    2) = (   0.0000000   0.0000000   0.0842582), wk =   0.1666667
        k(    3) = (   0.0000000   0.0000000  -0.1685164), wk =   0.0833333
        k(    4) = (   0.0000000   0.1666961   0.0000000), wk =   0.1666667
        k(    5) = (   0.0000000   0.1666961   0.0842582), wk =   0.3333333
        k(    6) = (   0.0000000   0.1666961  -0.1685164), wk =   0.1666667
        k(    7) = (  -0.3094943   0.0000000   0.0000000), wk =   0.0833333
        k(    8) = (  -0.3094943   0.0000000   0.0842582), wk =   0.1666667
        k(    9) = (  -0.3094943   0.0000000  -0.1685164), wk =   0.0833333
        k(   10) = (  -0.3094943   0.1666961   0.0000000), wk =   0.1666667
        k(   11) = (  -0.3094943   0.1666961   0.0842582), wk =   0.3333333
        k(   12) = (  -0.3094943   0.1666961  -0.1685164), wk =   0.1666667
     extrapolated charge  269.89869, renormalised to  200.00000

[...]

     Total force =     0.038482     Total SCF correction =     0.004782
     SCF correction compared to forces is large: reduce conv_thr to get better values

[...]

          total   stress  (Ry/bohr**3)                   (kbar)     P=-3584.09
  -0.02630798   0.00000000   0.00000000      -3870.04      0.00      0.00
   0.00000000  -0.02262434   0.00000000          0.00  -3328.15      0.00
   0.00000000   0.00000000  -0.02416016          0.00      0.00  -3554.08

     number of scf cycles    =   3
     number of bfgs steps    =   2

     enthalpy old            =   -2373.5730074060 Ry
     enthalpy new            =   -2341.9645144560 Ry

     CASE: enthalpy_new > enthalpy_old

     new trust radius        =       0.8674783499 bohr

     trust_radius < trust_radius_min

     resetting bfgs history

     Message from routine bfgs:
     history already reset at previous step: stopping
     new conv_thr            =       0.0001000000 Ry

     new unit-cell volume =   1279.11502 a.u.^3 (   189.54529 Ang^3 )

[...]

ATOMIC_POSITIONS (crystal)
Co       0.750000000   0.825813376   0.435462425
Co       0.250000000   0.174186624   0.564537575
Co       0.750000000   0.325813376   0.064537575
Co       0.250000000   0.674186624   0.935462425
Co       0.250000000   0.539656085   0.279568135
Co       0.750000000   0.460343915   0.720431865
Co       0.250000000   0.039656085   0.220431865
Co       0.750000000   0.960343915   0.779568135
Si       0.250000000   0.200098824   0.893718192
Si       0.750000000   0.799901176   0.106281808
Si       0.250000000   0.700098824   0.606281808
Si       0.750000000   0.299901176   0.393718192

     Writing output data file Prototype-La-oP12-Co2Si.save
     NEW-OLD atomic charge density approx. for the potential
     NEW k-points:
        k(    1) = (   0.0000000   0.0000000   0.0000000), wk =   0.0833333
        k(    2) = (   0.0000000   0.0000000   0.1156217), wk =   0.1666667
        k(    3) = (   0.0000000   0.0000000  -0.2312434), wk =   0.0833333
        k(    4) = (   0.0000000   0.2247425   0.0000000), wk =   0.1666667
        k(    5) = (   0.0000000   0.2247425   0.1156217), wk =   0.3333333
        k(    6) = (   0.0000000   0.2247425  -0.2312434), wk =   0.1666667
        k(    7) = (  -0.4327701   0.0000000   0.0000000), wk =   0.0833333
        k(    8) = (  -0.4327701   0.0000000   0.1156217), wk =   0.1666667
        k(    9) = (  -0.4327701   0.0000000  -0.2312434), wk =   0.0833333
        k(   10) = (  -0.4327701   0.2247425   0.0000000), wk =   0.1666667
        k(   11) = (  -0.4327701   0.2247425   0.1156217), wk =   0.3333333
        k(   12) = (  -0.4327701   0.2247425  -0.2312434), wk =   0.1666667
     Check: negative starting charge=   -0.023043

     negative rho (up, down):  0.756E+02 0.000E+00
     extrapolated charge   35.07530, renormalised to  200.00000

[...]

     The maximum number of steps has been reached.

     End of BFGS Geometry Optimization
Begin final coordinates
     new unit-cell volume =   1279.11502 a.u.^3 (   189.54529 Ang^3 )

CELL_PARAMETERS (alat=  7.01510508)
   1.155347905   0.000000000   0.000000000
   0.000000000   1.483178976   0.000000000
   0.000000000   0.000000000   2.162224162

ATOMIC_POSITIONS (crystal)
Co       0.750000000   0.825813376   0.435462425
Co       0.250000000   0.174186624   0.564537575
Co       0.750000000   0.325813376   0.064537575
Co       0.250000000   0.674186624   0.935462425
Co       0.250000000   0.539656085   0.279568135
Co       0.750000000   0.460343915   0.720431865
Co       0.250000000   0.039656085   0.220431865
Co       0.750000000   0.960343915   0.779568135
Si       0.250000000   0.200098824   0.893718192
Si       0.750000000   0.799901176   0.106281808
Si       0.250000000   0.700098824   0.606281808
Si       0.750000000   0.299901176   0.393718192
End final coordinates

     A final scf calculation at the relaxed structure.
     The G-vectors are recalculated for the final unit cell
     Results may differ from those at the preceding step.

     bravais-lattice index     =            0
     lattice parameter (alat)  =       7.0151  a.u.
     unit-cell volume          =    1279.1150 (a.u.)^3
     number of atoms/cell      =           12
     number of atomic types    =            2
     number of electrons       =       200.00
     number of Kohn-Sham states=          120
     kinetic-energy cutoff     =      40.0000  Ry
     charge density cutoff     =     160.0000  Ry
     convergence threshold     =      1.0E-04
     mixing beta               =       0.7000
     number of iterations used =            8  plain     mixing
     Exchange-correlation      = SLA-PZ-NOGX-NOGC ( 1 1 0 0 0)
     EXX-fraction              =        0.00

     celldm(1)=   7.015105  celldm(2)=   0.000000  celldm(3)=   0.000000
     celldm(4)=   0.000000  celldm(5)=   0.000000  celldm(6)=   0.000000

     crystal axes: (cart. coord. in units of alat)
               a(1) = (   1.155348   0.000000   0.000000 )
               a(2) = (   0.000000   1.483179   0.000000 )
               a(3) = (   0.000000   0.000000   2.162224 )

     reciprocal axes: (cart. coord. in units 2 pi/alat)
               b(1) = (  0.865540  0.000000  0.000000 )
               b(2) = (  0.000000  0.674227  0.000000 )
               b(3) = (  0.000000  0.000000  0.462487 )

     PseudoPot. # 1 for Pr read from file:
     /home/cwx6513/pp.La/Pr.UPF
     MD5 check sum: 70e2b4b153859e92c8c91247dfc63203
     Pseudo is Norm-conserving, Zval = 13.0
     Generated in analytical, separable form
     Using radial grid of 1255 points,  6 beta functions with:
                l(1) =   0
                l(2) =   0
                l(3) =   1
                l(4) =   1
                l(5) =   2
                l(6) =   3

     PseudoPot. # 2 for Yb read from file:
     /home/cwx6513/pp.La/Yb.UPF
     MD5 check sum: 3e859b81cc28c53ec6aa3a2e888efcdf
     Pseudo is Norm-conserving, Zval = 24.0
     Generated in analytical, separable form
     Using radial grid of 1269 points,  6 beta functions with:
                l(1) =   0
                l(2) =   0
                l(3) =   1
                l(4) =   1
                l(5) =   2
                l(6) =   3

     atomic species   valence    mass     pseudopotential
        Co            13.00    58.93320     Pr( 1.00)
        Si            24.00    28.08550     Yb( 1.00)

      8 Sym. Ops., with inversion, found ( 6 have fractional translation)

   Cartesian axes

     site n.     atom                  positions (alat units)
         1           Co  tau(   1) = (   0.8665109   1.2248290   0.9415674  )
         2           Co  tau(   2) = (   0.2888370   0.2583499   1.2206568  )
         3           Co  tau(   3) = (   0.8665109   0.4832395   0.1395447  )
         4           Co  tau(   4) = (   0.2888370   0.9999394   2.0226795  )
         5           Co  tau(   5) = (   0.2888370   0.8004066   0.6044890  )
         6           Co  tau(   6) = (   0.8665109   0.6827724   1.5577352  )
         7           Co  tau(   7) = (   0.2888370   0.0588171   0.4766231  )
         8           Co  tau(   8) = (   0.8665109   1.4243619   1.6856011  )
         9           Si  tau(   9) = (   0.2888370   0.2967824   1.9324191  )
        10           Si  tau(  10) = (   0.8665109   1.1863966   0.2298051  )
        11           Si  tau(  11) = (   0.2888370   1.0383719   1.3109172  )
        12           Si  tau(  12) = (   0.8665109   0.4448071   0.8513070  )

     number of k points=    12  gaussian smearing, width (Ry)=  0.1000
                       cart. coord. in units 2pi/alat
        k(    1) = (   0.0000000   0.0000000   0.0000000), wk =   0.0833333
        k(    2) = (   0.0000000   0.0000000   0.1156217), wk =   0.1666667
        k(    3) = (   0.0000000   0.0000000  -0.2312434), wk =   0.0833333
        k(    4) = (   0.0000000   0.2247425   0.0000000), wk =   0.1666667
        k(    5) = (   0.0000000   0.2247425   0.1156217), wk =   0.3333333
        k(    6) = (   0.0000000   0.2247425  -0.2312434), wk =   0.1666667
        k(    7) = (  -0.4327701   0.0000000   0.0000000), wk =   0.0833333
        k(    8) = (  -0.4327701   0.0000000   0.1156217), wk =   0.1666667
        k(    9) = (  -0.4327701   0.0000000  -0.2312434), wk =   0.0833333
        k(   10) = (  -0.4327701   0.2247425   0.0000000), wk =   0.1666667
        k(   11) = (  -0.4327701   0.2247425   0.1156217), wk =   0.3333333
        k(   12) = (  -0.4327701   0.2247425  -0.2312434), wk =   0.1666667

     Largest allocated arrays     est. size (Mb)     dimensions
     Largest temporary arrays     est. size (Mb)     dimensions

     Initial potential from superposition of free atoms
     Check: negative starting charge=   -0.000932

     starting charge  103.92434, renormalised to  200.00000

     negative rho (up, down):  0.179E-02 0.000E+00
     Starting wfc are  160 randomized atomic wfcs

     Writing output data file Prototype-La-oP12-Co2Si.save

     Self-consistent Calculation

[...]

     negative rho (up, down):  0.402E-04 0.000E+00

[...]

     iteration # 10     ecut=    40.00 Ry     beta=0.70
     CG style diagonalization
     c_bands:  1 eigenvalues not converged
     c_bands:  1 eigenvalues not converged
     ethr =  4.92E-06,  avg # of iterations =  4.8

     total energy              =   -2378.85252519 Ry
     Harris-Foulkes estimate   =   -2378.85332305 Ry
     estimated scf accuracy    <       0.00162093 Ry

     iteration # 11     ecut=    40.00 Ry     beta=0.70
     CG style diagonalization
     ethr =  8.10E-07,  avg # of iterations =  3.9

     End of self-consistent calculation

[...]

          k = 0.0000 0.2247-0.2312 (  5468 PWs)   bands (ev):

[...]

          k =-0.4328 0.2247-0.2312 (  5492 PWs)   bands (ev):

   -91.5152 -91.5152 -91.5140 -91.5140 -50.3603 -50.3603 -50.3594 -50.3594
   -50.3477 -50.3477 -50.3469 -50.3469 -50.3259 -50.3259 -50.3255 -50.3255
   -10.1333 -10.1333  -9.9565  -9.9565  -9.7806  -9.7806  -9.6514  -9.6514
     6.5491   6.5491   6.6138   6.6138   6.7112   6.7112   6.7395   6.7395
     6.8428   6.8428   6.8830   6.8830   7.1275   7.1275   7.1591   7.1591
     7.1885   7.1885   7.2773   7.2773   8.2194   8.2194   8.3347   8.3347
     8.4668   8.4668   9.0536   9.0536   9.1090   9.1090   9.9184   9.9184
    10.4869  10.4869  10.7956  10.7956  11.0629  11.0629  11.1548  11.1548
    11.4644  11.4644  11.5724  11.5724  20.7790  20.7790  21.6203  21.6203
    25.9521  25.9521  26.0770  26.0770  27.2741  27.2741  27.6093  27.6093
    27.7048  27.7048  28.6041  28.6041  29.1244  29.1244  29.6143  29.6143
    30.2044  30.2044  30.9960  30.9960  31.0785  31.0785  32.3936  32.3936
    32.6176  32.6176  33.0620  33.0620  33.5131  33.5131  34.2748  34.2748
    34.4222  34.4222  34.4666  34.4666  34.9845  34.9845  35.7179  35.7180
    37.5894  37.5895  37.6201  37.6201  38.9646  38.9647  39.1262  39.1261

     the Fermi energy is    33.3720 ev

!    total energy              =   -2378.85297980 Ry
     Harris-Foulkes estimate   =   -2378.85301256 Ry
     estimated scf accuracy    <       0.00003825 Ry

     The total energy is the sum of the following terms:

     one-electron contribution =    -385.61739649 Ry
     hartree contribution      =     359.12698665 Ry
     xc contribution           =    -227.20100240 Ry
     ewald contribution        =   -2124.65400803 Ry
     smearing contrib. (-TS)   =      -0.50755954 Ry

     convergence has been achieved in  11 iterations

     Forces acting on atoms (Ry/au):

     atom    1 type  1   force =     0.00000000   -0.03529690    0.00686041
     atom    2 type  1   force =     0.00000000    0.03529690   -0.00686041
     atom    3 type  1   force =     0.00000000   -0.03529690   -0.00686041
     atom    4 type  1   force =     0.00000000    0.03529690    0.00686041
     atom    5 type  1   force =     0.00000000    0.06991477   -0.11068861
     atom    6 type  1   force =     0.00000000   -0.06991477    0.11068861
     atom    7 type  1   force =     0.00000000    0.06991477    0.11068861
     atom    8 type  1   force =     0.00000000   -0.06991477   -0.11068861
     atom    9 type  2   force =     0.00000000   -0.08677722   -0.00518418
     atom   10 type  2   force =     0.00000000    0.08677722    0.00518418
     atom   11 type  2   force =     0.00000000   -0.08677722    0.00518418
     atom   12 type  2   force =     0.00000000    0.08677722   -0.00518418

     Total force =     0.322429     Total SCF correction =     0.016328

     entering subroutine stress ...

          total   stress  (Ry/bohr**3)                   (kbar)     P= 1444.70
   0.01052532   0.00000000   0.00000000       1548.33      0.00      0.00
   0.00000000   0.00913422   0.00000000          0.00   1343.69      0.00
   0.00000000   0.00000000   0.00980299          0.00      0.00   1442.07

     Writing output data file Prototype-La-oP12-Co2Si.save

     General routines

     Parallel routines

   This run was terminated on:  16:45:45  22Mar2018

   JOB DONE.