     Program PWSCF v.5.0.2 starts on 22Mar2018 at 16: 7:38

     Current dimensions of program PWSCF are:
     Max number of different atomic species (ntypx) = 10
     Max number of k-points (npk) =  40000
     Max angular momentum in pseudopotentials (lmaxx) =  3
     Waiting for input...
     Reading input from standard input

     Subspace diagonalization in iterative solution of the eigenvalue problem:
     a serial algorithm will be used

     bravais-lattice index     =            0
     lattice parameter (alat)  =       9.9235  a.u.
     unit-cell volume          =    1361.0366 (a.u.)^3
     number of atoms/cell      =           12
     number of atomic types    =            2
     number of electrons       =       196.00
     number of Kohn-Sham states=          118
     kinetic-energy cutoff     =      40.0000  Ry
     charge density cutoff     =     160.0000  Ry
     convergence threshold     =      1.0E-04
     mixing beta               =       0.7000
     number of iterations used =            8  plain     mixing
     Exchange-correlation      = SLA-PZ-NOGX-NOGC ( 1 1 0 0 0)
     EXX-fraction              =        0.00
     nstep                     =           50

     celldm(1)=   9.923489  celldm(2)=   0.000000  celldm(3)=   0.000000
     celldm(4)=   0.000000  celldm(5)=   0.000000  celldm(6)=   0.000000

     crystal axes: (cart. coord. in units of alat)
               a(1) = (   1.000000   0.000000   0.000000 )
               a(2) = (  -0.500000   0.866025   0.000000 )
               a(3) = (   0.000000   0.000000   1.608222 )

     reciprocal axes: (cart. coord. in units 2 pi/alat)
               b(1) = (  1.000000  0.577350  0.000000 )
               b(2) = (  0.000000  1.154701  0.000000 )
               b(3) = (  0.000000  0.000000  0.621805 )

     PseudoPot. # 1 for Tm read from file:
     /home/cwx6513/pp.La/Tm.UPF
     MD5 check sum: 245516e0878b5372ceeb9443ded2c4e1
     Pseudo is Norm-conserving, Zval = 23.0
     Generated in analytical, separable form
     Using radial grid of 1269 points,  6 beta functions with:
                l(1) =   0
                l(2) =   0
                l(3) =   1
                l(4) =   1
                l(5) =   2
                l(6) =   3

     PseudoPot. # 2 for Pr read from file:
     /home/cwx6513/pp.La/Pr.UPF
     MD5 check sum: 70e2b4b153859e92c8c91247dfc63203
     Pseudo is Norm-conserving, Zval = 13.0
     Generated in analytical, separable form
     Using radial grid of 1255 points,  6 beta functions with:
                l(1) =   0
                l(2) =   0
                l(3) =   1
                l(4) =   1
                l(5) =   2
                l(6) =   3

     atomic species   valence    mass     pseudopotential
        Mg            23.00    24.30500     Tm( 1.00)
        Zn            13.00    65.39000     Pr( 1.00)

     24 Sym. Ops., with inversion, found (12 have fractional translation)

   Cartesian axes

     site n.     atom                  positions (alat units)
         1           Mg  tau(   1) = (  -0.0000005   0.5773506   0.1003820  )
         2           Mg  tau(   2) = (   0.5000005   0.2886748   0.9044931  )
         3           Mg  tau(   3) = (   0.5000005   0.2886748   1.5078402  )
         4           Mg  tau(   4) = (  -0.0000005   0.5773506   0.7037291  )
         5           Zn  tau(   5) = (   0.0000000   0.0000000   0.0000000  )
         6           Zn  tau(   6) = (   0.0000000   0.0000000   0.8041111  )
         7           Zn  tau(   7) = (   0.0000000   0.2950739   1.2061667  )
         8           Zn  tau(   8) = (   0.7444585   0.1475370   0.4020556  )
         9           Zn  tau(   9) = (   0.2555415   0.1475370   0.4020556  )
        10           Zn  tau(  10) = (   0.2444585   0.7184884   1.2061667  )
        11           Zn  tau(  11) = (  -0.2444585   0.7184884   1.2061667  )
        12           Zn  tau(  12) = (   0.5000000   0.5709515   0.4020556  )

     number of k points=    12  gaussian smearing, width (Ry)=  0.1000
                       cart. coord. in units 2pi/alat
        k(    1) = (   0.0000000   0.0000000   0.0000000), wk =   0.0833333
        k(    2) = (   0.0000000   0.0000000   0.1554512), wk =   0.1666667
        k(    3) = (   0.0000000   0.0000000  -0.3109023), wk =   0.0833333
        k(    4) = (   0.0000000   0.3849002   0.0000000), wk =   0.1666667
        k(    5) = (   0.0000000   0.3849002   0.1554512), wk =   0.3333333
        k(    6) = (   0.0000000   0.3849002  -0.3109023), wk =   0.1666667
        k(    7) = (  -0.5000000  -0.2886751   0.0000000), wk =   0.0833333
        k(    8) = (  -0.5000000  -0.2886751   0.1554512), wk =   0.1666667
        k(    9) = (  -0.5000000  -0.2886751  -0.3109023), wk =   0.0833333
        k(   10) = (  -0.5000000   0.0962250   0.0000000), wk =   0.1666667
        k(   11) = (  -0.5000000   0.0962250   0.1554512), wk =   0.3333333
        k(   12) = (  -0.5000000   0.0962250  -0.3109023), wk =   0.1666667

     Largest allocated arrays     est. size (Mb)     dimensions
     Largest temporary arrays     est. size (Mb)     dimensions

     Initial potential from superposition of free atoms
     Check: negative starting charge=   -0.000695

     starting charge  103.92434, renormalised to  196.00000

     negative rho (up, down):  0.131E-02 0.000E+00
     Starting wfc are  160 randomized atomic wfcs

     Self-consistent Calculation

     iteration #  1     ecut=    40.00 Ry     beta=0.70
     CG style diagonalization
     c_bands:  1 eigenvalues not converged
     ethr =  1.00E-02,  avg # of iterations = 25.2

     negative rho (up, down):  0.371E-03 0.000E+00

     total energy              =     -79.12340548 Ry
     Harris-Foulkes estimate   =   -5011.05991678 Ry
     estimated scf accuracy    <    5774.31512054 Ry

     iteration #  2     ecut=    40.00 Ry     beta=0.70
     CG style diagonalization
     ethr =  1.00E-02,  avg # of iterations = 22.0

[...]

     End of self-consistent calculation

          k = 0.0000 0.0000 0.0000 (  5769 PWs)   bands (ev):

   -80.6681 -80.6535 -80.6477 -80.6058 -39.3751 -39.3584 -39.3447 -39.3447
   -39.3336 -39.3246 -39.3246 -39.3086 -39.3013 -39.3013 -39.2922 -39.2922
   -14.0101 -13.5770 -12.4024 -11.8984 -11.8983 -11.8851 -11.8851 -11.8339
     2.1061   3.0323   3.9532   5.0615   5.0615   5.3605   5.3605   5.5015
     5.5016   6.3796   7.3233   7.3234   7.3718   7.3719   8.1412   9.1079
     9.3141   9.3141   9.3895   9.4091   9.4091   9.5081   9.5710   9.5801
     9.6065   9.6065   9.6269   9.6270   9.7687   9.8415   9.8415   9.8525
     9.8525   9.9056   9.9056   9.9176   9.9176  10.0623  10.0623  10.3171
    10.4628  10.4628  10.4947  10.4947  17.0809  19.0827  19.4968  22.7157
    22.7158  22.8323  23.1221  24.7342  24.7343  24.7783  25.0508  25.0805
    26.2818  26.2819  26.3600  26.3600  26.8050  26.8051  26.8185  27.1931
    28.5209  28.5209  29.2805  29.2806  30.0025  30.0027  31.1649  31.6351
    32.0745  32.2950  32.2951  32.9081  33.0471  33.0472  33.1961  33.1962
    33.2744  33.7748  33.7749  33.7897  33.7941  33.7942  34.0692  34.0693
    34.1355  34.4392  35.3913  35.3914  36.2932  36.7358

[...]

          k =-0.5000-0.2887 0.0000 (  5800 PWs)   bands (ev):

[...]

     the Fermi energy is    31.1431 ev

!    total energy              =   -2210.58331109 Ry
     Harris-Foulkes estimate   =   -2210.58332753 Ry
     estimated scf accuracy    <       0.00001902 Ry

     The total energy is the sum of the following terms:

     one-electron contribution =    -306.63834263 Ry
     hartree contribution      =     315.92839387 Ry
     xc contribution           =    -218.31585229 Ry
     ewald contribution        =   -2001.06453487 Ry
     smearing contrib. (-TS)   =      -0.49297516 Ry

     convergence has been achieved in  12 iterations

     Forces acting on atoms (Ry/au):

     atom    1 type  1   force =     0.00000000    0.00000000    0.02123556
     atom    2 type  1   force =     0.00000000    0.00000000    0.02123556
     atom    3 type  1   force =     0.00000000    0.00000000   -0.02123556
     atom    4 type  1   force =     0.00000000    0.00000000   -0.02123556
     atom    5 type  2   force =     0.00000000    0.00000000    0.00000000
     atom    6 type  2   force =     0.00000000    0.00000000    0.00000000
     atom    7 type  2   force =     0.00000000    0.05026293    0.00000000
     atom    8 type  2   force =    -0.04352897    0.02513146    0.00000000
     atom    9 type  2   force =     0.04352897    0.02513146    0.00000000
     atom   10 type  2   force =    -0.04352897   -0.02513146    0.00000000
     atom   11 type  2   force =     0.04352897   -0.02513146    0.00000000
     atom   12 type  2   force =     0.00000000   -0.05026293    0.00000000

     Total force =     0.130238     Total SCF correction =     0.010711

     entering subroutine stress ...

          total   stress  (Ry/bohr**3)                   (kbar)     P=  956.44
   0.00627111   0.00000000   0.00000000        922.51      0.00      0.00
   0.00000000   0.00627111   0.00000000          0.00    922.51      0.00
   0.00000000   0.00000000   0.00696296          0.00      0.00   1024.29

     BFGS Geometry Optimization

     number of scf cycles    =   1
     number of bfgs steps    =   0

     enthalpy new            =   -2210.5833110920 Ry

     new trust radius        =       0.5000000000 bohr
     new conv_thr            =       0.0001000000 Ry

     new unit-cell volume =   1636.07120 a.u.^3 (   242.44074 Ang^3 )

CELL_PARAMETERS (alat=  9.92348860)
   1.061031707   0.000000000   0.000000000
  -0.530515854   0.918880413   0.000000000
   0.000000000   0.000000000   1.717203317

ATOMIC_POSITIONS (crystal)
Mg       0.333333000   0.666667000   0.062935994
Mg       0.666667000   0.333333000   0.562935994
Mg       0.666667000   0.333333000   0.937064006
Mg       0.333333000   0.666667000   0.437064006
Zn       0.000000000   0.000000000   0.000000000
Zn       0.000000000   0.000000000   0.500000000
Zn       0.171499397   0.342998795   0.750000000
Zn       0.828500603   0.171499397   0.250000000
Zn       0.342998795   0.171499397   0.250000000
Zn       0.657001205   0.828500603   0.750000000
Zn       0.171499397   0.828500603   0.750000000
Zn       0.828500603   0.657001205   0.250000000

     Writing output data file Prototype-La-hP12-MgZn2.save
     Check: negative starting charge=   -0.000695
     NEW-OLD atomic charge density approx. for the potential
     NEW k-points:
        k(    1) = (   0.0000000   0.0000000   0.0000000), wk =   0.0833333
        k(    2) = (   0.0000000   0.0000000   0.1455856), wk =   0.1666667
        k(    3) = (   0.0000000   0.0000000  -0.2911711), wk =   0.0833333
        k(    4) = (   0.0000000   0.3627603   0.0000000), wk =   0.1666667
        k(    5) = (   0.0000000   0.3627603   0.1455856), wk =   0.3333333
        k(    6) = (   0.0000000   0.3627603  -0.2911711), wk =   0.1666667
        k(    7) = (  -0.4712395  -0.2720702   0.0000000), wk =   0.0833333
        k(    8) = (  -0.4712395  -0.2720702   0.1455856), wk =   0.1666667
        k(    9) = (  -0.4712395  -0.2720702  -0.2911711), wk =   0.0833333
        k(   10) = (  -0.4712395   0.0906901   0.0000000), wk =   0.1666667
        k(   11) = (  -0.4712395   0.0906901   0.1455856), wk =   0.3333333
        k(   12) = (  -0.4712395   0.0906901  -0.2911711), wk =   0.1666667
     Check: negative starting charge=   -0.007042

     negative rho (up, down):  0.611E-02 0.000E+00
     extrapolated charge  213.47038, renormalised to  196.00000

[...]

     Total force =     0.018180     Total SCF correction =     0.004755
     SCF correction compared to forces is large: reduce conv_thr to get better values

[...]

     enthalpy old            =   -2210.5833110920 Ry
     enthalpy new            =   -2211.3112355404 Ry

     CASE: enthalpy_new < enthalpy_old

     small trust_radius: resetting bfgs history

     new trust radius        =       0.1107774466 bohr
     new conv_thr            =       0.0000090836 Ry

[...]

     Writing output data file Prototype-La-hP12-MgZn2.save
     Check: negative starting charge=   -0.007042
     NEW-OLD atomic charge density approx. for the potential
     NEW k-points:
        k(    1) = (   0.0000000   0.0000000   0.0000000), wk =   0.0833333
        k(    2) = (   0.0000000   0.0000000   0.1474288), wk =   0.1666667
        k(    3) = (   0.0000000   0.0000000  -0.2948575), wk =   0.0833333
        k(    4) = (   0.0000000   0.3677968   0.0000000), wk =   0.1666667
        k(    5) = (   0.0000000   0.3677968   0.1474288), wk =   0.3333333
        k(    6) = (   0.0000000   0.3677968  -0.2948575), wk =   0.1666667
        k(    7) = (  -0.4777820  -0.2758476   0.0000000), wk =   0.0833333
        k(    8) = (  -0.4777820  -0.2758476   0.1474288), wk =   0.1666667
        k(    9) = (  -0.4777820  -0.2758476  -0.2948575), wk =   0.0833333
        k(   10) = (  -0.4777820   0.0919492   0.0000000), wk =   0.1666667
        k(   11) = (  -0.4777820   0.0919492   0.1474288), wk =   0.3333333
        k(   12) = (  -0.4777820   0.0919492  -0.2948575), wk =   0.1666667
     Check: negative starting charge=   -0.005259

     negative rho (up, down):  0.445E-02 0.000E+00
     extrapolated charge  191.74170, renormalised to  196.00000

[...]

     number of scf cycles    =   3
     number of bfgs steps    =   2

     enthalpy old            =   -2211.3112355404 Ry
     enthalpy new            =   -2211.3051582087 Ry

     CASE: enthalpy_new > enthalpy_old

     new trust radius        =       0.0469184881 bohr

     trust_radius < trust_radius_min

     resetting bfgs history

     Message from routine bfgs:
     history already reset at previous step: stopping
     new conv_thr            =       0.0000090836 Ry

     new unit-cell volume =   1570.81888 a.u.^3 (   232.77134 Ang^3 )

[...]

ATOMIC_POSITIONS (crystal)
Mg       0.333333000   0.666667000   0.063482633
Mg       0.666667000   0.333333000   0.563482633
Mg       0.666667000   0.333333000   0.936517367
Mg       0.333333000   0.666667000   0.436517367
Zn       0.000000000   0.000000000   0.000000000
Zn       0.000000000   0.000000000   0.500000000
Zn       0.171514768   0.343029535   0.750000000
Zn       0.828485232   0.171514768   0.250000000
Zn       0.343029535   0.171514768   0.250000000
Zn       0.656970465   0.828485232   0.750000000
Zn       0.171514768   0.828485232   0.750000000
Zn       0.828485232   0.656970465   0.250000000

     Writing output data file Prototype-La-hP12-MgZn2.save
     Check: negative starting charge=   -0.005259
     NEW-OLD atomic charge density approx. for the potential
     NEW k-points:
        k(    1) = (   0.0000000   0.0000000   0.0000000), wk =   0.0833333
        k(    2) = (   0.0000000   0.0000000   0.1474570), wk =   0.1666667
        k(    3) = (   0.0000000   0.0000000  -0.2949139), wk =   0.0833333
        k(    4) = (   0.0000000   0.3678615   0.0000000), wk =   0.1666667
        k(    5) = (   0.0000000   0.3678615   0.1474570), wk =   0.3333333
        k(    6) = (   0.0000000   0.3678615  -0.2949139), wk =   0.1666667
        k(    7) = (  -0.4778660  -0.2758961   0.0000000), wk =   0.0833333
        k(    8) = (  -0.4778660  -0.2758961   0.1474570), wk =   0.1666667
        k(    9) = (  -0.4778660  -0.2758961  -0.2949139), wk =   0.0833333
        k(   10) = (  -0.4778660   0.0919654   0.0000000), wk =   0.1666667
        k(   11) = (  -0.4778660   0.0919654   0.1474570), wk =   0.3333333
        k(   12) = (  -0.4778660   0.0919654  -0.2949139), wk =   0.1666667
     Check: negative starting charge=   -0.005235
     extrapolated charge  195.94357, renormalised to  196.00000

[...]

     Total force =     0.020276     Total SCF correction =     0.000993

[...]

     The maximum number of steps has been reached.

     End of BFGS Geometry Optimization
Begin final coordinates
     new unit-cell volume =   1570.81888 a.u.^3 (   232.77134 Ang^3 )

CELL_PARAMETERS (alat=  9.92348860)
   1.046318323   0.000000000   0.000000000
  -0.523159162   0.906138248   0.000000000
   0.000000000   0.000000000   1.695409815

ATOMIC_POSITIONS (crystal)
Mg       0.333333000   0.666667000   0.063482633
Mg       0.666667000   0.333333000   0.563482633
Mg       0.666667000   0.333333000   0.936517367
Mg       0.333333000   0.666667000   0.436517367
Zn       0.000000000   0.000000000   0.000000000
Zn       0.000000000   0.000000000   0.500000000
Zn       0.171514768   0.343029535   0.750000000
Zn       0.828485232   0.171514768   0.250000000
Zn       0.343029535   0.171514768   0.250000000
Zn       0.656970465   0.828485232   0.750000000
Zn       0.171514768   0.828485232   0.750000000
Zn       0.828485232   0.656970465   0.250000000
End final coordinates

     A final scf calculation at the relaxed structure.
     The G-vectors are recalculated for the final unit cell
     Results may differ from those at the preceding step.

     bravais-lattice index     =            0
     lattice parameter (alat)  =       9.9235  a.u.
     unit-cell volume          =    1570.8189 (a.u.)^3
     number of atoms/cell      =           12
     number of atomic types    =            2
     number of electrons       =       196.00
     number of Kohn-Sham states=          118
     kinetic-energy cutoff     =      40.0000  Ry
     charge density cutoff     =     160.0000  Ry
     convergence threshold     =      9.1E-06
     mixing beta               =       0.7000
     number of iterations used =            8  plain     mixing
     Exchange-correlation      = SLA-PZ-NOGX-NOGC ( 1 1 0 0 0)
     EXX-fraction              =        0.00

     celldm(1)=   9.923489  celldm(2)=   0.000000  celldm(3)=   0.000000
     celldm(4)=   0.000000  celldm(5)=   0.000000  celldm(6)=   0.000000

     crystal axes: (cart. coord. in units of alat)
               a(1) = (   1.046318   0.000000   0.000000 )
               a(2) = (  -0.523159   0.906138   0.000000 )
               a(3) = (   0.000000   0.000000   1.695410 )

     reciprocal axes: (cart. coord. in units 2 pi/alat)
               b(1) = (  0.955732  0.551792  0.000000 )
               b(2) = (  0.000000  1.103584  0.000000 )
               b(3) = (  0.000000  0.000000  0.589828 )

     PseudoPot. # 1 for Tm read from file:
     /home/cwx6513/pp.La/Tm.UPF
     MD5 check sum: 245516e0878b5372ceeb9443ded2c4e1
     Pseudo is Norm-conserving, Zval = 23.0
     Generated in analytical, separable form
     Using radial grid of 1269 points,  6 beta functions with:
                l(1) =   0
                l(2) =   0
                l(3) =   1
                l(4) =   1
                l(5) =   2
                l(6) =   3

     PseudoPot. # 2 for Pr read from file:
     /home/cwx6513/pp.La/Pr.UPF
     MD5 check sum: 70e2b4b153859e92c8c91247dfc63203
     Pseudo is Norm-conserving, Zval = 13.0
     Generated in analytical, separable form
     Using radial grid of 1255 points,  6 beta functions with:
                l(1) =   0
                l(2) =   0
                l(3) =   1
                l(4) =   1
                l(5) =   2
                l(6) =   3

     atomic species   valence    mass     pseudopotential
        Mg            23.00    24.30500     Tm( 1.00)
        Zn            13.00    65.39000     Pr( 1.00)

     24 Sym. Ops., with inversion, found (12 have fractional translation)

   Cartesian axes

     site n.     atom                  positions (alat units)
         1           Mg  tau(   1) = (  -0.0000005   0.6040925   0.1076291  )
         2           Mg  tau(   2) = (   0.5231597   0.3020458   0.9553340  )
         3           Mg  tau(   3) = (   0.5231597   0.3020458   1.5877807  )
         4           Mg  tau(   4) = (  -0.0000005   0.6040925   0.7400758  )
         5           Zn  tau(   5) = (   0.0000000   0.0000000   0.0000000  )
         6           Zn  tau(   6) = (   0.0000000   0.0000000   0.8477049  )
         7           Zn  tau(   7) = (   0.0000000   0.3108322   1.2715574  )
         8           Zn  tau(   8) = (   0.7771298   0.1554161   0.4238525  )
         9           Zn  tau(   9) = (   0.2691886   0.1554161   0.4238525  )
        10           Zn  tau(  10) = (   0.2539706   0.7507222   1.2715574  )
        11           Zn  tau(  11) = (  -0.2539706   0.7507222   1.2715574  )
        12           Zn  tau(  12) = (   0.5231592   0.5953061   0.4238525  )

     number of k points=    12  gaussian smearing, width (Ry)=  0.1000
                       cart. coord. in units 2pi/alat
        k(    1) = (   0.0000000   0.0000000   0.0000000), wk =   0.0833333
        k(    2) = (   0.0000000   0.0000000   0.1474570), wk =   0.1666667
        k(    3) = (   0.0000000   0.0000000  -0.2949139), wk =   0.0833333
        k(    4) = (   0.0000000   0.3678615   0.0000000), wk =   0.1666667
        k(    5) = (   0.0000000   0.3678615   0.1474570), wk =   0.3333333
        k(    6) = (   0.0000000   0.3678615  -0.2949139), wk =   0.1666667
        k(    7) = (  -0.4778660  -0.2758961   0.0000000), wk =   0.0833333
        k(    8) = (  -0.4778660  -0.2758961   0.1474570), wk =   0.1666667
        k(    9) = (  -0.4778660  -0.2758961  -0.2949139), wk =   0.0833333
        k(   10) = (  -0.4778660   0.0919654   0.0000000), wk =   0.1666667
        k(   11) = (  -0.4778660   0.0919654   0.1474570), wk =   0.3333333
        k(   12) = (  -0.4778660   0.0919654  -0.2949139), wk =   0.1666667

     Largest allocated arrays     est. size (Mb)     dimensions
     Largest temporary arrays     est. size (Mb)     dimensions

     Initial potential from superposition of free atoms
     Check: negative starting charge=   -0.001602

     starting charge  103.92434, renormalised to  196.00000

     negative rho (up, down):  0.302E-02 0.000E+00
     Starting wfc are  160 randomized atomic wfcs

     Writing output data file Prototype-La-hP12-MgZn2.save

     Self-consistent Calculation

[...]

     negative rho (up, down):  0.129E-04 0.000E+00

[...]

     iteration # 12     ecut=    40.00 Ry     beta=0.70
     CG style diagonalization
     c_bands:  1 eigenvalues not converged
     c_bands:  1 eigenvalues not converged
     c_bands:  1 eigenvalues not converged
     ethr =  5.66E-07,  avg # of iterations =  4.4

     total energy              =   -2212.21985823 Ry
     Harris-Foulkes estimate   =   -2212.21993810 Ry
     estimated scf accuracy    <       0.00018493 Ry

     iteration # 13     ecut=    40.00 Ry     beta=0.70
     CG style diagonalization
     ethr =  9.44E-08,  avg # of iterations =  3.6

     End of self-consistent calculation

[...]

          k = 0.0000 0.3679-0.2949 (  6712 PWs)   bands (ev):

[...]

          k =-0.4779 0.0920-0.2949 (  6696 PWs)   bands (ev):

   -84.8644 -84.8644 -84.8531 -84.8531 -43.5189 -43.5189 -43.5086 -43.5086
   -43.5024 -43.5024 -43.4983 -43.4983 -43.4885 -43.4885 -43.4818 -43.4818
   -17.2000 -17.2000 -16.8311 -16.8311 -16.2576 -16.2576 -16.1885 -16.1885
     0.5635   0.5635   1.5038   1.5038   2.1158   2.1158   2.2241   2.2242
     2.4500   2.4500   2.7306   2.7306   3.2777   3.2777   3.7778   3.7778
     4.0915   4.0915   4.4492   4.4492   4.9402   4.9402   5.0081   5.0081
     5.4291   5.4291   5.4659   5.4659   5.5921   5.5921   5.6208   5.6208
     5.6643   5.6643   5.6990   5.6990   5.7501   5.7501   5.7872   5.7872
     5.8096   5.8096   5.8569   5.8569  15.6634  15.6634  16.4178  16.4178
    20.6729  20.6729  21.0159  21.0159  21.7237  21.7237  22.3815  22.3815
    22.4852  22.4853  23.0254  23.0254  23.6408  23.6409  23.9319  23.9319
    24.2046  24.2046  24.9416  24.9416  25.4669  25.4669  25.6677  25.6677
    26.4859  26.4859  26.7319  26.7319  27.0179  27.0179  27.4340  27.4340
    27.7793  27.7793  28.5204  28.5204  29.2714  29.2715  29.5771  29.5771
    30.1509  30.1511  30.4083  30.4085  31.0007  31.0011

     the Fermi energy is    26.6243 ev

!    total energy              =   -2212.21989230 Ry
     Harris-Foulkes estimate   =   -2212.21989968 Ry
     estimated scf accuracy    <       0.00000906 Ry

     The total energy is the sum of the following terms:

     one-electron contribution =    -440.09584431 Ry
     hartree contribution      =     351.49374146 Ry
     xc contribution           =    -215.40455348 Ry
     ewald contribution        =   -1907.65858241 Ry
     smearing contrib. (-TS)   =      -0.55465355 Ry

     convergence has been achieved in  13 iterations

     Forces acting on atoms (Ry/au):

     atom    1 type  1   force =     0.00000000    0.00000000    0.00351764
     atom    2 type  1   force =     0.00000000    0.00000000    0.00351764
     atom    3 type  1   force =     0.00000000    0.00000000   -0.00351764
     atom    4 type  1   force =     0.00000000    0.00000000   -0.00351764
     atom    5 type  2   force =     0.00000000    0.00000000    0.00000000
     atom    6 type  2   force =     0.00000000    0.00000000    0.00000000
     atom    7 type  2   force =     0.00000000    0.00380426    0.00000000
     atom    8 type  2   force =    -0.00329458    0.00190213    0.00000000
     atom    9 type  2   force =     0.00329458    0.00190213    0.00000000
     atom   10 type  2   force =    -0.00329458   -0.00190213    0.00000000
     atom   11 type  2   force =     0.00329458   -0.00190213    0.00000000
     atom   12 type  2   force =     0.00000000   -0.00380426    0.00000000

     Total force =     0.011676     Total SCF correction =     0.005883
     SCF correction compared to forces is large: reduce conv_thr to get better values

     entering subroutine stress ...

          total   stress  (Ry/bohr**3)                   (kbar)     P=  311.89
   0.00207081   0.00000000   0.00000000        304.63      0.00      0.00
   0.00000000   0.00207081   0.00000000          0.00    304.63      0.00
   0.00000000   0.00000000   0.00221901          0.00      0.00    326.43

     Writing output data file Prototype-La-hP12-MgZn2.save

     General routines

     Parallel routines

   This run was terminated on:  16:36:42  22Mar2018

   JOB DONE.