     Program PWSCF v.5.0.2 starts on 22Mar2018 at 16:20:21

     Current dimensions of program PWSCF are:
     Max number of different atomic species (ntypx) = 10
     Max number of k-points (npk) =  40000
     Max angular momentum in pseudopotentials (lmaxx) =  3
     Waiting for input...
     Reading input from standard input

     Subspace diagonalization in iterative solution of the eigenvalue problem:
     a serial algorithm will be used

     bravais-lattice index     =            0
     lattice parameter (alat)  =      12.0168  a.u.
     unit-cell volume          =    1187.3413 (a.u.)^3
     number of atoms/cell      =            8
     number of atomic types    =            2
     number of electrons       =       106.00
     number of Kohn-Sham states=           64
     kinetic-energy cutoff     =      40.0000  Ry
     charge density cutoff     =     160.0000  Ry
     convergence threshold     =      1.0E-04
     mixing beta               =       0.7000
     number of iterations used =            8  plain     mixing
     Exchange-correlation      = SLA-PZ-NOGX-NOGC ( 1 1 0 0 0)
     EXX-fraction              =        0.00
     nstep                     =           50

     celldm(1)=  12.016801  celldm(2)=   0.000000  celldm(3)=   0.000000
     celldm(4)=   0.000000  celldm(5)=   0.000000  celldm(6)=   0.000000

     crystal axes: (cart. coord. in units of alat)
               a(1) = (   1.000000   0.000000   0.000000 )
               a(2) = (  -0.500000   0.866025   0.000000 )
               a(3) = (   0.000000   0.000000   0.790093 )

     reciprocal axes: (cart. coord. in units 2 pi/alat)
               b(1) = (  1.000000  0.577350  0.000000 )
               b(2) = (  0.000000  1.154701  0.000000 )
               b(3) = (  0.000000  0.000000  1.265674 )

     PseudoPot. # 1 for Pr read from file:
     /home/cwx6513/pp.La/Pr.UPF
     MD5 check sum: 70e2b4b153859e92c8c91247dfc63203
     Pseudo is Norm-conserving, Zval = 13.0
     Generated in analytical, separable form
     Using radial grid of 1255 points,  6 beta functions with:
                l(1) =   0
                l(2) =   0
                l(3) =   1
                l(4) =   1
                l(5) =   2
                l(6) =   3

     PseudoPot. # 2 for Nd read from file:
     /home/cwx6513/pp.La/Nd.UPF
     MD5 check sum: c66c5b6abe7b5840ced9b1e244e3bed6
     Pseudo is Norm-conserving, Zval = 14.0
     Generated in analytical, separable form
     Using radial grid of 1257 points,  6 beta functions with:
                l(1) =   0
                l(2) =   0
                l(3) =   1
                l(4) =   1
                l(5) =   2
                l(6) =   3

     atomic species   valence    mass     pseudopotential
        Mg            13.00    24.30500     Pr( 1.00)
        Cd            14.00   112.41100     Nd( 1.00)

     24 Sym. Ops., with inversion, found (12 have fractional translation)

   Cartesian axes

     site n.     atom                  positions (alat units)
         1           Mg  tau(   1) = (   0.2478935   0.7204716   0.1975233  )
         2           Mg  tau(   2) = (   0.7478935   0.1455538   0.5925699  )
         3           Mg  tau(   3) = (   0.2521065   0.1455538   0.5925699  )
         4           Mg  tau(   4) = (  -0.2478935   0.7204716   0.1975233  )
         5           Mg  tau(   5) = (   0.0000000   0.2911075   0.1975233  )
         6           Mg  tau(   6) = (   0.5000000   0.5749179   0.5925699  )
         7           Cd  tau(   7) = (   0.5000005   0.2886748   0.1975233  )
         8           Cd  tau(   8) = (  -0.0000005   0.5773506   0.5925699  )

     number of k points=    64  gaussian smearing, width (Ry)=  0.1000
                       cart. coord. in units 2pi/alat
        k(    1) = (   0.0000000   0.0000000   0.0000000), wk =   0.0095238
        k(    2) = (   0.0000000   0.0000000   0.1808105), wk =   0.0190476
        k(    3) = (   0.0000000   0.0000000   0.3616210), wk =   0.0190476
        k(    4) = (   0.0000000   0.0000000   0.5424315), wk =   0.0190476
        k(    5) = (   0.0000000   0.1924501   0.0000000), wk =   0.0190476
        k(    6) = (   0.0000000   0.1924501   0.1808105), wk =   0.0380952
        k(    7) = (   0.0000000   0.1924501   0.3616210), wk =   0.0380952
        k(    8) = (   0.0000000   0.1924501   0.5424315), wk =   0.0380952
        k(    9) = (   0.0000000   0.3849002   0.0000000), wk =   0.0190476
        k(   10) = (   0.0000000   0.3849002   0.1808105), wk =   0.0380952
        k(   11) = (   0.0000000   0.3849002   0.3616210), wk =   0.0380952
        k(   12) = (   0.0000000   0.3849002   0.5424315), wk =   0.0380952
        k(   13) = (   0.0000000  -0.5773503   0.0000000), wk =   0.0095238
        k(   14) = (   0.0000000  -0.5773503   0.1808105), wk =   0.0190476
        k(   15) = (   0.0000000  -0.5773503   0.3616210), wk =   0.0190476
        k(   16) = (   0.0000000  -0.5773503   0.5424315), wk =   0.0190476
        k(   17) = (   0.2000000   0.1154701   0.0000000), wk =   0.0190476
        k(   18) = (   0.2000000   0.1154701   0.1808105), wk =   0.0380952
        k(   19) = (   0.2000000   0.1154701   0.3616210), wk =   0.0380952
        k(   20) = (   0.2000000   0.1154701   0.5424315), wk =   0.0380952
        k(   21) = (   0.2000000   0.3079201   0.0000000), wk =   0.0190476
        k(   22) = (   0.2000000   0.3079201   0.1808105), wk =   0.0380952
        k(   23) = (   0.2000000   0.3079201   0.3616210), wk =   0.0380952
        k(   24) = (   0.2000000   0.3079201   0.5424315), wk =   0.0380952
        k(   25) = (   0.2000000   0.5003702   0.0000000), wk =   0.0190476
        k(   26) = (   0.2000000   0.5003702   0.1808105), wk =   0.0380952
        k(   27) = (   0.2000000   0.5003702   0.3616210), wk =   0.0380952
        k(   28) = (   0.2000000   0.5003702   0.5424315), wk =   0.0380952
        k(   29) = (   0.2000000  -0.4618802   0.0000000), wk =   0.0190476
        k(   30) = (   0.2000000  -0.4618802   0.1808105), wk =   0.0380952
        k(   31) = (   0.2000000  -0.4618802   0.3616210), wk =   0.0380952
        k(   32) = (   0.2000000  -0.4618802   0.5424315), wk =   0.0380952
        k(   33) = (   0.2000000  -0.2694301   0.0000000), wk =   0.0190476
        k(   34) = (   0.2000000  -0.2694301   0.1808105), wk =   0.0380952
        k(   35) = (   0.2000000  -0.2694301   0.3616210), wk =   0.0380952
        k(   36) = (   0.2000000  -0.2694301   0.5424315), wk =   0.0380952
        k(   37) = (   0.2000000  -0.0769800   0.0000000), wk =   0.0190476
        k(   38) = (   0.2000000  -0.0769800   0.1808105), wk =   0.0380952
        k(   39) = (   0.2000000  -0.0769800   0.3616210), wk =   0.0380952
        k(   40) = (   0.2000000  -0.0769800   0.5424315), wk =   0.0380952
        k(   41) = (   0.4000000   0.2309401   0.0000000), wk =   0.0190476
        k(   42) = (   0.4000000   0.2309401   0.1808105), wk =   0.0380952
        k(   43) = (   0.4000000   0.2309401   0.3616210), wk =   0.0380952
        k(   44) = (   0.4000000   0.2309401   0.5424315), wk =   0.0380952
        k(   45) = (   0.4000000   0.4233902   0.0000000), wk =   0.0190476
        k(   46) = (   0.4000000   0.4233902   0.1808105), wk =   0.0380952
        k(   47) = (   0.4000000   0.4233902   0.3616210), wk =   0.0380952
        k(   48) = (   0.4000000   0.4233902   0.5424315), wk =   0.0380952
        k(   49) = (   0.4000000   0.6158403   0.0000000), wk =   0.0190476
        k(   50) = (   0.4000000   0.6158403   0.1808105), wk =   0.0380952
        k(   51) = (   0.4000000   0.6158403   0.3616210), wk =   0.0380952
        k(   52) = (   0.4000000   0.6158403   0.5424315), wk =   0.0380952
        k(   53) = (   0.4000000  -0.3464102   0.0000000), wk =   0.0190476
        k(   54) = (   0.4000000  -0.3464102   0.1808105), wk =   0.0380952
        k(   55) = (   0.4000000  -0.3464102   0.3616210), wk =   0.0380952
        k(   56) = (   0.4000000  -0.3464102   0.5424315), wk =   0.0380952
        k(   57) = (   0.4000000  -0.1539601   0.0000000), wk =   0.0190476
        k(   58) = (   0.4000000  -0.1539601   0.1808105), wk =   0.0380952
        k(   59) = (   0.4000000  -0.1539601   0.3616210), wk =   0.0380952
        k(   60) = (   0.4000000  -0.1539601   0.5424315), wk =   0.0380952
        k(   61) = (   0.4000000   0.0384900   0.0000000), wk =   0.0190476
        k(   62) = (   0.4000000   0.0384900   0.1808105), wk =   0.0380952
        k(   63) = (   0.4000000   0.0384900   0.3616210), wk =   0.0380952
        k(   64) = (   0.4000000   0.0384900   0.5424315), wk =   0.0380952

     Largest allocated arrays     est. size (Mb)     dimensions
     Largest temporary arrays     est. size (Mb)     dimensions

     Initial potential from superposition of free atoms
     Check: negative starting charge=   -0.002192

     starting charge   77.94326, renormalised to  106.00000

     negative rho (up, down):  0.298E-02 0.000E+00
     Starting wfc are  120 randomized atomic wfcs

     Self-consistent Calculation

     iteration #  1     ecut=    40.00 Ry     beta=0.70
     CG style diagonalization
     c_bands:  5 eigenvalues not converged
     c_bands:  4 eigenvalues not converged
     c_bands:  5 eigenvalues not converged
     c_bands:  4 eigenvalues not converged
     c_bands:  5 eigenvalues not converged
     c_bands:  5 eigenvalues not converged
     c_bands:  5 eigenvalues not converged
     c_bands:  3 eigenvalues not converged
     c_bands:  5 eigenvalues not converged
     c_bands:  5 eigenvalues not converged
     c_bands:  4 eigenvalues not converged
     c_bands:  5 eigenvalues not converged
     c_bands:  3 eigenvalues not converged
     c_bands:  3 eigenvalues not converged
     c_bands:  5 eigenvalues not converged
     c_bands:  5 eigenvalues not converged
     c_bands:  3 eigenvalues not converged
     c_bands:  4 eigenvalues not converged
     c_bands:  3 eigenvalues not converged
     c_bands:  5 eigenvalues not converged
     c_bands:  3 eigenvalues not converged
     c_bands:  3 eigenvalues not converged
     c_bands:  4 eigenvalues not converged
     c_bands:  4 eigenvalues not converged
     c_bands:  2 eigenvalues not converged
     c_bands:  5 eigenvalues not converged
     c_bands:  5 eigenvalues not converged
     ethr =  1.00E-02,  avg # of iterations = 15.2

     negative rho (up, down):  0.866E-03 0.000E+00

     total energy              =     242.15696341 Ry
     Harris-Foulkes estimate   =   -1241.58441065 Ry
     estimated scf accuracy    <    1759.75295633 Ry

     iteration #  2     ecut=    40.00 Ry     beta=0.70
     CG style diagonalization
     ethr =  1.00E-02,  avg # of iterations = 21.9

[...]

     End of self-consistent calculation

          k = 0.0000 0.0000 0.0000 (  5047 PWs)   bands (ev):

   -26.6748 -26.6604 -22.2250 -21.9061 -21.9061 -21.8536 -21.7154 -21.7153
    -5.3521  -5.2677  -5.2677  -5.1555  -5.1140  -5.1140  -3.1992  -2.6917
    -2.6880  -2.3185  -2.3184  -2.2010  -2.2010  -2.1230  -2.1229  -1.7510
    -1.3781  -1.3780  -1.0799  -1.0799  -0.9935  -0.9682  -0.9682  -0.9037
    16.0118  16.0951  16.0951  16.1285  16.3997  17.0540  17.0540  17.1076
[...]
        k(   14) = (   0.0000000  -0.5718251   0.1766037), wk =   0.0190476
        k(   15) = (   0.0000000  -0.5718251   0.3532074), wk =   0.0190476
        k(   16) = (   0.0000000  -0.5718251   0.5298111), wk =   0.0190476
        k(   17) = (   0.1980860   0.1143650   0.0000000), wk =   0.0190476
        k(   18) = (   0.1980860   0.1143650   0.1766037), wk =   0.0380952
        k(   19) = (   0.1980860   0.1143650   0.3532074), wk =   0.0380952
        k(   20) = (   0.1980860   0.1143650   0.5298111), wk =   0.0380952
        k(   21) = (   0.1980860   0.3049734   0.0000000), wk =   0.0190476
        k(   22) = (   0.1980860   0.3049734   0.1766037), wk =   0.0380952
        k(   23) = (   0.1980860   0.3049734   0.3532074), wk =   0.0380952
        k(   24) = (   0.1980860   0.3049734   0.5298111), wk =   0.0380952
        k(   25) = (   0.1980860   0.4955818   0.0000000), wk =   0.0190476
        k(   26) = (   0.1980860   0.4955818   0.1766037), wk =   0.0380952
        k(   27) = (   0.1980860   0.4955818   0.3532074), wk =   0.0380952
        k(   28) = (   0.1980860   0.4955818   0.5298111), wk =   0.0380952
        k(   29) = (   0.1980860  -0.4574601   0.0000000), wk =   0.0190476
        k(   30) = (   0.1980860  -0.4574601   0.1766037), wk =   0.0380952
        k(   31) = (   0.1980860  -0.4574601   0.3532074), wk =   0.0380952
        k(   32) = (   0.1980860  -0.4574601   0.5298111), wk =   0.0380952
        k(   33) = (   0.1980860  -0.2668517   0.0000000), wk =   0.0190476
        k(   34) = (   0.1980860  -0.2668517   0.1766037), wk =   0.0380952
        k(   35) = (   0.1980860  -0.2668517   0.3532074), wk =   0.0380952
        k(   36) = (   0.1980860  -0.2668517   0.5298111), wk =   0.0380952
        k(   37) = (   0.1980860  -0.0762433   0.0000000), wk =   0.0190476
        k(   38) = (   0.1980860  -0.0762433   0.1766037), wk =   0.0380952
        k(   39) = (   0.1980860  -0.0762433   0.3532074), wk =   0.0380952
        k(   40) = (   0.1980860  -0.0762433   0.5298111), wk =   0.0380952
        k(   41) = (   0.3961721   0.2287300   0.0000000), wk =   0.0190476
        k(   42) = (   0.3961721   0.2287300   0.1766037), wk =   0.0380952
        k(   43) = (   0.3961721   0.2287300   0.3532074), wk =   0.0380952
        k(   44) = (   0.3961721   0.2287300   0.5298111), wk =   0.0380952
        k(   45) = (   0.3961721   0.4193384   0.0000000), wk =   0.0190476
        k(   46) = (   0.3961721   0.4193384   0.1766037), wk =   0.0380952
        k(   47) = (   0.3961721   0.4193384   0.3532074), wk =   0.0380952
        k(   48) = (   0.3961721   0.4193384   0.5298111), wk =   0.0380952
        k(   49) = (   0.3961721   0.6099468   0.0000000), wk =   0.0190476
        k(   50) = (   0.3961721   0.6099468   0.1766037), wk =   0.0380952
        k(   51) = (   0.3961721   0.6099468   0.3532074), wk =   0.0380952
        k(   52) = (   0.3961721   0.6099468   0.5298111), wk =   0.0380952
        k(   53) = (   0.3961721  -0.3430951   0.0000000), wk =   0.0190476
        k(   54) = (   0.3961721  -0.3430951   0.1766037), wk =   0.0380952
        k(   55) = (   0.3961721  -0.3430951   0.3532074), wk =   0.0380952
        k(   56) = (   0.3961721  -0.3430951   0.5298111), wk =   0.0380952
        k(   57) = (   0.3961721  -0.1524867   0.0000000), wk =   0.0190476
        k(   58) = (   0.3961721  -0.1524867   0.1766037), wk =   0.0380952
        k(   59) = (   0.3961721  -0.1524867   0.3532074), wk =   0.0380952
        k(   60) = (   0.3961721  -0.1524867   0.5298111), wk =   0.0380952
        k(   61) = (   0.3961721   0.0381217   0.0000000), wk =   0.0190476
        k(   62) = (   0.3961721   0.0381217   0.1766037), wk =   0.0380952
        k(   63) = (   0.3961721   0.0381217   0.3532074), wk =   0.0380952
        k(   64) = (   0.3961721   0.0381217   0.5298111), wk =   0.0380952
     Check: negative starting charge=   -0.003728
     extrapolated charge  105.98860, renormalised to  106.00000

[...]

     The maximum number of steps has been reached.

     End of BFGS Geometry Optimization
Begin final coordinates
     new unit-cell volume =   1239.22954 a.u.^3 (   183.63487 Ang^3 )

CELL_PARAMETERS (alat= 12.01680127)
   1.009662332   0.000000000   0.000000000
  -0.504831166   0.874393229   0.000000000
   0.000000000   0.000000000   0.808913678

ATOMIC_POSITIONS (crystal)
Mg       0.663865429   0.831932715   0.250000000
Mg       0.831932715   0.168067285   0.750000000
Mg       0.336134571   0.168067285   0.750000000
Mg       0.168067285   0.831932715   0.250000000
Mg       0.168067285   0.336134571   0.250000000
Mg       0.831932715   0.663865429   0.750000000
Cd       0.666667000   0.333333000   0.250000000
Cd       0.333333000   0.666667000   0.750000000
End final coordinates

     A final scf calculation at the relaxed structure.
     The G-vectors are recalculated for the final unit cell
     Results may differ from those at the preceding step.

     bravais-lattice index     =            0
     lattice parameter (alat)  =      12.0168  a.u.
     unit-cell volume          =    1239.2295 (a.u.)^3
     number of atoms/cell      =            8
     number of atomic types    =            2
     number of electrons       =       106.00
     number of Kohn-Sham states=           64
     kinetic-energy cutoff     =      40.0000  Ry
     charge density cutoff     =     160.0000  Ry
     convergence threshold     =      1.0E-06
     mixing beta               =       0.7000
     number of iterations used =            8  plain     mixing
     Exchange-correlation      = SLA-PZ-NOGX-NOGC ( 1 1 0 0 0)
     EXX-fraction              =        0.00

     celldm(1)=  12.016801  celldm(2)=   0.000000  celldm(3)=   0.000000
     celldm(4)=   0.000000  celldm(5)=   0.000000  celldm(6)=   0.000000

     crystal axes: (cart. coord. in units of alat)
               a(1) = (   1.009662   0.000000   0.000000 )
               a(2) = (  -0.504831   0.874393   0.000000 )
               a(3) = (   0.000000   0.000000   0.808914 )

     reciprocal axes: (cart. coord. in units 2 pi/alat)
               b(1) = (  0.990430  0.571825  0.000000 )
               b(2) = (  0.000000  1.143650  0.000000 )
               b(3) = (  0.000000  0.000000  1.236226 )

     PseudoPot. # 1 for Pr read from file:
     /home/cwx6513/pp.La/Pr.UPF
     MD5 check sum: 70e2b4b153859e92c8c91247dfc63203
     Pseudo is Norm-conserving, Zval = 13.0
     Generated in analytical, separable form
     Using radial grid of 1255 points,  6 beta functions with:
                l(1) =   0
                l(2) =   0
                l(3) =   1
                l(4) =   1
                l(5) =   2
                l(6) =   3

     PseudoPot. # 2 for Nd read from file:
     /home/cwx6513/pp.La/Nd.UPF
     MD5 check sum: c66c5b6abe7b5840ced9b1e244e3bed6
     Pseudo is Norm-conserving, Zval = 14.0
     Generated in analytical, separable form
     Using radial grid of 1257 points,  6 beta functions with:
                l(1) =   0
                l(2) =   0
                l(3) =   1
                l(4) =   1
                l(5) =   2
                l(6) =   3

     atomic species   valence    mass     pseudopotential
        Mg            13.00    24.30500     Pr( 1.00)
        Cd            14.00   112.41100     Nd( 1.00)

     24 Sym. Ops., with inversion, found (12 have fractional translation)

   Cartesian axes

     site n.     atom                  positions (alat units)
         1           Mg  tau(   1) = (   0.2502944   0.7274363   0.2022284  )
         2           Mg  tau(   2) = (   0.7551255   0.1469569   0.6066853  )
         3           Mg  tau(   3) = (   0.2545368   0.1469569   0.6066853  )
         4           Mg  tau(   4) = (  -0.2502944   0.7274363   0.2022284  )
         5           Mg  tau(   5) = (   0.0000000   0.2939138   0.2022284  )
         6           Mg  tau(   6) = (   0.5048312   0.5804794   0.6066853  )
         7           Cd  tau(   7) = (   0.5048317   0.2914641   0.2022284  )
         8           Cd  tau(   8) = (  -0.0000005   0.5829291   0.6066853  )

     number of k points=    64  gaussian smearing, width (Ry)=  0.1000
                       cart. coord. in units 2pi/alat
        k(    1) = (   0.0000000   0.0000000   0.0000000), wk =   0.0095238
        k(    2) = (   0.0000000   0.0000000   0.1766037), wk =   0.0190476
        k(    3) = (   0.0000000   0.0000000   0.3532074), wk =   0.0190476
        k(    4) = (   0.0000000   0.0000000   0.5298111), wk =   0.0190476
        k(    5) = (   0.0000000   0.1906084   0.0000000), wk =   0.0190476
        k(    6) = (   0.0000000   0.1906084   0.1766037), wk =   0.0380952
        k(    7) = (   0.0000000   0.1906084   0.3532074), wk =   0.0380952
        k(    8) = (   0.0000000   0.1906084   0.5298111), wk =   0.0380952
        k(    9) = (   0.0000000   0.3812167   0.0000000), wk =   0.0190476
        k(   10) = (   0.0000000   0.3812167   0.1766037), wk =   0.0380952
        k(   11) = (   0.0000000   0.3812167   0.3532074), wk =   0.0380952
        k(   12) = (   0.0000000   0.3812167   0.5298111), wk =   0.0380952
        k(   13) = (   0.0000000  -0.5718251   0.0000000), wk =   0.0095238
        k(   14) = (   0.0000000  -0.5718251   0.1766037), wk =   0.0190476
        k(   15) = (   0.0000000  -0.5718251   0.3532074), wk =   0.0190476
        k(   16) = (   0.0000000  -0.5718251   0.5298111), wk =   0.0190476
        k(   17) = (   0.1980860   0.1143650   0.0000000), wk =   0.0190476
        k(   18) = (   0.1980860   0.1143650   0.1766037), wk =   0.0380952
        k(   19) = (   0.1980860   0.1143650   0.3532074), wk =   0.0380952
        k(   20) = (   0.1980860   0.1143650   0.5298111), wk =   0.0380952
        k(   21) = (   0.1980860   0.3049734   0.0000000), wk =   0.0190476
        k(   22) = (   0.1980860   0.3049734   0.1766037), wk =   0.0380952
        k(   23) = (   0.1980860   0.3049734   0.3532074), wk =   0.0380952
        k(   24) = (   0.1980860   0.3049734   0.5298111), wk =   0.0380952
        k(   25) = (   0.1980860   0.4955818   0.0000000), wk =   0.0190476
        k(   26) = (   0.1980860   0.4955818   0.1766037), wk =   0.0380952
        k(   27) = (   0.1980860   0.4955818   0.3532074), wk =   0.0380952
        k(   28) = (   0.1980860   0.4955818   0.5298111), wk =   0.0380952
        k(   29) = (   0.1980860  -0.4574601   0.0000000), wk =   0.0190476
        k(   30) = (   0.1980860  -0.4574601   0.1766037), wk =   0.0380952
        k(   31) = (   0.1980860  -0.4574601   0.3532074), wk =   0.0380952
        k(   32) = (   0.1980860  -0.4574601   0.5298111), wk =   0.0380952
        k(   33) = (   0.1980860  -0.2668517   0.0000000), wk =   0.0190476
        k(   34) = (   0.1980860  -0.2668517   0.1766037), wk =   0.0380952
        k(   35) = (   0.1980860  -0.2668517   0.3532074), wk =   0.0380952
        k(   36) = (   0.1980860  -0.2668517   0.5298111), wk =   0.0380952
        k(   37) = (   0.1980860  -0.0762433   0.0000000), wk =   0.0190476
        k(   38) = (   0.1980860  -0.0762433   0.1766037), wk =   0.0380952
        k(   39) = (   0.1980860  -0.0762433   0.3532074), wk =   0.0380952
        k(   40) = (   0.1980860  -0.0762433   0.5298111), wk =   0.0380952
        k(   41) = (   0.3961721   0.2287300   0.0000000), wk =   0.0190476
        k(   42) = (   0.3961721   0.2287300   0.1766037), wk =   0.0380952
        k(   43) = (   0.3961721   0.2287300   0.3532074), wk =   0.0380952
        k(   44) = (   0.3961721   0.2287300   0.5298111), wk =   0.0380952
        k(   45) = (   0.3961721   0.4193384   0.0000000), wk =   0.0190476
        k(   46) = (   0.3961721   0.4193384   0.1766037), wk =   0.0380952
        k(   47) = (   0.3961721   0.4193384   0.3532074), wk =   0.0380952
        k(   48) = (   0.3961721   0.4193384   0.5298111), wk =   0.0380952
        k(   49) = (   0.3961721   0.6099468   0.0000000), wk =   0.0190476
        k(   50) = (   0.3961721   0.6099468   0.1766037), wk =   0.0380952
        k(   51) = (   0.3961721   0.6099468   0.3532074), wk =   0.0380952
        k(   52) = (   0.3961721   0.6099468   0.5298111), wk =   0.0380952
        k(   53) = (   0.3961721  -0.3430951   0.0000000), wk =   0.0190476
        k(   54) = (   0.3961721  -0.3430951   0.1766037), wk =   0.0380952
        k(   55) = (   0.3961721  -0.3430951   0.3532074), wk =   0.0380952
        k(   56) = (   0.3961721  -0.3430951   0.5298111), wk =   0.0380952
        k(   57) = (   0.3961721  -0.1524867   0.0000000), wk =   0.0190476
        k(   58) = (   0.3961721  -0.1524867   0.1766037), wk =   0.0380952
        k(   59) = (   0.3961721  -0.1524867   0.3532074), wk =   0.0380952
        k(   60) = (   0.3961721  -0.1524867   0.5298111), wk =   0.0380952
        k(   61) = (   0.3961721   0.0381217   0.0000000), wk =   0.0190476
        k(   62) = (   0.3961721   0.0381217   0.1766037), wk =   0.0380952
        k(   63) = (   0.3961721   0.0381217   0.3532074), wk =   0.0380952
        k(   64) = (   0.3961721   0.0381217   0.5298111), wk =   0.0380952

     Largest allocated arrays     est. size (Mb)     dimensions
     Largest temporary arrays     est. size (Mb)     dimensions

     Initial potential from superposition of free atoms
     Check: negative starting charge=   -0.002307

     starting charge   77.94326, renormalised to  106.00000

     negative rho (up, down):  0.314E-02 0.000E+00
     Starting wfc are  120 randomized atomic wfcs

     Writing output data file Prototype-La-hP8-Mg3Cd.save

     Self-consistent Calculation

[...]

     negative rho (up, down):  0.493E-04 0.000E+00

[...]

     iteration # 11     ecut=    40.00 Ry     beta=0.70
     CG style diagonalization
     ethr =  4.84E-04,  avg # of iterations =  4.0

[...]

     total energy              =    -778.49443671 Ry
     Harris-Foulkes estimate   =    -778.49443718 Ry
     estimated scf accuracy    <       0.00000168 Ry

     iteration # 24     ecut=    40.00 Ry     beta=0.70
     CG style diagonalization
     c_bands:  1 eigenvalues not converged
     c_bands:  1 eigenvalues not converged
     ethr =  1.59E-09,  avg # of iterations =  3.7

     End of self-consistent calculation

[...]

          k = 0.3962 0.0381 0.5298 (  5295 PWs)   bands (ev):

   -27.6683 -27.6671 -23.0434 -22.9886 -22.9177 -22.8823 -22.8556 -22.8332
    -6.1491  -6.1321  -6.1257  -6.1229  -6.0985  -6.0831  -3.7043  -3.6355
    -3.5444  -3.5299  -3.3095  -3.2713  -2.9257  -2.8814  -2.7172  -2.7106
    -2.5766  -2.4791  -2.4005  -2.3684  -2.3165  -2.2270  -2.1822  -2.1634
    16.0680  16.1144  16.2605  16.4767  16.5235  16.7406  17.0682  17.2674
    17.3555  17.3988  17.5629  17.8131  17.9035  17.9715  18.0573  18.1486
    19.0292  19.0642  19.7244  19.8544  20.0421  20.0925  20.1793  20.3253
    20.4570  20.6162  21.1558  21.2799  21.3826  21.5119  21.7086  21.8539

     the Fermi energy is    19.8726 ev

!    total energy              =    -778.49443691 Ry
     Harris-Foulkes estimate   =    -778.49443695 Ry
     estimated scf accuracy    <       0.00000007 Ry

     The total energy is the sum of the following terms:

     one-electron contribution =       7.49520364 Ry
     hartree contribution      =      65.52654224 Ry
     xc contribution           =     -95.34231964 Ry
     ewald contribution        =    -755.50736638 Ry
     smearing contrib. (-TS)   =      -0.66649677 Ry

     convergence has been achieved in  24 iterations

     Forces acting on atoms (Ry/au):

     atom    1 type  1   force =    -0.00031292   -0.00018067    0.00000000
     atom    2 type  1   force =    -0.00031292    0.00018067    0.00000000
     atom    3 type  1   force =     0.00031292    0.00018067    0.00000000
     atom    4 type  1   force =     0.00031292   -0.00018067    0.00000000
     atom    5 type  1   force =     0.00000000    0.00036133    0.00000000
     atom    6 type  1   force =     0.00000000   -0.00036133    0.00000000
     atom    7 type  2   force =     0.00000000    0.00000000    0.00000000
     atom    8 type  2   force =     0.00000000    0.00000000    0.00000000

     Total force =     0.000885     Total SCF correction =     0.000412
     SCF correction compared to forces is large: reduce conv_thr to get better values

     entering subroutine stress ...

          total   stress  (Ry/bohr**3)                   (kbar)     P=   18.97
   0.00006955   0.00000000   0.00000000         10.23      0.00      0.00
   0.00000000   0.00006955   0.00000000          0.00     10.23      0.00
   0.00000000   0.00000000   0.00024779          0.00      0.00     36.45

     Writing output data file Prototype-La-hP8-Mg3Cd.save

     General routines

     Parallel routines

   This run was terminated on:  17: 8:28  22Mar2018

   JOB DONE.