     Program PWSCF v.5.0.2 starts on 22Mar2018 at 17:34:51

     Current dimensions of program PWSCF are:
     Max number of different atomic species (ntypx) = 10
     Max number of k-points (npk) =  40000
     Max angular momentum in pseudopotentials (lmaxx) =  3
     Waiting for input...
     Reading input from standard input

     Subspace diagonalization in iterative solution of the eigenvalue problem:
     a serial algorithm will be used

     bravais-lattice index     =            0
     lattice parameter (alat)  =      12.0168  a.u.
     unit-cell volume          =    1187.3413 (a.u.)^3
     number of atoms/cell      =            8
     number of atomic types    =            2
     number of electrons       =       110.00
     number of Kohn-Sham states=           66
     kinetic-energy cutoff     =      40.0000  Ry
     charge density cutoff     =     160.0000  Ry
     convergence threshold     =      1.0E-04
     mixing beta               =       0.7000
     number of iterations used =            8  plain     mixing
     Exchange-correlation      = SLA-PZ-NOGX-NOGC ( 1 1 0 0 0)
     EXX-fraction              =        0.00
     nstep                     =           50

     celldm(1)=  12.016801  celldm(2)=   0.000000  celldm(3)=   0.000000
     celldm(4)=   0.000000  celldm(5)=   0.000000  celldm(6)=   0.000000

     crystal axes: (cart. coord. in units of alat)
               a(1) = (   1.000000   0.000000   0.000000 )
               a(2) = (  -0.500000   0.866025   0.000000 )
               a(3) = (   0.000000   0.000000   0.790093 )

     reciprocal axes: (cart. coord. in units 2 pi/alat)
               b(1) = (  1.000000  0.577350  0.000000 )
               b(2) = (  0.000000  1.154701  0.000000 )
               b(3) = (  0.000000  0.000000  1.265674 )

     PseudoPot. # 1 for Nd read from file:
     /home/cwx6513/pp.La/Nd.UPF
     MD5 check sum: c66c5b6abe7b5840ced9b1e244e3bed6
     Pseudo is Norm-conserving, Zval = 14.0
     Generated in analytical, separable form
     Using radial grid of 1257 points,  6 beta functions with:
                l(1) =   0
                l(2) =   0
                l(3) =   1
                l(4) =   1
                l(5) =   2
                l(6) =   3

     PseudoPot. # 2 for Pr read from file:
     /home/cwx6513/pp.La/Pr.UPF
     MD5 check sum: 70e2b4b153859e92c8c91247dfc63203
     Pseudo is Norm-conserving, Zval = 13.0
     Generated in analytical, separable form
     Using radial grid of 1255 points,  6 beta functions with:
                l(1) =   0
                l(2) =   0
                l(3) =   1
                l(4) =   1
                l(5) =   2
                l(6) =   3

     atomic species   valence    mass     pseudopotential
        Mg            14.00    24.30500     Nd( 1.00)
        Cd            13.00   112.41100     Pr( 1.00)

     24 Sym. Ops., with inversion, found (12 have fractional translation)

   Cartesian axes

     site n.     atom                  positions (alat units)
         1           Mg  tau(   1) = (   0.2478935   0.7204716   0.1975233  )
         2           Mg  tau(   2) = (   0.7478935   0.1455538   0.5925699  )
         3           Mg  tau(   3) = (   0.2521065   0.1455538   0.5925699  )
         4           Mg  tau(   4) = (  -0.2478935   0.7204716   0.1975233  )
         5           Mg  tau(   5) = (   0.0000000   0.2911075   0.1975233  )
         6           Mg  tau(   6) = (   0.5000000   0.5749179   0.5925699  )
         7           Cd  tau(   7) = (   0.5000005   0.2886748   0.1975233  )
         8           Cd  tau(   8) = (  -0.0000005   0.5773506   0.5925699  )

     number of k points=    64  gaussian smearing, width (Ry)=  0.1000
                       cart. coord. in units 2pi/alat
        k(    1) = (   0.0000000   0.0000000   0.0000000), wk =   0.0095238
        k(    2) = (   0.0000000   0.0000000   0.1808105), wk =   0.0190476
        k(    3) = (   0.0000000   0.0000000   0.3616210), wk =   0.0190476
        k(    4) = (   0.0000000   0.0000000   0.5424315), wk =   0.0190476
        k(    5) = (   0.0000000   0.1924501   0.0000000), wk =   0.0190476
        k(    6) = (   0.0000000   0.1924501   0.1808105), wk =   0.0380952
        k(    7) = (   0.0000000   0.1924501   0.3616210), wk =   0.0380952
        k(    8) = (   0.0000000   0.1924501   0.5424315), wk =   0.0380952
        k(    9) = (   0.0000000   0.3849002   0.0000000), wk =   0.0190476
        k(   10) = (   0.0000000   0.3849002   0.1808105), wk =   0.0380952
        k(   11) = (   0.0000000   0.3849002   0.3616210), wk =   0.0380952
        k(   12) = (   0.0000000   0.3849002   0.5424315), wk =   0.0380952
        k(   13) = (   0.0000000  -0.5773503   0.0000000), wk =   0.0095238
        k(   14) = (   0.0000000  -0.5773503   0.1808105), wk =   0.0190476
        k(   15) = (   0.0000000  -0.5773503   0.3616210), wk =   0.0190476
        k(   16) = (   0.0000000  -0.5773503   0.5424315), wk =   0.0190476
        k(   17) = (   0.2000000   0.1154701   0.0000000), wk =   0.0190476
        k(   18) = (   0.2000000   0.1154701   0.1808105), wk =   0.0380952
        k(   19) = (   0.2000000   0.1154701   0.3616210), wk =   0.0380952
        k(   20) = (   0.2000000   0.1154701   0.5424315), wk =   0.0380952
        k(   21) = (   0.2000000   0.3079201   0.0000000), wk =   0.0190476
        k(   22) = (   0.2000000   0.3079201   0.1808105), wk =   0.0380952
        k(   23) = (   0.2000000   0.3079201   0.3616210), wk =   0.0380952
        k(   24) = (   0.2000000   0.3079201   0.5424315), wk =   0.0380952
        k(   25) = (   0.2000000   0.5003702   0.0000000), wk =   0.0190476
        k(   26) = (   0.2000000   0.5003702   0.1808105), wk =   0.0380952
        k(   27) = (   0.2000000   0.5003702   0.3616210), wk =   0.0380952
        k(   28) = (   0.2000000   0.5003702   0.5424315), wk =   0.0380952
        k(   29) = (   0.2000000  -0.4618802   0.0000000), wk =   0.0190476
        k(   30) = (   0.2000000  -0.4618802   0.1808105), wk =   0.0380952
        k(   31) = (   0.2000000  -0.4618802   0.3616210), wk =   0.0380952
        k(   32) = (   0.2000000  -0.4618802   0.5424315), wk =   0.0380952
        k(   33) = (   0.2000000  -0.2694301   0.0000000), wk =   0.0190476
        k(   34) = (   0.2000000  -0.2694301   0.1808105), wk =   0.0380952
        k(   35) = (   0.2000000  -0.2694301   0.3616210), wk =   0.0380952
        k(   36) = (   0.2000000  -0.2694301   0.5424315), wk =   0.0380952
        k(   37) = (   0.2000000  -0.0769800   0.0000000), wk =   0.0190476
        k(   38) = (   0.2000000  -0.0769800   0.1808105), wk =   0.0380952
        k(   39) = (   0.2000000  -0.0769800   0.3616210), wk =   0.0380952
        k(   40) = (   0.2000000  -0.0769800   0.5424315), wk =   0.0380952
        k(   41) = (   0.4000000   0.2309401   0.0000000), wk =   0.0190476
        k(   42) = (   0.4000000   0.2309401   0.1808105), wk =   0.0380952
        k(   43) = (   0.4000000   0.2309401   0.3616210), wk =   0.0380952
        k(   44) = (   0.4000000   0.2309401   0.5424315), wk =   0.0380952
        k(   45) = (   0.4000000   0.4233902   0.0000000), wk =   0.0190476
        k(   46) = (   0.4000000   0.4233902   0.1808105), wk =   0.0380952
        k(   47) = (   0.4000000   0.4233902   0.3616210), wk =   0.0380952
        k(   48) = (   0.4000000   0.4233902   0.5424315), wk =   0.0380952
        k(   49) = (   0.4000000   0.6158403   0.0000000), wk =   0.0190476
        k(   50) = (   0.4000000   0.6158403   0.1808105), wk =   0.0380952
        k(   51) = (   0.4000000   0.6158403   0.3616210), wk =   0.0380952
        k(   52) = (   0.4000000   0.6158403   0.5424315), wk =   0.0380952
        k(   53) = (   0.4000000  -0.3464102   0.0000000), wk =   0.0190476
        k(   54) = (   0.4000000  -0.3464102   0.1808105), wk =   0.0380952
        k(   55) = (   0.4000000  -0.3464102   0.3616210), wk =   0.0380952
        k(   56) = (   0.4000000  -0.3464102   0.5424315), wk =   0.0380952
        k(   57) = (   0.4000000  -0.1539601   0.0000000), wk =   0.0190476
        k(   58) = (   0.4000000  -0.1539601   0.1808105), wk =   0.0380952
        k(   59) = (   0.4000000  -0.1539601   0.3616210), wk =   0.0380952
        k(   60) = (   0.4000000  -0.1539601   0.5424315), wk =   0.0380952
        k(   61) = (   0.4000000   0.0384900   0.0000000), wk =   0.0190476
        k(   62) = (   0.4000000   0.0384900   0.1808105), wk =   0.0380952
        k(   63) = (   0.4000000   0.0384900   0.3616210), wk =   0.0380952
        k(   64) = (   0.4000000   0.0384900   0.5424315), wk =   0.0380952

     Largest allocated arrays     est. size (Mb)     dimensions
     Largest temporary arrays     est. size (Mb)     dimensions

     Initial potential from superposition of free atoms
     Check: negative starting charge=   -0.001098

     starting charge   25.98109, renormalised to  110.00000

     negative rho (up, down):  0.465E-02 0.000E+00
     Starting wfc are   40 randomized atomic wfcs

     Self-consistent Calculation

     iteration #  1     ecut=    40.00 Ry     beta=0.70
     CG style diagonalization
     c_bands:  1 eigenvalues not converged
     c_bands:  1 eigenvalues not converged
     c_bands:  1 eigenvalues not converged
     c_bands:  1 eigenvalues not converged
     c_bands:  1 eigenvalues not converged
     ethr =  1.00E-02,  avg # of iterations = 25.0

     negative rho (up, down):  0.137E-02 0.000E+00

     total energy              =    -532.19606003 Ry
     Harris-Foulkes estimate   =   -2605.22436254 Ry
     estimated scf accuracy    <    2406.91782898 Ry

[...]

     iteration #  5     ecut=    40.00 Ry     beta=0.70
     CG style diagonalization
     ethr =  1.00E-02,  avg # of iterations =  7.4

[...]

     End of self-consistent calculation

          k = 0.0000 0.0000 0.0000 (  5047 PWs)   bands (ev):

   -26.9332 -26.7028 -26.7027 -26.6672 -26.5770 -26.5770 -21.8913 -21.8809
    -6.0126  -5.9760  -5.6101  -5.6007  -5.6007  -5.3660  -5.3660  -5.3534
    -5.3534  -4.9529  -4.6587  -4.6586  -4.5721  -4.4934  -4.4933  -4.4564
    -4.4564  -4.3971  -1.7299  -1.7001  -1.6851  -1.6850  -1.6371  -1.6371
    15.7072  15.9793  15.9865  15.9865  16.2134  16.8693  16.8694  16.9341
    17.2159  17.2159  17.3106  19.2520  19.4596  19.4597  19.8614  19.8614
    20.1266  20.7516  20.7516  20.8962  20.9977  20.9978  21.3872  21.3873
    21.4082  21.4082  21.4942  21.4943  21.5949  21.7976  24.1235  24.6857
    24.6860  25.0851

[...]

     the Fermi energy is    20.8908 ev

!    total energy              =    -848.45239559 Ry
     Harris-Foulkes estimate   =    -848.45245066 Ry
     estimated scf accuracy    <       0.00006130 Ry

     The total energy is the sum of the following terms:

     one-electron contribution =       7.15506829 Ry
     hartree contribution      =      71.81557566 Ry
     xc contribution           =    -101.42084290 Ry
     ewald contribution        =    -825.35335583 Ry
     smearing contrib. (-TS)   =      -0.64884080 Ry

     convergence has been achieved in  16 iterations

     Forces acting on atoms (Ry/au):

     atom    1 type  1   force =     0.01236191    0.00713715    0.00000000
[...]
        k(   13) = (   0.0000000  -0.5787276   0.0000000), wk =   0.0095238
        k(   14) = (   0.0000000  -0.5787276   0.1797234), wk =   0.0190476
        k(   15) = (   0.0000000  -0.5787276   0.3594467), wk =   0.0190476
        k(   16) = (   0.0000000  -0.5787276   0.5391701), wk =   0.0190476
        k(   17) = (   0.2004771   0.1157455   0.0000000), wk =   0.0190476
        k(   18) = (   0.2004771   0.1157455   0.1797234), wk =   0.0380952
        k(   19) = (   0.2004771   0.1157455   0.3594467), wk =   0.0380952
        k(   20) = (   0.2004771   0.1157455   0.5391701), wk =   0.0380952
        k(   21) = (   0.2004771   0.3086547   0.0000000), wk =   0.0190476
        k(   22) = (   0.2004771   0.3086547   0.1797234), wk =   0.0380952
        k(   23) = (   0.2004771   0.3086547   0.3594467), wk =   0.0380952
        k(   24) = (   0.2004771   0.3086547   0.5391701), wk =   0.0380952
        k(   25) = (   0.2004771   0.5015639   0.0000000), wk =   0.0190476
        k(   26) = (   0.2004771   0.5015639   0.1797234), wk =   0.0380952
        k(   27) = (   0.2004771   0.5015639   0.3594467), wk =   0.0380952
        k(   28) = (   0.2004771   0.5015639   0.5391701), wk =   0.0380952
        k(   29) = (   0.2004771  -0.4629821   0.0000000), wk =   0.0190476
        k(   30) = (   0.2004771  -0.4629821   0.1797234), wk =   0.0380952
        k(   31) = (   0.2004771  -0.4629821   0.3594467), wk =   0.0380952
        k(   32) = (   0.2004771  -0.4629821   0.5391701), wk =   0.0380952
        k(   33) = (   0.2004771  -0.2700729   0.0000000), wk =   0.0190476
        k(   34) = (   0.2004771  -0.2700729   0.1797234), wk =   0.0380952
        k(   35) = (   0.2004771  -0.2700729   0.3594467), wk =   0.0380952
        k(   36) = (   0.2004771  -0.2700729   0.5391701), wk =   0.0380952
        k(   37) = (   0.2004771  -0.0771637   0.0000000), wk =   0.0190476
        k(   38) = (   0.2004771  -0.0771637   0.1797234), wk =   0.0380952
        k(   39) = (   0.2004771  -0.0771637   0.3594467), wk =   0.0380952
        k(   40) = (   0.2004771  -0.0771637   0.5391701), wk =   0.0380952
        k(   41) = (   0.4009543   0.2314910   0.0000000), wk =   0.0190476
        k(   42) = (   0.4009543   0.2314910   0.1797234), wk =   0.0380952
        k(   43) = (   0.4009543   0.2314910   0.3594467), wk =   0.0380952
        k(   44) = (   0.4009543   0.2314910   0.5391701), wk =   0.0380952
        k(   45) = (   0.4009543   0.4244003   0.0000000), wk =   0.0190476
        k(   46) = (   0.4009543   0.4244003   0.1797234), wk =   0.0380952
        k(   47) = (   0.4009543   0.4244003   0.3594467), wk =   0.0380952
        k(   48) = (   0.4009543   0.4244003   0.5391701), wk =   0.0380952
        k(   49) = (   0.4009543   0.6173095   0.0000000), wk =   0.0190476
        k(   50) = (   0.4009543   0.6173095   0.1797234), wk =   0.0380952
        k(   51) = (   0.4009543   0.6173095   0.3594467), wk =   0.0380952
        k(   52) = (   0.4009543   0.6173095   0.5391701), wk =   0.0380952
        k(   53) = (   0.4009543  -0.3472366   0.0000000), wk =   0.0190476
        k(   54) = (   0.4009543  -0.3472366   0.1797234), wk =   0.0380952
        k(   55) = (   0.4009543  -0.3472366   0.3594467), wk =   0.0380952
        k(   56) = (   0.4009543  -0.3472366   0.5391701), wk =   0.0380952
        k(   57) = (   0.4009543  -0.1543274   0.0000000), wk =   0.0190476
        k(   58) = (   0.4009543  -0.1543274   0.1797234), wk =   0.0380952
        k(   59) = (   0.4009543  -0.1543274   0.3594467), wk =   0.0380952
        k(   60) = (   0.4009543  -0.1543274   0.5391701), wk =   0.0380952
        k(   61) = (   0.4009543   0.0385818   0.0000000), wk =   0.0190476
        k(   62) = (   0.4009543   0.0385818   0.1797234), wk =   0.0380952
        k(   63) = (   0.4009543   0.0385818   0.3594467), wk =   0.0380952
        k(   64) = (   0.4009543   0.0385818   0.5391701), wk =   0.0380952
     Check: negative starting charge=   -0.001135
     extrapolated charge  110.00806, renormalised to  110.00000

[...]

     The maximum number of steps has been reached.

     End of BFGS Geometry Optimization
Begin final coordinates
     new unit-cell volume =   1188.84439 a.u.^3 (   176.16856 Ang^3 )

CELL_PARAMETERS (alat= 12.01680127)
   0.997620040   0.000000000   0.000000000
  -0.498810020   0.863964298   0.000000000
   0.000000000   0.000000000   0.794872395

ATOMIC_POSITIONS (crystal)
Mg       0.667873878   0.833936939   0.250000000
Mg       0.833936939   0.166063061   0.750000000
Mg       0.332126122   0.166063061   0.750000000
Mg       0.166063061   0.833936939   0.250000000
Mg       0.166063061   0.332126122   0.250000000
Mg       0.833936939   0.667873878   0.750000000
Cd       0.666667000   0.333333000   0.250000000
Cd       0.333333000   0.666667000   0.750000000
End final coordinates

     A final scf calculation at the relaxed structure.
     The G-vectors are recalculated for the final unit cell
     Results may differ from those at the preceding step.

     bravais-lattice index     =            0
     lattice parameter (alat)  =      12.0168  a.u.
     unit-cell volume          =    1188.8444 (a.u.)^3
     number of atoms/cell      =            8
     number of atomic types    =            2
     number of electrons       =       110.00
     number of Kohn-Sham states=           66
     kinetic-energy cutoff     =      40.0000  Ry
     charge density cutoff     =     160.0000  Ry
     convergence threshold     =      8.6E-06
     mixing beta               =       0.7000
     number of iterations used =            8  plain     mixing
     Exchange-correlation      = SLA-PZ-NOGX-NOGC ( 1 1 0 0 0)
     EXX-fraction              =        0.00

     celldm(1)=  12.016801  celldm(2)=   0.000000  celldm(3)=   0.000000
     celldm(4)=   0.000000  celldm(5)=   0.000000  celldm(6)=   0.000000

     crystal axes: (cart. coord. in units of alat)
               a(1) = (   0.997620   0.000000   0.000000 )
               a(2) = (  -0.498810   0.863964   0.000000 )
               a(3) = (   0.000000   0.000000   0.794872 )

     reciprocal axes: (cart. coord. in units 2 pi/alat)
               b(1) = (  1.002386  0.578728  0.000000 )
               b(2) = (  0.000000  1.157455  0.000000 )
               b(3) = (  0.000000  0.000000  1.258064 )

     PseudoPot. # 1 for Nd read from file:
     /home/cwx6513/pp.La/Nd.UPF
     MD5 check sum: c66c5b6abe7b5840ced9b1e244e3bed6
     Pseudo is Norm-conserving, Zval = 14.0
     Generated in analytical, separable form
     Using radial grid of 1257 points,  6 beta functions with:
                l(1) =   0
                l(2) =   0
                l(3) =   1
                l(4) =   1
                l(5) =   2
                l(6) =   3

     PseudoPot. # 2 for Pr read from file:
     /home/cwx6513/pp.La/Pr.UPF
     MD5 check sum: 70e2b4b153859e92c8c91247dfc63203
     Pseudo is Norm-conserving, Zval = 13.0
     Generated in analytical, separable form
     Using radial grid of 1255 points,  6 beta functions with:
                l(1) =   0
                l(2) =   0
                l(3) =   1
                l(4) =   1
                l(5) =   2
                l(6) =   3

     atomic species   valence    mass     pseudopotential
        Mg            14.00    24.30500     Nd( 1.00)
        Cd            13.00   112.41100     Pr( 1.00)

     24 Sym. Ops., with inversion, found (12 have fractional translation)

   Cartesian axes

     site n.     atom                  positions (alat units)
         1           Mg  tau(   1) = (   0.2503083   0.7204917   0.1987181  )
         2           Mg  tau(   2) = (   0.7491183   0.1434726   0.5961543  )
         3           Mg  tau(   3) = (   0.2485018   0.1434726   0.5961543  )
         4           Mg  tau(   4) = (  -0.2503083   0.7204917   0.1987181  )
         5           Mg  tau(   5) = (   0.0000000   0.2869451   0.1987181  )
         6           Mg  tau(   6) = (   0.4988100   0.5770192   0.5961543  )
         7           Cd  tau(   7) = (   0.4988105   0.2879878   0.1987181  )
         8           Cd  tau(   8) = (  -0.0000005   0.5759765   0.5961543  )

     number of k points=    64  gaussian smearing, width (Ry)=  0.1000
                       cart. coord. in units 2pi/alat
        k(    1) = (   0.0000000   0.0000000   0.0000000), wk =   0.0095238
        k(    2) = (   0.0000000   0.0000000   0.1797234), wk =   0.0190476
        k(    3) = (   0.0000000   0.0000000   0.3594467), wk =   0.0190476
        k(    4) = (   0.0000000   0.0000000   0.5391701), wk =   0.0190476
        k(    5) = (   0.0000000   0.1929092   0.0000000), wk =   0.0190476
        k(    6) = (   0.0000000   0.1929092   0.1797234), wk =   0.0380952
        k(    7) = (   0.0000000   0.1929092   0.3594467), wk =   0.0380952
        k(    8) = (   0.0000000   0.1929092   0.5391701), wk =   0.0380952
        k(    9) = (   0.0000000   0.3858184   0.0000000), wk =   0.0190476
        k(   10) = (   0.0000000   0.3858184   0.1797234), wk =   0.0380952
        k(   11) = (   0.0000000   0.3858184   0.3594467), wk =   0.0380952
        k(   12) = (   0.0000000   0.3858184   0.5391701), wk =   0.0380952
        k(   13) = (   0.0000000  -0.5787276   0.0000000), wk =   0.0095238
        k(   14) = (   0.0000000  -0.5787276   0.1797234), wk =   0.0190476
        k(   15) = (   0.0000000  -0.5787276   0.3594467), wk =   0.0190476
        k(   16) = (   0.0000000  -0.5787276   0.5391701), wk =   0.0190476
        k(   17) = (   0.2004771   0.1157455   0.0000000), wk =   0.0190476
        k(   18) = (   0.2004771   0.1157455   0.1797234), wk =   0.0380952
        k(   19) = (   0.2004771   0.1157455   0.3594467), wk =   0.0380952
        k(   20) = (   0.2004771   0.1157455   0.5391701), wk =   0.0380952
        k(   21) = (   0.2004771   0.3086547   0.0000000), wk =   0.0190476
        k(   22) = (   0.2004771   0.3086547   0.1797234), wk =   0.0380952
        k(   23) = (   0.2004771   0.3086547   0.3594467), wk =   0.0380952
        k(   24) = (   0.2004771   0.3086547   0.5391701), wk =   0.0380952
        k(   25) = (   0.2004771   0.5015639   0.0000000), wk =   0.0190476
        k(   26) = (   0.2004771   0.5015639   0.1797234), wk =   0.0380952
        k(   27) = (   0.2004771   0.5015639   0.3594467), wk =   0.0380952
        k(   28) = (   0.2004771   0.5015639   0.5391701), wk =   0.0380952
        k(   29) = (   0.2004771  -0.4629821   0.0000000), wk =   0.0190476
        k(   30) = (   0.2004771  -0.4629821   0.1797234), wk =   0.0380952
        k(   31) = (   0.2004771  -0.4629821   0.3594467), wk =   0.0380952
        k(   32) = (   0.2004771  -0.4629821   0.5391701), wk =   0.0380952
        k(   33) = (   0.2004771  -0.2700729   0.0000000), wk =   0.0190476
        k(   34) = (   0.2004771  -0.2700729   0.1797234), wk =   0.0380952
        k(   35) = (   0.2004771  -0.2700729   0.3594467), wk =   0.0380952
        k(   36) = (   0.2004771  -0.2700729   0.5391701), wk =   0.0380952
        k(   37) = (   0.2004771  -0.0771637   0.0000000), wk =   0.0190476
        k(   38) = (   0.2004771  -0.0771637   0.1797234), wk =   0.0380952
        k(   39) = (   0.2004771  -0.0771637   0.3594467), wk =   0.0380952
        k(   40) = (   0.2004771  -0.0771637   0.5391701), wk =   0.0380952
        k(   41) = (   0.4009543   0.2314910   0.0000000), wk =   0.0190476
        k(   42) = (   0.4009543   0.2314910   0.1797234), wk =   0.0380952
        k(   43) = (   0.4009543   0.2314910   0.3594467), wk =   0.0380952
        k(   44) = (   0.4009543   0.2314910   0.5391701), wk =   0.0380952
        k(   45) = (   0.4009543   0.4244003   0.0000000), wk =   0.0190476
        k(   46) = (   0.4009543   0.4244003   0.1797234), wk =   0.0380952
        k(   47) = (   0.4009543   0.4244003   0.3594467), wk =   0.0380952
        k(   48) = (   0.4009543   0.4244003   0.5391701), wk =   0.0380952
        k(   49) = (   0.4009543   0.6173095   0.0000000), wk =   0.0190476
        k(   50) = (   0.4009543   0.6173095   0.1797234), wk =   0.0380952
        k(   51) = (   0.4009543   0.6173095   0.3594467), wk =   0.0380952
        k(   52) = (   0.4009543   0.6173095   0.5391701), wk =   0.0380952
        k(   53) = (   0.4009543  -0.3472366   0.0000000), wk =   0.0190476
        k(   54) = (   0.4009543  -0.3472366   0.1797234), wk =   0.0380952
        k(   55) = (   0.4009543  -0.3472366   0.3594467), wk =   0.0380952
        k(   56) = (   0.4009543  -0.3472366   0.5391701), wk =   0.0380952
        k(   57) = (   0.4009543  -0.1543274   0.0000000), wk =   0.0190476
        k(   58) = (   0.4009543  -0.1543274   0.1797234), wk =   0.0380952
        k(   59) = (   0.4009543  -0.1543274   0.3594467), wk =   0.0380952
        k(   60) = (   0.4009543  -0.1543274   0.5391701), wk =   0.0380952
        k(   61) = (   0.4009543   0.0385818   0.0000000), wk =   0.0190476
        k(   62) = (   0.4009543   0.0385818   0.1797234), wk =   0.0380952
        k(   63) = (   0.4009543   0.0385818   0.3594467), wk =   0.0380952
        k(   64) = (   0.4009543   0.0385818   0.5391701), wk =   0.0380952

     Largest allocated arrays     est. size (Mb)     dimensions
     Largest temporary arrays     est. size (Mb)     dimensions

     Initial potential from superposition of free atoms
     Check: negative starting charge=   -0.001108

     starting charge   25.98109, renormalised to  110.00000

     negative rho (up, down):  0.469E-02 0.000E+00
     Starting wfc are   40 randomized atomic wfcs

     Writing output data file Prototype-La-hP8-Mg3Cd.save

     Self-consistent Calculation

[...]

     negative rho (up, down):  0.841E-04 0.000E+00

[...]

     iteration # 16     ecut=    40.00 Ry     beta=0.70
     CG style diagonalization
     c_bands:  1 eigenvalues not converged
     ethr =  1.35E-07,  avg # of iterations =  3.6

     total energy              =    -848.45730724 Ry
     Harris-Foulkes estimate   =    -848.45732266 Ry
     estimated scf accuracy    <       0.00005223 Ry

     iteration # 17     ecut=    40.00 Ry     beta=0.70
     CG style diagonalization
     ethr =  4.75E-08,  avg # of iterations =  3.8

     End of self-consistent calculation

[...]

          k = 0.4010 0.0386 0.5392 (  5070 PWs)   bands (ev):

   -26.8247 -26.7739 -26.7256 -26.7004 -26.6789 -26.6611 -21.9236 -21.9224
    -5.8312  -5.7996  -5.7595  -5.7188  -5.6484  -5.6135  -5.2452  -5.0918
    -4.9911  -4.9636  -4.8363  -4.7598  -4.6942  -4.6628  -4.6154  -4.5571
    -4.5053  -4.4903  -1.8014  -1.7988  -1.7883  -1.7685  -1.7282  -1.7219
    16.6702  16.7230  16.8652  17.0864  17.1357  17.3476  17.6952  17.8765
    17.9449  18.0023  18.1495  18.4034  18.4988  18.5948  18.6652  18.7283
    19.6259  19.6609  20.2958  20.4574  20.6254  20.6732  20.7637  20.8603
    21.0398  21.1795  21.7855  21.8710  21.9575  22.0578  22.2858  22.4124
    23.3594  23.9919

     the Fermi energy is    20.8648 ev

!    total energy              =    -848.45731759 Ry
     Harris-Foulkes estimate   =    -848.45731827 Ry
     estimated scf accuracy    <       0.00000076 Ry

     The total energy is the sum of the following terms:

     one-electron contribution =       6.60296880 Ry
     hartree contribution      =      71.97693708 Ry
     xc contribution           =    -101.40368953 Ry
     ewald contribution        =    -824.98277297 Ry
     smearing contrib. (-TS)   =      -0.65076097 Ry

     convergence has been achieved in  17 iterations

     Forces acting on atoms (Ry/au):

     atom    1 type  1   force =     0.00412775    0.00238316    0.00000000
     atom    2 type  1   force =     0.00412775   -0.00238316    0.00000000
     atom    3 type  1   force =    -0.00412775   -0.00238316    0.00000000
     atom    4 type  1   force =    -0.00412775    0.00238316    0.00000000
     atom    5 type  1   force =     0.00000000   -0.00476632    0.00000000
     atom    6 type  1   force =     0.00000000    0.00476632    0.00000000
     atom    7 type  2   force =     0.00000000    0.00000000    0.00000000
     atom    8 type  2   force =     0.00000000    0.00000000    0.00000000

     Total force =     0.011675     Total SCF correction =     0.000000

     entering subroutine stress ...

          total   stress  (Ry/bohr**3)                   (kbar)     P=   -0.06
  -0.00003282   0.00000000   0.00000000         -4.83      0.00      0.00
   0.00000000  -0.00003282   0.00000000          0.00     -4.83      0.00
   0.00000000   0.00000000   0.00006434          0.00      0.00      9.46

     Writing output data file Prototype-La-hP8-Mg3Cd.save

     General routines

     Parallel routines

   This run was terminated on:  18:17:48  22Mar2018

   JOB DONE.