     Program PWSCF v.5.0.2 starts on 22Mar2018 at 17:34:49

     Current dimensions of program PWSCF are:
     Max number of different atomic species (ntypx) = 10
     Max number of k-points (npk) =  40000
     Max angular momentum in pseudopotentials (lmaxx) =  3
     Waiting for input...
     Reading input from standard input

     Subspace diagonalization in iterative solution of the eigenvalue problem:
     a serial algorithm will be used

     bravais-lattice index     =            0
     lattice parameter (alat)  =       9.9235  a.u.
     unit-cell volume          =    1361.0366 (a.u.)^3
     number of atoms/cell      =           12
     number of atomic types    =            2
     number of electrons       =       160.00
     number of Kohn-Sham states=           96
     kinetic-energy cutoff     =      40.0000  Ry
     charge density cutoff     =     160.0000  Ry
     convergence threshold     =      1.0E-04
     mixing beta               =       0.7000
     number of iterations used =            8  plain     mixing
     Exchange-correlation      = SLA-PZ-NOGX-NOGC ( 1 1 0 0 0)
     EXX-fraction              =        0.00
     nstep                     =           50

     celldm(1)=   9.923489  celldm(2)=   0.000000  celldm(3)=   0.000000
     celldm(4)=   0.000000  celldm(5)=   0.000000  celldm(6)=   0.000000

     crystal axes: (cart. coord. in units of alat)
               a(1) = (   1.000000   0.000000   0.000000 )
               a(2) = (  -0.500000   0.866025   0.000000 )
               a(3) = (   0.000000   0.000000   1.608222 )

     reciprocal axes: (cart. coord. in units 2 pi/alat)
               b(1) = (  1.000000  0.577350  0.000000 )
               b(2) = (  0.000000  1.154701  0.000000 )
               b(3) = (  0.000000  0.000000  0.621805 )

     PseudoPot. # 1 for Nd read from file:
     /home/cwx6513/pp.La/Nd.UPF
     MD5 check sum: c66c5b6abe7b5840ced9b1e244e3bed6
     Pseudo is Norm-conserving, Zval = 14.0
     Generated in analytical, separable form
     Using radial grid of 1257 points,  6 beta functions with:
                l(1) =   0
                l(2) =   0
                l(3) =   1
                l(4) =   1
                l(5) =   2
                l(6) =   3

     PseudoPot. # 2 for Pr read from file:
     /home/cwx6513/pp.La/Pr.UPF
     MD5 check sum: 70e2b4b153859e92c8c91247dfc63203
     Pseudo is Norm-conserving, Zval = 13.0
     Generated in analytical, separable form
     Using radial grid of 1255 points,  6 beta functions with:
                l(1) =   0
                l(2) =   0
                l(3) =   1
                l(4) =   1
                l(5) =   2
                l(6) =   3

     atomic species   valence    mass     pseudopotential
        Mg            14.00    24.30500     Nd( 1.00)
        Zn            13.00    65.39000     Pr( 1.00)

     24 Sym. Ops., with inversion, found (12 have fractional translation)

   Cartesian axes

     site n.     atom                  positions (alat units)
         1           Mg  tau(   1) = (  -0.0000005   0.5773506   0.1003820  )
         2           Mg  tau(   2) = (   0.5000005   0.2886748   0.9044931  )
         3           Mg  tau(   3) = (   0.5000005   0.2886748   1.5078402  )
         4           Mg  tau(   4) = (  -0.0000005   0.5773506   0.7037291  )
         5           Zn  tau(   5) = (   0.0000000   0.0000000   0.0000000  )
         6           Zn  tau(   6) = (   0.0000000   0.0000000   0.8041111  )
         7           Zn  tau(   7) = (   0.0000000   0.2950739   1.2061667  )
         8           Zn  tau(   8) = (   0.7444585   0.1475370   0.4020556  )
         9           Zn  tau(   9) = (   0.2555415   0.1475370   0.4020556  )
        10           Zn  tau(  10) = (   0.2444585   0.7184884   1.2061667  )
        11           Zn  tau(  11) = (  -0.2444585   0.7184884   1.2061667  )
        12           Zn  tau(  12) = (   0.5000000   0.5709515   0.4020556  )

     number of k points=    12  gaussian smearing, width (Ry)=  0.1000
                       cart. coord. in units 2pi/alat
        k(    1) = (   0.0000000   0.0000000   0.0000000), wk =   0.0833333
        k(    2) = (   0.0000000   0.0000000   0.1554512), wk =   0.1666667
        k(    3) = (   0.0000000   0.0000000  -0.3109023), wk =   0.0833333
        k(    4) = (   0.0000000   0.3849002   0.0000000), wk =   0.1666667
        k(    5) = (   0.0000000   0.3849002   0.1554512), wk =   0.3333333
        k(    6) = (   0.0000000   0.3849002  -0.3109023), wk =   0.1666667
        k(    7) = (  -0.5000000  -0.2886751   0.0000000), wk =   0.0833333
        k(    8) = (  -0.5000000  -0.2886751   0.1554512), wk =   0.1666667
        k(    9) = (  -0.5000000  -0.2886751  -0.3109023), wk =   0.0833333
        k(   10) = (  -0.5000000   0.0962250   0.0000000), wk =   0.1666667
        k(   11) = (  -0.5000000   0.0962250   0.1554512), wk =   0.3333333
        k(   12) = (  -0.5000000   0.0962250  -0.3109023), wk =   0.1666667

     Largest allocated arrays     est. size (Mb)     dimensions
     Largest temporary arrays     est. size (Mb)     dimensions

     Initial potential from superposition of free atoms
     Check: negative starting charge=   -0.000695

     starting charge  103.92434, renormalised to  160.00000

     negative rho (up, down):  0.107E-02 0.000E+00
     Starting wfc are  160 randomized atomic wfcs

     Self-consistent Calculation

     iteration #  1     ecut=    40.00 Ry     beta=0.70
     CG style diagonalization
     ethr =  1.00E-02,  avg # of iterations = 18.9

     negative rho (up, down):  0.291E-03 0.000E+00

     total energy              =     260.16848905 Ry
     Harris-Foulkes estimate   =   -2169.01186543 Ry
     estimated scf accuracy    <    2878.80181915 Ry

[...]

     iteration #  3     ecut=    40.00 Ry     beta=0.70
     CG style diagonalization
     c_bands:  1 eigenvalues not converged
     ethr =  1.00E-02,  avg # of iterations =  9.7

[...]

     End of self-consistent calculation

          k = 0.0000 0.0000 0.0000 (  5769 PWs)   bands (ev):

   -19.5802 -19.4871 -19.3853 -19.3235 -16.6221 -16.2568 -15.1058 -14.5785
   -14.5785 -14.5662 -14.5661 -14.5451  -0.6520   0.2053   0.9155   1.2025
     1.2025   1.5477   1.5477   1.7364   1.7365   1.8470   1.8751   1.9348
     1.9348   2.2048   2.6565   3.4367   3.4367   3.5508   3.5508   3.6245
     3.6245   4.1804   5.0176   5.0177   5.0837   5.0837   5.5049   7.0174
     7.0249   7.0746   7.0746   7.1090   7.5194   7.5194   7.7673   7.7673
    20.2460  21.3796  21.3870  22.7304  22.7304  23.3204  23.3459  23.3459
    23.6926  23.6926  23.6945  23.6945  23.8989  23.8989  23.9281  23.9723
    24.2607  24.4779  25.0405  25.0406  25.9159  25.9160  26.7770  27.0886
    27.0886  27.2505  27.2505  27.4009  27.4009  27.5075  27.9256  27.9256
    28.0969  28.0969  28.4103  28.4103  29.0097  29.0097  29.8421  30.2225
    30.3463  30.6407  31.1853  31.1854  31.6197  31.9005  32.6154  32.7916

[...]

          k =-0.5000-0.2887 0.0000 (  5800 PWs)   bands (ev):

[...]

     the Fermi energy is    28.2568 ev

!    total energy              =   -1183.22433166 Ry
     Harris-Foulkes estimate   =   -1183.22438031 Ry
     estimated scf accuracy    <       0.00005274 Ry

     The total energy is the sum of the following terms:

     one-electron contribution =     158.92614148 Ry
     hartree contribution      =      73.42958588 Ry
     xc contribution           =    -150.59266013 Ry
     ewald contribution        =   -1264.34239192 Ry
     smearing contrib. (-TS)   =      -0.64500697 Ry

     convergence has been achieved in  14 iterations

     Forces acting on atoms (Ry/au):

     atom    1 type  1   force =     0.00000000    0.00000000    0.00485775
     atom    2 type  1   force =     0.00000000    0.00000000    0.00485775
     atom    3 type  1   force =     0.00000000    0.00000000   -0.00485775
     atom    4 type  1   force =     0.00000000    0.00000000   -0.00485775
     atom    5 type  2   force =     0.00000000    0.00000000    0.00000000
     atom    6 type  2   force =     0.00000000    0.00000000    0.00000000
     atom    7 type  2   force =     0.00000000    0.08235633    0.00000000
     atom    8 type  2   force =    -0.07132267    0.04117816    0.00000000
     atom    9 type  2   force =     0.07132267    0.04117816    0.00000000
     atom   10 type  2   force =    -0.07132267   -0.04117816    0.00000000
     atom   11 type  2   force =     0.07132267   -0.04117816    0.00000000
     atom   12 type  2   force =     0.00000000   -0.08235633    0.00000000

     Total force =     0.201965     Total SCF correction =     0.008303

     entering subroutine stress ...

          total   stress  (Ry/bohr**3)                   (kbar)     P= 1015.47
   0.00692121   0.00000000   0.00000000       1018.14      0.00      0.00
   0.00000000   0.00692121   0.00000000          0.00   1018.14      0.00
   0.00000000   0.00000000   0.00686666          0.00      0.00   1010.12

     BFGS Geometry Optimization

     number of scf cycles    =   1
     number of bfgs steps    =   0

     enthalpy new            =   -1183.2243316600 Ry

     new trust radius        =       0.5000000000 bohr
     new conv_thr            =       0.0001000000 Ry

     new unit-cell volume =   1656.07311 a.u.^3 (   245.40471 Ang^3 )

CELL_PARAMETERS (alat=  9.92348860)
   1.067764947   0.000000000   0.000000000
  -0.533882474   0.924711570   0.000000000
   0.000000000   0.000000000   1.716344363

ATOMIC_POSITIONS (crystal)
Mg       0.333333000   0.666667000   0.062537209
Mg       0.666667000   0.333333000   0.562537209
Mg       0.666667000   0.333333000   0.937462791
Mg       0.333333000   0.666667000   0.437462791
Zn       0.000000000   0.000000000   0.000000000
Zn       0.000000000   0.000000000   0.500000000
Zn       0.172237528   0.344475056   0.750000000
Zn       0.827762472   0.172237528   0.250000000
Zn       0.344475056   0.172237528   0.250000000
Zn       0.655524944   0.827762472   0.750000000
Zn       0.172237528   0.827762472   0.750000000
Zn       0.827762472   0.655524944   0.250000000

     Writing output data file Prototype-La-hP12-MgZn2.save
     Check: negative starting charge=   -0.000695
     NEW-OLD atomic charge density approx. for the potential
     NEW k-points:
        k(    1) = (   0.0000000   0.0000000   0.0000000), wk =   0.0833333
        k(    2) = (   0.0000000   0.0000000   0.1456584), wk =   0.1666667
        k(    3) = (   0.0000000   0.0000000  -0.2913168), wk =   0.0833333
        k(    4) = (   0.0000000   0.3604728   0.0000000), wk =   0.1666667
        k(    5) = (   0.0000000   0.3604728   0.1456584), wk =   0.3333333
        k(    6) = (   0.0000000   0.3604728  -0.2913168), wk =   0.1666667
        k(    7) = (  -0.4682679  -0.2703546   0.0000000), wk =   0.0833333
        k(    8) = (  -0.4682679  -0.2703546   0.1456584), wk =   0.1666667
        k(    9) = (  -0.4682679  -0.2703546  -0.2913168), wk =   0.0833333
        k(   10) = (  -0.4682679   0.0901182   0.0000000), wk =   0.1666667
        k(   11) = (  -0.4682679   0.0901182   0.1456584), wk =   0.3333333
        k(   12) = (  -0.4682679   0.0901182  -0.2913168), wk =   0.1666667
     Check: negative starting charge=   -0.006739

     negative rho (up, down):  0.617E-02 0.000E+00
     extrapolated charge  178.51456, renormalised to  160.00000

[...]

     Total force =     0.015643     Total SCF correction =     0.001772
     SCF correction compared to forces is large: reduce conv_thr to get better values

[...]

     enthalpy old            =   -1183.2243316600 Ry
     enthalpy new            =   -1184.2996563353 Ry

     CASE: enthalpy_new < enthalpy_old

     small trust_radius: resetting bfgs history

[...]

     number of scf cycles    =   3
     number of bfgs steps    =   2

     enthalpy old            =   -1184.2996563353 Ry
     enthalpy new            =   -1184.3231092508 Ry

     CASE: enthalpy_new < enthalpy_old

     Message from routine bfgs:
     history already reset at previous step: stopping
     small trust_radius: resetting bfgs history

     new trust radius        =       0.1374776418 bohr
     new conv_thr            =       0.0000014728 Ry

     new unit-cell volume =   1706.87680 a.u.^3 (   252.93304 Ang^3 )

[...]

ATOMIC_POSITIONS (crystal)
Mg       0.333333000   0.666667000   0.062645443
Mg       0.666667000   0.333333000   0.562645443
Mg       0.666667000   0.333333000   0.937354557
Mg       0.333333000   0.666667000   0.437354557
Zn       0.000000000   0.000000000   0.000000000
Zn       0.000000000   0.000000000   0.500000000
Zn       0.172506259   0.345012517   0.750000000
Zn       0.827493741   0.172506259   0.250000000
Zn       0.345012517   0.172506259   0.250000000
Zn       0.654987483   0.827493741   0.750000000
Zn       0.172506259   0.827493741   0.750000000
Zn       0.827493741   0.654987483   0.250000000

     Writing output data file Prototype-La-hP12-MgZn2.save
     Check: negative starting charge=   -0.010149
     NEW-OLD atomic charge density approx. for the potential
     NEW k-points:
        k(    1) = (   0.0000000   0.0000000   0.0000000), wk =   0.0833333
        k(    2) = (   0.0000000   0.0000000   0.1448899), wk =   0.1666667
        k(    3) = (   0.0000000   0.0000000  -0.2897798), wk =   0.0833333
        k(    4) = (   0.0000000   0.3560081   0.0000000), wk =   0.1666667
        k(    5) = (   0.0000000   0.3560081   0.1448899), wk =   0.3333333
        k(    6) = (   0.0000000   0.3560081  -0.2897798), wk =   0.1666667
        k(    7) = (  -0.4624681  -0.2670061   0.0000000), wk =   0.0833333
        k(    8) = (  -0.4624681  -0.2670061   0.1448899), wk =   0.1666667
        k(    9) = (  -0.4624681  -0.2670061  -0.2897798), wk =   0.0833333
        k(   10) = (  -0.4624681   0.0890020   0.0000000), wk =   0.1666667
        k(   11) = (  -0.4624681   0.0890020   0.1448899), wk =   0.3333333
        k(   12) = (  -0.4624681   0.0890020  -0.2897798), wk =   0.1666667
     Check: negative starting charge=   -0.008067

     negative rho (up, down):  0.730E-02 0.000E+00
     extrapolated charge  155.31861, renormalised to  160.00000

[...]

     Total force =     0.007524     Total SCF correction =     0.000343

[...]

     The maximum number of steps has been reached.

     End of BFGS Geometry Optimization
Begin final coordinates
     new unit-cell volume =   1706.87680 a.u.^3 (   252.93304 Ang^3 )

CELL_PARAMETERS (alat=  9.92348860)
   1.081155666   0.000000000   0.000000000
  -0.540577833   0.936308272   0.000000000
   0.000000000   0.000000000   1.725448337

ATOMIC_POSITIONS (crystal)
Mg       0.333333000   0.666667000   0.062645443
Mg       0.666667000   0.333333000   0.562645443
Mg       0.666667000   0.333333000   0.937354557
Mg       0.333333000   0.666667000   0.437354557
Zn       0.000000000   0.000000000   0.000000000
Zn       0.000000000   0.000000000   0.500000000
Zn       0.172506259   0.345012517   0.750000000
Zn       0.827493741   0.172506259   0.250000000
Zn       0.345012517   0.172506259   0.250000000
Zn       0.654987483   0.827493741   0.750000000
Zn       0.172506259   0.827493741   0.750000000
Zn       0.827493741   0.654987483   0.250000000
End final coordinates

     A final scf calculation at the relaxed structure.
     The G-vectors are recalculated for the final unit cell
     Results may differ from those at the preceding step.

     bravais-lattice index     =            0
     lattice parameter (alat)  =       9.9235  a.u.
     unit-cell volume          =    1706.8768 (a.u.)^3
     number of atoms/cell      =           12
     number of atomic types    =            2
     number of electrons       =       160.00
     number of Kohn-Sham states=           96
     kinetic-energy cutoff     =      40.0000  Ry
     charge density cutoff     =     160.0000  Ry
     convergence threshold     =      1.5E-06
     mixing beta               =       0.7000
     number of iterations used =            8  plain     mixing
     Exchange-correlation      = SLA-PZ-NOGX-NOGC ( 1 1 0 0 0)
     EXX-fraction              =        0.00

     celldm(1)=   9.923489  celldm(2)=   0.000000  celldm(3)=   0.000000
     celldm(4)=   0.000000  celldm(5)=   0.000000  celldm(6)=   0.000000

     crystal axes: (cart. coord. in units of alat)
               a(1) = (   1.081156   0.000000   0.000000 )
               a(2) = (  -0.540578   0.936308   0.000000 )
               a(3) = (   0.000000   0.000000   1.725448 )

     reciprocal axes: (cart. coord. in units 2 pi/alat)
               b(1) = (  0.924936  0.534012  0.000000 )
               b(2) = (  0.000000  1.068024  0.000000 )
               b(3) = (  0.000000  0.000000  0.579560 )

     PseudoPot. # 1 for Nd read from file:
     /home/cwx6513/pp.La/Nd.UPF
     MD5 check sum: c66c5b6abe7b5840ced9b1e244e3bed6
     Pseudo is Norm-conserving, Zval = 14.0
     Generated in analytical, separable form
     Using radial grid of 1257 points,  6 beta functions with:
                l(1) =   0
                l(2) =   0
                l(3) =   1
                l(4) =   1
                l(5) =   2
                l(6) =   3

     PseudoPot. # 2 for Pr read from file:
     /home/cwx6513/pp.La/Pr.UPF
     MD5 check sum: 70e2b4b153859e92c8c91247dfc63203
     Pseudo is Norm-conserving, Zval = 13.0
     Generated in analytical, separable form
     Using radial grid of 1255 points,  6 beta functions with:
                l(1) =   0
                l(2) =   0
                l(3) =   1
                l(4) =   1
                l(5) =   2
                l(6) =   3

     atomic species   valence    mass     pseudopotential
        Mg            14.00    24.30500     Nd( 1.00)
        Zn            13.00    65.39000     Pr( 1.00)

     24 Sym. Ops., with inversion, found (12 have fractional translation)

   Cartesian axes

     site n.     atom                  positions (alat units)
         1           Mg  tau(   1) = (  -0.0000005   0.6242058   0.1080915  )
         2           Mg  tau(   2) = (   0.5405784   0.3121024   0.9708156  )
         3           Mg  tau(   3) = (   0.5405784   0.3121024   1.6173569  )
         4           Mg  tau(   4) = (  -0.0000005   0.6242058   0.7546327  )
         5           Zn  tau(   5) = (   0.0000000   0.0000000   0.0000000  )
         6           Zn  tau(   6) = (   0.0000000   0.0000000   0.8627242  )
         7           Zn  tau(   7) = (   0.0000000   0.3230381   1.2940863  )
         8           Zn  tau(   8) = (   0.8013965   0.1615190   0.4313621  )
         9           Zn  tau(   9) = (   0.2797592   0.1615190   0.4313621  )
        10           Zn  tau(  10) = (   0.2608187   0.7747892   1.2940863  )
        11           Zn  tau(  11) = (  -0.2608187   0.7747892   1.2940863  )
        12           Zn  tau(  12) = (   0.5405778   0.6132702   0.4313621  )

     number of k points=    12  gaussian smearing, width (Ry)=  0.1000
                       cart. coord. in units 2pi/alat
        k(    1) = (   0.0000000   0.0000000   0.0000000), wk =   0.0833333
        k(    2) = (   0.0000000   0.0000000   0.1448899), wk =   0.1666667
        k(    3) = (   0.0000000   0.0000000  -0.2897798), wk =   0.0833333
        k(    4) = (   0.0000000   0.3560081   0.0000000), wk =   0.1666667
        k(    5) = (   0.0000000   0.3560081   0.1448899), wk =   0.3333333
        k(    6) = (   0.0000000   0.3560081  -0.2897798), wk =   0.1666667
        k(    7) = (  -0.4624681  -0.2670061   0.0000000), wk =   0.0833333
        k(    8) = (  -0.4624681  -0.2670061   0.1448899), wk =   0.1666667
        k(    9) = (  -0.4624681  -0.2670061  -0.2897798), wk =   0.0833333
        k(   10) = (  -0.4624681   0.0890020   0.0000000), wk =   0.1666667
        k(   11) = (  -0.4624681   0.0890020   0.1448899), wk =   0.3333333
        k(   12) = (  -0.4624681   0.0890020  -0.2897798), wk =   0.1666667

     Largest allocated arrays     est. size (Mb)     dimensions
     Largest temporary arrays     est. size (Mb)     dimensions

     Initial potential from superposition of free atoms
     Check: negative starting charge=   -0.001529

     starting charge  103.92434, renormalised to  160.00000

     negative rho (up, down):  0.235E-02 0.000E+00
     Starting wfc are  160 randomized atomic wfcs

     Writing output data file Prototype-La-hP12-MgZn2.save

     Self-consistent Calculation

[...]

     negative rho (up, down):  0.841E-04 0.000E+00

[...]

     iteration # 12     ecut=    40.00 Ry     beta=0.70
     CG style diagonalization
     c_bands:  1 eigenvalues not converged
     c_bands:  1 eigenvalues not converged
     ethr =  6.17E-06,  avg # of iterations =  4.1

[...]

     total energy              =   -1184.80796314 Ry
     Harris-Foulkes estimate   =   -1184.80796494 Ry
     estimated scf accuracy    <       0.00000509 Ry

     iteration # 15     ecut=    40.00 Ry     beta=0.70
     CG style diagonalization
     ethr =  3.18E-09,  avg # of iterations =  3.8

     End of self-consistent calculation

[...]

          k = 0.0000 0.3560-0.2898 (  7302 PWs)   bands (ev):

[...]

          k =-0.4625 0.0890-0.2898 (  7304 PWs)   bands (ev):

   -25.8197 -25.8197 -25.7893 -25.7892 -21.4791 -21.4791 -21.2065 -21.2065
   -20.7700 -20.7700 -20.6976 -20.6976  -4.4183  -4.4182  -4.3326  -4.3326
    -4.2153  -4.2152  -4.0648  -4.0648  -4.0000  -4.0000  -3.9493  -3.9493
    -3.2909  -3.2909  -2.4924  -2.4924  -1.8231  -1.8231  -1.7133  -1.7133
    -1.5616  -1.5615  -1.3662  -1.3662  -0.8758  -0.8758  -0.4988  -0.4988
    -0.2098  -0.2098  -0.0069  -0.0069   0.3835   0.3835   0.4780   0.4780
    17.2853  17.2853  17.6429  17.6429  18.1213  18.1213  18.4253  18.4253
    18.5809  18.5809  18.7478  18.7478  19.0444  19.0444  19.2427  19.2427
    19.3547  19.3547  19.7117  19.7117  19.9777  19.9777  20.3660  20.3660
    20.7518  20.7518  20.9017  20.9017  21.3484  21.3484  21.9834  21.9834
    22.2453  22.2453  22.3385  22.3385  22.8701  22.8701  23.1925  23.1925
    23.2533  23.2533  23.6134  23.6134  24.2321  24.2324  24.6088  24.6093

     the Fermi energy is    21.9114 ev

!    total energy              =   -1184.80796351 Ry
     Harris-Foulkes estimate   =   -1184.80796466 Ry
     estimated scf accuracy    <       0.00000134 Ry

     The total energy is the sum of the following terms:

     one-electron contribution =      38.07967104 Ry
     hartree contribution      =      96.88153479 Ry
     xc contribution           =    -146.11496670 Ry
     ewald contribution        =   -1172.82685698 Ry
     smearing contrib. (-TS)   =      -0.82734566 Ry

     convergence has been achieved in  15 iterations

     Forces acting on atoms (Ry/au):

     atom    1 type  1   force =     0.00000000    0.00000000    0.00241556
     atom    2 type  1   force =     0.00000000    0.00000000    0.00241556
     atom    3 type  1   force =     0.00000000    0.00000000   -0.00241556
     atom    4 type  1   force =     0.00000000    0.00000000   -0.00241556
     atom    5 type  2   force =     0.00000000    0.00000000    0.00000000
     atom    6 type  2   force =     0.00000000    0.00000000    0.00000000
     atom    7 type  2   force =     0.00000000    0.00499784    0.00000000
     atom    8 type  2   force =    -0.00432825    0.00249892    0.00000000
     atom    9 type  2   force =     0.00432825    0.00249892    0.00000000
     atom   10 type  2   force =    -0.00432825   -0.00249892    0.00000000
     atom   11 type  2   force =     0.00432825   -0.00249892    0.00000000
     atom   12 type  2   force =     0.00000000   -0.00499784    0.00000000

     Total force =     0.013161     Total SCF correction =     0.003480
     SCF correction compared to forces is large: reduce conv_thr to get better values

     entering subroutine stress ...

          total   stress  (Ry/bohr**3)                   (kbar)     P=  205.04
   0.00143804   0.00000000   0.00000000        211.54      0.00      0.00
   0.00000000   0.00143804   0.00000000          0.00    211.54      0.00
   0.00000000   0.00000000   0.00130550          0.00      0.00    192.05

     Writing output data file Prototype-La-hP12-MgZn2.save

     General routines

     Parallel routines

   This run was terminated on:  18: 6:59  22Mar2018

   JOB DONE.