     Program PWSCF v.5.0.2 starts on 22Mar2018 at 17:34:50

     Current dimensions of program PWSCF are:
     Max number of different atomic species (ntypx) = 10
     Max number of k-points (npk) =  40000
     Max angular momentum in pseudopotentials (lmaxx) =  3
     Waiting for input...
     Reading input from standard input

     Subspace diagonalization in iterative solution of the eigenvalue problem:
     a serial algorithm will be used

     bravais-lattice index     =            0
     lattice parameter (alat)  =       7.0151  a.u.
     unit-cell volume          =     862.2778 (a.u.)^3
     number of atoms/cell      =           12
     number of atomic types    =            2
     number of electrons       =       164.00
     number of Kohn-Sham states=           98
     kinetic-energy cutoff     =      40.0000  Ry
     charge density cutoff     =     160.0000  Ry
     convergence threshold     =      1.0E-04
     mixing beta               =       0.7000
     number of iterations used =            8  plain     mixing
     Exchange-correlation      = SLA-PZ-NOGX-NOGC ( 1 1 0 0 0)
     EXX-fraction              =        0.00
     nstep                     =           50

     celldm(1)=   7.015105  celldm(2)=   0.000000  celldm(3)=   0.000000
     celldm(4)=   0.000000  celldm(5)=   0.000000  celldm(6)=   0.000000

     crystal axes: (cart. coord. in units of alat)
               a(1) = (   1.000000   0.000000   0.000000 )
               a(2) = (   0.000000   1.315963   0.000000 )
               a(3) = (   0.000000   0.000000   1.898020 )

     reciprocal axes: (cart. coord. in units 2 pi/alat)
               b(1) = (  1.000000  0.000000  0.000000 )
               b(2) = (  0.000000  0.759900  0.000000 )
               b(3) = (  0.000000  0.000000  0.526865 )

     PseudoPot. # 1 for Nd read from file:
     /home/cwx6513/pp.La/Nd.UPF
     MD5 check sum: c66c5b6abe7b5840ced9b1e244e3bed6
     Pseudo is Norm-conserving, Zval = 14.0
     Generated in analytical, separable form
     Using radial grid of 1257 points,  6 beta functions with:
                l(1) =   0
                l(2) =   0
                l(3) =   1
                l(4) =   1
                l(5) =   2
                l(6) =   3

     PseudoPot. # 2 for Pr read from file:
     /home/cwx6513/pp.La/Pr.UPF
     MD5 check sum: 70e2b4b153859e92c8c91247dfc63203
     Pseudo is Norm-conserving, Zval = 13.0
     Generated in analytical, separable form
     Using radial grid of 1255 points,  6 beta functions with:
                l(1) =   0
                l(2) =   0
                l(3) =   1
                l(4) =   1
                l(5) =   2
                l(6) =   3

     atomic species   valence    mass     pseudopotential
        Co            14.00    58.93320     Nd( 1.00)
        Si            13.00    28.08550     Pr( 1.00)

      8 Sym. Ops., with inversion, found ( 6 have fractional translation)

   Cartesian axes

     site n.     atom                  positions (alat units)
         1           Co  tau(   1) = (   0.7500000   1.0875135   0.8270358  )
         2           Co  tau(   2) = (   0.2500000   0.2284499   1.0709846  )
         3           Co  tau(   3) = (   0.7500000   0.4295318   0.1219744  )
         4           Co  tau(   4) = (   0.2500000   0.8864316   1.7760460  )
         5           Co  tau(   5) = (   0.2500000   0.7067855   0.5358966  )
         6           Co  tau(   6) = (   0.7500000   0.6091779   1.3621238  )
         7           Co  tau(   7) = (   0.2500000   0.0488038   0.4131136  )
         8           Co  tau(   8) = (   0.7500000   1.2671596   1.4849068  )
         9           Si  tau(   9) = (   0.2500000   0.2669484   1.6960710  )
        10           Si  tau(  10) = (   0.7500000   1.0490149   0.2019494  )
        11           Si  tau(  11) = (   0.2500000   0.9249301   1.1509596  )
        12           Si  tau(  12) = (   0.7500000   0.3910333   0.7470608  )

     number of k points=    12  gaussian smearing, width (Ry)=  0.1000
                       cart. coord. in units 2pi/alat
        k(    1) = (   0.0000000   0.0000000   0.0000000), wk =   0.0833333
        k(    2) = (   0.0000000   0.0000000   0.1317162), wk =   0.1666667
        k(    3) = (   0.0000000   0.0000000  -0.2634324), wk =   0.0833333
        k(    4) = (   0.0000000   0.2532999   0.0000000), wk =   0.1666667
        k(    5) = (   0.0000000   0.2532999   0.1317162), wk =   0.3333333
        k(    6) = (   0.0000000   0.2532999  -0.2634324), wk =   0.1666667
        k(    7) = (  -0.5000000   0.0000000   0.0000000), wk =   0.0833333
        k(    8) = (  -0.5000000   0.0000000   0.1317162), wk =   0.1666667
        k(    9) = (  -0.5000000   0.0000000  -0.2634324), wk =   0.0833333
        k(   10) = (  -0.5000000   0.2532999   0.0000000), wk =   0.1666667
        k(   11) = (  -0.5000000   0.2532999   0.1317162), wk =   0.3333333
        k(   12) = (  -0.5000000   0.2532999  -0.2634324), wk =   0.1666667

     Largest allocated arrays     est. size (Mb)     dimensions
     Largest temporary arrays     est. size (Mb)     dimensions

     Initial potential from superposition of free atoms
     Check: negative starting charge=   -0.001196

     starting charge   51.96217, renormalised to  164.00000

     negative rho (up, down):  0.377E-02 0.000E+00
     Starting wfc are   80 randomized atomic wfcs

     Self-consistent Calculation

     iteration #  1     ecut=    40.00 Ry     beta=0.70
     CG style diagonalization
     c_bands:  1 eigenvalues not converged
     c_bands:  1 eigenvalues not converged
     c_bands:  1 eigenvalues not converged
     ethr =  1.00E-02,  avg # of iterations = 22.8

     negative rho (up, down):  0.110E-02 0.000E+00

     total energy              =    -836.23325037 Ry
     Harris-Foulkes estimate   =   -2447.80061172 Ry
     estimated scf accuracy    <    1925.78493457 Ry

[...]

     iteration #  3     ecut=    40.00 Ry     beta=0.70
     CG style diagonalization
     ethr =  1.00E-02,  avg # of iterations = 11.1

[...]

     End of self-consistent calculation

          k = 0.0000 0.0000 0.0000 (  3675 PWs)   bands (ev):

    -6.9007  -5.0548  -5.0311  -3.9560  -3.5011  -3.3565  -3.0597  -2.9800
     0.5291   0.7809   0.9376   2.3507  11.3926  12.7096  12.9627  13.4850
    13.6303  13.8021  13.8073  13.9674  14.4062  15.2075  15.2840  15.4642
    16.0383  16.4575  16.6051  16.9257  17.0748  17.0879  17.7438  18.3171
    18.3691  18.7197  19.5221  19.7466  21.1090  21.6405  21.8990  22.2507
    22.9208  23.3770  23.4590  23.5118  23.9004  23.9870  24.5405  24.8307
    33.4404  33.7540  34.5493  35.0346  35.2280  35.2766  35.7991  36.0521
    36.3618  37.1456  38.0851  38.2598  38.9775  39.2190  39.6859  41.0605
    41.2599  41.4009  41.7691  41.8888  42.4153  42.4774  42.5939  42.7794
    44.0425  44.0749  44.7139  44.8553  44.9144  44.9581  45.3270  45.7239
    46.0429  46.7523  47.0543  47.2273  47.5994  47.8567  48.4491  48.5456
    48.7328  48.7748  49.4846  49.8412  50.1222  50.6274  50.7894  51.1629
    51.4931  52.4305

[...]

          k =-0.5000 0.0000 0.0000 (  3722 PWs)   bands (ev):

[...]

     the Fermi energy is    46.3008 ev

!    total energy              =   -1243.69244047 Ry
     Harris-Foulkes estimate   =   -1243.69245195 Ry
     estimated scf accuracy    <       0.00001383 Ry

     The total energy is the sum of the following terms:

     one-electron contribution =     445.16393522 Ry
     hartree contribution      =      35.00905163 Ry
     xc contribution           =    -168.66728907 Ry
     ewald contribution        =   -1554.80231117 Ry
     smearing contrib. (-TS)   =      -0.39582708 Ry

     convergence has been achieved in  10 iterations

     Forces acting on atoms (Ry/au):

     atom    1 type  1   force =     0.00000000   -0.02110396   -0.08276902
     atom    2 type  1   force =     0.00000000    0.02110396    0.08276902
     atom    3 type  1   force =     0.00000000   -0.02110396    0.08276902
     atom    4 type  1   force =     0.00000000    0.02110396   -0.08276902
     atom    5 type  1   force =     0.00000000    0.09092834   -0.18419752
     atom    6 type  1   force =     0.00000000   -0.09092834    0.18419752
     atom    7 type  1   force =     0.00000000    0.09092834    0.18419752
     atom    8 type  1   force =     0.00000000   -0.09092834   -0.18419752
     atom    9 type  2   force =     0.00000000   -0.18375385    0.00231750
     atom   10 type  2   force =     0.00000000    0.18375385   -0.00231750
     atom   11 type  2   force =     0.00000000   -0.18375385   -0.00231750
     atom   12 type  2   force =     0.00000000    0.18375385    0.00231750

     Total force =     0.577109     Total SCF correction =     0.005282

     entering subroutine stress ...

          total   stress  (Ry/bohr**3)                   (kbar)     P= 6204.42
   0.04170973   0.00000000   0.00000000       6135.71      0.00      0.00
   0.00000000   0.04145599   0.00000000          0.00   6098.38      0.00
   0.00000000   0.00000000   0.04336469          0.00      0.00   6379.17

     BFGS Geometry Optimization

     number of scf cycles    =   1
     number of bfgs steps    =   0

     enthalpy new            =   -1243.6924404665 Ry

     new trust radius        =       0.5000000000 bohr
     new conv_thr            =       0.0001000000 Ry

     new unit-cell volume =   1094.70175 a.u.^3 (   162.21806 Ang^3 )

CELL_PARAMETERS (alat=  7.01510508)
   1.081887477   0.000000000   0.000000000
   0.000000000   1.423068743   0.000000000
   0.000000000   0.000000000   2.059611444

ATOMIC_POSITIONS (crystal)
Co       0.750000000   0.826221475   0.435247828
Co       0.250000000   0.173778525   0.564752172
Co       0.750000000   0.326221475   0.064752172
Co       0.250000000   0.673778525   0.935247828
Co       0.250000000   0.537859502   0.281258602
Co       0.750000000   0.462140498   0.718741398
Co       0.250000000   0.037859502   0.218741398
Co       0.750000000   0.962140498   0.781258602
Si       0.250000000   0.201290857   0.893613669
Si       0.750000000   0.798709143   0.106386331
Si       0.250000000   0.701290857   0.606386331
Si       0.750000000   0.298709143   0.393613669

     Writing output data file Prototype-La-oP12-Co2Si.save
     Check: negative starting charge=   -0.001196
     NEW-OLD atomic charge density approx. for the potential
     NEW k-points:
        k(    1) = (   0.0000000   0.0000000   0.0000000), wk =   0.0833333
        k(    2) = (   0.0000000   0.0000000   0.1213821), wk =   0.1666667
        k(    3) = (   0.0000000   0.0000000  -0.2427642), wk =   0.0833333
        k(    4) = (   0.0000000   0.2342356   0.0000000), wk =   0.1666667
        k(    5) = (   0.0000000   0.2342356   0.1213821), wk =   0.3333333
        k(    6) = (   0.0000000   0.2342356  -0.2427642), wk =   0.1666667
        k(    7) = (  -0.4621553   0.0000000   0.0000000), wk =   0.0833333
        k(    8) = (  -0.4621553   0.0000000   0.1213821), wk =   0.1666667
        k(    9) = (  -0.4621553   0.0000000  -0.2427642), wk =   0.0833333
        k(   10) = (  -0.4621553   0.2342356   0.0000000), wk =   0.1666667
        k(   11) = (  -0.4621553   0.2342356   0.1213821), wk =   0.3333333
        k(   12) = (  -0.4621553   0.2342356  -0.2427642), wk =   0.1666667
     Check: negative starting charge=   -0.006564

     negative rho (up, down):  0.550E-02 0.000E+00
     extrapolated charge  175.03246, renormalised to  164.00000

[...]

     enthalpy old            =   -1243.6924404665 Ry
     enthalpy new            =   -1249.9996768959 Ry

     CASE: enthalpy_new < enthalpy_old

     small trust_radius: resetting bfgs history

     new trust radius        =       2.6283949981 bohr
     new conv_thr            =       0.0001000000 Ry

[...]

     Writing output data file Prototype-La-oP12-Co2Si.save
     Check: negative starting charge=   -0.006564
     NEW-OLD atomic charge density approx. for the potential
     NEW k-points:
        k(    1) = (   0.0000000   0.0000000   0.0000000), wk =   0.0833333
        k(    2) = (   0.0000000   0.0000000   0.0868751), wk =   0.1666667
        k(    3) = (   0.0000000   0.0000000  -0.1737501), wk =   0.0833333
        k(    4) = (   0.0000000   0.1693388   0.0000000), wk =   0.1666667
        k(    5) = (   0.0000000   0.1693388   0.0868751), wk =   0.3333333
        k(    6) = (   0.0000000   0.1693388  -0.1737501), wk =   0.1666667
        k(    7) = (  -0.3324263   0.0000000   0.0000000), wk =   0.0833333
        k(    8) = (  -0.3324263   0.0000000   0.0868751), wk =   0.1666667
        k(    9) = (  -0.3324263   0.0000000  -0.1737501), wk =   0.0833333
        k(   10) = (  -0.3324263   0.1693388   0.0000000), wk =   0.1666667
        k(   11) = (  -0.3324263   0.1693388   0.0868751), wk =   0.3333333
        k(   12) = (  -0.3324263   0.1693388  -0.1737501), wk =   0.1666667
     extrapolated charge  196.62296, renormalised to  164.00000

[...]

     Total force =     0.009257     Total SCF correction =     0.001366
     SCF correction compared to forces is large: reduce conv_thr to get better values

[...]

          total   stress  (Ry/bohr**3)                   (kbar)     P=-1207.09
  -0.00818982   0.00000000   0.00000000      -1204.76      0.00      0.00
   0.00000000  -0.00816763   0.00000000          0.00  -1201.50      0.00
   0.00000000   0.00000000  -0.00825945          0.00      0.00  -1215.01

     number of scf cycles    =   3
     number of bfgs steps    =   2

     enthalpy old            =   -1249.9996768959 Ry
     enthalpy new            =   -1241.5721948736 Ry

     CASE: enthalpy_new > enthalpy_old

     new trust radius        =       1.0866902292 bohr

     trust_radius < trust_radius_min

     resetting bfgs history

     Message from routine bfgs:
     history already reset at previous step: stopping
     new conv_thr            =       0.0001000000 Ry

     new unit-cell volume =   1313.62116 a.u.^3 (   194.65857 Ang^3 )

[...]

ATOMIC_POSITIONS (crystal)
Co       0.750000000   0.826243383   0.434987834
Co       0.250000000   0.173756617   0.565012166
Co       0.750000000   0.326243383   0.065012166
Co       0.250000000   0.673756617   0.934987834
Co       0.250000000   0.538249718   0.280324433
Co       0.750000000   0.461750282   0.719675567
Co       0.250000000   0.038249718   0.219675567
Co       0.750000000   0.961750282   0.780324433
Si       0.250000000   0.200011225   0.893805716
Si       0.750000000   0.799988775   0.106194284
Si       0.250000000   0.700011225   0.606194284
Si       0.750000000   0.299988775   0.393805716

     Writing output data file Prototype-La-oP12-Co2Si.save
     NEW-OLD atomic charge density approx. for the potential
     NEW k-points:
        k(    1) = (   0.0000000   0.0000000   0.0000000), wk =   0.0833333
        k(    2) = (   0.0000000   0.0000000   0.1140374), wk =   0.1666667
        k(    3) = (   0.0000000   0.0000000  -0.2280748), wk =   0.0833333
        k(    4) = (   0.0000000   0.2207884   0.0000000), wk =   0.1666667
        k(    5) = (   0.0000000   0.2207884   0.1140374), wk =   0.3333333
        k(    6) = (   0.0000000   0.2207884  -0.2280748), wk =   0.1666667
        k(    7) = (  -0.4349082   0.0000000   0.0000000), wk =   0.0833333
        k(    8) = (  -0.4349082   0.0000000   0.1140374), wk =   0.1666667
        k(    9) = (  -0.4349082   0.0000000  -0.2280748), wk =   0.0833333
        k(   10) = (  -0.4349082   0.2207884   0.0000000), wk =   0.1666667
        k(   11) = (  -0.4349082   0.2207884   0.1140374), wk =   0.3333333
        k(   12) = (  -0.4349082   0.2207884  -0.2280748), wk =   0.1666667
     Check: negative starting charge=   -0.012618

     negative rho (up, down):  0.241E+02 0.000E+00
     extrapolated charge   99.61348, renormalised to  164.00000

[...]

     The maximum number of steps has been reached.

     End of BFGS Geometry Optimization
Begin final coordinates
     new unit-cell volume =   1313.62116 a.u.^3 (   194.65857 Ang^3 )

CELL_PARAMETERS (alat=  7.01510508)
   1.149667929   0.000000000   0.000000000
   0.000000000   1.509741187   0.000000000
   0.000000000   0.000000000   2.192263106

ATOMIC_POSITIONS (crystal)
Co       0.750000000   0.826243383   0.434987834
Co       0.250000000   0.173756617   0.565012166
Co       0.750000000   0.326243383   0.065012166
Co       0.250000000   0.673756617   0.934987834
Co       0.250000000   0.538249718   0.280324433
Co       0.750000000   0.461750282   0.719675567
Co       0.250000000   0.038249718   0.219675567
Co       0.750000000   0.961750282   0.780324433
Si       0.250000000   0.200011225   0.893805716
Si       0.750000000   0.799988775   0.106194284
Si       0.250000000   0.700011225   0.606194284
Si       0.750000000   0.299988775   0.393805716
End final coordinates

     A final scf calculation at the relaxed structure.
     The G-vectors are recalculated for the final unit cell
     Results may differ from those at the preceding step.

     bravais-lattice index     =            0
     lattice parameter (alat)  =       7.0151  a.u.
     unit-cell volume          =    1313.6212 (a.u.)^3
     number of atoms/cell      =           12
     number of atomic types    =            2
     number of electrons       =       164.00
     number of Kohn-Sham states=           98
     kinetic-energy cutoff     =      40.0000  Ry
     charge density cutoff     =     160.0000  Ry
     convergence threshold     =      1.0E-04
     mixing beta               =       0.7000
     number of iterations used =            8  plain     mixing
     Exchange-correlation      = SLA-PZ-NOGX-NOGC ( 1 1 0 0 0)
     EXX-fraction              =        0.00

     celldm(1)=   7.015105  celldm(2)=   0.000000  celldm(3)=   0.000000
     celldm(4)=   0.000000  celldm(5)=   0.000000  celldm(6)=   0.000000

     crystal axes: (cart. coord. in units of alat)
               a(1) = (   1.149668   0.000000   0.000000 )
               a(2) = (   0.000000   1.509741   0.000000 )
               a(3) = (   0.000000   0.000000   2.192263 )

     reciprocal axes: (cart. coord. in units 2 pi/alat)
               b(1) = (  0.869816  0.000000  0.000000 )
               b(2) = (  0.000000  0.662365  0.000000 )
               b(3) = (  0.000000  0.000000  0.456150 )

     PseudoPot. # 1 for Nd read from file:
     /home/cwx6513/pp.La/Nd.UPF
     MD5 check sum: c66c5b6abe7b5840ced9b1e244e3bed6
     Pseudo is Norm-conserving, Zval = 14.0
     Generated in analytical, separable form
     Using radial grid of 1257 points,  6 beta functions with:
                l(1) =   0
                l(2) =   0
                l(3) =   1
                l(4) =   1
                l(5) =   2
                l(6) =   3

     PseudoPot. # 2 for Pr read from file:
     /home/cwx6513/pp.La/Pr.UPF
     MD5 check sum: 70e2b4b153859e92c8c91247dfc63203
     Pseudo is Norm-conserving, Zval = 13.0
     Generated in analytical, separable form
     Using radial grid of 1255 points,  6 beta functions with:
                l(1) =   0
                l(2) =   0
                l(3) =   1
                l(4) =   1
                l(5) =   2
                l(6) =   3

     atomic species   valence    mass     pseudopotential
        Co            14.00    58.93320     Nd( 1.00)
        Si            13.00    28.08550     Pr( 1.00)

      8 Sym. Ops., with inversion, found ( 6 have fractional translation)

   Cartesian axes

     site n.     atom                  positions (alat units)
         1           Co  tau(   1) = (   0.8622509   1.2474137   0.9536078  )
         2           Co  tau(   2) = (   0.2874170   0.2623275   1.2386553  )
         3           Co  tau(   3) = (   0.8622509   0.4925431   0.1425238  )
         4           Co  tau(   4) = (   0.2874170   1.0171981   2.0497393  )
         5           Co  tau(   5) = (   0.2874170   0.8126178   0.6145449  )
         6           Co  tau(   6) = (   0.8622509   0.6971234   1.5777182  )
         7           Co  tau(   7) = (   0.2874170   0.0577472   0.4815866  )
         8           Co  tau(   8) = (   0.8622509   1.4519940   1.7106765  )
         9           Si  tau(   9) = (   0.2874170   0.3019652   1.9594573  )
        10           Si  tau(  10) = (   0.8622509   1.2077760   0.2328058  )
        11           Si  tau(  11) = (   0.2874170   1.0568358   1.3289374  )
        12           Si  tau(  12) = (   0.8622509   0.4529054   0.8633257  )

     number of k points=    12  gaussian smearing, width (Ry)=  0.1000
                       cart. coord. in units 2pi/alat
        k(    1) = (   0.0000000   0.0000000   0.0000000), wk =   0.0833333
        k(    2) = (   0.0000000   0.0000000   0.1140374), wk =   0.1666667
        k(    3) = (   0.0000000   0.0000000  -0.2280748), wk =   0.0833333
        k(    4) = (   0.0000000   0.2207884   0.0000000), wk =   0.1666667
        k(    5) = (   0.0000000   0.2207884   0.1140374), wk =   0.3333333
        k(    6) = (   0.0000000   0.2207884  -0.2280748), wk =   0.1666667
        k(    7) = (  -0.4349082   0.0000000   0.0000000), wk =   0.0833333
        k(    8) = (  -0.4349082   0.0000000   0.1140374), wk =   0.1666667
        k(    9) = (  -0.4349082   0.0000000  -0.2280748), wk =   0.0833333
        k(   10) = (  -0.4349082   0.2207884   0.0000000), wk =   0.1666667
        k(   11) = (  -0.4349082   0.2207884   0.1140374), wk =   0.3333333
        k(   12) = (  -0.4349082   0.2207884  -0.2280748), wk =   0.1666667

     Largest allocated arrays     est. size (Mb)     dimensions
     Largest temporary arrays     est. size (Mb)     dimensions

     Initial potential from superposition of free atoms
     Check: negative starting charge=   -0.001132

     starting charge   51.96217, renormalised to  164.00000

     negative rho (up, down):  0.357E-02 0.000E+00
     Starting wfc are   80 randomized atomic wfcs

     Writing output data file Prototype-La-oP12-Co2Si.save

     Self-consistent Calculation

[...]

     negative rho (up, down):  0.128E-03 0.000E+00

[...]

     iteration #  6     ecut=    40.00 Ry     beta=0.70
     CG style diagonalization
     ethr =  2.78E-03,  avg # of iterations =  3.7

[...]

     total energy              =   -1253.42923007 Ry
     Harris-Foulkes estimate   =   -1253.42935551 Ry
     estimated scf accuracy    <       0.00034889 Ry

     iteration # 11     ecut=    40.00 Ry     beta=0.70
     CG style diagonalization
     c_bands:  1 eigenvalues not converged
     ethr =  2.13E-07,  avg # of iterations =  3.4

     End of self-consistent calculation

[...]

          k = 0.0000 0.2208-0.2281 (  5578 PWs)   bands (ev):

[...]

          k =-0.4349 0.2208-0.2281 (  5608 PWs)   bands (ev):

   -18.5316 -18.5316 -18.4809 -18.4809 -18.3139 -18.3139 -18.1949 -18.1949
   -13.7226 -13.7226 -13.7217 -13.7217   1.0137   1.0137   1.4942   1.4942
     1.5600   1.5600   1.8276   1.8276   2.4057   2.4057   2.4967   2.4967
     2.9521   2.9521   3.4346   3.4346   3.5478   3.5478   3.5493   3.5493
     3.8926   3.8926   3.9224   3.9224   6.3604   6.3604   6.5385   6.5385
     6.6940   6.6940   6.8762   6.8762   7.1335   7.1335   7.1994   7.1994
    23.3760  23.3760  24.0983  24.0983  24.1056  24.1056  24.7874  24.7874
    24.9378  24.9378  25.2306  25.2306  25.5104  25.5104  25.7725  25.7725
    25.9442  25.9442  26.2522  26.2522  26.6460  26.6460  27.0142  27.0142
    27.0804  27.0804  27.9010  27.9010  28.1787  28.1787  28.5776  28.5776
    28.6393  28.6393  29.8461  29.8461  29.8525  29.8525  30.3120  30.3120
    31.1481  31.1481  31.2348  31.2348  31.7739  31.7739  32.1089  32.1091
    32.1829  32.1832

     the Fermi energy is    29.5813 ev

!    total energy              =   -1253.42923347 Ry
     Harris-Foulkes estimate   =   -1253.42927740 Ry
     estimated scf accuracy    <       0.00005023 Ry

     The total energy is the sum of the following terms:

     one-electron contribution =     183.51488166 Ry
     hartree contribution      =      71.97622507 Ry
     xc contribution           =    -156.85163754 Ry
     ewald contribution        =   -1351.48713039 Ry
     smearing contrib. (-TS)   =      -0.58157227 Ry

     convergence has been achieved in  11 iterations

     Forces acting on atoms (Ry/au):

     atom    1 type  1   force =     0.00000000    0.01081775   -0.00341852
     atom    2 type  1   force =     0.00000000   -0.01081775    0.00341852
     atom    3 type  1   force =     0.00000000    0.01081775    0.00341852
     atom    4 type  1   force =     0.00000000   -0.01081775   -0.00341852
     atom    5 type  1   force =     0.00000000    0.00857439   -0.08530421
     atom    6 type  1   force =     0.00000000   -0.00857439    0.08530421
     atom    7 type  1   force =     0.00000000    0.00857439    0.08530421
     atom    8 type  1   force =     0.00000000   -0.00857439   -0.08530421
     atom    9 type  2   force =     0.00000000   -0.08036228    0.02692779
     atom   10 type  2   force =     0.00000000    0.08036228   -0.02692779
     atom   11 type  2   force =     0.00000000   -0.08036228   -0.02692779
     atom   12 type  2   force =     0.00000000    0.08036228    0.02692779

     Total force =     0.242175     Total SCF correction =     0.015219

     entering subroutine stress ...

          total   stress  (Ry/bohr**3)                   (kbar)     P= 1086.20
   0.00763023   0.00000000   0.00000000       1122.45      0.00      0.00
   0.00000000   0.00709031   0.00000000          0.00   1043.02      0.00
   0.00000000   0.00000000   0.00743103          0.00      0.00   1093.14

     Writing output data file Prototype-La-oP12-Co2Si.save

     General routines

     Parallel routines

   This run was terminated on:  17:48:58  22Mar2018

   JOB DONE.