     Program PWSCF v.5.0.2 starts on 22Mar2018 at 22:47:17

     Current dimensions of program PWSCF are:
     Max number of different atomic species (ntypx) = 10
     Max number of k-points (npk) =  40000
     Max angular momentum in pseudopotentials (lmaxx) =  3
     Waiting for input...
     Reading input from standard input

     Subspace diagonalization in iterative solution of the eigenvalue problem:
     a serial algorithm will be used

     bravais-lattice index     =            0
     lattice parameter (alat)  =       8.5346  a.u.
     unit-cell volume          =     621.6493 (a.u.)^3
     number of atoms/cell      =            8
     number of atomic types    =            2
     number of electrons       =       178.00
     number of Kohn-Sham states=          107
     kinetic-energy cutoff     =      40.0000  Ry
     charge density cutoff     =     160.0000  Ry
     convergence threshold     =      1.0E-04
     mixing beta               =       0.7000
     number of iterations used =            8  plain     mixing
     Exchange-correlation      = SLA-PZ-NOGX-NOGC ( 1 1 0 0 0)
     EXX-fraction              =        0.00
     nstep                     =           50

     celldm(1)=   8.534573  celldm(2)=   0.000000  celldm(3)=   0.000000
     celldm(4)=   0.000000  celldm(5)=   0.000000  celldm(6)=   0.000000

     crystal axes: (cart. coord. in units of alat)
               a(1) = (   1.000000   0.000000   0.000000 )
               a(2) = (   0.000000   1.000000   0.000000 )
               a(3) = (   0.000000   0.000000   1.000000 )

     reciprocal axes: (cart. coord. in units 2 pi/alat)
               b(1) = (  1.000000  0.000000  0.000000 )
               b(2) = (  0.000000  1.000000  0.000000 )
               b(3) = (  0.000000  0.000000  1.000000 )

     PseudoPot. # 1 for Er read from file:
     /home/cwx6513/pp.La/Er.UPF
     MD5 check sum: e152ae21b84514339d8526f066caf99b
     Pseudo is Norm-conserving, Zval = 22.0
     Generated in analytical, separable form
     Using radial grid of 1267 points,  6 beta functions with:
                l(1) =   0
                l(2) =   0
                l(3) =   1
                l(4) =   1
                l(5) =   2
                l(6) =   3

     PseudoPot. # 2 for Tm read from file:
     /home/cwx6513/pp.La/Tm.UPF
     MD5 check sum: 245516e0878b5372ceeb9443ded2c4e1
     Pseudo is Norm-conserving, Zval = 23.0
     Generated in analytical, separable form
     Using radial grid of 1269 points,  6 beta functions with:
                l(1) =   0
                l(2) =   0
                l(3) =   1
                l(4) =   1
                l(5) =   2
                l(6) =   3

     atomic species   valence    mass     pseudopotential
        Cr            22.00    51.99610     Er( 1.00)
        Si            23.00    28.08550     Tm( 1.00)

     48 Sym. Ops., with inversion, found (24 have fractional translation)

   Cartesian axes

     site n.     atom                  positions (alat units)
         1           Cr  tau(   1) = (   0.0000000   0.5000000   0.2500000  )
         2           Cr  tau(   2) = (   0.0000000   0.5000000   0.7500000  )
         3           Cr  tau(   3) = (   0.5000000   0.7500000   0.0000000  )
         4           Cr  tau(   4) = (   0.5000000   0.2500000   0.0000000  )
         5           Cr  tau(   5) = (   0.7500000   0.0000000   0.5000000  )
         6           Cr  tau(   6) = (   0.2500000   0.0000000   0.5000000  )
         7           Si  tau(   7) = (   0.5000000   0.5000000   0.5000000  )
         8           Si  tau(   8) = (   0.0000000   0.0000000   0.0000000  )

     number of k points=    48  gaussian smearing, width (Ry)=  0.1000
                       cart. coord. in units 2pi/alat
        k(    1) = (   0.0000000   0.0000000   0.0000000), wk =   0.0095238
        k(    2) = (   0.0000000   0.0000000   0.1428571), wk =   0.0190476
        k(    3) = (   0.0000000   0.0000000   0.2857143), wk =   0.0190476
        k(    4) = (   0.0000000   0.0000000   0.4285714), wk =   0.0190476
        k(    5) = (   0.0000000   0.1666667   0.0000000), wk =   0.0190476
        k(    6) = (   0.0000000   0.1666667   0.1428571), wk =   0.0380952
        k(    7) = (   0.0000000   0.1666667   0.2857143), wk =   0.0380952
        k(    8) = (   0.0000000   0.1666667   0.4285714), wk =   0.0380952
        k(    9) = (   0.0000000   0.3333333   0.0000000), wk =   0.0190476
        k(   10) = (   0.0000000   0.3333333   0.1428571), wk =   0.0380952
        k(   11) = (   0.0000000   0.3333333   0.2857143), wk =   0.0380952
        k(   12) = (   0.0000000   0.3333333   0.4285714), wk =   0.0380952
        k(   13) = (   0.0000000  -0.5000000   0.0000000), wk =   0.0095238
        k(   14) = (   0.0000000  -0.5000000   0.1428571), wk =   0.0190476
        k(   15) = (   0.0000000  -0.5000000   0.2857143), wk =   0.0190476
        k(   16) = (   0.0000000  -0.5000000   0.4285714), wk =   0.0190476
        k(   17) = (   0.2000000   0.0000000   0.0000000), wk =   0.0190476
        k(   18) = (   0.2000000   0.0000000   0.1428571), wk =   0.0380952
        k(   19) = (   0.2000000   0.0000000   0.2857143), wk =   0.0380952
        k(   20) = (   0.2000000   0.0000000   0.4285714), wk =   0.0380952
        k(   21) = (   0.2000000   0.1666667   0.0000000), wk =   0.0380952
        k(   22) = (   0.2000000   0.1666667   0.1428571), wk =   0.0761905
        k(   23) = (   0.2000000   0.1666667   0.2857143), wk =   0.0761905
        k(   24) = (   0.2000000   0.1666667   0.4285714), wk =   0.0761905
        k(   25) = (   0.2000000   0.3333333   0.0000000), wk =   0.0380952
        k(   26) = (   0.2000000   0.3333333   0.1428571), wk =   0.0761905
        k(   27) = (   0.2000000   0.3333333   0.2857143), wk =   0.0761905
        k(   28) = (   0.2000000   0.3333333   0.4285714), wk =   0.0761905
        k(   29) = (   0.2000000  -0.5000000   0.0000000), wk =   0.0190476
        k(   30) = (   0.2000000  -0.5000000   0.1428571), wk =   0.0380952
        k(   31) = (   0.2000000  -0.5000000   0.2857143), wk =   0.0380952
        k(   32) = (   0.2000000  -0.5000000   0.4285714), wk =   0.0380952
        k(   33) = (   0.4000000   0.0000000   0.0000000), wk =   0.0190476
        k(   34) = (   0.4000000   0.0000000   0.1428571), wk =   0.0380952
        k(   35) = (   0.4000000   0.0000000   0.2857143), wk =   0.0380952
        k(   36) = (   0.4000000   0.0000000   0.4285714), wk =   0.0380952
        k(   37) = (   0.4000000   0.1666667   0.0000000), wk =   0.0380952
        k(   38) = (   0.4000000   0.1666667   0.1428571), wk =   0.0761905
        k(   39) = (   0.4000000   0.1666667   0.2857143), wk =   0.0761905
        k(   40) = (   0.4000000   0.1666667   0.4285714), wk =   0.0761905
        k(   41) = (   0.4000000   0.3333333   0.0000000), wk =   0.0380952
        k(   42) = (   0.4000000   0.3333333   0.1428571), wk =   0.0761905
        k(   43) = (   0.4000000   0.3333333   0.2857143), wk =   0.0761905
        k(   44) = (   0.4000000   0.3333333   0.4285714), wk =   0.0761905
        k(   45) = (   0.4000000  -0.5000000   0.0000000), wk =   0.0190476
        k(   46) = (   0.4000000  -0.5000000   0.1428571), wk =   0.0380952
        k(   47) = (   0.4000000  -0.5000000   0.2857143), wk =   0.0380952
        k(   48) = (   0.4000000  -0.5000000   0.4285714), wk =   0.0380952

     Largest allocated arrays     est. size (Mb)     dimensions
     Largest temporary arrays     est. size (Mb)     dimensions

     Initial potential from superposition of free atoms

     Starting from uniform charge
     Starting wfc are    0 randomized atomic wfcs

     Self-consistent Calculation

     iteration #  1     ecut=    40.00 Ry     beta=0.70
     CG style diagonalization
     ethr =  1.00E-02,  avg # of iterations = 16.4

     total energy              =   -2329.68426994 Ry
     Harris-Foulkes estimate   =   -3129.98991866 Ry
     estimated scf accuracy    <    1004.02030532 Ry

     iteration #  2     ecut=    40.00 Ry     beta=0.70
     CG style diagonalization
     c_bands:  1 eigenvalues not converged
     c_bands:  1 eigenvalues not converged
     ethr =  1.00E-02,  avg # of iterations =  8.6

[...]

     End of self-consistent calculation

          k = 0.0000 0.0000 0.0000 (  2601 PWs)   bands (ev):

   -60.4938 -60.4360 -51.2179 -51.2179 -51.1500 -50.7651 -50.7651 -50.7651
   -19.5473 -19.5473 -19.5473 -19.5087 -19.5087 -19.5087 -15.1008 -15.1008
   -14.9407 -13.4656 -13.4656 -13.4656 -13.0319 -13.0319 -13.0319 -12.9858
   -12.9858 -12.9858 -12.8680 -12.8680 -12.8680 -12.4251 -12.4251 -12.4251
    26.1072  26.1072  27.2595  27.5971  27.5971  27.5971  27.7273  27.7273
    28.2455  28.2455  28.2455  28.2732  28.2732  28.2732  28.6016  28.6016
    28.9757  29.6162  29.9737  29.9737  29.9737  30.4914  32.6603  32.6603
    32.6603  33.1672  33.1672  33.6303  33.6303  33.6303  34.8586  34.8586
    34.8586  35.0391  35.0391  35.6283  35.6283  35.6283  35.9363  35.9363
    35.9363  42.3653  42.3653  42.3653  44.0489  44.0489  44.2300  47.7597
    51.0584  51.0584  51.0584  51.1256  51.1256  51.1256  51.3277  51.3277
    52.5617  52.5617  52.5617  52.8451  52.8451  52.8451  53.8639  53.8639
    53.8639  55.4761  56.1472  56.1472  56.1472  59.7151  60.3538  60.6685
    60.6685  60.6687  61.0358

[...]

     the Fermi energy is    53.5913 ev

!    total energy              =   -2697.70716547 Ry
     Harris-Foulkes estimate   =   -2697.70717799 Ry
     estimated scf accuracy    <       0.00001557 Ry

     The total energy is the sum of the following terms:

     one-electron contribution =     -66.00679341 Ry
     hartree contribution      =     281.24655430 Ry
     xc contribution           =    -237.48673209 Ry
     ewald contribution        =   -2675.05790471 Ry
     smearing contrib. (-TS)   =      -0.40228957 Ry

     convergence has been achieved in   8 iterations

     Forces acting on atoms (Ry/au):

     atom    1 type  1   force =     0.00000000    0.00000000    0.00000000
     atom    2 type  1   force =     0.00000000    0.00000000    0.00000000
     atom    3 type  1   force =     0.00000000    0.00000000    0.00000000
     atom    4 type  1   force =     0.00000000    0.00000000    0.00000000
     atom    5 type  1   force =     0.00000000    0.00000000    0.00000000
     atom    6 type  1   force =     0.00000000    0.00000000    0.00000000
     atom    7 type  2   force =     0.00000000    0.00000000    0.00000000
     atom    8 type  2   force =     0.00000000    0.00000000    0.00000000

     Total force =     0.000000     Total SCF correction =     0.000000

     entering subroutine stress ...

          total   stress  (Ry/bohr**3)                   (kbar)     P= 6082.47
   0.04134780   0.00000000   0.00000000       6082.47      0.00      0.00
   0.00000000   0.04134780   0.00000000          0.00   6082.47      0.00
   0.00000000   0.00000000   0.04134780          0.00      0.00   6082.47

     BFGS Geometry Optimization

     number of scf cycles    =   1
     number of bfgs steps    =   0

     enthalpy new            =   -2697.7071654698 Ry

[...]

     number of scf cycles    =   3
     number of bfgs steps    =   2

     enthalpy old            =   -2702.1845028344 Ry
     enthalpy new            =   -2697.9518414433 Ry

     CASE: enthalpy_new > enthalpy_old

     new trust radius        =       0.2071575505 bohr

     trust_radius < trust_radius_min

     resetting bfgs history

     Message from routine bfgs:
     history already reset at previous step: stopping
     new conv_thr            =       0.0000010000 Ry

     new unit-cell volume =   1044.23534 a.u.^3 (   154.73971 Ang^3 )

[...]

ATOMIC_POSITIONS (crystal)
Cr       0.000000000   0.500000000   0.250000000
Cr       0.000000000   0.500000000   0.750000000
Cr       0.500000000   0.750000000   0.000000000
Cr       0.500000000   0.250000000   0.000000000
Cr       0.750000000   0.000000000   0.500000000
Cr       0.250000000   0.000000000   0.500000000
Si       0.500000000   0.500000000   0.500000000
Si       0.000000000   0.000000000   0.000000000

     Writing output data file Prototype-La-cP8-Cr3Si.save
     NEW-OLD atomic charge density approx. for the potential
     NEW k-points:
        k(    1) = (   0.0000000   0.0000000   0.0000000), wk =   0.0095238
        k(    2) = (   0.0000000   0.0000000   0.1201760), wk =   0.0190476
        k(    3) = (   0.0000000   0.0000000   0.2403519), wk =   0.0190476
        k(    4) = (   0.0000000   0.0000000   0.3605279), wk =   0.0190476
        k(    5) = (   0.0000000   0.1402053   0.0000000), wk =   0.0190476
        k(    6) = (   0.0000000   0.1402053   0.1201760), wk =   0.0380952
        k(    7) = (   0.0000000   0.1402053   0.2403519), wk =   0.0380952
        k(    8) = (   0.0000000   0.1402053   0.3605279), wk =   0.0380952
        k(    9) = (   0.0000000   0.2804106   0.0000000), wk =   0.0190476
        k(   10) = (   0.0000000   0.2804106   0.1201760), wk =   0.0380952
        k(   11) = (   0.0000000   0.2804106   0.2403519), wk =   0.0380952
        k(   12) = (   0.0000000   0.2804106   0.3605279), wk =   0.0380952
        k(   13) = (   0.0000000  -0.4206159   0.0000000), wk =   0.0095238
        k(   14) = (   0.0000000  -0.4206159   0.1201760), wk =   0.0190476
        k(   15) = (   0.0000000  -0.4206159   0.2403519), wk =   0.0190476
        k(   16) = (   0.0000000  -0.4206159   0.3605279), wk =   0.0190476
        k(   17) = (   0.1682464   0.0000000   0.0000000), wk =   0.0190476
        k(   18) = (   0.1682464   0.0000000   0.1201760), wk =   0.0380952
        k(   19) = (   0.1682464   0.0000000   0.2403519), wk =   0.0380952
        k(   20) = (   0.1682464   0.0000000   0.3605279), wk =   0.0380952
        k(   21) = (   0.1682464   0.1402053   0.0000000), wk =   0.0380952
        k(   22) = (   0.1682464   0.1402053   0.1201760), wk =   0.0761905
        k(   23) = (   0.1682464   0.1402053   0.2403519), wk =   0.0761905
        k(   24) = (   0.1682464   0.1402053   0.3605279), wk =   0.0761905
        k(   25) = (   0.1682464   0.2804106   0.0000000), wk =   0.0380952
        k(   26) = (   0.1682464   0.2804106   0.1201760), wk =   0.0761905
        k(   27) = (   0.1682464   0.2804106   0.2403519), wk =   0.0761905
        k(   28) = (   0.1682464   0.2804106   0.3605279), wk =   0.0761905
        k(   29) = (   0.1682464  -0.4206159   0.0000000), wk =   0.0190476
        k(   30) = (   0.1682464  -0.4206159   0.1201760), wk =   0.0380952
        k(   31) = (   0.1682464  -0.4206159   0.2403519), wk =   0.0380952
        k(   32) = (   0.1682464  -0.4206159   0.3605279), wk =   0.0380952
        k(   33) = (   0.3364927   0.0000000   0.0000000), wk =   0.0190476
        k(   34) = (   0.3364927   0.0000000   0.1201760), wk =   0.0380952
        k(   35) = (   0.3364927   0.0000000   0.2403519), wk =   0.0380952
        k(   36) = (   0.3364927   0.0000000   0.3605279), wk =   0.0380952
        k(   37) = (   0.3364927   0.1402053   0.0000000), wk =   0.0380952
        k(   38) = (   0.3364927   0.1402053   0.1201760), wk =   0.0761905
        k(   39) = (   0.3364927   0.1402053   0.2403519), wk =   0.0761905
        k(   40) = (   0.3364927   0.1402053   0.3605279), wk =   0.0761905
        k(   41) = (   0.3364927   0.2804106   0.0000000), wk =   0.0380952
        k(   42) = (   0.3364927   0.2804106   0.1201760), wk =   0.0761905
        k(   43) = (   0.3364927   0.2804106   0.2403519), wk =   0.0761905
        k(   44) = (   0.3364927   0.2804106   0.3605279), wk =   0.0761905
        k(   45) = (   0.3364927  -0.4206159   0.0000000), wk =   0.0190476
        k(   46) = (   0.3364927  -0.4206159   0.1201760), wk =   0.0380952
        k(   47) = (   0.3364927  -0.4206159   0.2403519), wk =   0.0380952
        k(   48) = (   0.3364927  -0.4206159   0.3605279), wk =   0.0380952

[...]

          total   stress  (Ry/bohr**3)                   (kbar)     P=-1290.33
  -0.00877151   0.00000000   0.00000000      -1290.33      0.00      0.00
   0.00000000  -0.00877151   0.00000000          0.00  -1290.33      0.00
   0.00000000   0.00000000  -0.00877151          0.00      0.00  -1290.33

     The maximum number of steps has been reached.

     End of BFGS Geometry Optimization
Begin final coordinates
     new unit-cell volume =   1044.23534 a.u.^3 (   154.73971 Ang^3 )

CELL_PARAMETERS (alat=  8.53457320)
   1.188733005   0.000000000   0.000000000
   0.000000000   1.188733005   0.000000000
   0.000000000   0.000000000   1.188733005

ATOMIC_POSITIONS (crystal)
Cr       0.000000000   0.500000000   0.250000000
Cr       0.000000000   0.500000000   0.750000000
Cr       0.500000000   0.750000000   0.000000000
Cr       0.500000000   0.250000000   0.000000000
Cr       0.750000000   0.000000000   0.500000000
Cr       0.250000000   0.000000000   0.500000000
Si       0.500000000   0.500000000   0.500000000
Si       0.000000000   0.000000000   0.000000000
End final coordinates

     A final scf calculation at the relaxed structure.
     The G-vectors are recalculated for the final unit cell
     Results may differ from those at the preceding step.

     bravais-lattice index     =            0
     lattice parameter (alat)  =       8.5346  a.u.
     unit-cell volume          =    1044.2353 (a.u.)^3
     number of atoms/cell      =            8
     number of atomic types    =            2
     number of electrons       =       178.00
     number of Kohn-Sham states=          107
     kinetic-energy cutoff     =      40.0000  Ry
     charge density cutoff     =     160.0000  Ry
     convergence threshold     =      1.0E-06
     mixing beta               =       0.7000
     number of iterations used =            8  plain     mixing
     Exchange-correlation      = SLA-PZ-NOGX-NOGC ( 1 1 0 0 0)
     EXX-fraction              =        0.00

     celldm(1)=   8.534573  celldm(2)=   0.000000  celldm(3)=   0.000000
     celldm(4)=   0.000000  celldm(5)=   0.000000  celldm(6)=   0.000000

     crystal axes: (cart. coord. in units of alat)
               a(1) = (   1.188733   0.000000   0.000000 )
               a(2) = (   0.000000   1.188733   0.000000 )
               a(3) = (   0.000000   0.000000   1.188733 )

     reciprocal axes: (cart. coord. in units 2 pi/alat)
               b(1) = (  0.841232  0.000000  0.000000 )
               b(2) = (  0.000000  0.841232  0.000000 )
               b(3) = (  0.000000  0.000000  0.841232 )

     PseudoPot. # 1 for Er read from file:
     /home/cwx6513/pp.La/Er.UPF
     MD5 check sum: e152ae21b84514339d8526f066caf99b
     Pseudo is Norm-conserving, Zval = 22.0
     Generated in analytical, separable form
     Using radial grid of 1267 points,  6 beta functions with:
                l(1) =   0
                l(2) =   0
                l(3) =   1
                l(4) =   1
                l(5) =   2
                l(6) =   3

     PseudoPot. # 2 for Tm read from file:
     /home/cwx6513/pp.La/Tm.UPF
     MD5 check sum: 245516e0878b5372ceeb9443ded2c4e1
     Pseudo is Norm-conserving, Zval = 23.0
     Generated in analytical, separable form
     Using radial grid of 1269 points,  6 beta functions with:
                l(1) =   0
                l(2) =   0
                l(3) =   1
                l(4) =   1
                l(5) =   2
                l(6) =   3

     atomic species   valence    mass     pseudopotential
        Cr            22.00    51.99610     Er( 1.00)
        Si            23.00    28.08550     Tm( 1.00)

     48 Sym. Ops., with inversion, found (24 have fractional translation)

   Cartesian axes

     site n.     atom                  positions (alat units)
         1           Cr  tau(   1) = (   0.0000000   0.5943665   0.2971833  )
         2           Cr  tau(   2) = (   0.0000000   0.5943665   0.8915498  )
         3           Cr  tau(   3) = (   0.5943665   0.8915498   0.0000000  )
         4           Cr  tau(   4) = (   0.5943665   0.2971833   0.0000000  )
         5           Cr  tau(   5) = (   0.8915498   0.0000000   0.5943665  )
         6           Cr  tau(   6) = (   0.2971833   0.0000000   0.5943665  )
         7           Si  tau(   7) = (   0.5943665   0.5943665   0.5943665  )
         8           Si  tau(   8) = (   0.0000000   0.0000000   0.0000000  )

     number of k points=    48  gaussian smearing, width (Ry)=  0.1000
                       cart. coord. in units 2pi/alat
        k(    1) = (   0.0000000   0.0000000   0.0000000), wk =   0.0095238
        k(    2) = (   0.0000000   0.0000000   0.1201760), wk =   0.0190476
        k(    3) = (   0.0000000   0.0000000   0.2403519), wk =   0.0190476
        k(    4) = (   0.0000000   0.0000000   0.3605279), wk =   0.0190476
        k(    5) = (   0.0000000   0.1402053   0.0000000), wk =   0.0190476
        k(    6) = (   0.0000000   0.1402053   0.1201760), wk =   0.0380952
        k(    7) = (   0.0000000   0.1402053   0.2403519), wk =   0.0380952
        k(    8) = (   0.0000000   0.1402053   0.3605279), wk =   0.0380952
        k(    9) = (   0.0000000   0.2804106   0.0000000), wk =   0.0190476
        k(   10) = (   0.0000000   0.2804106   0.1201760), wk =   0.0380952
        k(   11) = (   0.0000000   0.2804106   0.2403519), wk =   0.0380952
        k(   12) = (   0.0000000   0.2804106   0.3605279), wk =   0.0380952
        k(   13) = (   0.0000000  -0.4206159   0.0000000), wk =   0.0095238
        k(   14) = (   0.0000000  -0.4206159   0.1201760), wk =   0.0190476
        k(   15) = (   0.0000000  -0.4206159   0.2403519), wk =   0.0190476
        k(   16) = (   0.0000000  -0.4206159   0.3605279), wk =   0.0190476
        k(   17) = (   0.1682464   0.0000000   0.0000000), wk =   0.0190476
        k(   18) = (   0.1682464   0.0000000   0.1201760), wk =   0.0380952
        k(   19) = (   0.1682464   0.0000000   0.2403519), wk =   0.0380952
        k(   20) = (   0.1682464   0.0000000   0.3605279), wk =   0.0380952
        k(   21) = (   0.1682464   0.1402053   0.0000000), wk =   0.0380952
        k(   22) = (   0.1682464   0.1402053   0.1201760), wk =   0.0761905
        k(   23) = (   0.1682464   0.1402053   0.2403519), wk =   0.0761905
        k(   24) = (   0.1682464   0.1402053   0.3605279), wk =   0.0761905
        k(   25) = (   0.1682464   0.2804106   0.0000000), wk =   0.0380952
        k(   26) = (   0.1682464   0.2804106   0.1201760), wk =   0.0761905
        k(   27) = (   0.1682464   0.2804106   0.2403519), wk =   0.0761905
        k(   28) = (   0.1682464   0.2804106   0.3605279), wk =   0.0761905
        k(   29) = (   0.1682464  -0.4206159   0.0000000), wk =   0.0190476
        k(   30) = (   0.1682464  -0.4206159   0.1201760), wk =   0.0380952
        k(   31) = (   0.1682464  -0.4206159   0.2403519), wk =   0.0380952
        k(   32) = (   0.1682464  -0.4206159   0.3605279), wk =   0.0380952
        k(   33) = (   0.3364927   0.0000000   0.0000000), wk =   0.0190476
        k(   34) = (   0.3364927   0.0000000   0.1201760), wk =   0.0380952
        k(   35) = (   0.3364927   0.0000000   0.2403519), wk =   0.0380952
        k(   36) = (   0.3364927   0.0000000   0.3605279), wk =   0.0380952
        k(   37) = (   0.3364927   0.1402053   0.0000000), wk =   0.0380952
        k(   38) = (   0.3364927   0.1402053   0.1201760), wk =   0.0761905
        k(   39) = (   0.3364927   0.1402053   0.2403519), wk =   0.0761905
        k(   40) = (   0.3364927   0.1402053   0.3605279), wk =   0.0761905
        k(   41) = (   0.3364927   0.2804106   0.0000000), wk =   0.0380952
        k(   42) = (   0.3364927   0.2804106   0.1201760), wk =   0.0761905
        k(   43) = (   0.3364927   0.2804106   0.2403519), wk =   0.0761905
        k(   44) = (   0.3364927   0.2804106   0.3605279), wk =   0.0761905
        k(   45) = (   0.3364927  -0.4206159   0.0000000), wk =   0.0190476
        k(   46) = (   0.3364927  -0.4206159   0.1201760), wk =   0.0380952
        k(   47) = (   0.3364927  -0.4206159   0.2403519), wk =   0.0380952
        k(   48) = (   0.3364927  -0.4206159   0.3605279), wk =   0.0380952

     Largest allocated arrays     est. size (Mb)     dimensions
     Largest temporary arrays     est. size (Mb)     dimensions

     Initial potential from superposition of free atoms

     Starting from uniform charge
     Starting wfc are    0 randomized atomic wfcs

     Writing output data file Prototype-La-cP8-Cr3Si.save

     Self-consistent Calculation

[...]

     iteration #  9     ecut=    40.00 Ry     beta=0.70
     CG style diagonalization
     c_bands:  1 eigenvalues not converged
     ethr =  1.47E-07,  avg # of iterations =  3.7

     total energy              =   -2708.64691656 Ry
     Harris-Foulkes estimate   =   -2708.64691965 Ry
     estimated scf accuracy    <       0.00000481 Ry

     iteration # 10     ecut=    40.00 Ry     beta=0.70
     CG style diagonalization
     ethr =  2.70E-09,  avg # of iterations =  4.6

     End of self-consistent calculation

[...]

          k = 0.3365-0.4206 0.3605 (  4478 PWs)   bands (ev):

   -81.1968 -81.1967 -71.1125 -71.1118 -71.1061 -71.1051 -71.1017 -71.1007
   -39.8946 -39.8946 -39.8889 -39.8887 -39.8862 -39.8861 -33.2962 -33.2819
   -33.2321 -33.2316 -33.1748 -33.1526 -33.0614 -33.0610 -33.0512 -33.0505
   -33.0468 -33.0424 -33.0414 -33.0394 -33.0385 -33.0302 -33.0266 -33.0263
     8.8123   8.8123   8.8178   8.8179   8.8849   8.8892   8.8972   8.9001
     8.9041   8.9041  12.5837  12.7184  12.8722  12.8902  13.0132  13.0224
    13.1279  13.1633  13.2020  13.2316  13.3799  13.4118  13.4397  13.4466
    13.5567  13.5717  13.5931  13.6096  13.7191  13.7462  13.7561  13.8057
    13.8778  13.9495  14.0850  14.1050  14.1503  14.1538  14.1849  14.2104
    18.3215  18.3243  19.3894  19.4590  19.8845  19.9448  20.8632  20.8825
    29.5935  29.6358  30.0313  30.3323  30.7030  31.0521  31.5308  31.5889
    31.6618  31.8523  32.3330  32.4524  32.5436  32.7097  32.8207  32.9225
    33.2325  33.3308  33.7214  33.8671  33.9729  34.0291  34.5343  34.6341
    38.2063  38.2341  38.5307

     the Fermi energy is    31.0427 ev

!    total energy              =   -2708.64692107 Ry
     Harris-Foulkes estimate   =   -2708.64692167 Ry
     estimated scf accuracy    <       0.00000072 Ry

     The total energy is the sum of the following terms:

     one-electron contribution =    -684.07872777 Ry
     hartree contribution      =     454.78013499 Ry
     xc contribution           =    -228.73017762 Ry
     ewald contribution        =   -2250.34376354 Ry
     smearing contrib. (-TS)   =      -0.27438713 Ry

     convergence has been achieved in  10 iterations

     Forces acting on atoms (Ry/au):

     atom    1 type  1   force =     0.00000000    0.00000000    0.00000000
     atom    2 type  1   force =     0.00000000    0.00000000    0.00000000
     atom    3 type  1   force =     0.00000000    0.00000000    0.00000000
     atom    4 type  1   force =     0.00000000    0.00000000    0.00000000
     atom    5 type  1   force =     0.00000000    0.00000000    0.00000000
     atom    6 type  1   force =     0.00000000    0.00000000    0.00000000
     atom    7 type  2   force =     0.00000000    0.00000000    0.00000000
     atom    8 type  2   force =     0.00000000    0.00000000    0.00000000

     Total force =     0.000000     Total SCF correction =     0.000000

     entering subroutine stress ...

          total   stress  (Ry/bohr**3)                   (kbar)     P=  349.27
   0.00237431   0.00000000   0.00000000        349.27      0.00      0.00
   0.00000000   0.00237431   0.00000000          0.00    349.27      0.00
   0.00000000   0.00000000   0.00237431          0.00      0.00    349.27

     Writing output data file Prototype-La-cP8-Cr3Si.save

     General routines

     Parallel routines

   This run was terminated on:  23:24:24  22Mar2018

   JOB DONE.