     Program PWSCF v.5.0.2 starts on 22Mar2018 at 21:35:37

     Current dimensions of program PWSCF are:
     Max number of different atomic species (ntypx) = 10
     Max number of k-points (npk) =  40000
     Max angular momentum in pseudopotentials (lmaxx) =  3
     Waiting for input...
     Reading input from standard input

     Subspace diagonalization in iterative solution of the eigenvalue problem:
     a serial algorithm will be used

     bravais-lattice index     =            0
     lattice parameter (alat)  =       7.0151  a.u.
     unit-cell volume          =     862.2778 (a.u.)^3
     number of atoms/cell      =           12
     number of atomic types    =            2
     number of electrons       =       236.00
     number of Kohn-Sham states=          142
     kinetic-energy cutoff     =      40.0000  Ry
     charge density cutoff     =     160.0000  Ry
     convergence threshold     =      1.0E-04
     mixing beta               =       0.7000
     number of iterations used =            8  plain     mixing
     Exchange-correlation      = SLA-PZ-NOGX-NOGC ( 1 1 0 0 0)
     EXX-fraction              =        0.00
     nstep                     =           50

     celldm(1)=   7.015105  celldm(2)=   0.000000  celldm(3)=   0.000000
     celldm(4)=   0.000000  celldm(5)=   0.000000  celldm(6)=   0.000000

     crystal axes: (cart. coord. in units of alat)
               a(1) = (   1.000000   0.000000   0.000000 )
               a(2) = (   0.000000   1.315963   0.000000 )
               a(3) = (   0.000000   0.000000   1.898020 )

     reciprocal axes: (cart. coord. in units 2 pi/alat)
               b(1) = (  1.000000  0.000000  0.000000 )
               b(2) = (  0.000000  0.759900  0.000000 )
               b(3) = (  0.000000  0.000000  0.526865 )

     PseudoPot. # 1 for Tm read from file:
     /home/cwx6513/pp.La/Tm.UPF
     MD5 check sum: 245516e0878b5372ceeb9443ded2c4e1
     Pseudo is Norm-conserving, Zval = 23.0
     Generated in analytical, separable form
     Using radial grid of 1269 points,  6 beta functions with:
                l(1) =   0
                l(2) =   0
                l(3) =   1
                l(4) =   1
                l(5) =   2
                l(6) =   3

     PseudoPot. # 2 for Pr read from file:
     /home/cwx6513/pp.La/Pr.UPF
     MD5 check sum: 70e2b4b153859e92c8c91247dfc63203
     Pseudo is Norm-conserving, Zval = 13.0
     Generated in analytical, separable form
     Using radial grid of 1255 points,  6 beta functions with:
                l(1) =   0
                l(2) =   0
                l(3) =   1
                l(4) =   1
                l(5) =   2
                l(6) =   3

     atomic species   valence    mass     pseudopotential
        Co            23.00    58.93320     Tm( 1.00)
        Si            13.00    28.08550     Pr( 1.00)

      8 Sym. Ops., with inversion, found ( 6 have fractional translation)

   Cartesian axes

     site n.     atom                  positions (alat units)
         1           Co  tau(   1) = (   0.7500000   1.0875135   0.8270358  )
         2           Co  tau(   2) = (   0.2500000   0.2284499   1.0709846  )
         3           Co  tau(   3) = (   0.7500000   0.4295318   0.1219744  )
         4           Co  tau(   4) = (   0.2500000   0.8864316   1.7760460  )
         5           Co  tau(   5) = (   0.2500000   0.7067855   0.5358966  )
         6           Co  tau(   6) = (   0.7500000   0.6091779   1.3621238  )
         7           Co  tau(   7) = (   0.2500000   0.0488038   0.4131136  )
         8           Co  tau(   8) = (   0.7500000   1.2671596   1.4849068  )
         9           Si  tau(   9) = (   0.2500000   0.2669484   1.6960710  )
        10           Si  tau(  10) = (   0.7500000   1.0490149   0.2019494  )
        11           Si  tau(  11) = (   0.2500000   0.9249301   1.1509596  )
        12           Si  tau(  12) = (   0.7500000   0.3910333   0.7470608  )

     number of k points=    12  gaussian smearing, width (Ry)=  0.1000
                       cart. coord. in units 2pi/alat
        k(    1) = (   0.0000000   0.0000000   0.0000000), wk =   0.0833333
        k(    2) = (   0.0000000   0.0000000   0.1317162), wk =   0.1666667
        k(    3) = (   0.0000000   0.0000000  -0.2634324), wk =   0.0833333
        k(    4) = (   0.0000000   0.2532999   0.0000000), wk =   0.1666667
        k(    5) = (   0.0000000   0.2532999   0.1317162), wk =   0.3333333
        k(    6) = (   0.0000000   0.2532999  -0.2634324), wk =   0.1666667
        k(    7) = (  -0.5000000   0.0000000   0.0000000), wk =   0.0833333
        k(    8) = (  -0.5000000   0.0000000   0.1317162), wk =   0.1666667
        k(    9) = (  -0.5000000   0.0000000  -0.2634324), wk =   0.0833333
        k(   10) = (  -0.5000000   0.2532999   0.0000000), wk =   0.1666667
        k(   11) = (  -0.5000000   0.2532999   0.1317162), wk =   0.3333333
        k(   12) = (  -0.5000000   0.2532999  -0.2634324), wk =   0.1666667

     Largest allocated arrays     est. size (Mb)     dimensions
     Largest temporary arrays     est. size (Mb)     dimensions

     Initial potential from superposition of free atoms
     Check: negative starting charge=   -0.001196

     starting charge   51.96217, renormalised to  236.00000

     negative rho (up, down):  0.543E-02 0.000E+00
     Starting wfc are   80 randomized atomic wfcs

     Self-consistent Calculation

     iteration #  1     ecut=    40.00 Ry     beta=0.70
     CG style diagonalization
     c_bands:  5 eigenvalues not converged
     c_bands:  4 eigenvalues not converged
     c_bands:  3 eigenvalues not converged
     c_bands:  5 eigenvalues not converged
     c_bands:  2 eigenvalues not converged
     c_bands:  3 eigenvalues not converged
     c_bands:  3 eigenvalues not converged
     c_bands:  4 eigenvalues not converged
     c_bands:  5 eigenvalues not converged
     c_bands:  4 eigenvalues not converged
     c_bands:  4 eigenvalues not converged
     c_bands:  3 eigenvalues not converged
     ethr =  1.00E-02,  avg # of iterations = 33.3

     negative rho (up, down):  0.161E-02 0.000E+00

     total energy              =   -2427.27579302 Ry
     Harris-Foulkes estimate   =   -6882.66669910 Ry
     estimated scf accuracy    <    5272.05626707 Ry

[...]

     iteration #  5     ecut=    40.00 Ry     beta=0.70
     CG style diagonalization
     ethr =  1.00E-02,  avg # of iterations =  4.0

[...]

     End of self-consistent calculation

          k = 0.0000 0.0000 0.0000 (  3675 PWs)   bands (ev):

   -59.7947 -59.7751 -59.7200 -59.6857 -59.6610 -59.6523 -59.6352 -59.6224
   -19.3537 -19.2446 -19.1192 -19.0590 -18.9820 -18.9563 -18.9033 -18.8258
   -18.7974 -18.7529 -18.7393 -18.7228 -18.7008 -18.6358 -18.6049 -18.5881
   -18.5755 -18.5635 -18.4988 -18.4924 -18.4622 -18.4108 -18.3791 -18.3421
     7.4997   7.9280   7.9883   8.1192  22.4139  22.9698  23.2476  23.3567
    23.8502  24.0208  24.0213  24.5539  24.6145  25.1307  25.6808  26.1923
    26.3814  26.4430  26.5708  26.8501  26.9442  27.0208  27.3864  27.6808
    28.4069  28.4377  28.5035  28.5345  28.6437  28.6663  29.0783  29.1569
    29.3090  29.4810  29.7065  29.7785  29.8083  29.9087  30.0112  30.0296
    30.0358  30.4410  30.5217  30.9738  31.6818  31.6929  31.8389  31.9160
    32.1330  32.5828  32.8513  33.1662  33.2848  33.8648  34.1829  34.5170
    34.5746  37.8802  40.1543  40.1596  42.7254  43.8139  43.8296  44.5005
    44.8828  45.2368  46.0227  46.0453  47.1040  47.4079  47.6572  48.1834
    48.1972  48.5073  49.0096  49.0468  49.1713  50.0884  51.3059  51.4447
    51.8703  52.0125  52.0325  52.5030  53.8921  54.0131  54.4032  55.7494
    55.9516  56.0001  56.5824  56.6526  56.6750  56.9633  56.9667  57.1877
    57.3121  58.0666  58.1308  58.3000  59.1591  59.5524  59.7100  59.7144
    59.9358  60.2948  60.8571  61.0089  61.1908  61.5013

[...]

          k =-0.5000 0.0000 0.0000 (  3722 PWs)   bands (ev):

[...]

     the Fermi energy is    54.0381 ev

!    total energy              =   -3292.61804506 Ry
     Harris-Foulkes estimate   =   -3292.61805555 Ry
     estimated scf accuracy    <       0.00001200 Ry

     The total energy is the sum of the following terms:

     one-electron contribution =     -21.20178855 Ry
     hartree contribution      =     357.71431758 Ry
     xc contribution           =    -304.59936385 Ry
     ewald contribution        =   -3324.21608988 Ry
     smearing contrib. (-TS)   =      -0.31512036 Ry

     convergence has been achieved in  12 iterations

     Forces acting on atoms (Ry/au):

     atom    1 type  1   force =     0.00000000   -0.08175061   -0.09869317
     atom    2 type  1   force =     0.00000000    0.08175061    0.09869317
     atom    3 type  1   force =     0.00000000   -0.08175061    0.09869317
     atom    4 type  1   force =     0.00000000    0.08175061   -0.09869317
     atom    5 type  1   force =     0.00000000    0.15353677   -0.15582451
     atom    6 type  1   force =     0.00000000   -0.15353677    0.15582451
     atom    7 type  1   force =     0.00000000    0.15353677    0.15582451
     atom    8 type  1   force =     0.00000000   -0.15353677   -0.15582451
     atom    9 type  2   force =     0.00000000   -0.21161233   -0.03830779
     atom   10 type  2   force =     0.00000000    0.21161233    0.03830779
     atom   11 type  2   force =     0.00000000   -0.21161233    0.03830779
     atom   12 type  2   force =     0.00000000    0.21161233   -0.03830779

     Total force =     0.664908     Total SCF correction =     0.003377

     entering subroutine stress ...

          total   stress  (Ry/bohr**3)                   (kbar)     P= 7221.69
   0.05308535   0.00000000   0.00000000       7809.12      0.00      0.00
   0.00000000   0.04567417   0.00000000          0.00   6718.90      0.00
   0.00000000   0.00000000   0.04851675          0.00      0.00   7137.06

     BFGS Geometry Optimization

     number of scf cycles    =   1
     number of bfgs steps    =   0

     enthalpy new            =   -3292.6180450576 Ry

     new trust radius        =       0.5000000000 bohr
     new conv_thr            =       0.0001000000 Ry

     new unit-cell volume =   1082.36796 a.u.^3 (   160.39038 Ang^3 )

CELL_PARAMETERS (alat=  7.01510508)
   1.085136619   0.000000000   0.000000000
   0.000000000   1.412358747   0.000000000
   0.000000000   0.000000000   2.045704696

ATOMIC_POSITIONS (crystal)
Co       0.750000000   0.825832913   0.435260496
Co       0.250000000   0.174167087   0.564739504
Co       0.750000000   0.325832913   0.064739504
Co       0.250000000   0.674167087   0.935260496
Co       0.250000000   0.538152930   0.281594238
Co       0.750000000   0.461847070   0.718405762
Co       0.250000000   0.038152930   0.218405762
Co       0.750000000   0.961847070   0.781594238
Si       0.250000000   0.201383501   0.893415433
Si       0.750000000   0.798616499   0.106584567
Si       0.250000000   0.701383501   0.606584567
Si       0.750000000   0.298616499   0.393415433

     Writing output data file Prototype-La-oP12-Co2Si.save
     Check: negative starting charge=   -0.001196
     NEW-OLD atomic charge density approx. for the potential
     NEW k-points:
        k(    1) = (   0.0000000   0.0000000   0.0000000), wk =   0.0833333
        k(    2) = (   0.0000000   0.0000000   0.1222073), wk =   0.1666667
        k(    3) = (   0.0000000   0.0000000  -0.2444146), wk =   0.0833333
        k(    4) = (   0.0000000   0.2360118   0.0000000), wk =   0.1666667
        k(    5) = (   0.0000000   0.2360118   0.1222073), wk =   0.3333333
        k(    6) = (   0.0000000   0.2360118  -0.2444146), wk =   0.1666667
        k(    7) = (  -0.4607715   0.0000000   0.0000000), wk =   0.0833333
        k(    8) = (  -0.4607715   0.0000000   0.1222073), wk =   0.1666667
        k(    9) = (  -0.4607715   0.0000000  -0.2444146), wk =   0.0833333
        k(   10) = (  -0.4607715   0.2360118   0.0000000), wk =   0.1666667
        k(   11) = (  -0.4607715   0.2360118   0.1222073), wk =   0.3333333
        k(   12) = (  -0.4607715   0.2360118  -0.2444146), wk =   0.1666667
     Check: negative starting charge=   -0.006179

     negative rho (up, down):  0.510E-02 0.000E+00
     extrapolated charge  246.56606, renormalised to  236.00000

[...]

     enthalpy old            =   -3292.6180450576 Ry
     enthalpy new            =   -3299.3095978612 Ry

     CASE: enthalpy_new < enthalpy_old

     small trust_radius: resetting bfgs history

     new trust radius        =       2.7324942091 bohr
     new conv_thr            =       0.0001000000 Ry

[...]

          total   stress  (Ry/bohr**3)                   (kbar)     P=-4291.09
  -0.03152035   0.00000000   0.00000000      -4636.80      0.00      0.00
   0.00000000  -0.02684345   0.00000000          0.00  -3948.81      0.00
   0.00000000   0.00000000  -0.02914702          0.00      0.00  -4287.67

     number of scf cycles    =   3
     number of bfgs steps    =   2

     enthalpy old            =   -3299.3095978612 Ry
     enthalpy new            =   -3268.7969945606 Ry

     CASE: enthalpy_new > enthalpy_old

     new trust radius        =       0.6192924395 bohr

     trust_radius < trust_radius_min

     resetting bfgs history

     Message from routine bfgs:
     history already reset at previous step: stopping
     new conv_thr            =       0.0001000000 Ry

     new unit-cell volume =   1285.94400 a.u.^3 (   190.55724 Ang^3 )

[...]

ATOMIC_POSITIONS (crystal)
Co       0.750000000   0.825004749   0.434937823
Co       0.250000000   0.174995251   0.565062177
Co       0.750000000   0.325004749   0.065062177
Co       0.250000000   0.674995251   0.934937823
Co       0.250000000   0.539256311   0.281033478
Co       0.750000000   0.460743689   0.718966522
Co       0.250000000   0.039256311   0.218966522
Co       0.750000000   0.960743689   0.781033478
Si       0.250000000   0.199751192   0.893196015
Si       0.750000000   0.800248808   0.106803985
Si       0.250000000   0.699751192   0.606803985
Si       0.750000000   0.300248808   0.393196015

     Writing output data file Prototype-La-oP12-Co2Si.save
     Check: negative starting charge=   -0.005867
     NEW-OLD atomic charge density approx. for the potential
     NEW k-points:
        k(    1) = (   0.0000000   0.0000000   0.0000000), wk =   0.0833333
        k(    2) = (   0.0000000   0.0000000   0.1152989), wk =   0.1666667
        k(    3) = (   0.0000000   0.0000000  -0.2305977), wk =   0.0833333
        k(    4) = (   0.0000000   0.2244127   0.0000000), wk =   0.1666667
        k(    5) = (   0.0000000   0.2244127   0.1152989), wk =   0.3333333
        k(    6) = (   0.0000000   0.2244127  -0.2305977), wk =   0.1666667
        k(    7) = (  -0.4323114   0.0000000   0.0000000), wk =   0.0833333
        k(    8) = (  -0.4323114   0.0000000   0.1152989), wk =   0.1666667
        k(    9) = (  -0.4323114   0.0000000  -0.2305977), wk =   0.0833333
        k(   10) = (  -0.4323114   0.2244127   0.0000000), wk =   0.1666667
        k(   11) = (  -0.4323114   0.2244127   0.1152989), wk =   0.3333333
        k(   12) = (  -0.4323114   0.2244127  -0.2305977), wk =   0.1666667
     Check: negative starting charge=   -0.011911

     negative rho (up, down):  0.242E+02 0.000E+00
     extrapolated charge  171.24030, renormalised to  236.00000

[...]

     The maximum number of steps has been reached.

     End of BFGS Geometry Optimization
Begin final coordinates
     new unit-cell volume =   1285.94400 a.u.^3 (   190.55724 Ang^3 )

CELL_PARAMETERS (alat=  7.01510508)
   1.156573672   0.000000000   0.000000000
   0.000000000   1.485358386   0.000000000
   0.000000000   0.000000000   2.168277986

ATOMIC_POSITIONS (crystal)
Co       0.750000000   0.825004749   0.434937823
Co       0.250000000   0.174995251   0.565062177
Co       0.750000000   0.325004749   0.065062177
Co       0.250000000   0.674995251   0.934937823
Co       0.250000000   0.539256311   0.281033478
Co       0.750000000   0.460743689   0.718966522
Co       0.250000000   0.039256311   0.218966522
Co       0.750000000   0.960743689   0.781033478
Si       0.250000000   0.199751192   0.893196015
Si       0.750000000   0.800248808   0.106803985
Si       0.250000000   0.699751192   0.606803985
Si       0.750000000   0.300248808   0.393196015
End final coordinates

     A final scf calculation at the relaxed structure.
     The G-vectors are recalculated for the final unit cell
     Results may differ from those at the preceding step.

     bravais-lattice index     =            0
     lattice parameter (alat)  =       7.0151  a.u.
     unit-cell volume          =    1285.9440 (a.u.)^3
     number of atoms/cell      =           12
     number of atomic types    =            2
     number of electrons       =       236.00
     number of Kohn-Sham states=          142
     kinetic-energy cutoff     =      40.0000  Ry
     charge density cutoff     =     160.0000  Ry
     convergence threshold     =      1.0E-04
     mixing beta               =       0.7000
     number of iterations used =            8  plain     mixing
     Exchange-correlation      = SLA-PZ-NOGX-NOGC ( 1 1 0 0 0)
     EXX-fraction              =        0.00

     celldm(1)=   7.015105  celldm(2)=   0.000000  celldm(3)=   0.000000
     celldm(4)=   0.000000  celldm(5)=   0.000000  celldm(6)=   0.000000

     crystal axes: (cart. coord. in units of alat)
               a(1) = (   1.156574   0.000000   0.000000 )
               a(2) = (   0.000000   1.485358   0.000000 )
               a(3) = (   0.000000   0.000000   2.168278 )

     reciprocal axes: (cart. coord. in units 2 pi/alat)
               b(1) = (  0.864623  0.000000  0.000000 )
               b(2) = (  0.000000  0.673238  0.000000 )
               b(3) = (  0.000000  0.000000  0.461195 )

     PseudoPot. # 1 for Tm read from file:
     /home/cwx6513/pp.La/Tm.UPF
     MD5 check sum: 245516e0878b5372ceeb9443ded2c4e1
     Pseudo is Norm-conserving, Zval = 23.0
     Generated in analytical, separable form
     Using radial grid of 1269 points,  6 beta functions with:
                l(1) =   0
                l(2) =   0
                l(3) =   1
                l(4) =   1
                l(5) =   2
                l(6) =   3

     PseudoPot. # 2 for Pr read from file:
     /home/cwx6513/pp.La/Pr.UPF
     MD5 check sum: 70e2b4b153859e92c8c91247dfc63203
     Pseudo is Norm-conserving, Zval = 13.0
     Generated in analytical, separable form
     Using radial grid of 1255 points,  6 beta functions with:
                l(1) =   0
                l(2) =   0
                l(3) =   1
                l(4) =   1
                l(5) =   2
                l(6) =   3

     atomic species   valence    mass     pseudopotential
        Co            23.00    58.93320     Tm( 1.00)
        Si            13.00    28.08550     Pr( 1.00)

      8 Sym. Ops., with inversion, found ( 6 have fractional translation)

   Cartesian axes

     site n.     atom                  positions (alat units)
         1           Co  tau(   1) = (   0.8674303   1.2254277   0.9430661  )
         2           Co  tau(   2) = (   0.2891434   0.2599307   1.2252119  )
         3           Co  tau(   3) = (   0.8674303   0.4827485   0.1410729  )
         4           Co  tau(   4) = (   0.2891434   1.0026099   2.0272051  )
         5           Co  tau(   5) = (   0.2891434   0.8009889   0.6093587  )
         6           Co  tau(   6) = (   0.8674303   0.6843695   1.5589193  )
         7           Co  tau(   7) = (   0.2891434   0.0583097   0.4747803  )
         8           Co  tau(   8) = (   0.8674303   1.4270487   1.6934977  )
         9           Si  tau(   9) = (   0.2891434   0.2967021   1.9366973  )
        10           Si  tau(  10) = (   0.8674303   1.1886563   0.2315807  )
        11           Si  tau(  11) = (   0.2891434   1.0393813   1.3157197  )
        12           Si  tau(  12) = (   0.8674303   0.4459771   0.8525583  )

     number of k points=    12  gaussian smearing, width (Ry)=  0.1000
                       cart. coord. in units 2pi/alat
        k(    1) = (   0.0000000   0.0000000   0.0000000), wk =   0.0833333
        k(    2) = (   0.0000000   0.0000000   0.1152989), wk =   0.1666667
        k(    3) = (   0.0000000   0.0000000  -0.2305977), wk =   0.0833333
        k(    4) = (   0.0000000   0.2244127   0.0000000), wk =   0.1666667
        k(    5) = (   0.0000000   0.2244127   0.1152989), wk =   0.3333333
        k(    6) = (   0.0000000   0.2244127  -0.2305977), wk =   0.1666667
        k(    7) = (  -0.4323114   0.0000000   0.0000000), wk =   0.0833333
        k(    8) = (  -0.4323114   0.0000000   0.1152989), wk =   0.1666667
        k(    9) = (  -0.4323114   0.0000000  -0.2305977), wk =   0.0833333
        k(   10) = (  -0.4323114   0.2244127   0.0000000), wk =   0.1666667
        k(   11) = (  -0.4323114   0.2244127   0.1152989), wk =   0.3333333
        k(   12) = (  -0.4323114   0.2244127  -0.2305977), wk =   0.1666667

     Largest allocated arrays     est. size (Mb)     dimensions
     Largest temporary arrays     est. size (Mb)     dimensions

     Initial potential from superposition of free atoms
     Check: negative starting charge=   -0.001018

     starting charge   51.96217, renormalised to  236.00000

     negative rho (up, down):  0.462E-02 0.000E+00
     Starting wfc are   80 randomized atomic wfcs

     Writing output data file Prototype-La-oP12-Co2Si.save

     Self-consistent Calculation

[...]

     negative rho (up, down):  0.178E-03 0.000E+00

[...]

     iteration #  7     ecut=    40.00 Ry     beta=0.70
     CG style diagonalization
     ethr =  1.52E-03,  avg # of iterations =  3.8

[...]

     total energy              =   -3306.61650352 Ry
     Harris-Foulkes estimate   =   -3306.61759381 Ry
     estimated scf accuracy    <       0.00213730 Ry

     iteration # 11     ecut=    40.00 Ry     beta=0.70
     CG style diagonalization
     c_bands:  1 eigenvalues not converged
     ethr =  9.06E-07,  avg # of iterations =  4.3

     End of self-consistent calculation

[...]

          k = 0.0000 0.2244-0.2306 (  5488 PWs)   bands (ev):

[...]

          k =-0.4323 0.2244-0.2306 (  5512 PWs)   bands (ev):

   -76.3809 -76.3809 -76.3807 -76.3807 -76.2443 -76.2443 -76.2346 -76.2346
   -35.2193 -35.2193 -35.1312 -35.1312 -35.1128 -35.1128 -35.1099 -35.1099
   -35.0918 -35.0918 -35.0735 -35.0735 -35.0054 -35.0054 -34.9932 -34.9932
   -34.9793 -34.9793 -34.9725 -34.9725 -34.9492 -34.9492 -34.9451 -34.9451
    -7.4295  -7.4295  -7.4126  -7.4126  10.5904  10.5904  10.7446  10.7446
    10.7940  10.7940  10.8479  10.8479  11.0378  11.0378  11.1472  11.1472
    12.6957  12.6957  13.0087  13.0087  13.0718  13.0718  13.2123  13.2123
    13.2172  13.2172  13.4546  13.4546  13.5562  13.5562  13.6411  13.6411
    13.7189  13.7189  13.8400  13.8400  13.8909  13.8909  13.9816  13.9816
    14.0604  14.0604  14.3181  14.3181  14.4018  14.4018  14.4890  14.4890
    14.7746  14.7746  14.7777  14.7777  15.0490  15.0490  15.1846  15.1846
    22.9041  22.9041  23.3244  23.3244  24.9729  24.9729  25.3512  25.3512
    29.3037  29.3037  29.4040  29.4040  29.9539  29.9539  30.3130  30.3130
    31.2340  31.2340  32.2774  32.2774  32.8456  32.8456  33.0515  33.0515
    33.5298  33.5298  34.3710  34.3710  36.0610  36.0610  36.1325  36.1325
    37.4043  37.4043  37.9308  37.9308  39.0894  39.0891  39.1557  39.1556
    40.0328  40.0327  40.6378  40.6375  40.7501  40.7502  41.2915  41.2913
    41.6356  41.6356  42.2518  42.2517  42.5528  42.5524

     the Fermi energy is    36.0974 ev

!    total energy              =   -3306.61720671 Ry
     Harris-Foulkes estimate   =   -3306.61724604 Ry
     estimated scf accuracy    <       0.00004970 Ry

     The total energy is the sum of the following terms:

     one-electron contribution =    -607.04648454 Ry
     hartree contribution      =     503.37154727 Ry
     xc contribution           =    -292.66764840 Ry
     ewald contribution        =   -2909.90093602 Ry
     smearing contrib. (-TS)   =      -0.37368503 Ry

     convergence has been achieved in  11 iterations

     Forces acting on atoms (Ry/au):

     atom    1 type  1   force =     0.00000000   -0.04306242    0.00666663
     atom    2 type  1   force =     0.00000000    0.04306242   -0.00666663
     atom    3 type  1   force =     0.00000000   -0.04306242   -0.00666663
     atom    4 type  1   force =     0.00000000    0.04306242    0.00666663
     atom    5 type  1   force =     0.00000000    0.06885982   -0.03386288
     atom    6 type  1   force =     0.00000000   -0.06885982    0.03386288
     atom    7 type  1   force =     0.00000000    0.06885982    0.03386288
     atom    8 type  1   force =     0.00000000   -0.06885982   -0.03386288
     atom    9 type  2   force =     0.00000000   -0.10505523   -0.01530616
     atom   10 type  2   force =     0.00000000    0.10505523    0.01530616
     atom   11 type  2   force =     0.00000000   -0.10505523    0.01530616
     atom   12 type  2   force =     0.00000000    0.10505523   -0.01530616

     Total force =     0.276102     Total SCF correction =     0.015566

     entering subroutine stress ...

          total   stress  (Ry/bohr**3)                   (kbar)     P= 1252.35
   0.00900276   0.00000000   0.00000000       1324.35      0.00      0.00
   0.00000000   0.00783622   0.00000000          0.00   1152.75      0.00
   0.00000000   0.00000000   0.00870094          0.00      0.00   1279.95

     Writing output data file Prototype-La-oP12-Co2Si.save

     General routines

     Parallel routines

   This run was terminated on:  22:10:29  22Mar2018

   JOB DONE.