     Program PWSCF v.5.0.2 starts on 22Mar2018 at 12:13:52

     Current dimensions of program PWSCF are:
     Max number of different atomic species (ntypx) = 10
     Max number of k-points (npk) =  40000
     Max angular momentum in pseudopotentials (lmaxx) =  3
     Waiting for input...
     Reading input from standard input

     Subspace diagonalization in iterative solution of the eigenvalue problem:
     a serial algorithm will be used

     bravais-lattice index     =            0
     lattice parameter (alat)  =      13.3930  a.u.
     unit-cell volume          =    1134.0956 (a.u.)^3
     number of atoms/cell      =            4
     number of atomic types    =            2
     number of electrons       =        86.00
     number of Kohn-Sham states=           52
     kinetic-energy cutoff     =      40.0000  Ry
     charge density cutoff     =     160.0000  Ry
     convergence threshold     =      1.0E-04
     mixing beta               =       0.7000
     number of iterations used =            8  plain     mixing
     Exchange-correlation      = SLA-PZ-NOGX-NOGC ( 1 1 0 0 0)
     EXX-fraction              =        0.00
     nstep                     =           50

     celldm(1)=  13.392972  celldm(2)=   0.000000  celldm(3)=   0.000000
     celldm(4)=   0.000000  celldm(5)=   0.000000  celldm(6)=   0.000000

     crystal axes: (cart. coord. in units of alat)
               a(1) = (   1.000000   0.000000   0.000000 )
               a(2) = (  -0.776311   0.630350   0.000000 )
               a(3) = (   0.000000   0.000000   0.748922 )

     reciprocal axes: (cart. coord. in units 2 pi/alat)
               b(1) = (  1.000000  1.231554  0.000000 )
               b(2) = (  0.000000  1.586419  0.000000 )
               b(3) = (  0.000000  0.000000  1.335252 )

     PseudoPot. # 1 for Yb read from file:
     /home/jld5415/pp.La/Yb.UPF
     MD5 check sum: 3e859b81cc28c53ec6aa3a2e888efcdf
     Pseudo is Norm-conserving, Zval = 24.0
     Generated in analytical, separable form
     Using radial grid of 1269 points,  6 beta functions with:
                l(1) =   0
                l(2) =   0
                l(3) =   1
                l(4) =   1
                l(5) =   2
                l(6) =   3

     PseudoPot. # 2 for Tb read from file:
     /home/jld5415/pp.La/Tb.UPF
     MD5 check sum: 3d6088a3f0cf7fd2e110c43f7f8e95c2
     Pseudo is Norm-conserving, Zval = 19.0
     Generated in analytical, separable form
     Using radial grid of 1263 points,  6 beta functions with:
                l(1) =   0
                l(2) =   0
                l(3) =   1
                l(4) =   1
                l(5) =   2
                l(6) =   3

     atomic species   valence    mass     pseudopotential
        Tl            24.00   204.38300     Yb( 1.00)
        I             19.00   126.90400     Tb( 1.00)

      2 Sym. Ops., with inversion, found
          (note:  2 additional sym.ops. were found but ignored
           their fractional translations are incommensurate with FFT grid)

   Cartesian axes

     site n.     atom                  positions (alat units)
         1           Tl  tau(   1) = (  -0.0906317   0.3870269   0.5616917  )
         2           Tl  tau(   2) = (   0.3143210   0.2433234   0.1872306  )
         3           I   tau(   3) = (  -0.5408004   0.5467760   0.5616917  )
         4           I   tau(   4) = (   0.7644896   0.0835744   0.1872306  )

     number of k points=   106  gaussian smearing, width (Ry)=  0.1000

     Number of k-points >= 100: set verbosity='high' to print them.

     Largest allocated arrays     est. size (Mb)     dimensions
     Largest temporary arrays     est. size (Mb)     dimensions

     Initial potential from superposition of free atoms

     Starting from uniform charge
     Starting wfc are    0 randomized atomic wfcs

     Self-consistent Calculation

     iteration #  1     ecut=    40.00 Ry     beta=0.70
     CG style diagonalization
     ethr =  1.00E-02,  avg # of iterations = 20.9

     total energy              =    -846.47205245 Ry
     Harris-Foulkes estimate   =   -1863.23002427 Ry
     estimated scf accuracy    <    1227.16013451 Ry

     iteration #  2     ecut=    40.00 Ry     beta=0.70
     CG style diagonalization
     c_bands:  2 eigenvalues not converged
     c_bands:  1 eigenvalues not converged
     c_bands:  1 eigenvalues not converged
     c_bands:  1 eigenvalues not converged
     c_bands:  1 eigenvalues not converged
     c_bands:  1 eigenvalues not converged
     c_bands:  1 eigenvalues not converged
     c_bands:  1 eigenvalues not converged
     c_bands:  1 eigenvalues not converged
     c_bands:  1 eigenvalues not converged
     ethr =  1.00E-02,  avg # of iterations = 12.5

[...]

     End of self-consistent calculation

     Number of k-points >= 100: set verbosity='high' to print the bands.

     the Fermi energy is    10.1157 ev

!    total energy              =   -1278.34055268 Ry
     Harris-Foulkes estimate   =   -1278.34056297 Ry
     estimated scf accuracy    <       0.00001178 Ry

     The total energy is the sum of the following terms:

     one-electron contribution =    -715.75127233 Ry
     hartree contribution      =     353.59346459 Ry
     xc contribution           =    -105.76961854 Ry
     ewald contribution        =    -810.23061881 Ry
     smearing contrib. (-TS)   =      -0.18250758 Ry

     convergence has been achieved in  11 iterations

     Forces acting on atoms (Ry/au):

     atom    1 type  1   force =     0.00406520   -0.00183015    0.01102432
     atom    2 type  1   force =    -0.00406520    0.00183015   -0.01102432
     atom    3 type  2   force =    -0.00932679    0.00311222    0.00759049
     atom    4 type  2   force =     0.00932679   -0.00311222   -0.00759049

     Total force =     0.024319     Total SCF correction =     0.000000

     entering subroutine stress ...

          total   stress  (Ry/bohr**3)                   (kbar)     P= -500.11
  -0.00333406  -0.00002608   0.00000006       -490.46     -3.84      0.01
  -0.00002608  -0.00339799   0.00000005         -3.84   -499.86      0.01
   0.00000006   0.00000005  -0.00346696          0.01      0.01   -510.01

     BFGS Geometry Optimization

     number of scf cycles    =   1
     number of bfgs steps    =   0

     enthalpy new            =   -1278.3405526787 Ry

     new trust radius        =       0.5000000000 bohr
     new conv_thr            =       0.0001000000 Ry

     new unit-cell volume =    904.01446 a.u.^3 (   133.96112 Ang^3 )

CELL_PARAMETERS (alat= 13.39297219)
   0.928609571  -0.000558473   0.000001257
  -0.721241626   0.584920096  -0.000000351
   0.000000941   0.000000742   0.693325154

ATOMIC_POSITIONS (crystal)
Tl       0.386128833   0.613801325   0.750941378
Tl       0.613871167   0.386198675   0.249058622
I        0.132232657   0.867731746   0.750648160
I        0.867767343   0.132268254   0.249351840

     Writing output data file Prototype-La-oS8-TlI.save
     NEW-OLD atomic charge density approx. for the potential
     NEW k-points: (use verbosity='high' to print them)

[...]

     enthalpy old            =   -1278.3405526787 Ry
     enthalpy new            =   -1278.9904276399 Ry

     CASE: enthalpy_new < enthalpy_old

     small trust_radius: resetting bfgs history

[...]

     number of scf cycles    =   3
     number of bfgs steps    =   2

     enthalpy old            =   -1278.9904276399 Ry
     enthalpy new            =   -1279.1875727129 Ry

     CASE: enthalpy_new < enthalpy_old

     Message from routine bfgs:
     history already reset at previous step: stopping
     small trust_radius: resetting bfgs history

     new trust radius        =       0.1002570682 bohr
     new conv_thr            =       0.0000351706 Ry

     new unit-cell volume =    731.41272 a.u.^3 (   108.38418 Ang^3 )

[...]

ATOMIC_POSITIONS (crystal)
Tl       0.386467960   0.613414978   0.749651280
Tl       0.613532040   0.386585022   0.250348720
I        0.130313567   0.869676236   0.749519293
I        0.869686433   0.130323764   0.250480707

     Writing output data file Prototype-La-oS8-TlI.save
     NEW-OLD atomic charge density approx. for the potential
     NEW k-points: (use verbosity='high' to print them)

[...]

     The maximum number of steps has been reached.

     End of BFGS Geometry Optimization
Begin final coordinates
     new unit-cell volume =    731.41272 a.u.^3 (   108.38418 Ang^3 )

CELL_PARAMETERS (alat= 13.39297219)
   0.869509649  -0.003208128  -0.000004270
  -0.677031944   0.545593529   0.000005216
  -0.000003044   0.000002203   0.644734558

ATOMIC_POSITIONS (crystal)
Tl       0.386467960   0.613414978   0.749651280
Tl       0.613532040   0.386585022   0.250348720
I        0.130313567   0.869676236   0.749519293
I        0.869686433   0.130323764   0.250480707
End final coordinates

     A final scf calculation at the relaxed structure.
     The G-vectors are recalculated for the final unit cell
     Results may differ from those at the preceding step.

     bravais-lattice index     =            0
     lattice parameter (alat)  =      13.3930  a.u.
     unit-cell volume          =     731.4127 (a.u.)^3
     number of atoms/cell      =            4
     number of atomic types    =            2
     number of electrons       =        86.00
     number of Kohn-Sham states=           52
     kinetic-energy cutoff     =      40.0000  Ry
     charge density cutoff     =     160.0000  Ry
     convergence threshold     =      3.5E-05
     mixing beta               =       0.7000
     number of iterations used =            8  plain     mixing
     Exchange-correlation      = SLA-PZ-NOGX-NOGC ( 1 1 0 0 0)
     EXX-fraction              =        0.00

     celldm(1)=  13.392972  celldm(2)=   0.000000  celldm(3)=   0.000000
     celldm(4)=   0.000000  celldm(5)=   0.000000  celldm(6)=   0.000000

     crystal axes: (cart. coord. in units of alat)
               a(1) = (   0.869510  -0.003208  -0.000004 )
               a(2) = (  -0.677032   0.545594   0.000005 )
               a(3) = (  -0.000003   0.000002   0.644735 )

     reciprocal axes: (cart. coord. in units 2 pi/alat)
               b(1) = (  1.155363  1.433701  0.000001 )
               b(2) = (  0.006794  1.841297 -0.000006 )
               b(3) = (  0.000008 -0.000005  1.551026 )

     PseudoPot. # 1 for Yb read from file:
     /home/jld5415/pp.La/Yb.UPF
     MD5 check sum: 3e859b81cc28c53ec6aa3a2e888efcdf
     Pseudo is Norm-conserving, Zval = 24.0
     Generated in analytical, separable form
     Using radial grid of 1269 points,  6 beta functions with:
                l(1) =   0
                l(2) =   0
                l(3) =   1
                l(4) =   1
                l(5) =   2
                l(6) =   3

     PseudoPot. # 2 for Tb read from file:
     /home/jld5415/pp.La/Tb.UPF
     MD5 check sum: 3d6088a3f0cf7fd2e110c43f7f8e95c2
     Pseudo is Norm-conserving, Zval = 19.0
     Generated in analytical, separable form
     Using radial grid of 1263 points,  6 beta functions with:
                l(1) =   0
                l(2) =   0
                l(3) =   1
                l(4) =   1
                l(5) =   2
                l(6) =   3

     atomic species   valence    mass     pseudopotential
        Tl            24.00   204.38300     Yb( 1.00)
        I             19.00   126.90400     Tb( 1.00)

      2 Sym. Ops., with inversion, found
          (note:  2 additional sym.ops. were found but ignored
           their fractional translations are incommensurate with FFT grid)

   Cartesian axes

     site n.     atom                  positions (alat units)
         1           Tl  tau(   1) = (  -0.0792662   0.3334371   0.4833276  )
         2           Tl  tau(   2) = (   0.2717409   0.2089505   0.1614079  )
         3           I   tau(   3) = (  -0.4754920   0.4740733   0.4832450  )
         4           I   tau(   4) = (   0.6679666   0.0683143   0.1614905  )

     number of k points=   106  gaussian smearing, width (Ry)=  0.1000

     Number of k-points >= 100: set verbosity='high' to print them.

     Largest allocated arrays     est. size (Mb)     dimensions
     Largest temporary arrays     est. size (Mb)     dimensions

     Initial potential from superposition of free atoms

     Starting from uniform charge
     Starting wfc are    0 randomized atomic wfcs

     Writing output data file Prototype-La-oS8-TlI.save

     Self-consistent Calculation

[...]

     iteration #  9     ecut=    40.00 Ry     beta=0.70
     CG style diagonalization
     c_bands:  1 eigenvalues not converged
     c_bands:  1 eigenvalues not converged
     ethr =  9.86E-07,  avg # of iterations =  4.6

     total energy              =   -1278.31562404 Ry
     Harris-Foulkes estimate   =   -1278.31589997 Ry
     estimated scf accuracy    <       0.00046222 Ry

     iteration # 10     ecut=    40.00 Ry     beta=0.70
     CG style diagonalization
     ethr =  5.37E-07,  avg # of iterations =  3.4

     End of self-consistent calculation

     Number of k-points >= 100: set verbosity='high' to print the bands.

     the Fermi energy is    19.2784 ev

!    total energy              =   -1278.31573451 Ry
     Harris-Foulkes estimate   =   -1278.31575223 Ry
     estimated scf accuracy    <       0.00002168 Ry

     The total energy is the sum of the following terms:

     one-electron contribution =    -510.26812687 Ry
     hartree contribution      =     276.64708607 Ry
     xc contribution           =    -106.88312755 Ry
     ewald contribution        =    -937.68137557 Ry
     smearing contrib. (-TS)   =      -0.13019058 Ry

     convergence has been achieved in  10 iterations

     Forces acting on atoms (Ry/au):

     atom    1 type  1   force =    -0.01418567    0.00521937   -0.00193513
     atom    2 type  1   force =     0.01418567   -0.00521937    0.00193513
     atom    3 type  2   force =    -0.02676979    0.00970140   -0.00205745
     atom    4 type  2   force =     0.02676979   -0.00970140    0.00205745

     Total force =     0.045764     Total SCF correction =     0.000000

     entering subroutine stress ...

          total   stress  (Ry/bohr**3)                   (kbar)     P= -478.77
  -0.00318762  -0.00005989   0.00000034       -468.91     -8.81      0.05
  -0.00005989  -0.00333951  -0.00000011         -8.81   -491.26     -0.02
   0.00000034  -0.00000011  -0.00323668          0.05     -0.02   -476.13

     Writing output data file Prototype-La-oS8-TlI.save

     General routines

     Parallel routines

   This run was terminated on:  12:59:56  22Mar2018

   JOB DONE.