     Program PWSCF v.5.0.2 starts on 22Mar2018 at 12:13:51

     Current dimensions of program PWSCF are:
     Max number of different atomic species (ntypx) = 10
     Max number of k-points (npk) =  40000
     Max angular momentum in pseudopotentials (lmaxx) =  3
     Waiting for input...
     Reading input from standard input

     Subspace diagonalization in iterative solution of the eigenvalue problem:
     a serial algorithm will be used

     bravais-lattice index     =            0
     lattice parameter (alat)  =       8.8008  a.u.
     unit-cell volume          =    1116.9454 (a.u.)^3
     number of atoms/cell      =           16
     number of atomic types    =            2
     number of electrons       =       364.00
     number of Kohn-Sham states=          218
     kinetic-energy cutoff     =      40.0000  Ry
     charge density cutoff     =     160.0000  Ry
     convergence threshold     =      1.0E-04
     mixing beta               =       0.7000
     number of iterations used =            8  plain     mixing
     Exchange-correlation      = SLA-PZ-NOGX-NOGC ( 1 1 0 0 0)
     EXX-fraction              =        0.00
     nstep                     =           50

     celldm(1)=   8.800765  celldm(2)=   0.000000  celldm(3)=   0.000000
     celldm(4)=   0.000000  celldm(5)=   0.000000  celldm(6)=   0.000000

     crystal axes: (cart. coord. in units of alat)
               a(1) = (   1.000000   0.000000   0.000000 )
               a(2) = (   0.000000   1.083771   0.000000 )
               a(3) = (   0.000000   0.000000   1.511935 )

     reciprocal axes: (cart. coord. in units 2 pi/alat)
               b(1) = (  1.000000  0.000000  0.000000 )
               b(2) = (  0.000000  0.922704  0.000000 )
               b(3) = (  0.000000  0.000000  0.661404 )

     PseudoPot. # 1 for Yb read from file:
     /home/jld5415/pp.La/Yb.UPF
     MD5 check sum: 3e859b81cc28c53ec6aa3a2e888efcdf
     Pseudo is Norm-conserving, Zval = 24.0
     Generated in analytical, separable form
     Using radial grid of 1269 points,  6 beta functions with:
                l(1) =   0
                l(2) =   0
                l(3) =   1
                l(4) =   1
                l(5) =   2
                l(6) =   3

     PseudoPot. # 2 for Tb read from file:
     /home/jld5415/pp.La/Tb.UPF
     MD5 check sum: 3d6088a3f0cf7fd2e110c43f7f8e95c2
     Pseudo is Norm-conserving, Zval = 19.0
     Generated in analytical, separable form
     Using radial grid of 1263 points,  6 beta functions with:
                l(1) =   0
                l(2) =   0
                l(3) =   1
                l(4) =   1
                l(5) =   2
                l(6) =   3

     atomic species   valence    mass     pseudopotential
        Fe            24.00    55.84500     Yb( 1.00)
        C             19.00    12.01070     Tb( 1.00)

      8 Sym. Ops., with inversion, found ( 6 have fractional translation)

   Cartesian axes

     site n.     atom                  positions (alat units)
         1           Fe  tau(   1) = (   0.3472940   0.1827628   1.3947267  )
         2           Fe  tau(   2) = (   0.1527060   0.7246484   0.8731757  )
         3           Fe  tau(   3) = (   0.8472940   0.3591227   0.6387592  )
         4           Fe  tau(   4) = (   0.3396640   0.4879235   0.3779837  )
         5           Fe  tau(   5) = (   0.1527060   0.7246484   1.3947267  )
         6           Fe  tau(   6) = (   0.3472940   0.1827628   0.8731757  )
         7           Fe  tau(   7) = (   0.1603360   1.0298091   0.3779837  )
         8           Fe  tau(   8) = (   0.6527060   0.9010083   0.6387592  )
         9           Fe  tau(   9) = (   0.8472940   0.3591227   0.1172082  )
        10           Fe  tau(  10) = (   0.6603360   0.5958476   1.1339512  )
        11           Fe  tau(  11) = (   0.6527060   0.9010083   0.1172082  )
        12           Fe  tau(  12) = (   0.8396640   0.0539620   1.1339512  )
        13           C   tau(  13) = (   0.0000000   0.0000000   0.0000000  )
        14           C   tau(  14) = (   0.5000000   0.5418856   0.0000000  )
        15           C   tau(  15) = (   0.5000000   0.5418856   0.7559674  )
        16           C   tau(  16) = (   0.0000000   0.0000000   0.7559674  )

     number of k points=    12  gaussian smearing, width (Ry)=  0.1000
                       cart. coord. in units 2pi/alat
        k(    1) = (   0.0000000   0.0000000   0.0000000), wk =   0.0833333
        k(    2) = (   0.0000000   0.0000000   0.1653510), wk =   0.1666667
        k(    3) = (   0.0000000   0.0000000  -0.3307021), wk =   0.0833333
        k(    4) = (   0.0000000   0.3075680   0.0000000), wk =   0.1666667
        k(    5) = (   0.0000000   0.3075680   0.1653510), wk =   0.3333333
        k(    6) = (   0.0000000   0.3075680  -0.3307021), wk =   0.1666667
        k(    7) = (  -0.5000000   0.0000000   0.0000000), wk =   0.0833333
        k(    8) = (  -0.5000000   0.0000000   0.1653510), wk =   0.1666667
        k(    9) = (  -0.5000000   0.0000000  -0.3307021), wk =   0.0833333
        k(   10) = (  -0.5000000   0.3075680   0.0000000), wk =   0.1666667
        k(   11) = (  -0.5000000   0.3075680   0.1653510), wk =   0.3333333
        k(   12) = (  -0.5000000   0.3075680  -0.3307021), wk =   0.1666667

     Largest allocated arrays     est. size (Mb)     dimensions
     Largest temporary arrays     est. size (Mb)     dimensions

     Initial potential from superposition of free atoms

     Starting from uniform charge
     Starting wfc are    0 randomized atomic wfcs

     Self-consistent Calculation

     iteration #  1     ecut=    40.00 Ry     beta=0.70
     CG style diagonalization
     c_bands:  1 eigenvalues not converged
     c_bands:  1 eigenvalues not converged
     c_bands:  2 eigenvalues not converged
     c_bands:  1 eigenvalues not converged
     ethr =  1.00E-02,  avg # of iterations = 23.7

     total energy              =   -5299.83714409 Ry
     Harris-Foulkes estimate   =   -6967.71180493 Ry
     estimated scf accuracy    <    2060.95723996 Ry

[...]

     iteration #  4     ecut=    40.00 Ry     beta=0.70
     CG style diagonalization
     ethr =  1.00E-02,  avg # of iterations =  4.6

[...]

     End of self-consistent calculation

          k = 0.0000 0.0000 0.0000 (  4785 PWs)   bands (ev):

   -68.0543 -68.0535 -68.0290 -68.0275 -68.0072 -67.9956 -67.9811 -67.9793
   -67.6788 -67.6761 -67.6702 -67.6472 -31.5167 -31.1222 -30.1045 -29.0849
   -28.5461 -28.5161 -28.4903 -28.4675 -28.1855 -28.1765 -28.0786 -28.0488
   -27.9208 -27.1731 -27.0435 -27.0141 -27.0132 -26.9043 -26.8686 -26.8185
   -26.7478 -26.7433 -26.5942 -26.5910 -26.5445 -26.5056 -26.4969 -26.4893
   -26.4476 -26.4116 -26.3347 -26.3301 -26.1980 -26.1975 -26.0463 -26.0375
   -25.4504 -24.9951 -24.5393 -24.0448   1.3954   1.4533   1.6095   1.6332
     1.8811   1.9401   2.6067   2.6871   2.7137   2.7882   2.8161   2.9610
    23.8935  23.9329  24.4484  24.8771  25.0328  25.1284  25.4853  25.9573
    26.2823  26.5813  26.7352  26.7613  27.6483  27.6525  27.6650  27.9251
    27.9857  28.1864  28.2121  28.3393  28.4669  28.4719  28.5235  28.9496
    28.9940  29.0204  29.1426  29.1543  29.5936  29.6339  29.6425  29.7809
    29.8244  29.8611  29.9353  30.0619  30.0848  30.1216  30.3865  30.4769
    30.5287  30.5626  30.6079  30.7264  30.9111  31.0506  31.1550  31.2031
    31.2723  31.2780  31.2814  31.6008  31.8094  31.8809  32.1937  32.2754
    32.3229  32.4501  32.6444  32.7525  33.7271  37.2354  37.5284  37.6855
    38.3445  39.0691  39.1284  39.2658  39.5990  40.0138  40.5442  41.1594
    41.5134  41.5886  42.4739  42.8642  43.2944  43.5634  44.1637  44.3188
    45.0890  45.7035  45.8913  46.6316  46.7804  47.2693  47.6636  48.2755
    48.3893  48.7654  49.0817  49.8576  50.7969  50.8229  51.2126  51.7462
    51.7479  52.2442  52.3112  52.9025  53.6595  53.7921  54.3752  54.7046
    54.7674  55.4588  55.5194  56.3951  57.0247  57.2671  57.3126  57.5092
    57.6052  58.2558  58.4260  58.6035  58.9720  59.6848  59.7368  59.8116
    59.9667  60.0760  60.1751  60.2355  60.5278  60.5936  61.0741  61.4180
    61.5911  61.6050  61.8253  61.9500  62.2248  62.2433  62.3945  62.8989
    62.9944  63.1784  63.2864  63.7395  63.7863  64.7336  64.7371  64.8571
    65.1541  65.2667  65.7501  65.8760  65.8911  66.1077  66.2376  67.2598
    67.2807  67.3715

[...]

          k =-0.5000 0.0000 0.0000 (  4798 PWs)   bands (ev):

[...]

     the Fermi energy is    59.4163 ev

!    total energy              =   -5782.52087746 Ry
     Harris-Foulkes estimate   =   -5782.52091250 Ry
     estimated scf accuracy    <       0.00003780 Ry

     The total energy is the sum of the following terms:

     one-electron contribution =    -461.89810103 Ry
     hartree contribution      =     759.13347436 Ry
     xc contribution           =    -503.61542743 Ry
     ewald contribution        =   -5575.55868004 Ry
     smearing contrib. (-TS)   =      -0.58214332 Ry

     convergence has been achieved in  10 iterations

     Forces acting on atoms (Ry/au):

     atom    1 type  1   force =     1.05091722   -1.16217873   -1.50709774
     atom    2 type  1   force =    -1.05091722   -1.16217873    1.50709774
     atom    3 type  1   force =     1.05091722    1.16217873   -1.50709774
     atom    4 type  1   force =    -1.84111153   -0.68577048    0.00000000
     atom    5 type  1   force =    -1.05091722   -1.16217873   -1.50709774
     atom    6 type  1   force =     1.05091722   -1.16217873    1.50709774
     atom    7 type  1   force =     1.84111153   -0.68577048    0.00000000
     atom    8 type  1   force =    -1.05091722    1.16217873   -1.50709774
     atom    9 type  1   force =     1.05091722    1.16217873    1.50709774
     atom   10 type  1   force =     1.84111153    0.68577048    0.00000000
     atom   11 type  1   force =    -1.05091722    1.16217873    1.50709774
     atom   12 type  1   force =    -1.84111153    0.68577048    0.00000000
     atom   13 type  2   force =     0.00000000    0.00000000    0.00000000
     atom   14 type  2   force =     0.00000000    0.00000000    0.00000000
     atom   15 type  2   force =     0.00000000    0.00000000    0.00000000
     atom   16 type  2   force =     0.00000000    0.00000000    0.00000000

     Total force =     7.297351     Total SCF correction =     0.000000

     entering subroutine stress ...

          total   stress  (Ry/bohr**3)                   (kbar)     P=12806.62
   0.08812692   0.00000000   0.00000000      12963.92      0.00      0.00
   0.00000000   0.08681377   0.00000000          0.00  12770.74      0.00
   0.00000000   0.00000000   0.08623221          0.00      0.00  12685.19

     BFGS Geometry Optimization

     number of scf cycles    =   1
     number of bfgs steps    =   0

     enthalpy new            =   -5782.5208774638 Ry

     new trust radius        =       0.5000000000 bohr
     new conv_thr            =       0.0001000000 Ry

     new unit-cell volume =   1383.30721 a.u.^3 (   204.98498 Ang^3 )

CELL_PARAMETERS (alat=  8.80076499)
   1.074803866   0.000000000   0.000000000
   0.000000000   1.163633410   0.000000000
   0.000000000   0.000000000   1.622601854

[...]
Fe       0.332561110   0.447767840   0.250000000
Fe       0.148651629   0.664498954   0.918632407
Fe       0.351348371   0.164498954   0.581367593
Fe       0.167438890   0.947767840   0.250000000
Fe       0.648651629   0.835501046   0.418632407
Fe       0.851348371   0.335501046   0.081367593
Fe       0.667438890   0.552232160   0.750000000
Fe       0.648651629   0.835501046   0.081367593
Fe       0.832561110   0.052232160   0.750000000
C        0.000000000   0.000000000   0.000000000
C        0.500000000   0.500000000   0.000000000
C        0.500000000   0.500000000   0.500000000
C        0.000000000   0.000000000   0.500000000

     Writing output data file Prototype-La-oP16-Fe3C.save
     NEW-OLD atomic charge density approx. for the potential
     NEW k-points:
        k(    1) = (   0.0000000   0.0000000   0.0000000), wk =   0.0833333
        k(    2) = (   0.0000000   0.0000000   0.1540735), wk =   0.1666667
        k(    3) = (   0.0000000   0.0000000  -0.3081471), wk =   0.0833333
        k(    4) = (   0.0000000   0.2864591   0.0000000), wk =   0.1666667
        k(    5) = (   0.0000000   0.2864591   0.1540735), wk =   0.3333333
        k(    6) = (   0.0000000   0.2864591  -0.3081471), wk =   0.1666667
        k(    7) = (  -0.4652012   0.0000000   0.0000000), wk =   0.0833333
        k(    8) = (  -0.4652012   0.0000000   0.1540735), wk =   0.1666667
        k(    9) = (  -0.4652012   0.0000000  -0.3081471), wk =   0.0833333
        k(   10) = (  -0.4652012   0.2864591   0.0000000), wk =   0.1666667
        k(   11) = (  -0.4652012   0.2864591   0.1540735), wk =   0.3333333
        k(   12) = (  -0.4652012   0.2864591  -0.3081471), wk =   0.1666667

[...]

          total   stress  (Ry/bohr**3)                   (kbar)     P= 5725.30
   0.03987141   0.00000000   0.00000000       5865.29      0.00      0.00
   0.00000000   0.03788590   0.00000000          0.00   5573.21      0.00
   0.00000000   0.00000000   0.03900201          0.00      0.00   5737.39

[...]

     enthalpy old            =   -5782.5208774638 Ry
     enthalpy new            =   -5800.0703109856 Ry

     CASE: enthalpy_new < enthalpy_old

     small trust_radius: resetting bfgs history

     new trust radius        =       7.4146549610 bohr
     new conv_thr            =       0.0001000000 Ry

[...]

          total   stress  (Ry/bohr**3)                   (kbar)     P=-7991.21
  -0.05518683   0.00000000   0.00000000      -8118.26      0.00      0.00
   0.00000000  -0.05363578   0.00000000          0.00  -7890.09      0.00
   0.00000000   0.00000000  -0.05414693          0.00      0.00  -7965.29

     number of scf cycles    =   3
     number of bfgs steps    =   2

     enthalpy old            =   -5800.0703109856 Ry
     enthalpy new            =   -5382.5213820825 Ry

     CASE: enthalpy_new > enthalpy_old

     new trust radius        =       1.5281333806 bohr

     trust_radius < trust_radius_min

     resetting bfgs history

     Message from routine bfgs:
     history already reset at previous step: stopping
     new conv_thr            =       0.0001000000 Ry

     new unit-cell volume =   1583.94550 a.u.^3 (   234.71650 Ang^3 )

[...]

ATOMIC_POSITIONS (crystal)
Fe       0.352902034   0.162829075   0.917107362
Fe       0.147097966   0.662829075   0.582892638
Fe       0.852902034   0.337170925   0.417107362
Fe       0.329839633   0.446679628   0.250000000
Fe       0.147097966   0.662829075   0.917107362
Fe       0.352902034   0.162829075   0.582892638
Fe       0.170160367   0.946679628   0.250000000
Fe       0.647097966   0.837170925   0.417107362
Fe       0.852902034   0.337170925   0.082892638
Fe       0.670160367   0.553320372   0.750000000
Fe       0.647097966   0.837170925   0.082892638
Fe       0.829839633   0.053320372   0.750000000
C        0.000000000   0.000000000   0.000000000
C        0.500000000   0.500000000   0.000000000
C        0.500000000   0.500000000   0.500000000
C        0.000000000   0.000000000   0.500000000

     Writing output data file Prototype-La-oP16-Fe3C.save
     NEW-OLD atomic charge density approx. for the potential
     NEW k-points:
        k(    1) = (   0.0000000   0.0000000   0.0000000), wk =   0.0833333
        k(    2) = (   0.0000000   0.0000000   0.1472482), wk =   0.1666667
        k(    3) = (   0.0000000   0.0000000  -0.2944963), wk =   0.0833333
        k(    4) = (   0.0000000   0.2744483   0.0000000), wk =   0.1666667
        k(    5) = (   0.0000000   0.2744483   0.1472482), wk =   0.3333333
        k(    6) = (   0.0000000   0.2744483  -0.2944963), wk =   0.1666667
        k(    7) = (  -0.4437101   0.0000000   0.0000000), wk =   0.0833333
        k(    8) = (  -0.4437101   0.0000000   0.1472482), wk =   0.1666667
        k(    9) = (  -0.4437101   0.0000000  -0.2944963), wk =   0.0833333
        k(   10) = (  -0.4437101   0.2744483   0.0000000), wk =   0.1666667
        k(   11) = (  -0.4437101   0.2744483   0.1472482), wk =   0.3333333
        k(   12) = (  -0.4437101   0.2744483  -0.2944963), wk =   0.1666667

[...]

     The maximum number of steps has been reached.

     End of BFGS Geometry Optimization
Begin final coordinates
     new unit-cell volume =   1583.94550 a.u.^3 (   234.71650 Ang^3 )

CELL_PARAMETERS (alat=  8.80076499)
   1.126861820   0.000000000   0.000000000
   0.000000000   1.214557700   0.000000000
   0.000000000   0.000000000   1.697814141

ATOMIC_POSITIONS (crystal)
Fe       0.352902034   0.162829075   0.917107362
Fe       0.147097966   0.662829075   0.582892638
Fe       0.852902034   0.337170925   0.417107362
Fe       0.329839633   0.446679628   0.250000000
Fe       0.147097966   0.662829075   0.917107362
Fe       0.352902034   0.162829075   0.582892638
Fe       0.170160367   0.946679628   0.250000000
Fe       0.647097966   0.837170925   0.417107362
Fe       0.852902034   0.337170925   0.082892638
Fe       0.670160367   0.553320372   0.750000000
Fe       0.647097966   0.837170925   0.082892638
Fe       0.829839633   0.053320372   0.750000000
C        0.000000000   0.000000000   0.000000000
C        0.500000000   0.500000000   0.000000000
C        0.500000000   0.500000000   0.500000000
C        0.000000000   0.000000000   0.500000000
End final coordinates

     A final scf calculation at the relaxed structure.
     The G-vectors are recalculated for the final unit cell
     Results may differ from those at the preceding step.

     bravais-lattice index     =            0
     lattice parameter (alat)  =       8.8008  a.u.
     unit-cell volume          =    1583.9455 (a.u.)^3
     number of atoms/cell      =           16
     number of atomic types    =            2
     number of electrons       =       364.00
     number of Kohn-Sham states=          218
     kinetic-energy cutoff     =      40.0000  Ry
     charge density cutoff     =     160.0000  Ry
     convergence threshold     =      1.0E-04
     mixing beta               =       0.7000
     number of iterations used =            8  plain     mixing
     Exchange-correlation      = SLA-PZ-NOGX-NOGC ( 1 1 0 0 0)
     EXX-fraction              =        0.00

     celldm(1)=   8.800765  celldm(2)=   0.000000  celldm(3)=   0.000000
     celldm(4)=   0.000000  celldm(5)=   0.000000  celldm(6)=   0.000000

     crystal axes: (cart. coord. in units of alat)
               a(1) = (   1.126862   0.000000   0.000000 )
               a(2) = (   0.000000   1.214558   0.000000 )
               a(3) = (   0.000000   0.000000   1.697814 )

     reciprocal axes: (cart. coord. in units 2 pi/alat)
               b(1) = (  0.887420  0.000000  0.000000 )
               b(2) = (  0.000000  0.823345  0.000000 )
               b(3) = (  0.000000  0.000000  0.588993 )

     PseudoPot. # 1 for Yb read from file:
     /home/jld5415/pp.La/Yb.UPF
     MD5 check sum: 3e859b81cc28c53ec6aa3a2e888efcdf
     Pseudo is Norm-conserving, Zval = 24.0
     Generated in analytical, separable form
     Using radial grid of 1269 points,  6 beta functions with:
                l(1) =   0
                l(2) =   0
                l(3) =   1
                l(4) =   1
                l(5) =   2
                l(6) =   3

     PseudoPot. # 2 for Tb read from file:
     /home/jld5415/pp.La/Tb.UPF
     MD5 check sum: 3d6088a3f0cf7fd2e110c43f7f8e95c2
     Pseudo is Norm-conserving, Zval = 19.0
     Generated in analytical, separable form
     Using radial grid of 1263 points,  6 beta functions with:
                l(1) =   0
                l(2) =   0
                l(3) =   1
                l(4) =   1
                l(5) =   2
                l(6) =   3

     atomic species   valence    mass     pseudopotential
        Fe            24.00    55.84500     Yb( 1.00)
        C             19.00    12.01070     Tb( 1.00)

      8 Sym. Ops., with inversion, found ( 6 have fractional translation)

   Cartesian axes

     site n.     atom                  positions (alat units)
         1           Fe  tau(   1) = (   0.3976718   0.1977653   1.5570778  )
         2           Fe  tau(   2) = (   0.1657591   0.8050442   0.9896434  )
         3           Fe  tau(   3) = (   0.9611027   0.4095135   0.7081708  )
         4           Fe  tau(   4) = (   0.3716837   0.5425182   0.4244535  )
         5           Fe  tau(   5) = (   0.1657591   0.8050442   1.5570778  )
         6           Fe  tau(   6) = (   0.3976718   0.1977653   0.9896434  )
         7           Fe  tau(   7) = (   0.1917472   1.1497970   0.4244535  )
         8           Fe  tau(   8) = (   0.7291900   1.0167924   0.7081708  )
         9           Fe  tau(   9) = (   0.9611027   0.4095135   0.1407363  )
        10           Fe  tau(  10) = (   0.7551781   0.6720395   1.2733606  )
        11           Fe  tau(  11) = (   0.7291900   1.0167924   0.1407363  )
        12           Fe  tau(  12) = (   0.9351146   0.0647607   1.2733606  )
        13           C   tau(  13) = (   0.0000000   0.0000000   0.0000000  )
        14           C   tau(  14) = (   0.5634309   0.6072789   0.0000000  )
        15           C   tau(  15) = (   0.5634309   0.6072789   0.8489071  )
        16           C   tau(  16) = (   0.0000000   0.0000000   0.8489071  )

     number of k points=    12  gaussian smearing, width (Ry)=  0.1000
                       cart. coord. in units 2pi/alat
        k(    1) = (   0.0000000   0.0000000   0.0000000), wk =   0.0833333
        k(    2) = (   0.0000000   0.0000000   0.1472482), wk =   0.1666667
        k(    3) = (   0.0000000   0.0000000  -0.2944963), wk =   0.0833333
        k(    4) = (   0.0000000   0.2744483   0.0000000), wk =   0.1666667
        k(    5) = (   0.0000000   0.2744483   0.1472482), wk =   0.3333333
        k(    6) = (   0.0000000   0.2744483  -0.2944963), wk =   0.1666667
        k(    7) = (  -0.4437101   0.0000000   0.0000000), wk =   0.0833333
        k(    8) = (  -0.4437101   0.0000000   0.1472482), wk =   0.1666667
        k(    9) = (  -0.4437101   0.0000000  -0.2944963), wk =   0.0833333
        k(   10) = (  -0.4437101   0.2744483   0.0000000), wk =   0.1666667
        k(   11) = (  -0.4437101   0.2744483   0.1472482), wk =   0.3333333
        k(   12) = (  -0.4437101   0.2744483  -0.2944963), wk =   0.1666667

     Largest allocated arrays     est. size (Mb)     dimensions
     Largest temporary arrays     est. size (Mb)     dimensions

     Initial potential from superposition of free atoms

     Starting from uniform charge
     Starting wfc are    0 randomized atomic wfcs

     Writing output data file Prototype-La-oP16-Fe3C.save

     Self-consistent Calculation

[...]

     iteration #  9     ecut=    40.00 Ry     beta=0.70
     CG style diagonalization
     c_bands:  1 eigenvalues not converged
     c_bands:  1 eigenvalues not converged
     c_bands:  1 eigenvalues not converged
     ethr =  1.81E-06,  avg # of iterations =  3.8

[...]

     total energy              =   -5813.84469469 Ry
     Harris-Foulkes estimate   =   -5813.84475326 Ry
     estimated scf accuracy    <       0.00011922 Ry

     iteration # 11     ecut=    40.00 Ry     beta=0.70
     CG style diagonalization
     ethr =  3.28E-08,  avg # of iterations =  3.9

     End of self-consistent calculation

[...]

          k = 0.0000 0.2744-0.2945 (  6742 PWs)   bands (ev):

[...]

          k =-0.4437 0.2744-0.2945 (  6792 PWs)   bands (ev):

   -83.9226 -83.9226 -83.9192 -83.9192 -83.9091 -83.9091 -83.8982 -83.8982
   -83.6241 -83.6241 -83.6055 -83.6055 -43.4540 -43.4540 -43.4515 -43.4515
   -43.2691 -43.2691 -43.2626 -43.2626 -43.0121 -43.0121 -43.0068 -43.0068
   -42.7756 -42.7756 -42.7720 -42.7720 -42.7135 -42.7135 -42.7043 -42.7043
   -42.6056 -42.6056 -42.6015 -42.6015 -42.5258 -42.5258 -42.5191 -42.5191
   -42.4267 -42.4267 -42.4212 -42.4212 -42.2380 -42.2380 -42.2251 -42.2251
   -40.2670 -40.2670 -40.2651 -40.2651 -10.0487 -10.0487 -10.0487 -10.0487
    -9.8739  -9.8739  -9.8704  -9.8704  -9.7738  -9.7738  -9.7711  -9.7711
    12.7498  12.7498  12.7674  12.7674  13.0510  13.0510  13.0680  13.0680
    13.3825  13.3825  13.5102  13.5102  13.5840  13.5840  13.7148  13.7148
    13.9665  13.9665  13.9873  13.9873  14.2768  14.2768  14.3244  14.3244
    14.4202  14.4202  14.4568  14.4568  14.5713  14.5713  14.6447  14.6447
    14.7569  14.7569  14.7725  14.7725  14.8549  14.8549  14.8786  14.8786
    14.9625  14.9625  15.0663  15.0663  15.1754  15.1754  15.3395  15.3395
    15.4641  15.4641  15.4645  15.4645  15.6457  15.6457  15.7097  15.7097
    15.8408  15.8408  15.9260  15.9260  23.6152  23.6152  23.6322  23.6322
    24.7903  24.7903  25.2535  25.2535  25.6581  25.6581  25.8391  25.8391
    26.6540  26.6540  26.6877  26.6877  27.3137  27.3137  27.8873  27.8873
    28.2320  28.2320  28.5048  28.5048  29.2162  29.2162  29.2581  29.2581
    31.9736  31.9736  32.1813  32.1813  33.7760  33.7760  33.8225  33.8225
    34.9894  34.9894  35.4250  35.4250  37.6154  37.6154  37.8199  37.8199
    39.2783  39.2783  39.3424  39.3424  40.1401  40.1401  40.2512  40.2512
    40.8514  40.8514  41.0319  41.0319  42.3611  42.3611  42.5612  42.5612
    43.1073  43.1073  43.8115  43.8115  44.5291  44.5291  44.6049  44.6049
    45.0175  45.0175  45.4584  45.4585  45.6378  45.6378  45.9494  45.9494
    46.7734  46.7735  47.0978  47.0979  47.1646  47.1648  47.3141  47.3142
    47.6794  47.6796  48.0432  48.0434  48.2798  48.2801  48.6076  48.6078
    48.8299  48.8618

     the Fermi energy is    42.5336 ev

!    total energy              =   -5813.84472804 Ry
     Harris-Foulkes estimate   =   -5813.84473184 Ry
     estimated scf accuracy    <       0.00000426 Ry

     The total energy is the sum of the following terms:

     one-electron contribution =   -1293.01411334 Ry
     hartree contribution      =     958.70189491 Ry
     xc contribution           =    -485.62751098 Ry
     ewald contribution        =   -4993.34083323 Ry
     smearing contrib. (-TS)   =      -0.56416540 Ry

     convergence has been achieved in  11 iterations

     Forces acting on atoms (Ry/au):

     atom    1 type  1   force =     0.43505979   -0.50089534   -0.61709165
     atom    2 type  1   force =    -0.43505979   -0.50089534    0.61709165
     atom    3 type  1   force =     0.43505979    0.50089534   -0.61709165
     atom    4 type  1   force =    -0.77738827   -0.33768753    0.00000000
     atom    5 type  1   force =    -0.43505979   -0.50089534   -0.61709165
     atom    6 type  1   force =     0.43505979   -0.50089534    0.61709165
     atom    7 type  1   force =     0.77738827   -0.33768753    0.00000000
     atom    8 type  1   force =    -0.43505979    0.50089534   -0.61709165
     atom    9 type  1   force =     0.43505979    0.50089534    0.61709165
     atom   10 type  1   force =     0.77738827    0.33768753    0.00000000
     atom   11 type  1   force =    -0.43505979    0.50089534    0.61709165
     atom   12 type  1   force =    -0.77738827    0.33768753    0.00000000
     atom   13 type  2   force =     0.00000000    0.00000000    0.00000000
     atom   14 type  2   force =     0.00000000    0.00000000    0.00000000
     atom   15 type  2   force =     0.00000000    0.00000000    0.00000000
     atom   16 type  2   force =     0.00000000    0.00000000    0.00000000

     Total force =     3.072664     Total SCF correction =     0.000000

     entering subroutine stress ...

          total   stress  (Ry/bohr**3)                   (kbar)     P= 3912.00
   0.02705516   0.00000000   0.00000000       3979.95      0.00      0.00
   0.00000000   0.02587443   0.00000000          0.00   3806.26      0.00
   0.00000000   0.00000000   0.02685014          0.00      0.00   3949.79

     Writing output data file Prototype-La-oP16-Fe3C.save

     General routines

     Parallel routines

   This run was terminated on:  13:31:50  22Mar2018

   JOB DONE.