     Program PWSCF v.5.0.2 starts on 22Mar2018 at  0:40:55

     Current dimensions of program PWSCF are:
     Max number of different atomic species (ntypx) = 10
     Max number of k-points (npk) =  40000
     Max angular momentum in pseudopotentials (lmaxx) =  3
     Waiting for input...
     Reading input from standard input

     Subspace diagonalization in iterative solution of the eigenvalue problem:
     a serial algorithm will be used

     bravais-lattice index     =            0
     lattice parameter (alat)  =       8.8008  a.u.
     unit-cell volume          =    1116.9454 (a.u.)^3
     number of atoms/cell      =           16
     number of atomic types    =            2
     number of electrons       =       236.00
     number of Kohn-Sham states=          142
     kinetic-energy cutoff     =      40.0000  Ry
     charge density cutoff     =     160.0000  Ry
     convergence threshold     =      1.0E-04
     mixing beta               =       0.7000
     number of iterations used =            8  plain     mixing
     Exchange-correlation      = SLA-PZ-NOGX-NOGC ( 1 1 0 0 0)
     EXX-fraction              =        0.00
     nstep                     =           50

     celldm(1)=   8.800765  celldm(2)=   0.000000  celldm(3)=   0.000000
     celldm(4)=   0.000000  celldm(5)=   0.000000  celldm(6)=   0.000000

     crystal axes: (cart. coord. in units of alat)
               a(1) = (   1.000000   0.000000   0.000000 )
               a(2) = (   0.000000   1.083771   0.000000 )
               a(3) = (   0.000000   0.000000   1.511935 )

     reciprocal axes: (cart. coord. in units 2 pi/alat)
               b(1) = (  1.000000  0.000000  0.000000 )
               b(2) = (  0.000000  0.922704  0.000000 )
               b(3) = (  0.000000  0.000000  0.661404 )

     PseudoPot. # 1 for Ce read from file:
     /home/jld5415/pp.La/Ce.UPF
     MD5 check sum: 44451aa79a44a00cf2bc029dc19922f6
     Pseudo is Norm-conserving, Zval = 12.0
     Generated in analytical, separable form
     Using radial grid of 1255 points,  6 beta functions with:
                l(1) =   0
                l(2) =   0
                l(3) =   1
                l(4) =   1
                l(5) =   2
                l(6) =   3

     PseudoPot. # 2 for Tm read from file:
     /home/jld5415/pp.La/Tm.UPF
     MD5 check sum: 245516e0878b5372ceeb9443ded2c4e1
     Pseudo is Norm-conserving, Zval = 23.0
     Generated in analytical, separable form
     Using radial grid of 1269 points,  6 beta functions with:
                l(1) =   0
                l(2) =   0
                l(3) =   1
                l(4) =   1
                l(5) =   2
                l(6) =   3

     atomic species   valence    mass     pseudopotential
        Fe            12.00    55.84500     Ce( 1.00)
        C             23.00    12.01070     Tm( 1.00)

      8 Sym. Ops., with inversion, found ( 6 have fractional translation)

   Cartesian axes

     site n.     atom                  positions (alat units)
         1           Fe  tau(   1) = (   0.3472940   0.1827628   1.3947267  )
         2           Fe  tau(   2) = (   0.1527060   0.7246484   0.8731757  )
         3           Fe  tau(   3) = (   0.8472940   0.3591227   0.6387592  )
         4           Fe  tau(   4) = (   0.3396640   0.4879235   0.3779837  )
         5           Fe  tau(   5) = (   0.1527060   0.7246484   1.3947267  )
         6           Fe  tau(   6) = (   0.3472940   0.1827628   0.8731757  )
         7           Fe  tau(   7) = (   0.1603360   1.0298091   0.3779837  )
         8           Fe  tau(   8) = (   0.6527060   0.9010083   0.6387592  )
         9           Fe  tau(   9) = (   0.8472940   0.3591227   0.1172082  )
        10           Fe  tau(  10) = (   0.6603360   0.5958476   1.1339512  )
        11           Fe  tau(  11) = (   0.6527060   0.9010083   0.1172082  )
        12           Fe  tau(  12) = (   0.8396640   0.0539620   1.1339512  )
        13           C   tau(  13) = (   0.0000000   0.0000000   0.0000000  )
        14           C   tau(  14) = (   0.5000000   0.5418856   0.0000000  )
        15           C   tau(  15) = (   0.5000000   0.5418856   0.7559674  )
        16           C   tau(  16) = (   0.0000000   0.0000000   0.7559674  )

     number of k points=    12  gaussian smearing, width (Ry)=  0.1000
                       cart. coord. in units 2pi/alat
        k(    1) = (   0.0000000   0.0000000   0.0000000), wk =   0.0833333
        k(    2) = (   0.0000000   0.0000000   0.1653510), wk =   0.1666667
        k(    3) = (   0.0000000   0.0000000  -0.3307021), wk =   0.0833333
        k(    4) = (   0.0000000   0.3075680   0.0000000), wk =   0.1666667
        k(    5) = (   0.0000000   0.3075680   0.1653510), wk =   0.3333333
        k(    6) = (   0.0000000   0.3075680  -0.3307021), wk =   0.1666667
        k(    7) = (  -0.5000000   0.0000000   0.0000000), wk =   0.0833333
        k(    8) = (  -0.5000000   0.0000000   0.1653510), wk =   0.1666667
        k(    9) = (  -0.5000000   0.0000000  -0.3307021), wk =   0.0833333
        k(   10) = (  -0.5000000   0.3075680   0.0000000), wk =   0.1666667
        k(   11) = (  -0.5000000   0.3075680   0.1653510), wk =   0.3333333
        k(   12) = (  -0.5000000   0.3075680  -0.3307021), wk =   0.1666667

     Largest allocated arrays     est. size (Mb)     dimensions
     Largest temporary arrays     est. size (Mb)     dimensions

     Initial potential from superposition of free atoms

     Starting from uniform charge
     Starting wfc are    0 randomized atomic wfcs

     Self-consistent Calculation

     iteration #  1     ecut=    40.00 Ry     beta=0.70
     CG style diagonalization
     ethr =  1.00E-02,  avg # of iterations = 20.0

     total energy              =    -781.35097714 Ry
     Harris-Foulkes estimate   =   -3508.72596536 Ry
     estimated scf accuracy    <    3198.56931641 Ry

     iteration #  2     ecut=    40.00 Ry     beta=0.70
     CG style diagonalization
     c_bands:  4 eigenvalues not converged
     c_bands:  2 eigenvalues not converged
     c_bands:  3 eigenvalues not converged
     c_bands:  4 eigenvalues not converged
     c_bands:  4 eigenvalues not converged
     c_bands:  4 eigenvalues not converged
     c_bands:  2 eigenvalues not converged
     c_bands:  3 eigenvalues not converged
     ethr =  1.00E-02,  avg # of iterations = 16.5

[...]

     End of self-consistent calculation

          k = 0.0000 0.0000 0.0000 (  4785 PWs)   bands (ev):

   -68.3119 -68.3115 -68.2717 -68.2319 -28.3607 -28.3484 -28.3484 -28.3435
   -28.2293 -28.2203 -28.2166 -28.2117 -28.0991 -28.0927 -28.0192 -28.0118
     2.6888   3.4918   3.6579   4.1073   4.3207   4.8774   6.2398   6.7999
     7.1736   7.9271   7.9872   8.0837  12.0445  12.1884  12.4524  13.2009
    14.3610  14.7111  15.0644  15.5968  15.6676  17.3237  17.6410  17.6802
    17.6993  17.8730  18.7290  18.7820  18.8510  18.9043  20.3270  20.5809
    20.8140  20.8840  21.2628  21.3352  21.7240  22.3304  22.4938  22.9472
    23.1274  23.1297  23.7719  23.7754  24.5285  24.5495  24.7332  25.0175
    25.1819  25.9483  26.0616  27.4546  27.5458  27.8414  27.9671  27.9781
    28.0272  28.2227  28.9367  30.0589  30.0936  31.4099  31.6420  32.4054
    33.5935  34.7992  35.7097  36.9715  37.3153  39.1102  39.1725  40.0458
    40.1928  40.4732  40.4783  40.7528  41.4593  41.5984  41.8291  42.0779
    42.1182  42.7550  43.2370  43.3861  43.5473  43.5958  43.9693  44.1045
    44.2634  44.5824  45.1370  45.3127  45.4049  45.4192  45.4231  45.5309
    46.2456  46.2883  46.6080  46.8195  46.8956  47.3063  48.0716  48.2430
    48.3936  48.5456  48.6380  48.7991  49.1519  49.5243  49.7134  49.7285
    50.2162  51.1258  51.3131  51.3739  51.4777  51.6435  51.8667  51.9919
    52.1881  52.4521  52.5177  52.6367  53.0820  53.2647

[...]

          k =-0.5000 0.0000 0.0000 (  4798 PWs)   bands (ev):

[...]

     the Fermi energy is    47.6786 ev

!    total energy              =   -2354.33195501 Ry
     Harris-Foulkes estimate   =   -2354.33199066 Ry
     estimated scf accuracy    <       0.00003868 Ry

     The total energy is the sum of the following terms:

     one-electron contribution =    -133.27764329 Ry
     hartree contribution      =     409.27152656 Ry
     xc contribution           =    -273.39694031 Ry
     ewald contribution        =   -2356.38638052 Ry
     smearing contrib. (-TS)   =      -0.54251745 Ry

     convergence has been achieved in  11 iterations

     Forces acting on atoms (Ry/au):

     atom    1 type  1   force =     1.02065226   -1.09213508   -1.37992022
     atom    2 type  1   force =    -1.02065226   -1.09213508    1.37992022
     atom    3 type  1   force =     1.02065226    1.09213508   -1.37992022
     atom    4 type  1   force =    -1.71838242   -0.64272305    0.00000000
     atom    5 type  1   force =    -1.02065226   -1.09213508   -1.37992022
     atom    6 type  1   force =     1.02065226   -1.09213508    1.37992022
     atom    7 type  1   force =     1.71838242   -0.64272305    0.00000000
     atom    8 type  1   force =    -1.02065226    1.09213508   -1.37992022
     atom    9 type  1   force =     1.02065226    1.09213508    1.37992022
     atom   10 type  1   force =     1.71838242    0.64272305    0.00000000
     atom   11 type  1   force =    -1.02065226    1.09213508    1.37992022
     atom   12 type  1   force =    -1.71838242    0.64272305    0.00000000
     atom   13 type  2   force =     0.00000000    0.00000000    0.00000000
     atom   14 type  2   force =     0.00000000    0.00000000    0.00000000
     atom   15 type  2   force =     0.00000000    0.00000000    0.00000000
     atom   16 type  2   force =     0.00000000    0.00000000    0.00000000

     Total force =     6.824447     Total SCF correction =     0.000000

     entering subroutine stress ...

          total   stress  (Ry/bohr**3)                   (kbar)     P=11206.30
   0.07827785   0.00000000   0.00000000      11515.07      0.00      0.00
   0.00000000   0.07622628   0.00000000          0.00  11213.27      0.00
   0.00000000   0.00000000   0.07403253          0.00      0.00  10890.56

     BFGS Geometry Optimization

     number of scf cycles    =   1
     number of bfgs steps    =   0

     enthalpy new            =   -2354.3319550103 Ry

     new trust radius        =       0.5000000000 bohr
     new conv_thr            =       0.0001000000 Ry

     new unit-cell volume =   1379.06366 a.u.^3 (   204.35615 Ang^3 )

CELL_PARAMETERS (alat=  8.80076499)
   1.074803866   0.000000000   0.000000000
   0.000000000   1.162716652   0.000000000
   0.000000000   0.000000000   1.618899654

ATOMIC_POSITIONS (crystal)
Fe       0.351727049   0.164259132   0.918513891
Fe       0.148272951   0.664259132   0.581486109
Fe       0.851727049   0.335740868   0.418513891
Fe       0.332200466   0.447633207   0.250000000
Fe       0.148272951   0.664259132   0.918513891
Fe       0.351727049   0.164259132   0.581486109
Fe       0.167799534   0.947633207   0.250000000
Fe       0.648272951   0.835740868   0.418513891
Fe       0.851727049   0.335740868   0.081486109
Fe       0.667799534   0.552366793   0.750000000
Fe       0.648272951   0.835740868   0.081486109
Fe       0.832200466   0.052366793   0.750000000
C        0.000000000   0.000000000   0.000000000
C        0.500000000   0.500000000   0.000000000
C        0.500000000   0.500000000   0.500000000
C        0.000000000   0.000000000   0.500000000

     Writing output data file Prototype-La-oP16-Fe3C.save
     NEW-OLD atomic charge density approx. for the potential
     NEW k-points:
        k(    1) = (   0.0000000   0.0000000   0.0000000), wk =   0.0833333
        k(    2) = (   0.0000000   0.0000000   0.1544259), wk =   0.1666667
        k(    3) = (   0.0000000   0.0000000  -0.3088518), wk =   0.0833333
        k(    4) = (   0.0000000   0.2866849   0.0000000), wk =   0.1666667
        k(    5) = (   0.0000000   0.2866849   0.1544259), wk =   0.3333333
        k(    6) = (   0.0000000   0.2866849  -0.3088518), wk =   0.1666667
        k(    7) = (  -0.4652012   0.0000000   0.0000000), wk =   0.0833333
        k(    8) = (  -0.4652012   0.0000000   0.1544259), wk =   0.1666667
        k(    9) = (  -0.4652012   0.0000000  -0.3088518), wk =   0.0833333
        k(   10) = (  -0.4652012   0.2866849   0.0000000), wk =   0.1666667
        k(   11) = (  -0.4652012   0.2866849   0.1544259), wk =   0.3333333
        k(   12) = (  -0.4652012   0.2866849  -0.3088518), wk =   0.1666667

[...]

          total   stress  (Ry/bohr**3)                   (kbar)     P= 5528.99
   0.03873877   0.00000000   0.00000000       5698.67      0.00      0.00
   0.00000000   0.03703240   0.00000000          0.00   5447.65      0.00
   0.00000000   0.00000000   0.03698487          0.00      0.00   5440.66

[...]

     enthalpy old            =   -2354.3319550103 Ry
     enthalpy new            =   -2370.1261772528 Ry

     CASE: enthalpy_new < enthalpy_old

     small trust_radius: resetting bfgs history

     new trust radius        =       7.1929648816 bohr
     new conv_thr            =       0.0001000000 Ry

[...]

          total   stress  (Ry/bohr**3)                   (kbar)     P=-2167.94
  -0.01509480   0.00000000   0.00000000      -2220.52      0.00      0.00
   0.00000000  -0.01449139   0.00000000          0.00  -2131.76      0.00
   0.00000000   0.00000000  -0.01462583          0.00      0.00  -2151.53

     number of scf cycles    =   3
     number of bfgs steps    =   2

     enthalpy old            =   -2370.1261772528 Ry
     enthalpy new            =   -2268.8184698785 Ry

     CASE: enthalpy_new > enthalpy_old

     new trust radius        =       3.0596560737 bohr

     trust_radius < trust_radius_min

     resetting bfgs history

     Message from routine bfgs:
     history already reset at previous step: stopping
     new conv_thr            =       0.0001000000 Ry

     new unit-cell volume =   1579.34913 a.u.^3 (   234.03539 Ang^3 )

[...]

ATOMIC_POSITIONS (crystal)
Fe       0.353434263   0.162514153   0.916930936
Fe       0.146565737   0.662514153   0.583069064
Fe       0.853434263   0.337485847   0.416930936
Fe       0.329299717   0.446586335   0.250000000
Fe       0.146565737   0.662514153   0.916930936
Fe       0.353434263   0.162514153   0.583069064
Fe       0.170700283   0.946586335   0.250000000
Fe       0.646565737   0.837485847   0.416930936
Fe       0.853434263   0.337485847   0.083069064
Fe       0.670700283   0.553413665   0.750000000
Fe       0.646565737   0.837485847   0.083069064
Fe       0.829299717   0.053413665   0.750000000
C        0.000000000   0.000000000   0.000000000
C        0.500000000   0.500000000   0.000000000
C        0.500000000   0.500000000   0.500000000
C        0.000000000   0.000000000   0.500000000

     Writing output data file Prototype-La-oP16-Fe3C.save
     NEW-OLD atomic charge density approx. for the potential
     NEW k-points:
        k(    1) = (   0.0000000   0.0000000   0.0000000), wk =   0.0833333
        k(    2) = (   0.0000000   0.0000000   0.1478077), wk =   0.1666667
        k(    3) = (   0.0000000   0.0000000  -0.2956153), wk =   0.0833333
        k(    4) = (   0.0000000   0.2743688   0.0000000), wk =   0.1666667
        k(    5) = (   0.0000000   0.2743688   0.1478077), wk =   0.3333333
        k(    6) = (   0.0000000   0.2743688  -0.2956153), wk =   0.1666667
        k(    7) = (  -0.4434455   0.0000000   0.0000000), wk =   0.0833333
        k(    8) = (  -0.4434455   0.0000000   0.1478077), wk =   0.1666667
        k(    9) = (  -0.4434455   0.0000000  -0.2956153), wk =   0.0833333
        k(   10) = (  -0.4434455   0.2743688   0.0000000), wk =   0.1666667
        k(   11) = (  -0.4434455   0.2743688   0.1478077), wk =   0.3333333
        k(   12) = (  -0.4434455   0.2743688  -0.2956153), wk =   0.1666667

[...]

     The maximum number of steps has been reached.

     End of BFGS Geometry Optimization
Begin final coordinates
     new unit-cell volume =   1579.34913 a.u.^3 (   234.03539 Ang^3 )

CELL_PARAMETERS (alat=  8.80076499)
   1.127534373   0.000000000   0.000000000
   0.000000000   1.214909675   0.000000000
   0.000000000   0.000000000   1.691387405

ATOMIC_POSITIONS (crystal)
Fe       0.353434263   0.162514153   0.916930936
Fe       0.146565737   0.662514153   0.583069064
Fe       0.853434263   0.337485847   0.416930936
Fe       0.329299717   0.446586335   0.250000000
Fe       0.146565737   0.662514153   0.916930936
Fe       0.353434263   0.162514153   0.583069064
Fe       0.170700283   0.946586335   0.250000000
Fe       0.646565737   0.837485847   0.416930936
Fe       0.853434263   0.337485847   0.083069064
Fe       0.670700283   0.553413665   0.750000000
Fe       0.646565737   0.837485847   0.083069064
Fe       0.829299717   0.053413665   0.750000000
C        0.000000000   0.000000000   0.000000000
C        0.500000000   0.500000000   0.000000000
C        0.500000000   0.500000000   0.500000000
C        0.000000000   0.000000000   0.500000000
End final coordinates

     A final scf calculation at the relaxed structure.
     The G-vectors are recalculated for the final unit cell
     Results may differ from those at the preceding step.

     bravais-lattice index     =            0
     lattice parameter (alat)  =       8.8008  a.u.
     unit-cell volume          =    1579.3491 (a.u.)^3
     number of atoms/cell      =           16
     number of atomic types    =            2
     number of electrons       =       236.00
     number of Kohn-Sham states=          142
     kinetic-energy cutoff     =      40.0000  Ry
     charge density cutoff     =     160.0000  Ry
     convergence threshold     =      1.0E-04
     mixing beta               =       0.7000
     number of iterations used =            8  plain     mixing
     Exchange-correlation      = SLA-PZ-NOGX-NOGC ( 1 1 0 0 0)
     EXX-fraction              =        0.00

     celldm(1)=   8.800765  celldm(2)=   0.000000  celldm(3)=   0.000000
     celldm(4)=   0.000000  celldm(5)=   0.000000  celldm(6)=   0.000000

     crystal axes: (cart. coord. in units of alat)
               a(1) = (   1.127534   0.000000   0.000000 )
               a(2) = (   0.000000   1.214910   0.000000 )
               a(3) = (   0.000000   0.000000   1.691387 )

     reciprocal axes: (cart. coord. in units 2 pi/alat)
               b(1) = (  0.886891  0.000000  0.000000 )
               b(2) = (  0.000000  0.823106  0.000000 )
               b(3) = (  0.000000  0.000000  0.591231 )

     PseudoPot. # 1 for Ce read from file:
     /home/jld5415/pp.La/Ce.UPF
     MD5 check sum: 44451aa79a44a00cf2bc029dc19922f6
     Pseudo is Norm-conserving, Zval = 12.0
     Generated in analytical, separable form
     Using radial grid of 1255 points,  6 beta functions with:
                l(1) =   0
                l(2) =   0
                l(3) =   1
                l(4) =   1
                l(5) =   2
                l(6) =   3

     PseudoPot. # 2 for Tm read from file:
     /home/jld5415/pp.La/Tm.UPF
     MD5 check sum: 245516e0878b5372ceeb9443ded2c4e1
     Pseudo is Norm-conserving, Zval = 23.0
     Generated in analytical, separable form
     Using radial grid of 1269 points,  6 beta functions with:
                l(1) =   0
                l(2) =   0
                l(3) =   1
                l(4) =   1
                l(5) =   2
                l(6) =   3

     atomic species   valence    mass     pseudopotential
        Fe            12.00    55.84500     Ce( 1.00)
        C             23.00    12.01070     Tm( 1.00)

      8 Sym. Ops., with inversion, found ( 6 have fractional translation)

   Cartesian axes

     site n.     atom                  positions (alat units)
         1           Fe  tau(   1) = (   0.3985093   0.1974400   1.5508854  )
         2           Fe  tau(   2) = (   0.1652579   0.8048949   0.9861957  )
         3           Fe  tau(   3) = (   0.9622765   0.4100148   0.7051917  )
         4           Fe  tau(   4) = (   0.3712967   0.5425621   0.4228469  )
         5           Fe  tau(   5) = (   0.1652579   0.8048949   1.5508854  )
         6           Fe  tau(   6) = (   0.3985093   0.1974400   0.9861957  )
         7           Fe  tau(   7) = (   0.1924704   1.1500169   0.4228469  )
         8           Fe  tau(   8) = (   0.7290251   1.0174697   0.7051917  )
         9           Fe  tau(   9) = (   0.9622765   0.4100148   0.1405020  )
        10           Fe  tau(  10) = (   0.7562376   0.6723476   1.2685406  )
        11           Fe  tau(  11) = (   0.7290251   1.0174697   0.1405020  )
        12           Fe  tau(  12) = (   0.9350639   0.0648928   1.2685406  )
        13           C   tau(  13) = (   0.0000000   0.0000000   0.0000000  )
        14           C   tau(  14) = (   0.5637672   0.6074548   0.0000000  )
        15           C   tau(  15) = (   0.5637672   0.6074548   0.8456937  )
        16           C   tau(  16) = (   0.0000000   0.0000000   0.8456937  )

     number of k points=    12  gaussian smearing, width (Ry)=  0.1000
                       cart. coord. in units 2pi/alat
        k(    1) = (   0.0000000   0.0000000   0.0000000), wk =   0.0833333
        k(    2) = (   0.0000000   0.0000000   0.1478077), wk =   0.1666667
        k(    3) = (   0.0000000   0.0000000  -0.2956153), wk =   0.0833333
        k(    4) = (   0.0000000   0.2743688   0.0000000), wk =   0.1666667
        k(    5) = (   0.0000000   0.2743688   0.1478077), wk =   0.3333333
        k(    6) = (   0.0000000   0.2743688  -0.2956153), wk =   0.1666667
        k(    7) = (  -0.4434455   0.0000000   0.0000000), wk =   0.0833333
        k(    8) = (  -0.4434455   0.0000000   0.1478077), wk =   0.1666667
        k(    9) = (  -0.4434455   0.0000000  -0.2956153), wk =   0.0833333
        k(   10) = (  -0.4434455   0.2743688   0.0000000), wk =   0.1666667
        k(   11) = (  -0.4434455   0.2743688   0.1478077), wk =   0.3333333
        k(   12) = (  -0.4434455   0.2743688  -0.2956153), wk =   0.1666667

     Largest allocated arrays     est. size (Mb)     dimensions
     Largest temporary arrays     est. size (Mb)     dimensions

     Initial potential from superposition of free atoms

     Starting from uniform charge
     Starting wfc are    0 randomized atomic wfcs

     Writing output data file Prototype-La-oP16-Fe3C.save

     Self-consistent Calculation

[...]

     iteration #  7     ecut=    40.00 Ry     beta=0.70
     CG style diagonalization
     ethr =  3.38E-04,  avg # of iterations =  4.1

[...]

     total energy              =   -2379.33554787 Ry
     Harris-Foulkes estimate   =   -2379.33609652 Ry
     estimated scf accuracy    <       0.00088528 Ry

     iteration # 11     ecut=    40.00 Ry     beta=0.70
     CG style diagonalization
     c_bands:  1 eigenvalues not converged
     c_bands:  1 eigenvalues not converged
     c_bands:  1 eigenvalues not converged
     ethr =  3.75E-07,  avg # of iterations =  4.4

     End of self-consistent calculation

[...]

          k = 0.0000 0.2744-0.2956 (  6732 PWs)   bands (ev):

[...]

          k =-0.4434 0.2744-0.2956 (  6752 PWs)   bands (ev):

   -79.9050 -79.9050 -79.9042 -79.9042 -39.1124 -39.1124 -39.1118 -39.1118
   -39.0600 -39.0600 -39.0595 -39.0595 -39.0035 -39.0035 -39.0032 -39.0032
    -5.9787  -5.9787  -5.9341  -5.9341  -5.4533  -5.4533  -5.3067  -5.3067
    -5.1917  -5.1917  -5.0844  -5.0844   4.9290   4.9290   4.9362   4.9362
     6.7076   6.7076   6.7225   6.7225   7.4979   7.4979   7.6858   7.6858
     8.2286   8.2286   8.2519   8.2519   8.5330   8.5330   8.6043   8.6043
     9.7940   9.7940   9.8846   9.8846  11.1383  11.1383  11.4851  11.4851
    11.8695  11.8695  11.9132  11.9132  12.6456  12.6456  13.1566  13.1566
    13.1621  13.1621  13.3365  13.3365  13.9099  13.9099  14.5971  14.5971
    15.6520  15.6520  15.6559  15.6559  16.2760  16.2760  16.2996  16.2996
    17.5510  17.5510  17.5515  17.5515  26.1139  26.1139  26.4284  26.4284
    28.5373  28.5372  28.8410  28.8410  29.0358  29.0358  29.5518  29.5518
    29.5625  29.5625  29.7955  29.7955  30.3361  30.3361  30.4238  30.4238
    30.7515  30.7515  31.1778  31.1778  31.7760  31.7760  32.0684  32.0684
    32.8338  32.8338  33.1838  33.1838  33.2644  33.2644  34.4057  34.4057
    34.6407  34.6407  34.9022  34.9022  35.2262  35.2262  35.5101  35.5101
    35.9013  35.9014  36.5615  36.5616  37.0049  37.0052  37.2415  37.2416
    37.7359  37.7361  37.9523  37.9524  38.8497  38.8551

     the Fermi energy is    33.6563 ev

!    total energy              =   -2379.33592573 Ry
     Harris-Foulkes estimate   =   -2379.33596615 Ry
     estimated scf accuracy    <       0.00004441 Ry

     The total energy is the sum of the following terms:

     one-electron contribution =    -456.07844678 Ry
     hartree contribution      =     457.24128313 Ry
     xc contribution           =    -258.28895227 Ry
     ewald contribution        =   -2121.50896155 Ry
     smearing contrib. (-TS)   =      -0.70084826 Ry

     convergence has been achieved in  11 iterations

     Forces acting on atoms (Ry/au):

     atom    1 type  1   force =     0.47926717   -0.52409031   -0.63442676
     atom    2 type  1   force =    -0.47926717   -0.52409031    0.63442676
     atom    3 type  1   force =     0.47926717    0.52409031   -0.63442676
     atom    4 type  1   force =    -0.83433965   -0.30851957    0.00000000
     atom    5 type  1   force =    -0.47926717   -0.52409031   -0.63442676
     atom    6 type  1   force =     0.47926717   -0.52409031    0.63442676
     atom    7 type  1   force =     0.83433965   -0.30851957    0.00000000
     atom    8 type  1   force =    -0.47926717    0.52409031   -0.63442676
     atom    9 type  1   force =     0.47926717    0.52409031    0.63442676
     atom   10 type  1   force =     0.83433965    0.30851957    0.00000000
     atom   11 type  1   force =    -0.47926717    0.52409031    0.63442676
     atom   12 type  1   force =    -0.83433965    0.30851957    0.00000000
     atom   13 type  2   force =     0.00000000    0.00000000    0.00000000
     atom   14 type  2   force =     0.00000000    0.00000000    0.00000000
     atom   15 type  2   force =     0.00000000    0.00000000    0.00000000
     atom   16 type  2   force =     0.00000000    0.00000000    0.00000000

     Total force =     3.228025     Total SCF correction =     0.000000

     entering subroutine stress ...

          total   stress  (Ry/bohr**3)                   (kbar)     P= 3685.75
   0.02583142   0.00000000   0.00000000       3799.93      0.00      0.00
   0.00000000   0.02455280   0.00000000          0.00   3611.84      0.00
   0.00000000   0.00000000   0.02478143          0.00      0.00   3645.47

     Writing output data file Prototype-La-oP16-Fe3C.save

     General routines

     Parallel routines

   This run was terminated on:   1:31:19  22Mar2018

   JOB DONE.