     Program PWSCF v.5.0.2 starts on 22Mar2018 at  0:39:38

     Current dimensions of program PWSCF are:
     Max number of different atomic species (ntypx) = 10
     Max number of k-points (npk) =  40000
     Max angular momentum in pseudopotentials (lmaxx) =  3
     Waiting for input...
     Reading input from standard input

     Subspace diagonalization in iterative solution of the eigenvalue problem:
     a serial algorithm will be used

     bravais-lattice index     =            0
     lattice parameter (alat)  =       9.9235  a.u.
     unit-cell volume          =    1361.0366 (a.u.)^3
     number of atoms/cell      =           12
     number of atomic types    =            2
     number of electrons       =       232.00
     number of Kohn-Sham states=          139
     kinetic-energy cutoff     =      40.0000  Ry
     charge density cutoff     =     160.0000  Ry
     convergence threshold     =      1.0E-04
     mixing beta               =       0.7000
     number of iterations used =            8  plain     mixing
     Exchange-correlation      = SLA-PZ-NOGX-NOGC ( 1 1 0 0 0)
     EXX-fraction              =        0.00
     nstep                     =           50

     celldm(1)=   9.923489  celldm(2)=   0.000000  celldm(3)=   0.000000
     celldm(4)=   0.000000  celldm(5)=   0.000000  celldm(6)=   0.000000

     crystal axes: (cart. coord. in units of alat)
               a(1) = (   1.000000   0.000000   0.000000 )
               a(2) = (  -0.500000   0.866025   0.000000 )
               a(3) = (   0.000000   0.000000   1.608222 )

     reciprocal axes: (cart. coord. in units 2 pi/alat)
               b(1) = (  1.000000  0.577350  0.000000 )
               b(2) = (  0.000000  1.154701  0.000000 )
               b(3) = (  0.000000  0.000000  0.621805 )

     PseudoPot. # 1 for Ce read from file:
     /home/jld5415/pp.La/Ce.UPF
     MD5 check sum: 44451aa79a44a00cf2bc029dc19922f6
     Pseudo is Norm-conserving, Zval = 12.0
     Generated in analytical, separable form
     Using radial grid of 1255 points,  6 beta functions with:
                l(1) =   0
                l(2) =   0
                l(3) =   1
                l(4) =   1
                l(5) =   2
                l(6) =   3

     PseudoPot. # 2 for Tm read from file:
     /home/jld5415/pp.La/Tm.UPF
     MD5 check sum: 245516e0878b5372ceeb9443ded2c4e1
     Pseudo is Norm-conserving, Zval = 23.0
     Generated in analytical, separable form
     Using radial grid of 1269 points,  6 beta functions with:
                l(1) =   0
                l(2) =   0
                l(3) =   1
                l(4) =   1
                l(5) =   2
                l(6) =   3

     atomic species   valence    mass     pseudopotential
        Mg            12.00    24.30500     Ce( 1.00)
        Zn            23.00    65.39000     Tm( 1.00)

     24 Sym. Ops., with inversion, found (12 have fractional translation)

   Cartesian axes

     site n.     atom                  positions (alat units)
         1           Mg  tau(   1) = (  -0.0000005   0.5773506   0.1003820  )
         2           Mg  tau(   2) = (   0.5000005   0.2886748   0.9044931  )
         3           Mg  tau(   3) = (   0.5000005   0.2886748   1.5078402  )
         4           Mg  tau(   4) = (  -0.0000005   0.5773506   0.7037291  )
         5           Zn  tau(   5) = (   0.0000000   0.0000000   0.0000000  )
         6           Zn  tau(   6) = (   0.0000000   0.0000000   0.8041111  )
         7           Zn  tau(   7) = (   0.0000000   0.2950739   1.2061667  )
         8           Zn  tau(   8) = (   0.7444585   0.1475370   0.4020556  )
         9           Zn  tau(   9) = (   0.2555415   0.1475370   0.4020556  )
        10           Zn  tau(  10) = (   0.2444585   0.7184884   1.2061667  )
        11           Zn  tau(  11) = (  -0.2444585   0.7184884   1.2061667  )
        12           Zn  tau(  12) = (   0.5000000   0.5709515   0.4020556  )

     number of k points=    12  gaussian smearing, width (Ry)=  0.1000
                       cart. coord. in units 2pi/alat
        k(    1) = (   0.0000000   0.0000000   0.0000000), wk =   0.0833333
        k(    2) = (   0.0000000   0.0000000   0.1554512), wk =   0.1666667
        k(    3) = (   0.0000000   0.0000000  -0.3109023), wk =   0.0833333
        k(    4) = (   0.0000000   0.3849002   0.0000000), wk =   0.1666667
        k(    5) = (   0.0000000   0.3849002   0.1554512), wk =   0.3333333
        k(    6) = (   0.0000000   0.3849002  -0.3109023), wk =   0.1666667
        k(    7) = (  -0.5000000  -0.2886751   0.0000000), wk =   0.0833333
        k(    8) = (  -0.5000000  -0.2886751   0.1554512), wk =   0.1666667
        k(    9) = (  -0.5000000  -0.2886751  -0.3109023), wk =   0.0833333
        k(   10) = (  -0.5000000   0.0962250   0.0000000), wk =   0.1666667
        k(   11) = (  -0.5000000   0.0962250   0.1554512), wk =   0.3333333
        k(   12) = (  -0.5000000   0.0962250  -0.3109023), wk =   0.1666667

     Largest allocated arrays     est. size (Mb)     dimensions
     Largest temporary arrays     est. size (Mb)     dimensions

     Initial potential from superposition of free atoms

     Starting from uniform charge
     Starting wfc are    0 randomized atomic wfcs

     Self-consistent Calculation

     iteration #  1     ecut=    40.00 Ry     beta=0.70
     CG style diagonalization
     c_bands:  2 eigenvalues not converged
     c_bands:  4 eigenvalues not converged
     c_bands:  4 eigenvalues not converged
     c_bands:  5 eigenvalues not converged
     c_bands:  5 eigenvalues not converged
     c_bands:  5 eigenvalues not converged
     c_bands:  3 eigenvalues not converged
     ethr =  1.00E-02,  avg # of iterations = 23.3

     total energy              =   -2299.72558587 Ry
     Harris-Foulkes estimate   =   -4623.86966724 Ry
     estimated scf accuracy    <    2791.05022769 Ry

     iteration #  2     ecut=    40.00 Ry     beta=0.70
     CG style diagonalization
     ethr =  1.00E-02,  avg # of iterations = 18.4

[...]

     End of self-consistent calculation

          k = 0.0000 0.0000 0.0000 (  5769 PWs)   bands (ev):

   -79.0081 -79.0067 -78.9807 -78.9507 -78.9507 -78.9347 -78.9347 -78.9056
   -38.4837 -38.3499 -38.1670 -37.9471 -37.9289 -37.9289 -37.9061 -37.9061
   -37.8113 -37.8113 -37.7052 -37.6518 -37.6518 -37.6491 -37.6491 -37.5694
   -37.5694 -37.5532 -37.5325 -37.5325 -37.4901 -37.4901 -37.4586 -37.4436
    -4.0834  -3.9232  -3.6849  -3.5246   7.4758   7.9229   8.1788   8.8612
     8.8612   8.9845   8.9845   9.1058   9.1058   9.2827   9.5548   9.5548
     9.9088  10.2448  10.2448  10.4109  10.4109  10.5264  10.6841  10.8498
    10.8498  11.4459  11.4460  11.5260  11.5702  11.5702  11.7661  11.7661
    11.7701  11.7888  11.8571  11.8571  11.9249  11.9249  12.2720  12.4688
    12.4688  12.7374  12.7374  13.1410  13.1435  13.5782  13.5783  13.9878
    14.1003  14.1004  14.1690  14.1690  14.1920  14.3448  14.6237  14.6237
    15.8868  18.5240  20.4279  22.3802  23.4434  24.3124  24.3124  25.9079
    26.2832  26.2833  26.4356  26.4356  26.5504  26.5504  27.8627  27.8628
    28.9873  30.4152  30.4152  32.2574  32.3959  33.1868  33.1868  33.7974
    33.7974  34.2337  34.2338  34.3568  34.7443  35.1068  35.7934  35.7934
    35.8635  35.8635  36.2006  36.3088  36.7731  36.8451  36.9189  36.9190
    37.6149  37.6150  37.9358  38.1099  38.2796  38.2797  38.3314  38.3316
    38.6736  38.8675  38.8682

[...]

          k =-0.5000-0.2887 0.0000 (  5800 PWs)   bands (ev):

[...]

     the Fermi energy is    34.2482 ev

!    total energy              =   -3242.80594273 Ry
     Harris-Foulkes estimate   =   -3242.80595974 Ry
     estimated scf accuracy    <       0.00001953 Ry

     The total energy is the sum of the following terms:

     one-electron contribution =    -916.61134758 Ry
     hartree contribution      =     633.42033033 Ry
     xc contribution           =    -286.34586135 Ry
     ewald contribution        =   -2672.74473170 Ry
     smearing contrib. (-TS)   =      -0.52433242 Ry

     convergence has been achieved in  12 iterations

     Forces acting on atoms (Ry/au):

     atom    1 type  1   force =     0.00000000    0.00000000    0.03277867
     atom    2 type  1   force =     0.00000000    0.00000000    0.03277867
     atom    3 type  1   force =     0.00000000    0.00000000   -0.03277867
     atom    4 type  1   force =     0.00000000    0.00000000   -0.03277867
     atom    5 type  2   force =     0.00000000    0.00000000    0.00000000
     atom    6 type  2   force =     0.00000000    0.00000000    0.00000000
     atom    7 type  2   force =     0.00000000    0.19044181    0.00000000
     atom    8 type  2   force =    -0.16492745    0.09522091    0.00000000
     atom    9 type  2   force =     0.16492745    0.09522091    0.00000000
     atom   10 type  2   force =    -0.16492745   -0.09522091    0.00000000
     atom   11 type  2   force =     0.16492745   -0.09522091    0.00000000
     atom   12 type  2   force =     0.00000000   -0.19044181    0.00000000

     Total force =     0.471069     Total SCF correction =     0.000000

     entering subroutine stress ...

          total   stress  (Ry/bohr**3)                   (kbar)     P= 1290.83
   0.00873451   0.00000000   0.00000000       1284.89      0.00      0.00
   0.00000000   0.00873451   0.00000000          0.00   1284.89      0.00
   0.00000000   0.00000000   0.00885563          0.00      0.00   1302.71

     BFGS Geometry Optimization

     number of scf cycles    =   1
     number of bfgs steps    =   0

     enthalpy new            =   -3242.8059427299 Ry

     new trust radius        =       0.5000000000 bohr
     new conv_thr            =       0.0001000000 Ry

     new unit-cell volume =   1654.02680 a.u.^3 (   245.10148 Ang^3 )

CELL_PARAMETERS (alat=  9.92348860)
   1.066838139   0.000000000   0.000000000
  -0.533419069   0.923908930   0.000000000
   0.000000000   0.000000000   1.717203317

ATOMIC_POSITIONS (crystal)
Mg       0.333333000   0.666667000   0.063046675
Mg       0.666667000   0.333333000   0.563046675
Mg       0.666667000   0.333333000   0.936953325
Mg       0.333333000   0.666667000   0.436953325
Zn       0.000000000   0.000000000   0.000000000
Zn       0.000000000   0.000000000   0.500000000
Zn       0.173752430   0.347504860   0.750000000
Zn       0.826247570   0.173752430   0.250000000
Zn       0.347504860   0.173752430   0.250000000
Zn       0.652495140   0.826247570   0.750000000
Zn       0.173752430   0.826247570   0.750000000
Zn       0.826247570   0.652495140   0.250000000

     Writing output data file Prototype-La-hP12-MgZn2.save
     NEW-OLD atomic charge density approx. for the potential
     NEW k-points:
        k(    1) = (   0.0000000   0.0000000   0.0000000), wk =   0.0833333
        k(    2) = (   0.0000000   0.0000000   0.1455856), wk =   0.1666667
        k(    3) = (   0.0000000   0.0000000  -0.2911711), wk =   0.0833333
        k(    4) = (   0.0000000   0.3607859   0.0000000), wk =   0.1666667
        k(    5) = (   0.0000000   0.3607859   0.1455856), wk =   0.3333333
        k(    6) = (   0.0000000   0.3607859  -0.2911711), wk =   0.1666667
        k(    7) = (  -0.4686747  -0.2705894   0.0000000), wk =   0.0833333
        k(    8) = (  -0.4686747  -0.2705894   0.1455856), wk =   0.1666667
        k(    9) = (  -0.4686747  -0.2705894  -0.2911711), wk =   0.0833333
        k(   10) = (  -0.4686747   0.0901965   0.0000000), wk =   0.1666667
        k(   11) = (  -0.4686747   0.0901965   0.1455856), wk =   0.3333333
        k(   12) = (  -0.4686747   0.0901965  -0.2911711), wk =   0.1666667

[...]

     enthalpy old            =   -3242.8059427299 Ry
     enthalpy new            =   -3243.8456058481 Ry

     CASE: enthalpy_new < enthalpy_old

     small trust_radius: resetting bfgs history

     new trust radius        =       0.2189947689 bohr
     new conv_thr            =       0.0000515434 Ry

[...]

     number of scf cycles    =   3
     number of bfgs steps    =   2

     enthalpy old            =   -3243.8456058481 Ry
     enthalpy new            =   -3243.8049015413 Ry

     CASE: enthalpy_new > enthalpy_old

     new trust radius        =       0.0758776574 bohr

     trust_radius < trust_radius_min

     resetting bfgs history

     Message from routine bfgs:
     history already reset at previous step: stopping
     new conv_thr            =       0.0000515434 Ry

     new unit-cell volume =   1562.69479 a.u.^3 (   231.56747 Ang^3 )

[...]

ATOMIC_POSITIONS (crystal)
Mg       0.333333000   0.666667000   0.064192820
Mg       0.666667000   0.333333000   0.564192820
Mg       0.666667000   0.333333000   0.935807180
Mg       0.333333000   0.666667000   0.435807180
Zn       0.000000000   0.000000000   0.000000000
Zn       0.000000000   0.000000000   0.500000000
Zn       0.170859742   0.341719485   0.750000000
Zn       0.829140258   0.170859742   0.250000000
Zn       0.341719485   0.170859742   0.250000000
Zn       0.658280515   0.829140258   0.750000000
Zn       0.170859742   0.829140258   0.750000000
Zn       0.829140258   0.658280515   0.250000000

     Writing output data file Prototype-La-hP12-MgZn2.save
     NEW-OLD atomic charge density approx. for the potential
     NEW k-points:
        k(    1) = (   0.0000000   0.0000000   0.0000000), wk =   0.0833333
        k(    2) = (   0.0000000   0.0000000   0.1496194), wk =   0.1666667
        k(    3) = (   0.0000000   0.0000000  -0.2992388), wk =   0.0833333
        k(    4) = (   0.0000000   0.3661415   0.0000000), wk =   0.1666667
        k(    5) = (   0.0000000   0.3661415   0.1496194), wk =   0.3333333
        k(    6) = (   0.0000000   0.3661415  -0.2992388), wk =   0.1666667
        k(    7) = (  -0.4756318  -0.2746061   0.0000000), wk =   0.0833333
        k(    8) = (  -0.4756318  -0.2746061   0.1496194), wk =   0.1666667
        k(    9) = (  -0.4756318  -0.2746061  -0.2992388), wk =   0.0833333
        k(   10) = (  -0.4756318   0.0915354   0.0000000), wk =   0.1666667
        k(   11) = (  -0.4756318   0.0915354   0.1496194), wk =   0.3333333
        k(   12) = (  -0.4756318   0.0915354  -0.2992388), wk =   0.1666667

[...]

     The maximum number of steps has been reached.

     End of BFGS Geometry Optimization
Begin final coordinates
     new unit-cell volume =   1562.69479 a.u.^3 (   231.56747 Ang^3 )

CELL_PARAMETERS (alat=  9.92348860)
   1.051233405   0.000000000   0.000000000
  -0.525616702   0.910394834   0.000000000
   0.000000000   0.000000000   1.670906318

ATOMIC_POSITIONS (crystal)
Mg       0.333333000   0.666667000   0.064192820
Mg       0.666667000   0.333333000   0.564192820
Mg       0.666667000   0.333333000   0.935807180
Mg       0.333333000   0.666667000   0.435807180
Zn       0.000000000   0.000000000   0.000000000
Zn       0.000000000   0.000000000   0.500000000
Zn       0.170859742   0.341719485   0.750000000
Zn       0.829140258   0.170859742   0.250000000
Zn       0.341719485   0.170859742   0.250000000
Zn       0.658280515   0.829140258   0.750000000
Zn       0.170859742   0.829140258   0.750000000
Zn       0.829140258   0.658280515   0.250000000
End final coordinates

     A final scf calculation at the relaxed structure.
     The G-vectors are recalculated for the final unit cell
     Results may differ from those at the preceding step.

     bravais-lattice index     =            0
     lattice parameter (alat)  =       9.9235  a.u.
     unit-cell volume          =    1562.6948 (a.u.)^3
     number of atoms/cell      =           12
     number of atomic types    =            2
     number of electrons       =       232.00
     number of Kohn-Sham states=          139
     kinetic-energy cutoff     =      40.0000  Ry
     charge density cutoff     =     160.0000  Ry
     convergence threshold     =      5.2E-05
     mixing beta               =       0.7000
     number of iterations used =            8  plain     mixing
     Exchange-correlation      = SLA-PZ-NOGX-NOGC ( 1 1 0 0 0)
     EXX-fraction              =        0.00

     celldm(1)=   9.923489  celldm(2)=   0.000000  celldm(3)=   0.000000
     celldm(4)=   0.000000  celldm(5)=   0.000000  celldm(6)=   0.000000

     crystal axes: (cart. coord. in units of alat)
               a(1) = (   1.051233   0.000000   0.000000 )
               a(2) = (  -0.525617   0.910395   0.000000 )
               a(3) = (   0.000000   0.000000   1.670906 )

     reciprocal axes: (cart. coord. in units 2 pi/alat)
               b(1) = (  0.951264  0.549212  0.000000 )
               b(2) = (  0.000000  1.098425  0.000000 )
               b(3) = (  0.000000  0.000000  0.598478 )

     PseudoPot. # 1 for Ce read from file:
     /home/jld5415/pp.La/Ce.UPF
     MD5 check sum: 44451aa79a44a00cf2bc029dc19922f6
     Pseudo is Norm-conserving, Zval = 12.0
     Generated in analytical, separable form
     Using radial grid of 1255 points,  6 beta functions with:
                l(1) =   0
                l(2) =   0
                l(3) =   1
                l(4) =   1
                l(5) =   2
                l(6) =   3

     PseudoPot. # 2 for Tm read from file:
     /home/jld5415/pp.La/Tm.UPF
     MD5 check sum: 245516e0878b5372ceeb9443ded2c4e1
     Pseudo is Norm-conserving, Zval = 23.0
     Generated in analytical, separable form
     Using radial grid of 1269 points,  6 beta functions with:
                l(1) =   0
                l(2) =   0
                l(3) =   1
                l(4) =   1
                l(5) =   2
                l(6) =   3

     atomic species   valence    mass     pseudopotential
        Mg            12.00    24.30500     Ce( 1.00)
        Zn            23.00    65.39000     Tm( 1.00)

     24 Sym. Ops., with inversion, found (12 have fractional translation)

   Cartesian axes

     site n.     atom                  positions (alat units)
         1           Mg  tau(   1) = (  -0.0000005   0.6069302   0.1072602  )
         2           Mg  tau(   2) = (   0.5256172   0.3034646   0.9427133  )
         3           Mg  tau(   3) = (   0.5256172   0.3034646   1.5636461  )
         4           Mg  tau(   4) = (  -0.0000005   0.6069302   0.7281930  )
         5           Zn  tau(   5) = (   0.0000000   0.0000000   0.0000000  )
         6           Zn  tau(   6) = (   0.0000000   0.0000000   0.8354532  )
         7           Zn  tau(   7) = (   0.0000000   0.3110997   1.2531797  )
         8           Zn  tau(   8) = (   0.7818132   0.1555498   0.4177266  )
         9           Zn  tau(   9) = (   0.2694202   0.1555498   0.4177266  )
        10           Zn  tau(  10) = (   0.2561965   0.7548450   1.2531797  )
        11           Zn  tau(  11) = (  -0.2561965   0.7548450   1.2531797  )
        12           Zn  tau(  12) = (   0.5256167   0.5992952   0.4177266  )

     number of k points=    12  gaussian smearing, width (Ry)=  0.1000
                       cart. coord. in units 2pi/alat
        k(    1) = (   0.0000000   0.0000000   0.0000000), wk =   0.0833333
        k(    2) = (   0.0000000   0.0000000   0.1496194), wk =   0.1666667
        k(    3) = (   0.0000000   0.0000000  -0.2992388), wk =   0.0833333
        k(    4) = (   0.0000000   0.3661415   0.0000000), wk =   0.1666667
        k(    5) = (   0.0000000   0.3661415   0.1496194), wk =   0.3333333
        k(    6) = (   0.0000000   0.3661415  -0.2992388), wk =   0.1666667
        k(    7) = (  -0.4756318  -0.2746061   0.0000000), wk =   0.0833333
        k(    8) = (  -0.4756318  -0.2746061   0.1496194), wk =   0.1666667
        k(    9) = (  -0.4756318  -0.2746061  -0.2992388), wk =   0.0833333
        k(   10) = (  -0.4756318   0.0915354   0.0000000), wk =   0.1666667
        k(   11) = (  -0.4756318   0.0915354   0.1496194), wk =   0.3333333
        k(   12) = (  -0.4756318   0.0915354  -0.2992388), wk =   0.1666667

     Largest allocated arrays     est. size (Mb)     dimensions
     Largest temporary arrays     est. size (Mb)     dimensions

     Initial potential from superposition of free atoms

     Starting from uniform charge
     Starting wfc are    0 randomized atomic wfcs

     Writing output data file Prototype-La-hP12-MgZn2.save

     Self-consistent Calculation

[...]

     iteration # 13     ecut=    40.00 Ry     beta=0.70
     CG style diagonalization
     c_bands:  1 eigenvalues not converged
     ethr =  1.25E-07,  avg # of iterations =  4.3

     total energy              =   -3245.29833309 Ry
     Harris-Foulkes estimate   =   -3245.29835381 Ry
     estimated scf accuracy    <       0.00007906 Ry

     iteration # 14     ecut=    40.00 Ry     beta=0.70
     CG style diagonalization
     ethr =  3.41E-08,  avg # of iterations =  3.1

     End of self-consistent calculation

[...]

          k = 0.0000 0.3661-0.2992 (  6684 PWs)   bands (ev):

[...]

          k =-0.4756 0.0915-0.2992 (  6660 PWs)   bands (ev):

   -83.1922 -83.1922 -83.0881 -83.0881 -83.0762 -83.0762 -83.0686 -83.0686
   -42.1884 -42.1884 -42.0864 -42.0864 -41.9359 -41.9359 -41.9098 -41.9098
   -41.8590 -41.8590 -41.8460 -41.8460 -41.7392 -41.7392 -41.7259 -41.7259
   -41.7190 -41.7190 -41.7078 -41.7078 -41.6953 -41.6953 -41.6486 -41.6485
    -8.5191  -8.5190  -8.3947  -8.3946   5.2459   5.2459   5.6083   5.6083
     5.7597   5.7597   5.8430   5.8430   6.0124   6.0124   6.4586   6.4586
     6.5514   6.5514   6.6989   6.6989   6.7939   6.7939   6.9048   6.9048
     7.0505   7.0505   7.1327   7.1327   7.2988   7.2988   7.4149   7.4149
     7.4784   7.4784   7.5985   7.5985   7.6236   7.6236   7.6853   7.6853
     7.7702   7.7702   8.1722   8.1722   8.7404   8.7404   8.9958   8.9958
     9.1080   9.1081   9.5383   9.5384   9.9440   9.9440   9.9907   9.9908
    14.2199  14.2199  16.2172  16.2172  19.0647  19.0647  19.3721  19.3721
    22.7050  22.7050  23.8014  23.8014  24.3424  24.3425  25.5780  25.5780
    26.1030  26.1031  27.1609  27.1610  27.6858  27.6858  28.1655  28.1655
    28.3736  28.3736  28.9364  28.9364  29.4990  29.4990  29.9235  29.9235
    30.7484  30.7484  31.1783  31.1783  31.4785  31.4785  32.3725  32.3726
    32.6882  32.6883  33.1411  33.1412  33.3380  33.3382  33.8212  33.8214
    34.0786  34.0790  34.3577

     the Fermi energy is    29.5348 ev

!    total energy              =   -3245.29830489 Ry
     Harris-Foulkes estimate   =   -3245.29833872 Ry
     estimated scf accuracy    <       0.00003705 Ry

     The total energy is the sum of the following terms:

     one-electron contribution =   -1092.35413790 Ry
     hartree contribution      =     684.23864152 Ry
     xc contribution           =    -283.46811430 Ry
     ewald contribution        =   -2553.16823012 Ry
     smearing contrib. (-TS)   =      -0.54646410 Ry

     convergence has been achieved in  14 iterations

     Forces acting on atoms (Ry/au):

     atom    1 type  1   force =     0.00000000    0.00000000    0.01316298
     atom    2 type  1   force =     0.00000000    0.00000000    0.01316298
     atom    3 type  1   force =     0.00000000    0.00000000   -0.01316298
     atom    4 type  1   force =     0.00000000    0.00000000   -0.01316298
     atom    5 type  2   force =     0.00000000    0.00000000    0.00000000
     atom    6 type  2   force =     0.00000000    0.00000000    0.00000000
     atom    7 type  2   force =     0.00000000    0.07201303    0.00000000
     atom    8 type  2   force =    -0.06236512    0.03600652    0.00000000
     atom    9 type  2   force =     0.06236512    0.03600652    0.00000000
     atom   10 type  2   force =    -0.06236512   -0.03600652    0.00000000
     atom   11 type  2   force =     0.06236512   -0.03600652    0.00000000
     atom   12 type  2   force =     0.00000000   -0.07201303    0.00000000

     Total force =     0.178349     Total SCF correction =     0.000000

     entering subroutine stress ...

          total   stress  (Ry/bohr**3)                   (kbar)     P=  526.36
   0.00353563   0.00000000   0.00000000        520.11      0.00      0.00
   0.00000000   0.00353563   0.00000000          0.00    520.11      0.00
   0.00000000   0.00000000   0.00366303          0.00      0.00    538.85

     Writing output data file Prototype-La-hP12-MgZn2.save

     General routines

     Parallel routines

   This run was terminated on:   1:16:19  22Mar2018

   JOB DONE.