     Program PWSCF v.5.0.2 starts on 22Mar2018 at  0:40:54

     Current dimensions of program PWSCF are:
     Max number of different atomic species (ntypx) = 10
     Max number of k-points (npk) =  40000
     Max angular momentum in pseudopotentials (lmaxx) =  3
     Waiting for input...
     Reading input from standard input

     Subspace diagonalization in iterative solution of the eigenvalue problem:
     a serial algorithm will be used

     bravais-lattice index     =            0
     lattice parameter (alat)  =       7.0151  a.u.
     unit-cell volume          =     862.2778 (a.u.)^3
     number of atoms/cell      =           12
     number of atomic types    =            2
     number of electrons       =       188.00
     number of Kohn-Sham states=          113
     kinetic-energy cutoff     =      40.0000  Ry
     charge density cutoff     =     160.0000  Ry
     convergence threshold     =      1.0E-04
     mixing beta               =       0.7000
     number of iterations used =            8  plain     mixing
     Exchange-correlation      = SLA-PZ-NOGX-NOGC ( 1 1 0 0 0)
     EXX-fraction              =        0.00
     nstep                     =           50

     celldm(1)=   7.015105  celldm(2)=   0.000000  celldm(3)=   0.000000
     celldm(4)=   0.000000  celldm(5)=   0.000000  celldm(6)=   0.000000

     crystal axes: (cart. coord. in units of alat)
               a(1) = (   1.000000   0.000000   0.000000 )
               a(2) = (   0.000000   1.315963   0.000000 )
               a(3) = (   0.000000   0.000000   1.898020 )

     reciprocal axes: (cart. coord. in units 2 pi/alat)
               b(1) = (  1.000000  0.000000  0.000000 )
               b(2) = (  0.000000  0.759900  0.000000 )
               b(3) = (  0.000000  0.000000  0.526865 )

     PseudoPot. # 1 for Ce read from file:
     /home/jld5415/pp.La/Ce.UPF
     MD5 check sum: 44451aa79a44a00cf2bc029dc19922f6
     Pseudo is Norm-conserving, Zval = 12.0
     Generated in analytical, separable form
     Using radial grid of 1255 points,  6 beta functions with:
                l(1) =   0
                l(2) =   0
                l(3) =   1
                l(4) =   1
                l(5) =   2
                l(6) =   3

     PseudoPot. # 2 for Tm read from file:
     /home/jld5415/pp.La/Tm.UPF
     MD5 check sum: 245516e0878b5372ceeb9443ded2c4e1
     Pseudo is Norm-conserving, Zval = 23.0
     Generated in analytical, separable form
     Using radial grid of 1269 points,  6 beta functions with:
                l(1) =   0
                l(2) =   0
                l(3) =   1
                l(4) =   1
                l(5) =   2
                l(6) =   3

     atomic species   valence    mass     pseudopotential
        Co            12.00    58.93320     Ce( 1.00)
        Si            23.00    28.08550     Tm( 1.00)

      8 Sym. Ops., with inversion, found ( 6 have fractional translation)

   Cartesian axes

     site n.     atom                  positions (alat units)
         1           Co  tau(   1) = (   0.7500000   1.0875135   0.8270358  )
         2           Co  tau(   2) = (   0.2500000   0.2284499   1.0709846  )
         3           Co  tau(   3) = (   0.7500000   0.4295318   0.1219744  )
         4           Co  tau(   4) = (   0.2500000   0.8864316   1.7760460  )
         5           Co  tau(   5) = (   0.2500000   0.7067855   0.5358966  )
         6           Co  tau(   6) = (   0.7500000   0.6091779   1.3621238  )
         7           Co  tau(   7) = (   0.2500000   0.0488038   0.4131136  )
         8           Co  tau(   8) = (   0.7500000   1.2671596   1.4849068  )
         9           Si  tau(   9) = (   0.2500000   0.2669484   1.6960710  )
        10           Si  tau(  10) = (   0.7500000   1.0490149   0.2019494  )
        11           Si  tau(  11) = (   0.2500000   0.9249301   1.1509596  )
        12           Si  tau(  12) = (   0.7500000   0.3910333   0.7470608  )

     number of k points=    12  gaussian smearing, width (Ry)=  0.1000
                       cart. coord. in units 2pi/alat
        k(    1) = (   0.0000000   0.0000000   0.0000000), wk =   0.0833333
        k(    2) = (   0.0000000   0.0000000   0.1317162), wk =   0.1666667
        k(    3) = (   0.0000000   0.0000000  -0.2634324), wk =   0.0833333
        k(    4) = (   0.0000000   0.2532999   0.0000000), wk =   0.1666667
        k(    5) = (   0.0000000   0.2532999   0.1317162), wk =   0.3333333
        k(    6) = (   0.0000000   0.2532999  -0.2634324), wk =   0.1666667
        k(    7) = (  -0.5000000   0.0000000   0.0000000), wk =   0.0833333
        k(    8) = (  -0.5000000   0.0000000   0.1317162), wk =   0.1666667
        k(    9) = (  -0.5000000   0.0000000  -0.2634324), wk =   0.0833333
        k(   10) = (  -0.5000000   0.2532999   0.0000000), wk =   0.1666667
        k(   11) = (  -0.5000000   0.2532999   0.1317162), wk =   0.3333333
        k(   12) = (  -0.5000000   0.2532999  -0.2634324), wk =   0.1666667

     Largest allocated arrays     est. size (Mb)     dimensions
     Largest temporary arrays     est. size (Mb)     dimensions

     Initial potential from superposition of free atoms

     Starting from uniform charge
     Starting wfc are    0 randomized atomic wfcs

     Self-consistent Calculation

     iteration #  1     ecut=    40.00 Ry     beta=0.70
     CG style diagonalization
     c_bands:  1 eigenvalues not converged
     c_bands:  3 eigenvalues not converged
     c_bands:  1 eigenvalues not converged
     c_bands:  1 eigenvalues not converged
     c_bands:  1 eigenvalues not converged
     c_bands:  1 eigenvalues not converged
     ethr =  1.00E-02,  avg # of iterations = 13.2

     total energy              =    -994.02920030 Ry
     Harris-Foulkes estimate   =   -2741.01522506 Ry
     estimated scf accuracy    <    2078.24091913 Ry

     iteration #  2     ecut=    40.00 Ry     beta=0.70
     CG style diagonalization
     ethr =  1.00E-02,  avg # of iterations = 18.1

[...]

     End of self-consistent calculation

          k = 0.0000 0.0000 0.0000 (  3675 PWs)   bands (ev):

   -65.2464 -65.2277 -65.2268 -65.2056 -24.4158 -24.4135 -24.3868 -24.3574
   -24.3360 -24.3337 -24.3335 -24.3250 -24.1681 -24.1476 -24.1147 -24.0809
     4.6414   6.4881   6.8853   7.9177   8.4430   9.0124   9.1158   9.5910
    18.3378  18.4449  19.0784  19.5722  20.2402  20.4410  20.5829  20.7628
    21.0772  21.1342  21.1417  21.5714  21.9144  22.2559  22.8751  22.9102
    23.2313  23.3395  23.3615  23.7225  23.8298  23.9526  24.4007  24.9064
    25.3365  26.0266  26.0404  26.2821  26.6170  26.9237  26.9239  27.0114
    27.1416  27.7947  28.4047  28.9275  29.1329  29.1441  29.2672  29.5407
    30.0137  31.0067  31.2436  31.5897  35.1641  37.2024  37.3049  38.5611
    39.3310  40.4034  40.5466  41.8888  42.0722  42.3038  42.7450  43.0410
    43.2540  43.3272  43.6253  43.6759  44.5248  44.5750  45.2045  45.4506
    47.1022  47.7746  48.2752  48.4212  48.4490  48.8993  49.4757  49.9978
    50.1863  50.3281  50.8005  51.0217  51.3684  51.3739  51.7020  52.0426
    52.1592  52.6929  52.6932  53.0536  53.2751  53.7719  54.0113  54.4497
    55.3771

[...]

          k =-0.5000 0.0000 0.0000 (  3722 PWs)   bands (ev):

[...]

     the Fermi energy is    48.4119 ev

!    total energy              =   -2071.43217174 Ry
     Harris-Foulkes estimate   =   -2071.43217560 Ry
     estimated scf accuracy    <       0.00000464 Ry

     The total energy is the sum of the following terms:

     one-electron contribution =      62.42805720 Ry
     hartree contribution      =     239.22355495 Ry
     xc contribution           =    -219.41961834 Ry
     ewald contribution        =   -2153.30399385 Ry
     smearing contrib. (-TS)   =      -0.36017170 Ry

     convergence has been achieved in  11 iterations

     Forces acting on atoms (Ry/au):

     atom    1 type  1   force =     0.00000000   -0.07244742   -0.09256442
     atom    2 type  1   force =     0.00000000    0.07244742    0.09256442
     atom    3 type  1   force =     0.00000000   -0.07244742    0.09256442
     atom    4 type  1   force =     0.00000000    0.07244742   -0.09256442
     atom    5 type  1   force =     0.00000000    0.20339139   -0.31711318
     atom    6 type  1   force =     0.00000000   -0.20339139    0.31711318
     atom    7 type  1   force =     0.00000000    0.20339139    0.31711318
     atom    8 type  1   force =     0.00000000   -0.20339139   -0.31711318
     atom    9 type  2   force =     0.00000000   -0.18804756   -0.00360008
     atom   10 type  2   force =     0.00000000    0.18804756    0.00360008
     atom   11 type  2   force =     0.00000000   -0.18804756    0.00360008
     atom   12 type  2   force =     0.00000000    0.18804756   -0.00360008

     Total force =     0.874347     Total SCF correction =     0.000000

     entering subroutine stress ...

          total   stress  (Ry/bohr**3)                   (kbar)     P= 6777.77
   0.05089420   0.00000000   0.00000000       7486.79      0.00      0.00
   0.00000000   0.04192006   0.00000000          0.00   6166.65      0.00
   0.00000000   0.00000000   0.04540878          0.00      0.00   6679.86

     BFGS Geometry Optimization

     number of scf cycles    =   1
     number of bfgs steps    =   0

     enthalpy new            =   -2071.4321717386 Ry

     new trust radius        =       0.5000000000 bohr
     new conv_thr            =       0.0001000000 Ry

     new unit-cell volume =   1077.36360 a.u.^3 (   159.64881 Ang^3 )

CELL_PARAMETERS (alat=  7.01510508)
   1.085136619   0.000000000   0.000000000
   0.000000000   1.408244703   0.000000000
   0.000000000   0.000000000   2.042195006

ATOMIC_POSITIONS (crystal)
Co       0.750000000   0.825875887   0.435270824
Co       0.250000000   0.174124113   0.564729176
Co       0.750000000   0.325875887   0.064729176
Co       0.250000000   0.674124113   0.935270824
Co       0.250000000   0.538560221   0.280751371
Co       0.750000000   0.461439779   0.719248629
Co       0.250000000   0.038560221   0.219248629
Co       0.750000000   0.961439779   0.780751371
Si       0.250000000   0.201490994   0.893581908
Si       0.750000000   0.798509006   0.106418092
Si       0.250000000   0.701490994   0.606418092
Si       0.750000000   0.298509006   0.393581908

     Writing output data file Prototype-La-oP12-Co2Si.save
     NEW-OLD atomic charge density approx. for the potential
     NEW k-points:
        k(    1) = (   0.0000000   0.0000000   0.0000000), wk =   0.0833333
        k(    2) = (   0.0000000   0.0000000   0.1224173), wk =   0.1666667
        k(    3) = (   0.0000000   0.0000000  -0.2448346), wk =   0.0833333
        k(    4) = (   0.0000000   0.2367013   0.0000000), wk =   0.1666667
        k(    5) = (   0.0000000   0.2367013   0.1224173), wk =   0.3333333
        k(    6) = (   0.0000000   0.2367013  -0.2448346), wk =   0.1666667
        k(    7) = (  -0.4607715   0.0000000   0.0000000), wk =   0.0833333
        k(    8) = (  -0.4607715   0.0000000   0.1224173), wk =   0.1666667
        k(    9) = (  -0.4607715   0.0000000  -0.2448346), wk =   0.0833333
        k(   10) = (  -0.4607715   0.2367013   0.0000000), wk =   0.1666667
        k(   11) = (  -0.4607715   0.2367013   0.1224173), wk =   0.3333333
        k(   12) = (  -0.4607715   0.2367013  -0.2448346), wk =   0.1666667

[...]

     enthalpy old            =   -2071.4321717386 Ry
     enthalpy new            =   -2078.0739205934 Ry

     CASE: enthalpy_new < enthalpy_old

     small trust_radius: resetting bfgs history

     new trust radius        =       3.3688025390 bohr
     new conv_thr            =       0.0001000000 Ry

[...]

          total   stress  (Ry/bohr**3)                   (kbar)     P=-2791.84
  -0.02118915   0.00000000   0.00000000      -3117.03      0.00      0.00
   0.00000000  -0.01712028   0.00000000          0.00  -2518.48      0.00
   0.00000000   0.00000000  -0.01862618          0.00      0.00  -2740.00

     number of scf cycles    =   3
     number of bfgs steps    =   2

     enthalpy old            =   -2078.0739205934 Ry
     enthalpy new            =   -2054.5070059296 Ry

     CASE: enthalpy_new > enthalpy_old

     new trust radius        =       1.0609845882 bohr

     trust_radius < trust_radius_min

     resetting bfgs history

     Message from routine bfgs:
     history already reset at previous step: stopping
     new conv_thr            =       0.0001000000 Ry

     new unit-cell volume =   1264.08624 a.u.^3 (   187.31825 Ang^3 )

[...]

ATOMIC_POSITIONS (crystal)
Co       0.750000000   0.825383244   0.435020647
Co       0.250000000   0.174616756   0.564979353
Co       0.750000000   0.325383244   0.064979353
Co       0.250000000   0.674616756   0.935020647
Co       0.250000000   0.539686793   0.279596459
Co       0.750000000   0.460313207   0.720403541
Co       0.250000000   0.039686793   0.220403541
Co       0.750000000   0.960313207   0.779596459
Si       0.250000000   0.200293090   0.893492627
Si       0.750000000   0.799706910   0.106507373
Si       0.250000000   0.700293090   0.606507373
Si       0.750000000   0.299706910   0.393492627

     Writing output data file Prototype-La-oP12-Co2Si.save
     NEW-OLD atomic charge density approx. for the potential
     NEW k-points:
        k(    1) = (   0.0000000   0.0000000   0.0000000), wk =   0.0833333
        k(    2) = (   0.0000000   0.0000000   0.1162098), wk =   0.1666667
        k(    3) = (   0.0000000   0.0000000  -0.2324196), wk =   0.0833333
        k(    4) = (   0.0000000   0.2264197   0.0000000), wk =   0.1666667
        k(    5) = (   0.0000000   0.2264197   0.1162098), wk =   0.3333333
        k(    6) = (   0.0000000   0.2264197  -0.2324196), wk =   0.1666667
        k(    7) = (  -0.4324716   0.0000000   0.0000000), wk =   0.0833333
        k(    8) = (  -0.4324716   0.0000000   0.1162098), wk =   0.1666667
        k(    9) = (  -0.4324716   0.0000000  -0.2324196), wk =   0.0833333
        k(   10) = (  -0.4324716   0.2264197   0.0000000), wk =   0.1666667
        k(   11) = (  -0.4324716   0.2264197   0.1162098), wk =   0.3333333
        k(   12) = (  -0.4324716   0.2264197  -0.2324196), wk =   0.1666667

[...]

     The maximum number of steps has been reached.

     End of BFGS Geometry Optimization
Begin final coordinates
     new unit-cell volume =   1264.08624 a.u.^3 (   187.31825 Ang^3 )

CELL_PARAMETERS (alat=  7.01510508)
   1.156145353   0.000000000   0.000000000
   0.000000000   1.472192076   0.000000000
   0.000000000   0.000000000   2.151281535

ATOMIC_POSITIONS (crystal)
Co       0.750000000   0.825383244   0.435020647
Co       0.250000000   0.174616756   0.564979353
Co       0.750000000   0.325383244   0.064979353
Co       0.250000000   0.674616756   0.935020647
Co       0.250000000   0.539686793   0.279596459
Co       0.750000000   0.460313207   0.720403541
Co       0.250000000   0.039686793   0.220403541
Co       0.750000000   0.960313207   0.779596459
Si       0.250000000   0.200293090   0.893492627
Si       0.750000000   0.799706910   0.106507373
Si       0.250000000   0.700293090   0.606507373
Si       0.750000000   0.299706910   0.393492627
End final coordinates

     A final scf calculation at the relaxed structure.
     The G-vectors are recalculated for the final unit cell
     Results may differ from those at the preceding step.

     bravais-lattice index     =            0
     lattice parameter (alat)  =       7.0151  a.u.
     unit-cell volume          =    1264.0862 (a.u.)^3
     number of atoms/cell      =           12
     number of atomic types    =            2
     number of electrons       =       188.00
     number of Kohn-Sham states=          113
     kinetic-energy cutoff     =      40.0000  Ry
     charge density cutoff     =     160.0000  Ry
     convergence threshold     =      1.0E-04
     mixing beta               =       0.7000
     number of iterations used =            8  plain     mixing
     Exchange-correlation      = SLA-PZ-NOGX-NOGC ( 1 1 0 0 0)
     EXX-fraction              =        0.00

     celldm(1)=   7.015105  celldm(2)=   0.000000  celldm(3)=   0.000000
     celldm(4)=   0.000000  celldm(5)=   0.000000  celldm(6)=   0.000000

     crystal axes: (cart. coord. in units of alat)
               a(1) = (   1.156145   0.000000   0.000000 )
               a(2) = (   0.000000   1.472192   0.000000 )
               a(3) = (   0.000000   0.000000   2.151282 )

     reciprocal axes: (cart. coord. in units 2 pi/alat)
               b(1) = (  0.864943  0.000000  0.000000 )
               b(2) = (  0.000000  0.679259  0.000000 )
               b(3) = (  0.000000  0.000000  0.464839 )

     PseudoPot. # 1 for Ce read from file:
     /home/jld5415/pp.La/Ce.UPF
     MD5 check sum: 44451aa79a44a00cf2bc029dc19922f6
     Pseudo is Norm-conserving, Zval = 12.0
     Generated in analytical, separable form
     Using radial grid of 1255 points,  6 beta functions with:
                l(1) =   0
                l(2) =   0
                l(3) =   1
                l(4) =   1
                l(5) =   2
                l(6) =   3

     PseudoPot. # 2 for Tm read from file:
     /home/jld5415/pp.La/Tm.UPF
     MD5 check sum: 245516e0878b5372ceeb9443ded2c4e1
     Pseudo is Norm-conserving, Zval = 23.0
     Generated in analytical, separable form
     Using radial grid of 1269 points,  6 beta functions with:
                l(1) =   0
                l(2) =   0
                l(3) =   1
                l(4) =   1
                l(5) =   2
                l(6) =   3

     atomic species   valence    mass     pseudopotential
        Co            12.00    58.93320     Ce( 1.00)
        Si            23.00    28.08550     Tm( 1.00)

      8 Sym. Ops., with inversion, found ( 6 have fractional translation)

   Cartesian axes

     site n.     atom                  positions (alat units)
         1           Co  tau(   1) = (   0.8671090   1.2151227   0.9358519  )
         2           Co  tau(   2) = (   0.2890363   0.2570694   1.2154296  )
         3           Co  tau(   3) = (   0.8671090   0.4790266   0.1397889  )
         4           Co  tau(   4) = (   0.2890363   0.9931654   2.0114927  )
         5           Co  tau(   5) = (   0.2890363   0.7945226   0.6014907  )
         6           Co  tau(   6) = (   0.8671090   0.6776695   1.5497908  )
         7           Co  tau(   7) = (   0.2890363   0.0584266   0.4741501  )
         8           Co  tau(   8) = (   0.8671090   1.4137655   1.6771315  )
         9           Si  tau(   9) = (   0.2890363   0.2948699   1.9221542  )
        10           Si  tau(  10) = (   0.8671090   1.1773222   0.2291273  )
        11           Si  tau(  11) = (   0.2890363   1.0309659   1.3047681  )
        12           Si  tau(  12) = (   0.8671090   0.4412261   0.8465134  )

     number of k points=    12  gaussian smearing, width (Ry)=  0.1000
                       cart. coord. in units 2pi/alat
        k(    1) = (   0.0000000   0.0000000   0.0000000), wk =   0.0833333
        k(    2) = (   0.0000000   0.0000000   0.1162098), wk =   0.1666667
        k(    3) = (   0.0000000   0.0000000  -0.2324196), wk =   0.0833333
        k(    4) = (   0.0000000   0.2264197   0.0000000), wk =   0.1666667
        k(    5) = (   0.0000000   0.2264197   0.1162098), wk =   0.3333333
        k(    6) = (   0.0000000   0.2264197  -0.2324196), wk =   0.1666667
        k(    7) = (  -0.4324716   0.0000000   0.0000000), wk =   0.0833333
        k(    8) = (  -0.4324716   0.0000000   0.1162098), wk =   0.1666667
        k(    9) = (  -0.4324716   0.0000000  -0.2324196), wk =   0.0833333
        k(   10) = (  -0.4324716   0.2264197   0.0000000), wk =   0.1666667
        k(   11) = (  -0.4324716   0.2264197   0.1162098), wk =   0.3333333
        k(   12) = (  -0.4324716   0.2264197  -0.2324196), wk =   0.1666667

     Largest allocated arrays     est. size (Mb)     dimensions
     Largest temporary arrays     est. size (Mb)     dimensions

     Initial potential from superposition of free atoms

     Starting from uniform charge
     Starting wfc are    0 randomized atomic wfcs

     Writing output data file Prototype-La-oP12-Co2Si.save

     Self-consistent Calculation

[...]

     iteration #  9     ecut=    40.00 Ry     beta=0.70
     CG style diagonalization
     c_bands:  1 eigenvalues not converged
     ethr =  1.08E-05,  avg # of iterations =  4.3

[...]

     total energy              =   -2083.30893155 Ry
     Harris-Foulkes estimate   =   -2083.30935483 Ry
     estimated scf accuracy    <       0.00073735 Ry

     iteration # 11     ecut=    40.00 Ry     beta=0.70
     CG style diagonalization
     ethr =  3.39E-07,  avg # of iterations =  3.8

     End of self-consistent calculation

[...]

          k = 0.0000 0.2264-0.2324 (  5406 PWs)   bands (ev):

[...]

          k =-0.4325 0.2264-0.2324 (  5432 PWs)   bands (ev):

   -79.2647 -79.2647 -79.2640 -79.2640 -38.0411 -38.0411 -38.0405 -38.0405
   -38.0274 -38.0274 -38.0244 -38.0244 -37.9743 -37.9743 -37.9689 -37.9689
    -5.6682  -5.6682  -5.3873  -5.3873  -5.1364  -5.1364  -4.9704  -4.9704
     9.1468   9.1468   9.2265   9.2265   9.3341   9.3341   9.3638   9.3638
     9.6088   9.6088   9.8429   9.8429  10.0416  10.0416  10.1924  10.1924
    10.2043  10.2043  10.5315  10.5315  11.0365  11.0365  11.3221  11.3221
    11.3258  11.3258  11.8831  11.8831  11.9117  11.9117  12.7733  12.7733
    13.4261  13.4261  13.8044  13.8044  14.2562  14.2562  14.3630  14.3630
    14.7075  14.7075  14.8912  14.8912  22.5111  22.5111  23.7142  23.7142
    27.2803  27.2803  27.7315  27.7315  28.4328  28.4328  28.8599  28.8599
    28.9329  28.9329  29.8495  29.8495  30.1276  30.1276  30.5659  30.5659
    31.2739  31.2739  32.0095  32.0095  32.0447  32.0447  33.5870  33.5870
    33.6261  33.6261  34.1728  34.1728  34.4873  34.4873  35.3131  35.3132
    35.5335  35.5336  35.8132  35.8133  36.1342  36.1342  36.8818  36.8819
    38.8298

     the Fermi energy is    32.7986 ev

!    total energy              =   -2083.30906599 Ry
     Harris-Foulkes estimate   =   -2083.30907249 Ry
     estimated scf accuracy    <       0.00000803 Ry

     The total energy is the sum of the following terms:

     one-electron contribution =    -292.57933476 Ry
     hartree contribution      =     315.22161993 Ry
     xc contribution           =    -208.79495108 Ry
     ewald contribution        =   -1896.69877866 Ry
     smearing contrib. (-TS)   =      -0.45762141 Ry

     convergence has been achieved in  11 iterations

     Forces acting on atoms (Ry/au):

     atom    1 type  1   force =     0.00000000   -0.05768579   -0.00357366
     atom    2 type  1   force =     0.00000000    0.05768579    0.00357366
     atom    3 type  1   force =     0.00000000   -0.05768579    0.00357366
     atom    4 type  1   force =     0.00000000    0.05768579   -0.00357366
     atom    5 type  1   force =     0.00000000    0.09219830   -0.13943596
     atom    6 type  1   force =     0.00000000   -0.09219830    0.13943596
     atom    7 type  1   force =     0.00000000    0.09219830    0.13943596
     atom    8 type  1   force =     0.00000000   -0.09219830   -0.13943596
     atom    9 type  2   force =     0.00000000   -0.08378189    0.01735351
     atom   10 type  2   force =     0.00000000    0.08378189   -0.01735351
     atom   11 type  2   force =     0.00000000   -0.08378189   -0.01735351
     atom   12 type  2   force =     0.00000000    0.08378189    0.01735351

     Total force =     0.392957     Total SCF correction =     0.000000

     entering subroutine stress ...

          total   stress  (Ry/bohr**3)                   (kbar)     P= 1602.51
   0.01208778   0.00000000   0.00000000       1778.17      0.00      0.00
   0.00000000   0.00985772   0.00000000          0.00   1450.12      0.00
   0.00000000   0.00000000   0.01073549          0.00      0.00   1579.24

     Writing output data file Prototype-La-oP12-Co2Si.save

     General routines

     Parallel routines

   This run was terminated on:   0:57:29  22Mar2018

   JOB DONE.