     Program PWSCF v.5.0.2 starts on 22Mar2018 at  0:39:38

     Current dimensions of program PWSCF are:
     Max number of different atomic species (ntypx) = 10
     Max number of k-points (npk) =  40000
     Max angular momentum in pseudopotentials (lmaxx) =  3
     Waiting for input...
     Reading input from standard input

     Subspace diagonalization in iterative solution of the eigenvalue problem:
     a serial algorithm will be used

     bravais-lattice index     =            0
     lattice parameter (alat)  =       8.5346  a.u.
     unit-cell volume          =     621.6493 (a.u.)^3
     number of atoms/cell      =            8
     number of atomic types    =            2
     number of electrons       =       118.00
     number of Kohn-Sham states=           71
     kinetic-energy cutoff     =      40.0000  Ry
     charge density cutoff     =     160.0000  Ry
     convergence threshold     =      1.0E-04
     mixing beta               =       0.7000
     number of iterations used =            8  plain     mixing
     Exchange-correlation      = SLA-PZ-NOGX-NOGC ( 1 1 0 0 0)
     EXX-fraction              =        0.00
     nstep                     =           50

     celldm(1)=   8.534573  celldm(2)=   0.000000  celldm(3)=   0.000000
     celldm(4)=   0.000000  celldm(5)=   0.000000  celldm(6)=   0.000000

     crystal axes: (cart. coord. in units of alat)
               a(1) = (   1.000000   0.000000   0.000000 )
               a(2) = (   0.000000   1.000000   0.000000 )
               a(3) = (   0.000000   0.000000   1.000000 )

     reciprocal axes: (cart. coord. in units 2 pi/alat)
               b(1) = (  1.000000  0.000000  0.000000 )
               b(2) = (  0.000000  1.000000  0.000000 )
               b(3) = (  0.000000  0.000000  1.000000 )

     PseudoPot. # 1 for Ce read from file:
     /home/jld5415/pp.La/Ce.UPF
     MD5 check sum: 44451aa79a44a00cf2bc029dc19922f6
     Pseudo is Norm-conserving, Zval = 12.0
     Generated in analytical, separable form
     Using radial grid of 1255 points,  6 beta functions with:
                l(1) =   0
                l(2) =   0
                l(3) =   1
                l(4) =   1
                l(5) =   2
                l(6) =   3

     PseudoPot. # 2 for Tm read from file:
     /home/jld5415/pp.La/Tm.UPF
     MD5 check sum: 245516e0878b5372ceeb9443ded2c4e1
     Pseudo is Norm-conserving, Zval = 23.0
     Generated in analytical, separable form
     Using radial grid of 1269 points,  6 beta functions with:
                l(1) =   0
                l(2) =   0
                l(3) =   1
                l(4) =   1
                l(5) =   2
                l(6) =   3

     atomic species   valence    mass     pseudopotential
        Cr            12.00    51.99610     Ce( 1.00)
        Si            23.00    28.08550     Tm( 1.00)

     48 Sym. Ops., with inversion, found (24 have fractional translation)

   Cartesian axes

     site n.     atom                  positions (alat units)
         1           Cr  tau(   1) = (   0.0000000   0.5000000   0.2500000  )
         2           Cr  tau(   2) = (   0.0000000   0.5000000   0.7500000  )
         3           Cr  tau(   3) = (   0.5000000   0.7500000   0.0000000  )
         4           Cr  tau(   4) = (   0.5000000   0.2500000   0.0000000  )
         5           Cr  tau(   5) = (   0.7500000   0.0000000   0.5000000  )
         6           Cr  tau(   6) = (   0.2500000   0.0000000   0.5000000  )
         7           Si  tau(   7) = (   0.5000000   0.5000000   0.5000000  )
         8           Si  tau(   8) = (   0.0000000   0.0000000   0.0000000  )

     number of k points=    48  gaussian smearing, width (Ry)=  0.1000
                       cart. coord. in units 2pi/alat
        k(    1) = (   0.0000000   0.0000000   0.0000000), wk =   0.0095238
        k(    2) = (   0.0000000   0.0000000   0.1428571), wk =   0.0190476
        k(    3) = (   0.0000000   0.0000000   0.2857143), wk =   0.0190476
        k(    4) = (   0.0000000   0.0000000   0.4285714), wk =   0.0190476
        k(    5) = (   0.0000000   0.1666667   0.0000000), wk =   0.0190476
        k(    6) = (   0.0000000   0.1666667   0.1428571), wk =   0.0380952
        k(    7) = (   0.0000000   0.1666667   0.2857143), wk =   0.0380952
        k(    8) = (   0.0000000   0.1666667   0.4285714), wk =   0.0380952
        k(    9) = (   0.0000000   0.3333333   0.0000000), wk =   0.0190476
        k(   10) = (   0.0000000   0.3333333   0.1428571), wk =   0.0380952
        k(   11) = (   0.0000000   0.3333333   0.2857143), wk =   0.0380952
        k(   12) = (   0.0000000   0.3333333   0.4285714), wk =   0.0380952
        k(   13) = (   0.0000000  -0.5000000   0.0000000), wk =   0.0095238
        k(   14) = (   0.0000000  -0.5000000   0.1428571), wk =   0.0190476
        k(   15) = (   0.0000000  -0.5000000   0.2857143), wk =   0.0190476
        k(   16) = (   0.0000000  -0.5000000   0.4285714), wk =   0.0190476
        k(   17) = (   0.2000000   0.0000000   0.0000000), wk =   0.0190476
        k(   18) = (   0.2000000   0.0000000   0.1428571), wk =   0.0380952
        k(   19) = (   0.2000000   0.0000000   0.2857143), wk =   0.0380952
        k(   20) = (   0.2000000   0.0000000   0.4285714), wk =   0.0380952
        k(   21) = (   0.2000000   0.1666667   0.0000000), wk =   0.0380952
        k(   22) = (   0.2000000   0.1666667   0.1428571), wk =   0.0761905
        k(   23) = (   0.2000000   0.1666667   0.2857143), wk =   0.0761905
        k(   24) = (   0.2000000   0.1666667   0.4285714), wk =   0.0761905
        k(   25) = (   0.2000000   0.3333333   0.0000000), wk =   0.0380952
        k(   26) = (   0.2000000   0.3333333   0.1428571), wk =   0.0761905
        k(   27) = (   0.2000000   0.3333333   0.2857143), wk =   0.0761905
        k(   28) = (   0.2000000   0.3333333   0.4285714), wk =   0.0761905
        k(   29) = (   0.2000000  -0.5000000   0.0000000), wk =   0.0190476
        k(   30) = (   0.2000000  -0.5000000   0.1428571), wk =   0.0380952
        k(   31) = (   0.2000000  -0.5000000   0.2857143), wk =   0.0380952
        k(   32) = (   0.2000000  -0.5000000   0.4285714), wk =   0.0380952
        k(   33) = (   0.4000000   0.0000000   0.0000000), wk =   0.0190476
        k(   34) = (   0.4000000   0.0000000   0.1428571), wk =   0.0380952
        k(   35) = (   0.4000000   0.0000000   0.2857143), wk =   0.0380952
        k(   36) = (   0.4000000   0.0000000   0.4285714), wk =   0.0380952
        k(   37) = (   0.4000000   0.1666667   0.0000000), wk =   0.0380952
        k(   38) = (   0.4000000   0.1666667   0.1428571), wk =   0.0761905
        k(   39) = (   0.4000000   0.1666667   0.2857143), wk =   0.0761905
        k(   40) = (   0.4000000   0.1666667   0.4285714), wk =   0.0761905
        k(   41) = (   0.4000000   0.3333333   0.0000000), wk =   0.0380952
        k(   42) = (   0.4000000   0.3333333   0.1428571), wk =   0.0761905
        k(   43) = (   0.4000000   0.3333333   0.2857143), wk =   0.0761905
        k(   44) = (   0.4000000   0.3333333   0.4285714), wk =   0.0761905
        k(   45) = (   0.4000000  -0.5000000   0.0000000), wk =   0.0190476
        k(   46) = (   0.4000000  -0.5000000   0.1428571), wk =   0.0380952
        k(   47) = (   0.4000000  -0.5000000   0.2857143), wk =   0.0380952
        k(   48) = (   0.4000000  -0.5000000   0.4285714), wk =   0.0380952

     Largest allocated arrays     est. size (Mb)     dimensions
     Largest temporary arrays     est. size (Mb)     dimensions

     Initial potential from superposition of free atoms

     Starting from uniform charge
     Starting wfc are    0 randomized atomic wfcs

     Self-consistent Calculation

     iteration #  1     ecut=    40.00 Ry     beta=0.70
     CG style diagonalization
     c_bands:  1 eigenvalues not converged
     c_bands:  1 eigenvalues not converged
     ethr =  1.00E-02,  avg # of iterations = 12.7

     total energy              =    -453.16053231 Ry
     Harris-Foulkes estimate   =   -1584.28744969 Ry
     estimated scf accuracy    <    1332.17778445 Ry

[...]

     iteration #  4     ecut=    40.00 Ry     beta=0.70
     CG style diagonalization
     ethr =  1.00E-02,  avg # of iterations =  4.2

[...]

     End of self-consistent calculation

          k = 0.0000 0.0000 0.0000 (  2601 PWs)   bands (ev):

   -69.5067 -69.4435 -28.4447 -28.4447 -28.4447 -28.4165 -28.4165 -28.4165
     0.2366   2.5922   2.5922   6.2383   6.2383   6.2383  13.9353  13.9353
    15.5452  17.4099  17.4099  17.4099  17.4600  17.4600  17.4600  18.8353
    18.8353  18.8353  20.1464  20.1464  20.9465  20.9465  22.4206  22.4206
    22.4206  24.8195  24.8195  24.8195  25.5955  25.5955  25.5955  29.7552
    29.7553  29.7553  30.7701  31.0462  34.0741  34.0742  34.0741  36.0071
    37.6302  37.6302  37.6302  40.9411  40.9978  40.9977  42.8210  42.8210
    43.0682  43.0682  43.0682  45.2499  45.2499  45.2499  45.7694  45.7694
    45.7695  48.4592  48.5466  48.5464  48.5464  51.2191  51.2320

[...]

     the Fermi energy is    43.6336 ev

!    total energy              =   -1190.28200740 Ry
     Harris-Foulkes estimate   =   -1190.28204680 Ry
     estimated scf accuracy    <       0.00004473 Ry

     The total energy is the sum of the following terms:

     one-electron contribution =      44.27888026 Ry
     hartree contribution      =     134.76097818 Ry
     xc contribution           =    -131.39618063 Ry
     ewald contribution        =   -1237.65581861 Ry
     smearing contrib. (-TS)   =      -0.26986660 Ry

     convergence has been achieved in   9 iterations

     Forces acting on atoms (Ry/au):

     atom    1 type  1   force =     0.00000000    0.00000000    0.00000000
     atom    2 type  1   force =     0.00000000    0.00000000    0.00000000
     atom    3 type  1   force =     0.00000000    0.00000000    0.00000000
     atom    4 type  1   force =     0.00000000    0.00000000    0.00000000
     atom    5 type  1   force =     0.00000000    0.00000000    0.00000000
     atom    6 type  1   force =     0.00000000    0.00000000    0.00000000
     atom    7 type  2   force =     0.00000000    0.00000000    0.00000000
     atom    8 type  2   force =     0.00000000    0.00000000    0.00000000

     Total force =     0.000000     Total SCF correction =     0.000000

     entering subroutine stress ...

          total   stress  (Ry/bohr**3)                   (kbar)     P= 5173.05
   0.03516566   0.00000000   0.00000000       5173.05      0.00      0.00
   0.00000000   0.03516566   0.00000000          0.00   5173.05      0.00
   0.00000000   0.00000000   0.03516566          0.00      0.00   5173.05

     BFGS Geometry Optimization

     number of scf cycles    =   1
     number of bfgs steps    =   0

     enthalpy new            =   -1190.2820074009 Ry

     new trust radius        =       0.5000000000 bohr
     new conv_thr            =       0.0001000000 Ry

     new unit-cell volume =    828.02266 a.u.^3 (   122.70030 Ang^3 )

CELL_PARAMETERS (alat=  8.53457320)
   1.100269143   0.000000000   0.000000000
   0.000000000   1.100269143   0.000000000
   0.000000000   0.000000000   1.100269143

ATOMIC_POSITIONS (crystal)
[...]

     CASE: enthalpy_new < enthalpy_old

     small trust_radius: resetting bfgs history

     new trust radius        =       1.3204227276 bohr
     new conv_thr            =       0.0000010000 Ry

[...]

          total   stress  (Ry/bohr**3)                   (kbar)     P=-1607.46
  -0.01092730   0.00000000   0.00000000      -1607.46      0.00      0.00
   0.00000000  -0.01092730   0.00000000          0.00  -1607.46      0.00
   0.00000000   0.00000000  -0.01092730          0.00      0.00  -1607.46

     number of scf cycles    =   3
     number of bfgs steps    =   2

     enthalpy old            =   -1194.4096678872 Ry
     enthalpy new            =   -1191.4860438876 Ry

     CASE: enthalpy_new > enthalpy_old

     new trust radius        =       0.4695732284 bohr

     trust_radius < trust_radius_min

     resetting bfgs history

     Message from routine bfgs:
     history already reset at previous step: stopping
     new conv_thr            =       0.0000010000 Ry

     new unit-cell volume =   1038.31067 a.u.^3 (   153.86176 Ang^3 )

[...]

ATOMIC_POSITIONS (crystal)
Cr       0.000000000   0.500000000   0.250000000
Cr       0.000000000   0.500000000   0.750000000
Cr       0.500000000   0.750000000   0.000000000
Cr       0.500000000   0.250000000   0.000000000
Cr       0.750000000   0.000000000   0.500000000
Cr       0.250000000   0.000000000   0.500000000
Si       0.500000000   0.500000000   0.500000000
Si       0.000000000   0.000000000   0.000000000

     Writing output data file Prototype-La-cP8-Cr3Si.save
     NEW-OLD atomic charge density approx. for the potential
     NEW k-points:
        k(    1) = (   0.0000000   0.0000000   0.0000000), wk =   0.0095238
        k(    2) = (   0.0000000   0.0000000   0.1204041), wk =   0.0190476
        k(    3) = (   0.0000000   0.0000000   0.2408082), wk =   0.0190476
        k(    4) = (   0.0000000   0.0000000   0.3612123), wk =   0.0190476
        k(    5) = (   0.0000000   0.1404715   0.0000000), wk =   0.0190476
        k(    6) = (   0.0000000   0.1404715   0.1204041), wk =   0.0380952
        k(    7) = (   0.0000000   0.1404715   0.2408082), wk =   0.0380952
        k(    8) = (   0.0000000   0.1404715   0.3612123), wk =   0.0380952
        k(    9) = (   0.0000000   0.2809429   0.0000000), wk =   0.0190476
        k(   10) = (   0.0000000   0.2809429   0.1204041), wk =   0.0380952
        k(   11) = (   0.0000000   0.2809429   0.2408082), wk =   0.0380952
        k(   12) = (   0.0000000   0.2809429   0.3612123), wk =   0.0380952
        k(   13) = (   0.0000000  -0.4214144   0.0000000), wk =   0.0095238
        k(   14) = (   0.0000000  -0.4214144   0.1204041), wk =   0.0190476
        k(   15) = (   0.0000000  -0.4214144   0.2408082), wk =   0.0190476
        k(   16) = (   0.0000000  -0.4214144   0.3612123), wk =   0.0190476
        k(   17) = (   0.1685658   0.0000000   0.0000000), wk =   0.0190476
        k(   18) = (   0.1685658   0.0000000   0.1204041), wk =   0.0380952
        k(   19) = (   0.1685658   0.0000000   0.2408082), wk =   0.0380952
        k(   20) = (   0.1685658   0.0000000   0.3612123), wk =   0.0380952
        k(   21) = (   0.1685658   0.1404715   0.0000000), wk =   0.0380952
        k(   22) = (   0.1685658   0.1404715   0.1204041), wk =   0.0761905
        k(   23) = (   0.1685658   0.1404715   0.2408082), wk =   0.0761905
        k(   24) = (   0.1685658   0.1404715   0.3612123), wk =   0.0761905
        k(   25) = (   0.1685658   0.2809429   0.0000000), wk =   0.0380952
        k(   26) = (   0.1685658   0.2809429   0.1204041), wk =   0.0761905
        k(   27) = (   0.1685658   0.2809429   0.2408082), wk =   0.0761905
        k(   28) = (   0.1685658   0.2809429   0.3612123), wk =   0.0761905
        k(   29) = (   0.1685658  -0.4214144   0.0000000), wk =   0.0190476
        k(   30) = (   0.1685658  -0.4214144   0.1204041), wk =   0.0380952
        k(   31) = (   0.1685658  -0.4214144   0.2408082), wk =   0.0380952
        k(   32) = (   0.1685658  -0.4214144   0.3612123), wk =   0.0380952
        k(   33) = (   0.3371315   0.0000000   0.0000000), wk =   0.0190476
        k(   34) = (   0.3371315   0.0000000   0.1204041), wk =   0.0380952
        k(   35) = (   0.3371315   0.0000000   0.2408082), wk =   0.0380952
        k(   36) = (   0.3371315   0.0000000   0.3612123), wk =   0.0380952
        k(   37) = (   0.3371315   0.1404715   0.0000000), wk =   0.0380952
        k(   38) = (   0.3371315   0.1404715   0.1204041), wk =   0.0761905
        k(   39) = (   0.3371315   0.1404715   0.2408082), wk =   0.0761905
        k(   40) = (   0.3371315   0.1404715   0.3612123), wk =   0.0761905
        k(   41) = (   0.3371315   0.2809429   0.0000000), wk =   0.0380952
        k(   42) = (   0.3371315   0.2809429   0.1204041), wk =   0.0761905
        k(   43) = (   0.3371315   0.2809429   0.2408082), wk =   0.0761905
        k(   44) = (   0.3371315   0.2809429   0.3612123), wk =   0.0761905
        k(   45) = (   0.3371315  -0.4214144   0.0000000), wk =   0.0190476
        k(   46) = (   0.3371315  -0.4214144   0.1204041), wk =   0.0380952
        k(   47) = (   0.3371315  -0.4214144   0.2408082), wk =   0.0380952
        k(   48) = (   0.3371315  -0.4214144   0.3612123), wk =   0.0380952

[...]

     The maximum number of steps has been reached.

     End of BFGS Geometry Optimization
Begin final coordinates
     new unit-cell volume =   1038.31067 a.u.^3 (   153.86176 Ang^3 )

CELL_PARAMETERS (alat=  8.53457320)
   1.186480572   0.000000000   0.000000000
   0.000000000   1.186480572   0.000000000
   0.000000000   0.000000000   1.186480572

ATOMIC_POSITIONS (crystal)
Cr       0.000000000   0.500000000   0.250000000
Cr       0.000000000   0.500000000   0.750000000
Cr       0.500000000   0.750000000   0.000000000
Cr       0.500000000   0.250000000   0.000000000
Cr       0.750000000   0.000000000   0.500000000
Cr       0.250000000   0.000000000   0.500000000
Si       0.500000000   0.500000000   0.500000000
Si       0.000000000   0.000000000   0.000000000
End final coordinates

     A final scf calculation at the relaxed structure.
     The G-vectors are recalculated for the final unit cell
     Results may differ from those at the preceding step.

     bravais-lattice index     =            0
     lattice parameter (alat)  =       8.5346  a.u.
     unit-cell volume          =    1038.3107 (a.u.)^3
     number of atoms/cell      =            8
     number of atomic types    =            2
     number of electrons       =       118.00
     number of Kohn-Sham states=           71
     kinetic-energy cutoff     =      40.0000  Ry
     charge density cutoff     =     160.0000  Ry
     convergence threshold     =      1.0E-06
     mixing beta               =       0.7000
     number of iterations used =            8  plain     mixing
     Exchange-correlation      = SLA-PZ-NOGX-NOGC ( 1 1 0 0 0)
     EXX-fraction              =        0.00

     celldm(1)=   8.534573  celldm(2)=   0.000000  celldm(3)=   0.000000
     celldm(4)=   0.000000  celldm(5)=   0.000000  celldm(6)=   0.000000

     crystal axes: (cart. coord. in units of alat)
               a(1) = (   1.186481   0.000000   0.000000 )
               a(2) = (   0.000000   1.186481   0.000000 )
               a(3) = (   0.000000   0.000000   1.186481 )

     reciprocal axes: (cart. coord. in units 2 pi/alat)
               b(1) = (  0.842829  0.000000  0.000000 )
               b(2) = (  0.000000  0.842829  0.000000 )
               b(3) = (  0.000000  0.000000  0.842829 )

     PseudoPot. # 1 for Ce read from file:
     /home/jld5415/pp.La/Ce.UPF
     MD5 check sum: 44451aa79a44a00cf2bc029dc19922f6
     Pseudo is Norm-conserving, Zval = 12.0
     Generated in analytical, separable form
     Using radial grid of 1255 points,  6 beta functions with:
                l(1) =   0
                l(2) =   0
                l(3) =   1
                l(4) =   1
                l(5) =   2
                l(6) =   3

     PseudoPot. # 2 for Tm read from file:
     /home/jld5415/pp.La/Tm.UPF
     MD5 check sum: 245516e0878b5372ceeb9443ded2c4e1
     Pseudo is Norm-conserving, Zval = 23.0
     Generated in analytical, separable form
     Using radial grid of 1269 points,  6 beta functions with:
                l(1) =   0
                l(2) =   0
                l(3) =   1
                l(4) =   1
                l(5) =   2
                l(6) =   3

     atomic species   valence    mass     pseudopotential
        Cr            12.00    51.99610     Ce( 1.00)
        Si            23.00    28.08550     Tm( 1.00)

     48 Sym. Ops., with inversion, found (24 have fractional translation)

   Cartesian axes

     site n.     atom                  positions (alat units)
         1           Cr  tau(   1) = (   0.0000000   0.5932403   0.2966201  )
         2           Cr  tau(   2) = (   0.0000000   0.5932403   0.8898604  )
         3           Cr  tau(   3) = (   0.5932403   0.8898604   0.0000000  )
         4           Cr  tau(   4) = (   0.5932403   0.2966201   0.0000000  )
         5           Cr  tau(   5) = (   0.8898604   0.0000000   0.5932403  )
         6           Cr  tau(   6) = (   0.2966201   0.0000000   0.5932403  )
         7           Si  tau(   7) = (   0.5932403   0.5932403   0.5932403  )
         8           Si  tau(   8) = (   0.0000000   0.0000000   0.0000000  )

     number of k points=    48  gaussian smearing, width (Ry)=  0.1000
                       cart. coord. in units 2pi/alat
        k(    1) = (   0.0000000   0.0000000   0.0000000), wk =   0.0095238
        k(    2) = (   0.0000000   0.0000000   0.1204041), wk =   0.0190476
        k(    3) = (   0.0000000   0.0000000   0.2408082), wk =   0.0190476
        k(    4) = (   0.0000000   0.0000000   0.3612123), wk =   0.0190476
        k(    5) = (   0.0000000   0.1404715   0.0000000), wk =   0.0190476
        k(    6) = (   0.0000000   0.1404715   0.1204041), wk =   0.0380952
        k(    7) = (   0.0000000   0.1404715   0.2408082), wk =   0.0380952
        k(    8) = (   0.0000000   0.1404715   0.3612123), wk =   0.0380952
        k(    9) = (   0.0000000   0.2809429   0.0000000), wk =   0.0190476
        k(   10) = (   0.0000000   0.2809429   0.1204041), wk =   0.0380952
        k(   11) = (   0.0000000   0.2809429   0.2408082), wk =   0.0380952
        k(   12) = (   0.0000000   0.2809429   0.3612123), wk =   0.0380952
        k(   13) = (   0.0000000  -0.4214144   0.0000000), wk =   0.0095238
        k(   14) = (   0.0000000  -0.4214144   0.1204041), wk =   0.0190476
        k(   15) = (   0.0000000  -0.4214144   0.2408082), wk =   0.0190476
        k(   16) = (   0.0000000  -0.4214144   0.3612123), wk =   0.0190476
        k(   17) = (   0.1685658   0.0000000   0.0000000), wk =   0.0190476
        k(   18) = (   0.1685658   0.0000000   0.1204041), wk =   0.0380952
        k(   19) = (   0.1685658   0.0000000   0.2408082), wk =   0.0380952
        k(   20) = (   0.1685658   0.0000000   0.3612123), wk =   0.0380952
        k(   21) = (   0.1685658   0.1404715   0.0000000), wk =   0.0380952
        k(   22) = (   0.1685658   0.1404715   0.1204041), wk =   0.0761905
        k(   23) = (   0.1685658   0.1404715   0.2408082), wk =   0.0761905
        k(   24) = (   0.1685658   0.1404715   0.3612123), wk =   0.0761905
        k(   25) = (   0.1685658   0.2809429   0.0000000), wk =   0.0380952
        k(   26) = (   0.1685658   0.2809429   0.1204041), wk =   0.0761905
        k(   27) = (   0.1685658   0.2809429   0.2408082), wk =   0.0761905
        k(   28) = (   0.1685658   0.2809429   0.3612123), wk =   0.0761905
        k(   29) = (   0.1685658  -0.4214144   0.0000000), wk =   0.0190476
        k(   30) = (   0.1685658  -0.4214144   0.1204041), wk =   0.0380952
        k(   31) = (   0.1685658  -0.4214144   0.2408082), wk =   0.0380952
        k(   32) = (   0.1685658  -0.4214144   0.3612123), wk =   0.0380952
        k(   33) = (   0.3371315   0.0000000   0.0000000), wk =   0.0190476
        k(   34) = (   0.3371315   0.0000000   0.1204041), wk =   0.0380952
        k(   35) = (   0.3371315   0.0000000   0.2408082), wk =   0.0380952
        k(   36) = (   0.3371315   0.0000000   0.3612123), wk =   0.0380952
        k(   37) = (   0.3371315   0.1404715   0.0000000), wk =   0.0380952
        k(   38) = (   0.3371315   0.1404715   0.1204041), wk =   0.0761905
        k(   39) = (   0.3371315   0.1404715   0.2408082), wk =   0.0761905
        k(   40) = (   0.3371315   0.1404715   0.3612123), wk =   0.0761905
        k(   41) = (   0.3371315   0.2809429   0.0000000), wk =   0.0380952
        k(   42) = (   0.3371315   0.2809429   0.1204041), wk =   0.0761905
        k(   43) = (   0.3371315   0.2809429   0.2408082), wk =   0.0761905
        k(   44) = (   0.3371315   0.2809429   0.3612123), wk =   0.0761905
        k(   45) = (   0.3371315  -0.4214144   0.0000000), wk =   0.0190476
        k(   46) = (   0.3371315  -0.4214144   0.1204041), wk =   0.0380952
        k(   47) = (   0.3371315  -0.4214144   0.2408082), wk =   0.0380952
        k(   48) = (   0.3371315  -0.4214144   0.3612123), wk =   0.0380952

     Largest allocated arrays     est. size (Mb)     dimensions
     Largest temporary arrays     est. size (Mb)     dimensions

     Initial potential from superposition of free atoms

     Starting from uniform charge
     Starting wfc are    0 randomized atomic wfcs

     Writing output data file Prototype-La-cP8-Cr3Si.save

     Self-consistent Calculation

[...]

     negative rho (up, down):  0.905E-04 0.000E+00

[...]

     negative rho (up, down):  0.115E-04 0.000E+00

[...]

     iteration # 13     ecut=    40.00 Ry     beta=0.70
     CG style diagonalization
     c_bands:  1 eigenvalues not converged
     c_bands:  1 eigenvalues not converged
     ethr =  6.36E-07,  avg # of iterations =  4.2

[...]

     total energy              =   -1197.57647183 Ry
     Harris-Foulkes estimate   =   -1197.57647252 Ry
     estimated scf accuracy    <       0.00000137 Ry

     iteration # 17     ecut=    40.00 Ry     beta=0.70
     CG style diagonalization
     ethr =  1.16E-09,  avg # of iterations =  3.7

     End of self-consistent calculation

[...]

          k = 0.3371-0.4214 0.3612 (  4452 PWs)   bands (ev):

   -85.7933 -85.7930 -44.4605 -44.4605 -44.4549 -44.4549 -44.4508 -44.4507
   -12.2346 -12.1936 -12.0417 -12.0389 -11.8952 -11.8473   4.0246   4.0307
     4.0508   4.0555   4.2379   4.2431   4.2648   4.2943   4.3677   4.3767
     4.4580   4.4612   4.5749   4.6869   5.1062   5.1118   5.4769   5.5374
     6.2524   6.2587   6.3734   6.4024   6.5468   6.6889   6.9315   6.9322
     6.9574   6.9577  16.5393  16.5394  21.1423  21.1519  21.4344  21.5188
    21.6240  21.6645  23.8037  23.8074  24.0599  24.1089  24.1481  24.2739
    25.3403  25.3616  25.6797  25.7063  26.3825  26.4743  26.7485  26.9464
    27.3973  27.4505  28.7924  28.8580  29.1536  29.2580  29.6377

     the Fermi energy is    25.5450 ev

!    total energy              =   -1197.57647201 Ry
     Harris-Foulkes estimate   =   -1197.57647210 Ry
     estimated scf accuracy    <       0.00000011 Ry

     The total energy is the sum of the following terms:

     one-electron contribution =    -225.51732108 Ry
     hartree contribution      =     194.79548906 Ry
     xc contribution           =    -123.31351856 Ry
     ewald contribution        =   -1043.13197222 Ry
     smearing contrib. (-TS)   =      -0.40914922 Ry

     convergence has been achieved in  17 iterations

     Forces acting on atoms (Ry/au):

     atom    1 type  1   force =     0.00000000    0.00000000    0.00000000
     atom    2 type  1   force =     0.00000000    0.00000000    0.00000000
     atom    3 type  1   force =     0.00000000    0.00000000    0.00000000
     atom    4 type  1   force =     0.00000000    0.00000000    0.00000000
     atom    5 type  1   force =     0.00000000    0.00000000    0.00000000
     atom    6 type  1   force =     0.00000000    0.00000000    0.00000000
     atom    7 type  2   force =     0.00000000    0.00000000    0.00000000
     atom    8 type  2   force =     0.00000000    0.00000000    0.00000000

     Total force =     0.000000     Total SCF correction =     0.000000

     entering subroutine stress ...

          total   stress  (Ry/bohr**3)                   (kbar)     P=  556.96
   0.00378615   0.00000000   0.00000000        556.96      0.00      0.00
   0.00000000   0.00378615   0.00000000          0.00    556.96      0.00
   0.00000000   0.00000000   0.00378615          0.00      0.00    556.96

     Writing output data file Prototype-La-cP8-Cr3Si.save

     General routines

     Parallel routines

   This run was terminated on:   1: 2: 9  22Mar2018

   JOB DONE.