     Program PWSCF v.5.0.2 starts on 22Mar2018 at 16: 4: 6

     Current dimensions of program PWSCF are:
     Max number of different atomic species (ntypx) = 10
     Max number of k-points (npk) =  40000
     Max angular momentum in pseudopotentials (lmaxx) =  3
     Waiting for input...
     Reading input from standard input

     Subspace diagonalization in iterative solution of the eigenvalue problem:
     a serial algorithm will be used

     bravais-lattice index     =            0
     lattice parameter (alat)  =       9.9235  a.u.
     unit-cell volume          =    1361.0366 (a.u.)^3
     number of atoms/cell      =           12
     number of atomic types    =            2
     number of electrons       =       252.00
     number of Kohn-Sham states=          151
     kinetic-energy cutoff     =      40.0000  Ry
     charge density cutoff     =     160.0000  Ry
     convergence threshold     =      1.0E-04
     mixing beta               =       0.7000
     number of iterations used =            8  plain     mixing
     Exchange-correlation      = SLA-PZ-NOGX-NOGC ( 1 1 0 0 0)
     EXX-fraction              =        0.00
     nstep                     =           50

     celldm(1)=   9.923489  celldm(2)=   0.000000  celldm(3)=   0.000000
     celldm(4)=   0.000000  celldm(5)=   0.000000  celldm(6)=   0.000000

     crystal axes: (cart. coord. in units of alat)
               a(1) = (   1.000000   0.000000   0.000000 )
               a(2) = (  -0.500000   0.866025   0.000000 )
               a(3) = (   0.000000   0.000000   1.608222 )

     reciprocal axes: (cart. coord. in units 2 pi/alat)
               b(1) = (  1.000000  0.577350  0.000000 )
               b(2) = (  0.000000  1.154701  0.000000 )
               b(3) = (  0.000000  0.000000  0.621805 )

     PseudoPot. # 1 for Tm read from file:
     /home/cwx6513/pp.La/Tm.UPF
     MD5 check sum: 245516e0878b5372ceeb9443ded2c4e1
     Pseudo is Norm-conserving, Zval = 23.0
     Generated in analytical, separable form
     Using radial grid of 1269 points,  6 beta functions with:
                l(1) =   0
                l(2) =   0
                l(3) =   1
                l(4) =   1
                l(5) =   2
                l(6) =   3

     PseudoPot. # 2 for Dy read from file:
     /home/cwx6513/pp.La/Dy.UPF
     MD5 check sum: 9597327bec62616a94a14d07f3fd9936
     Pseudo is Norm-conserving, Zval = 20.0
     Generated in analytical, separable form
     Using radial grid of 1265 points,  6 beta functions with:
                l(1) =   0
                l(2) =   0
                l(3) =   1
                l(4) =   1
                l(5) =   2
                l(6) =   3

     atomic species   valence    mass     pseudopotential
        Mg            23.00    24.30500     Tm( 1.00)
        Zn            20.00    65.39000     Dy( 1.00)

     24 Sym. Ops., with inversion, found (12 have fractional translation)

   Cartesian axes

     site n.     atom                  positions (alat units)
         1           Mg  tau(   1) = (  -0.0000005   0.5773506   0.1003820  )
         2           Mg  tau(   2) = (   0.5000005   0.2886748   0.9044931  )
         3           Mg  tau(   3) = (   0.5000005   0.2886748   1.5078402  )
         4           Mg  tau(   4) = (  -0.0000005   0.5773506   0.7037291  )
         5           Zn  tau(   5) = (   0.0000000   0.0000000   0.0000000  )
         6           Zn  tau(   6) = (   0.0000000   0.0000000   0.8041111  )
         7           Zn  tau(   7) = (   0.0000000   0.2950739   1.2061667  )
         8           Zn  tau(   8) = (   0.7444585   0.1475370   0.4020556  )
         9           Zn  tau(   9) = (   0.2555415   0.1475370   0.4020556  )
        10           Zn  tau(  10) = (   0.2444585   0.7184884   1.2061667  )
        11           Zn  tau(  11) = (  -0.2444585   0.7184884   1.2061667  )
        12           Zn  tau(  12) = (   0.5000000   0.5709515   0.4020556  )

     number of k points=    12  gaussian smearing, width (Ry)=  0.1000
                       cart. coord. in units 2pi/alat
        k(    1) = (   0.0000000   0.0000000   0.0000000), wk =   0.0833333
        k(    2) = (   0.0000000   0.0000000   0.1554512), wk =   0.1666667
        k(    3) = (   0.0000000   0.0000000  -0.3109023), wk =   0.0833333
        k(    4) = (   0.0000000   0.3849002   0.0000000), wk =   0.1666667
        k(    5) = (   0.0000000   0.3849002   0.1554512), wk =   0.3333333
        k(    6) = (   0.0000000   0.3849002  -0.3109023), wk =   0.1666667
        k(    7) = (  -0.5000000  -0.2886751   0.0000000), wk =   0.0833333
        k(    8) = (  -0.5000000  -0.2886751   0.1554512), wk =   0.1666667
        k(    9) = (  -0.5000000  -0.2886751  -0.3109023), wk =   0.0833333
        k(   10) = (  -0.5000000   0.0962250   0.0000000), wk =   0.1666667
        k(   11) = (  -0.5000000   0.0962250   0.1554512), wk =   0.3333333
        k(   12) = (  -0.5000000   0.0962250  -0.3109023), wk =   0.1666667

     Largest allocated arrays     est. size (Mb)     dimensions
     Largest temporary arrays     est. size (Mb)     dimensions

     Initial potential from superposition of free atoms

     Starting from uniform charge
     Starting wfc are    0 randomized atomic wfcs

     Self-consistent Calculation

     iteration #  1     ecut=    40.00 Ry     beta=0.70
     CG style diagonalization
     ethr =  1.00E-02,  avg # of iterations = 17.9

     total energy              =   -3133.76287910 Ry
     Harris-Foulkes estimate   =   -4331.53108839 Ry
     estimated scf accuracy    <    1511.79671026 Ry

     iteration #  2     ecut=    40.00 Ry     beta=0.70
     CG style diagonalization
     c_bands:  1 eigenvalues not converged
     ethr =  1.00E-02,  avg # of iterations =  8.3

[...]

     End of self-consistent calculation

          k = 0.0000 0.0000 0.0000 (  5769 PWs)   bands (ev):

   -77.6670 -77.6526 -77.6467 -77.6049 -50.9631 -50.9131 -50.8312 -50.7532
   -50.7490 -50.7489 -50.7433 -50.7432 -36.3823 -36.3715 -36.3714 -36.3663
   -36.3514 -36.3513 -36.3413 -36.3279 -36.3279 -36.3188 -36.3188 -36.3164
   -19.1819 -18.9399 -18.5914 -18.2424 -18.2423 -18.1858 -18.1858 -18.1078
   -18.1077 -17.9102 -17.9040 -17.7490 -17.7489 -17.7435 -17.7435 -17.4150
   -17.4032 -17.4032 -17.3917 -17.3904 -17.3904 -17.3799 -17.3468 -17.3467
    12.2265  12.2265  12.2599  12.2727  12.2861  12.2861  12.3485  12.3485
    12.4173  12.4173  12.6222  12.6223  12.6553  12.7076  12.7076  12.7121
    12.7380  12.7380  12.7807  12.7807  17.5093  17.7187  18.2183  18.3130
    19.7460  19.7460  19.7980  19.9124  19.9124  20.0063  20.0063  20.0174
    20.3327  20.7686  20.7686  20.8798  21.7927  21.7927  21.8573  21.8573
    22.6499  22.6500  22.9336  23.2100  23.6075  23.6076  24.1879  24.4290
    24.5598  24.6305  24.6306  24.6465  24.6465  24.7973  24.7973  24.8248
    24.8248  26.1478  26.1479  26.6334  26.6502  26.6502  27.3261  27.7536
    27.7563  28.9428  29.2505  29.2506  29.4741  29.6836  29.6837  30.8559
    31.3360  31.3362  31.6577  32.4492  32.4934  32.4936  33.0460  34.3059
    34.3059  36.1503  36.1503  36.2183  36.8022  37.7530  37.7531  37.9397
    37.9398  38.3149  38.4022  38.4525  38.4526  39.1041  39.2021  39.2022
    39.3319  39.3320  40.1585  40.7352  40.8355  41.1070  41.1081

[...]

          k =-0.5000-0.2887 0.0000 (  5800 PWs)   bands (ev):

[...]

     the Fermi energy is    34.8290 ev

!    total energy              =   -3550.47533143 Ry
     Harris-Foulkes estimate   =   -3550.47534933 Ry
     estimated scf accuracy    <       0.00002004 Ry

     The total energy is the sum of the following terms:

     one-electron contribution =    -598.84694177 Ry
     hartree contribution      =     513.00747331 Ry
     xc contribution           =    -315.64494062 Ry
     ewald contribution        =   -3148.70011156 Ry
     smearing contrib. (-TS)   =      -0.29081078 Ry

     convergence has been achieved in  11 iterations

     Forces acting on atoms (Ry/au):

     atom    1 type  1   force =     0.00000000    0.00000000    0.02081651
     atom    2 type  1   force =     0.00000000    0.00000000    0.02081651
     atom    3 type  1   force =     0.00000000    0.00000000   -0.02081651
     atom    4 type  1   force =     0.00000000    0.00000000   -0.02081651
     atom    5 type  2   force =     0.00000000    0.00000000    0.00000000
     atom    6 type  2   force =     0.00000000    0.00000000    0.00000000
     atom    7 type  2   force =     0.00000000    0.03230291    0.00000000
     atom    8 type  2   force =    -0.02797514    0.01615145    0.00000000
     atom    9 type  2   force =     0.02797514    0.01615145    0.00000000
     atom   10 type  2   force =    -0.02797514   -0.01615145    0.00000000
     atom   11 type  2   force =     0.02797514   -0.01615145    0.00000000
     atom   12 type  2   force =     0.00000000   -0.03230291    0.00000000

     Total force =     0.089410     Total SCF correction =     0.000000

     entering subroutine stress ...

          total   stress  (Ry/bohr**3)                   (kbar)     P= 1021.13
   0.00681533   0.00000000   0.00000000       1002.57      0.00      0.00
   0.00000000   0.00681533   0.00000000          0.00   1002.57      0.00
   0.00000000   0.00000000   0.00719392          0.00      0.00   1058.26

     BFGS Geometry Optimization

     number of scf cycles    =   1
     number of bfgs steps    =   0

     enthalpy new            =   -3550.4753314330 Ry

     new trust radius        =       0.5000000000 bohr
     new conv_thr            =       0.0001000000 Ry

     new unit-cell volume =   1645.85278 a.u.^3 (   243.89022 Ang^3 )

CELL_PARAMETERS (alat=  9.92348860)
   1.064198776   0.000000000   0.000000000
  -0.532099388   0.921623175   0.000000000
   0.000000000   0.000000000   1.717203317

ATOMIC_POSITIONS (crystal)
Mg       0.333333000   0.666667000   0.062909470
Mg       0.666667000   0.333333000   0.562909470
Mg       0.666667000   0.333333000   0.937090530
Mg       0.333333000   0.666667000   0.437090530
Zn       0.000000000   0.000000000   0.000000000
Zn       0.000000000   0.000000000   0.500000000
Zn       0.171069135   0.342138271   0.750000000
Zn       0.828930865   0.171069135   0.250000000
Zn       0.342138271   0.171069135   0.250000000
Zn       0.657861729   0.828930865   0.750000000
Zn       0.171069135   0.828930865   0.750000000
Zn       0.828930865   0.657861729   0.250000000

     Writing output data file Prototype-La-hP12-MgZn2.save
     NEW-OLD atomic charge density approx. for the potential
     NEW k-points:
        k(    1) = (   0.0000000   0.0000000   0.0000000), wk =   0.0833333
        k(    2) = (   0.0000000   0.0000000   0.1455856), wk =   0.1666667
        k(    3) = (   0.0000000   0.0000000  -0.2911711), wk =   0.0833333
        k(    4) = (   0.0000000   0.3616807   0.0000000), wk =   0.1666667
        k(    5) = (   0.0000000   0.3616807   0.1455856), wk =   0.3333333
        k(    6) = (   0.0000000   0.3616807  -0.2911711), wk =   0.1666667
        k(    7) = (  -0.4698370  -0.2712605   0.0000000), wk =   0.0833333
        k(    8) = (  -0.4698370  -0.2712605   0.1455856), wk =   0.1666667
        k(    9) = (  -0.4698370  -0.2712605  -0.2911711), wk =   0.0833333
        k(   10) = (  -0.4698370   0.0904202   0.0000000), wk =   0.1666667
        k(   11) = (  -0.4698370   0.0904202   0.1455856), wk =   0.3333333
        k(   12) = (  -0.4698370   0.0904202  -0.2911711), wk =   0.1666667

[...]

     enthalpy old            =   -3550.4753314330 Ry
     enthalpy new            =   -3550.9796278226 Ry

     CASE: enthalpy_new < enthalpy_old

     small trust_radius: resetting bfgs history

     new trust radius        =       0.4639968946 bohr
     new conv_thr            =       0.0000155240 Ry

[...]

     number of scf cycles    =   3
     number of bfgs steps    =   2

     enthalpy old            =   -3550.9796278226 Ry
     enthalpy new            =   -3550.6103685861 Ry

     CASE: enthalpy_new > enthalpy_old

     new trust radius        =       0.1426618979 bohr

     trust_radius < trust_radius_min

     resetting bfgs history

     Message from routine bfgs:
     history already reset at previous step: stopping
     new conv_thr            =       0.0000155240 Ry

     new unit-cell volume =   1366.64018 a.u.^3 (   202.51518 Ang^3 )

[...]

ATOMIC_POSITIONS (crystal)
Mg       0.333333000   0.666667000   0.063422842
Mg       0.666667000   0.333333000   0.563422842
Mg       0.666667000   0.333333000   0.936577158
Mg       0.333333000   0.666667000   0.436577158
Zn       0.000000000   0.000000000   0.000000000
Zn       0.000000000   0.000000000   0.500000000
Zn       0.172023916   0.344047832   0.750000000
Zn       0.827976084   0.172023916   0.250000000
Zn       0.344047832   0.172023916   0.250000000
Zn       0.655952168   0.827976084   0.750000000
Zn       0.172023916   0.827976084   0.750000000
Zn       0.827976084   0.655952168   0.250000000

     Writing output data file Prototype-La-hP12-MgZn2.save
     NEW-OLD atomic charge density approx. for the potential
     NEW k-points:
        k(    1) = (   0.0000000   0.0000000   0.0000000), wk =   0.0833333
        k(    2) = (   0.0000000   0.0000000   0.1547375), wk =   0.1666667
        k(    3) = (   0.0000000   0.0000000  -0.3094750), wk =   0.0833333
        k(    4) = (   0.0000000   0.3849950   0.0000000), wk =   0.1666667
        k(    5) = (   0.0000000   0.3849950   0.1547375), wk =   0.3333333
        k(    6) = (   0.0000000   0.3849950  -0.3094750), wk =   0.1666667
        k(    7) = (  -0.5001232  -0.2887463   0.0000000), wk =   0.0833333
        k(    8) = (  -0.5001232  -0.2887463   0.1547375), wk =   0.1666667
        k(    9) = (  -0.5001232  -0.2887463  -0.3094750), wk =   0.0833333
        k(   10) = (  -0.5001232   0.0962488   0.0000000), wk =   0.1666667
        k(   11) = (  -0.5001232   0.0962488   0.1547375), wk =   0.3333333
        k(   12) = (  -0.5001232   0.0962488  -0.3094750), wk =   0.1666667

[...]

     The maximum number of steps has been reached.

     End of BFGS Geometry Optimization
Begin final coordinates
     new unit-cell volume =   1366.64018 a.u.^3 (   202.51518 Ang^3 )

CELL_PARAMETERS (alat=  9.92348860)
   0.999753646   0.000000000   0.000000000
  -0.499876823   0.865812055   0.000000000
   0.000000000   0.000000000   1.615639403

ATOMIC_POSITIONS (crystal)
Mg       0.333333000   0.666667000   0.063422842
Mg       0.666667000   0.333333000   0.563422842
Mg       0.666667000   0.333333000   0.936577158
Mg       0.333333000   0.666667000   0.436577158
Zn       0.000000000   0.000000000   0.000000000
Zn       0.000000000   0.000000000   0.500000000
Zn       0.172023916   0.344047832   0.750000000
Zn       0.827976084   0.172023916   0.250000000
Zn       0.344047832   0.172023916   0.250000000
Zn       0.655952168   0.827976084   0.750000000
Zn       0.172023916   0.827976084   0.750000000
Zn       0.827976084   0.655952168   0.250000000
End final coordinates

     A final scf calculation at the relaxed structure.
     The G-vectors are recalculated for the final unit cell
     Results may differ from those at the preceding step.

     bravais-lattice index     =            0
     lattice parameter (alat)  =       9.9235  a.u.
     unit-cell volume          =    1366.6402 (a.u.)^3
     number of atoms/cell      =           12
     number of atomic types    =            2
     number of electrons       =       252.00
     number of Kohn-Sham states=          151
     kinetic-energy cutoff     =      40.0000  Ry
     charge density cutoff     =     160.0000  Ry
     convergence threshold     =      1.6E-05
     mixing beta               =       0.7000
     number of iterations used =            8  plain     mixing
     Exchange-correlation      = SLA-PZ-NOGX-NOGC ( 1 1 0 0 0)
     EXX-fraction              =        0.00

     celldm(1)=   9.923489  celldm(2)=   0.000000  celldm(3)=   0.000000
     celldm(4)=   0.000000  celldm(5)=   0.000000  celldm(6)=   0.000000

     crystal axes: (cart. coord. in units of alat)
               a(1) = (   0.999754   0.000000   0.000000 )
               a(2) = (  -0.499877   0.865812   0.000000 )
               a(3) = (   0.000000   0.000000   1.615639 )

     reciprocal axes: (cart. coord. in units 2 pi/alat)
               b(1) = (  1.000246  0.577493  0.000000 )
               b(2) = (  0.000000  1.154985  0.000000 )
               b(3) = (  0.000000  0.000000  0.618950 )

     PseudoPot. # 1 for Tm read from file:
     /home/cwx6513/pp.La/Tm.UPF
     MD5 check sum: 245516e0878b5372ceeb9443ded2c4e1
     Pseudo is Norm-conserving, Zval = 23.0
     Generated in analytical, separable form
     Using radial grid of 1269 points,  6 beta functions with:
                l(1) =   0
                l(2) =   0
                l(3) =   1
                l(4) =   1
                l(5) =   2
                l(6) =   3

     PseudoPot. # 2 for Dy read from file:
     /home/cwx6513/pp.La/Dy.UPF
     MD5 check sum: 9597327bec62616a94a14d07f3fd9936
     Pseudo is Norm-conserving, Zval = 20.0
     Generated in analytical, separable form
     Using radial grid of 1265 points,  6 beta functions with:
                l(1) =   0
                l(2) =   0
                l(3) =   1
                l(4) =   1
                l(5) =   2
                l(6) =   3

     atomic species   valence    mass     pseudopotential
        Mg            23.00    24.30500     Tm( 1.00)
        Zn            20.00    65.39000     Dy( 1.00)

     24 Sym. Ops., with inversion, found (12 have fractional translation)

   Cartesian axes

     site n.     atom                  positions (alat units)
         1           Mg  tau(   1) = (  -0.0000005   0.5772083   0.1024684  )
         2           Mg  tau(   2) = (   0.4998773   0.2886037   0.9102881  )
         3           Mg  tau(   3) = (   0.4998773   0.2886037   1.5131710  )
         4           Mg  tau(   4) = (  -0.0000005   0.5772083   0.7053513  )
         5           Zn  tau(   5) = (   0.0000000   0.0000000   0.0000000  )
         6           Zn  tau(   6) = (   0.0000000   0.0000000   0.8078197  )
         7           Zn  tau(   7) = (   0.0000000   0.2978808   1.2117296  )
         8           Zn  tau(   8) = (   0.7417813   0.1489404   0.4039099  )
         9           Zn  tau(   9) = (   0.2579723   0.1489404   0.4039099  )
        10           Zn  tau(  10) = (   0.2419045   0.7168717   1.2117296  )
        11           Zn  tau(  11) = (  -0.2419045   0.7168717   1.2117296  )
        12           Zn  tau(  12) = (   0.4998768   0.5679313   0.4039099  )

     number of k points=    12  gaussian smearing, width (Ry)=  0.1000
                       cart. coord. in units 2pi/alat
        k(    1) = (   0.0000000   0.0000000   0.0000000), wk =   0.0833333
        k(    2) = (   0.0000000   0.0000000   0.1547375), wk =   0.1666667
        k(    3) = (   0.0000000   0.0000000  -0.3094750), wk =   0.0833333
        k(    4) = (   0.0000000   0.3849950   0.0000000), wk =   0.1666667
        k(    5) = (   0.0000000   0.3849950   0.1547375), wk =   0.3333333
        k(    6) = (   0.0000000   0.3849950  -0.3094750), wk =   0.1666667
        k(    7) = (  -0.5001232  -0.2887463   0.0000000), wk =   0.0833333
        k(    8) = (  -0.5001232  -0.2887463   0.1547375), wk =   0.1666667
        k(    9) = (  -0.5001232  -0.2887463  -0.3094750), wk =   0.0833333
        k(   10) = (  -0.5001232   0.0962488   0.0000000), wk =   0.1666667
        k(   11) = (  -0.5001232   0.0962488   0.1547375), wk =   0.3333333
        k(   12) = (  -0.5001232   0.0962488  -0.3094750), wk =   0.1666667

     Largest allocated arrays     est. size (Mb)     dimensions
     Largest temporary arrays     est. size (Mb)     dimensions

     Initial potential from superposition of free atoms

     Starting from uniform charge
     Starting wfc are    0 randomized atomic wfcs

     Writing output data file Prototype-La-hP12-MgZn2.save

     Self-consistent Calculation

[...]

     iteration # 11     ecut=    40.00 Ry     beta=0.70
     CG style diagonalization
     c_bands:  1 eigenvalues not converged
     c_bands:  1 eigenvalues not converged
     ethr =  3.66E-07,  avg # of iterations =  3.7

     total energy              =   -3550.55629607 Ry
     Harris-Foulkes estimate   =   -3550.55631659 Ry
     estimated scf accuracy    <       0.00005084 Ry

     iteration # 12     ecut=    40.00 Ry     beta=0.70
     CG style diagonalization
     ethr =  2.02E-08,  avg # of iterations =  4.0

     End of self-consistent calculation

[...]

          k = 0.0000 0.3850-0.3095 (  5850 PWs)   bands (ev):

[...]

          k =-0.5001 0.0962-0.3095 (  5844 PWs)   bands (ev):

   -77.8342 -77.8341 -77.8188 -77.8187 -51.0308 -51.0308 -50.9688 -50.9688
   -50.8903 -50.8903 -50.8756 -50.8756 -36.5383 -36.5383 -36.5338 -36.5338
   -36.5267 -36.5267 -36.5134 -36.5133 -36.4952 -36.4952 -36.4925 -36.4925
   -18.8747 -18.8747 -18.5586 -18.5586 -18.2440 -18.2440 -18.1754 -18.1754
   -18.1180 -18.1180 -18.0767 -18.0767 -17.9089 -17.9089 -17.7815 -17.7815
   -17.6801 -17.6801 -17.6210 -17.6210 -17.5755 -17.5755 -17.5508 -17.5508
    12.0532  12.0532  12.0671  12.0671  12.1470  12.1470  12.2386  12.2386
    12.2758  12.2758  12.4049  12.4050  12.4458  12.4458  12.5031  12.5031
    12.6306  12.6306  12.6677  12.6677  18.9357  18.9357  19.4183  19.4184
    19.7727  19.7728  20.1597  20.1597  20.4420  20.4420  20.5850  20.5850
    20.8016  20.8016  21.4560  21.4560  21.7560  21.7560  21.8579  21.8580
    22.1299  22.1299  22.6087  22.6087  22.8258  22.8258  23.2154  23.2154
    23.4866  23.4866  23.6454  23.6454  23.9523  23.9523  24.2947  24.2947
    24.5209  24.5209  24.6567  24.6567  25.1050  25.1050  25.9366  25.9366
    26.5801  26.5801  28.4632  28.4632  29.5015  29.5015  30.3697  30.3697
    31.5139  31.5139  33.0710  33.0710  35.0596  35.0596  35.5757  35.5757
    36.0635  36.0635  36.7495  36.7495  37.3595  37.3595  38.2922  38.2922
    38.4493  38.4493  38.9134  38.9135  39.2346  39.2347  39.7617  39.7617
    40.6029  40.6030  40.7238  40.7240  41.2336  41.2338  42.0394

     the Fermi energy is    34.6620 ev

!    total energy              =   -3550.55630976 Ry
     Harris-Foulkes estimate   =   -3550.55631588 Ry
     estimated scf accuracy    <       0.00000658 Ry

     The total energy is the sum of the following terms:

     one-electron contribution =    -603.69730255 Ry
     hartree contribution      =     514.15319126 Ry
     xc contribution           =    -315.55875058 Ry
     ewald contribution        =   -3145.16372204 Ry
     smearing contrib. (-TS)   =      -0.28972585 Ry

     convergence has been achieved in  12 iterations

     Forces acting on atoms (Ry/au):

     atom    1 type  1   force =     0.00000000    0.00000000    0.01982778
     atom    2 type  1   force =     0.00000000    0.00000000    0.01982778
     atom    3 type  1   force =     0.00000000    0.00000000   -0.01982778
     atom    4 type  1   force =     0.00000000    0.00000000   -0.01982778
     atom    5 type  2   force =     0.00000000    0.00000000    0.00000000
     atom    6 type  2   force =     0.00000000    0.00000000    0.00000000
     atom    7 type  2   force =     0.00000000   -0.04777613    0.00000000
     atom    8 type  2   force =     0.04137534   -0.02388807    0.00000000
     atom    9 type  2   force =    -0.04137534   -0.02388807    0.00000000
     atom   10 type  2   force =     0.04137534    0.02388807    0.00000000
     atom   11 type  2   force =    -0.04137534    0.02388807    0.00000000
     atom   12 type  2   force =     0.00000000    0.04777613    0.00000000

     Total force =     0.123563     Total SCF correction =     0.000000

     entering subroutine stress ...

          total   stress  (Ry/bohr**3)                   (kbar)     P=  996.31
   0.00676936   0.00000000   0.00000000        995.81      0.00      0.00
   0.00000000   0.00676936   0.00000000          0.00    995.81      0.00
   0.00000000   0.00000000   0.00677959          0.00      0.00    997.31

     Writing output data file Prototype-La-hP12-MgZn2.save

     General routines

     Parallel routines

   This run was terminated on:  16:33:23  22Mar2018

   JOB DONE.