     Program PWSCF v.5.0.2 starts on 22Mar2018 at 16: 4: 6

     Current dimensions of program PWSCF are:
     Max number of different atomic species (ntypx) = 10
     Max number of k-points (npk) =  40000
     Max angular momentum in pseudopotentials (lmaxx) =  3
     Waiting for input...
     Reading input from standard input

     Subspace diagonalization in iterative solution of the eigenvalue problem:
     a serial algorithm will be used

     bravais-lattice index     =            0
     lattice parameter (alat)  =       8.5346  a.u.
     unit-cell volume          =     621.6493 (a.u.)^3
     number of atoms/cell      =            8
     number of atomic types    =            2
     number of electrons       =       178.00
     number of Kohn-Sham states=          107
     kinetic-energy cutoff     =      40.0000  Ry
     charge density cutoff     =     160.0000  Ry
     convergence threshold     =      1.0E-04
     mixing beta               =       0.7000
     number of iterations used =            8  plain     mixing
     Exchange-correlation      = SLA-PZ-NOGX-NOGC ( 1 1 0 0 0)
     EXX-fraction              =        0.00
     nstep                     =           50

     celldm(1)=   8.534573  celldm(2)=   0.000000  celldm(3)=   0.000000
     celldm(4)=   0.000000  celldm(5)=   0.000000  celldm(6)=   0.000000

     crystal axes: (cart. coord. in units of alat)
               a(1) = (   1.000000   0.000000   0.000000 )
               a(2) = (   0.000000   1.000000   0.000000 )
               a(3) = (   0.000000   0.000000   1.000000 )

     reciprocal axes: (cart. coord. in units 2 pi/alat)
               b(1) = (  1.000000  0.000000  0.000000 )
               b(2) = (  0.000000  1.000000  0.000000 )
               b(3) = (  0.000000  0.000000  1.000000 )

     PseudoPot. # 1 for Tm read from file:
     /home/cwx6513/pp.La/Tm.UPF
     MD5 check sum: 245516e0878b5372ceeb9443ded2c4e1
     Pseudo is Norm-conserving, Zval = 23.0
     Generated in analytical, separable form
     Using radial grid of 1269 points,  6 beta functions with:
                l(1) =   0
                l(2) =   0
                l(3) =   1
                l(4) =   1
                l(5) =   2
                l(6) =   3

     PseudoPot. # 2 for Dy read from file:
     /home/cwx6513/pp.La/Dy.UPF
     MD5 check sum: 9597327bec62616a94a14d07f3fd9936
     Pseudo is Norm-conserving, Zval = 20.0
     Generated in analytical, separable form
     Using radial grid of 1265 points,  6 beta functions with:
                l(1) =   0
                l(2) =   0
                l(3) =   1
                l(4) =   1
                l(5) =   2
                l(6) =   3

     atomic species   valence    mass     pseudopotential
        Cr            23.00    51.99610     Tm( 1.00)
        Si            20.00    28.08550     Dy( 1.00)

     48 Sym. Ops., with inversion, found (24 have fractional translation)

   Cartesian axes

     site n.     atom                  positions (alat units)
         1           Cr  tau(   1) = (   0.0000000   0.5000000   0.2500000  )
         2           Cr  tau(   2) = (   0.0000000   0.5000000   0.7500000  )
         3           Cr  tau(   3) = (   0.5000000   0.7500000   0.0000000  )
         4           Cr  tau(   4) = (   0.5000000   0.2500000   0.0000000  )
         5           Cr  tau(   5) = (   0.7500000   0.0000000   0.5000000  )
         6           Cr  tau(   6) = (   0.2500000   0.0000000   0.5000000  )
         7           Si  tau(   7) = (   0.5000000   0.5000000   0.5000000  )
         8           Si  tau(   8) = (   0.0000000   0.0000000   0.0000000  )

     number of k points=    48  gaussian smearing, width (Ry)=  0.1000
                       cart. coord. in units 2pi/alat
        k(    1) = (   0.0000000   0.0000000   0.0000000), wk =   0.0095238
        k(    2) = (   0.0000000   0.0000000   0.1428571), wk =   0.0190476
        k(    3) = (   0.0000000   0.0000000   0.2857143), wk =   0.0190476
        k(    4) = (   0.0000000   0.0000000   0.4285714), wk =   0.0190476
        k(    5) = (   0.0000000   0.1666667   0.0000000), wk =   0.0190476
        k(    6) = (   0.0000000   0.1666667   0.1428571), wk =   0.0380952
        k(    7) = (   0.0000000   0.1666667   0.2857143), wk =   0.0380952
        k(    8) = (   0.0000000   0.1666667   0.4285714), wk =   0.0380952
        k(    9) = (   0.0000000   0.3333333   0.0000000), wk =   0.0190476
        k(   10) = (   0.0000000   0.3333333   0.1428571), wk =   0.0380952
        k(   11) = (   0.0000000   0.3333333   0.2857143), wk =   0.0380952
        k(   12) = (   0.0000000   0.3333333   0.4285714), wk =   0.0380952
        k(   13) = (   0.0000000  -0.5000000   0.0000000), wk =   0.0095238
        k(   14) = (   0.0000000  -0.5000000   0.1428571), wk =   0.0190476
        k(   15) = (   0.0000000  -0.5000000   0.2857143), wk =   0.0190476
        k(   16) = (   0.0000000  -0.5000000   0.4285714), wk =   0.0190476
        k(   17) = (   0.2000000   0.0000000   0.0000000), wk =   0.0190476
        k(   18) = (   0.2000000   0.0000000   0.1428571), wk =   0.0380952
        k(   19) = (   0.2000000   0.0000000   0.2857143), wk =   0.0380952
        k(   20) = (   0.2000000   0.0000000   0.4285714), wk =   0.0380952
        k(   21) = (   0.2000000   0.1666667   0.0000000), wk =   0.0380952
        k(   22) = (   0.2000000   0.1666667   0.1428571), wk =   0.0761905
        k(   23) = (   0.2000000   0.1666667   0.2857143), wk =   0.0761905
        k(   24) = (   0.2000000   0.1666667   0.4285714), wk =   0.0761905
        k(   25) = (   0.2000000   0.3333333   0.0000000), wk =   0.0380952
        k(   26) = (   0.2000000   0.3333333   0.1428571), wk =   0.0761905
        k(   27) = (   0.2000000   0.3333333   0.2857143), wk =   0.0761905
        k(   28) = (   0.2000000   0.3333333   0.4285714), wk =   0.0761905
        k(   29) = (   0.2000000  -0.5000000   0.0000000), wk =   0.0190476
        k(   30) = (   0.2000000  -0.5000000   0.1428571), wk =   0.0380952
        k(   31) = (   0.2000000  -0.5000000   0.2857143), wk =   0.0380952
        k(   32) = (   0.2000000  -0.5000000   0.4285714), wk =   0.0380952
        k(   33) = (   0.4000000   0.0000000   0.0000000), wk =   0.0190476
        k(   34) = (   0.4000000   0.0000000   0.1428571), wk =   0.0380952
        k(   35) = (   0.4000000   0.0000000   0.2857143), wk =   0.0380952
        k(   36) = (   0.4000000   0.0000000   0.4285714), wk =   0.0380952
        k(   37) = (   0.4000000   0.1666667   0.0000000), wk =   0.0380952
        k(   38) = (   0.4000000   0.1666667   0.1428571), wk =   0.0761905
        k(   39) = (   0.4000000   0.1666667   0.2857143), wk =   0.0761905
        k(   40) = (   0.4000000   0.1666667   0.4285714), wk =   0.0761905
        k(   41) = (   0.4000000   0.3333333   0.0000000), wk =   0.0380952
        k(   42) = (   0.4000000   0.3333333   0.1428571), wk =   0.0761905
        k(   43) = (   0.4000000   0.3333333   0.2857143), wk =   0.0761905
        k(   44) = (   0.4000000   0.3333333   0.4285714), wk =   0.0761905
        k(   45) = (   0.4000000  -0.5000000   0.0000000), wk =   0.0190476
        k(   46) = (   0.4000000  -0.5000000   0.1428571), wk =   0.0380952
        k(   47) = (   0.4000000  -0.5000000   0.2857143), wk =   0.0380952
        k(   48) = (   0.4000000  -0.5000000   0.4285714), wk =   0.0380952

     Largest allocated arrays     est. size (Mb)     dimensions
     Largest temporary arrays     est. size (Mb)     dimensions

     Initial potential from superposition of free atoms

     Starting from uniform charge
     Starting wfc are    0 randomized atomic wfcs

     Self-consistent Calculation

     iteration #  1     ecut=    40.00 Ry     beta=0.70
     CG style diagonalization
     c_bands:  2 eigenvalues not converged
     c_bands:  2 eigenvalues not converged
     c_bands:  4 eigenvalues not converged
     c_bands:  3 eigenvalues not converged
     c_bands:  1 eigenvalues not converged
     c_bands:  1 eigenvalues not converged
     c_bands:  4 eigenvalues not converged
     c_bands:  2 eigenvalues not converged
     c_bands:  1 eigenvalues not converged
     c_bands:  2 eigenvalues not converged
     c_bands:  2 eigenvalues not converged
     c_bands:  2 eigenvalues not converged
     c_bands:  1 eigenvalues not converged
     c_bands:  1 eigenvalues not converged
     c_bands:  4 eigenvalues not converged
     c_bands:  4 eigenvalues not converged
     c_bands:  1 eigenvalues not converged
     c_bands:  1 eigenvalues not converged
     c_bands:  1 eigenvalues not converged
     c_bands:  2 eigenvalues not converged
     c_bands:  1 eigenvalues not converged
     c_bands:  5 eigenvalues not converged
     c_bands:  3 eigenvalues not converged
     c_bands:  1 eigenvalues not converged
     c_bands:  1 eigenvalues not converged
     c_bands:  2 eigenvalues not converged
     c_bands:  2 eigenvalues not converged
     c_bands:  4 eigenvalues not converged
     c_bands:  1 eigenvalues not converged
     c_bands:  1 eigenvalues not converged
     c_bands:  1 eigenvalues not converged
     ethr =  1.00E-02,  avg # of iterations = 12.4

     total energy              =   -2337.51853239 Ry
     Harris-Foulkes estimate   =   -3158.35016078 Ry
     estimated scf accuracy    <    1025.54131481 Ry

[...]

     iteration #  4     ecut=    40.00 Ry     beta=0.70
     CG style diagonalization
     ethr =  1.00E-02,  avg # of iterations =  5.0

[...]

     End of self-consistent calculation

          k = 0.0000 0.0000 0.0000 (  2601 PWs)   bands (ev):

   -60.6497 -60.6497 -60.5248 -60.2518 -60.2518 -60.2518 -34.2895 -34.2577
   -20.9456 -20.9456 -20.8249 -19.5762 -19.5762 -19.5762 -19.2382 -19.2382
   -19.2382 -19.1518 -19.1518 -19.1518 -19.0723 -19.0723 -19.0723 -18.8037
   -18.8037 -18.8037  -1.6650  -1.6650  -1.6650  -1.6609  -1.6609  -1.6609
    23.6936  23.6936  23.7403  25.2646  25.2646  25.2646  27.0103  27.0103
    27.0103  27.1551  27.8171  27.8756  27.8756  28.0118  28.0118  28.0118
    28.9074  29.5974  29.5974  29.5974  30.6083  30.6083  30.6470  30.6470
    30.6470  30.6693  30.6693  30.6693  31.4403  31.4403  31.4403  34.4310
    34.4310  38.0367  38.0367  38.0367  38.1166  38.1166  38.3876  38.3876
    38.3876  40.9957  40.9957  40.9957  44.9711  45.6198  45.6198  48.8964
    48.8964  48.8964  50.5539  50.5539  50.6324  51.4434  51.4434  51.4434
    53.4433  53.4433  53.4433  53.6752  53.6752  53.6752  54.5300  55.3426
    55.3426  55.3426  55.6746  55.6746  55.6746  58.4712  60.5132  60.5133
    60.5550  60.5550  60.5552

[...]

     the Fermi energy is    53.6058 ev

!    total energy              =   -2713.12219265 Ry
     Harris-Foulkes estimate   =   -2713.12219543 Ry
     estimated scf accuracy    <       0.00000340 Ry

     The total energy is the sum of the following terms:

     one-electron contribution =     -83.98686488 Ry
     hartree contribution      =     288.26826591 Ry
     xc contribution           =    -237.79395091 Ry
     ewald contribution        =   -2679.21398491 Ry
     smearing contrib. (-TS)   =      -0.39565786 Ry

     convergence has been achieved in   9 iterations

[...]

     number of scf cycles    =   3
     number of bfgs steps    =   2

     enthalpy old            =   -2717.4178129474 Ry
     enthalpy new            =   -2714.0548287750 Ry

     CASE: enthalpy_new > enthalpy_old

     new trust radius        =       0.1662504839 bohr

     trust_radius < trust_radius_min

     resetting bfgs history

     Message from routine bfgs:
     history already reset at previous step: stopping
     new conv_thr            =       0.0000010000 Ry

     new unit-cell volume =   1046.71379 a.u.^3 (   155.10698 Ang^3 )

[...]

ATOMIC_POSITIONS (crystal)
Cr       0.000000000   0.500000000   0.250000000
Cr       0.000000000   0.500000000   0.750000000
Cr       0.500000000   0.750000000   0.000000000
Cr       0.500000000   0.250000000   0.000000000
Cr       0.750000000   0.000000000   0.500000000
Cr       0.250000000   0.000000000   0.500000000
Si       0.500000000   0.500000000   0.500000000
Si       0.000000000   0.000000000   0.000000000

     Writing output data file Prototype-La-cP8-Cr3Si.save
     NEW-OLD atomic charge density approx. for the potential
     NEW k-points:
        k(    1) = (   0.0000000   0.0000000   0.0000000), wk =   0.0095238
        k(    2) = (   0.0000000   0.0000000   0.1200810), wk =   0.0190476
        k(    3) = (   0.0000000   0.0000000   0.2401621), wk =   0.0190476
        k(    4) = (   0.0000000   0.0000000   0.3602431), wk =   0.0190476
        k(    5) = (   0.0000000   0.1400946   0.0000000), wk =   0.0190476
        k(    6) = (   0.0000000   0.1400946   0.1200810), wk =   0.0380952
        k(    7) = (   0.0000000   0.1400946   0.2401621), wk =   0.0380952
        k(    8) = (   0.0000000   0.1400946   0.3602431), wk =   0.0380952
        k(    9) = (   0.0000000   0.2801891   0.0000000), wk =   0.0190476
        k(   10) = (   0.0000000   0.2801891   0.1200810), wk =   0.0380952
        k(   11) = (   0.0000000   0.2801891   0.2401621), wk =   0.0380952
        k(   12) = (   0.0000000   0.2801891   0.3602431), wk =   0.0380952
        k(   13) = (   0.0000000  -0.4202837   0.0000000), wk =   0.0095238
        k(   14) = (   0.0000000  -0.4202837   0.1200810), wk =   0.0190476
        k(   15) = (   0.0000000  -0.4202837   0.2401621), wk =   0.0190476
        k(   16) = (   0.0000000  -0.4202837   0.3602431), wk =   0.0190476
        k(   17) = (   0.1681135   0.0000000   0.0000000), wk =   0.0190476
        k(   18) = (   0.1681135   0.0000000   0.1200810), wk =   0.0380952
        k(   19) = (   0.1681135   0.0000000   0.2401621), wk =   0.0380952
        k(   20) = (   0.1681135   0.0000000   0.3602431), wk =   0.0380952
        k(   21) = (   0.1681135   0.1400946   0.0000000), wk =   0.0380952
        k(   22) = (   0.1681135   0.1400946   0.1200810), wk =   0.0761905
        k(   23) = (   0.1681135   0.1400946   0.2401621), wk =   0.0761905
        k(   24) = (   0.1681135   0.1400946   0.3602431), wk =   0.0761905
        k(   25) = (   0.1681135   0.2801891   0.0000000), wk =   0.0380952
        k(   26) = (   0.1681135   0.2801891   0.1200810), wk =   0.0761905
        k(   27) = (   0.1681135   0.2801891   0.2401621), wk =   0.0761905
        k(   28) = (   0.1681135   0.2801891   0.3602431), wk =   0.0761905
        k(   29) = (   0.1681135  -0.4202837   0.0000000), wk =   0.0190476
        k(   30) = (   0.1681135  -0.4202837   0.1200810), wk =   0.0380952
        k(   31) = (   0.1681135  -0.4202837   0.2401621), wk =   0.0380952
        k(   32) = (   0.1681135  -0.4202837   0.3602431), wk =   0.0380952
        k(   33) = (   0.3362269   0.0000000   0.0000000), wk =   0.0190476
        k(   34) = (   0.3362269   0.0000000   0.1200810), wk =   0.0380952
        k(   35) = (   0.3362269   0.0000000   0.2401621), wk =   0.0380952
        k(   36) = (   0.3362269   0.0000000   0.3602431), wk =   0.0380952
        k(   37) = (   0.3362269   0.1400946   0.0000000), wk =   0.0380952
        k(   38) = (   0.3362269   0.1400946   0.1200810), wk =   0.0761905
        k(   39) = (   0.3362269   0.1400946   0.2401621), wk =   0.0761905
        k(   40) = (   0.3362269   0.1400946   0.3602431), wk =   0.0761905
        k(   41) = (   0.3362269   0.2801891   0.0000000), wk =   0.0380952
        k(   42) = (   0.3362269   0.2801891   0.1200810), wk =   0.0761905
        k(   43) = (   0.3362269   0.2801891   0.2401621), wk =   0.0761905
        k(   44) = (   0.3362269   0.2801891   0.3602431), wk =   0.0761905
        k(   45) = (   0.3362269  -0.4202837   0.0000000), wk =   0.0190476
        k(   46) = (   0.3362269  -0.4202837   0.1200810), wk =   0.0380952
        k(   47) = (   0.3362269  -0.4202837   0.2401621), wk =   0.0380952
        k(   48) = (   0.3362269  -0.4202837   0.3602431), wk =   0.0380952

[...]

          total   stress  (Ry/bohr**3)                   (kbar)     P=-1490.87
  -0.01013470   0.00000000   0.00000000      -1490.87      0.00      0.00
   0.00000000  -0.01013470   0.00000000          0.00  -1490.87      0.00
   0.00000000   0.00000000  -0.01013470          0.00      0.00  -1490.87

     The maximum number of steps has been reached.

     End of BFGS Geometry Optimization
Begin final coordinates
     new unit-cell volume =   1046.71379 a.u.^3 (   155.10698 Ang^3 )

CELL_PARAMETERS (alat=  8.53457320)
   1.189672732   0.000000000   0.000000000
   0.000000000   1.189672732   0.000000000
   0.000000000   0.000000000   1.189672732

ATOMIC_POSITIONS (crystal)
Cr       0.000000000   0.500000000   0.250000000
Cr       0.000000000   0.500000000   0.750000000
Cr       0.500000000   0.750000000   0.000000000
Cr       0.500000000   0.250000000   0.000000000
Cr       0.750000000   0.000000000   0.500000000
Cr       0.250000000   0.000000000   0.500000000
Si       0.500000000   0.500000000   0.500000000
Si       0.000000000   0.000000000   0.000000000
End final coordinates

     A final scf calculation at the relaxed structure.
     The G-vectors are recalculated for the final unit cell
     Results may differ from those at the preceding step.

     bravais-lattice index     =            0
     lattice parameter (alat)  =       8.5346  a.u.
     unit-cell volume          =    1046.7138 (a.u.)^3
     number of atoms/cell      =            8
     number of atomic types    =            2
     number of electrons       =       178.00
     number of Kohn-Sham states=          107
     kinetic-energy cutoff     =      40.0000  Ry
     charge density cutoff     =     160.0000  Ry
     convergence threshold     =      1.0E-06
     mixing beta               =       0.7000
     number of iterations used =            8  plain     mixing
     Exchange-correlation      = SLA-PZ-NOGX-NOGC ( 1 1 0 0 0)
     EXX-fraction              =        0.00

     celldm(1)=   8.534573  celldm(2)=   0.000000  celldm(3)=   0.000000
     celldm(4)=   0.000000  celldm(5)=   0.000000  celldm(6)=   0.000000

     crystal axes: (cart. coord. in units of alat)
               a(1) = (   1.189673   0.000000   0.000000 )
               a(2) = (   0.000000   1.189673   0.000000 )
               a(3) = (   0.000000   0.000000   1.189673 )

     reciprocal axes: (cart. coord. in units 2 pi/alat)
               b(1) = (  0.840567  0.000000  0.000000 )
               b(2) = (  0.000000  0.840567  0.000000 )
               b(3) = (  0.000000  0.000000  0.840567 )

     PseudoPot. # 1 for Tm read from file:
     /home/cwx6513/pp.La/Tm.UPF
     MD5 check sum: 245516e0878b5372ceeb9443ded2c4e1
     Pseudo is Norm-conserving, Zval = 23.0
     Generated in analytical, separable form
     Using radial grid of 1269 points,  6 beta functions with:
                l(1) =   0
                l(2) =   0
                l(3) =   1
                l(4) =   1
                l(5) =   2
                l(6) =   3

     PseudoPot. # 2 for Dy read from file:
     /home/cwx6513/pp.La/Dy.UPF
     MD5 check sum: 9597327bec62616a94a14d07f3fd9936
     Pseudo is Norm-conserving, Zval = 20.0
     Generated in analytical, separable form
     Using radial grid of 1265 points,  6 beta functions with:
                l(1) =   0
                l(2) =   0
                l(3) =   1
                l(4) =   1
                l(5) =   2
                l(6) =   3

     atomic species   valence    mass     pseudopotential
        Cr            23.00    51.99610     Tm( 1.00)
        Si            20.00    28.08550     Dy( 1.00)

     48 Sym. Ops., with inversion, found (24 have fractional translation)

   Cartesian axes

     site n.     atom                  positions (alat units)
         1           Cr  tau(   1) = (   0.0000000   0.5948364   0.2974182  )
         2           Cr  tau(   2) = (   0.0000000   0.5948364   0.8922545  )
         3           Cr  tau(   3) = (   0.5948364   0.8922545   0.0000000  )
         4           Cr  tau(   4) = (   0.5948364   0.2974182   0.0000000  )
         5           Cr  tau(   5) = (   0.8922545   0.0000000   0.5948364  )
         6           Cr  tau(   6) = (   0.2974182   0.0000000   0.5948364  )
         7           Si  tau(   7) = (   0.5948364   0.5948364   0.5948364  )
         8           Si  tau(   8) = (   0.0000000   0.0000000   0.0000000  )

     number of k points=    48  gaussian smearing, width (Ry)=  0.1000
                       cart. coord. in units 2pi/alat
        k(    1) = (   0.0000000   0.0000000   0.0000000), wk =   0.0095238
        k(    2) = (   0.0000000   0.0000000   0.1200810), wk =   0.0190476
        k(    3) = (   0.0000000   0.0000000   0.2401621), wk =   0.0190476
        k(    4) = (   0.0000000   0.0000000   0.3602431), wk =   0.0190476
        k(    5) = (   0.0000000   0.1400946   0.0000000), wk =   0.0190476
        k(    6) = (   0.0000000   0.1400946   0.1200810), wk =   0.0380952
        k(    7) = (   0.0000000   0.1400946   0.2401621), wk =   0.0380952
        k(    8) = (   0.0000000   0.1400946   0.3602431), wk =   0.0380952
        k(    9) = (   0.0000000   0.2801891   0.0000000), wk =   0.0190476
        k(   10) = (   0.0000000   0.2801891   0.1200810), wk =   0.0380952
        k(   11) = (   0.0000000   0.2801891   0.2401621), wk =   0.0380952
        k(   12) = (   0.0000000   0.2801891   0.3602431), wk =   0.0380952
        k(   13) = (   0.0000000  -0.4202837   0.0000000), wk =   0.0095238
        k(   14) = (   0.0000000  -0.4202837   0.1200810), wk =   0.0190476
        k(   15) = (   0.0000000  -0.4202837   0.2401621), wk =   0.0190476
        k(   16) = (   0.0000000  -0.4202837   0.3602431), wk =   0.0190476
        k(   17) = (   0.1681135   0.0000000   0.0000000), wk =   0.0190476
        k(   18) = (   0.1681135   0.0000000   0.1200810), wk =   0.0380952
        k(   19) = (   0.1681135   0.0000000   0.2401621), wk =   0.0380952
        k(   20) = (   0.1681135   0.0000000   0.3602431), wk =   0.0380952
        k(   21) = (   0.1681135   0.1400946   0.0000000), wk =   0.0380952
        k(   22) = (   0.1681135   0.1400946   0.1200810), wk =   0.0761905
        k(   23) = (   0.1681135   0.1400946   0.2401621), wk =   0.0761905
        k(   24) = (   0.1681135   0.1400946   0.3602431), wk =   0.0761905
        k(   25) = (   0.1681135   0.2801891   0.0000000), wk =   0.0380952
        k(   26) = (   0.1681135   0.2801891   0.1200810), wk =   0.0761905
        k(   27) = (   0.1681135   0.2801891   0.2401621), wk =   0.0761905
        k(   28) = (   0.1681135   0.2801891   0.3602431), wk =   0.0761905
        k(   29) = (   0.1681135  -0.4202837   0.0000000), wk =   0.0190476
        k(   30) = (   0.1681135  -0.4202837   0.1200810), wk =   0.0380952
        k(   31) = (   0.1681135  -0.4202837   0.2401621), wk =   0.0380952
        k(   32) = (   0.1681135  -0.4202837   0.3602431), wk =   0.0380952
        k(   33) = (   0.3362269   0.0000000   0.0000000), wk =   0.0190476
        k(   34) = (   0.3362269   0.0000000   0.1200810), wk =   0.0380952
        k(   35) = (   0.3362269   0.0000000   0.2401621), wk =   0.0380952
        k(   36) = (   0.3362269   0.0000000   0.3602431), wk =   0.0380952
        k(   37) = (   0.3362269   0.1400946   0.0000000), wk =   0.0380952
        k(   38) = (   0.3362269   0.1400946   0.1200810), wk =   0.0761905
        k(   39) = (   0.3362269   0.1400946   0.2401621), wk =   0.0761905
        k(   40) = (   0.3362269   0.1400946   0.3602431), wk =   0.0761905
        k(   41) = (   0.3362269   0.2801891   0.0000000), wk =   0.0380952
        k(   42) = (   0.3362269   0.2801891   0.1200810), wk =   0.0761905
        k(   43) = (   0.3362269   0.2801891   0.2401621), wk =   0.0761905
        k(   44) = (   0.3362269   0.2801891   0.3602431), wk =   0.0761905
        k(   45) = (   0.3362269  -0.4202837   0.0000000), wk =   0.0190476
        k(   46) = (   0.3362269  -0.4202837   0.1200810), wk =   0.0380952
        k(   47) = (   0.3362269  -0.4202837   0.2401621), wk =   0.0380952
        k(   48) = (   0.3362269  -0.4202837   0.3602431), wk =   0.0380952

     Largest allocated arrays     est. size (Mb)     dimensions
     Largest temporary arrays     est. size (Mb)     dimensions

     Initial potential from superposition of free atoms

     Starting from uniform charge
     Starting wfc are    0 randomized atomic wfcs

     Writing output data file Prototype-La-cP8-Cr3Si.save

     Self-consistent Calculation

[...]

     iteration #  9     ecut=    40.00 Ry     beta=0.70
     CG style diagonalization
     c_bands:  1 eigenvalues not converged
     ethr =  1.16E-07,  avg # of iterations =  3.9

[...]

     total energy              =   -2723.84334365 Ry
     Harris-Foulkes estimate   =   -2723.84334474 Ry
     estimated scf accuracy    <       0.00000183 Ry

     iteration # 11     ecut=    40.00 Ry     beta=0.70
     CG style diagonalization
     ethr =  1.03E-09,  avg # of iterations =  3.6

     End of self-consistent calculation

[...]

          k = 0.3362-0.4203 0.3602 (  4490 PWs)   bands (ev):

   -81.3285 -81.3243 -81.3228 -81.3214 -81.3201 -81.3141 -53.2606 -53.2604
   -40.1738 -40.1629 -40.1281 -40.1280 -40.0859 -40.0700 -39.9643 -39.9643
   -39.9626 -39.9595 -39.9592 -39.9583 -39.9568 -39.9544 -39.9523 -39.9511
   -39.9448 -39.9430 -20.2500 -20.2499 -20.2481 -20.2479 -20.2433 -20.2433
     8.0711   8.1880   8.4699   8.4738   8.4948   8.5022   8.5305   8.5408
     8.6369   8.6432   8.6988   8.7199   8.7333   8.7513   8.8017   8.8063
     8.9683   8.9686   9.0662   9.0757   9.0823   9.1023   9.1345   9.1698
     9.2269   9.2409   9.2672   9.2716   9.2892   9.3006  17.0785  17.0834
    17.6881  17.6899  18.1361  18.1506  20.4364  20.4395  20.4404  20.4432
    21.0581  21.0711  21.1515  21.1772  21.3680  21.3886  21.7385  21.7400
    28.5801  28.8005  29.4666  29.5460  30.5055  30.8922  31.3423  31.4311
    31.7813  31.8739  31.9467  32.1026  32.5620  32.5850  32.9372  33.0416
    33.1384  33.2561  33.7203  33.7720  34.3527  34.4753  34.5857  34.6363
    37.9699  38.1355  38.5113

     the Fermi energy is    30.9172 ev

!    total energy              =   -2723.84334407 Ry
     Harris-Foulkes estimate   =   -2723.84334411 Ry
     estimated scf accuracy    <       0.00000005 Ry

     The total energy is the sum of the following terms:

     one-electron contribution =    -704.74793830 Ry
     hartree contribution      =     462.16843466 Ry
     xc contribution           =    -228.91322747 Ry
     ewald contribution        =   -2252.05967400 Ry
     smearing contrib. (-TS)   =      -0.29093896 Ry

     convergence has been achieved in  11 iterations

     Forces acting on atoms (Ry/au):

     atom    1 type  1   force =     0.00000000    0.00000000    0.00000000
     atom    2 type  1   force =     0.00000000    0.00000000    0.00000000
     atom    3 type  1   force =     0.00000000    0.00000000    0.00000000
     atom    4 type  1   force =     0.00000000    0.00000000    0.00000000
     atom    5 type  1   force =     0.00000000    0.00000000    0.00000000
     atom    6 type  1   force =     0.00000000    0.00000000    0.00000000
     atom    7 type  2   force =     0.00000000    0.00000000    0.00000000
     atom    8 type  2   force =     0.00000000    0.00000000    0.00000000

     Total force =     0.000000     Total SCF correction =     0.000000

     entering subroutine stress ...

          total   stress  (Ry/bohr**3)                   (kbar)     P=  295.80
   0.00201080   0.00000000   0.00000000        295.80      0.00      0.00
   0.00000000   0.00201080   0.00000000          0.00    295.80      0.00
   0.00000000   0.00000000   0.00201080          0.00      0.00    295.80

     Writing output data file Prototype-La-cP8-Cr3Si.save

     General routines

     Parallel routines

   This run was terminated on:  16:41: 5  22Mar2018

   JOB DONE.