     Program PWSCF v.5.0.2 starts on 22Mar2018 at 16: 3:56

     Current dimensions of program PWSCF are:
     Max number of different atomic species (ntypx) = 10
     Max number of k-points (npk) =  40000
     Max angular momentum in pseudopotentials (lmaxx) =  3
     Waiting for input...
     Reading input from standard input

     Subspace diagonalization in iterative solution of the eigenvalue problem:
     a serial algorithm will be used

     bravais-lattice index     =            0
     lattice parameter (alat)  =       8.5346  a.u.
     unit-cell volume          =     621.6493 (a.u.)^3
     number of atoms/cell      =            8
     number of atomic types    =            2
     number of electrons       =       162.00
     number of Kohn-Sham states=           97
     kinetic-energy cutoff     =      40.0000  Ry
     charge density cutoff     =     160.0000  Ry
     convergence threshold     =      1.0E-04
     mixing beta               =       0.7000
     number of iterations used =            8  plain     mixing
     Exchange-correlation      = SLA-PZ-NOGX-NOGC ( 1 1 0 0 0)
     EXX-fraction              =        0.00
     nstep                     =           50

     celldm(1)=   8.534573  celldm(2)=   0.000000  celldm(3)=   0.000000
     celldm(4)=   0.000000  celldm(5)=   0.000000  celldm(6)=   0.000000

     crystal axes: (cart. coord. in units of alat)
               a(1) = (   1.000000   0.000000   0.000000 )
               a(2) = (   0.000000   1.000000   0.000000 )
               a(3) = (   0.000000   0.000000   1.000000 )

     reciprocal axes: (cart. coord. in units 2 pi/alat)
               b(1) = (  1.000000  0.000000  0.000000 )
               b(2) = (  0.000000  1.000000  0.000000 )
               b(3) = (  0.000000  0.000000  1.000000 )

     PseudoPot. # 1 for Tm read from file:
     /home/cwx6513/pp.La/Tm.UPF
     MD5 check sum: 245516e0878b5372ceeb9443ded2c4e1
     Pseudo is Norm-conserving, Zval = 23.0
     Generated in analytical, separable form
     Using radial grid of 1269 points,  6 beta functions with:
                l(1) =   0
                l(2) =   0
                l(3) =   1
                l(4) =   1
                l(5) =   2
                l(6) =   3

     PseudoPot. # 2 for Ce read from file:
     /home/cwx6513/pp.La/Ce.UPF
     MD5 check sum: 44451aa79a44a00cf2bc029dc19922f6
     Pseudo is Norm-conserving, Zval = 12.0
     Generated in analytical, separable form
     Using radial grid of 1255 points,  6 beta functions with:
                l(1) =   0
                l(2) =   0
                l(3) =   1
                l(4) =   1
                l(5) =   2
                l(6) =   3

     atomic species   valence    mass     pseudopotential
        Cr            23.00    51.99610     Tm( 1.00)
        Si            12.00    28.08550     Ce( 1.00)

     48 Sym. Ops., with inversion, found (24 have fractional translation)

   Cartesian axes

     site n.     atom                  positions (alat units)
         1           Cr  tau(   1) = (   0.0000000   0.5000000   0.2500000  )
         2           Cr  tau(   2) = (   0.0000000   0.5000000   0.7500000  )
         3           Cr  tau(   3) = (   0.5000000   0.7500000   0.0000000  )
         4           Cr  tau(   4) = (   0.5000000   0.2500000   0.0000000  )
         5           Cr  tau(   5) = (   0.7500000   0.0000000   0.5000000  )
         6           Cr  tau(   6) = (   0.2500000   0.0000000   0.5000000  )
         7           Si  tau(   7) = (   0.5000000   0.5000000   0.5000000  )
         8           Si  tau(   8) = (   0.0000000   0.0000000   0.0000000  )

     number of k points=    48  gaussian smearing, width (Ry)=  0.1000
                       cart. coord. in units 2pi/alat
        k(    1) = (   0.0000000   0.0000000   0.0000000), wk =   0.0095238
        k(    2) = (   0.0000000   0.0000000   0.1428571), wk =   0.0190476
        k(    3) = (   0.0000000   0.0000000   0.2857143), wk =   0.0190476
        k(    4) = (   0.0000000   0.0000000   0.4285714), wk =   0.0190476
        k(    5) = (   0.0000000   0.1666667   0.0000000), wk =   0.0190476
        k(    6) = (   0.0000000   0.1666667   0.1428571), wk =   0.0380952
        k(    7) = (   0.0000000   0.1666667   0.2857143), wk =   0.0380952
        k(    8) = (   0.0000000   0.1666667   0.4285714), wk =   0.0380952
        k(    9) = (   0.0000000   0.3333333   0.0000000), wk =   0.0190476
        k(   10) = (   0.0000000   0.3333333   0.1428571), wk =   0.0380952
        k(   11) = (   0.0000000   0.3333333   0.2857143), wk =   0.0380952
        k(   12) = (   0.0000000   0.3333333   0.4285714), wk =   0.0380952
        k(   13) = (   0.0000000  -0.5000000   0.0000000), wk =   0.0095238
        k(   14) = (   0.0000000  -0.5000000   0.1428571), wk =   0.0190476
        k(   15) = (   0.0000000  -0.5000000   0.2857143), wk =   0.0190476
        k(   16) = (   0.0000000  -0.5000000   0.4285714), wk =   0.0190476
        k(   17) = (   0.2000000   0.0000000   0.0000000), wk =   0.0190476
        k(   18) = (   0.2000000   0.0000000   0.1428571), wk =   0.0380952
        k(   19) = (   0.2000000   0.0000000   0.2857143), wk =   0.0380952
        k(   20) = (   0.2000000   0.0000000   0.4285714), wk =   0.0380952
        k(   21) = (   0.2000000   0.1666667   0.0000000), wk =   0.0380952
        k(   22) = (   0.2000000   0.1666667   0.1428571), wk =   0.0761905
        k(   23) = (   0.2000000   0.1666667   0.2857143), wk =   0.0761905
        k(   24) = (   0.2000000   0.1666667   0.4285714), wk =   0.0761905
        k(   25) = (   0.2000000   0.3333333   0.0000000), wk =   0.0380952
        k(   26) = (   0.2000000   0.3333333   0.1428571), wk =   0.0761905
        k(   27) = (   0.2000000   0.3333333   0.2857143), wk =   0.0761905
        k(   28) = (   0.2000000   0.3333333   0.4285714), wk =   0.0761905
        k(   29) = (   0.2000000  -0.5000000   0.0000000), wk =   0.0190476
        k(   30) = (   0.2000000  -0.5000000   0.1428571), wk =   0.0380952
        k(   31) = (   0.2000000  -0.5000000   0.2857143), wk =   0.0380952
        k(   32) = (   0.2000000  -0.5000000   0.4285714), wk =   0.0380952
        k(   33) = (   0.4000000   0.0000000   0.0000000), wk =   0.0190476
        k(   34) = (   0.4000000   0.0000000   0.1428571), wk =   0.0380952
        k(   35) = (   0.4000000   0.0000000   0.2857143), wk =   0.0380952
        k(   36) = (   0.4000000   0.0000000   0.4285714), wk =   0.0380952
        k(   37) = (   0.4000000   0.1666667   0.0000000), wk =   0.0380952
        k(   38) = (   0.4000000   0.1666667   0.1428571), wk =   0.0761905
        k(   39) = (   0.4000000   0.1666667   0.2857143), wk =   0.0761905
        k(   40) = (   0.4000000   0.1666667   0.4285714), wk =   0.0761905
        k(   41) = (   0.4000000   0.3333333   0.0000000), wk =   0.0380952
        k(   42) = (   0.4000000   0.3333333   0.1428571), wk =   0.0761905
        k(   43) = (   0.4000000   0.3333333   0.2857143), wk =   0.0761905
        k(   44) = (   0.4000000   0.3333333   0.4285714), wk =   0.0761905
        k(   45) = (   0.4000000  -0.5000000   0.0000000), wk =   0.0190476
        k(   46) = (   0.4000000  -0.5000000   0.1428571), wk =   0.0380952
        k(   47) = (   0.4000000  -0.5000000   0.2857143), wk =   0.0380952
        k(   48) = (   0.4000000  -0.5000000   0.4285714), wk =   0.0380952

     Largest allocated arrays     est. size (Mb)     dimensions
     Largest temporary arrays     est. size (Mb)     dimensions

     Initial potential from superposition of free atoms

     Starting from uniform charge
     Starting wfc are    0 randomized atomic wfcs

     Self-consistent Calculation

     iteration #  1     ecut=    40.00 Ry     beta=0.70
     CG style diagonalization
     ethr =  1.00E-02,  avg # of iterations = 17.9

     total energy              =   -1880.15200564 Ry
     Harris-Foulkes estimate   =   -2900.73097062 Ry
     estimated scf accuracy    <    1254.01720863 Ry

     iteration #  2     ecut=    40.00 Ry     beta=0.70
     CG style diagonalization
     c_bands:  2 eigenvalues not converged
     c_bands:  1 eigenvalues not converged
     c_bands:  2 eigenvalues not converged
     c_bands:  2 eigenvalues not converged
     c_bands:  1 eigenvalues not converged
     c_bands:  1 eigenvalues not converged
     c_bands:  3 eigenvalues not converged
     c_bands:  1 eigenvalues not converged
     c_bands:  1 eigenvalues not converged
     c_bands:  1 eigenvalues not converged
     c_bands:  2 eigenvalues not converged
     c_bands:  1 eigenvalues not converged
     c_bands:  2 eigenvalues not converged
     c_bands:  1 eigenvalues not converged
     c_bands:  1 eigenvalues not converged
     c_bands:  1 eigenvalues not converged
     c_bands:  1 eigenvalues not converged
     c_bands:  1 eigenvalues not converged
     c_bands:  1 eigenvalues not converged
     c_bands:  1 eigenvalues not converged
     c_bands:  1 eigenvalues not converged
     c_bands:  2 eigenvalues not converged
     c_bands:  2 eigenvalues not converged
     c_bands:  1 eigenvalues not converged
     c_bands:  2 eigenvalues not converged
     c_bands:  2 eigenvalues not converged
     ethr =  1.00E-02,  avg # of iterations = 13.0

[...]

     End of self-consistent calculation

          k = 0.0000 0.0000 0.0000 (  2601 PWs)   bands (ev):

   -63.0717 -63.0717 -62.9450 -62.6741 -62.6741 -62.6741 -23.3593 -23.3593
   -23.2527 -21.9635 -21.9635 -21.9635 -21.6317 -21.6317 -21.6317 -21.5472
   -21.5472 -21.5472 -21.4693 -21.4693 -21.4693 -21.2236 -21.2236 -21.2236
    10.2502  10.4169  21.3761  21.3896  21.3896  22.1203  22.1203  22.1204
    22.4423  22.4423  22.4423  24.8688  25.7947  25.7947  25.8585  25.8585
    25.8585  26.3011  26.3011  26.3011  27.1623  27.1623  27.1623  27.5958
    28.2626  28.2626  28.4208  28.4208  28.4208  28.4747  28.4747  28.4747
    30.3353  30.8432  30.8432  30.8432  31.1129  31.1129  31.1129  35.5203
    35.5203  42.5698  42.5698  43.4350  43.4350  43.4350  44.0254  44.0254
    44.0254  44.5177  44.5177  44.5177  46.8503  46.8503  46.8503  47.2347
    50.3527  50.3527  50.3527  53.8163  53.8163  53.8483  53.8483  53.8484
    54.1313  54.1313  54.6709  56.9645  57.7038  57.7044  57.8786  57.8802
    57.8802

[...]

     the Fermi energy is    50.8616 ev

!    total energy              =   -2348.19143826 Ry
     Harris-Foulkes estimate   =   -2348.19149923 Ry
     estimated scf accuracy    <       0.00006658 Ry

     The total energy is the sum of the following terms:

     one-electron contribution =    -146.92971079 Ry
     hartree contribution      =     287.38498344 Ry
     xc contribution           =    -210.65934583 Ry
     ewald contribution        =   -2277.77468146 Ry
     smearing contrib. (-TS)   =      -0.21268361 Ry

     convergence has been achieved in  10 iterations

     Forces acting on atoms (Ry/au):

     atom    1 type  1   force =     0.00000000    0.00000000    0.00000000
     atom    2 type  1   force =     0.00000000    0.00000000    0.00000000
     atom    3 type  1   force =     0.00000000    0.00000000    0.00000000
[...]

     number of scf cycles    =   3
     number of bfgs steps    =   2

     enthalpy old            =   -2352.1526258189 Ry
     enthalpy new            =   -2349.6675510895 Ry

     CASE: enthalpy_new > enthalpy_old

     new trust radius        =       0.1619076028 bohr

     trust_radius < trust_radius_min

     resetting bfgs history

     Message from routine bfgs:
     history already reset at previous step: stopping
     new conv_thr            =       0.0000010000 Ry

     new unit-cell volume =   1048.03085 a.u.^3 (   155.30215 Ang^3 )

[...]

ATOMIC_POSITIONS (crystal)
Cr       0.000000000   0.500000000   0.250000000
Cr       0.000000000   0.500000000   0.750000000
Cr       0.500000000   0.750000000   0.000000000
Cr       0.500000000   0.250000000   0.000000000
Cr       0.750000000   0.000000000   0.500000000
Cr       0.250000000   0.000000000   0.500000000
Si       0.500000000   0.500000000   0.500000000
Si       0.000000000   0.000000000   0.000000000

     Writing output data file Prototype-La-cP8-Cr3Si.save
     NEW-OLD atomic charge density approx. for the potential
     NEW k-points:
        k(    1) = (   0.0000000   0.0000000   0.0000000), wk =   0.0095238
        k(    2) = (   0.0000000   0.0000000   0.1200307), wk =   0.0190476
        k(    3) = (   0.0000000   0.0000000   0.2400614), wk =   0.0190476
        k(    4) = (   0.0000000   0.0000000   0.3600922), wk =   0.0190476
        k(    5) = (   0.0000000   0.1400358   0.0000000), wk =   0.0190476
        k(    6) = (   0.0000000   0.1400358   0.1200307), wk =   0.0380952
        k(    7) = (   0.0000000   0.1400358   0.2400614), wk =   0.0380952
        k(    8) = (   0.0000000   0.1400358   0.3600922), wk =   0.0380952
        k(    9) = (   0.0000000   0.2800717   0.0000000), wk =   0.0190476
        k(   10) = (   0.0000000   0.2800717   0.1200307), wk =   0.0380952
        k(   11) = (   0.0000000   0.2800717   0.2400614), wk =   0.0380952
        k(   12) = (   0.0000000   0.2800717   0.3600922), wk =   0.0380952
        k(   13) = (   0.0000000  -0.4201075   0.0000000), wk =   0.0095238
        k(   14) = (   0.0000000  -0.4201075   0.1200307), wk =   0.0190476
        k(   15) = (   0.0000000  -0.4201075   0.2400614), wk =   0.0190476
        k(   16) = (   0.0000000  -0.4201075   0.3600922), wk =   0.0190476
        k(   17) = (   0.1680430   0.0000000   0.0000000), wk =   0.0190476
        k(   18) = (   0.1680430   0.0000000   0.1200307), wk =   0.0380952
        k(   19) = (   0.1680430   0.0000000   0.2400614), wk =   0.0380952
        k(   20) = (   0.1680430   0.0000000   0.3600922), wk =   0.0380952
        k(   21) = (   0.1680430   0.1400358   0.0000000), wk =   0.0380952
        k(   22) = (   0.1680430   0.1400358   0.1200307), wk =   0.0761905
        k(   23) = (   0.1680430   0.1400358   0.2400614), wk =   0.0761905
        k(   24) = (   0.1680430   0.1400358   0.3600922), wk =   0.0761905
        k(   25) = (   0.1680430   0.2800717   0.0000000), wk =   0.0380952
        k(   26) = (   0.1680430   0.2800717   0.1200307), wk =   0.0761905
        k(   27) = (   0.1680430   0.2800717   0.2400614), wk =   0.0761905
        k(   28) = (   0.1680430   0.2800717   0.3600922), wk =   0.0761905
        k(   29) = (   0.1680430  -0.4201075   0.0000000), wk =   0.0190476
        k(   30) = (   0.1680430  -0.4201075   0.1200307), wk =   0.0380952
        k(   31) = (   0.1680430  -0.4201075   0.2400614), wk =   0.0380952
        k(   32) = (   0.1680430  -0.4201075   0.3600922), wk =   0.0380952
        k(   33) = (   0.3360860   0.0000000   0.0000000), wk =   0.0190476
        k(   34) = (   0.3360860   0.0000000   0.1200307), wk =   0.0380952
        k(   35) = (   0.3360860   0.0000000   0.2400614), wk =   0.0380952
        k(   36) = (   0.3360860   0.0000000   0.3600922), wk =   0.0380952
        k(   37) = (   0.3360860   0.1400358   0.0000000), wk =   0.0380952
        k(   38) = (   0.3360860   0.1400358   0.1200307), wk =   0.0761905
        k(   39) = (   0.3360860   0.1400358   0.2400614), wk =   0.0761905
        k(   40) = (   0.3360860   0.1400358   0.3600922), wk =   0.0761905
        k(   41) = (   0.3360860   0.2800717   0.0000000), wk =   0.0380952
        k(   42) = (   0.3360860   0.2800717   0.1200307), wk =   0.0761905
        k(   43) = (   0.3360860   0.2800717   0.2400614), wk =   0.0761905
        k(   44) = (   0.3360860   0.2800717   0.3600922), wk =   0.0761905
        k(   45) = (   0.3360860  -0.4201075   0.0000000), wk =   0.0190476
        k(   46) = (   0.3360860  -0.4201075   0.1200307), wk =   0.0380952
        k(   47) = (   0.3360860  -0.4201075   0.2400614), wk =   0.0380952
        k(   48) = (   0.3360860  -0.4201075   0.3600922), wk =   0.0380952

[...]

          total   stress  (Ry/bohr**3)                   (kbar)     P=-1377.68
  -0.00936527   0.00000000   0.00000000      -1377.68      0.00      0.00
   0.00000000  -0.00936527   0.00000000          0.00  -1377.68      0.00
   0.00000000   0.00000000  -0.00936527          0.00      0.00  -1377.68

     The maximum number of steps has been reached.

     End of BFGS Geometry Optimization
Begin final coordinates
     new unit-cell volume =   1048.03085 a.u.^3 (   155.30215 Ang^3 )

CELL_PARAMETERS (alat=  8.53457320)
   1.190171504   0.000000000   0.000000000
   0.000000000   1.190171504   0.000000000
   0.000000000   0.000000000   1.190171504

ATOMIC_POSITIONS (crystal)
Cr       0.000000000   0.500000000   0.250000000
Cr       0.000000000   0.500000000   0.750000000
Cr       0.500000000   0.750000000   0.000000000
Cr       0.500000000   0.250000000   0.000000000
Cr       0.750000000   0.000000000   0.500000000
Cr       0.250000000   0.000000000   0.500000000
Si       0.500000000   0.500000000   0.500000000
Si       0.000000000   0.000000000   0.000000000
End final coordinates

     A final scf calculation at the relaxed structure.
     The G-vectors are recalculated for the final unit cell
     Results may differ from those at the preceding step.

     bravais-lattice index     =            0
     lattice parameter (alat)  =       8.5346  a.u.
     unit-cell volume          =    1048.0308 (a.u.)^3
     number of atoms/cell      =            8
     number of atomic types    =            2
     number of electrons       =       162.00
     number of Kohn-Sham states=           97
     kinetic-energy cutoff     =      40.0000  Ry
     charge density cutoff     =     160.0000  Ry
     convergence threshold     =      1.0E-06
     mixing beta               =       0.7000
     number of iterations used =            8  plain     mixing
     Exchange-correlation      = SLA-PZ-NOGX-NOGC ( 1 1 0 0 0)
     EXX-fraction              =        0.00

     celldm(1)=   8.534573  celldm(2)=   0.000000  celldm(3)=   0.000000
     celldm(4)=   0.000000  celldm(5)=   0.000000  celldm(6)=   0.000000

     crystal axes: (cart. coord. in units of alat)
               a(1) = (   1.190172   0.000000   0.000000 )
               a(2) = (   0.000000   1.190172   0.000000 )
               a(3) = (   0.000000   0.000000   1.190172 )

     reciprocal axes: (cart. coord. in units 2 pi/alat)
               b(1) = (  0.840215  0.000000  0.000000 )
               b(2) = (  0.000000  0.840215  0.000000 )
               b(3) = (  0.000000  0.000000  0.840215 )

     PseudoPot. # 1 for Tm read from file:
     /home/cwx6513/pp.La/Tm.UPF
     MD5 check sum: 245516e0878b5372ceeb9443ded2c4e1
     Pseudo is Norm-conserving, Zval = 23.0
     Generated in analytical, separable form
     Using radial grid of 1269 points,  6 beta functions with:
                l(1) =   0
                l(2) =   0
                l(3) =   1
                l(4) =   1
                l(5) =   2
                l(6) =   3

     PseudoPot. # 2 for Ce read from file:
     /home/cwx6513/pp.La/Ce.UPF
     MD5 check sum: 44451aa79a44a00cf2bc029dc19922f6
     Pseudo is Norm-conserving, Zval = 12.0
     Generated in analytical, separable form
     Using radial grid of 1255 points,  6 beta functions with:
                l(1) =   0
                l(2) =   0
                l(3) =   1
                l(4) =   1
                l(5) =   2
                l(6) =   3

     atomic species   valence    mass     pseudopotential
        Cr            23.00    51.99610     Tm( 1.00)
        Si            12.00    28.08550     Ce( 1.00)

     48 Sym. Ops., with inversion, found (24 have fractional translation)

   Cartesian axes

     site n.     atom                  positions (alat units)
         1           Cr  tau(   1) = (   0.0000000   0.5950858   0.2975429  )
         2           Cr  tau(   2) = (   0.0000000   0.5950858   0.8926286  )
         3           Cr  tau(   3) = (   0.5950858   0.8926286   0.0000000  )
         4           Cr  tau(   4) = (   0.5950858   0.2975429   0.0000000  )
         5           Cr  tau(   5) = (   0.8926286   0.0000000   0.5950858  )
         6           Cr  tau(   6) = (   0.2975429   0.0000000   0.5950858  )
         7           Si  tau(   7) = (   0.5950858   0.5950858   0.5950858  )
         8           Si  tau(   8) = (   0.0000000   0.0000000   0.0000000  )

     number of k points=    48  gaussian smearing, width (Ry)=  0.1000
                       cart. coord. in units 2pi/alat
        k(    1) = (   0.0000000   0.0000000   0.0000000), wk =   0.0095238
        k(    2) = (   0.0000000   0.0000000   0.1200307), wk =   0.0190476
        k(    3) = (   0.0000000   0.0000000   0.2400614), wk =   0.0190476
        k(    4) = (   0.0000000   0.0000000   0.3600922), wk =   0.0190476
        k(    5) = (   0.0000000   0.1400358   0.0000000), wk =   0.0190476
        k(    6) = (   0.0000000   0.1400358   0.1200307), wk =   0.0380952
        k(    7) = (   0.0000000   0.1400358   0.2400614), wk =   0.0380952
        k(    8) = (   0.0000000   0.1400358   0.3600922), wk =   0.0380952
        k(    9) = (   0.0000000   0.2800717   0.0000000), wk =   0.0190476
        k(   10) = (   0.0000000   0.2800717   0.1200307), wk =   0.0380952
        k(   11) = (   0.0000000   0.2800717   0.2400614), wk =   0.0380952
        k(   12) = (   0.0000000   0.2800717   0.3600922), wk =   0.0380952
        k(   13) = (   0.0000000  -0.4201075   0.0000000), wk =   0.0095238
        k(   14) = (   0.0000000  -0.4201075   0.1200307), wk =   0.0190476
        k(   15) = (   0.0000000  -0.4201075   0.2400614), wk =   0.0190476
        k(   16) = (   0.0000000  -0.4201075   0.3600922), wk =   0.0190476
        k(   17) = (   0.1680430   0.0000000   0.0000000), wk =   0.0190476
        k(   18) = (   0.1680430   0.0000000   0.1200307), wk =   0.0380952
        k(   19) = (   0.1680430   0.0000000   0.2400614), wk =   0.0380952
        k(   20) = (   0.1680430   0.0000000   0.3600922), wk =   0.0380952
        k(   21) = (   0.1680430   0.1400358   0.0000000), wk =   0.0380952
        k(   22) = (   0.1680430   0.1400358   0.1200307), wk =   0.0761905
        k(   23) = (   0.1680430   0.1400358   0.2400614), wk =   0.0761905
        k(   24) = (   0.1680430   0.1400358   0.3600922), wk =   0.0761905
        k(   25) = (   0.1680430   0.2800717   0.0000000), wk =   0.0380952
        k(   26) = (   0.1680430   0.2800717   0.1200307), wk =   0.0761905
        k(   27) = (   0.1680430   0.2800717   0.2400614), wk =   0.0761905
        k(   28) = (   0.1680430   0.2800717   0.3600922), wk =   0.0761905
        k(   29) = (   0.1680430  -0.4201075   0.0000000), wk =   0.0190476
        k(   30) = (   0.1680430  -0.4201075   0.1200307), wk =   0.0380952
        k(   31) = (   0.1680430  -0.4201075   0.2400614), wk =   0.0380952
        k(   32) = (   0.1680430  -0.4201075   0.3600922), wk =   0.0380952
        k(   33) = (   0.3360860   0.0000000   0.0000000), wk =   0.0190476
        k(   34) = (   0.3360860   0.0000000   0.1200307), wk =   0.0380952
        k(   35) = (   0.3360860   0.0000000   0.2400614), wk =   0.0380952
        k(   36) = (   0.3360860   0.0000000   0.3600922), wk =   0.0380952
        k(   37) = (   0.3360860   0.1400358   0.0000000), wk =   0.0380952
        k(   38) = (   0.3360860   0.1400358   0.1200307), wk =   0.0761905
        k(   39) = (   0.3360860   0.1400358   0.2400614), wk =   0.0761905
        k(   40) = (   0.3360860   0.1400358   0.3600922), wk =   0.0761905
        k(   41) = (   0.3360860   0.2800717   0.0000000), wk =   0.0380952
        k(   42) = (   0.3360860   0.2800717   0.1200307), wk =   0.0761905
        k(   43) = (   0.3360860   0.2800717   0.2400614), wk =   0.0761905
        k(   44) = (   0.3360860   0.2800717   0.3600922), wk =   0.0761905
        k(   45) = (   0.3360860  -0.4201075   0.0000000), wk =   0.0190476
        k(   46) = (   0.3360860  -0.4201075   0.1200307), wk =   0.0380952
        k(   47) = (   0.3360860  -0.4201075   0.2400614), wk =   0.0380952
        k(   48) = (   0.3360860  -0.4201075   0.3600922), wk =   0.0380952

     Largest allocated arrays     est. size (Mb)     dimensions
     Largest temporary arrays     est. size (Mb)     dimensions

     Initial potential from superposition of free atoms

     Starting from uniform charge
     Starting wfc are    0 randomized atomic wfcs

     Writing output data file Prototype-La-cP8-Cr3Si.save

     Self-consistent Calculation

[...]

     negative rho (up, down):  0.114E-05 0.000E+00

[...]

     iteration # 12     ecut=    40.00 Ry     beta=0.70
     CG style diagonalization
     c_bands:  1 eigenvalues not converged
     c_bands:  1 eigenvalues not converged
     ethr =  8.28E-08,  avg # of iterations =  3.6

[...]

     total energy              =   -2357.73823091 Ry
     Harris-Foulkes estimate   =   -2357.73823175 Ry
     estimated scf accuracy    <       0.00000178 Ry

     iteration # 16     ecut=    40.00 Ry     beta=0.70
     CG style diagonalization
     ethr =  1.10E-09,  avg # of iterations =  3.2

     End of self-consistent calculation

[...]

          k = 0.3361-0.4201 0.3601 (  4496 PWs)   bands (ev):

   -82.4286 -82.4275 -82.4243 -82.4240 -82.4223 -82.4204 -41.2990 -41.2852
   -41.2506 -41.2505 -41.2094 -41.1932 -41.0395 -41.0391 -41.0383 -41.0355
   -41.0346 -41.0328 -41.0322 -41.0306 -41.0284 -41.0267 -41.0229 -41.0199
    -8.3546  -8.3546   6.9747   7.0872   7.2173   7.2276   7.2647   7.2661
     7.3366   7.3598   7.4709   7.4761   7.5834   7.5845   7.6352   7.6604
     7.6886   7.7125   7.7773   7.7822   7.8542   7.8685   7.9847   8.0139
     8.0478   8.0530   8.1464   8.1637   8.1982   8.1991   8.2382   8.2551
     9.1986   9.2055   9.4225   9.4277   9.6332   9.6576  17.6167  17.6227
    18.1469  18.1484  18.5800  18.5953  23.0400  23.0400  26.2951  26.3144
    26.4844  26.4938  27.2170  27.4780  27.7751  27.9111  28.5960  28.6160
    28.7621  28.8470  29.6586  29.7512  30.1204  30.5171  32.4109  32.6152
    33.1744  33.2258  33.7395  33.8146  34.9162  34.9171  35.4639  35.4856
    35.8167

     the Fermi energy is    29.5674 ev

!    total energy              =   -2357.73823078 Ry
     Harris-Foulkes estimate   =   -2357.73823107 Ry
     estimated scf accuracy    <       0.00000032 Ry

     The total energy is the sum of the following terms:

     one-electron contribution =    -673.49656519 Ry
     hartree contribution      =     431.56435191 Ry
     xc contribution           =    -201.73333112 Ry
     ewald contribution        =   -1913.82054986 Ry
     smearing contrib. (-TS)   =      -0.25213652 Ry

     convergence has been achieved in  16 iterations

     Forces acting on atoms (Ry/au):

     atom    1 type  1   force =     0.00000000    0.00000000    0.00000000
     atom    2 type  1   force =     0.00000000    0.00000000    0.00000000
     atom    3 type  1   force =     0.00000000    0.00000000    0.00000000
     atom    4 type  1   force =     0.00000000    0.00000000    0.00000000
     atom    5 type  1   force =     0.00000000    0.00000000    0.00000000
     atom    6 type  1   force =     0.00000000    0.00000000    0.00000000
     atom    7 type  2   force =     0.00000000    0.00000000    0.00000000
     atom    8 type  2   force =     0.00000000    0.00000000    0.00000000

     Total force =     0.000000     Total SCF correction =     0.000000

     entering subroutine stress ...

          total   stress  (Ry/bohr**3)                   (kbar)     P=  256.98
   0.00174690   0.00000000   0.00000000        256.98      0.00      0.00
   0.00000000   0.00174690   0.00000000          0.00    256.98      0.00
   0.00000000   0.00000000   0.00174690          0.00      0.00    256.98

     Writing output data file Prototype-La-cP8-Cr3Si.save

     General routines

     Parallel routines

   This run was terminated on:  16:40:54  22Mar2018

   JOB DONE.