     Program PWSCF v.5.0.2 starts on 22Mar2018 at 16: 3:58

     Current dimensions of program PWSCF are:
     Max number of different atomic species (ntypx) = 10
     Max number of k-points (npk) =  40000
     Max angular momentum in pseudopotentials (lmaxx) =  3
     Waiting for input...
     Reading input from standard input

     Subspace diagonalization in iterative solution of the eigenvalue problem:
     a serial algorithm will be used

     bravais-lattice index     =            0
     lattice parameter (alat)  =       7.0151  a.u.
     unit-cell volume          =     862.2778 (a.u.)^3
     number of atoms/cell      =           12
     number of atomic types    =            2
     number of electrons       =       232.00
     number of Kohn-Sham states=          139
     kinetic-energy cutoff     =      40.0000  Ry
     charge density cutoff     =     160.0000  Ry
     convergence threshold     =      1.0E-04
     mixing beta               =       0.7000
     number of iterations used =            8  plain     mixing
     Exchange-correlation      = SLA-PZ-NOGX-NOGC ( 1 1 0 0 0)
     EXX-fraction              =        0.00
     nstep                     =           50

     celldm(1)=   7.015105  celldm(2)=   0.000000  celldm(3)=   0.000000
     celldm(4)=   0.000000  celldm(5)=   0.000000  celldm(6)=   0.000000

     crystal axes: (cart. coord. in units of alat)
               a(1) = (   1.000000   0.000000   0.000000 )
               a(2) = (   0.000000   1.315963   0.000000 )
               a(3) = (   0.000000   0.000000   1.898020 )

     reciprocal axes: (cart. coord. in units 2 pi/alat)
               b(1) = (  1.000000  0.000000  0.000000 )
               b(2) = (  0.000000  0.759900  0.000000 )
               b(3) = (  0.000000  0.000000  0.526865 )

     PseudoPot. # 1 for Tm read from file:
     /home/cwx6513/pp.La/Tm.UPF
     MD5 check sum: 245516e0878b5372ceeb9443ded2c4e1
     Pseudo is Norm-conserving, Zval = 23.0
     Generated in analytical, separable form
     Using radial grid of 1269 points,  6 beta functions with:
                l(1) =   0
                l(2) =   0
                l(3) =   1
                l(4) =   1
                l(5) =   2
                l(6) =   3

     PseudoPot. # 2 for Ce read from file:
     /home/cwx6513/pp.La/Ce.UPF
     MD5 check sum: 44451aa79a44a00cf2bc029dc19922f6
     Pseudo is Norm-conserving, Zval = 12.0
     Generated in analytical, separable form
     Using radial grid of 1255 points,  6 beta functions with:
                l(1) =   0
                l(2) =   0
                l(3) =   1
                l(4) =   1
                l(5) =   2
                l(6) =   3

     atomic species   valence    mass     pseudopotential
        Co            23.00    58.93320     Tm( 1.00)
        Si            12.00    28.08550     Ce( 1.00)

      8 Sym. Ops., with inversion, found ( 6 have fractional translation)

   Cartesian axes

     site n.     atom                  positions (alat units)
         1           Co  tau(   1) = (   0.7500000   1.0875135   0.8270358  )
         2           Co  tau(   2) = (   0.2500000   0.2284499   1.0709846  )
         3           Co  tau(   3) = (   0.7500000   0.4295318   0.1219744  )
         4           Co  tau(   4) = (   0.2500000   0.8864316   1.7760460  )
         5           Co  tau(   5) = (   0.2500000   0.7067855   0.5358966  )
         6           Co  tau(   6) = (   0.7500000   0.6091779   1.3621238  )
         7           Co  tau(   7) = (   0.2500000   0.0488038   0.4131136  )
         8           Co  tau(   8) = (   0.7500000   1.2671596   1.4849068  )
         9           Si  tau(   9) = (   0.2500000   0.2669484   1.6960710  )
        10           Si  tau(  10) = (   0.7500000   1.0490149   0.2019494  )
        11           Si  tau(  11) = (   0.2500000   0.9249301   1.1509596  )
        12           Si  tau(  12) = (   0.7500000   0.3910333   0.7470608  )

     number of k points=    12  gaussian smearing, width (Ry)=  0.1000
                       cart. coord. in units 2pi/alat
        k(    1) = (   0.0000000   0.0000000   0.0000000), wk =   0.0833333
        k(    2) = (   0.0000000   0.0000000   0.1317162), wk =   0.1666667
        k(    3) = (   0.0000000   0.0000000  -0.2634324), wk =   0.0833333
        k(    4) = (   0.0000000   0.2532999   0.0000000), wk =   0.1666667
        k(    5) = (   0.0000000   0.2532999   0.1317162), wk =   0.3333333
        k(    6) = (   0.0000000   0.2532999  -0.2634324), wk =   0.1666667
        k(    7) = (  -0.5000000   0.0000000   0.0000000), wk =   0.0833333
        k(    8) = (  -0.5000000   0.0000000   0.1317162), wk =   0.1666667
        k(    9) = (  -0.5000000   0.0000000  -0.2634324), wk =   0.0833333
        k(   10) = (  -0.5000000   0.2532999   0.0000000), wk =   0.1666667
        k(   11) = (  -0.5000000   0.2532999   0.1317162), wk =   0.3333333
        k(   12) = (  -0.5000000   0.2532999  -0.2634324), wk =   0.1666667

     Largest allocated arrays     est. size (Mb)     dimensions
     Largest temporary arrays     est. size (Mb)     dimensions

     Initial potential from superposition of free atoms

     Starting from uniform charge
     Starting wfc are    0 randomized atomic wfcs

     Self-consistent Calculation

     iteration #  1     ecut=    40.00 Ry     beta=0.70
     CG style diagonalization
     ethr =  1.00E-02,  avg # of iterations = 17.3

     total energy              =   -2411.79940330 Ry
     Harris-Foulkes estimate   =   -3965.67801472 Ry
     estimated scf accuracy    <    1905.93348865 Ry

     iteration #  2     ecut=    40.00 Ry     beta=0.70
     CG style diagonalization
     c_bands:  5 eigenvalues not converged
     c_bands:  4 eigenvalues not converged
     c_bands:  3 eigenvalues not converged
     c_bands:  3 eigenvalues not converged
     c_bands:  1 eigenvalues not converged
     c_bands:  2 eigenvalues not converged
     c_bands:  4 eigenvalues not converged
     c_bands:  2 eigenvalues not converged
     c_bands:  3 eigenvalues not converged
     c_bands:  4 eigenvalues not converged
     c_bands:  2 eigenvalues not converged
     ethr =  1.00E-02,  avg # of iterations = 14.4

[...]

     End of self-consistent calculation

          k = 0.0000 0.0000 0.0000 (  3675 PWs)   bands (ev):

   -60.3118 -60.2916 -60.2360 -60.2026 -60.1745 -60.1663 -60.1491 -60.1370
   -19.8664 -19.7566 -19.6238 -19.5784 -19.4994 -19.4611 -19.4177 -19.3332
   -19.3136 -19.2684 -19.2520 -19.2272 -19.2049 -19.1525 -19.1121 -19.1087
   -19.0894 -19.0824 -19.0208 -18.9985 -18.9683 -18.9224 -18.8976 -18.8551
    11.4176  11.9957  12.1312  12.3139  23.0779  23.6706  24.0279  24.1694
    24.6132  24.8939  24.9915  25.1941  25.4111  25.6962  25.7204  25.9112
    26.4437  26.5948  26.6021  26.6260  26.6821  26.6828  27.7074  27.9440
    28.1182  28.2023  28.2766  28.4795  28.4952  28.6395  28.6868  29.0245
    29.0800  29.2915  29.4146  29.4191  29.5913  29.6288  29.7282  29.9188
    29.9615  30.1042  30.2404  30.6450  31.2616  31.3652  31.4397  31.6461
    32.6813  32.9522  33.5443  34.1540  34.3750  34.6961  35.5528  35.5619
    35.7654  37.8412  40.7453  40.9893  42.7645  44.1364  44.3123  44.5965
    45.3214  45.3231  46.2273  46.5339  47.2994  47.6234  47.8629  48.5371
    48.5914  48.6155  48.8423  49.2505  49.2585  50.1989  51.8507  51.9455
    52.1907  52.3103  52.5019  52.5226  53.6256  53.9642  54.4809  55.6567
    55.7964  55.9429  56.3882  56.4700  56.5919  56.6883  57.1591  57.4678
    57.8584  57.8634  57.9628  58.5955  59.3890  59.5396  59.5745  59.7885
    60.0950  60.2264  61.1235

[...]

          k =-0.5000 0.0000 0.0000 (  3722 PWs)   bands (ev):

[...]

     the Fermi energy is    53.3052 ev

!    total energy              =   -3229.36716244 Ry
     Harris-Foulkes estimate   =   -3229.36718653 Ry
     estimated scf accuracy    <       0.00002497 Ry

     The total energy is the sum of the following terms:

     one-electron contribution =     -58.60593755 Ry
     hartree contribution      =     366.10805049 Ry
     xc contribution           =    -298.90687112 Ry
     ewald contribution        =   -3237.63469241 Ry
     smearing contrib. (-TS)   =      -0.32771185 Ry

     convergence has been achieved in  11 iterations

     Forces acting on atoms (Ry/au):

     atom    1 type  1   force =     0.00000000   -0.07346136   -0.07490735
     atom    2 type  1   force =     0.00000000    0.07346136    0.07490735
     atom    3 type  1   force =     0.00000000   -0.07346136    0.07490735
     atom    4 type  1   force =     0.00000000    0.07346136   -0.07490735
     atom    5 type  1   force =     0.00000000    0.15536322   -0.18973606
     atom    6 type  1   force =     0.00000000   -0.15536322    0.18973606
     atom    7 type  1   force =     0.00000000    0.15536322    0.18973606
     atom    8 type  1   force =     0.00000000   -0.15536322   -0.18973606
     atom    9 type  2   force =     0.00000000   -0.19367307   -0.02365884
     atom   10 type  2   force =     0.00000000    0.19367307    0.02365884
     atom   11 type  2   force =     0.00000000   -0.19367307    0.02365884
     atom   12 type  2   force =     0.00000000    0.19367307   -0.02365884

     Total force =     0.660951     Total SCF correction =     0.000000

     entering subroutine stress ...

          total   stress  (Ry/bohr**3)                   (kbar)     P= 7230.58
   0.05355523   0.00000000   0.00000000       7878.24      0.00      0.00
   0.00000000   0.04574814   0.00000000          0.00   6729.78      0.00
   0.00000000   0.00000000   0.04815406          0.00      0.00   7083.71

     BFGS Geometry Optimization

     number of scf cycles    =   1
     number of bfgs steps    =   0

     enthalpy new            =   -3229.3671624389 Ry

     new trust radius        =       0.5000000000 bohr
     new conv_thr            =       0.0001000000 Ry

     new unit-cell volume =   1080.57446 a.u.^3 (   160.12461 Ang^3 )

CELL_PARAMETERS (alat=  7.01510508)
   1.085136619   0.000000000   0.000000000
   0.000000000   1.411667754   0.000000000
   0.000000000   0.000000000   2.043314618

ATOMIC_POSITIONS (crystal)
Co       0.750000000   0.825894994   0.435378263
Co       0.250000000   0.174105006   0.564621737
Co       0.750000000   0.325894994   0.064621737
Co       0.250000000   0.674105006   0.935378263
Co       0.250000000   0.538156150   0.281438873
Co       0.750000000   0.461843850   0.718561127
Co       0.250000000   0.038156150   0.218561127
Co       0.750000000   0.961843850   0.781438873
Si       0.250000000   0.201519970   0.893487012
Si       0.750000000   0.798480030   0.106512988
Si       0.250000000   0.701519970   0.606512988
Si       0.750000000   0.298480030   0.393487012

     Writing output data file Prototype-La-oP12-Co2Si.save
     NEW-OLD atomic charge density approx. for the potential
     NEW k-points:
        k(    1) = (   0.0000000   0.0000000   0.0000000), wk =   0.0833333
        k(    2) = (   0.0000000   0.0000000   0.1223502), wk =   0.1666667
        k(    3) = (   0.0000000   0.0000000  -0.2447004), wk =   0.0833333
        k(    4) = (   0.0000000   0.2361273   0.0000000), wk =   0.1666667
        k(    5) = (   0.0000000   0.2361273   0.1223502), wk =   0.3333333
        k(    6) = (   0.0000000   0.2361273  -0.2447004), wk =   0.1666667
        k(    7) = (  -0.4607715   0.0000000   0.0000000), wk =   0.0833333
        k(    8) = (  -0.4607715   0.0000000   0.1223502), wk =   0.1666667
        k(    9) = (  -0.4607715   0.0000000  -0.2447004), wk =   0.0833333
        k(   10) = (  -0.4607715   0.2361273   0.0000000), wk =   0.1666667
        k(   11) = (  -0.4607715   0.2361273   0.1223502), wk =   0.3333333
        k(   12) = (  -0.4607715   0.2361273  -0.2447004), wk =   0.1666667

[...]

     enthalpy old            =   -3229.3671624389 Ry
     enthalpy new            =   -3236.1341480168 Ry

     CASE: enthalpy_new < enthalpy_old

     small trust_radius: resetting bfgs history

     new trust radius        =       2.9629051459 bohr
     new conv_thr            =       0.0001000000 Ry

[...]

          total   stress  (Ry/bohr**3)                   (kbar)     P=-4361.84
  -0.03287868   0.00000000   0.00000000      -4836.62      0.00      0.00
   0.00000000  -0.02686535   0.00000000          0.00  -3952.03      0.00
   0.00000000   0.00000000  -0.02920947          0.00      0.00  -4296.86

     number of scf cycles    =   3
     number of bfgs steps    =   2

     enthalpy old            =   -3236.1341480168 Ry
     enthalpy new            =   -3203.1967416126 Ry

     CASE: enthalpy_new > enthalpy_old

     new trust radius        =       0.6858942224 bohr

     trust_radius < trust_radius_min

     resetting bfgs history

     Message from routine bfgs:
     history already reset at previous step: stopping
     new conv_thr            =       0.0001000000 Ry

     new unit-cell volume =   1275.51974 a.u.^3 (   189.01252 Ang^3 )

[...]

ATOMIC_POSITIONS (crystal)
Co       0.750000000   0.825264966   0.435307946
Co       0.250000000   0.174735034   0.564692054
Co       0.750000000   0.325264966   0.064692054
Co       0.250000000   0.674735034   0.935307946
Co       0.250000000   0.539163431   0.280783066
Co       0.750000000   0.460836569   0.719216934
Co       0.250000000   0.039163431   0.219216934
Co       0.750000000   0.960836569   0.780783066
Si       0.250000000   0.200033084   0.893373889
Si       0.750000000   0.799966916   0.106626111
Si       0.250000000   0.700033084   0.606626111
Si       0.750000000   0.299966916   0.393373889

     Writing output data file Prototype-La-oP12-Co2Si.save
     NEW-OLD atomic charge density approx. for the potential
     NEW k-points:
        k(    1) = (   0.0000000   0.0000000   0.0000000), wk =   0.0833333
        k(    2) = (   0.0000000   0.0000000   0.1158224), wk =   0.1666667
        k(    3) = (   0.0000000   0.0000000  -0.2316448), wk =   0.0833333
        k(    4) = (   0.0000000   0.2252460   0.0000000), wk =   0.1666667
        k(    5) = (   0.0000000   0.2252460   0.1158224), wk =   0.3333333
        k(    6) = (   0.0000000   0.2252460  -0.2316448), wk =   0.1666667
        k(    7) = (  -0.4322694   0.0000000   0.0000000), wk =   0.0833333
        k(    8) = (  -0.4322694   0.0000000   0.1158224), wk =   0.1666667
        k(    9) = (  -0.4322694   0.0000000  -0.2316448), wk =   0.0833333
        k(   10) = (  -0.4322694   0.2252460   0.0000000), wk =   0.1666667
        k(   11) = (  -0.4322694   0.2252460   0.1158224), wk =   0.3333333
        k(   12) = (  -0.4322694   0.2252460  -0.2316448), wk =   0.1666667

[...]

     The maximum number of steps has been reached.

     End of BFGS Geometry Optimization
Begin final coordinates
     new unit-cell volume =   1275.51974 a.u.^3 (   189.01252 Ang^3 )

CELL_PARAMETERS (alat=  7.01510508)
   1.156686166   0.000000000   0.000000000
   0.000000000   1.479863737   0.000000000
   0.000000000   0.000000000   2.158476732

ATOMIC_POSITIONS (crystal)
Co       0.750000000   0.825264966   0.435307946
Co       0.250000000   0.174735034   0.564692054
Co       0.750000000   0.325264966   0.064692054
Co       0.250000000   0.674735034   0.935307946
Co       0.250000000   0.539163431   0.280783066
Co       0.750000000   0.460836569   0.719216934
Co       0.250000000   0.039163431   0.219216934
Co       0.750000000   0.960836569   0.780783066
Si       0.250000000   0.200033084   0.893373889
Si       0.750000000   0.799966916   0.106626111
Si       0.250000000   0.700033084   0.606626111
Si       0.750000000   0.299966916   0.393373889
End final coordinates

     A final scf calculation at the relaxed structure.
     The G-vectors are recalculated for the final unit cell
     Results may differ from those at the preceding step.

     bravais-lattice index     =            0
     lattice parameter (alat)  =       7.0151  a.u.
     unit-cell volume          =    1275.5197 (a.u.)^3
     number of atoms/cell      =           12
     number of atomic types    =            2
     number of electrons       =       232.00
     number of Kohn-Sham states=          139
     kinetic-energy cutoff     =      40.0000  Ry
     charge density cutoff     =     160.0000  Ry
     convergence threshold     =      1.0E-04
     mixing beta               =       0.7000
     number of iterations used =            8  plain     mixing
     Exchange-correlation      = SLA-PZ-NOGX-NOGC ( 1 1 0 0 0)
     EXX-fraction              =        0.00

     celldm(1)=   7.015105  celldm(2)=   0.000000  celldm(3)=   0.000000
     celldm(4)=   0.000000  celldm(5)=   0.000000  celldm(6)=   0.000000

     crystal axes: (cart. coord. in units of alat)
               a(1) = (   1.156686   0.000000   0.000000 )
               a(2) = (   0.000000   1.479864   0.000000 )
               a(3) = (   0.000000   0.000000   2.158477 )

     reciprocal axes: (cart. coord. in units 2 pi/alat)
               b(1) = (  0.864539  0.000000  0.000000 )
               b(2) = (  0.000000  0.675738  0.000000 )
               b(3) = (  0.000000  0.000000  0.463290 )

     PseudoPot. # 1 for Tm read from file:
     /home/cwx6513/pp.La/Tm.UPF
     MD5 check sum: 245516e0878b5372ceeb9443ded2c4e1
     Pseudo is Norm-conserving, Zval = 23.0
     Generated in analytical, separable form
     Using radial grid of 1269 points,  6 beta functions with:
                l(1) =   0
                l(2) =   0
                l(3) =   1
                l(4) =   1
                l(5) =   2
                l(6) =   3

     PseudoPot. # 2 for Ce read from file:
     /home/cwx6513/pp.La/Ce.UPF
     MD5 check sum: 44451aa79a44a00cf2bc029dc19922f6
     Pseudo is Norm-conserving, Zval = 12.0
     Generated in analytical, separable form
     Using radial grid of 1255 points,  6 beta functions with:
                l(1) =   0
                l(2) =   0
                l(3) =   1
                l(4) =   1
                l(5) =   2
                l(6) =   3

     atomic species   valence    mass     pseudopotential
        Co            23.00    58.93320     Tm( 1.00)
        Si            12.00    28.08550     Ce( 1.00)

      8 Sym. Ops., with inversion, found ( 6 have fractional translation)

   Cartesian axes

     site n.     atom                  positions (alat units)
         1           Co  tau(   1) = (   0.8675146   1.2212797   0.9396021  )
         2           Co  tau(   2) = (   0.2891715   0.2585840   1.2188747  )
         3           Co  tau(   3) = (   0.8675146   0.4813478   0.1396363  )
         4           Co  tau(   4) = (   0.2891715   0.9985159   2.0188404  )
         5           Co  tau(   5) = (   0.2891715   0.7978884   0.6060637  )
         6           Co  tau(   6) = (   0.8675146   0.6819753   1.5524130  )
         7           Co  tau(   7) = (   0.2891715   0.0579565   0.4731747  )
         8           Co  tau(   8) = (   0.8675146   1.4219072   1.6853021  )
         9           Si  tau(   9) = (   0.2891715   0.2960217   1.9283268  )
        10           Si  tau(  10) = (   0.8675146   1.1838420   0.2301500  )
        11           Si  tau(  11) = (   0.2891715   1.0359536   1.3093883  )
        12           Si  tau(  12) = (   0.8675146   0.4439102   0.8490884  )

     number of k points=    12  gaussian smearing, width (Ry)=  0.1000
                       cart. coord. in units 2pi/alat
        k(    1) = (   0.0000000   0.0000000   0.0000000), wk =   0.0833333
        k(    2) = (   0.0000000   0.0000000   0.1158224), wk =   0.1666667
        k(    3) = (   0.0000000   0.0000000  -0.2316448), wk =   0.0833333
        k(    4) = (   0.0000000   0.2252460   0.0000000), wk =   0.1666667
        k(    5) = (   0.0000000   0.2252460   0.1158224), wk =   0.3333333
        k(    6) = (   0.0000000   0.2252460  -0.2316448), wk =   0.1666667
        k(    7) = (  -0.4322694   0.0000000   0.0000000), wk =   0.0833333
        k(    8) = (  -0.4322694   0.0000000   0.1158224), wk =   0.1666667
        k(    9) = (  -0.4322694   0.0000000  -0.2316448), wk =   0.0833333
        k(   10) = (  -0.4322694   0.2252460   0.0000000), wk =   0.1666667
        k(   11) = (  -0.4322694   0.2252460   0.1158224), wk =   0.3333333
        k(   12) = (  -0.4322694   0.2252460  -0.2316448), wk =   0.1666667

     Largest allocated arrays     est. size (Mb)     dimensions
     Largest temporary arrays     est. size (Mb)     dimensions

     Initial potential from superposition of free atoms

     Starting from uniform charge
     Starting wfc are    0 randomized atomic wfcs

     Writing output data file Prototype-La-oP12-Co2Si.save

     Self-consistent Calculation

[...]

     iteration #  6     ecut=    40.00 Ry     beta=0.70
     CG style diagonalization
     ethr =  1.26E-03,  avg # of iterations =  4.1

[...]

     total energy              =   -3243.33089532 Ry
     Harris-Foulkes estimate   =   -3243.33171082 Ry
     estimated scf accuracy    <       0.00162069 Ry

     iteration # 10     ecut=    40.00 Ry     beta=0.70
     CG style diagonalization
     c_bands:  1 eigenvalues not converged
     ethr =  6.99E-07,  avg # of iterations =  3.8

     End of self-consistent calculation

[...]

          k = 0.0000 0.2252-0.2316 (  5448 PWs)   bands (ev):

[...]

          k =-0.4323 0.2252-0.2316 (  5456 PWs)   bands (ev):

   -76.3912 -76.3912 -76.3905 -76.3905 -76.2605 -76.2605 -76.2394 -76.2394
   -35.2350 -35.2350 -35.1436 -35.1436 -35.1308 -35.1308 -35.1250 -35.1250
   -35.1166 -35.1166 -35.0950 -35.0950 -35.0241 -35.0241 -35.0106 -35.0106
   -35.0047 -35.0047 -35.0026 -35.0026 -34.9762 -34.9762 -34.9642 -34.9642
    -2.3433  -2.3433  -2.3167  -2.3167  12.0455  12.0455  12.0711  12.0711
    12.1850  12.1850  12.4058  12.4058  12.4394  12.4394  12.6483  12.6483
    12.7514  12.7514  13.0173  13.0173  13.0491  13.0491  13.2496  13.2496
    13.2662  13.2662  13.4889  13.4889  13.5855  13.5855  13.7364  13.7364
    13.7638  13.7638  13.8618  13.8618  13.8875  13.8875  14.0397  14.0397
    14.1514  14.1514  14.4758  14.4758  14.9860  14.9860  15.1819  15.1819
    15.7883  15.7883  16.2644  16.2644  16.6141  16.6141  16.9988  16.9988
    23.5167  23.5167  23.6372  23.6372  25.7965  25.7965  25.9713  25.9713
    29.9125  29.9125  30.0199  30.0199  30.4948  30.4948  30.9249  30.9249
    31.7496  31.7496  32.9226  32.9226  33.5019  33.5019  33.6377  33.6377
    34.2497  34.2497  35.0505  35.0505  36.6379  36.6379  36.6936  36.6936
    38.0430  38.0430  38.2913  38.2914  39.7645  39.7645  39.8344  39.8345
    40.5559  40.5560  41.1612  41.1614  41.2665  41.2667  41.7837  41.7838
    42.0909  42.0914  42.6833

     the Fermi energy is    36.0148 ev

!    total energy              =   -3243.33132537 Ry
     Harris-Foulkes estimate   =   -3243.33139946 Ry
     estimated scf accuracy    <       0.00009555 Ry

     The total energy is the sum of the following terms:

     one-electron contribution =    -620.54957199 Ry
     hartree contribution      =     506.45502528 Ry
     xc contribution           =    -287.38612759 Ry
     ewald contribution        =   -2841.49006969 Ry
     smearing contrib. (-TS)   =      -0.36058138 Ry

     convergence has been achieved in  10 iterations

     Forces acting on atoms (Ry/au):

     atom    1 type  1   force =     0.00000000   -0.08010587   -0.01462564
     atom    2 type  1   force =     0.00000000    0.08010587    0.01462564
     atom    3 type  1   force =     0.00000000   -0.08010587    0.01462564
     atom    4 type  1   force =     0.00000000    0.08010587   -0.01462564
     atom    5 type  1   force =     0.00000000    0.06663392   -0.03877866
     atom    6 type  1   force =     0.00000000   -0.06663392    0.03877866
     atom    7 type  1   force =     0.00000000    0.06663392    0.03877866
     atom    8 type  1   force =     0.00000000   -0.06663392   -0.03877866
     atom    9 type  2   force =     0.00000000   -0.12361445   -0.02639045
     atom   10 type  2   force =     0.00000000    0.12361445    0.02639045
     atom   11 type  2   force =     0.00000000   -0.12361445    0.02639045
     atom   12 type  2   force =     0.00000000    0.12361445   -0.02639045

     Total force =     0.337945     Total SCF correction =     0.000000

     entering subroutine stress ...

          total   stress  (Ry/bohr**3)                   (kbar)     P= 1404.50
   0.01034145   0.00000000   0.00000000       1521.28      0.00      0.00
   0.00000000   0.00865808   0.00000000          0.00   1273.65      0.00
   0.00000000   0.00000000   0.00964334          0.00      0.00   1418.58

     Writing output data file Prototype-La-oP12-Co2Si.save

     General routines

     Parallel routines

   This run was terminated on:  16:43:38  22Mar2018

   JOB DONE.