     Program PWSCF v.5.0.2 starts on 22Mar2018 at 16: 3:56

     Current dimensions of program PWSCF are:
     Max number of different atomic species (ntypx) = 10
     Max number of k-points (npk) =  40000
     Max angular momentum in pseudopotentials (lmaxx) =  3
     Waiting for input...
     Reading input from standard input

     Subspace diagonalization in iterative solution of the eigenvalue problem:
     a serial algorithm will be used

     bravais-lattice index     =            0
     lattice parameter (alat)  =       9.9235  a.u.
     unit-cell volume          =    1361.0366 (a.u.)^3
     number of atoms/cell      =           12
     number of atomic types    =            2
     number of electrons       =       188.00
     number of Kohn-Sham states=          113
     kinetic-energy cutoff     =      40.0000  Ry
     charge density cutoff     =     160.0000  Ry
     convergence threshold     =      1.0E-04
     mixing beta               =       0.7000
     number of iterations used =            8  plain     mixing
     Exchange-correlation      = SLA-PZ-NOGX-NOGC ( 1 1 0 0 0)
     EXX-fraction              =        0.00
     nstep                     =           50

     celldm(1)=   9.923489  celldm(2)=   0.000000  celldm(3)=   0.000000
     celldm(4)=   0.000000  celldm(5)=   0.000000  celldm(6)=   0.000000

     crystal axes: (cart. coord. in units of alat)
               a(1) = (   1.000000   0.000000   0.000000 )
               a(2) = (  -0.500000   0.866025   0.000000 )
               a(3) = (   0.000000   0.000000   1.608222 )

     reciprocal axes: (cart. coord. in units 2 pi/alat)
               b(1) = (  1.000000  0.577350  0.000000 )
               b(2) = (  0.000000  1.154701  0.000000 )
               b(3) = (  0.000000  0.000000  0.621805 )

     PseudoPot. # 1 for Tm read from file:
     /home/cwx6513/pp.La/Tm.UPF
     MD5 check sum: 245516e0878b5372ceeb9443ded2c4e1
     Pseudo is Norm-conserving, Zval = 23.0
     Generated in analytical, separable form
     Using radial grid of 1269 points,  6 beta functions with:
                l(1) =   0
                l(2) =   0
                l(3) =   1
                l(4) =   1
                l(5) =   2
                l(6) =   3

     PseudoPot. # 2 for Ce read from file:
     /home/cwx6513/pp.La/Ce.UPF
     MD5 check sum: 44451aa79a44a00cf2bc029dc19922f6
     Pseudo is Norm-conserving, Zval = 12.0
     Generated in analytical, separable form
     Using radial grid of 1255 points,  6 beta functions with:
                l(1) =   0
                l(2) =   0
                l(3) =   1
                l(4) =   1
                l(5) =   2
                l(6) =   3

     atomic species   valence    mass     pseudopotential
        Mg            23.00    24.30500     Tm( 1.00)
        Zn            12.00    65.39000     Ce( 1.00)

     24 Sym. Ops., with inversion, found (12 have fractional translation)

   Cartesian axes

     site n.     atom                  positions (alat units)
         1           Mg  tau(   1) = (  -0.0000005   0.5773506   0.1003820  )
         2           Mg  tau(   2) = (   0.5000005   0.2886748   0.9044931  )
         3           Mg  tau(   3) = (   0.5000005   0.2886748   1.5078402  )
         4           Mg  tau(   4) = (  -0.0000005   0.5773506   0.7037291  )
         5           Zn  tau(   5) = (   0.0000000   0.0000000   0.0000000  )
         6           Zn  tau(   6) = (   0.0000000   0.0000000   0.8041111  )
         7           Zn  tau(   7) = (   0.0000000   0.2950739   1.2061667  )
         8           Zn  tau(   8) = (   0.7444585   0.1475370   0.4020556  )
         9           Zn  tau(   9) = (   0.2555415   0.1475370   0.4020556  )
        10           Zn  tau(  10) = (   0.2444585   0.7184884   1.2061667  )
        11           Zn  tau(  11) = (  -0.2444585   0.7184884   1.2061667  )
        12           Zn  tau(  12) = (   0.5000000   0.5709515   0.4020556  )

     number of k points=    12  gaussian smearing, width (Ry)=  0.1000
                       cart. coord. in units 2pi/alat
        k(    1) = (   0.0000000   0.0000000   0.0000000), wk =   0.0833333
        k(    2) = (   0.0000000   0.0000000   0.1554512), wk =   0.1666667
        k(    3) = (   0.0000000   0.0000000  -0.3109023), wk =   0.0833333
        k(    4) = (   0.0000000   0.3849002   0.0000000), wk =   0.1666667
        k(    5) = (   0.0000000   0.3849002   0.1554512), wk =   0.3333333
        k(    6) = (   0.0000000   0.3849002  -0.3109023), wk =   0.1666667
        k(    7) = (  -0.5000000  -0.2886751   0.0000000), wk =   0.0833333
        k(    8) = (  -0.5000000  -0.2886751   0.1554512), wk =   0.1666667
        k(    9) = (  -0.5000000  -0.2886751  -0.3109023), wk =   0.0833333
        k(   10) = (  -0.5000000   0.0962250   0.0000000), wk =   0.1666667
        k(   11) = (  -0.5000000   0.0962250   0.1554512), wk =   0.3333333
        k(   12) = (  -0.5000000   0.0962250  -0.3109023), wk =   0.1666667

     Largest allocated arrays     est. size (Mb)     dimensions
     Largest temporary arrays     est. size (Mb)     dimensions

     Initial potential from superposition of free atoms

     Starting from uniform charge
     Starting wfc are    0 randomized atomic wfcs

     Self-consistent Calculation

     iteration #  1     ecut=    40.00 Ry     beta=0.70
     CG style diagonalization
     ethr =  1.00E-02,  avg # of iterations = 13.0

     total energy              =    -597.28346885 Ry
     Harris-Foulkes estimate   =   -2957.17621006 Ry
     estimated scf accuracy    <    2785.49922723 Ry

[...]

     iteration #  3     ecut=    40.00 Ry     beta=0.70
     CG style diagonalization
     c_bands:  2 eigenvalues not converged
     c_bands:  1 eigenvalues not converged
     c_bands:  1 eigenvalues not converged
     c_bands:  1 eigenvalues not converged
     c_bands:  1 eigenvalues not converged
     ethr =  1.00E-02,  avg # of iterations = 13.2

[...]

     End of self-consistent calculation

          k = 0.0000 0.0000 0.0000 (  5769 PWs)   bands (ev):

   -81.2515 -81.2369 -81.2310 -81.1892 -39.9529 -39.9363 -39.9292 -39.9292
   -39.9114 -39.9091 -39.9090 -39.8865 -39.8858 -39.8857 -39.8767 -39.8766
    -9.8861  -9.3327  -7.8656  -7.0940  -7.0940  -7.0699  -7.0655  -7.0654
     3.9804   5.0802   5.9404   6.9919   6.9919   7.2867   7.2867   7.4169
     7.4169   8.4798   8.4798   8.5730   8.5730   8.7282   8.7552   8.8311
     8.8640   8.8640   9.1855   9.1855   9.2094   9.2094   9.2216   9.2867
     9.3007   9.3007   9.6524   9.6524   9.8727   9.8727  10.5599  10.5599
    10.9568  10.9568  11.3266  12.5765  12.7883  12.8091  12.8705  12.8706
    13.6151  13.6152  13.7418  13.7419  16.7782  19.0662  19.1214  22.4397
    22.5550  22.5551  23.1215  24.7692  24.7693  25.4829  25.5797  25.6158
    27.0092  27.0092  27.0341  27.0341  27.0794  27.0794  27.2284  27.8409
    29.2315  29.2316  30.2186  30.2186  30.4619  30.4621  31.5952  32.2141
    32.3444  32.4837  32.4838  33.0382  33.4846  33.4844  33.6946  33.6949
    33.9414  34.3206  34.3218  34.5525  34.5523  34.6063  34.6801  34.6799
    34.9702

[...]

          k =-0.5000-0.2887 0.0000 (  5800 PWs)   bands (ev):

[...]

     the Fermi energy is    30.6079 ev

!    total energy              =   -2084.63766096 Ry
     Harris-Foulkes estimate   =   -2084.63767121 Ry
     estimated scf accuracy    <       0.00001712 Ry

     The total energy is the sum of the following terms:

     one-electron contribution =    -327.12029829 Ry
     hartree contribution      =     316.61736494 Ry
     xc contribution           =    -207.45742465 Ry
     ewald contribution        =   -1866.20072145 Ry
     smearing contrib. (-TS)   =      -0.47658150 Ry

     convergence has been achieved in  11 iterations

     Forces acting on atoms (Ry/au):

     atom    1 type  1   force =     0.00000000    0.00000000    0.01861189
     atom    2 type  1   force =     0.00000000    0.00000000    0.01861189
     atom    3 type  1   force =     0.00000000    0.00000000   -0.01861189
     atom    4 type  1   force =     0.00000000    0.00000000   -0.01861189
     atom    5 type  2   force =     0.00000000    0.00000000    0.00000000
     atom    6 type  2   force =     0.00000000    0.00000000    0.00000000
     atom    7 type  2   force =     0.00000000    0.05795352    0.00000000
     atom    8 type  2   force =    -0.05018922    0.02897676    0.00000000
     atom    9 type  2   force =     0.05018922    0.02897676    0.00000000
     atom   10 type  2   force =    -0.05018922   -0.02897676    0.00000000
     atom   11 type  2   force =     0.05018922   -0.02897676    0.00000000
     atom   12 type  2   force =     0.00000000   -0.05795352    0.00000000

     Total force =     0.146756     Total SCF correction =     0.000000

     entering subroutine stress ...

          total   stress  (Ry/bohr**3)                   (kbar)     P= 1088.47
   0.00712365   0.00000000   0.00000000       1047.92      0.00      0.00
   0.00000000   0.00712365   0.00000000          0.00   1047.92      0.00
   0.00000000   0.00000000   0.00795045          0.00      0.00   1169.55

     BFGS Geometry Optimization

     number of scf cycles    =   1
     number of bfgs steps    =   0

     enthalpy new            =   -2084.6376609575 Ry

     new trust radius        =       0.5000000000 bohr
     new conv_thr            =       0.0001000000 Ry

     new unit-cell volume =   1635.10323 a.u.^3 (   242.29730 Ang^3 )

CELL_PARAMETERS (alat=  9.92348860)
   1.060717783   0.000000000   0.000000000
  -0.530358891   0.918608546   0.000000000
   0.000000000   0.000000000   1.717203317

ATOMIC_POSITIONS (crystal)
Mg       0.333333000   0.666667000   0.062815606
Mg       0.666667000   0.333333000   0.562815606
Mg       0.666667000   0.333333000   0.937184394
Mg       0.333333000   0.666667000   0.437184394
Zn       0.000000000   0.000000000   0.000000000
Zn       0.000000000   0.000000000   0.500000000
Zn       0.171510551   0.343021102   0.750000000
Zn       0.828489449   0.171510551   0.250000000
Zn       0.343021102   0.171510551   0.250000000
Zn       0.656978898   0.828489449   0.750000000
Zn       0.171510551   0.828489449   0.750000000
Zn       0.828489449   0.656978898   0.250000000

     Writing output data file Prototype-La-hP12-MgZn2.save
     NEW-OLD atomic charge density approx. for the potential
     NEW k-points:
        k(    1) = (   0.0000000   0.0000000   0.0000000), wk =   0.0833333
        k(    2) = (   0.0000000   0.0000000   0.1455856), wk =   0.1666667
        k(    3) = (   0.0000000   0.0000000  -0.2911711), wk =   0.0833333
        k(    4) = (   0.0000000   0.3628677   0.0000000), wk =   0.1666667
        k(    5) = (   0.0000000   0.3628677   0.1455856), wk =   0.3333333
        k(    6) = (   0.0000000   0.3628677  -0.2911711), wk =   0.1666667
        k(    7) = (  -0.4713789  -0.2721507   0.0000000), wk =   0.0833333
        k(    8) = (  -0.4713789  -0.2721507   0.1455856), wk =   0.1666667
        k(    9) = (  -0.4713789  -0.2721507  -0.2911711), wk =   0.0833333
        k(   10) = (  -0.4713789   0.0907169   0.0000000), wk =   0.1666667
        k(   11) = (  -0.4713789   0.0907169   0.1455856), wk =   0.3333333
        k(   12) = (  -0.4713789   0.0907169  -0.2911711), wk =   0.1666667

[...]

     enthalpy old            =   -2084.6376609575 Ry
     enthalpy new            =   -2085.6228374414 Ry

     CASE: enthalpy_new < enthalpy_old

     small trust_radius: resetting bfgs history

[...]

     number of scf cycles    =   3
     number of bfgs steps    =   2

     enthalpy old            =   -2085.6228374414 Ry
     enthalpy new            =   -2085.6236938637 Ry

     CASE: enthalpy_new < enthalpy_old

     Message from routine bfgs:
     history already reset at previous step: stopping
     small trust_radius: resetting bfgs history

     new trust radius        =       0.1044554417 bohr
     new conv_thr            =       0.0000085642 Ry

     new unit-cell volume =   1637.50667 a.u.^3 (   242.65345 Ang^3 )

[...]

ATOMIC_POSITIONS (crystal)
Mg       0.333333000   0.666667000   0.063219116
Mg       0.666667000   0.333333000   0.563219116
Mg       0.666667000   0.333333000   0.936780884
Mg       0.333333000   0.666667000   0.436780884
Zn       0.000000000   0.000000000   0.000000000
Zn       0.000000000   0.000000000   0.500000000
Zn       0.171705486   0.343410972   0.750000000
Zn       0.828294514   0.171705486   0.250000000
Zn       0.343410972   0.171705486   0.250000000
Zn       0.656589028   0.828294514   0.750000000
Zn       0.171705486   0.828294514   0.750000000
Zn       0.828294514   0.656589028   0.250000000

     Writing output data file Prototype-La-hP12-MgZn2.save
     NEW-OLD atomic charge density approx. for the potential
     NEW k-points:
        k(    1) = (   0.0000000   0.0000000   0.0000000), wk =   0.0833333
        k(    2) = (   0.0000000   0.0000000   0.1453979), wk =   0.1666667
        k(    3) = (   0.0000000   0.0000000  -0.2907957), wk =   0.0833333
        k(    4) = (   0.0000000   0.3628352   0.0000000), wk =   0.1666667
        k(    5) = (   0.0000000   0.3628352   0.1453979), wk =   0.3333333
        k(    6) = (   0.0000000   0.3628352  -0.2907957), wk =   0.1666667
        k(    7) = (  -0.4713368  -0.2721264   0.0000000), wk =   0.0833333
        k(    8) = (  -0.4713368  -0.2721264   0.1453979), wk =   0.1666667
        k(    9) = (  -0.4713368  -0.2721264  -0.2907957), wk =   0.0833333
        k(   10) = (  -0.4713368   0.0907088   0.0000000), wk =   0.1666667
        k(   11) = (  -0.4713368   0.0907088   0.1453979), wk =   0.3333333
        k(   12) = (  -0.4713368   0.0907088  -0.2907957), wk =   0.1666667

[...]

     The maximum number of steps has been reached.

     End of BFGS Geometry Optimization
Begin final coordinates
     new unit-cell volume =   1637.50667 a.u.^3 (   242.65345 Ang^3 )

CELL_PARAMETERS (alat=  9.92348860)
   1.060812590   0.000000000   0.000000000
  -0.530406295   0.918690652   0.000000000
   0.000000000   0.000000000   1.719420059

ATOMIC_POSITIONS (crystal)
Mg       0.333333000   0.666667000   0.063219116
Mg       0.666667000   0.333333000   0.563219116
Mg       0.666667000   0.333333000   0.936780884
Mg       0.333333000   0.666667000   0.436780884
Zn       0.000000000   0.000000000   0.000000000
Zn       0.000000000   0.000000000   0.500000000
Zn       0.171705486   0.343410972   0.750000000
Zn       0.828294514   0.171705486   0.250000000
Zn       0.343410972   0.171705486   0.250000000
Zn       0.656589028   0.828294514   0.750000000
Zn       0.171705486   0.828294514   0.750000000
Zn       0.828294514   0.656589028   0.250000000
End final coordinates

     A final scf calculation at the relaxed structure.
     The G-vectors are recalculated for the final unit cell
     Results may differ from those at the preceding step.

     bravais-lattice index     =            0
     lattice parameter (alat)  =       9.9235  a.u.
     unit-cell volume          =    1637.5067 (a.u.)^3
     number of atoms/cell      =           12
     number of atomic types    =            2
     number of electrons       =       188.00
     number of Kohn-Sham states=          113
     kinetic-energy cutoff     =      40.0000  Ry
     charge density cutoff     =     160.0000  Ry
     convergence threshold     =      8.6E-06
     mixing beta               =       0.7000
     number of iterations used =            8  plain     mixing
     Exchange-correlation      = SLA-PZ-NOGX-NOGC ( 1 1 0 0 0)
     EXX-fraction              =        0.00

     celldm(1)=   9.923489  celldm(2)=   0.000000  celldm(3)=   0.000000
     celldm(4)=   0.000000  celldm(5)=   0.000000  celldm(6)=   0.000000

     crystal axes: (cart. coord. in units of alat)
               a(1) = (   1.060813   0.000000   0.000000 )
               a(2) = (  -0.530406   0.918691   0.000000 )
               a(3) = (   0.000000   0.000000   1.719420 )

     reciprocal axes: (cart. coord. in units 2 pi/alat)
               b(1) = (  0.942674  0.544253  0.000000 )
               b(2) = (  0.000000  1.088506  0.000000 )
               b(3) = (  0.000000  0.000000  0.581591 )

     PseudoPot. # 1 for Tm read from file:
     /home/cwx6513/pp.La/Tm.UPF
     MD5 check sum: 245516e0878b5372ceeb9443ded2c4e1
     Pseudo is Norm-conserving, Zval = 23.0
     Generated in analytical, separable form
     Using radial grid of 1269 points,  6 beta functions with:
                l(1) =   0
                l(2) =   0
                l(3) =   1
                l(4) =   1
                l(5) =   2
                l(6) =   3

     PseudoPot. # 2 for Ce read from file:
     /home/cwx6513/pp.La/Ce.UPF
     MD5 check sum: 44451aa79a44a00cf2bc029dc19922f6
     Pseudo is Norm-conserving, Zval = 12.0
     Generated in analytical, separable form
     Using radial grid of 1255 points,  6 beta functions with:
                l(1) =   0
                l(2) =   0
                l(3) =   1
                l(4) =   1
                l(5) =   2
                l(6) =   3

     atomic species   valence    mass     pseudopotential
        Mg            23.00    24.30500     Tm( 1.00)
        Zn            12.00    65.39000     Ce( 1.00)

     24 Sym. Ops., with inversion, found (12 have fractional translation)

   Cartesian axes

     site n.     atom                  positions (alat units)
         1           Mg  tau(   1) = (  -0.0000005   0.6124607   0.1087002  )
         2           Mg  tau(   2) = (   0.5304068   0.3062299   0.9684102  )
         3           Mg  tau(   3) = (   0.5304068   0.3062299   1.6107198  )
         4           Mg  tau(   4) = (  -0.0000005   0.6124607   0.7510098  )
         5           Zn  tau(   5) = (   0.0000000   0.0000000   0.0000000  )
         6           Zn  tau(   6) = (   0.0000000   0.0000000   0.8597100  )
         7           Zn  tau(   7) = (   0.0000000   0.3154884   1.2895650  )
         8           Zn  tau(   8) = (   0.7875916   0.1577442   0.4298550  )
         9           Zn  tau(   9) = (   0.2732210   0.1577442   0.4298550  )
        10           Zn  tau(  10) = (   0.2571853   0.7609464   1.2895650  )
        11           Zn  tau(  11) = (  -0.2571853   0.7609464   1.2895650  )
        12           Zn  tau(  12) = (   0.5304063   0.6032022   0.4298550  )

     number of k points=    12  gaussian smearing, width (Ry)=  0.1000
                       cart. coord. in units 2pi/alat
        k(    1) = (   0.0000000   0.0000000   0.0000000), wk =   0.0833333
        k(    2) = (   0.0000000   0.0000000   0.1453979), wk =   0.1666667
        k(    3) = (   0.0000000   0.0000000  -0.2907957), wk =   0.0833333
        k(    4) = (   0.0000000   0.3628352   0.0000000), wk =   0.1666667
        k(    5) = (   0.0000000   0.3628352   0.1453979), wk =   0.3333333
        k(    6) = (   0.0000000   0.3628352  -0.2907957), wk =   0.1666667
        k(    7) = (  -0.4713368  -0.2721264   0.0000000), wk =   0.0833333
        k(    8) = (  -0.4713368  -0.2721264   0.1453979), wk =   0.1666667
        k(    9) = (  -0.4713368  -0.2721264  -0.2907957), wk =   0.0833333
        k(   10) = (  -0.4713368   0.0907088   0.0000000), wk =   0.1666667
        k(   11) = (  -0.4713368   0.0907088   0.1453979), wk =   0.3333333
        k(   12) = (  -0.4713368   0.0907088  -0.2907957), wk =   0.1666667

     Largest allocated arrays     est. size (Mb)     dimensions
     Largest temporary arrays     est. size (Mb)     dimensions

     Initial potential from superposition of free atoms

     Starting from uniform charge
     Starting wfc are    0 randomized atomic wfcs

     Writing output data file Prototype-La-hP12-MgZn2.save

     Self-consistent Calculation

[...]

     iteration # 10     ecut=    40.00 Ry     beta=0.70
     CG style diagonalization
     c_bands:  1 eigenvalues not converged
     c_bands:  1 eigenvalues not converged
     c_bands:  1 eigenvalues not converged
     ethr =  3.66E-06,  avg # of iterations =  3.7

[...]

     total energy              =   -2086.75663148 Ry
     Harris-Foulkes estimate   =   -2086.75664290 Ry
     estimated scf accuracy    <       0.00002065 Ry

     iteration # 12     ecut=    40.00 Ry     beta=0.70
     CG style diagonalization
     ethr =  1.10E-08,  avg # of iterations =  4.9

     End of self-consistent calculation

[...]

          k = 0.0000 0.3628-0.2908 (  7006 PWs)   bands (ev):

[...]

          k =-0.4713 0.0907-0.2908 (  7004 PWs)   bands (ev):

   -86.3661 -86.3661 -86.3602 -86.3602 -45.0098 -45.0097 -45.0032 -45.0031
   -44.9924 -44.9923 -44.9909 -44.9908 -44.9856 -44.9855 -44.9772 -44.9771
   -13.6527 -13.6527 -13.2043 -13.2043 -12.4912 -12.4912 -12.4058 -12.4058
     1.9746   1.9746   2.9222   2.9222   3.4450   3.4450   3.5245   3.5245
     3.7249   3.7249   3.8620   3.8620   3.9480   3.9481   3.9656   3.9657
     4.0327   4.0327   4.1211   4.1212   4.1785   4.1786   4.2164   4.2165
     4.3153   4.3153   4.3699   4.3700   4.4714   4.4714   4.7710   4.7710
     5.2106   5.2106   5.7824   5.7824   6.1688   6.1688   6.4110   6.4110
     7.0451   7.0451   7.1947   7.1947  14.5814  14.5814  15.2107  15.2108
    19.7296  19.7296  20.1311  20.1312  20.8543  20.8543  21.6528  21.6528
    21.8427  21.8427  22.5805  22.5805  23.0165  23.0165  23.4993  23.4993
    23.7435  23.7435  24.3968  24.3968  24.8730  24.8730  25.1454  25.1454
    25.7506  25.7506  26.1488  26.1488  26.3176  26.3176  27.0374  27.0374
    27.5051  27.5052  27.9478  27.9480  28.6372  28.6374  28.9315  28.9326
    29.4867

     the Fermi energy is    25.0592 ev

!    total energy              =   -2086.75665415 Ry
     Harris-Foulkes estimate   =   -2086.75665502 Ry
     estimated scf accuracy    <       0.00000131 Ry

     The total energy is the sum of the following terms:

     one-electron contribution =    -487.81266226 Ry
     hartree contribution      =     360.05518566 Ry
     xc contribution           =    -203.92950305 Ry
     ewald contribution        =   -1754.52517316 Ry
     smearing contrib. (-TS)   =      -0.54450133 Ry

     convergence has been achieved in  12 iterations

     Forces acting on atoms (Ry/au):

     atom    1 type  1   force =     0.00000000    0.00000000    0.00479272
     atom    2 type  1   force =     0.00000000    0.00000000    0.00479272
     atom    3 type  1   force =     0.00000000    0.00000000   -0.00479272
     atom    4 type  1   force =     0.00000000    0.00000000   -0.00479272
     atom    5 type  2   force =     0.00000000    0.00000000    0.00000000
     atom    6 type  2   force =     0.00000000    0.00000000    0.00000000
     atom    7 type  2   force =     0.00000000    0.00712475    0.00000000
     atom    8 type  2   force =    -0.00617022    0.00356238    0.00000000
     atom    9 type  2   force =     0.00617022    0.00356238    0.00000000
     atom   10 type  2   force =    -0.00617022   -0.00356238    0.00000000
     atom   11 type  2   force =     0.00617022   -0.00356238    0.00000000
     atom   12 type  2   force =     0.00000000   -0.00712475    0.00000000

     Total force =     0.019911     Total SCF correction =     0.000000

     entering subroutine stress ...

          total   stress  (Ry/bohr**3)                   (kbar)     P=  300.44
   0.00198689   0.00000000   0.00000000        292.28      0.00      0.00
   0.00000000   0.00198689   0.00000000          0.00    292.28      0.00
   0.00000000   0.00000000   0.00215326          0.00      0.00    316.76

     Writing output data file Prototype-La-hP12-MgZn2.save

     General routines

     Parallel routines

   This run was terminated on:  16:32:21  22Mar2018

   JOB DONE.