     Program PWSCF v.5.0.2 starts on 22Mar2018 at 12:15:13

     Current dimensions of program PWSCF are:
     Max number of different atomic species (ntypx) = 10
     Max number of k-points (npk) =  40000
     Max angular momentum in pseudopotentials (lmaxx) =  3
     Waiting for input...
     Reading input from standard input

     Subspace diagonalization in iterative solution of the eigenvalue problem:
     a serial algorithm will be used

     bravais-lattice index     =            0
     lattice parameter (alat)  =       7.0151  a.u.
     unit-cell volume          =     862.2778 (a.u.)^3
     number of atoms/cell      =           12
     number of atomic types    =            2
     number of electrons       =       284.00
     number of Kohn-Sham states=          170
     kinetic-energy cutoff     =      40.0000  Ry
     charge density cutoff     =     160.0000  Ry
     convergence threshold     =      1.0E-04
     mixing beta               =       0.7000
     number of iterations used =            8  plain     mixing
     Exchange-correlation      = SLA-PZ-NOGX-NOGC ( 1 1 0 0 0)
     EXX-fraction              =        0.00
     nstep                     =           50

     celldm(1)=   7.015105  celldm(2)=   0.000000  celldm(3)=   0.000000
     celldm(4)=   0.000000  celldm(5)=   0.000000  celldm(6)=   0.000000

     crystal axes: (cart. coord. in units of alat)
               a(1) = (   1.000000   0.000000   0.000000 )
               a(2) = (   0.000000   1.315963   0.000000 )
               a(3) = (   0.000000   0.000000   1.898020 )

     reciprocal axes: (cart. coord. in units 2 pi/alat)
               b(1) = (  1.000000  0.000000  0.000000 )
               b(2) = (  0.000000  0.759900  0.000000 )
               b(3) = (  0.000000  0.000000  0.526865 )

     PseudoPot. # 1 for Yb read from file:
     /home/jld5415/pp.La/Yb.UPF
     MD5 check sum: 3e859b81cc28c53ec6aa3a2e888efcdf
     Pseudo is Norm-conserving, Zval = 24.0
     Generated in analytical, separable form
     Using radial grid of 1269 points,  6 beta functions with:
                l(1) =   0
                l(2) =   0
                l(3) =   1
                l(4) =   1
                l(5) =   2
                l(6) =   3

     PseudoPot. # 2 for Tm read from file:
     /home/jld5415/pp.La/Tm.UPF
     MD5 check sum: 245516e0878b5372ceeb9443ded2c4e1
     Pseudo is Norm-conserving, Zval = 23.0
     Generated in analytical, separable form
     Using radial grid of 1269 points,  6 beta functions with:
                l(1) =   0
                l(2) =   0
                l(3) =   1
                l(4) =   1
                l(5) =   2
                l(6) =   3

     atomic species   valence    mass     pseudopotential
        Co            24.00    58.93320     Yb( 1.00)
        Si            23.00    28.08550     Tm( 1.00)

      8 Sym. Ops., with inversion, found ( 6 have fractional translation)

   Cartesian axes

     site n.     atom                  positions (alat units)
         1           Co  tau(   1) = (   0.7500000   1.0875135   0.8270358  )
         2           Co  tau(   2) = (   0.2500000   0.2284499   1.0709846  )
         3           Co  tau(   3) = (   0.7500000   0.4295318   0.1219744  )
         4           Co  tau(   4) = (   0.2500000   0.8864316   1.7760460  )
         5           Co  tau(   5) = (   0.2500000   0.7067855   0.5358966  )
         6           Co  tau(   6) = (   0.7500000   0.6091779   1.3621238  )
         7           Co  tau(   7) = (   0.2500000   0.0488038   0.4131136  )
         8           Co  tau(   8) = (   0.7500000   1.2671596   1.4849068  )
         9           Si  tau(   9) = (   0.2500000   0.2669484   1.6960710  )
        10           Si  tau(  10) = (   0.7500000   1.0490149   0.2019494  )
        11           Si  tau(  11) = (   0.2500000   0.9249301   1.1509596  )
        12           Si  tau(  12) = (   0.7500000   0.3910333   0.7470608  )

     number of k points=    12  gaussian smearing, width (Ry)=  0.1000
                       cart. coord. in units 2pi/alat
        k(    1) = (   0.0000000   0.0000000   0.0000000), wk =   0.0833333
        k(    2) = (   0.0000000   0.0000000   0.1317162), wk =   0.1666667
        k(    3) = (   0.0000000   0.0000000  -0.2634324), wk =   0.0833333
        k(    4) = (   0.0000000   0.2532999   0.0000000), wk =   0.1666667
        k(    5) = (   0.0000000   0.2532999   0.1317162), wk =   0.3333333
        k(    6) = (   0.0000000   0.2532999  -0.2634324), wk =   0.1666667
        k(    7) = (  -0.5000000   0.0000000   0.0000000), wk =   0.0833333
        k(    8) = (  -0.5000000   0.0000000   0.1317162), wk =   0.1666667
        k(    9) = (  -0.5000000   0.0000000  -0.2634324), wk =   0.0833333
        k(   10) = (  -0.5000000   0.2532999   0.0000000), wk =   0.1666667
        k(   11) = (  -0.5000000   0.2532999   0.1317162), wk =   0.3333333
        k(   12) = (  -0.5000000   0.2532999  -0.2634324), wk =   0.1666667

     Largest allocated arrays     est. size (Mb)     dimensions
     Largest temporary arrays     est. size (Mb)     dimensions

     Initial potential from superposition of free atoms

     Starting from uniform charge
     Starting wfc are    0 randomized atomic wfcs

     Self-consistent Calculation

     iteration #  1     ecut=    40.00 Ry     beta=0.70
     CG style diagonalization
     ethr =  1.00E-02,  avg # of iterations = 18.6

     total energy              =   -4223.65932551 Ry
     Harris-Foulkes estimate   =   -5461.73460278 Ry
     estimated scf accuracy    <    1562.27186444 Ry

[...]

     iteration #  6     ecut=    40.00 Ry     beta=0.70
     CG style diagonalization
     c_bands:  2 eigenvalues not converged
     c_bands:  3 eigenvalues not converged
     c_bands:  1 eigenvalues not converged
     ethr =  1.60E-04,  avg # of iterations =  4.5

[...]

     End of self-consistent calculation

          k = 0.0000 0.0000 0.0000 (  3675 PWs)   bands (ev):

   -67.0241 -67.0198 -67.0084 -66.9684 -66.7611 -66.7101 -66.6658 -66.6594
   -54.9922 -54.9745 -54.9666 -54.9506 -26.2497 -26.2468 -26.2403 -26.1999
   -26.1811 -26.1575 -26.1121 -26.1121 -26.0718 -26.0509 -26.0286 -25.9604
   -25.9339 -25.9175 -25.8111 -25.8102 -25.8013 -25.7833 -25.7107 -25.6976
   -25.6852 -25.6367 -25.5227 -25.5087 -14.2528 -14.2108 -14.2094 -14.1984
   -14.1866 -14.1832 -14.1790 -14.1677 -13.9145 -13.8901 -13.8857 -13.8419
    27.2436  27.2637  27.3862  27.5312  27.5549  27.6585  27.7740  27.9617
    28.0945  28.1149  28.2144  28.4900  28.5121  28.6979  29.0103  29.3256
    29.5004  29.6150  29.7405  29.7427  29.8233  29.9945  30.0890  30.2625
    30.3610  30.5728  30.7311  30.9020  30.9716  31.0394  31.0727  31.1302
    31.1888  31.2816  31.3527  31.8608  32.1144  32.2768  32.3152  32.5137
    32.7190  32.9572  33.6249  33.6739  33.8391  33.9493  34.0688  34.4454
    34.5788  34.7248  35.2009  35.2063  35.2235  35.2431  35.4471  35.7531
    35.8119  36.0866  36.2103  36.4478  36.5253  36.9095  37.7835  42.0308
    42.9134  43.9538  44.0519  44.6865  46.7351  47.0838  48.8699  50.1615
    51.4791  51.7138  52.1062  52.3678  52.4350  53.2783  53.9231  54.0830
    54.1597  54.6475  54.8126  54.8618  55.4356  56.0321  56.2743  56.4117
    57.1574  57.2677  57.4356  57.7075  57.7565  57.7846  57.8557  58.5231
    58.7666  59.0479  59.2242  60.2523  60.5638  60.6375  61.3111  61.5926
    62.2910  62.3156  62.3261  62.4479  62.4836  62.7849  63.2199  63.7908
    64.0074  64.0606  64.6965  65.0209  65.7308  65.9189  65.9370  66.3392
    66.5603  66.8964

[...]

          k =-0.5000 0.0000 0.0000 (  3722 PWs)   bands (ev):

[...]

     the Fermi energy is    58.9398 ev

!    total energy              =   -4722.49573115 Ry
     Harris-Foulkes estimate   =   -4722.49581048 Ry
     estimated scf accuracy    <       0.00009420 Ry

     The total energy is the sum of the following terms:

     one-electron contribution =    -157.49944493 Ry
     hartree contribution      =     490.00135776 Ry
     xc contribution           =    -394.65622545 Ry
     ewald contribution        =   -4659.80531390 Ry
     smearing contrib. (-TS)   =      -0.53610463 Ry

     convergence has been achieved in   9 iterations

     Forces acting on atoms (Ry/au):

     atom    1 type  1   force =     0.00000000   -0.05073441   -0.12049186
     atom    2 type  1   force =     0.00000000    0.05073441    0.12049186
     atom    3 type  1   force =     0.00000000   -0.05073441    0.12049186
     atom    4 type  1   force =     0.00000000    0.05073441   -0.12049186
     atom    5 type  1   force =     0.00000000    0.13142596   -0.31787302
     atom    6 type  1   force =     0.00000000   -0.13142596    0.31787302
     atom    7 type  1   force =     0.00000000    0.13142596    0.31787302
     atom    8 type  1   force =     0.00000000   -0.13142596   -0.31787302
     atom    9 type  2   force =     0.00000000   -0.27742485   -0.00138222
     atom   10 type  2   force =     0.00000000    0.27742485    0.00138222
     atom   11 type  2   force =     0.00000000   -0.27742485    0.00138222
     atom   12 type  2   force =     0.00000000    0.27742485   -0.00138222

     Total force =     0.921683     Total SCF correction =     0.000000

     entering subroutine stress ...

          total   stress  (Ry/bohr**3)                   (kbar)     P= 7860.43
   0.05681442   0.00000000   0.00000000       8357.69      0.00      0.00
   0.00000000   0.05050792   0.00000000          0.00   7429.97      0.00
   0.00000000   0.00000000   0.05297996          0.00      0.00   7793.62

     BFGS Geometry Optimization

     number of scf cycles    =   1
     number of bfgs steps    =   0

     enthalpy new            =   -4722.4957311511 Ry

     new trust radius        =       0.5000000000 bohr
     new conv_thr            =       0.0001000000 Ry

     new unit-cell volume =   1086.41547 a.u.^3 (   160.99016 Ang^3 )

CELL_PARAMETERS (alat=  7.01510508)
   1.085136619   0.000000000   0.000000000
   0.000000000   1.415563791   0.000000000
   0.000000000   0.000000000   2.048705502

ATOMIC_POSITIONS (crystal)
Co       0.750000000   0.826071586   0.435193574
Co       0.250000000   0.173928414   0.564806426
Co       0.750000000   0.326071586   0.064806426
Co       0.250000000   0.673928414   0.935193574
Co       0.250000000   0.537939338   0.280914011
Co       0.750000000   0.462060662   0.719085989
Co       0.250000000   0.037939338   0.219085989
Co       0.750000000   0.962060662   0.780914011
Si       0.250000000   0.201052704   0.893593778
Si       0.750000000   0.798947296   0.106406222
Si       0.250000000   0.701052704   0.606406222
Si       0.750000000   0.298947296   0.393593778

     Writing output data file Prototype-La-oP12-Co2Si.save
     NEW-OLD atomic charge density approx. for the potential
     NEW k-points:
        k(    1) = (   0.0000000   0.0000000   0.0000000), wk =   0.0833333
        k(    2) = (   0.0000000   0.0000000   0.1220283), wk =   0.1666667
        k(    3) = (   0.0000000   0.0000000  -0.2440566), wk =   0.0833333
        k(    4) = (   0.0000000   0.2354774   0.0000000), wk =   0.1666667
        k(    5) = (   0.0000000   0.2354774   0.1220283), wk =   0.3333333
        k(    6) = (   0.0000000   0.2354774  -0.2440566), wk =   0.1666667
        k(    7) = (  -0.4607715   0.0000000   0.0000000), wk =   0.0833333
        k(    8) = (  -0.4607715   0.0000000   0.1220283), wk =   0.1666667
        k(    9) = (  -0.4607715   0.0000000  -0.2440566), wk =   0.0833333
        k(   10) = (  -0.4607715   0.2354774   0.0000000), wk =   0.1666667
        k(   11) = (  -0.4607715   0.2354774   0.1220283), wk =   0.3333333
        k(   12) = (  -0.4607715   0.2354774  -0.2440566), wk =   0.1666667

[...]

     enthalpy old            =   -4722.4957311511 Ry
     enthalpy new            =   -4730.1058332079 Ry

     CASE: enthalpy_new < enthalpy_old

     small trust_radius: resetting bfgs history

     new trust radius        =       3.0355745262 bohr
     new conv_thr            =       0.0001000000 Ry

[...]

          total   stress  (Ry/bohr**3)                   (kbar)     P=-7818.62
  -0.05330470   0.00000000   0.00000000      -7841.39      0.00      0.00
   0.00000000  -0.05217851   0.00000000          0.00  -7675.72      0.00
   0.00000000   0.00000000  -0.05396654          0.00      0.00  -7938.75

     number of scf cycles    =   3
     number of bfgs steps    =   2

     enthalpy old            =   -4730.1058332079 Ry
     enthalpy new            =   -4662.0482407276 Ry

     CASE: enthalpy_new > enthalpy_old

     new trust radius        =       0.5118984057 bohr

     trust_radius < trust_radius_min

     resetting bfgs history

     Message from routine bfgs:
     history already reset at previous step: stopping
     new conv_thr            =       0.0001000000 Ry

     new unit-cell volume =   1297.96867 a.u.^3 (   192.33911 Ang^3 )

[...]

ATOMIC_POSITIONS (crystal)
Co       0.750000000   0.825958226   0.435224828
Co       0.250000000   0.174041774   0.564775172
Co       0.750000000   0.325958226   0.064775172
Co       0.250000000   0.674041774   0.935224828
Co       0.250000000   0.538779088   0.279400700
Co       0.750000000   0.461220912   0.720599300
Co       0.250000000   0.038779088   0.220599300
Co       0.750000000   0.961220912   0.779400700
Si       0.250000000   0.199569783   0.893932406
Si       0.750000000   0.800430217   0.106067594
Si       0.250000000   0.699569783   0.606067594
Si       0.750000000   0.300430217   0.393932406

     Writing output data file Prototype-La-oP12-Co2Si.save
     NEW-OLD atomic charge density approx. for the potential
     NEW k-points:
        k(    1) = (   0.0000000   0.0000000   0.0000000), wk =   0.0833333
        k(    2) = (   0.0000000   0.0000000   0.1147469), wk =   0.1666667
        k(    3) = (   0.0000000   0.0000000  -0.2294939), wk =   0.0833333
        k(    4) = (   0.0000000   0.2220705   0.0000000), wk =   0.1666667
        k(    5) = (   0.0000000   0.2220705   0.1147469), wk =   0.3333333
        k(    6) = (   0.0000000   0.2220705  -0.2294939), wk =   0.1666667
        k(    7) = (  -0.4349056   0.0000000   0.0000000), wk =   0.0833333
        k(    8) = (  -0.4349056   0.0000000   0.1147469), wk =   0.1666667
        k(    9) = (  -0.4349056   0.0000000  -0.2294939), wk =   0.0833333
        k(   10) = (  -0.4349056   0.2220705   0.0000000), wk =   0.1666667
        k(   11) = (  -0.4349056   0.2220705   0.1147469), wk =   0.3333333
        k(   12) = (  -0.4349056   0.2220705  -0.2294939), wk =   0.1666667

[...]

     The maximum number of steps has been reached.

     End of BFGS Geometry Optimization
Begin final coordinates
     new unit-cell volume =   1297.96867 a.u.^3 (   192.33911 Ang^3 )

CELL_PARAMETERS (alat=  7.01510508)
   1.149674728   0.000000000   0.000000000
   0.000000000   1.501024646   0.000000000
   0.000000000   0.000000000   2.178707154

ATOMIC_POSITIONS (crystal)
Co       0.750000000   0.825958226   0.435224828
Co       0.250000000   0.174041774   0.564775172
Co       0.750000000   0.325958226   0.064775172
Co       0.250000000   0.674041774   0.935224828
Co       0.250000000   0.538779088   0.279400700
Co       0.750000000   0.461220912   0.720599300
Co       0.250000000   0.038779088   0.220599300
Co       0.750000000   0.961220912   0.779400700
Si       0.250000000   0.199569783   0.893932406
Si       0.750000000   0.800430217   0.106067594
Si       0.250000000   0.699569783   0.606067594
Si       0.750000000   0.300430217   0.393932406
End final coordinates

     A final scf calculation at the relaxed structure.
     The G-vectors are recalculated for the final unit cell
     Results may differ from those at the preceding step.

     bravais-lattice index     =            0
     lattice parameter (alat)  =       7.0151  a.u.
     unit-cell volume          =    1297.9687 (a.u.)^3
     number of atoms/cell      =           12
     number of atomic types    =            2
     number of electrons       =       284.00
     number of Kohn-Sham states=          170
     kinetic-energy cutoff     =      40.0000  Ry
     charge density cutoff     =     160.0000  Ry
     convergence threshold     =      1.0E-04
     mixing beta               =       0.7000
     number of iterations used =            8  plain     mixing
     Exchange-correlation      = SLA-PZ-NOGX-NOGC ( 1 1 0 0 0)
     EXX-fraction              =        0.00

     celldm(1)=   7.015105  celldm(2)=   0.000000  celldm(3)=   0.000000
     celldm(4)=   0.000000  celldm(5)=   0.000000  celldm(6)=   0.000000

     crystal axes: (cart. coord. in units of alat)
               a(1) = (   1.149675   0.000000   0.000000 )
               a(2) = (   0.000000   1.501025   0.000000 )
               a(3) = (   0.000000   0.000000   2.178707 )

     reciprocal axes: (cart. coord. in units 2 pi/alat)
               b(1) = (  0.869811  0.000000  0.000000 )
               b(2) = (  0.000000  0.666212  0.000000 )
               b(3) = (  0.000000  0.000000  0.458988 )

     PseudoPot. # 1 for Yb read from file:
     /home/jld5415/pp.La/Yb.UPF
     MD5 check sum: 3e859b81cc28c53ec6aa3a2e888efcdf
     Pseudo is Norm-conserving, Zval = 24.0
     Generated in analytical, separable form
     Using radial grid of 1269 points,  6 beta functions with:
                l(1) =   0
                l(2) =   0
                l(3) =   1
                l(4) =   1
                l(5) =   2
                l(6) =   3

     PseudoPot. # 2 for Tm read from file:
     /home/jld5415/pp.La/Tm.UPF
     MD5 check sum: 245516e0878b5372ceeb9443ded2c4e1
     Pseudo is Norm-conserving, Zval = 23.0
     Generated in analytical, separable form
     Using radial grid of 1269 points,  6 beta functions with:
                l(1) =   0
                l(2) =   0
                l(3) =   1
                l(4) =   1
                l(5) =   2
                l(6) =   3

     atomic species   valence    mass     pseudopotential
        Co            24.00    58.93320     Yb( 1.00)
        Si            23.00    28.08550     Tm( 1.00)

      8 Sym. Ops., with inversion, found ( 6 have fractional translation)

   Cartesian axes

     site n.     atom                  positions (alat units)
         1           Co  tau(   1) = (   0.8622560   1.2397837   0.9482274  )
         2           Co  tau(   2) = (   0.2874187   0.2612410   1.2304797  )
         3           Co  tau(   3) = (   0.8622560   0.4892713   0.1411261  )
         4           Co  tau(   4) = (   0.2874187   1.0117533   2.0375810  )
         5           Co  tau(   5) = (   0.2874187   0.8087207   0.6087323  )
         6           Co  tau(   6) = (   0.8622560   0.6923040   1.5699748  )
         7           Co  tau(   7) = (   0.2874187   0.0582084   0.4806213  )
         8           Co  tau(   8) = (   0.8622560   1.4428163   1.6980859  )
         9           Si  tau(   9) = (   0.2874187   0.2995592   1.9476169  )
        10           Si  tau(  10) = (   0.8622560   1.2014655   0.2310902  )
        11           Si  tau(  11) = (   0.2874187   1.0500715   1.3204438  )
        12           Si  tau(  12) = (   0.8622560   0.4509532   0.8582634  )

     number of k points=    12  gaussian smearing, width (Ry)=  0.1000
                       cart. coord. in units 2pi/alat
        k(    1) = (   0.0000000   0.0000000   0.0000000), wk =   0.0833333
        k(    2) = (   0.0000000   0.0000000   0.1147469), wk =   0.1666667
        k(    3) = (   0.0000000   0.0000000  -0.2294939), wk =   0.0833333
        k(    4) = (   0.0000000   0.2220705   0.0000000), wk =   0.1666667
        k(    5) = (   0.0000000   0.2220705   0.1147469), wk =   0.3333333
        k(    6) = (   0.0000000   0.2220705  -0.2294939), wk =   0.1666667
        k(    7) = (  -0.4349056   0.0000000   0.0000000), wk =   0.0833333
        k(    8) = (  -0.4349056   0.0000000   0.1147469), wk =   0.1666667
        k(    9) = (  -0.4349056   0.0000000  -0.2294939), wk =   0.0833333
        k(   10) = (  -0.4349056   0.2220705   0.0000000), wk =   0.1666667
        k(   11) = (  -0.4349056   0.2220705   0.1147469), wk =   0.3333333
        k(   12) = (  -0.4349056   0.2220705  -0.2294939), wk =   0.1666667

     Largest allocated arrays     est. size (Mb)     dimensions
     Largest temporary arrays     est. size (Mb)     dimensions

     Initial potential from superposition of free atoms

     Starting from uniform charge
     Starting wfc are    0 randomized atomic wfcs

     Writing output data file Prototype-La-oP12-Co2Si.save

     Self-consistent Calculation

[...]

     iteration # 10     ecut=    40.00 Ry     beta=0.70
     CG style diagonalization
     c_bands:  1 eigenvalues not converged
     c_bands:  1 eigenvalues not converged
     ethr =  1.15E-06,  avg # of iterations =  3.4

[...]

     total energy              =   -4739.79881990 Ry
     Harris-Foulkes estimate   =   -4739.79887954 Ry
     estimated scf accuracy    <       0.00011342 Ry

     iteration # 12     ecut=    40.00 Ry     beta=0.70
     CG style diagonalization
     ethr =  3.99E-08,  avg # of iterations =  3.7

     End of self-consistent calculation

[...]

          k = 0.0000 0.2221-0.2295 (  5536 PWs)   bands (ev):

[...]

          k =-0.4349 0.2221-0.2295 (  5556 PWs)   bands (ev):

   -85.6128 -85.6128 -85.6095 -85.6095 -85.5273 -85.5273 -85.5232 -85.5232
   -73.2374 -73.2374 -73.2360 -73.2360 -44.4996 -44.4996 -44.4976 -44.4976
   -44.4884 -44.4884 -44.4872 -44.4872 -44.4412 -44.4412 -44.4407 -44.4407
   -44.4145 -44.4145 -44.4132 -44.4132 -44.3990 -44.3990 -44.3735 -44.3735
   -44.3533 -44.3533 -44.3466 -44.3466 -32.0923 -32.0923 -32.0863 -32.0863
   -32.0469 -32.0469 -32.0427 -32.0427 -31.9512 -31.9512 -31.9504 -31.9504
    12.2887  12.2887  12.3976  12.3976  12.4627  12.4627  12.5633  12.5633
    12.5963  12.5963  12.6689  12.6689  12.6930  12.6930  12.8102  12.8102
    12.8733  12.8733  12.9122  12.9122  12.9563  12.9563  13.0558  13.0558
    13.1192  13.1192  13.1868  13.1868  13.2248  13.2248  13.3307  13.3307
    13.4347  13.4347  13.6204  13.6204  13.6734  13.6734  13.8951  13.8951
    16.2268  16.2268  16.2846  16.2846  16.5674  16.5674  16.5719  16.5719
    16.6601  16.6601  16.7035  16.7035  16.8366  16.8366  16.8601  16.8601
    16.9273  16.9273  16.9742  16.9742  21.8255  21.8255  22.0756  22.0756
    24.0191  24.0191  24.3354  24.3354  27.6693  27.6693  28.4589  28.4589
    29.7933  29.7933  30.3564  30.3564  32.3596  32.3596  32.7486  32.7486
    36.6364  36.6364  37.1563  37.1563  37.5905  37.5905  37.8532  37.8532
    38.3933  38.3933  38.7808  38.7808  39.8219  39.8219  40.1503  40.1503
    40.9293  40.9293  41.1199  41.1199  41.2345  41.2345  41.3200  41.3200
    41.4986  41.4986  41.7173  41.7173  42.1731  42.1731  44.2304  44.2304
    44.7328  44.7328  45.0069  45.0069  46.3170  46.3171  46.6158  46.6160
    47.1075  47.1078

     the Fermi energy is    39.7146 ev

!    total energy              =   -4739.79884133 Ry
     Harris-Foulkes estimate   =   -4739.79884799 Ry
     estimated scf accuracy    <       0.00000740 Ry

     The total energy is the sum of the following terms:

     one-electron contribution =   -1008.71704498 Ry
     hartree contribution      =     718.05184117 Ry
     xc contribution           =    -381.55140233 Ry
     ewald contribution        =   -4067.11795159 Ry
     smearing contrib. (-TS)   =      -0.46428359 Ry

     convergence has been achieved in  12 iterations

     Forces acting on atoms (Ry/au):

     atom    1 type  1   force =     0.00000000   -0.00509719   -0.01254191
     atom    2 type  1   force =     0.00000000    0.00509719    0.01254191
     atom    3 type  1   force =     0.00000000   -0.00509719    0.01254191
     atom    4 type  1   force =     0.00000000    0.00509719   -0.01254191
     atom    5 type  1   force =     0.00000000    0.06842170   -0.15010283
     atom    6 type  1   force =     0.00000000   -0.06842170    0.15010283
     atom    7 type  1   force =     0.00000000    0.06842170    0.15010283
     atom    8 type  1   force =     0.00000000   -0.06842170   -0.15010283
     atom    9 type  2   force =     0.00000000   -0.10166203    0.02473403
     atom   10 type  2   force =     0.00000000    0.10166203   -0.02473403
     atom   11 type  2   force =     0.00000000   -0.10166203   -0.02473403
     atom   12 type  2   force =     0.00000000    0.10166203    0.02473403

     Total force =     0.391625     Total SCF correction =     0.000000

     entering subroutine stress ...

          total   stress  (Ry/bohr**3)                   (kbar)     P= 1586.42
   0.01020611   0.00000000   0.00000000       1501.37      0.00      0.00
   0.00000000   0.01097625   0.00000000          0.00   1614.66      0.00
   0.00000000   0.00000000   0.01117041          0.00      0.00   1643.22

     Writing output data file Prototype-La-oP12-Co2Si.save

     General routines

     Parallel routines

   This run was terminated on:  12:38:57  22Mar2018

   JOB DONE.