     Program PWSCF v.5.0.2 starts on 22Mar2018 at 12:15:12

     Current dimensions of program PWSCF are:
     Max number of different atomic species (ntypx) = 10
     Max number of k-points (npk) =  40000
     Max angular momentum in pseudopotentials (lmaxx) =  3
     Waiting for input...
     Reading input from standard input

     Subspace diagonalization in iterative solution of the eigenvalue problem:
     a serial algorithm will be used

     bravais-lattice index     =            0
     lattice parameter (alat)  =      12.0168  a.u.
     unit-cell volume          =    1187.3413 (a.u.)^3
     number of atoms/cell      =            8
     number of atomic types    =            2
     number of electrons       =       190.00
     number of Kohn-Sham states=          114
     kinetic-energy cutoff     =      40.0000  Ry
     charge density cutoff     =     160.0000  Ry
     convergence threshold     =      1.0E-04
     mixing beta               =       0.7000
     number of iterations used =            8  plain     mixing
     Exchange-correlation      = SLA-PZ-NOGX-NOGC ( 1 1 0 0 0)
     EXX-fraction              =        0.00
     nstep                     =           50

     celldm(1)=  12.016801  celldm(2)=   0.000000  celldm(3)=   0.000000
     celldm(4)=   0.000000  celldm(5)=   0.000000  celldm(6)=   0.000000

     crystal axes: (cart. coord. in units of alat)
               a(1) = (   1.000000   0.000000   0.000000 )
               a(2) = (  -0.500000   0.866025   0.000000 )
               a(3) = (   0.000000   0.000000   0.790093 )

     reciprocal axes: (cart. coord. in units 2 pi/alat)
               b(1) = (  1.000000  0.577350  0.000000 )
               b(2) = (  0.000000  1.154701  0.000000 )
               b(3) = (  0.000000  0.000000  1.265674 )

     PseudoPot. # 1 for Yb read from file:
     /home/jld5415/pp.La/Yb.UPF
     MD5 check sum: 3e859b81cc28c53ec6aa3a2e888efcdf
     Pseudo is Norm-conserving, Zval = 24.0
     Generated in analytical, separable form
     Using radial grid of 1269 points,  6 beta functions with:
                l(1) =   0
                l(2) =   0
                l(3) =   1
                l(4) =   1
                l(5) =   2
                l(6) =   3

     PseudoPot. # 2 for Tm read from file:
     /home/jld5415/pp.La/Tm.UPF
     MD5 check sum: 245516e0878b5372ceeb9443ded2c4e1
     Pseudo is Norm-conserving, Zval = 23.0
     Generated in analytical, separable form
     Using radial grid of 1269 points,  6 beta functions with:
                l(1) =   0
                l(2) =   0
                l(3) =   1
                l(4) =   1
                l(5) =   2
                l(6) =   3

     atomic species   valence    mass     pseudopotential
        Mg            24.00    24.30500     Yb( 1.00)
        Cd            23.00   112.41100     Tm( 1.00)

     24 Sym. Ops., with inversion, found (12 have fractional translation)

   Cartesian axes

     site n.     atom                  positions (alat units)
         1           Mg  tau(   1) = (   0.2478935   0.7204716   0.1975233  )
         2           Mg  tau(   2) = (   0.7478935   0.1455538   0.5925699  )
         3           Mg  tau(   3) = (   0.2521065   0.1455538   0.5925699  )
         4           Mg  tau(   4) = (  -0.2478935   0.7204716   0.1975233  )
         5           Mg  tau(   5) = (   0.0000000   0.2911075   0.1975233  )
         6           Mg  tau(   6) = (   0.5000000   0.5749179   0.5925699  )
         7           Cd  tau(   7) = (   0.5000005   0.2886748   0.1975233  )
         8           Cd  tau(   8) = (  -0.0000005   0.5773506   0.5925699  )

     number of k points=    64  gaussian smearing, width (Ry)=  0.1000
                       cart. coord. in units 2pi/alat
        k(    1) = (   0.0000000   0.0000000   0.0000000), wk =   0.0095238
        k(    2) = (   0.0000000   0.0000000   0.1808105), wk =   0.0190476
        k(    3) = (   0.0000000   0.0000000   0.3616210), wk =   0.0190476
        k(    4) = (   0.0000000   0.0000000   0.5424315), wk =   0.0190476
        k(    5) = (   0.0000000   0.1924501   0.0000000), wk =   0.0190476
        k(    6) = (   0.0000000   0.1924501   0.1808105), wk =   0.0380952
        k(    7) = (   0.0000000   0.1924501   0.3616210), wk =   0.0380952
        k(    8) = (   0.0000000   0.1924501   0.5424315), wk =   0.0380952
        k(    9) = (   0.0000000   0.3849002   0.0000000), wk =   0.0190476
        k(   10) = (   0.0000000   0.3849002   0.1808105), wk =   0.0380952
        k(   11) = (   0.0000000   0.3849002   0.3616210), wk =   0.0380952
        k(   12) = (   0.0000000   0.3849002   0.5424315), wk =   0.0380952
        k(   13) = (   0.0000000  -0.5773503   0.0000000), wk =   0.0095238
        k(   14) = (   0.0000000  -0.5773503   0.1808105), wk =   0.0190476
        k(   15) = (   0.0000000  -0.5773503   0.3616210), wk =   0.0190476
        k(   16) = (   0.0000000  -0.5773503   0.5424315), wk =   0.0190476
        k(   17) = (   0.2000000   0.1154701   0.0000000), wk =   0.0190476
        k(   18) = (   0.2000000   0.1154701   0.1808105), wk =   0.0380952
        k(   19) = (   0.2000000   0.1154701   0.3616210), wk =   0.0380952
        k(   20) = (   0.2000000   0.1154701   0.5424315), wk =   0.0380952
        k(   21) = (   0.2000000   0.3079201   0.0000000), wk =   0.0190476
        k(   22) = (   0.2000000   0.3079201   0.1808105), wk =   0.0380952
        k(   23) = (   0.2000000   0.3079201   0.3616210), wk =   0.0380952
        k(   24) = (   0.2000000   0.3079201   0.5424315), wk =   0.0380952
        k(   25) = (   0.2000000   0.5003702   0.0000000), wk =   0.0190476
        k(   26) = (   0.2000000   0.5003702   0.1808105), wk =   0.0380952
        k(   27) = (   0.2000000   0.5003702   0.3616210), wk =   0.0380952
        k(   28) = (   0.2000000   0.5003702   0.5424315), wk =   0.0380952
        k(   29) = (   0.2000000  -0.4618802   0.0000000), wk =   0.0190476
        k(   30) = (   0.2000000  -0.4618802   0.1808105), wk =   0.0380952
        k(   31) = (   0.2000000  -0.4618802   0.3616210), wk =   0.0380952
        k(   32) = (   0.2000000  -0.4618802   0.5424315), wk =   0.0380952
        k(   33) = (   0.2000000  -0.2694301   0.0000000), wk =   0.0190476
        k(   34) = (   0.2000000  -0.2694301   0.1808105), wk =   0.0380952
        k(   35) = (   0.2000000  -0.2694301   0.3616210), wk =   0.0380952
        k(   36) = (   0.2000000  -0.2694301   0.5424315), wk =   0.0380952
        k(   37) = (   0.2000000  -0.0769800   0.0000000), wk =   0.0190476
        k(   38) = (   0.2000000  -0.0769800   0.1808105), wk =   0.0380952
        k(   39) = (   0.2000000  -0.0769800   0.3616210), wk =   0.0380952
        k(   40) = (   0.2000000  -0.0769800   0.5424315), wk =   0.0380952
        k(   41) = (   0.4000000   0.2309401   0.0000000), wk =   0.0190476
        k(   42) = (   0.4000000   0.2309401   0.1808105), wk =   0.0380952
        k(   43) = (   0.4000000   0.2309401   0.3616210), wk =   0.0380952
        k(   44) = (   0.4000000   0.2309401   0.5424315), wk =   0.0380952
        k(   45) = (   0.4000000   0.4233902   0.0000000), wk =   0.0190476
        k(   46) = (   0.4000000   0.4233902   0.1808105), wk =   0.0380952
        k(   47) = (   0.4000000   0.4233902   0.3616210), wk =   0.0380952
        k(   48) = (   0.4000000   0.4233902   0.5424315), wk =   0.0380952
        k(   49) = (   0.4000000   0.6158403   0.0000000), wk =   0.0190476
        k(   50) = (   0.4000000   0.6158403   0.1808105), wk =   0.0380952
        k(   51) = (   0.4000000   0.6158403   0.3616210), wk =   0.0380952
        k(   52) = (   0.4000000   0.6158403   0.5424315), wk =   0.0380952
        k(   53) = (   0.4000000  -0.3464102   0.0000000), wk =   0.0190476
        k(   54) = (   0.4000000  -0.3464102   0.1808105), wk =   0.0380952
        k(   55) = (   0.4000000  -0.3464102   0.3616210), wk =   0.0380952
        k(   56) = (   0.4000000  -0.3464102   0.5424315), wk =   0.0380952
        k(   57) = (   0.4000000  -0.1539601   0.0000000), wk =   0.0190476
        k(   58) = (   0.4000000  -0.1539601   0.1808105), wk =   0.0380952
        k(   59) = (   0.4000000  -0.1539601   0.3616210), wk =   0.0380952
        k(   60) = (   0.4000000  -0.1539601   0.5424315), wk =   0.0380952
        k(   61) = (   0.4000000   0.0384900   0.0000000), wk =   0.0190476
        k(   62) = (   0.4000000   0.0384900   0.1808105), wk =   0.0380952
        k(   63) = (   0.4000000   0.0384900   0.3616210), wk =   0.0380952
        k(   64) = (   0.4000000   0.0384900   0.5424315), wk =   0.0380952

     Largest allocated arrays     est. size (Mb)     dimensions
     Largest temporary arrays     est. size (Mb)     dimensions

     Initial potential from superposition of free atoms

     Starting from uniform charge
     Starting wfc are    0 randomized atomic wfcs

     Self-consistent Calculation

     iteration #  1     ecut=    40.00 Ry     beta=0.70
     CG style diagonalization
     ethr =  1.00E-02,  avg # of iterations = 20.3

     total energy              =   -2794.02054392 Ry
     Harris-Foulkes estimate   =   -4133.56870145 Ry
     estimated scf accuracy    <    1663.23377635 Ry

     iteration #  2     ecut=    40.00 Ry     beta=0.70
     CG style diagonalization
     c_bands:  1 eigenvalues not converged
     c_bands:  2 eigenvalues not converged
     c_bands:  1 eigenvalues not converged
     c_bands:  1 eigenvalues not converged
     c_bands:  2 eigenvalues not converged
     c_bands:  1 eigenvalues not converged
     c_bands:  1 eigenvalues not converged
     c_bands:  1 eigenvalues not converged
     c_bands:  1 eigenvalues not converged
     c_bands:  1 eigenvalues not converged
     c_bands:  1 eigenvalues not converged
     c_bands:  1 eigenvalues not converged
     c_bands:  1 eigenvalues not converged
     c_bands:  2 eigenvalues not converged
     c_bands:  1 eigenvalues not converged
     ethr =  1.00E-02,  avg # of iterations = 10.4

[...]

     End of self-consistent calculation

          k = 0.0000 0.0000 0.0000 (  5047 PWs)   bands (ev):

   -96.4480 -96.4479 -96.4419 -96.3840 -96.3839 -96.3461 -83.8046 -83.7970
   -55.2718 -55.2491 -55.2490 -55.2369 -55.2357 -55.2248 -55.2248 -55.2215
   -55.2214 -55.2188 -55.2187 -55.2140 -55.2077 -55.1991 -55.1990 -55.1942
   -55.1942 -55.1864 -42.5004 -42.4947 -42.4607 -42.4607 -42.4516 -42.4516
     2.2690   2.3093   2.3093   2.3583   2.4834   2.4970   2.5189   2.5190
     2.5361   2.5657   2.5657   2.6268   2.6269   2.7482   2.8356   2.8357
     2.8399   2.8494   2.8494   2.9161   2.9162   2.9491   2.9491   3.0699
     3.0699   3.1836   3.1837   3.1871   3.2596   3.2652   6.4219   6.5651
     6.5651   6.5741   6.5751   6.5751   6.5785   6.5785   6.6382   6.6382
    10.3222  15.6123  15.6124  16.0363  16.7410  16.7411  17.1874  17.5893
    18.1975  22.0516  22.0518  22.5403  22.5404  22.5644  22.7913  22.7914
    22.7985  23.8095  25.3504  26.1104  26.1104  26.3053  26.3053  27.2271
    30.2716  30.2717  30.4963  31.4413  31.4414  31.6667  31.8211  31.8212
    31.9452  32.1501  32.1501  32.2775  32.9772  33.1033  34.0435  34.0436
    35.9987  35.9988

[...]

[...]
        k(   18) = (   0.2045498   0.1180969   0.1838257), wk =   0.0380952
        k(   19) = (   0.2045498   0.1180969   0.3676515), wk =   0.0380952
        k(   20) = (   0.2045498   0.1180969   0.5514772), wk =   0.0380952
        k(   21) = (   0.2045498   0.3149251   0.0000000), wk =   0.0190476
        k(   22) = (   0.2045498   0.3149251   0.1838257), wk =   0.0380952
        k(   23) = (   0.2045498   0.3149251   0.3676515), wk =   0.0380952
        k(   24) = (   0.2045498   0.3149251   0.5514772), wk =   0.0380952
        k(   25) = (   0.2045498   0.5117532   0.0000000), wk =   0.0190476
        k(   26) = (   0.2045498   0.5117532   0.1838257), wk =   0.0380952
        k(   27) = (   0.2045498   0.5117532   0.3676515), wk =   0.0380952
        k(   28) = (   0.2045498   0.5117532   0.5514772), wk =   0.0380952
        k(   29) = (   0.2045498  -0.4723876   0.0000000), wk =   0.0190476
        k(   30) = (   0.2045498  -0.4723876   0.1838257), wk =   0.0380952
        k(   31) = (   0.2045498  -0.4723876   0.3676515), wk =   0.0380952
        k(   32) = (   0.2045498  -0.4723876   0.5514772), wk =   0.0380952
        k(   33) = (   0.2045498  -0.2755594   0.0000000), wk =   0.0190476
        k(   34) = (   0.2045498  -0.2755594   0.1838257), wk =   0.0380952
        k(   35) = (   0.2045498  -0.2755594   0.3676515), wk =   0.0380952
        k(   36) = (   0.2045498  -0.2755594   0.5514772), wk =   0.0380952
        k(   37) = (   0.2045498  -0.0787313   0.0000000), wk =   0.0190476
        k(   38) = (   0.2045498  -0.0787313   0.1838257), wk =   0.0380952
        k(   39) = (   0.2045498  -0.0787313   0.3676515), wk =   0.0380952
        k(   40) = (   0.2045498  -0.0787313   0.5514772), wk =   0.0380952
        k(   41) = (   0.4090997   0.2361938   0.0000000), wk =   0.0190476
        k(   42) = (   0.4090997   0.2361938   0.1838257), wk =   0.0380952
        k(   43) = (   0.4090997   0.2361938   0.3676515), wk =   0.0380952
        k(   44) = (   0.4090997   0.2361938   0.5514772), wk =   0.0380952
        k(   45) = (   0.4090997   0.4330220   0.0000000), wk =   0.0190476
        k(   46) = (   0.4090997   0.4330220   0.1838257), wk =   0.0380952
        k(   47) = (   0.4090997   0.4330220   0.3676515), wk =   0.0380952
        k(   48) = (   0.4090997   0.4330220   0.5514772), wk =   0.0380952
        k(   49) = (   0.4090997   0.6298501   0.0000000), wk =   0.0190476
        k(   50) = (   0.4090997   0.6298501   0.1838257), wk =   0.0380952
        k(   51) = (   0.4090997   0.6298501   0.3676515), wk =   0.0380952
        k(   52) = (   0.4090997   0.6298501   0.5514772), wk =   0.0380952
        k(   53) = (   0.4090997  -0.3542907   0.0000000), wk =   0.0190476
        k(   54) = (   0.4090997  -0.3542907   0.1838257), wk =   0.0380952
        k(   55) = (   0.4090997  -0.3542907   0.3676515), wk =   0.0380952
        k(   56) = (   0.4090997  -0.3542907   0.5514772), wk =   0.0380952
        k(   57) = (   0.4090997  -0.1574625   0.0000000), wk =   0.0190476
        k(   58) = (   0.4090997  -0.1574625   0.1838257), wk =   0.0380952
        k(   59) = (   0.4090997  -0.1574625   0.3676515), wk =   0.0380952
        k(   60) = (   0.4090997  -0.1574625   0.5514772), wk =   0.0380952
        k(   61) = (   0.4090997   0.0393656   0.0000000), wk =   0.0190476
        k(   62) = (   0.4090997   0.0393656   0.1838257), wk =   0.0380952
        k(   63) = (   0.4090997   0.0393656   0.3676515), wk =   0.0380952
        k(   64) = (   0.4090997   0.0393656   0.5514772), wk =   0.0380952

[...]

     Threshold (ethr) on eigenvalues was too large:
     Diagonalizing with lowered threshold

     CG style diagonalization
     ethr =  9.93E-10,  avg # of iterations =  3.8

[...]

     The maximum number of steps has been reached.

     End of BFGS Geometry Optimization
Begin final coordinates
     new unit-cell volume =   1116.48957 a.u.^3 (   165.44668 Ang^3 )

CELL_PARAMETERS (alat= 12.01680127)
   0.977756863   0.000000000   0.000000000
  -0.488878431   0.846762282   0.000000000
   0.000000000   0.000000000   0.777133542

ATOMIC_POSITIONS (crystal)
Mg       0.665006957   0.832503478   0.250000000
Mg       0.832503478   0.167496522   0.750000000
Mg       0.334993043   0.167496522   0.750000000
Mg       0.167496522   0.832503478   0.250000000
Mg       0.167496522   0.334993043   0.250000000
Mg       0.832503478   0.665006957   0.750000000
Cd       0.666667000   0.333333000   0.250000000
Cd       0.333333000   0.666667000   0.750000000
End final coordinates

     A final scf calculation at the relaxed structure.
     The G-vectors are recalculated for the final unit cell
     Results may differ from those at the preceding step.

     bravais-lattice index     =            0
     lattice parameter (alat)  =      12.0168  a.u.
     unit-cell volume          =    1116.4896 (a.u.)^3
     number of atoms/cell      =            8
     number of atomic types    =            2
     number of electrons       =       190.00
     number of Kohn-Sham states=          114
     kinetic-energy cutoff     =      40.0000  Ry
     charge density cutoff     =     160.0000  Ry
     convergence threshold     =      1.0E-04
     mixing beta               =       0.7000
     number of iterations used =            8  plain     mixing
     Exchange-correlation      = SLA-PZ-NOGX-NOGC ( 1 1 0 0 0)
     EXX-fraction              =        0.00

     celldm(1)=  12.016801  celldm(2)=   0.000000  celldm(3)=   0.000000
     celldm(4)=   0.000000  celldm(5)=   0.000000  celldm(6)=   0.000000

     crystal axes: (cart. coord. in units of alat)
               a(1) = (   0.977757   0.000000   0.000000 )
               a(2) = (  -0.488878   0.846762   0.000000 )
               a(3) = (   0.000000   0.000000   0.777134 )

     reciprocal axes: (cart. coord. in units 2 pi/alat)
               b(1) = (  1.022749  0.590484  0.000000 )
               b(2) = (  0.000000  1.180969  0.000000 )
               b(3) = (  0.000000  0.000000  1.286780 )

     PseudoPot. # 1 for Yb read from file:
     /home/jld5415/pp.La/Yb.UPF
     MD5 check sum: 3e859b81cc28c53ec6aa3a2e888efcdf
     Pseudo is Norm-conserving, Zval = 24.0
     Generated in analytical, separable form
     Using radial grid of 1269 points,  6 beta functions with:
                l(1) =   0
                l(2) =   0
                l(3) =   1
                l(4) =   1
                l(5) =   2
                l(6) =   3

     PseudoPot. # 2 for Tm read from file:
     /home/jld5415/pp.La/Tm.UPF
     MD5 check sum: 245516e0878b5372ceeb9443ded2c4e1
     Pseudo is Norm-conserving, Zval = 23.0
     Generated in analytical, separable form
     Using radial grid of 1269 points,  6 beta functions with:
                l(1) =   0
                l(2) =   0
                l(3) =   1
                l(4) =   1
                l(5) =   2
                l(6) =   3

     atomic species   valence    mass     pseudopotential
        Mg            24.00    24.30500     Yb( 1.00)
        Cd            23.00   112.41100     Tm( 1.00)

     24 Sym. Ops., with inversion, found (12 have fractional translation)

   Cartesian axes

     site n.     atom                  positions (alat units)
         1           Mg  tau(   1) = (   0.2432221   0.7049325   0.1942834  )
         2           Mg  tau(   2) = (   0.7321006   0.1418297   0.5828502  )
         3           Mg  tau(   3) = (   0.2456563   0.1418297   0.5828502  )
         4           Mg  tau(   4) = (  -0.2432221   0.7049325   0.1942834  )
         5           Mg  tau(   5) = (   0.0000000   0.2836595   0.1942834  )
         6           Mg  tau(   6) = (   0.4888784   0.5631028   0.5828502  )
         7           Cd  tau(   7) = (   0.4888789   0.2822538   0.1942834  )
         8           Cd  tau(   8) = (  -0.0000005   0.5645085   0.5828502  )

     number of k points=    64  gaussian smearing, width (Ry)=  0.1000
                       cart. coord. in units 2pi/alat
        k(    1) = (   0.0000000   0.0000000   0.0000000), wk =   0.0095238
        k(    2) = (   0.0000000   0.0000000   0.1838257), wk =   0.0190476
        k(    3) = (   0.0000000   0.0000000   0.3676515), wk =   0.0190476
        k(    4) = (   0.0000000   0.0000000   0.5514772), wk =   0.0190476
        k(    5) = (   0.0000000   0.1968282   0.0000000), wk =   0.0190476
        k(    6) = (   0.0000000   0.1968282   0.1838257), wk =   0.0380952
        k(    7) = (   0.0000000   0.1968282   0.3676515), wk =   0.0380952
        k(    8) = (   0.0000000   0.1968282   0.5514772), wk =   0.0380952
        k(    9) = (   0.0000000   0.3936563   0.0000000), wk =   0.0190476
        k(   10) = (   0.0000000   0.3936563   0.1838257), wk =   0.0380952
        k(   11) = (   0.0000000   0.3936563   0.3676515), wk =   0.0380952
        k(   12) = (   0.0000000   0.3936563   0.5514772), wk =   0.0380952
        k(   13) = (   0.0000000  -0.5904845   0.0000000), wk =   0.0095238
        k(   14) = (   0.0000000  -0.5904845   0.1838257), wk =   0.0190476
        k(   15) = (   0.0000000  -0.5904845   0.3676515), wk =   0.0190476
        k(   16) = (   0.0000000  -0.5904845   0.5514772), wk =   0.0190476
        k(   17) = (   0.2045498   0.1180969   0.0000000), wk =   0.0190476
        k(   18) = (   0.2045498   0.1180969   0.1838257), wk =   0.0380952
        k(   19) = (   0.2045498   0.1180969   0.3676515), wk =   0.0380952
        k(   20) = (   0.2045498   0.1180969   0.5514772), wk =   0.0380952
        k(   21) = (   0.2045498   0.3149251   0.0000000), wk =   0.0190476
        k(   22) = (   0.2045498   0.3149251   0.1838257), wk =   0.0380952
        k(   23) = (   0.2045498   0.3149251   0.3676515), wk =   0.0380952
        k(   24) = (   0.2045498   0.3149251   0.5514772), wk =   0.0380952
        k(   25) = (   0.2045498   0.5117532   0.0000000), wk =   0.0190476
        k(   26) = (   0.2045498   0.5117532   0.1838257), wk =   0.0380952
        k(   27) = (   0.2045498   0.5117532   0.3676515), wk =   0.0380952
        k(   28) = (   0.2045498   0.5117532   0.5514772), wk =   0.0380952
        k(   29) = (   0.2045498  -0.4723876   0.0000000), wk =   0.0190476
        k(   30) = (   0.2045498  -0.4723876   0.1838257), wk =   0.0380952
        k(   31) = (   0.2045498  -0.4723876   0.3676515), wk =   0.0380952
        k(   32) = (   0.2045498  -0.4723876   0.5514772), wk =   0.0380952
        k(   33) = (   0.2045498  -0.2755594   0.0000000), wk =   0.0190476
        k(   34) = (   0.2045498  -0.2755594   0.1838257), wk =   0.0380952
        k(   35) = (   0.2045498  -0.2755594   0.3676515), wk =   0.0380952
        k(   36) = (   0.2045498  -0.2755594   0.5514772), wk =   0.0380952
        k(   37) = (   0.2045498  -0.0787313   0.0000000), wk =   0.0190476
        k(   38) = (   0.2045498  -0.0787313   0.1838257), wk =   0.0380952
        k(   39) = (   0.2045498  -0.0787313   0.3676515), wk =   0.0380952
        k(   40) = (   0.2045498  -0.0787313   0.5514772), wk =   0.0380952
        k(   41) = (   0.4090997   0.2361938   0.0000000), wk =   0.0190476
        k(   42) = (   0.4090997   0.2361938   0.1838257), wk =   0.0380952
        k(   43) = (   0.4090997   0.2361938   0.3676515), wk =   0.0380952
        k(   44) = (   0.4090997   0.2361938   0.5514772), wk =   0.0380952
        k(   45) = (   0.4090997   0.4330220   0.0000000), wk =   0.0190476
        k(   46) = (   0.4090997   0.4330220   0.1838257), wk =   0.0380952
        k(   47) = (   0.4090997   0.4330220   0.3676515), wk =   0.0380952
        k(   48) = (   0.4090997   0.4330220   0.5514772), wk =   0.0380952
        k(   49) = (   0.4090997   0.6298501   0.0000000), wk =   0.0190476
        k(   50) = (   0.4090997   0.6298501   0.1838257), wk =   0.0380952
        k(   51) = (   0.4090997   0.6298501   0.3676515), wk =   0.0380952
        k(   52) = (   0.4090997   0.6298501   0.5514772), wk =   0.0380952
        k(   53) = (   0.4090997  -0.3542907   0.0000000), wk =   0.0190476
        k(   54) = (   0.4090997  -0.3542907   0.1838257), wk =   0.0380952
        k(   55) = (   0.4090997  -0.3542907   0.3676515), wk =   0.0380952
        k(   56) = (   0.4090997  -0.3542907   0.5514772), wk =   0.0380952
        k(   57) = (   0.4090997  -0.1574625   0.0000000), wk =   0.0190476
        k(   58) = (   0.4090997  -0.1574625   0.1838257), wk =   0.0380952
        k(   59) = (   0.4090997  -0.1574625   0.3676515), wk =   0.0380952
        k(   60) = (   0.4090997  -0.1574625   0.5514772), wk =   0.0380952
        k(   61) = (   0.4090997   0.0393656   0.0000000), wk =   0.0190476
        k(   62) = (   0.4090997   0.0393656   0.1838257), wk =   0.0380952
        k(   63) = (   0.4090997   0.0393656   0.3676515), wk =   0.0380952
        k(   64) = (   0.4090997   0.0393656   0.5514772), wk =   0.0380952

     Largest allocated arrays     est. size (Mb)     dimensions
     Largest temporary arrays     est. size (Mb)     dimensions

     Initial potential from superposition of free atoms

     Starting from uniform charge
     Starting wfc are    0 randomized atomic wfcs

     Writing output data file Prototype-La-hP8-Mg3Cd.save

     Self-consistent Calculation

[...]

     iteration #  6     ecut=    40.00 Ry     beta=0.70
     CG style diagonalization
     ethr =  1.47E-03,  avg # of iterations =  3.9

[...]

     total energy              =   -3191.49395798 Ry
     Harris-Foulkes estimate   =   -3191.49409975 Ry
     estimated scf accuracy    <       0.00024545 Ry

     iteration # 10     ecut=    40.00 Ry     beta=0.70
     CG style diagonalization
     c_bands:  1 eigenvalues not converged
     c_bands:  1 eigenvalues not converged
     ethr =  1.29E-07,  avg # of iterations =  3.9

     End of self-consistent calculation

[...]

          k = 0.4091 0.0394 0.5515 (  4764 PWs)   bands (ev):

   -94.5318 -94.5303 -94.5264 -94.5243 -94.5122 -94.4956 -81.8742 -81.8696
   -53.3540 -53.3511 -53.3495 -53.3482 -53.3464 -53.3440 -53.3373 -53.3325
   -53.3244 -53.3240 -53.3210 -53.3192 -53.3113 -53.3111 -53.3108 -53.3079
   -53.3063 -53.3027 -40.5651 -40.5625 -40.5464 -40.5432 -40.5416 -40.5416
     4.1371   4.1432   4.1820   4.2311   4.2390   4.2466   4.3100   4.3442
     4.3597   4.3707   4.4733   4.4932   4.5288   4.5861   4.5932   4.6048
     4.6146   4.6863   4.6948   4.7235   4.7591   4.8106   4.8196   4.8249
     4.8911   4.9216   5.0081   5.0278   5.0781   5.1270   8.3526   8.3535
     8.3791   8.3847   8.4050   8.4217   8.4478   8.4607   8.4737   8.4884
    13.6841  14.7648  16.0313  16.4696  17.1549  17.5916  19.3943  20.2607
    21.0436  21.9690  23.6303  24.0383  24.7260  25.0877  25.5598  26.4668
    27.4451  28.0109  28.6565  28.9985  29.5582  29.9331  30.0052  30.2185
    30.6609  31.1807  31.3288  31.5884  31.9075  32.0728  32.3970  32.4028
    34.4718  34.8105  34.9848  35.0933  35.4475  35.7172  35.7989  36.8978
    37.0122  37.1555

     the Fermi energy is    29.9780 ev

!    total energy              =   -3191.49400903 Ry
     Harris-Foulkes estimate   =   -3191.49402708 Ry
     estimated scf accuracy    <       0.00002292 Ry

     The total energy is the sum of the following terms:

     one-electron contribution =   -1009.65714997 Ry
     hartree contribution      =     583.01776462 Ry
     xc contribution           =    -251.84245855 Ry
     ewald contribution        =   -2512.71721674 Ry
     smearing contrib. (-TS)   =      -0.29494840 Ry

     convergence has been achieved in  10 iterations

     Forces acting on atoms (Ry/au):

     atom    1 type  1   force =     0.00941088    0.00543338    0.00000000
     atom    2 type  1   force =     0.00941088   -0.00543338    0.00000000
     atom    3 type  1   force =    -0.00941088   -0.00543338    0.00000000
     atom    4 type  1   force =    -0.00941088    0.00543338    0.00000000
     atom    5 type  1   force =     0.00000000   -0.01086675    0.00000000
     atom    6 type  1   force =     0.00000000    0.01086675    0.00000000
     atom    7 type  2   force =     0.00000000    0.00000000    0.00000000
     atom    8 type  2   force =     0.00000000    0.00000000    0.00000000

     Total force =     0.026618     Total SCF correction =     0.000000

     entering subroutine stress ...

          total   stress  (Ry/bohr**3)                   (kbar)     P=   80.07
   0.00046387   0.00000000   0.00000000         68.24      0.00      0.00
   0.00000000   0.00046387   0.00000000          0.00     68.24      0.00
   0.00000000   0.00000000   0.00070523          0.00      0.00    103.74

     Writing output data file Prototype-La-hP8-Mg3Cd.save

     General routines

     Parallel routines

   This run was terminated on:  13:30:14  22Mar2018

   JOB DONE.