     Program PWSCF v.5.0.2 starts on 22Mar2018 at 17:38:25

     Current dimensions of program PWSCF are:
     Max number of different atomic species (ntypx) = 10
     Max number of k-points (npk) =  40000
     Max angular momentum in pseudopotentials (lmaxx) =  3
     Waiting for input...
     Reading input from standard input

     Subspace diagonalization in iterative solution of the eigenvalue problem:
     a serial algorithm will be used

     bravais-lattice index     =            0
     lattice parameter (alat)  =       9.9235  a.u.
     unit-cell volume          =    1361.0366 (a.u.)^3
     number of atoms/cell      =           12
     number of atomic types    =            2
     number of electrons       =       204.00
     number of Kohn-Sham states=          122
     kinetic-energy cutoff     =      40.0000  Ry
     charge density cutoff     =     160.0000  Ry
     convergence threshold     =      1.0E-04
     mixing beta               =       0.7000
     number of iterations used =            8  plain     mixing
     Exchange-correlation      = SLA-PZ-NOGX-NOGC ( 1 1 0 0 0)
     EXX-fraction              =        0.00
     nstep                     =           50

     celldm(1)=   9.923489  celldm(2)=   0.000000  celldm(3)=   0.000000
     celldm(4)=   0.000000  celldm(5)=   0.000000  celldm(6)=   0.000000

     crystal axes: (cart. coord. in units of alat)
               a(1) = (   1.000000   0.000000   0.000000 )
               a(2) = (  -0.500000   0.866025   0.000000 )
               a(3) = (   0.000000   0.000000   1.608222 )

     reciprocal axes: (cart. coord. in units 2 pi/alat)
               b(1) = (  1.000000  0.577350  0.000000 )
               b(2) = (  0.000000  1.154701  0.000000 )
               b(3) = (  0.000000  0.000000  0.621805 )

     PseudoPot. # 1 for Tb read from file:
     /home/cwx6513/pp.La/Tb.UPF
     MD5 check sum: 3d6088a3f0cf7fd2e110c43f7f8e95c2
     Pseudo is Norm-conserving, Zval = 19.0
     Generated in analytical, separable form
     Using radial grid of 1263 points,  6 beta functions with:
                l(1) =   0
                l(2) =   0
                l(3) =   1
                l(4) =   1
                l(5) =   2
                l(6) =   3

     PseudoPot. # 2 for Sm read from file:
     /home/cwx6513/pp.La/Sm.UPF
     MD5 check sum: 5079e8b144a06bfcdbc14fb02b96ab09
     Pseudo is Norm-conserving, Zval = 16.0
     Generated in analytical, separable form
     Using radial grid of 1259 points,  6 beta functions with:
                l(1) =   0
                l(2) =   0
                l(3) =   1
                l(4) =   1
                l(5) =   2
                l(6) =   3

     atomic species   valence    mass     pseudopotential
        Mg            19.00    24.30500     Tb( 1.00)
        Zn            16.00    65.39000     Sm( 1.00)

     24 Sym. Ops., with inversion, found (12 have fractional translation)

   Cartesian axes

     site n.     atom                  positions (alat units)
         1           Mg  tau(   1) = (  -0.0000005   0.5773506   0.1003820  )
         2           Mg  tau(   2) = (   0.5000005   0.2886748   0.9044931  )
         3           Mg  tau(   3) = (   0.5000005   0.2886748   1.5078402  )
         4           Mg  tau(   4) = (  -0.0000005   0.5773506   0.7037291  )
         5           Zn  tau(   5) = (   0.0000000   0.0000000   0.0000000  )
         6           Zn  tau(   6) = (   0.0000000   0.0000000   0.8041111  )
         7           Zn  tau(   7) = (   0.0000000   0.2950739   1.2061667  )
         8           Zn  tau(   8) = (   0.7444585   0.1475370   0.4020556  )
         9           Zn  tau(   9) = (   0.2555415   0.1475370   0.4020556  )
        10           Zn  tau(  10) = (   0.2444585   0.7184884   1.2061667  )
        11           Zn  tau(  11) = (  -0.2444585   0.7184884   1.2061667  )
        12           Zn  tau(  12) = (   0.5000000   0.5709515   0.4020556  )

     number of k points=    12  gaussian smearing, width (Ry)=  0.1000
                       cart. coord. in units 2pi/alat
        k(    1) = (   0.0000000   0.0000000   0.0000000), wk =   0.0833333
        k(    2) = (   0.0000000   0.0000000   0.1554512), wk =   0.1666667
        k(    3) = (   0.0000000   0.0000000  -0.3109023), wk =   0.0833333
        k(    4) = (   0.0000000   0.3849002   0.0000000), wk =   0.1666667
        k(    5) = (   0.0000000   0.3849002   0.1554512), wk =   0.3333333
        k(    6) = (   0.0000000   0.3849002  -0.3109023), wk =   0.1666667
        k(    7) = (  -0.5000000  -0.2886751   0.0000000), wk =   0.0833333
        k(    8) = (  -0.5000000  -0.2886751   0.1554512), wk =   0.1666667
        k(    9) = (  -0.5000000  -0.2886751  -0.3109023), wk =   0.0833333
        k(   10) = (  -0.5000000   0.0962250   0.0000000), wk =   0.1666667
        k(   11) = (  -0.5000000   0.0962250   0.1554512), wk =   0.3333333
        k(   12) = (  -0.5000000   0.0962250  -0.3109023), wk =   0.1666667

     Largest allocated arrays     est. size (Mb)     dimensions
     Largest temporary arrays     est. size (Mb)     dimensions

     Initial potential from superposition of free atoms

     Starting from uniform charge
     Starting wfc are    0 randomized atomic wfcs

     Self-consistent Calculation

     iteration #  1     ecut=    40.00 Ry     beta=0.70
     CG style diagonalization
     c_bands:  5 eigenvalues not converged
     c_bands:  4 eigenvalues not converged
     c_bands:  2 eigenvalues not converged
     c_bands:  4 eigenvalues not converged
     ethr =  1.00E-02,  avg # of iterations = 14.8

     total energy              =   -1993.19659608 Ry
     Harris-Foulkes estimate   =   -2448.06525298 Ry
     estimated scf accuracy    <     599.27535520 Ry

     iteration #  2     ecut=    40.00 Ry     beta=0.70
     CG style diagonalization
     ethr =  1.00E-02,  avg # of iterations =  8.7

[...]

     End of self-consistent calculation

          k = 0.0000 0.0000 0.0000 (  5769 PWs)   bands (ev):

   -46.1635 -46.1594 -46.1577 -46.1474 -29.3840 -29.1741 -28.7722 -28.5383
   -28.5087 -28.5087 -28.5070 -28.5070 -14.6037 -14.5967 -14.5840 -14.5840
   -14.5497 -14.5497 -14.4852 -14.4618 -14.4426 -14.4426 -14.4413 -14.4413
    -7.1628  -6.6051  -5.9115  -5.0985  -5.0985  -4.9445  -4.9444  -4.8215
    -4.8215  -4.3528  -3.8693  -3.8693  -3.8680  -3.8357  -3.8356  -2.8845
    -2.8827  -2.8758  -2.8758  -2.8745  -2.7015  -2.7015  -2.6017  -2.6016
    19.2671  20.0703  20.1477  20.5870  20.9102  20.9102  21.4433  21.5509
    21.5509  21.6223  21.8123  21.8566  21.8566  21.9106  21.9106  21.9446
    22.1012  22.1012  22.4510  22.4510  22.4706  22.4706  23.0633  23.0634
    23.1036  23.6725  23.6725  23.7228  23.7228  23.8630  23.8630  24.1218
    24.4566  24.4566  24.8650  25.2329  25.2329  25.6992  25.8914  25.8914
    26.8884  26.8884  27.2327  27.4781  28.0004  28.0004  28.4860  28.5896
    28.9716  29.2968  29.2968  29.4945  29.4945  29.6230  29.6230  30.1404
    30.1404  31.5045  31.8493  31.8493  32.1478  32.1478  32.8437  33.2507
    34.0833  34.1607  34.1607  34.2090  34.2091  34.7507  34.7794  35.9508
    36.0816  36.0818

[...]

          k =-0.5000-0.2887 0.0000 (  5800 PWs)   bands (ev):

[...]

     the Fermi energy is    29.2169 ev

!    total energy              =   -2129.13061311 Ry
     Harris-Foulkes estimate   =   -2129.13067342 Ry
     estimated scf accuracy    <       0.00007045 Ry

     The total energy is the sum of the following terms:

     one-electron contribution =     -58.88304928 Ry
     hartree contribution      =     221.23749015 Ry
     xc contribution           =    -222.74625152 Ry
     ewald contribution        =   -2068.09421773 Ry
     smearing contrib. (-TS)   =      -0.64458474 Ry

     convergence has been achieved in  10 iterations

     Forces acting on atoms (Ry/au):

     atom    1 type  1   force =     0.00000000    0.00000000    0.03298523
     atom    2 type  1   force =     0.00000000    0.00000000    0.03298523
     atom    3 type  1   force =     0.00000000    0.00000000   -0.03298523
     atom    4 type  1   force =     0.00000000    0.00000000   -0.03298523
     atom    5 type  2   force =     0.00000000    0.00000000    0.00000000
     atom    6 type  2   force =     0.00000000    0.00000000    0.00000000
     atom    7 type  2   force =     0.00000000    0.03507787    0.00000000
     atom    8 type  2   force =    -0.03037832    0.01753893    0.00000000
     atom    9 type  2   force =     0.03037832    0.01753893    0.00000000
     atom   10 type  2   force =    -0.03037832   -0.01753893    0.00000000
     atom   11 type  2   force =     0.03037832   -0.01753893    0.00000000
     atom   12 type  2   force =     0.00000000   -0.03507787    0.00000000

     Total force =     0.108327     Total SCF correction =     0.000000

     entering subroutine stress ...

          total   stress  (Ry/bohr**3)                   (kbar)     P=  634.61
   0.00424924   0.00000000   0.00000000        625.08      0.00      0.00
   0.00000000   0.00424924   0.00000000          0.00    625.08      0.00
   0.00000000   0.00000000   0.00444341          0.00      0.00    653.65

     BFGS Geometry Optimization

     number of scf cycles    =   1
     number of bfgs steps    =   0

     enthalpy new            =   -2129.1306131085 Ry

     new trust radius        =       0.5000000000 bohr
     new conv_thr            =       0.0001000000 Ry

     new unit-cell volume =   1647.72413 a.u.^3 (   244.16752 Ang^3 )

CELL_PARAMETERS (alat=  9.92348860)
   1.064803606   0.000000000   0.000000000
  -0.532401803   0.922146973   0.000000000
   0.000000000   0.000000000   1.717203317

ATOMIC_POSITIONS (crystal)
Mg       0.333333000   0.666667000   0.063678833
Mg       0.666667000   0.333333000   0.563678833
Mg       0.666667000   0.333333000   0.936321167
Mg       0.333333000   0.666667000   0.436321167
Zn       0.000000000   0.000000000   0.000000000
Zn       0.000000000   0.000000000   0.500000000
Zn       0.171605963   0.343211926   0.750000000
Zn       0.828394037   0.171605963   0.250000000
Zn       0.343211926   0.171605963   0.250000000
Zn       0.656788074   0.828394037   0.750000000
Zn       0.171605963   0.828394037   0.750000000
Zn       0.828394037   0.656788074   0.250000000

     Writing output data file Prototype-La-hP12-MgZn2.save
     NEW-OLD atomic charge density approx. for the potential
     NEW k-points:
        k(    1) = (   0.0000000   0.0000000   0.0000000), wk =   0.0833333
        k(    2) = (   0.0000000   0.0000000   0.1455856), wk =   0.1666667
        k(    3) = (   0.0000000   0.0000000  -0.2911711), wk =   0.0833333
        k(    4) = (   0.0000000   0.3614753   0.0000000), wk =   0.1666667
        k(    5) = (   0.0000000   0.3614753   0.1455856), wk =   0.3333333
        k(    6) = (   0.0000000   0.3614753  -0.2911711), wk =   0.1666667
        k(    7) = (  -0.4695702  -0.2711065   0.0000000), wk =   0.0833333
        k(    8) = (  -0.4695702  -0.2711065   0.1455856), wk =   0.1666667
        k(    9) = (  -0.4695702  -0.2711065  -0.2911711), wk =   0.0833333
        k(   10) = (  -0.4695702   0.0903688   0.0000000), wk =   0.1666667
        k(   11) = (  -0.4695702   0.0903688   0.1455856), wk =   0.3333333
        k(   12) = (  -0.4695702   0.0903688  -0.2911711), wk =   0.1666667

[...]

     enthalpy old            =   -2129.1306131085 Ry
     enthalpy new            =   -2129.3128775008 Ry

     CASE: enthalpy_new < enthalpy_old

     small trust_radius: resetting bfgs history

     new trust radius        =       0.4502522057 bohr
     new conv_thr            =       0.0000044069 Ry

[...]

     number of scf cycles    =   3
     number of bfgs steps    =   2

     enthalpy old            =   -2129.3128775008 Ry
     enthalpy new            =   -2129.2551057281 Ry

     CASE: enthalpy_new > enthalpy_old

     new trust radius        =       0.1995647802 bohr

     trust_radius < trust_radius_min

     resetting bfgs history

     Message from routine bfgs:
     history already reset at previous step: stopping
     new conv_thr            =       0.0000044069 Ry

     new unit-cell volume =   1378.07126 a.u.^3 (   204.20909 Ang^3 )

[...]

ATOMIC_POSITIONS (crystal)
Mg       0.333333000   0.666667000   0.063968703
Mg       0.666667000   0.333333000   0.563968703
Mg       0.666667000   0.333333000   0.936031297
Mg       0.333333000   0.666667000   0.436031297
Zn       0.000000000   0.000000000   0.000000000
Zn       0.000000000   0.000000000   0.500000000
Zn       0.171704179   0.343408357   0.750000000
Zn       0.828295821   0.171704179   0.250000000
Zn       0.343408357   0.171704179   0.250000000
Zn       0.656591643   0.828295821   0.750000000
Zn       0.171704179   0.828295821   0.750000000
Zn       0.828295821   0.656591643   0.250000000

     Writing output data file Prototype-La-hP12-MgZn2.save
     NEW-OLD atomic charge density approx. for the potential
     NEW k-points:
        k(    1) = (   0.0000000   0.0000000   0.0000000), wk =   0.0833333
        k(    2) = (   0.0000000   0.0000000   0.1546429), wk =   0.1666667
        k(    3) = (   0.0000000   0.0000000  -0.3092859), wk =   0.0833333
        k(    4) = (   0.0000000   0.3835121   0.0000000), wk =   0.1666667
        k(    5) = (   0.0000000   0.3835121   0.1546429), wk =   0.3333333
        k(    6) = (   0.0000000   0.3835121  -0.3092859), wk =   0.1666667
        k(    7) = (  -0.4981969  -0.2876341   0.0000000), wk =   0.0833333
        k(    8) = (  -0.4981969  -0.2876341   0.1546429), wk =   0.1666667
        k(    9) = (  -0.4981969  -0.2876341  -0.3092859), wk =   0.0833333
        k(   10) = (  -0.4981969   0.0958780   0.0000000), wk =   0.1666667
        k(   11) = (  -0.4981969   0.0958780   0.1546429), wk =   0.3333333
        k(   12) = (  -0.4981969   0.0958780  -0.3092859), wk =   0.1666667

[...]

     The maximum number of steps has been reached.

     End of BFGS Geometry Optimization
Begin final coordinates
     new unit-cell volume =   1378.07126 a.u.^3 (   204.20909 Ang^3 )

CELL_PARAMETERS (alat=  9.92348860)
   1.003619318   0.000000000   0.000000000
  -0.501809659   0.869159825   0.000000000
   0.000000000   0.000000000   1.616627249

ATOMIC_POSITIONS (crystal)
Mg       0.333333000   0.666667000   0.063968703
Mg       0.666667000   0.333333000   0.563968703
Mg       0.666667000   0.333333000   0.936031297
Mg       0.333333000   0.666667000   0.436031297
Zn       0.000000000   0.000000000   0.000000000
Zn       0.000000000   0.000000000   0.500000000
Zn       0.171704179   0.343408357   0.750000000
Zn       0.828295821   0.171704179   0.250000000
Zn       0.343408357   0.171704179   0.250000000
Zn       0.656591643   0.828295821   0.750000000
Zn       0.171704179   0.828295821   0.750000000
Zn       0.828295821   0.656591643   0.250000000
End final coordinates

     A final scf calculation at the relaxed structure.
     The G-vectors are recalculated for the final unit cell
     Results may differ from those at the preceding step.

     bravais-lattice index     =            0
     lattice parameter (alat)  =       9.9235  a.u.
     unit-cell volume          =    1378.0713 (a.u.)^3
     number of atoms/cell      =           12
     number of atomic types    =            2
     number of electrons       =       204.00
     number of Kohn-Sham states=          122
     kinetic-energy cutoff     =      40.0000  Ry
     charge density cutoff     =     160.0000  Ry
     convergence threshold     =      4.4E-06
     mixing beta               =       0.7000
     number of iterations used =            8  plain     mixing
     Exchange-correlation      = SLA-PZ-NOGX-NOGC ( 1 1 0 0 0)
     EXX-fraction              =        0.00

     celldm(1)=   9.923489  celldm(2)=   0.000000  celldm(3)=   0.000000
     celldm(4)=   0.000000  celldm(5)=   0.000000  celldm(6)=   0.000000

     crystal axes: (cart. coord. in units of alat)
               a(1) = (   1.003619   0.000000   0.000000 )
               a(2) = (  -0.501810   0.869160   0.000000 )
               a(3) = (   0.000000   0.000000   1.616627 )

     reciprocal axes: (cart. coord. in units 2 pi/alat)
               b(1) = (  0.996394  0.575268  0.000000 )
               b(2) = (  0.000000  1.150536  0.000000 )
               b(3) = (  0.000000  0.000000  0.618572 )

     PseudoPot. # 1 for Tb read from file:
     /home/cwx6513/pp.La/Tb.UPF
     MD5 check sum: 3d6088a3f0cf7fd2e110c43f7f8e95c2
     Pseudo is Norm-conserving, Zval = 19.0
     Generated in analytical, separable form
     Using radial grid of 1263 points,  6 beta functions with:
                l(1) =   0
                l(2) =   0
                l(3) =   1
                l(4) =   1
                l(5) =   2
                l(6) =   3

     PseudoPot. # 2 for Sm read from file:
     /home/cwx6513/pp.La/Sm.UPF
     MD5 check sum: 5079e8b144a06bfcdbc14fb02b96ab09
     Pseudo is Norm-conserving, Zval = 16.0
     Generated in analytical, separable form
     Using radial grid of 1259 points,  6 beta functions with:
                l(1) =   0
                l(2) =   0
                l(3) =   1
                l(4) =   1
                l(5) =   2
                l(6) =   3

     atomic species   valence    mass     pseudopotential
        Mg            19.00    24.30500     Tb( 1.00)
        Zn            16.00    65.39000     Sm( 1.00)

     24 Sym. Ops., with inversion, found (12 have fractional translation)

   Cartesian axes

     site n.     atom                  positions (alat units)
         1           Mg  tau(   1) = (  -0.0000005   0.5794402   0.1034135  )
         2           Mg  tau(   2) = (   0.5018102   0.2897197   0.9117272  )
         3           Mg  tau(   3) = (   0.5018102   0.2897197   1.5132137  )
         4           Mg  tau(   4) = (  -0.0000005   0.5794402   0.7049001  )
         5           Zn  tau(   5) = (   0.0000000   0.0000000   0.0000000  )
         6           Zn  tau(   6) = (   0.0000000   0.0000000   0.8083136  )
         7           Zn  tau(   7) = (   0.0000000   0.2984767   1.2124704  )
         8           Zn  tau(   8) = (   0.7451309   0.1492384   0.4041568  )
         9           Zn  tau(   9) = (   0.2584884   0.1492384   0.4041568  )
        10           Zn  tau(  10) = (   0.2433212   0.7199215   1.2124704  )
        11           Zn  tau(  11) = (  -0.2433212   0.7199215   1.2124704  )
        12           Zn  tau(  12) = (   0.5018097   0.5706831   0.4041568  )

     number of k points=    12  gaussian smearing, width (Ry)=  0.1000
                       cart. coord. in units 2pi/alat
        k(    1) = (   0.0000000   0.0000000   0.0000000), wk =   0.0833333
        k(    2) = (   0.0000000   0.0000000   0.1546429), wk =   0.1666667
        k(    3) = (   0.0000000   0.0000000  -0.3092859), wk =   0.0833333
        k(    4) = (   0.0000000   0.3835121   0.0000000), wk =   0.1666667
        k(    5) = (   0.0000000   0.3835121   0.1546429), wk =   0.3333333
        k(    6) = (   0.0000000   0.3835121  -0.3092859), wk =   0.1666667
        k(    7) = (  -0.4981969  -0.2876341   0.0000000), wk =   0.0833333
        k(    8) = (  -0.4981969  -0.2876341   0.1546429), wk =   0.1666667
        k(    9) = (  -0.4981969  -0.2876341  -0.3092859), wk =   0.0833333
        k(   10) = (  -0.4981969   0.0958780   0.0000000), wk =   0.1666667
        k(   11) = (  -0.4981969   0.0958780   0.1546429), wk =   0.3333333
        k(   12) = (  -0.4981969   0.0958780  -0.3092859), wk =   0.1666667

     Largest allocated arrays     est. size (Mb)     dimensions
     Largest temporary arrays     est. size (Mb)     dimensions

     Initial potential from superposition of free atoms

     Starting from uniform charge
     Starting wfc are    0 randomized atomic wfcs

     Writing output data file Prototype-La-hP12-MgZn2.save

     Self-consistent Calculation

[...]

     iteration #  9     ecut=    40.00 Ry     beta=0.70
     CG style diagonalization
     c_bands:  1 eigenvalues not converged
     ethr =  2.47E-06,  avg # of iterations =  4.3

[...]

     total energy              =   -2129.25826156 Ry
     Harris-Foulkes estimate   =   -2129.25826765 Ry
     estimated scf accuracy    <       0.00001610 Ry

     iteration # 12     ecut=    40.00 Ry     beta=0.70
     CG style diagonalization
     ethr =  7.89E-09,  avg # of iterations =  4.1

     End of self-consistent calculation

[...]

          k = 0.0000 0.3835-0.3093 (  5888 PWs)   bands (ev):

[...]

          k =-0.4982 0.0959-0.3093 (  5890 PWs)   bands (ev):

   -46.5461 -46.5460 -46.5412 -46.5412 -29.4770 -29.4770 -29.2610 -29.2610
   -28.9179 -28.9179 -28.8941 -28.8941 -14.9900 -14.9900 -14.9581 -14.9581
   -14.9274 -14.9273 -14.8746 -14.8745 -14.8342 -14.8342 -14.8186 -14.8186
    -6.4878  -6.4878  -5.7419  -5.7419  -5.1020  -5.1020  -5.0434  -5.0434
    -4.8740  -4.8740  -4.6992  -4.6992  -4.2995  -4.2995  -3.9602  -3.9602
    -3.7203  -3.7202  -3.5622  -3.5622  -3.3050  -3.3050  -3.2310  -3.2310
    20.3679  20.3679  20.6965  20.6965  21.0028  21.0028  21.2146  21.2146
    21.3357  21.3357  21.4421  21.4421  21.8155  21.8155  22.0182  22.0182
    22.1828  22.1828  22.3112  22.3112  22.6387  22.6387  23.0369  23.0369
    23.3304  23.3304  23.5105  23.5105  23.9621  23.9621  24.1868  24.1868
    24.5015  24.5015  24.8622  24.8622  25.2813  25.2813  25.6915  25.6915
    25.8378  25.8378  26.3480  26.3480  26.7339  26.7339  27.2828  27.2828
    27.5765  27.5765  27.9291  27.9291  27.9890  27.9890  28.7833  28.7833
    29.0786  29.0786  29.2287  29.2287  29.7352  29.7352  31.0422  31.0422
    32.0558  32.0558  33.5908  33.5908  34.6128  34.6128  35.1941  35.1941
    36.1357  36.1358

     the Fermi energy is    28.7859 ev

!    total energy              =   -2129.25826789 Ry
     Harris-Foulkes estimate   =   -2129.25826929 Ry
     estimated scf accuracy    <       0.00000029 Ry

     The total energy is the sum of the following terms:

     one-electron contribution =     -70.04881890 Ry
     hartree contribution      =     223.84543358 Ry
     xc contribution           =    -222.47113291 Ry
     ewald contribution        =   -2059.93413824 Ry
     smearing contrib. (-TS)   =      -0.64961142 Ry

     convergence has been achieved in  12 iterations

     Forces acting on atoms (Ry/au):

     atom    1 type  1   force =     0.00000000    0.00000000    0.01778135
     atom    2 type  1   force =     0.00000000    0.00000000    0.01778135
     atom    3 type  1   force =     0.00000000    0.00000000   -0.01778135
     atom    4 type  1   force =     0.00000000    0.00000000   -0.01778135
     atom    5 type  2   force =     0.00000000    0.00000000    0.00000000
     atom    6 type  2   force =     0.00000000    0.00000000    0.00000000
     atom    7 type  2   force =     0.00000000    0.00733480    0.00000000
     atom    8 type  2   force =    -0.00635212    0.00366740    0.00000000
     atom    9 type  2   force =     0.00635212    0.00366740    0.00000000
     atom   10 type  2   force =    -0.00635212   -0.00366740    0.00000000
     atom   11 type  2   force =     0.00635212   -0.00366740    0.00000000
     atom   12 type  2   force =     0.00000000   -0.00733480    0.00000000

     Total force =     0.039843     Total SCF correction =     0.000000

     entering subroutine stress ...

          total   stress  (Ry/bohr**3)                   (kbar)     P=  565.24
   0.00384744   0.00000000   0.00000000        565.98      0.00      0.00
   0.00000000   0.00384744   0.00000000          0.00    565.98      0.00
   0.00000000   0.00000000   0.00383237          0.00      0.00    563.76

     Writing output data file Prototype-La-hP12-MgZn2.save

     General routines

     Parallel routines

   This run was terminated on:  17:55:40  22Mar2018

   JOB DONE.