     Program PWSCF v.5.0.2 starts on 22Mar2018 at 17:38:24

     Current dimensions of program PWSCF are:
     Max number of different atomic species (ntypx) = 10
     Max number of k-points (npk) =  40000
     Max angular momentum in pseudopotentials (lmaxx) =  3
     Waiting for input...
     Reading input from standard input

     Subspace diagonalization in iterative solution of the eigenvalue problem:
     a serial algorithm will be used

     bravais-lattice index     =            0
     lattice parameter (alat)  =       8.5346  a.u.
     unit-cell volume          =     621.6493 (a.u.)^3
     number of atoms/cell      =            8
     number of atomic types    =            2
     number of electrons       =       146.00
     number of Kohn-Sham states=           88
     kinetic-energy cutoff     =      40.0000  Ry
     charge density cutoff     =     160.0000  Ry
     convergence threshold     =      1.0E-04
     mixing beta               =       0.7000
     number of iterations used =            8  plain     mixing
     Exchange-correlation      = SLA-PZ-NOGX-NOGC ( 1 1 0 0 0)
     EXX-fraction              =        0.00
     nstep                     =           50

     celldm(1)=   8.534573  celldm(2)=   0.000000  celldm(3)=   0.000000
     celldm(4)=   0.000000  celldm(5)=   0.000000  celldm(6)=   0.000000

     crystal axes: (cart. coord. in units of alat)
               a(1) = (   1.000000   0.000000   0.000000 )
               a(2) = (   0.000000   1.000000   0.000000 )
               a(3) = (   0.000000   0.000000   1.000000 )

     reciprocal axes: (cart. coord. in units 2 pi/alat)
               b(1) = (  1.000000  0.000000  0.000000 )
               b(2) = (  0.000000  1.000000  0.000000 )
               b(3) = (  0.000000  0.000000  1.000000 )

     PseudoPot. # 1 for Tb read from file:
     /home/cwx6513/pp.La/Tb.UPF
     MD5 check sum: 3d6088a3f0cf7fd2e110c43f7f8e95c2
     Pseudo is Norm-conserving, Zval = 19.0
     Generated in analytical, separable form
     Using radial grid of 1263 points,  6 beta functions with:
                l(1) =   0
                l(2) =   0
                l(3) =   1
                l(4) =   1
                l(5) =   2
                l(6) =   3

     PseudoPot. # 2 for Sm read from file:
     /home/cwx6513/pp.La/Sm.UPF
     MD5 check sum: 5079e8b144a06bfcdbc14fb02b96ab09
     Pseudo is Norm-conserving, Zval = 16.0
     Generated in analytical, separable form
     Using radial grid of 1259 points,  6 beta functions with:
                l(1) =   0
                l(2) =   0
                l(3) =   1
                l(4) =   1
                l(5) =   2
                l(6) =   3

     atomic species   valence    mass     pseudopotential
        Cr            19.00    51.99610     Tb( 1.00)
        Si            16.00    28.08550     Sm( 1.00)

     48 Sym. Ops., with inversion, found (24 have fractional translation)

   Cartesian axes

     site n.     atom                  positions (alat units)
         1           Cr  tau(   1) = (   0.0000000   0.5000000   0.2500000  )
         2           Cr  tau(   2) = (   0.0000000   0.5000000   0.7500000  )
         3           Cr  tau(   3) = (   0.5000000   0.7500000   0.0000000  )
         4           Cr  tau(   4) = (   0.5000000   0.2500000   0.0000000  )
         5           Cr  tau(   5) = (   0.7500000   0.0000000   0.5000000  )
         6           Cr  tau(   6) = (   0.2500000   0.0000000   0.5000000  )
         7           Si  tau(   7) = (   0.5000000   0.5000000   0.5000000  )
         8           Si  tau(   8) = (   0.0000000   0.0000000   0.0000000  )

     number of k points=    48  gaussian smearing, width (Ry)=  0.1000
                       cart. coord. in units 2pi/alat
        k(    1) = (   0.0000000   0.0000000   0.0000000), wk =   0.0095238
        k(    2) = (   0.0000000   0.0000000   0.1428571), wk =   0.0190476
        k(    3) = (   0.0000000   0.0000000   0.2857143), wk =   0.0190476
        k(    4) = (   0.0000000   0.0000000   0.4285714), wk =   0.0190476
        k(    5) = (   0.0000000   0.1666667   0.0000000), wk =   0.0190476
        k(    6) = (   0.0000000   0.1666667   0.1428571), wk =   0.0380952
        k(    7) = (   0.0000000   0.1666667   0.2857143), wk =   0.0380952
        k(    8) = (   0.0000000   0.1666667   0.4285714), wk =   0.0380952
        k(    9) = (   0.0000000   0.3333333   0.0000000), wk =   0.0190476
        k(   10) = (   0.0000000   0.3333333   0.1428571), wk =   0.0380952
        k(   11) = (   0.0000000   0.3333333   0.2857143), wk =   0.0380952
        k(   12) = (   0.0000000   0.3333333   0.4285714), wk =   0.0380952
        k(   13) = (   0.0000000  -0.5000000   0.0000000), wk =   0.0095238
        k(   14) = (   0.0000000  -0.5000000   0.1428571), wk =   0.0190476
        k(   15) = (   0.0000000  -0.5000000   0.2857143), wk =   0.0190476
        k(   16) = (   0.0000000  -0.5000000   0.4285714), wk =   0.0190476
        k(   17) = (   0.2000000   0.0000000   0.0000000), wk =   0.0190476
        k(   18) = (   0.2000000   0.0000000   0.1428571), wk =   0.0380952
        k(   19) = (   0.2000000   0.0000000   0.2857143), wk =   0.0380952
        k(   20) = (   0.2000000   0.0000000   0.4285714), wk =   0.0380952
        k(   21) = (   0.2000000   0.1666667   0.0000000), wk =   0.0380952
        k(   22) = (   0.2000000   0.1666667   0.1428571), wk =   0.0761905
        k(   23) = (   0.2000000   0.1666667   0.2857143), wk =   0.0761905
        k(   24) = (   0.2000000   0.1666667   0.4285714), wk =   0.0761905
        k(   25) = (   0.2000000   0.3333333   0.0000000), wk =   0.0380952
        k(   26) = (   0.2000000   0.3333333   0.1428571), wk =   0.0761905
        k(   27) = (   0.2000000   0.3333333   0.2857143), wk =   0.0761905
        k(   28) = (   0.2000000   0.3333333   0.4285714), wk =   0.0761905
        k(   29) = (   0.2000000  -0.5000000   0.0000000), wk =   0.0190476
        k(   30) = (   0.2000000  -0.5000000   0.1428571), wk =   0.0380952
        k(   31) = (   0.2000000  -0.5000000   0.2857143), wk =   0.0380952
        k(   32) = (   0.2000000  -0.5000000   0.4285714), wk =   0.0380952
        k(   33) = (   0.4000000   0.0000000   0.0000000), wk =   0.0190476
        k(   34) = (   0.4000000   0.0000000   0.1428571), wk =   0.0380952
        k(   35) = (   0.4000000   0.0000000   0.2857143), wk =   0.0380952
        k(   36) = (   0.4000000   0.0000000   0.4285714), wk =   0.0380952
        k(   37) = (   0.4000000   0.1666667   0.0000000), wk =   0.0380952
        k(   38) = (   0.4000000   0.1666667   0.1428571), wk =   0.0761905
        k(   39) = (   0.4000000   0.1666667   0.2857143), wk =   0.0761905
        k(   40) = (   0.4000000   0.1666667   0.4285714), wk =   0.0761905
        k(   41) = (   0.4000000   0.3333333   0.0000000), wk =   0.0380952
        k(   42) = (   0.4000000   0.3333333   0.1428571), wk =   0.0761905
        k(   43) = (   0.4000000   0.3333333   0.2857143), wk =   0.0761905
        k(   44) = (   0.4000000   0.3333333   0.4285714), wk =   0.0761905
        k(   45) = (   0.4000000  -0.5000000   0.0000000), wk =   0.0190476
        k(   46) = (   0.4000000  -0.5000000   0.1428571), wk =   0.0380952
        k(   47) = (   0.4000000  -0.5000000   0.2857143), wk =   0.0380952
        k(   48) = (   0.4000000  -0.5000000   0.4285714), wk =   0.0380952

     Largest allocated arrays     est. size (Mb)     dimensions
     Largest temporary arrays     est. size (Mb)     dimensions

     Initial potential from superposition of free atoms

     Starting from uniform charge
     Starting wfc are    0 randomized atomic wfcs

     Self-consistent Calculation

     iteration #  1     ecut=    40.00 Ry     beta=0.70
     CG style diagonalization
     c_bands:  4 eigenvalues not converged
     c_bands:  2 eigenvalues not converged
     c_bands:  1 eigenvalues not converged
     c_bands:  5 eigenvalues not converged
     c_bands:  3 eigenvalues not converged
     c_bands:  4 eigenvalues not converged
     c_bands:  3 eigenvalues not converged
     c_bands:  1 eigenvalues not converged
     c_bands:  1 eigenvalues not converged
     c_bands:  4 eigenvalues not converged
     c_bands:  3 eigenvalues not converged
     c_bands:  5 eigenvalues not converged
     c_bands:  1 eigenvalues not converged
     c_bands:  3 eigenvalues not converged
     c_bands:  2 eigenvalues not converged
     c_bands:  5 eigenvalues not converged
     c_bands:  2 eigenvalues not converged
     c_bands:  1 eigenvalues not converged
     c_bands:  1 eigenvalues not converged
     c_bands:  4 eigenvalues not converged
     c_bands:  1 eigenvalues not converged
     c_bands:  2 eigenvalues not converged
     c_bands:  3 eigenvalues not converged
     c_bands:  4 eigenvalues not converged
     c_bands:  3 eigenvalues not converged
     c_bands:  2 eigenvalues not converged
     c_bands:  3 eigenvalues not converged
     c_bands:  3 eigenvalues not converged
     c_bands:  5 eigenvalues not converged
     c_bands:  1 eigenvalues not converged
     c_bands:  2 eigenvalues not converged
     c_bands:  2 eigenvalues not converged
     c_bands:  1 eigenvalues not converged
     c_bands:  3 eigenvalues not converged
     c_bands:  2 eigenvalues not converged
     c_bands:  1 eigenvalues not converged
     c_bands:  1 eigenvalues not converged
     ethr =  1.00E-02,  avg # of iterations = 12.7

     total energy              =   -1515.45369989 Ry
     Harris-Foulkes estimate   =   -1856.49605054 Ry
     estimated scf accuracy    <     438.83620171 Ry

[...]

     iteration #  4     ecut=    40.00 Ry     beta=0.70
     CG style diagonalization
     ethr =  1.00E-02,  avg # of iterations =  4.0

[...]

     End of self-consistent calculation

          k = 0.0000 0.0000 0.0000 (  2601 PWs)   bands (ev):

   -32.7749 -32.5495 -32.5495 -31.7719 -31.7719 -31.7719 -12.4596 -12.3561
    -3.9849  -3.9849  -3.4511  -1.8683  -1.8683  -1.8683  -0.6468  -0.6468
    -0.6468  -0.5953  -0.5953  -0.5953  -0.2398  -0.2398  -0.2398   1.1520
     1.1520   1.1520  11.7170  11.7170  11.7170  11.8709  11.8709  11.8709
    30.1527  30.1527  30.5069  30.7108  30.7108  30.7108  32.6166  32.7488
    33.7227  33.7227  33.7227  34.1806  34.1806  34.4298  34.4298  34.4298
    34.6798  38.1862  38.1862  38.1862  38.2803  38.2803  38.8499  38.8499
    38.8499  39.3702  39.3702  39.3702  39.6571  39.6571  39.6571  40.3326
    40.3326  42.6096  42.6096  42.6096  42.8192  42.8192  45.6875  45.6875
    45.6875  48.6616  48.6617  48.6617  51.5702  51.5702  51.5702  51.9959
    52.6942  52.6942  52.6942  53.7269  53.7269  54.6693  56.6978  56.6979

[...]

     the Fermi energy is    46.2762 ev

!    total energy              =   -1673.18753640 Ry
     Harris-Foulkes estimate   =   -1673.18754279 Ry
     estimated scf accuracy    <       0.00000705 Ry

     The total energy is the sum of the following terms:

     one-electron contribution =     180.36328199 Ry
     hartree contribution      =     124.20313655 Ry
     xc contribution           =    -173.53806595 Ry
     ewald contribution        =   -1804.01226542 Ry
[...]
        k(   47) = (   0.3635474  -0.4544343   0.2596767), wk =   0.0380952
        k(   48) = (   0.3635474  -0.4544343   0.3895151), wk =   0.0380952

[...]

     enthalpy old            =   -1673.1875364028 Ry
     enthalpy new            =   -1676.1662597869 Ry

     CASE: enthalpy_new < enthalpy_old

     small trust_radius: resetting bfgs history

     new trust radius        =       0.3264518226 bohr
     new conv_thr            =       0.0000010000 Ry

[...]

     number of scf cycles    =   3
     number of bfgs steps    =   2

     enthalpy old            =   -1676.1662597869 Ry
     enthalpy new            =   -1675.8474804207 Ry

     CASE: enthalpy_new > enthalpy_old

     new trust radius        =       0.0840183373 bohr

     trust_radius < trust_radius_min

     resetting bfgs history

     Message from routine bfgs:
     history already reset at previous step: stopping
     new conv_thr            =       0.0000010000 Ry

     new unit-cell volume =    968.65136 a.u.^3 (   143.53932 Ang^3 )

[...]

ATOMIC_POSITIONS (crystal)
Cr       0.000000000   0.500000000   0.250000000
Cr       0.000000000   0.500000000   0.750000000
Cr       0.500000000   0.750000000   0.000000000
Cr       0.500000000   0.250000000   0.000000000
Cr       0.750000000   0.000000000   0.500000000
Cr       0.250000000   0.000000000   0.500000000
Si       0.500000000   0.500000000   0.500000000
Si       0.000000000   0.000000000   0.000000000

     Writing output data file Prototype-La-cP8-Cr3Si.save
     NEW-OLD atomic charge density approx. for the potential
     NEW k-points:
        k(    1) = (   0.0000000   0.0000000   0.0000000), wk =   0.0095238
        k(    2) = (   0.0000000   0.0000000   0.1232238), wk =   0.0190476
        k(    3) = (   0.0000000   0.0000000   0.2464476), wk =   0.0190476
        k(    4) = (   0.0000000   0.0000000   0.3696714), wk =   0.0190476
        k(    5) = (   0.0000000   0.1437611   0.0000000), wk =   0.0190476
        k(    6) = (   0.0000000   0.1437611   0.1232238), wk =   0.0380952
        k(    7) = (   0.0000000   0.1437611   0.2464476), wk =   0.0380952
        k(    8) = (   0.0000000   0.1437611   0.3696714), wk =   0.0380952
        k(    9) = (   0.0000000   0.2875222   0.0000000), wk =   0.0190476
        k(   10) = (   0.0000000   0.2875222   0.1232238), wk =   0.0380952
        k(   11) = (   0.0000000   0.2875222   0.2464476), wk =   0.0380952
        k(   12) = (   0.0000000   0.2875222   0.3696714), wk =   0.0380952
        k(   13) = (   0.0000000  -0.4312833   0.0000000), wk =   0.0095238
        k(   14) = (   0.0000000  -0.4312833   0.1232238), wk =   0.0190476
        k(   15) = (   0.0000000  -0.4312833   0.2464476), wk =   0.0190476
        k(   16) = (   0.0000000  -0.4312833   0.3696714), wk =   0.0190476
        k(   17) = (   0.1725133   0.0000000   0.0000000), wk =   0.0190476
        k(   18) = (   0.1725133   0.0000000   0.1232238), wk =   0.0380952
        k(   19) = (   0.1725133   0.0000000   0.2464476), wk =   0.0380952
        k(   20) = (   0.1725133   0.0000000   0.3696714), wk =   0.0380952
        k(   21) = (   0.1725133   0.1437611   0.0000000), wk =   0.0380952
        k(   22) = (   0.1725133   0.1437611   0.1232238), wk =   0.0761905
        k(   23) = (   0.1725133   0.1437611   0.2464476), wk =   0.0761905
        k(   24) = (   0.1725133   0.1437611   0.3696714), wk =   0.0761905
        k(   25) = (   0.1725133   0.2875222   0.0000000), wk =   0.0380952
        k(   26) = (   0.1725133   0.2875222   0.1232238), wk =   0.0761905
        k(   27) = (   0.1725133   0.2875222   0.2464476), wk =   0.0761905
        k(   28) = (   0.1725133   0.2875222   0.3696714), wk =   0.0761905
        k(   29) = (   0.1725133  -0.4312833   0.0000000), wk =   0.0190476
        k(   30) = (   0.1725133  -0.4312833   0.1232238), wk =   0.0380952
        k(   31) = (   0.1725133  -0.4312833   0.2464476), wk =   0.0380952
        k(   32) = (   0.1725133  -0.4312833   0.3696714), wk =   0.0380952
        k(   33) = (   0.3450266   0.0000000   0.0000000), wk =   0.0190476
        k(   34) = (   0.3450266   0.0000000   0.1232238), wk =   0.0380952
        k(   35) = (   0.3450266   0.0000000   0.2464476), wk =   0.0380952
        k(   36) = (   0.3450266   0.0000000   0.3696714), wk =   0.0380952
        k(   37) = (   0.3450266   0.1437611   0.0000000), wk =   0.0380952
        k(   38) = (   0.3450266   0.1437611   0.1232238), wk =   0.0761905
        k(   39) = (   0.3450266   0.1437611   0.2464476), wk =   0.0761905
        k(   40) = (   0.3450266   0.1437611   0.3696714), wk =   0.0761905
        k(   41) = (   0.3450266   0.2875222   0.0000000), wk =   0.0380952
        k(   42) = (   0.3450266   0.2875222   0.1232238), wk =   0.0761905
        k(   43) = (   0.3450266   0.2875222   0.2464476), wk =   0.0761905
        k(   44) = (   0.3450266   0.2875222   0.3696714), wk =   0.0761905
        k(   45) = (   0.3450266  -0.4312833   0.0000000), wk =   0.0190476
        k(   46) = (   0.3450266  -0.4312833   0.1232238), wk =   0.0380952
        k(   47) = (   0.3450266  -0.4312833   0.2464476), wk =   0.0380952
        k(   48) = (   0.3450266  -0.4312833   0.3696714), wk =   0.0380952

[...]

     The maximum number of steps has been reached.

     End of BFGS Geometry Optimization
Begin final coordinates
     new unit-cell volume =    968.65136 a.u.^3 (   143.53932 Ang^3 )

CELL_PARAMETERS (alat=  8.53457320)
   1.159330755   0.000000000   0.000000000
   0.000000000   1.159330755   0.000000000
   0.000000000   0.000000000   1.159330755

ATOMIC_POSITIONS (crystal)
Cr       0.000000000   0.500000000   0.250000000
Cr       0.000000000   0.500000000   0.750000000
Cr       0.500000000   0.750000000   0.000000000
Cr       0.500000000   0.250000000   0.000000000
Cr       0.750000000   0.000000000   0.500000000
Cr       0.250000000   0.000000000   0.500000000
Si       0.500000000   0.500000000   0.500000000
Si       0.000000000   0.000000000   0.000000000
End final coordinates

     A final scf calculation at the relaxed structure.
     The G-vectors are recalculated for the final unit cell
     Results may differ from those at the preceding step.

     bravais-lattice index     =            0
     lattice parameter (alat)  =       8.5346  a.u.
     unit-cell volume          =     968.6514 (a.u.)^3
     number of atoms/cell      =            8
     number of atomic types    =            2
     number of electrons       =       146.00
     number of Kohn-Sham states=           88
     kinetic-energy cutoff     =      40.0000  Ry
     charge density cutoff     =     160.0000  Ry
     convergence threshold     =      1.0E-06
     mixing beta               =       0.7000
     number of iterations used =            8  plain     mixing
     Exchange-correlation      = SLA-PZ-NOGX-NOGC ( 1 1 0 0 0)
     EXX-fraction              =        0.00

     celldm(1)=   8.534573  celldm(2)=   0.000000  celldm(3)=   0.000000
     celldm(4)=   0.000000  celldm(5)=   0.000000  celldm(6)=   0.000000

     crystal axes: (cart. coord. in units of alat)
               a(1) = (   1.159331   0.000000   0.000000 )
               a(2) = (   0.000000   1.159331   0.000000 )
               a(3) = (   0.000000   0.000000   1.159331 )

     reciprocal axes: (cart. coord. in units 2 pi/alat)
               b(1) = (  0.862567  0.000000  0.000000 )
               b(2) = (  0.000000  0.862567  0.000000 )
               b(3) = (  0.000000  0.000000  0.862567 )

     PseudoPot. # 1 for Tb read from file:
     /home/cwx6513/pp.La/Tb.UPF
     MD5 check sum: 3d6088a3f0cf7fd2e110c43f7f8e95c2
     Pseudo is Norm-conserving, Zval = 19.0
     Generated in analytical, separable form
     Using radial grid of 1263 points,  6 beta functions with:
                l(1) =   0
                l(2) =   0
                l(3) =   1
                l(4) =   1
                l(5) =   2
                l(6) =   3

     PseudoPot. # 2 for Sm read from file:
     /home/cwx6513/pp.La/Sm.UPF
     MD5 check sum: 5079e8b144a06bfcdbc14fb02b96ab09
     Pseudo is Norm-conserving, Zval = 16.0
     Generated in analytical, separable form
     Using radial grid of 1259 points,  6 beta functions with:
                l(1) =   0
                l(2) =   0
                l(3) =   1
                l(4) =   1
                l(5) =   2
                l(6) =   3

     atomic species   valence    mass     pseudopotential
        Cr            19.00    51.99610     Tb( 1.00)
        Si            16.00    28.08550     Sm( 1.00)

     48 Sym. Ops., with inversion, found (24 have fractional translation)

   Cartesian axes

     site n.     atom                  positions (alat units)
         1           Cr  tau(   1) = (   0.0000000   0.5796654   0.2898327  )
         2           Cr  tau(   2) = (   0.0000000   0.5796654   0.8694981  )
         3           Cr  tau(   3) = (   0.5796654   0.8694981   0.0000000  )
         4           Cr  tau(   4) = (   0.5796654   0.2898327   0.0000000  )
         5           Cr  tau(   5) = (   0.8694981   0.0000000   0.5796654  )
         6           Cr  tau(   6) = (   0.2898327   0.0000000   0.5796654  )
         7           Si  tau(   7) = (   0.5796654   0.5796654   0.5796654  )
         8           Si  tau(   8) = (   0.0000000   0.0000000   0.0000000  )

     number of k points=    48  gaussian smearing, width (Ry)=  0.1000
                       cart. coord. in units 2pi/alat
        k(    1) = (   0.0000000   0.0000000   0.0000000), wk =   0.0095238
        k(    2) = (   0.0000000   0.0000000   0.1232238), wk =   0.0190476
        k(    3) = (   0.0000000   0.0000000   0.2464476), wk =   0.0190476
        k(    4) = (   0.0000000   0.0000000   0.3696714), wk =   0.0190476
        k(    5) = (   0.0000000   0.1437611   0.0000000), wk =   0.0190476
        k(    6) = (   0.0000000   0.1437611   0.1232238), wk =   0.0380952
        k(    7) = (   0.0000000   0.1437611   0.2464476), wk =   0.0380952
        k(    8) = (   0.0000000   0.1437611   0.3696714), wk =   0.0380952
        k(    9) = (   0.0000000   0.2875222   0.0000000), wk =   0.0190476
        k(   10) = (   0.0000000   0.2875222   0.1232238), wk =   0.0380952
        k(   11) = (   0.0000000   0.2875222   0.2464476), wk =   0.0380952
        k(   12) = (   0.0000000   0.2875222   0.3696714), wk =   0.0380952
        k(   13) = (   0.0000000  -0.4312833   0.0000000), wk =   0.0095238
        k(   14) = (   0.0000000  -0.4312833   0.1232238), wk =   0.0190476
        k(   15) = (   0.0000000  -0.4312833   0.2464476), wk =   0.0190476
        k(   16) = (   0.0000000  -0.4312833   0.3696714), wk =   0.0190476
        k(   17) = (   0.1725133   0.0000000   0.0000000), wk =   0.0190476
        k(   18) = (   0.1725133   0.0000000   0.1232238), wk =   0.0380952
        k(   19) = (   0.1725133   0.0000000   0.2464476), wk =   0.0380952
        k(   20) = (   0.1725133   0.0000000   0.3696714), wk =   0.0380952
        k(   21) = (   0.1725133   0.1437611   0.0000000), wk =   0.0380952
        k(   22) = (   0.1725133   0.1437611   0.1232238), wk =   0.0761905
        k(   23) = (   0.1725133   0.1437611   0.2464476), wk =   0.0761905
        k(   24) = (   0.1725133   0.1437611   0.3696714), wk =   0.0761905
        k(   25) = (   0.1725133   0.2875222   0.0000000), wk =   0.0380952
        k(   26) = (   0.1725133   0.2875222   0.1232238), wk =   0.0761905
        k(   27) = (   0.1725133   0.2875222   0.2464476), wk =   0.0761905
        k(   28) = (   0.1725133   0.2875222   0.3696714), wk =   0.0761905
        k(   29) = (   0.1725133  -0.4312833   0.0000000), wk =   0.0190476
        k(   30) = (   0.1725133  -0.4312833   0.1232238), wk =   0.0380952
        k(   31) = (   0.1725133  -0.4312833   0.2464476), wk =   0.0380952
        k(   32) = (   0.1725133  -0.4312833   0.3696714), wk =   0.0380952
        k(   33) = (   0.3450266   0.0000000   0.0000000), wk =   0.0190476
        k(   34) = (   0.3450266   0.0000000   0.1232238), wk =   0.0380952
        k(   35) = (   0.3450266   0.0000000   0.2464476), wk =   0.0380952
        k(   36) = (   0.3450266   0.0000000   0.3696714), wk =   0.0380952
        k(   37) = (   0.3450266   0.1437611   0.0000000), wk =   0.0380952
        k(   38) = (   0.3450266   0.1437611   0.1232238), wk =   0.0761905
        k(   39) = (   0.3450266   0.1437611   0.2464476), wk =   0.0761905
        k(   40) = (   0.3450266   0.1437611   0.3696714), wk =   0.0761905
        k(   41) = (   0.3450266   0.2875222   0.0000000), wk =   0.0380952
        k(   42) = (   0.3450266   0.2875222   0.1232238), wk =   0.0761905
        k(   43) = (   0.3450266   0.2875222   0.2464476), wk =   0.0761905
        k(   44) = (   0.3450266   0.2875222   0.3696714), wk =   0.0761905
        k(   45) = (   0.3450266  -0.4312833   0.0000000), wk =   0.0190476
        k(   46) = (   0.3450266  -0.4312833   0.1232238), wk =   0.0380952
        k(   47) = (   0.3450266  -0.4312833   0.2464476), wk =   0.0380952
        k(   48) = (   0.3450266  -0.4312833   0.3696714), wk =   0.0380952

     Largest allocated arrays     est. size (Mb)     dimensions
     Largest temporary arrays     est. size (Mb)     dimensions

     Initial potential from superposition of free atoms

     Starting from uniform charge
     Starting wfc are    0 randomized atomic wfcs

     Writing output data file Prototype-La-cP8-Cr3Si.save

     Self-consistent Calculation

[...]

     iteration # 11     ecut=    40.00 Ry     beta=0.70
     CG style diagonalization
     c_bands:  1 eigenvalues not converged
     c_bands:  1 eigenvalues not converged
     ethr =  1.93E-07,  avg # of iterations =  3.0

[...]

     total energy              =   -1679.14498395 Ry
     Harris-Foulkes estimate   =   -1679.14499482 Ry
     estimated scf accuracy    <       0.00002646 Ry

     iteration # 13     ecut=    40.00 Ry     beta=0.70
     CG style diagonalization
     ethr =  1.81E-08,  avg # of iterations =  3.3

     End of self-consistent calculation

[...]

          k = 0.3450-0.4313 0.3697 (  4150 PWs)   bands (ev):

   -48.1399 -48.1341 -48.1171 -48.1167 -48.1009 -48.0946 -29.7591 -29.7591
   -16.9395 -16.8801 -16.7226 -16.7220 -16.5760 -16.5657 -16.5629 -16.5270
   -16.4463 -16.4355 -16.4132 -16.4035 -16.3796 -16.3776 -16.3572 -16.3555
   -16.3491 -16.3487  -5.0396  -5.0390  -5.0362  -5.0358  -5.0337  -5.0337
    19.0193  19.0354  19.1065  19.1784  19.2740  19.2835  19.6724  19.7349
    19.7953  19.8336  19.8479  19.8610  19.9342  19.9418  19.9958  20.1120
    20.6633  20.6733  20.8478  20.9133  21.2221  21.2433  21.7912  21.9523
    22.0784  22.1302  22.3666  22.3915  22.5838  22.6522  24.5406  24.5408
    24.8750  24.9248  25.0895  25.2214  26.8585  26.8674  26.9680  26.9728
    27.0543  27.2343  27.3671  27.4257  27.9871  28.0645  28.8234  29.0506
    34.9823  35.2496  35.9764  36.1528  36.5980  36.8417  37.5731  37.8988

     the Fermi energy is    27.3804 ev

!    total energy              =   -1679.14498850 Ry
     Harris-Foulkes estimate   =   -1679.14498874 Ry
     estimated scf accuracy    <       0.00000026 Ry

     The total energy is the sum of the following terms:

     one-electron contribution =    -163.80870992 Ry
     hartree contribution      =     207.22402046 Ry
     xc contribution           =    -166.13852940 Ry
     ewald contribution        =   -1556.08074557 Ry
     smearing contrib. (-TS)   =      -0.34102407 Ry

     convergence has been achieved in  13 iterations

     Forces acting on atoms (Ry/au):

     atom    1 type  1   force =     0.00000000    0.00000000    0.00000000
     atom    2 type  1   force =     0.00000000    0.00000000    0.00000000
     atom    3 type  1   force =     0.00000000    0.00000000    0.00000000
     atom    4 type  1   force =     0.00000000    0.00000000    0.00000000
     atom    5 type  1   force =     0.00000000    0.00000000    0.00000000
     atom    6 type  1   force =     0.00000000    0.00000000    0.00000000
     atom    7 type  2   force =     0.00000000    0.00000000    0.00000000
     atom    8 type  2   force =     0.00000000    0.00000000    0.00000000

     Total force =     0.000000     Total SCF correction =     0.000000

     entering subroutine stress ...

          total   stress  (Ry/bohr**3)                   (kbar)     P=   87.66
   0.00059591   0.00000000   0.00000000         87.66      0.00      0.00
   0.00000000   0.00059591   0.00000000          0.00     87.66      0.00
   0.00000000   0.00000000   0.00059591          0.00      0.00     87.66

     Writing output data file Prototype-La-cP8-Cr3Si.save

     General routines

     Parallel routines

   This run was terminated on:  17:58:53  22Mar2018

   JOB DONE.