     Program PWSCF v.5.0.2 starts on 22Mar2018 at 17:38:28

     Current dimensions of program PWSCF are:
     Max number of different atomic species (ntypx) = 10
     Max number of k-points (npk) =  40000
     Max angular momentum in pseudopotentials (lmaxx) =  3
     Waiting for input...
     Reading input from standard input

     Subspace diagonalization in iterative solution of the eigenvalue problem:
     a serial algorithm will be used

     bravais-lattice index     =            0
     lattice parameter (alat)  =      12.0168  a.u.
     unit-cell volume          =    1187.3413 (a.u.)^3
     number of atoms/cell      =            8
     number of atomic types    =            2
     number of electrons       =       146.00
     number of Kohn-Sham states=           88
     kinetic-energy cutoff     =      40.0000  Ry
     charge density cutoff     =     160.0000  Ry
     convergence threshold     =      1.0E-04
     mixing beta               =       0.7000
     number of iterations used =            8  plain     mixing
     Exchange-correlation      = SLA-PZ-NOGX-NOGC ( 1 1 0 0 0)
     EXX-fraction              =        0.00
     nstep                     =           50

     celldm(1)=  12.016801  celldm(2)=   0.000000  celldm(3)=   0.000000
     celldm(4)=   0.000000  celldm(5)=   0.000000  celldm(6)=   0.000000

     crystal axes: (cart. coord. in units of alat)
               a(1) = (   1.000000   0.000000   0.000000 )
               a(2) = (  -0.500000   0.866025   0.000000 )
               a(3) = (   0.000000   0.000000   0.790093 )

     reciprocal axes: (cart. coord. in units 2 pi/alat)
               b(1) = (  1.000000  0.577350  0.000000 )
               b(2) = (  0.000000  1.154701  0.000000 )
               b(3) = (  0.000000  0.000000  1.265674 )

     PseudoPot. # 1 for Tb read from file:
     /home/cwx6513/pp.La/Tb.UPF
     MD5 check sum: 3d6088a3f0cf7fd2e110c43f7f8e95c2
     Pseudo is Norm-conserving, Zval = 19.0
     Generated in analytical, separable form
     Using radial grid of 1263 points,  6 beta functions with:
                l(1) =   0
                l(2) =   0
                l(3) =   1
                l(4) =   1
                l(5) =   2
                l(6) =   3

     PseudoPot. # 2 for Sm read from file:
     /home/cwx6513/pp.La/Sm.UPF
     MD5 check sum: 5079e8b144a06bfcdbc14fb02b96ab09
     Pseudo is Norm-conserving, Zval = 16.0
     Generated in analytical, separable form
     Using radial grid of 1259 points,  6 beta functions with:
                l(1) =   0
                l(2) =   0
                l(3) =   1
                l(4) =   1
                l(5) =   2
                l(6) =   3

     atomic species   valence    mass     pseudopotential
        Mg            19.00    24.30500     Tb( 1.00)
        Cd            16.00   112.41100     Sm( 1.00)

     24 Sym. Ops., with inversion, found (12 have fractional translation)

   Cartesian axes

     site n.     atom                  positions (alat units)
         1           Mg  tau(   1) = (   0.2478935   0.7204716   0.1975233  )
         2           Mg  tau(   2) = (   0.7478935   0.1455538   0.5925699  )
         3           Mg  tau(   3) = (   0.2521065   0.1455538   0.5925699  )
         4           Mg  tau(   4) = (  -0.2478935   0.7204716   0.1975233  )
         5           Mg  tau(   5) = (   0.0000000   0.2911075   0.1975233  )
         6           Mg  tau(   6) = (   0.5000000   0.5749179   0.5925699  )
         7           Cd  tau(   7) = (   0.5000005   0.2886748   0.1975233  )
         8           Cd  tau(   8) = (  -0.0000005   0.5773506   0.5925699  )

     number of k points=    64  gaussian smearing, width (Ry)=  0.1000
                       cart. coord. in units 2pi/alat
        k(    1) = (   0.0000000   0.0000000   0.0000000), wk =   0.0095238
        k(    2) = (   0.0000000   0.0000000   0.1808105), wk =   0.0190476
        k(    3) = (   0.0000000   0.0000000   0.3616210), wk =   0.0190476
        k(    4) = (   0.0000000   0.0000000   0.5424315), wk =   0.0190476
        k(    5) = (   0.0000000   0.1924501   0.0000000), wk =   0.0190476
        k(    6) = (   0.0000000   0.1924501   0.1808105), wk =   0.0380952
        k(    7) = (   0.0000000   0.1924501   0.3616210), wk =   0.0380952
        k(    8) = (   0.0000000   0.1924501   0.5424315), wk =   0.0380952
        k(    9) = (   0.0000000   0.3849002   0.0000000), wk =   0.0190476
        k(   10) = (   0.0000000   0.3849002   0.1808105), wk =   0.0380952
        k(   11) = (   0.0000000   0.3849002   0.3616210), wk =   0.0380952
        k(   12) = (   0.0000000   0.3849002   0.5424315), wk =   0.0380952
        k(   13) = (   0.0000000  -0.5773503   0.0000000), wk =   0.0095238
        k(   14) = (   0.0000000  -0.5773503   0.1808105), wk =   0.0190476
        k(   15) = (   0.0000000  -0.5773503   0.3616210), wk =   0.0190476
        k(   16) = (   0.0000000  -0.5773503   0.5424315), wk =   0.0190476
        k(   17) = (   0.2000000   0.1154701   0.0000000), wk =   0.0190476
        k(   18) = (   0.2000000   0.1154701   0.1808105), wk =   0.0380952
        k(   19) = (   0.2000000   0.1154701   0.3616210), wk =   0.0380952
        k(   20) = (   0.2000000   0.1154701   0.5424315), wk =   0.0380952
        k(   21) = (   0.2000000   0.3079201   0.0000000), wk =   0.0190476
        k(   22) = (   0.2000000   0.3079201   0.1808105), wk =   0.0380952
        k(   23) = (   0.2000000   0.3079201   0.3616210), wk =   0.0380952
        k(   24) = (   0.2000000   0.3079201   0.5424315), wk =   0.0380952
        k(   25) = (   0.2000000   0.5003702   0.0000000), wk =   0.0190476
        k(   26) = (   0.2000000   0.5003702   0.1808105), wk =   0.0380952
        k(   27) = (   0.2000000   0.5003702   0.3616210), wk =   0.0380952
        k(   28) = (   0.2000000   0.5003702   0.5424315), wk =   0.0380952
        k(   29) = (   0.2000000  -0.4618802   0.0000000), wk =   0.0190476
        k(   30) = (   0.2000000  -0.4618802   0.1808105), wk =   0.0380952
        k(   31) = (   0.2000000  -0.4618802   0.3616210), wk =   0.0380952
        k(   32) = (   0.2000000  -0.4618802   0.5424315), wk =   0.0380952
        k(   33) = (   0.2000000  -0.2694301   0.0000000), wk =   0.0190476
        k(   34) = (   0.2000000  -0.2694301   0.1808105), wk =   0.0380952
        k(   35) = (   0.2000000  -0.2694301   0.3616210), wk =   0.0380952
        k(   36) = (   0.2000000  -0.2694301   0.5424315), wk =   0.0380952
        k(   37) = (   0.2000000  -0.0769800   0.0000000), wk =   0.0190476
        k(   38) = (   0.2000000  -0.0769800   0.1808105), wk =   0.0380952
        k(   39) = (   0.2000000  -0.0769800   0.3616210), wk =   0.0380952
        k(   40) = (   0.2000000  -0.0769800   0.5424315), wk =   0.0380952
        k(   41) = (   0.4000000   0.2309401   0.0000000), wk =   0.0190476
        k(   42) = (   0.4000000   0.2309401   0.1808105), wk =   0.0380952
        k(   43) = (   0.4000000   0.2309401   0.3616210), wk =   0.0380952
        k(   44) = (   0.4000000   0.2309401   0.5424315), wk =   0.0380952
        k(   45) = (   0.4000000   0.4233902   0.0000000), wk =   0.0190476
        k(   46) = (   0.4000000   0.4233902   0.1808105), wk =   0.0380952
        k(   47) = (   0.4000000   0.4233902   0.3616210), wk =   0.0380952
        k(   48) = (   0.4000000   0.4233902   0.5424315), wk =   0.0380952
        k(   49) = (   0.4000000   0.6158403   0.0000000), wk =   0.0190476
        k(   50) = (   0.4000000   0.6158403   0.1808105), wk =   0.0380952
        k(   51) = (   0.4000000   0.6158403   0.3616210), wk =   0.0380952
        k(   52) = (   0.4000000   0.6158403   0.5424315), wk =   0.0380952
        k(   53) = (   0.4000000  -0.3464102   0.0000000), wk =   0.0190476
        k(   54) = (   0.4000000  -0.3464102   0.1808105), wk =   0.0380952
        k(   55) = (   0.4000000  -0.3464102   0.3616210), wk =   0.0380952
        k(   56) = (   0.4000000  -0.3464102   0.5424315), wk =   0.0380952
        k(   57) = (   0.4000000  -0.1539601   0.0000000), wk =   0.0190476
        k(   58) = (   0.4000000  -0.1539601   0.1808105), wk =   0.0380952
        k(   59) = (   0.4000000  -0.1539601   0.3616210), wk =   0.0380952
        k(   60) = (   0.4000000  -0.1539601   0.5424315), wk =   0.0380952
        k(   61) = (   0.4000000   0.0384900   0.0000000), wk =   0.0190476
        k(   62) = (   0.4000000   0.0384900   0.1808105), wk =   0.0380952
        k(   63) = (   0.4000000   0.0384900   0.3616210), wk =   0.0380952
        k(   64) = (   0.4000000   0.0384900   0.5424315), wk =   0.0380952

     Largest allocated arrays     est. size (Mb)     dimensions
     Largest temporary arrays     est. size (Mb)     dimensions

     Initial potential from superposition of free atoms

     Starting from uniform charge
     Starting wfc are    0 randomized atomic wfcs

     Self-consistent Calculation

     iteration #  1     ecut=    40.00 Ry     beta=0.70
     CG style diagonalization
     ethr =  1.00E-02,  avg # of iterations = 17.7

     total energy              =   -1428.14185382 Ry
     Harris-Foulkes estimate   =   -2062.08790513 Ry
     estimated scf accuracy    <     805.80806579 Ry

     iteration #  2     ecut=    40.00 Ry     beta=0.70
     CG style diagonalization
     c_bands:  1 eigenvalues not converged
     ethr =  1.00E-02,  avg # of iterations = 11.4

[...]

     End of self-consistent calculation

          k = 0.0000 0.0000 0.0000 (  5047 PWs)   bands (ev):

   -53.5301 -53.5136 -53.5110 -53.5109 -53.5047 -53.5046 -35.9400 -35.9393
   -22.0517 -21.9986 -21.9404 -21.9219 -21.9219 -21.8870 -21.8870 -21.8789
   -21.8789 -21.8061 -21.7518 -21.7517 -21.6856 -21.6842 -21.6842 -21.6697
   -21.6697 -21.6602 -11.0989 -11.0913 -11.0438 -11.0438 -11.0389 -11.0389
    13.2932  13.7828  13.8600  13.8600  13.8700  14.0989  14.3901  14.4538
    14.4538  14.4851  14.4852  15.3105  15.5818  15.5819  15.9716  16.0197
    16.0197  16.2254  16.3927  16.3927  16.5334  16.5334  16.7534  16.7535
    17.0017  17.0017  17.2280  17.2280  18.1083  18.3875  18.4025  18.4265
    18.7362  20.0980  20.0980  20.1138  20.1138  20.3617  20.3617  20.8588
    20.8588  21.0927  22.4038  22.4038  22.9374  23.5715  23.5715  24.2803
    25.9268  27.0828  27.0828  27.8777  28.4441  28.4442  28.7555  28.9260

[...]

     the Fermi energy is    20.9833 ev

!    total energy              =   -1679.82596114 Ry
     Harris-Foulkes estimate   =   -1679.82600471 Ry
     estimated scf accuracy    <       0.00004770 Ry

     The total energy is the sum of the following terms:

     one-electron contribution =    -307.23878795 Ry
     hartree contribution      =     248.85264755 Ry
     xc contribution           =    -163.98093506 Ry
     ewald contribution        =   -1457.05002133 Ry
     smearing contrib. (-TS)   =      -0.40886435 Ry

     convergence has been achieved in  14 iterations

     Forces acting on atoms (Ry/au):

     atom    1 type  1   force =     0.02476361    0.01429728    0.00000000
     atom    2 type  1   force =     0.02476361   -0.01429728    0.00000000
     atom    3 type  1   force =    -0.02476361   -0.01429728    0.00000000
[...]
        k(   14) = (   0.0000000  -0.5892362   0.1802015), wk =   0.0190476
        k(   15) = (   0.0000000  -0.5892362   0.3604031), wk =   0.0190476
        k(   16) = (   0.0000000  -0.5892362   0.5406046), wk =   0.0190476
        k(   17) = (   0.2041174   0.1178472   0.0000000), wk =   0.0190476
        k(   18) = (   0.2041174   0.1178472   0.1802015), wk =   0.0380952
        k(   19) = (   0.2041174   0.1178472   0.3604031), wk =   0.0380952
        k(   20) = (   0.2041174   0.1178472   0.5406046), wk =   0.0380952
        k(   21) = (   0.2041174   0.3142593   0.0000000), wk =   0.0190476
        k(   22) = (   0.2041174   0.3142593   0.1802015), wk =   0.0380952
        k(   23) = (   0.2041174   0.3142593   0.3604031), wk =   0.0380952
        k(   24) = (   0.2041174   0.3142593   0.5406046), wk =   0.0380952
        k(   25) = (   0.2041174   0.5106714   0.0000000), wk =   0.0190476
        k(   26) = (   0.2041174   0.5106714   0.1802015), wk =   0.0380952
        k(   27) = (   0.2041174   0.5106714   0.3604031), wk =   0.0380952
        k(   28) = (   0.2041174   0.5106714   0.5406046), wk =   0.0380952
        k(   29) = (   0.2041174  -0.4713890   0.0000000), wk =   0.0190476
        k(   30) = (   0.2041174  -0.4713890   0.1802015), wk =   0.0380952
        k(   31) = (   0.2041174  -0.4713890   0.3604031), wk =   0.0380952
        k(   32) = (   0.2041174  -0.4713890   0.5406046), wk =   0.0380952
        k(   33) = (   0.2041174  -0.2749769   0.0000000), wk =   0.0190476
        k(   34) = (   0.2041174  -0.2749769   0.1802015), wk =   0.0380952
        k(   35) = (   0.2041174  -0.2749769   0.3604031), wk =   0.0380952
        k(   36) = (   0.2041174  -0.2749769   0.5406046), wk =   0.0380952
        k(   37) = (   0.2041174  -0.0785648   0.0000000), wk =   0.0190476
        k(   38) = (   0.2041174  -0.0785648   0.1802015), wk =   0.0380952
        k(   39) = (   0.2041174  -0.0785648   0.3604031), wk =   0.0380952
        k(   40) = (   0.2041174  -0.0785648   0.5406046), wk =   0.0380952
        k(   41) = (   0.4082348   0.2356945   0.0000000), wk =   0.0190476
        k(   42) = (   0.4082348   0.2356945   0.1802015), wk =   0.0380952
        k(   43) = (   0.4082348   0.2356945   0.3604031), wk =   0.0380952
        k(   44) = (   0.4082348   0.2356945   0.5406046), wk =   0.0380952
        k(   45) = (   0.4082348   0.4321066   0.0000000), wk =   0.0190476
        k(   46) = (   0.4082348   0.4321066   0.1802015), wk =   0.0380952
        k(   47) = (   0.4082348   0.4321066   0.3604031), wk =   0.0380952
        k(   48) = (   0.4082348   0.4321066   0.5406046), wk =   0.0380952
        k(   49) = (   0.4082348   0.6285187   0.0000000), wk =   0.0190476
        k(   50) = (   0.4082348   0.6285187   0.1802015), wk =   0.0380952
        k(   51) = (   0.4082348   0.6285187   0.3604031), wk =   0.0380952
        k(   52) = (   0.4082348   0.6285187   0.5406046), wk =   0.0380952
        k(   53) = (   0.4082348  -0.3535417   0.0000000), wk =   0.0190476
        k(   54) = (   0.4082348  -0.3535417   0.1802015), wk =   0.0380952
        k(   55) = (   0.4082348  -0.3535417   0.3604031), wk =   0.0380952
        k(   56) = (   0.4082348  -0.3535417   0.5406046), wk =   0.0380952
        k(   57) = (   0.4082348  -0.1571297   0.0000000), wk =   0.0190476
        k(   58) = (   0.4082348  -0.1571297   0.1802015), wk =   0.0380952
        k(   59) = (   0.4082348  -0.1571297   0.3604031), wk =   0.0380952
        k(   60) = (   0.4082348  -0.1571297   0.5406046), wk =   0.0380952
        k(   61) = (   0.4082348   0.0392824   0.0000000), wk =   0.0190476
        k(   62) = (   0.4082348   0.0392824   0.1802015), wk =   0.0380952
        k(   63) = (   0.4082348   0.0392824   0.3604031), wk =   0.0380952
        k(   64) = (   0.4082348   0.0392824   0.5406046), wk =   0.0380952

[...]

     The maximum number of steps has been reached.

     End of BFGS Geometry Optimization
Begin final coordinates
     new unit-cell volume =   1143.77498 a.u.^3 (   169.48996 Ang^3 )

CELL_PARAMETERS (alat= 12.01680127)
   0.979828183   0.000000000   0.000000000
  -0.489914092   0.848556098   0.000000000
   0.000000000   0.000000000   0.792763174

ATOMIC_POSITIONS (crystal)
Mg       0.662997184   0.831498592   0.250000000
Mg       0.831498592   0.168501408   0.750000000
Mg       0.337002816   0.168501408   0.750000000
Mg       0.168501408   0.831498592   0.250000000
Mg       0.168501408   0.337002816   0.250000000
Mg       0.831498592   0.662997184   0.750000000
Cd       0.666667000   0.333333000   0.250000000
Cd       0.333333000   0.666667000   0.750000000
End final coordinates

     A final scf calculation at the relaxed structure.
     The G-vectors are recalculated for the final unit cell
     Results may differ from those at the preceding step.

     bravais-lattice index     =            0
     lattice parameter (alat)  =      12.0168  a.u.
     unit-cell volume          =    1143.7750 (a.u.)^3
     number of atoms/cell      =            8
     number of atomic types    =            2
     number of electrons       =       146.00
     number of Kohn-Sham states=           88
     kinetic-energy cutoff     =      40.0000  Ry
     charge density cutoff     =     160.0000  Ry
     convergence threshold     =      3.7E-05
     mixing beta               =       0.7000
     number of iterations used =            8  plain     mixing
     Exchange-correlation      = SLA-PZ-NOGX-NOGC ( 1 1 0 0 0)
     EXX-fraction              =        0.00

     celldm(1)=  12.016801  celldm(2)=   0.000000  celldm(3)=   0.000000
     celldm(4)=   0.000000  celldm(5)=   0.000000  celldm(6)=   0.000000

     crystal axes: (cart. coord. in units of alat)
               a(1) = (   0.979828   0.000000   0.000000 )
               a(2) = (  -0.489914   0.848556   0.000000 )
               a(3) = (   0.000000   0.000000   0.792763 )

     reciprocal axes: (cart. coord. in units 2 pi/alat)
               b(1) = (  1.020587  0.589236  0.000000 )
               b(2) = (  0.000000  1.178472  0.000000 )
               b(3) = (  0.000000  0.000000  1.261411 )

     PseudoPot. # 1 for Tb read from file:
     /home/cwx6513/pp.La/Tb.UPF
     MD5 check sum: 3d6088a3f0cf7fd2e110c43f7f8e95c2
     Pseudo is Norm-conserving, Zval = 19.0
     Generated in analytical, separable form
     Using radial grid of 1263 points,  6 beta functions with:
                l(1) =   0
                l(2) =   0
                l(3) =   1
                l(4) =   1
                l(5) =   2
                l(6) =   3

     PseudoPot. # 2 for Sm read from file:
     /home/cwx6513/pp.La/Sm.UPF
     MD5 check sum: 5079e8b144a06bfcdbc14fb02b96ab09
     Pseudo is Norm-conserving, Zval = 16.0
     Generated in analytical, separable form
     Using radial grid of 1259 points,  6 beta functions with:
                l(1) =   0
                l(2) =   0
                l(3) =   1
                l(4) =   1
                l(5) =   2
                l(6) =   3

     atomic species   valence    mass     pseudopotential
        Mg            19.00    24.30500     Tb( 1.00)
        Cd            16.00   112.41100     Sm( 1.00)

     24 Sym. Ops., with inversion, found (12 have fractional translation)

   Cartesian axes

     site n.     atom                  positions (alat units)
         1           Mg  tau(   1) = (   0.2422604   0.7055732   0.1981908  )
         2           Mg  tau(   2) = (   0.7321745   0.1429829   0.5945724  )
         3           Mg  tau(   3) = (   0.2476536   0.1429829   0.5945724  )
         4           Mg  tau(   4) = (  -0.2422604   0.7055732   0.1981908  )
         5           Mg  tau(   5) = (   0.0000000   0.2859658   0.1981908  )
         6           Mg  tau(   6) = (   0.4899141   0.5625903   0.5945724  )
         7           Cd  tau(   7) = (   0.4899146   0.2828517   0.1981908  )
         8           Cd  tau(   8) = (  -0.0000005   0.5657043   0.5945724  )

     number of k points=    64  gaussian smearing, width (Ry)=  0.1000
                       cart. coord. in units 2pi/alat
        k(    1) = (   0.0000000   0.0000000   0.0000000), wk =   0.0095238
        k(    2) = (   0.0000000   0.0000000   0.1802015), wk =   0.0190476
        k(    3) = (   0.0000000   0.0000000   0.3604031), wk =   0.0190476
        k(    4) = (   0.0000000   0.0000000   0.5406046), wk =   0.0190476
        k(    5) = (   0.0000000   0.1964121   0.0000000), wk =   0.0190476
        k(    6) = (   0.0000000   0.1964121   0.1802015), wk =   0.0380952
        k(    7) = (   0.0000000   0.1964121   0.3604031), wk =   0.0380952
        k(    8) = (   0.0000000   0.1964121   0.5406046), wk =   0.0380952
        k(    9) = (   0.0000000   0.3928242   0.0000000), wk =   0.0190476
        k(   10) = (   0.0000000   0.3928242   0.1802015), wk =   0.0380952
        k(   11) = (   0.0000000   0.3928242   0.3604031), wk =   0.0380952
        k(   12) = (   0.0000000   0.3928242   0.5406046), wk =   0.0380952
        k(   13) = (   0.0000000  -0.5892362   0.0000000), wk =   0.0095238
        k(   14) = (   0.0000000  -0.5892362   0.1802015), wk =   0.0190476
        k(   15) = (   0.0000000  -0.5892362   0.3604031), wk =   0.0190476
        k(   16) = (   0.0000000  -0.5892362   0.5406046), wk =   0.0190476
        k(   17) = (   0.2041174   0.1178472   0.0000000), wk =   0.0190476
        k(   18) = (   0.2041174   0.1178472   0.1802015), wk =   0.0380952
        k(   19) = (   0.2041174   0.1178472   0.3604031), wk =   0.0380952
        k(   20) = (   0.2041174   0.1178472   0.5406046), wk =   0.0380952
        k(   21) = (   0.2041174   0.3142593   0.0000000), wk =   0.0190476
        k(   22) = (   0.2041174   0.3142593   0.1802015), wk =   0.0380952
        k(   23) = (   0.2041174   0.3142593   0.3604031), wk =   0.0380952
        k(   24) = (   0.2041174   0.3142593   0.5406046), wk =   0.0380952
        k(   25) = (   0.2041174   0.5106714   0.0000000), wk =   0.0190476
        k(   26) = (   0.2041174   0.5106714   0.1802015), wk =   0.0380952
        k(   27) = (   0.2041174   0.5106714   0.3604031), wk =   0.0380952
        k(   28) = (   0.2041174   0.5106714   0.5406046), wk =   0.0380952
        k(   29) = (   0.2041174  -0.4713890   0.0000000), wk =   0.0190476
        k(   30) = (   0.2041174  -0.4713890   0.1802015), wk =   0.0380952
        k(   31) = (   0.2041174  -0.4713890   0.3604031), wk =   0.0380952
        k(   32) = (   0.2041174  -0.4713890   0.5406046), wk =   0.0380952
        k(   33) = (   0.2041174  -0.2749769   0.0000000), wk =   0.0190476
        k(   34) = (   0.2041174  -0.2749769   0.1802015), wk =   0.0380952
        k(   35) = (   0.2041174  -0.2749769   0.3604031), wk =   0.0380952
        k(   36) = (   0.2041174  -0.2749769   0.5406046), wk =   0.0380952
        k(   37) = (   0.2041174  -0.0785648   0.0000000), wk =   0.0190476
        k(   38) = (   0.2041174  -0.0785648   0.1802015), wk =   0.0380952
        k(   39) = (   0.2041174  -0.0785648   0.3604031), wk =   0.0380952
        k(   40) = (   0.2041174  -0.0785648   0.5406046), wk =   0.0380952
        k(   41) = (   0.4082348   0.2356945   0.0000000), wk =   0.0190476
        k(   42) = (   0.4082348   0.2356945   0.1802015), wk =   0.0380952
        k(   43) = (   0.4082348   0.2356945   0.3604031), wk =   0.0380952
        k(   44) = (   0.4082348   0.2356945   0.5406046), wk =   0.0380952
        k(   45) = (   0.4082348   0.4321066   0.0000000), wk =   0.0190476
        k(   46) = (   0.4082348   0.4321066   0.1802015), wk =   0.0380952
        k(   47) = (   0.4082348   0.4321066   0.3604031), wk =   0.0380952
        k(   48) = (   0.4082348   0.4321066   0.5406046), wk =   0.0380952
        k(   49) = (   0.4082348   0.6285187   0.0000000), wk =   0.0190476
        k(   50) = (   0.4082348   0.6285187   0.1802015), wk =   0.0380952
        k(   51) = (   0.4082348   0.6285187   0.3604031), wk =   0.0380952
        k(   52) = (   0.4082348   0.6285187   0.5406046), wk =   0.0380952
        k(   53) = (   0.4082348  -0.3535417   0.0000000), wk =   0.0190476
        k(   54) = (   0.4082348  -0.3535417   0.1802015), wk =   0.0380952
        k(   55) = (   0.4082348  -0.3535417   0.3604031), wk =   0.0380952
        k(   56) = (   0.4082348  -0.3535417   0.5406046), wk =   0.0380952
        k(   57) = (   0.4082348  -0.1571297   0.0000000), wk =   0.0190476
        k(   58) = (   0.4082348  -0.1571297   0.1802015), wk =   0.0380952
        k(   59) = (   0.4082348  -0.1571297   0.3604031), wk =   0.0380952
        k(   60) = (   0.4082348  -0.1571297   0.5406046), wk =   0.0380952
        k(   61) = (   0.4082348   0.0392824   0.0000000), wk =   0.0190476
        k(   62) = (   0.4082348   0.0392824   0.1802015), wk =   0.0380952
        k(   63) = (   0.4082348   0.0392824   0.3604031), wk =   0.0380952
        k(   64) = (   0.4082348   0.0392824   0.5406046), wk =   0.0380952

     Largest allocated arrays     est. size (Mb)     dimensions
     Largest temporary arrays     est. size (Mb)     dimensions

     Initial potential from superposition of free atoms

     Starting from uniform charge
     Starting wfc are    0 randomized atomic wfcs

     Writing output data file Prototype-La-hP8-Mg3Cd.save

     Self-consistent Calculation

[...]

     iteration # 11     ecut=    40.00 Ry     beta=0.70
     CG style diagonalization
     c_bands:  1 eigenvalues not converged
     c_bands:  1 eigenvalues not converged
     c_bands:  1 eigenvalues not converged
     c_bands:  1 eigenvalues not converged
     c_bands:  1 eigenvalues not converged
     c_bands:  1 eigenvalues not converged
     ethr =  8.27E-07,  avg # of iterations =  4.5

[...]

     total energy              =   -1679.79083612 Ry
     Harris-Foulkes estimate   =   -1679.79086489 Ry
     estimated scf accuracy    <       0.00008248 Ry

     iteration # 14     ecut=    40.00 Ry     beta=0.70
     CG style diagonalization
     ethr =  5.65E-08,  avg # of iterations =  3.3

     End of self-consistent calculation

[...]

          k = 0.4082 0.0393 0.5406 (  4883 PWs)   bands (ev):

   -52.6070 -52.6013 -52.5925 -52.5905 -52.5899 -52.5888 -34.9066 -34.9064
   -21.0899 -21.0856 -21.0599 -21.0546 -21.0283 -21.0167 -20.9368 -20.9215
   -20.8910 -20.8836 -20.8616 -20.8380 -20.8209 -20.8111 -20.8066 -20.7850
   -20.7739 -20.7656 -10.0766 -10.0760 -10.0396 -10.0390 -10.0330 -10.0323
    14.9424  14.9683  15.1722  15.1780  15.2382  15.4492  15.5014  15.5800
    15.6127  15.7092  15.8500  16.0185  16.0972  16.1770  16.3327  16.4562
    16.7298  16.7767  17.0453  17.2194  17.3092  17.4667  17.5274  17.5594
    17.6922  17.7731  18.1230  18.1956  18.4006  18.7490  18.8204  19.0811
    19.4083  19.7897  20.3813  20.5027  20.8703  20.9168  21.1429  21.3512
    21.7010  21.9029  22.1091  22.4585  23.0371  23.3948  25.3781  25.6604
    27.7947  28.1172  29.4733  30.1498  30.3636  30.5714  31.3500  31.5051

     the Fermi energy is    22.0406 ev

!    total energy              =   -1679.79083627 Ry
     Harris-Foulkes estimate   =   -1679.79084405 Ry
     estimated scf accuracy    <       0.00000867 Ry

     The total energy is the sum of the following terms:

     one-electron contribution =    -279.72119697 Ry
     hartree contribution      =     240.15824148 Ry
     xc contribution           =    -164.28594178 Ry
     ewald contribution        =   -1475.54290769 Ry
     smearing contrib. (-TS)   =      -0.39903130 Ry

     convergence has been achieved in  14 iterations

     Forces acting on atoms (Ry/au):

     atom    1 type  1   force =     0.01868596    0.01078835    0.00000000
     atom    2 type  1   force =     0.01868596   -0.01078835    0.00000000
     atom    3 type  1   force =    -0.01868596   -0.01078835    0.00000000
     atom    4 type  1   force =    -0.01868596    0.01078835    0.00000000
     atom    5 type  1   force =     0.00000000   -0.02157669    0.00000000
     atom    6 type  1   force =     0.00000000    0.02157669    0.00000000
     atom    7 type  2   force =     0.00000000    0.00000000    0.00000000
     atom    8 type  2   force =     0.00000000    0.00000000    0.00000000

     Total force =     0.052852     Total SCF correction =     0.000000

     entering subroutine stress ...

          total   stress  (Ry/bohr**3)                   (kbar)     P= -402.18
  -0.00277693   0.00000000   0.00000000       -408.50      0.00      0.00
   0.00000000  -0.00277693   0.00000000          0.00   -408.50      0.00
   0.00000000   0.00000000  -0.00264809          0.00      0.00   -389.55

     Writing output data file Prototype-La-hP8-Mg3Cd.save

     General routines

     Parallel routines

   This run was terminated on:  18:33:25  22Mar2018

   JOB DONE.