     Program PWSCF v.5.0.2 starts on 22Mar2018 at 17:38:29

     Current dimensions of program PWSCF are:
     Max number of different atomic species (ntypx) = 10
     Max number of k-points (npk) =  40000
     Max angular momentum in pseudopotentials (lmaxx) =  3
     Waiting for input...
     Reading input from standard input

     Subspace diagonalization in iterative solution of the eigenvalue problem:
     a serial algorithm will be used

     bravais-lattice index     =            0
     lattice parameter (alat)  =       8.8008  a.u.
     unit-cell volume          =    1116.9454 (a.u.)^3
     number of atoms/cell      =           16
     number of atomic types    =            2
     number of electrons       =       292.00
     number of Kohn-Sham states=          175
     kinetic-energy cutoff     =      40.0000  Ry
     charge density cutoff     =     160.0000  Ry
     convergence threshold     =      1.0E-04
     mixing beta               =       0.7000
     number of iterations used =            8  plain     mixing
     Exchange-correlation      = SLA-PZ-NOGX-NOGC ( 1 1 0 0 0)
     EXX-fraction              =        0.00
     nstep                     =           50

     celldm(1)=   8.800765  celldm(2)=   0.000000  celldm(3)=   0.000000
     celldm(4)=   0.000000  celldm(5)=   0.000000  celldm(6)=   0.000000

     crystal axes: (cart. coord. in units of alat)
               a(1) = (   1.000000   0.000000   0.000000 )
               a(2) = (   0.000000   1.083771   0.000000 )
               a(3) = (   0.000000   0.000000   1.511935 )

     reciprocal axes: (cart. coord. in units 2 pi/alat)
               b(1) = (  1.000000  0.000000  0.000000 )
               b(2) = (  0.000000  0.922704  0.000000 )
               b(3) = (  0.000000  0.000000  0.661404 )

     PseudoPot. # 1 for Tb read from file:
     /home/jld5415/pp.La/Tb.UPF
     MD5 check sum: 3d6088a3f0cf7fd2e110c43f7f8e95c2
     Pseudo is Norm-conserving, Zval = 19.0
     Generated in analytical, separable form
     Using radial grid of 1263 points,  6 beta functions with:
                l(1) =   0
                l(2) =   0
                l(3) =   1
                l(4) =   1
                l(5) =   2
                l(6) =   3

     PseudoPot. # 2 for Sm read from file:
     /home/jld5415/pp.La/Sm.UPF
     MD5 check sum: 5079e8b144a06bfcdbc14fb02b96ab09
     Pseudo is Norm-conserving, Zval = 16.0
     Generated in analytical, separable form
     Using radial grid of 1259 points,  6 beta functions with:
                l(1) =   0
                l(2) =   0
                l(3) =   1
                l(4) =   1
                l(5) =   2
                l(6) =   3

     atomic species   valence    mass     pseudopotential
        Fe            19.00    55.84500     Tb( 1.00)
        C             16.00    12.01070     Sm( 1.00)

      8 Sym. Ops., with inversion, found ( 6 have fractional translation)

   Cartesian axes

     site n.     atom                  positions (alat units)
         1           Fe  tau(   1) = (   0.3472940   0.1827628   1.3947267  )
         2           Fe  tau(   2) = (   0.1527060   0.7246484   0.8731757  )
         3           Fe  tau(   3) = (   0.8472940   0.3591227   0.6387592  )
         4           Fe  tau(   4) = (   0.3396640   0.4879235   0.3779837  )
         5           Fe  tau(   5) = (   0.1527060   0.7246484   1.3947267  )
         6           Fe  tau(   6) = (   0.3472940   0.1827628   0.8731757  )
         7           Fe  tau(   7) = (   0.1603360   1.0298091   0.3779837  )
         8           Fe  tau(   8) = (   0.6527060   0.9010083   0.6387592  )
         9           Fe  tau(   9) = (   0.8472940   0.3591227   0.1172082  )
        10           Fe  tau(  10) = (   0.6603360   0.5958476   1.1339512  )
        11           Fe  tau(  11) = (   0.6527060   0.9010083   0.1172082  )
        12           Fe  tau(  12) = (   0.8396640   0.0539620   1.1339512  )
        13           C   tau(  13) = (   0.0000000   0.0000000   0.0000000  )
        14           C   tau(  14) = (   0.5000000   0.5418856   0.0000000  )
        15           C   tau(  15) = (   0.5000000   0.5418856   0.7559674  )
        16           C   tau(  16) = (   0.0000000   0.0000000   0.7559674  )

     number of k points=    12  gaussian smearing, width (Ry)=  0.1000
                       cart. coord. in units 2pi/alat
        k(    1) = (   0.0000000   0.0000000   0.0000000), wk =   0.0833333
        k(    2) = (   0.0000000   0.0000000   0.1653510), wk =   0.1666667
        k(    3) = (   0.0000000   0.0000000  -0.3307021), wk =   0.0833333
        k(    4) = (   0.0000000   0.3075680   0.0000000), wk =   0.1666667
        k(    5) = (   0.0000000   0.3075680   0.1653510), wk =   0.3333333
        k(    6) = (   0.0000000   0.3075680  -0.3307021), wk =   0.1666667
        k(    7) = (  -0.5000000   0.0000000   0.0000000), wk =   0.0833333
        k(    8) = (  -0.5000000   0.0000000   0.1653510), wk =   0.1666667
        k(    9) = (  -0.5000000   0.0000000  -0.3307021), wk =   0.0833333
        k(   10) = (  -0.5000000   0.3075680   0.0000000), wk =   0.1666667
        k(   11) = (  -0.5000000   0.3075680   0.1653510), wk =   0.3333333
        k(   12) = (  -0.5000000   0.3075680  -0.3307021), wk =   0.1666667

     Largest allocated arrays     est. size (Mb)     dimensions
     Largest temporary arrays     est. size (Mb)     dimensions

     Initial potential from superposition of free atoms

     Starting from uniform charge
     Starting wfc are    0 randomized atomic wfcs

     Self-consistent Calculation

     iteration #  1     ecut=    40.00 Ry     beta=0.70
     CG style diagonalization
     ethr =  1.00E-02,  avg # of iterations = 19.1

     total energy              =   -3115.68545423 Ry
     Harris-Foulkes estimate   =   -3837.82102757 Ry
     estimated scf accuracy    <     909.36298423 Ry

     iteration #  2     ecut=    40.00 Ry     beta=0.70
     CG style diagonalization
     c_bands:  1 eigenvalues not converged
     c_bands:  1 eigenvalues not converged
     ethr =  1.00E-02,  avg # of iterations =  8.0

[...]

     End of self-consistent calculation

          k = 0.0000 0.0000 0.0000 (  4785 PWs)   bands (ev):

   -29.8547 -29.5260 -29.1005 -29.0862 -28.9777 -28.9337 -28.9278 -28.8093
   -28.6814 -28.6544 -28.5613 -28.5436 -15.1524 -14.3391 -13.0510 -12.1205
    -3.0508  -2.8468  -2.7543  -2.7210  -2.0853  -1.8549   0.2457   0.3583
     0.5903   0.7457   1.0966   1.3488   1.5523   1.6829   1.7053   1.7175
     1.7479   1.8043   2.1223   2.1967   2.8293   3.0730   3.1877   3.1973
     3.3005   3.3473   3.5351   3.5441   3.5630   3.8722   3.9604   3.9625
     4.0700   4.0926   4.1324   5.0354  11.8306  11.8634  12.0360  12.4357
    12.6533  12.7828  15.8211  15.9653  16.2057  16.5277  16.6531  16.7611
    30.5633  31.1399  31.6915  31.7890  31.9546  32.0969  32.1242  32.2751
    33.0049  33.6702  34.1286  35.1285  35.1533  35.1536  35.6856  35.9929
    36.0892  36.1393  36.1619  36.1890  36.5221  37.0067  37.3000  37.3036
    37.6891  37.7794  38.0194  38.0358  38.1401  38.3632  38.3860  38.6818
    38.7284  39.5022  39.7463  39.8660  40.0194  40.0582  40.2898  40.6582
    40.8070  40.9978  41.4114  41.5776  41.6067  41.9384  42.4297  42.8723
    42.9806  43.1119  43.3794  43.4293  43.7076  43.8895  44.0451  44.8094
    44.8145  44.8574  45.2795  45.4423  45.5565  45.6666  45.8785  46.1597
    46.4827  46.5363  47.1087  47.9769  48.4126  48.8699  48.9627  49.4035
    49.9177  50.0272  50.5970  50.8354  50.9870  51.0188  51.8512  52.4244
    52.7660  52.9330  53.6489  54.2272  55.2820  55.3619  55.5311  55.5355
    55.7152  55.7998  55.9740  56.3872  56.4625  56.7925  56.9355  57.0928
    57.1641  57.2827  57.3215  57.7666  57.7951  57.9786  58.1418  58.1815
    58.2758  58.5826  58.8917  59.6516  59.8145  59.9522  60.1317

[...]

          k =-0.5000 0.0000 0.0000 (  4798 PWs)   bands (ev):

[...]

     the Fermi energy is    52.5974 ev

!    total energy              =   -3320.58065920 Ry
     Harris-Foulkes estimate   =   -3320.58069255 Ry
     estimated scf accuracy    <       0.00003907 Ry

     The total energy is the sum of the following terms:

     one-electron contribution =     269.18956240 Ry
     hartree contribution      =     337.40196459 Ry
     xc contribution           =    -358.16147025 Ry
     ewald contribution        =   -3568.60775872 Ry
     smearing contrib. (-TS)   =      -0.40295722 Ry

     convergence has been achieved in   9 iterations

     Forces acting on atoms (Ry/au):

     atom    1 type  1   force =     1.02520891   -1.11057897   -1.42010720
     atom    2 type  1   force =    -1.02520891   -1.11057897    1.42010720
     atom    3 type  1   force =     1.02520891    1.11057897   -1.42010720
     atom    4 type  1   force =    -1.77266070   -0.66404119    0.00000000
     atom    5 type  1   force =    -1.02520891   -1.11057897   -1.42010720
     atom    6 type  1   force =     1.02520891   -1.11057897    1.42010720
     atom    7 type  1   force =     1.77266070   -0.66404119    0.00000000
     atom    8 type  1   force =    -1.02520891    1.11057897   -1.42010720
     atom    9 type  1   force =     1.02520891    1.11057897    1.42010720
     atom   10 type  1   force =     1.77266070    0.66404119    0.00000000
     atom   11 type  1   force =    -1.02520891    1.11057897    1.42010720
     atom   12 type  1   force =    -1.77266070    0.66404119    0.00000000
     atom   13 type  2   force =     0.00000000    0.00000000    0.00000000
     atom   14 type  2   force =     0.00000000    0.00000000    0.00000000
     atom   15 type  2   force =     0.00000000    0.00000000    0.00000000
     atom   16 type  2   force =     0.00000000    0.00000000    0.00000000

     Total force =     6.981565     Total SCF correction =     0.000000

     entering subroutine stress ...

          total   stress  (Ry/bohr**3)                   (kbar)     P=11814.29
   0.08064267   0.00000000   0.00000000      11862.94      0.00      0.00
   0.00000000   0.08099791   0.00000000          0.00  11915.20      0.00
   0.00000000   0.00000000   0.07929513          0.00      0.00  11664.71

     BFGS Geometry Optimization

     number of scf cycles    =   1
     number of bfgs steps    =   0

     enthalpy new            =   -3320.5806592031 Ry

     new trust radius        =       0.5000000000 bohr
     new conv_thr            =       0.0001000000 Ry

     new unit-cell volume =   1384.36664 a.u.^3 (   205.14197 Ang^3 )

CELL_PARAMETERS (alat=  8.80076499)
   1.074475796   0.000000000   0.000000000
   0.000000000   1.164841411   0.000000000
   0.000000000   0.000000000   1.622655837

ATOMIC_POSITIONS (crystal)
Fe       0.351597305   0.164334681   0.918535444
Fe       0.148402695   0.664334681   0.581464556
Fe       0.851597305   0.335665319   0.418535444
Fe       0.332223272   0.447637141   0.250000000
Fe       0.148402695   0.664334681   0.918535444
Fe       0.351597305   0.164334681   0.581464556
Fe       0.167776728   0.947637141   0.250000000
Fe       0.648402695   0.835665319   0.418535444
Fe       0.851597305   0.335665319   0.081464556
Fe       0.667776728   0.552362859   0.750000000
Fe       0.648402695   0.835665319   0.081464556
Fe       0.832223272   0.052362859   0.750000000
C        0.000000000   0.000000000   0.000000000
C        0.500000000   0.500000000   0.000000000
C        0.500000000   0.500000000   0.500000000
C        0.000000000   0.000000000   0.500000000

     Writing output data file Prototype-La-oP16-Fe3C.save
     NEW-OLD atomic charge density approx. for the potential
     NEW k-points:
        k(    1) = (   0.0000000   0.0000000   0.0000000), wk =   0.0833333
        k(    2) = (   0.0000000   0.0000000   0.1540684), wk =   0.1666667
        k(    3) = (   0.0000000   0.0000000  -0.3081368), wk =   0.0833333
        k(    4) = (   0.0000000   0.2861620   0.0000000), wk =   0.1666667
        k(    5) = (   0.0000000   0.2861620   0.1540684), wk =   0.3333333
        k(    6) = (   0.0000000   0.2861620  -0.3081368), wk =   0.1666667
        k(    7) = (  -0.4653432   0.0000000   0.0000000), wk =   0.0833333
        k(    8) = (  -0.4653432   0.0000000   0.1540684), wk =   0.1666667
        k(    9) = (  -0.4653432   0.0000000  -0.3081368), wk =   0.0833333
        k(   10) = (  -0.4653432   0.2861620   0.0000000), wk =   0.1666667
        k(   11) = (  -0.4653432   0.2861620   0.1540684), wk =   0.3333333
        k(   12) = (  -0.4653432   0.2861620  -0.3081368), wk =   0.1666667

[...]

          total   stress  (Ry/bohr**3)                   (kbar)     P= 4967.99
   0.03417554   0.00000000   0.00000000       5027.40      0.00      0.00
   0.00000000   0.03332468   0.00000000          0.00   4902.23      0.00
   0.00000000   0.00000000   0.03381497          0.00      0.00   4974.35

     The maximum number of steps has been reached.

     End of BFGS Geometry Optimization
Begin final coordinates
     new unit-cell volume =   1384.36664 a.u.^3 (   205.14197 Ang^3 )

CELL_PARAMETERS (alat=  8.80076499)
   1.074475796   0.000000000   0.000000000
   0.000000000   1.164841411   0.000000000
   0.000000000   0.000000000   1.622655837

ATOMIC_POSITIONS (crystal)
Fe       0.351597305   0.164334681   0.918535444
Fe       0.148402695   0.664334681   0.581464556
Fe       0.851597305   0.335665319   0.418535444
Fe       0.332223272   0.447637141   0.250000000
Fe       0.148402695   0.664334681   0.918535444
Fe       0.351597305   0.164334681   0.581464556
Fe       0.167776728   0.947637141   0.250000000
Fe       0.648402695   0.835665319   0.418535444
Fe       0.851597305   0.335665319   0.081464556
Fe       0.667776728   0.552362859   0.750000000
Fe       0.648402695   0.835665319   0.081464556
Fe       0.832223272   0.052362859   0.750000000
C        0.000000000   0.000000000   0.000000000
C        0.500000000   0.500000000   0.000000000
C        0.500000000   0.500000000   0.500000000
C        0.000000000   0.000000000   0.500000000
End final coordinates

     A final scf calculation at the relaxed structure.
     The G-vectors are recalculated for the final unit cell
     Results may differ from those at the preceding step.

     bravais-lattice index     =            0
     lattice parameter (alat)  =       8.8008  a.u.
     unit-cell volume          =    1384.3666 (a.u.)^3
     number of atoms/cell      =           16
     number of atomic types    =            2
     number of electrons       =       292.00
     number of Kohn-Sham states=          175
     kinetic-energy cutoff     =      40.0000  Ry
     charge density cutoff     =     160.0000  Ry
     convergence threshold     =      1.0E-04
     mixing beta               =       0.7000
     number of iterations used =            8  plain     mixing
     Exchange-correlation      = SLA-PZ-NOGX-NOGC ( 1 1 0 0 0)
     EXX-fraction              =        0.00

     celldm(1)=   8.800765  celldm(2)=   0.000000  celldm(3)=   0.000000
     celldm(4)=   0.000000  celldm(5)=   0.000000  celldm(6)=   0.000000

     crystal axes: (cart. coord. in units of alat)
               a(1) = (   1.074476   0.000000   0.000000 )
               a(2) = (   0.000000   1.164841   0.000000 )
               a(3) = (   0.000000   0.000000   1.622656 )

     reciprocal axes: (cart. coord. in units 2 pi/alat)
               b(1) = (  0.930686  0.000000  0.000000 )
               b(2) = (  0.000000  0.858486  0.000000 )
               b(3) = (  0.000000  0.000000  0.616274 )

     PseudoPot. # 1 for Tb read from file:
     /home/jld5415/pp.La/Tb.UPF
     MD5 check sum: 3d6088a3f0cf7fd2e110c43f7f8e95c2
     Pseudo is Norm-conserving, Zval = 19.0
     Generated in analytical, separable form
     Using radial grid of 1263 points,  6 beta functions with:
                l(1) =   0
                l(2) =   0
                l(3) =   1
                l(4) =   1
                l(5) =   2
                l(6) =   3

     PseudoPot. # 2 for Sm read from file:
     /home/jld5415/pp.La/Sm.UPF
     MD5 check sum: 5079e8b144a06bfcdbc14fb02b96ab09
     Pseudo is Norm-conserving, Zval = 16.0
     Generated in analytical, separable form
     Using radial grid of 1259 points,  6 beta functions with:
                l(1) =   0
                l(2) =   0
                l(3) =   1
                l(4) =   1
                l(5) =   2
                l(6) =   3

     atomic species   valence    mass     pseudopotential
        Fe            19.00    55.84500     Tb( 1.00)
        C             16.00    12.01070     Sm( 1.00)

      8 Sym. Ops., with inversion, found ( 6 have fractional translation)

   Cartesian axes

     site n.     atom                  positions (alat units)
         1           Fe  tau(   1) = (   0.3777828   0.1914238   1.4904669  )
         2           Fe  tau(   2) = (   0.1594551   0.7738445   0.9435169  )
         3           Fe  tau(   3) = (   0.9150207   0.3909969   0.6791390  )
         4           Fe  tau(   4) = (   0.3569659   0.5214263   0.4056640  )
         5           Fe  tau(   5) = (   0.1594551   0.7738445   1.4904669  )
         6           Fe  tau(   6) = (   0.3777828   0.1914238   0.9435169  )
         7           Fe  tau(   7) = (   0.1802720   1.1038470   0.4056640  )
         8           Fe  tau(   8) = (   0.6966930   0.9734176   0.6791390  )
         9           Fe  tau(   9) = (   0.9150207   0.3909969   0.1321889  )
        10           Fe  tau(  10) = (   0.7175099   0.6434151   1.2169919  )
        11           Fe  tau(  11) = (   0.6966930   0.9734176   0.1321889  )
        12           Fe  tau(  12) = (   0.8942038   0.0609944   1.2169919  )
        13           C   tau(  13) = (   0.0000000   0.0000000   0.0000000  )
        14           C   tau(  14) = (   0.5372379   0.5824207   0.0000000  )
        15           C   tau(  15) = (   0.5372379   0.5824207   0.8113279  )
        16           C   tau(  16) = (   0.0000000   0.0000000   0.8113279  )

     number of k points=    12  gaussian smearing, width (Ry)=  0.1000
                       cart. coord. in units 2pi/alat
        k(    1) = (   0.0000000   0.0000000   0.0000000), wk =   0.0833333
        k(    2) = (   0.0000000   0.0000000   0.1540684), wk =   0.1666667
        k(    3) = (   0.0000000   0.0000000  -0.3081368), wk =   0.0833333
        k(    4) = (   0.0000000   0.2861620   0.0000000), wk =   0.1666667
        k(    5) = (   0.0000000   0.2861620   0.1540684), wk =   0.3333333
        k(    6) = (   0.0000000   0.2861620  -0.3081368), wk =   0.1666667
        k(    7) = (  -0.4653432   0.0000000   0.0000000), wk =   0.0833333
        k(    8) = (  -0.4653432   0.0000000   0.1540684), wk =   0.1666667
        k(    9) = (  -0.4653432   0.0000000  -0.3081368), wk =   0.0833333
        k(   10) = (  -0.4653432   0.2861620   0.0000000), wk =   0.1666667
        k(   11) = (  -0.4653432   0.2861620   0.1540684), wk =   0.3333333
        k(   12) = (  -0.4653432   0.2861620  -0.3081368), wk =   0.1666667

     Largest allocated arrays     est. size (Mb)     dimensions
     Largest temporary arrays     est. size (Mb)     dimensions

     Initial potential from superposition of free atoms

     Starting from uniform charge
     Starting wfc are    0 randomized atomic wfcs

     Writing output data file Prototype-La-oP16-Fe3C.save

     Self-consistent Calculation

[...]

     iteration #  6     ecut=    40.00 Ry     beta=0.70
     CG style diagonalization
     ethr =  1.43E-04,  avg # of iterations =  3.7

[...]

     total energy              =   -3339.22581377 Ry
     Harris-Foulkes estimate   =   -3339.22591545 Ry
     estimated scf accuracy    <       0.00023135 Ry

     iteration # 10     ecut=    40.00 Ry     beta=0.70
     CG style diagonalization
     c_bands:  1 eigenvalues not converged
     ethr =  7.92E-08,  avg # of iterations =  3.5

     End of self-consistent calculation

[...]

          k = 0.0000 0.2862-0.3081 (  5920 PWs)   bands (ev):

[...]

          k =-0.4653 0.2862-0.3081 (  5892 PWs)   bands (ev):

   -37.6604 -37.6604 -37.6171 -37.6171 -37.5524 -37.5524 -37.4989 -37.4989
   -37.2311 -37.2311 -37.2093 -37.2093 -20.6233 -20.6233 -20.6212 -20.6212
    -8.5813  -8.5813  -8.5753  -8.5753  -7.7495  -7.7495  -7.6384  -7.6384
    -7.0201  -7.0201  -6.9855  -6.9855  -6.6264  -6.6264  -6.5419  -6.5419
    -6.3138  -6.3138  -6.1957  -6.1957  -5.8525  -5.8525  -5.7690  -5.7690
    -5.4376  -5.4376  -5.4022  -5.4022  -5.3775  -5.3775  -5.2371  -5.2371
    -5.1590  -5.1590  -5.0746  -5.0746   4.2938   4.2938   4.2954   4.2954
     5.0956   5.0956   5.1195   5.1195   5.8757   5.8757   5.8792   5.8792
    24.9384  24.9384  24.9758  24.9758  25.7111  25.7111  26.1515  26.1515
    26.3742  26.3742  26.6928  26.6928  27.5769  27.5769  27.8105  27.8105
    28.2903  28.2903  29.0280  29.0280  29.1023  29.1023  29.6098  29.6098
    29.8349  29.8349  30.1775  30.1775  30.2831  30.2831  30.6815  30.6815
    30.7350  30.7350  30.9636  30.9636  31.5820  31.5820  31.6835  31.6835
    32.2646  32.2646  32.5121  32.5121  32.9289  32.9289  32.9843  32.9843
    33.3725  33.3725  33.6581  33.6581  33.6947  33.6947  34.1306  34.1306
    34.8048  34.8048  34.8118  34.8118  35.4470  35.4470  35.6487  35.6487
    37.8075  37.8075  37.9663  37.9663  38.1415  38.1415  38.4456  38.4456
    39.4073  39.4073  39.4191  39.4191  40.1421  40.1421  40.4603  40.4603
    41.5349  41.5349  41.5638  41.5638  42.0503  42.0503  42.8062  42.8062
    43.1451  43.1451  44.0626  44.0627  46.2437  46.2437  46.6402  46.6403
    46.8983  46.8984  47.4835  47.4836  47.5713  47.5714  48.2859  48.2860
    48.7260  48.7261  48.8481  48.8481  49.9156  49.9157  50.1009

     the Fermi energy is    41.5129 ev

!    total energy              =   -3339.22580091 Ry
     Harris-Foulkes estimate   =   -3339.22585551 Ry
     estimated scf accuracy    <       0.00006138 Ry

     The total energy is the sum of the following terms:

     one-electron contribution =     -49.35495740 Ry
     hartree contribution      =     396.95310521 Ry
     xc contribution           =    -347.75614902 Ry
     ewald contribution        =   -3338.55507349 Ry
     smearing contrib. (-TS)   =      -0.51272621 Ry

     convergence has been achieved in  10 iterations

     Forces acting on atoms (Ry/au):

     atom    1 type  1   force =     0.58754082   -0.62542097   -0.77623992
     atom    2 type  1   force =    -0.58754082   -0.62542097    0.77623992
     atom    3 type  1   force =     0.58754082    0.62542097   -0.77623992
     atom    4 type  1   force =    -1.01194464   -0.38375922    0.00000000
     atom    5 type  1   force =    -0.58754082   -0.62542097   -0.77623992
     atom    6 type  1   force =     0.58754082   -0.62542097    0.77623992
     atom    7 type  1   force =     1.01194464   -0.38375922    0.00000000
     atom    8 type  1   force =    -0.58754082    0.62542097   -0.77623992
     atom    9 type  1   force =     0.58754082    0.62542097    0.77623992
     atom   10 type  1   force =     1.01194464    0.38375922    0.00000000
     atom   11 type  1   force =    -0.58754082    0.62542097    0.77623992
     atom   12 type  1   force =    -1.01194464    0.38375922    0.00000000
     atom   13 type  2   force =     0.00000000    0.00000000    0.00000000
     atom   14 type  2   force =     0.00000000    0.00000000    0.00000000
     atom   15 type  2   force =     0.00000000    0.00000000    0.00000000
     atom   16 type  2   force =     0.00000000    0.00000000    0.00000000

     Total force =     3.923830     Total SCF correction =     0.000000

     entering subroutine stress ...

          total   stress  (Ry/bohr**3)                   (kbar)     P= 5401.24
   0.03707285   0.00000000   0.00000000       5453.60      0.00      0.00
   0.00000000   0.03626618   0.00000000          0.00   5334.94      0.00
   0.00000000   0.00000000   0.03681158          0.00      0.00   5415.17

     Writing output data file Prototype-La-oP16-Fe3C.save

     General routines

     Parallel routines

   This run was terminated on:  18: 6:36  22Mar2018

   JOB DONE.