     Program PWSCF v.5.0.2 starts on 23Mar2018 at  2:16:50

     Current dimensions of program PWSCF are:
     Max number of different atomic species (ntypx) = 10
     Max number of k-points (npk) =  40000
     Max angular momentum in pseudopotentials (lmaxx) =  3
     Waiting for input...
     Reading input from standard input

     Subspace diagonalization in iterative solution of the eigenvalue problem:
     a serial algorithm will be used

     bravais-lattice index     =            0
     lattice parameter (alat)  =       7.0151  a.u.
     unit-cell volume          =     862.2778 (a.u.)^3
     number of atoms/cell      =           12
     number of atomic types    =            2
     number of electrons       =       228.00
     number of Kohn-Sham states=          137
     kinetic-energy cutoff     =      40.0000  Ry
     charge density cutoff     =     160.0000  Ry
     convergence threshold     =      1.0E-04
     mixing beta               =       0.7000
     number of iterations used =            8  plain     mixing
     Exchange-correlation      = SLA-PZ-NOGX-NOGC ( 1 1 0 0 0)
     EXX-fraction              =        0.00
     nstep                     =           50

     celldm(1)=   7.015105  celldm(2)=   0.000000  celldm(3)=   0.000000
     celldm(4)=   0.000000  celldm(5)=   0.000000  celldm(6)=   0.000000

     crystal axes: (cart. coord. in units of alat)
               a(1) = (   1.000000   0.000000   0.000000 )
               a(2) = (   0.000000   1.315963   0.000000 )
               a(3) = (   0.000000   0.000000   1.898020 )

     reciprocal axes: (cart. coord. in units 2 pi/alat)
               b(1) = (  1.000000  0.000000  0.000000 )
               b(2) = (  0.000000  0.759900  0.000000 )
               b(3) = (  0.000000  0.000000  0.526865 )

     PseudoPot. # 1 for Dy read from file:
     /home/cwx6513/pp.La/Dy.UPF
     MD5 check sum: 9597327bec62616a94a14d07f3fd9936
     Pseudo is Norm-conserving, Zval = 20.0
     Generated in analytical, separable form
     Using radial grid of 1265 points,  6 beta functions with:
                l(1) =   0
                l(2) =   0
                l(3) =   1
                l(4) =   1
                l(5) =   2
                l(6) =   3

     PseudoPot. # 2 for Eu read from file:
     /home/cwx6513/pp.La/Eu.UPF
     MD5 check sum: 5efdbbfc50c6a10138933a6429836ad2
     Pseudo is Norm-conserving, Zval = 17.0
     Generated in analytical, separable form
     Using radial grid of 1261 points,  6 beta functions with:
                l(1) =   0
                l(2) =   0
                l(3) =   1
                l(4) =   1
                l(5) =   2
                l(6) =   3

     atomic species   valence    mass     pseudopotential
        Co            20.00    58.93320     Dy( 1.00)
        Si            17.00    28.08550     Eu( 1.00)

      8 Sym. Ops., with inversion, found ( 6 have fractional translation)

   Cartesian axes

     site n.     atom                  positions (alat units)
         1           Co  tau(   1) = (   0.7500000   1.0875135   0.8270358  )
         2           Co  tau(   2) = (   0.2500000   0.2284499   1.0709846  )
         3           Co  tau(   3) = (   0.7500000   0.4295318   0.1219744  )
         4           Co  tau(   4) = (   0.2500000   0.8864316   1.7760460  )
         5           Co  tau(   5) = (   0.2500000   0.7067855   0.5358966  )
         6           Co  tau(   6) = (   0.7500000   0.6091779   1.3621238  )
         7           Co  tau(   7) = (   0.2500000   0.0488038   0.4131136  )
         8           Co  tau(   8) = (   0.7500000   1.2671596   1.4849068  )
         9           Si  tau(   9) = (   0.2500000   0.2669484   1.6960710  )
        10           Si  tau(  10) = (   0.7500000   1.0490149   0.2019494  )
        11           Si  tau(  11) = (   0.2500000   0.9249301   1.1509596  )
        12           Si  tau(  12) = (   0.7500000   0.3910333   0.7470608  )

     number of k points=    12  gaussian smearing, width (Ry)=  0.1000
                       cart. coord. in units 2pi/alat
        k(    1) = (   0.0000000   0.0000000   0.0000000), wk =   0.0833333
        k(    2) = (   0.0000000   0.0000000   0.1317162), wk =   0.1666667
        k(    3) = (   0.0000000   0.0000000  -0.2634324), wk =   0.0833333
        k(    4) = (   0.0000000   0.2532999   0.0000000), wk =   0.1666667
        k(    5) = (   0.0000000   0.2532999   0.1317162), wk =   0.3333333
        k(    6) = (   0.0000000   0.2532999  -0.2634324), wk =   0.1666667
        k(    7) = (  -0.5000000   0.0000000   0.0000000), wk =   0.0833333
        k(    8) = (  -0.5000000   0.0000000   0.1317162), wk =   0.1666667
        k(    9) = (  -0.5000000   0.0000000  -0.2634324), wk =   0.0833333
        k(   10) = (  -0.5000000   0.2532999   0.0000000), wk =   0.1666667
        k(   11) = (  -0.5000000   0.2532999   0.1317162), wk =   0.3333333
        k(   12) = (  -0.5000000   0.2532999  -0.2634324), wk =   0.1666667

     Largest allocated arrays     est. size (Mb)     dimensions
     Largest temporary arrays     est. size (Mb)     dimensions

     Initial potential from superposition of free atoms

     Starting from uniform charge
     Starting wfc are    0 randomized atomic wfcs

     Self-consistent Calculation

     iteration #  1     ecut=    40.00 Ry     beta=0.70
     CG style diagonalization
     c_bands:  3 eigenvalues not converged
     c_bands:  4 eigenvalues not converged
     c_bands:  2 eigenvalues not converged
     c_bands:  3 eigenvalues not converged
     c_bands:  5 eigenvalues not converged
     c_bands:  2 eigenvalues not converged
     c_bands:  2 eigenvalues not converged
     c_bands:  1 eigenvalues not converged
     ethr =  1.00E-02,  avg # of iterations = 12.2

     total energy              =   -2538.27651727 Ry
     Harris-Foulkes estimate   =   -3054.99077325 Ry
     estimated scf accuracy    <     669.79070726 Ry

     iteration #  2     ecut=    40.00 Ry     beta=0.70
     CG style diagonalization
     ethr =  1.00E-02,  avg # of iterations =  9.6

[...]

     End of self-consistent calculation

          k = 0.0000 0.0000 0.0000 (  3675 PWs)   bands (ev):

   -35.0857 -34.9184 -34.8487 -34.7775 -34.7407 -34.6658 -34.6573 -34.6382
   -14.2169 -14.2149 -14.1407 -14.1072  -3.3652  -3.2551  -3.0946  -2.9912
    -2.9275  -2.7175  -2.6043  -2.5008  -2.4664  -2.4619  -2.2212  -2.1662
    -2.0943  -2.0685  -2.0600  -2.0539  -1.8748  -1.8209  -1.7746  -1.7162
    -1.6343  -1.5363  -1.3661  -1.2607  11.8266  11.9968  12.0369  12.0792
    12.1160  12.2563  12.2971  12.3639  12.4367  12.5462  12.6926  12.8390
    32.0925  32.3643  32.5983  32.8563  32.8695  32.8872  33.1292  33.5738
    33.6855  34.3154  34.5766  35.0797  35.2896  35.4126  35.6643  35.7736
    36.1952  36.3072  36.5158  37.0935  37.2902  37.5893  37.6375  37.9555
    38.0590  38.1387  38.3116  38.6353  38.9449  39.2125  39.2769  39.3215
    39.3837  39.8061  39.9920  40.0089  40.7302  41.0136  41.2255  41.9462
    42.1816  42.7898  42.8230  43.0916  43.9973  44.4098  44.6686  45.1396
    45.2026  45.5288  46.0198  46.4104  47.0138  47.4007  47.4956  47.5996
    48.6163  48.7033  49.0644  49.1692  49.2094  49.9134  49.9428  50.2985
    50.7209  53.4277  53.5561  54.4028  54.5830  54.8476  55.5529  55.6886
    56.3128  57.0244  57.3301  57.4553  57.5930  58.2761  58.4413  58.5672
    58.7807  58.8553  59.1628  59.3040  59.4767  59.7722  59.9525  60.3726
    60.9299

[...]

          k =-0.5000 0.0000 0.0000 (  3722 PWs)   bands (ev):

[...]

     the Fermi energy is    52.1879 ev

!    total energy              =   -2771.27677253 Ry
     Harris-Foulkes estimate   =   -2771.27679382 Ry
     estimated scf accuracy    <       0.00002380 Ry

     The total energy is the sum of the following terms:

     one-electron contribution =     318.88215718 Ry
     hartree contribution      =     204.01743666 Ry
     xc contribution           =    -280.56078909 Ry
     ewald contribution        =   -3013.45320662 Ry
     smearing contrib. (-TS)   =      -0.16237067 Ry

     convergence has been achieved in  10 iterations

     Forces acting on atoms (Ry/au):

     atom    1 type  1   force =     0.00000000   -0.06010391   -0.05380990
     atom    2 type  1   force =     0.00000000    0.06010391    0.05380990
     atom    3 type  1   force =     0.00000000   -0.06010391    0.05380990
     atom    4 type  1   force =     0.00000000    0.06010391   -0.05380990
     atom    5 type  1   force =     0.00000000    0.15744902   -0.23133956
     atom    6 type  1   force =     0.00000000   -0.15744902    0.23133956
     atom    7 type  1   force =     0.00000000    0.15744902    0.23133956
     atom    8 type  1   force =     0.00000000   -0.15744902   -0.23133956
     atom    9 type  2   force =     0.00000000   -0.20583141    0.04231663
     atom   10 type  2   force =     0.00000000    0.20583141   -0.04231663
     atom   11 type  2   force =     0.00000000   -0.20583141   -0.04231663
     atom   12 type  2   force =     0.00000000    0.20583141    0.04231663

     Total force =     0.718257     Total SCF correction =     0.000000

     entering subroutine stress ...

          total   stress  (Ry/bohr**3)                   (kbar)     P= 7204.04
   0.05324677   0.00000000   0.00000000       7832.87      0.00      0.00
   0.00000000   0.04533436   0.00000000          0.00   6668.91      0.00
   0.00000000   0.00000000   0.04833501          0.00      0.00   7110.32

     BFGS Geometry Optimization

     number of scf cycles    =   1
     number of bfgs steps    =   0

     enthalpy new            =   -2771.2767725312 Ry

     new trust radius        =       0.5000000000 bohr
     new conv_thr            =       0.0001000000 Ry

     new unit-cell volume =   1081.06776 a.u.^3 (   160.19771 Ang^3 )

CELL_PARAMETERS (alat=  7.01510508)
   1.085136619   0.000000000   0.000000000
   0.000000000   1.411351535   0.000000000
   0.000000000   0.000000000   2.044705450

ATOMIC_POSITIONS (crystal)
Co       0.750000000   0.825984603   0.435477530
Co       0.250000000   0.174015397   0.564522470
Co       0.750000000   0.325984603   0.064522470
Co       0.250000000   0.674015397   0.935477530
Co       0.250000000   0.538176800   0.281233785
Co       0.750000000   0.461823200   0.718766215
Co       0.250000000   0.038176800   0.218766215
Co       0.750000000   0.961823200   0.781233785
Si       0.250000000   0.201428009   0.893803263
Si       0.750000000   0.798571991   0.106196737
Si       0.250000000   0.701428009   0.606196737
Si       0.750000000   0.298571991   0.393803263

     Writing output data file Prototype-La-oP12-Co2Si.save
     NEW-OLD atomic charge density approx. for the potential
     NEW k-points:
        k(    1) = (   0.0000000   0.0000000   0.0000000), wk =   0.0833333
        k(    2) = (   0.0000000   0.0000000   0.1222670), wk =   0.1666667
        k(    3) = (   0.0000000   0.0000000  -0.2445340), wk =   0.0833333
        k(    4) = (   0.0000000   0.2361802   0.0000000), wk =   0.1666667
        k(    5) = (   0.0000000   0.2361802   0.1222670), wk =   0.3333333
        k(    6) = (   0.0000000   0.2361802  -0.2445340), wk =   0.1666667
        k(    7) = (  -0.4607715   0.0000000   0.0000000), wk =   0.0833333
        k(    8) = (  -0.4607715   0.0000000   0.1222670), wk =   0.1666667
        k(    9) = (  -0.4607715   0.0000000  -0.2445340), wk =   0.0833333
        k(   10) = (  -0.4607715   0.2361802   0.0000000), wk =   0.1666667
        k(   11) = (  -0.4607715   0.2361802   0.1222670), wk =   0.3333333
        k(   12) = (  -0.4607715   0.2361802  -0.2445340), wk =   0.1666667

[...]

     enthalpy old            =   -2771.2767725312 Ry
     enthalpy new            =   -2777.7440758754 Ry

     CASE: enthalpy_new < enthalpy_old

     small trust_radius: resetting bfgs history

     new trust radius        =       2.6448452317 bohr
     new conv_thr            =       0.0001000000 Ry

[...]

          total   stress  (Ry/bohr**3)                   (kbar)     P=-2008.32
  -0.01499978   0.00000000   0.00000000      -2206.54      0.00      0.00
   0.00000000  -0.01253410   0.00000000          0.00  -1843.83      0.00
   0.00000000   0.00000000  -0.01342302          0.00      0.00  -1974.59

     number of scf cycles    =   3
     number of bfgs steps    =   2

     enthalpy old            =   -2777.7440758754 Ry
     enthalpy new            =   -2764.0332881560 Ry

     CASE: enthalpy_new > enthalpy_old

     new trust radius        =       0.8456397292 bohr

     trust_radius < trust_radius_min

     resetting bfgs history

     Message from routine bfgs:
     history already reset at previous step: stopping
     new conv_thr            =       0.0001000000 Ry

     new unit-cell volume =   1279.42131 a.u.^3 (   189.59068 Ang^3 )

[...]

ATOMIC_POSITIONS (crystal)
Co       0.750000000   0.825413200   0.435284474
Co       0.250000000   0.174586800   0.564715526
Co       0.750000000   0.325413200   0.064715526
Co       0.250000000   0.674586800   0.935284474
Co       0.250000000   0.539328414   0.280091116
Co       0.750000000   0.460671586   0.719908884
Co       0.250000000   0.039328414   0.219908884
Co       0.750000000   0.960671586   0.780091116
Si       0.250000000   0.199873730   0.894023372
Si       0.750000000   0.800126270   0.105976628
Si       0.250000000   0.699873730   0.605976628
Si       0.750000000   0.300126270   0.394023372

     Writing output data file Prototype-La-oP12-Co2Si.save
     NEW-OLD atomic charge density approx. for the potential
     NEW k-points:
        k(    1) = (   0.0000000   0.0000000   0.0000000), wk =   0.0833333
        k(    2) = (   0.0000000   0.0000000   0.1156807), wk =   0.1666667
        k(    3) = (   0.0000000   0.0000000  -0.2313613), wk =   0.0833333
        k(    4) = (   0.0000000   0.2250286   0.0000000), wk =   0.1666667
        k(    5) = (   0.0000000   0.2250286   0.1156807), wk =   0.3333333
        k(    6) = (   0.0000000   0.2250286  -0.2313613), wk =   0.1666667
        k(    7) = (  -0.4318962   0.0000000   0.0000000), wk =   0.0833333
        k(    8) = (  -0.4318962   0.0000000   0.1156807), wk =   0.1666667
        k(    9) = (  -0.4318962   0.0000000  -0.2313613), wk =   0.0833333
        k(   10) = (  -0.4318962   0.2250286   0.0000000), wk =   0.1666667
        k(   11) = (  -0.4318962   0.2250286   0.1156807), wk =   0.3333333
        k(   12) = (  -0.4318962   0.2250286  -0.2313613), wk =   0.1666667

[...]

     The maximum number of steps has been reached.

     End of BFGS Geometry Optimization
Begin final coordinates
     new unit-cell volume =   1279.42131 a.u.^3 (   189.59068 Ang^3 )

CELL_PARAMETERS (alat=  7.01510508)
   1.157685677   0.000000000   0.000000000
   0.000000000   1.481293457   0.000000000
   0.000000000   0.000000000   2.161121944

ATOMIC_POSITIONS (crystal)
Co       0.750000000   0.825413200   0.435284474
Co       0.250000000   0.174586800   0.564715526
Co       0.750000000   0.325413200   0.064715526
Co       0.250000000   0.674586800   0.935284474
Co       0.250000000   0.539328414   0.280091116
Co       0.750000000   0.460671586   0.719908884
Co       0.250000000   0.039328414   0.219908884
Co       0.750000000   0.960671586   0.780091116
Si       0.250000000   0.199873730   0.894023372
Si       0.750000000   0.800126270   0.105976628
Si       0.250000000   0.699873730   0.605976628
Si       0.750000000   0.300126270   0.394023372
End final coordinates

     A final scf calculation at the relaxed structure.
     The G-vectors are recalculated for the final unit cell
     Results may differ from those at the preceding step.

     bravais-lattice index     =            0
     lattice parameter (alat)  =       7.0151  a.u.
     unit-cell volume          =    1279.4213 (a.u.)^3
     number of atoms/cell      =           12
     number of atomic types    =            2
     number of electrons       =       228.00
     number of Kohn-Sham states=          137
     kinetic-energy cutoff     =      40.0000  Ry
     charge density cutoff     =     160.0000  Ry
     convergence threshold     =      1.0E-04
     mixing beta               =       0.7000
     number of iterations used =            8  plain     mixing
     Exchange-correlation      = SLA-PZ-NOGX-NOGC ( 1 1 0 0 0)
     EXX-fraction              =        0.00

     celldm(1)=   7.015105  celldm(2)=   0.000000  celldm(3)=   0.000000
     celldm(4)=   0.000000  celldm(5)=   0.000000  celldm(6)=   0.000000

     crystal axes: (cart. coord. in units of alat)
               a(1) = (   1.157686   0.000000   0.000000 )
               a(2) = (   0.000000   1.481293   0.000000 )
               a(3) = (   0.000000   0.000000   2.161122 )

     reciprocal axes: (cart. coord. in units 2 pi/alat)
               b(1) = (  0.863792  0.000000  0.000000 )
               b(2) = (  0.000000  0.675086  0.000000 )
               b(3) = (  0.000000  0.000000  0.462723 )

     PseudoPot. # 1 for Dy read from file:
     /home/cwx6513/pp.La/Dy.UPF
     MD5 check sum: 9597327bec62616a94a14d07f3fd9936
     Pseudo is Norm-conserving, Zval = 20.0
     Generated in analytical, separable form
     Using radial grid of 1265 points,  6 beta functions with:
                l(1) =   0
                l(2) =   0
                l(3) =   1
                l(4) =   1
                l(5) =   2
                l(6) =   3

     PseudoPot. # 2 for Eu read from file:
     /home/cwx6513/pp.La/Eu.UPF
     MD5 check sum: 5efdbbfc50c6a10138933a6429836ad2
     Pseudo is Norm-conserving, Zval = 17.0
     Generated in analytical, separable form
     Using radial grid of 1261 points,  6 beta functions with:
                l(1) =   0
                l(2) =   0
                l(3) =   1
                l(4) =   1
                l(5) =   2
                l(6) =   3

     atomic species   valence    mass     pseudopotential
        Co            20.00    58.93320     Dy( 1.00)
        Si            17.00    28.08550     Eu( 1.00)

      8 Sym. Ops., with inversion, found ( 6 have fractional translation)

   Cartesian axes

     site n.     atom                  positions (alat units)
         1           Co  tau(   1) = (   0.8682643   1.2226792   0.9407028  )
         2           Co  tau(   2) = (   0.2894214   0.2586143   1.2204191  )
         3           Co  tau(   3) = (   0.8682643   0.4820324   0.1398581  )
         4           Co  tau(   4) = (   0.2894214   0.9992610   2.0212638  )
         5           Co  tau(   5) = (   0.2894214   0.7989037   0.6053111  )
         6           Co  tau(   6) = (   0.8682643   0.6823898   1.5558109  )
         7           Co  tau(   7) = (   0.2894214   0.0582569   0.4752499  )
         8           Co  tau(   8) = (   0.8682643   1.4230365   1.6858720  )
         9           Si  tau(   9) = (   0.2894214   0.2960716   1.9320935  )
        10           Si  tau(  10) = (   0.8682643   1.1852218   0.2290284  )
        11           Si  tau(  11) = (   0.2894214   1.0367184   1.3095894  )
        12           Si  tau(  12) = (   0.8682643   0.4445751   0.8515326  )

     number of k points=    12  gaussian smearing, width (Ry)=  0.1000
                       cart. coord. in units 2pi/alat
        k(    1) = (   0.0000000   0.0000000   0.0000000), wk =   0.0833333
        k(    2) = (   0.0000000   0.0000000   0.1156807), wk =   0.1666667
        k(    3) = (   0.0000000   0.0000000  -0.2313613), wk =   0.0833333
        k(    4) = (   0.0000000   0.2250286   0.0000000), wk =   0.1666667
        k(    5) = (   0.0000000   0.2250286   0.1156807), wk =   0.3333333
        k(    6) = (   0.0000000   0.2250286  -0.2313613), wk =   0.1666667
        k(    7) = (  -0.4318962   0.0000000   0.0000000), wk =   0.0833333
        k(    8) = (  -0.4318962   0.0000000   0.1156807), wk =   0.1666667
        k(    9) = (  -0.4318962   0.0000000  -0.2313613), wk =   0.0833333
        k(   10) = (  -0.4318962   0.2250286   0.0000000), wk =   0.1666667
        k(   11) = (  -0.4318962   0.2250286   0.1156807), wk =   0.3333333
        k(   12) = (  -0.4318962   0.2250286  -0.2313613), wk =   0.1666667

     Largest allocated arrays     est. size (Mb)     dimensions
     Largest temporary arrays     est. size (Mb)     dimensions

     Initial potential from superposition of free atoms

     Starting from uniform charge
     Starting wfc are    0 randomized atomic wfcs

     Writing output data file Prototype-La-oP12-Co2Si.save

     Self-consistent Calculation

[...]

     iteration #  5     ecut=    40.00 Ry     beta=0.70
     CG style diagonalization
     ethr =  5.37E-03,  avg # of iterations =  3.6

[...]

     total energy              =   -2783.02828649 Ry
     Harris-Foulkes estimate   =   -2783.02845078 Ry
     estimated scf accuracy    <       0.00033012 Ry

     iteration # 10     ecut=    40.00 Ry     beta=0.70
     CG style diagonalization
     c_bands:  1 eigenvalues not converged
     ethr =  1.45E-07,  avg # of iterations =  3.9

     End of self-consistent calculation

[...]

          k = 0.0000 0.2250-0.2314 (  5460 PWs)   bands (ev):

[...]

          k =-0.4319 0.2250-0.2314 (  5492 PWs)   bands (ev):

   -50.7331 -50.7331 -50.7097 -50.7097 -50.5945 -50.5945 -50.5898 -50.5898
   -30.1639 -30.1639 -30.1606 -30.1606 -17.9830 -17.9830 -17.8445 -17.8445
   -17.8181 -17.8181 -17.7642 -17.7642 -17.7534 -17.7534 -17.6717 -17.6717
   -17.5926 -17.5926 -17.5849 -17.5849 -17.5694 -17.5694 -17.5435 -17.5435
   -17.5071 -17.5071 -17.4968 -17.4968  -3.3008  -3.3008  -3.2753  -3.2753
    -3.2307  -3.2307  -3.2288  -3.2288  -3.1166  -3.1166  -3.1071  -3.1071
    20.6586  20.6586  21.1929  21.1929  21.2724  21.2724  21.3937  21.3937
    21.6530  21.6530  21.8027  21.8027  21.8715  21.8715  22.2070  22.2070
    22.3259  22.3259  22.4511  22.4511  22.5128  22.5128  22.9792  22.9792
    23.0584  23.0584  23.2345  23.2345  23.2974  23.2974  23.5900  23.5900
    23.8171  23.8171  24.3935  24.3935  24.4145  24.4145  24.9023  24.9023
    25.4876  25.4876  25.7055  25.7055  27.5528  27.5528  28.1422  28.1422
    28.7116  28.7116  28.7535  28.7535  29.2739  29.2739  29.4811  29.4811
    29.9955  29.9955  30.3095  30.3095  30.7303  30.7303  30.8028  30.8028
    32.5948  32.5948  32.7805  32.7805  33.5708  33.5708  36.3776  36.3776
    37.4785  37.4785  38.4648  38.4648  39.5217  39.5218  40.0821  40.0821
    40.6221  40.6222  41.8419  41.8420  42.4670  42.4676  42.5768  42.5778
    42.7082

     the Fermi energy is    32.9610 ev

!    total energy              =   -2783.02839201 Ry
     Harris-Foulkes estimate   =   -2783.02841237 Ry
     estimated scf accuracy    <       0.00002581 Ry

     The total energy is the sum of the following terms:

     one-electron contribution =    -193.41798744 Ry
     hartree contribution      =     322.83683846 Ry
     xc contribution           =    -269.26226538 Ry
     ewald contribution        =   -2642.95337566 Ry
     smearing contrib. (-TS)   =      -0.23160199 Ry

     convergence has been achieved in  10 iterations

     Forces acting on atoms (Ry/au):

     atom    1 type  1   force =     0.00000000   -0.03719257   -0.00822424
     atom    2 type  1   force =     0.00000000    0.03719257    0.00822424
     atom    3 type  1   force =     0.00000000   -0.03719257    0.00822424
     atom    4 type  1   force =     0.00000000    0.03719257   -0.00822424
     atom    5 type  1   force =     0.00000000    0.05044677   -0.07745959
     atom    6 type  1   force =     0.00000000   -0.05044677    0.07745959
     atom    7 type  1   force =     0.00000000    0.05044677    0.07745959
     atom    8 type  1   force =     0.00000000   -0.05044677   -0.07745959
     atom    9 type  2   force =     0.00000000   -0.07811612    0.00942188
     atom   10 type  2   force =     0.00000000    0.07811612   -0.00942188
     atom   11 type  2   force =     0.00000000   -0.07811612   -0.00942188
     atom   12 type  2   force =     0.00000000    0.07811612    0.00942188

     Total force =     0.254454     Total SCF correction =     0.000000

     entering subroutine stress ...

          total   stress  (Ry/bohr**3)                   (kbar)     P=  956.36
   0.00711541   0.00000000   0.00000000       1046.71      0.00      0.00
   0.00000000   0.00593211   0.00000000          0.00    872.64      0.00
   0.00000000   0.00000000   0.00645616          0.00      0.00    949.73

     Writing output data file Prototype-La-oP12-Co2Si.save

     General routines

     Parallel routines

   This run was terminated on:   2:49:40  23Mar2018

   JOB DONE.