     Program PWSCF v.5.0.2 starts on 23Mar2018 at  2:16:49

     Current dimensions of program PWSCF are:
     Max number of different atomic species (ntypx) = 10
     Max number of k-points (npk) =  40000
     Max angular momentum in pseudopotentials (lmaxx) =  3
     Waiting for input...
     Reading input from standard input

     Subspace diagonalization in iterative solution of the eigenvalue problem:
     a serial algorithm will be used

     bravais-lattice index     =            0
     lattice parameter (alat)  =       8.5346  a.u.
     unit-cell volume          =     621.6493 (a.u.)^3
     number of atoms/cell      =            8
     number of atomic types    =            2
     number of electrons       =       154.00
     number of Kohn-Sham states=           92
     kinetic-energy cutoff     =      40.0000  Ry
     charge density cutoff     =     160.0000  Ry
     convergence threshold     =      1.0E-04
     mixing beta               =       0.7000
     number of iterations used =            8  plain     mixing
     Exchange-correlation      = SLA-PZ-NOGX-NOGC ( 1 1 0 0 0)
     EXX-fraction              =        0.00
     nstep                     =           50

     celldm(1)=   8.534573  celldm(2)=   0.000000  celldm(3)=   0.000000
     celldm(4)=   0.000000  celldm(5)=   0.000000  celldm(6)=   0.000000

     crystal axes: (cart. coord. in units of alat)
               a(1) = (   1.000000   0.000000   0.000000 )
               a(2) = (   0.000000   1.000000   0.000000 )
               a(3) = (   0.000000   0.000000   1.000000 )

     reciprocal axes: (cart. coord. in units 2 pi/alat)
               b(1) = (  1.000000  0.000000  0.000000 )
               b(2) = (  0.000000  1.000000  0.000000 )
               b(3) = (  0.000000  0.000000  1.000000 )

     PseudoPot. # 1 for Dy read from file:
     /home/cwx6513/pp.La/Dy.UPF
     MD5 check sum: 9597327bec62616a94a14d07f3fd9936
     Pseudo is Norm-conserving, Zval = 20.0
     Generated in analytical, separable form
     Using radial grid of 1265 points,  6 beta functions with:
                l(1) =   0
                l(2) =   0
                l(3) =   1
                l(4) =   1
                l(5) =   2
                l(6) =   3

     PseudoPot. # 2 for Eu read from file:
     /home/cwx6513/pp.La/Eu.UPF
     MD5 check sum: 5efdbbfc50c6a10138933a6429836ad2
     Pseudo is Norm-conserving, Zval = 17.0
     Generated in analytical, separable form
     Using radial grid of 1261 points,  6 beta functions with:
                l(1) =   0
                l(2) =   0
                l(3) =   1
                l(4) =   1
                l(5) =   2
                l(6) =   3

     atomic species   valence    mass     pseudopotential
        Cr            20.00    51.99610     Dy( 1.00)
        Si            17.00    28.08550     Eu( 1.00)

     48 Sym. Ops., with inversion, found (24 have fractional translation)

   Cartesian axes

     site n.     atom                  positions (alat units)
         1           Cr  tau(   1) = (   0.0000000   0.5000000   0.2500000  )
         2           Cr  tau(   2) = (   0.0000000   0.5000000   0.7500000  )
         3           Cr  tau(   3) = (   0.5000000   0.7500000   0.0000000  )
         4           Cr  tau(   4) = (   0.5000000   0.2500000   0.0000000  )
         5           Cr  tau(   5) = (   0.7500000   0.0000000   0.5000000  )
         6           Cr  tau(   6) = (   0.2500000   0.0000000   0.5000000  )
         7           Si  tau(   7) = (   0.5000000   0.5000000   0.5000000  )
         8           Si  tau(   8) = (   0.0000000   0.0000000   0.0000000  )

     number of k points=    48  gaussian smearing, width (Ry)=  0.1000
                       cart. coord. in units 2pi/alat
        k(    1) = (   0.0000000   0.0000000   0.0000000), wk =   0.0095238
        k(    2) = (   0.0000000   0.0000000   0.1428571), wk =   0.0190476
        k(    3) = (   0.0000000   0.0000000   0.2857143), wk =   0.0190476
        k(    4) = (   0.0000000   0.0000000   0.4285714), wk =   0.0190476
        k(    5) = (   0.0000000   0.1666667   0.0000000), wk =   0.0190476
        k(    6) = (   0.0000000   0.1666667   0.1428571), wk =   0.0380952
        k(    7) = (   0.0000000   0.1666667   0.2857143), wk =   0.0380952
        k(    8) = (   0.0000000   0.1666667   0.4285714), wk =   0.0380952
        k(    9) = (   0.0000000   0.3333333   0.0000000), wk =   0.0190476
        k(   10) = (   0.0000000   0.3333333   0.1428571), wk =   0.0380952
        k(   11) = (   0.0000000   0.3333333   0.2857143), wk =   0.0380952
        k(   12) = (   0.0000000   0.3333333   0.4285714), wk =   0.0380952
        k(   13) = (   0.0000000  -0.5000000   0.0000000), wk =   0.0095238
        k(   14) = (   0.0000000  -0.5000000   0.1428571), wk =   0.0190476
        k(   15) = (   0.0000000  -0.5000000   0.2857143), wk =   0.0190476
        k(   16) = (   0.0000000  -0.5000000   0.4285714), wk =   0.0190476
        k(   17) = (   0.2000000   0.0000000   0.0000000), wk =   0.0190476
        k(   18) = (   0.2000000   0.0000000   0.1428571), wk =   0.0380952
        k(   19) = (   0.2000000   0.0000000   0.2857143), wk =   0.0380952
        k(   20) = (   0.2000000   0.0000000   0.4285714), wk =   0.0380952
        k(   21) = (   0.2000000   0.1666667   0.0000000), wk =   0.0380952
        k(   22) = (   0.2000000   0.1666667   0.1428571), wk =   0.0761905
        k(   23) = (   0.2000000   0.1666667   0.2857143), wk =   0.0761905
        k(   24) = (   0.2000000   0.1666667   0.4285714), wk =   0.0761905
        k(   25) = (   0.2000000   0.3333333   0.0000000), wk =   0.0380952
        k(   26) = (   0.2000000   0.3333333   0.1428571), wk =   0.0761905
        k(   27) = (   0.2000000   0.3333333   0.2857143), wk =   0.0761905
        k(   28) = (   0.2000000   0.3333333   0.4285714), wk =   0.0761905
        k(   29) = (   0.2000000  -0.5000000   0.0000000), wk =   0.0190476
        k(   30) = (   0.2000000  -0.5000000   0.1428571), wk =   0.0380952
        k(   31) = (   0.2000000  -0.5000000   0.2857143), wk =   0.0380952
        k(   32) = (   0.2000000  -0.5000000   0.4285714), wk =   0.0380952
        k(   33) = (   0.4000000   0.0000000   0.0000000), wk =   0.0190476
        k(   34) = (   0.4000000   0.0000000   0.1428571), wk =   0.0380952
        k(   35) = (   0.4000000   0.0000000   0.2857143), wk =   0.0380952
        k(   36) = (   0.4000000   0.0000000   0.4285714), wk =   0.0380952
        k(   37) = (   0.4000000   0.1666667   0.0000000), wk =   0.0380952
        k(   38) = (   0.4000000   0.1666667   0.1428571), wk =   0.0761905
        k(   39) = (   0.4000000   0.1666667   0.2857143), wk =   0.0761905
        k(   40) = (   0.4000000   0.1666667   0.4285714), wk =   0.0761905
        k(   41) = (   0.4000000   0.3333333   0.0000000), wk =   0.0380952
        k(   42) = (   0.4000000   0.3333333   0.1428571), wk =   0.0761905
        k(   43) = (   0.4000000   0.3333333   0.2857143), wk =   0.0761905
        k(   44) = (   0.4000000   0.3333333   0.4285714), wk =   0.0761905
        k(   45) = (   0.4000000  -0.5000000   0.0000000), wk =   0.0190476
        k(   46) = (   0.4000000  -0.5000000   0.1428571), wk =   0.0380952
        k(   47) = (   0.4000000  -0.5000000   0.2857143), wk =   0.0380952
        k(   48) = (   0.4000000  -0.5000000   0.4285714), wk =   0.0380952

     Largest allocated arrays     est. size (Mb)     dimensions
     Largest temporary arrays     est. size (Mb)     dimensions

     Initial potential from superposition of free atoms

     Starting from uniform charge
     Starting wfc are    0 randomized atomic wfcs

     Self-consistent Calculation

     iteration #  1     ecut=    40.00 Ry     beta=0.70
     CG style diagonalization
     c_bands:  5 eigenvalues not converged
     c_bands:  3 eigenvalues not converged
     c_bands:  5 eigenvalues not converged
     c_bands:  4 eigenvalues not converged
     c_bands:  5 eigenvalues not converged
     c_bands:  3 eigenvalues not converged
     c_bands:  3 eigenvalues not converged
     c_bands:  1 eigenvalues not converged
     c_bands:  5 eigenvalues not converged
     c_bands:  2 eigenvalues not converged
     c_bands:  1 eigenvalues not converged
     c_bands:  4 eigenvalues not converged
     c_bands:  2 eigenvalues not converged
     c_bands:  3 eigenvalues not converged
     c_bands:  1 eigenvalues not converged
     ethr =  1.00E-02,  avg # of iterations = 14.1

     total energy              =   -1682.45051754 Ry
     Harris-Foulkes estimate   =   -2142.81572141 Ry
     estimated scf accuracy    <     585.41895592 Ry

[...]

     iteration #  3     ecut=    40.00 Ry     beta=0.70
     CG style diagonalization
     ethr =  1.00E-02,  avg # of iterations =  7.9

[...]

     End of self-consistent calculation

          k = 0.0000 0.0000 0.0000 (  2601 PWs)   bands (ev):

   -38.5874 -38.4689 -38.4689 -37.8335 -37.8335 -37.8335 -17.0045 -16.9455
    -7.9897  -7.9897  -7.6138  -6.0536  -6.0536  -6.0536  -5.1765  -5.1765
    -5.1765  -5.1299  -5.1299  -5.1299  -4.8833  -4.8833  -4.8833  -3.8650
    -3.8650  -3.8650   9.4980   9.4980   9.4980   9.5793   9.5793   9.5793
    28.9562  28.9562  29.2456  29.7749  29.7749  29.7749  31.6427  31.8247
    32.8195  32.8195  32.8195  33.0224  33.0224  33.0224  33.1435  33.1435
    33.3809  36.6621  36.6621  36.6621  37.5444  37.5444  37.7953  37.7953
    37.7953  37.8929  37.8929  37.8929  38.0961  38.0961  38.0961  38.4713
    38.4713  41.4941  41.4941  41.4941  41.9798  41.9798  44.0296  44.0296
    44.0296  46.5802  46.5802  46.5802  51.7573  51.8325  51.8325  51.8776
    51.8776  51.8776  51.9548  52.2799  52.2799  52.2799  56.2486  56.2487
    56.2492  56.3243  56.3243  56.3244

[...]

     the Fermi energy is    48.8719 ev

!    total energy              =   -1906.40820648 Ry
     Harris-Foulkes estimate   =   -1906.40820715 Ry
     estimated scf accuracy    <       0.00000075 Ry

     The total energy is the sum of the following terms:

     one-electron contribution =     130.35610902 Ry
     hartree contribution      =     158.99873918 Ry
     xc contribution           =    -189.02949020 Ry
     ewald contribution        =   -2006.60534086 Ry
     smearing contrib. (-TS)   =      -0.12822362 Ry

     convergence has been achieved in  10 iterations

     Forces acting on atoms (Ry/au):

     atom    1 type  1   force =     0.00000000    0.00000000    0.00000000
     atom    2 type  1   force =     0.00000000    0.00000000    0.00000000
     atom    3 type  1   force =     0.00000000    0.00000000    0.00000000
     atom    4 type  1   force =     0.00000000    0.00000000    0.00000000
     atom    5 type  1   force =     0.00000000    0.00000000    0.00000000
     atom    6 type  1   force =     0.00000000    0.00000000    0.00000000
     atom    7 type  2   force =     0.00000000    0.00000000    0.00000000
     atom    8 type  2   force =     0.00000000    0.00000000    0.00000000

     Total force =     0.000000     Total SCF correction =     0.000000

     entering subroutine stress ...

          total   stress  (Ry/bohr**3)                   (kbar)     P= 5404.98
[...]

     small trust_radius: resetting bfgs history

     new trust radius        =       0.6258284559 bohr
     new conv_thr            =       0.0000010000 Ry

[...]

          total   stress  (Ry/bohr**3)                   (kbar)     P=-1191.62
  -0.00810047   0.00000000   0.00000000      -1191.62      0.00      0.00
   0.00000000  -0.00810047   0.00000000          0.00  -1191.62      0.00
   0.00000000   0.00000000  -0.00810047          0.00      0.00  -1191.62

     number of scf cycles    =   3
     number of bfgs steps    =   2

     enthalpy old            =   -1910.0120837339 Ry
     enthalpy new            =   -1908.9887290187 Ry

     CASE: enthalpy_new > enthalpy_old

     new trust radius        =       0.1761076422 bohr

     trust_radius < trust_radius_min

     resetting bfgs history

     Message from routine bfgs:
     history already reset at previous step: stopping
     new conv_thr            =       0.0000010000 Ry

     new unit-cell volume =   1050.35770 a.u.^3 (   155.64695 Ang^3 )

[...]

ATOMIC_POSITIONS (crystal)
Cr       0.000000000   0.500000000   0.250000000
Cr       0.000000000   0.500000000   0.750000000
Cr       0.500000000   0.750000000   0.000000000
Cr       0.500000000   0.250000000   0.000000000
Cr       0.750000000   0.000000000   0.500000000
Cr       0.250000000   0.000000000   0.500000000
Si       0.500000000   0.500000000   0.500000000
Si       0.000000000   0.000000000   0.000000000

     Writing output data file Prototype-La-cP8-Cr3Si.save
     NEW-OLD atomic charge density approx. for the potential
     NEW k-points:
        k(    1) = (   0.0000000   0.0000000   0.0000000), wk =   0.0095238
        k(    2) = (   0.0000000   0.0000000   0.1199420), wk =   0.0190476
        k(    3) = (   0.0000000   0.0000000   0.2398840), wk =   0.0190476
        k(    4) = (   0.0000000   0.0000000   0.3598261), wk =   0.0190476
        k(    5) = (   0.0000000   0.1399324   0.0000000), wk =   0.0190476
        k(    6) = (   0.0000000   0.1399324   0.1199420), wk =   0.0380952
        k(    7) = (   0.0000000   0.1399324   0.2398840), wk =   0.0380952
        k(    8) = (   0.0000000   0.1399324   0.3598261), wk =   0.0380952
        k(    9) = (   0.0000000   0.2798647   0.0000000), wk =   0.0190476
        k(   10) = (   0.0000000   0.2798647   0.1199420), wk =   0.0380952
        k(   11) = (   0.0000000   0.2798647   0.2398840), wk =   0.0380952
        k(   12) = (   0.0000000   0.2798647   0.3598261), wk =   0.0380952
        k(   13) = (   0.0000000  -0.4197971   0.0000000), wk =   0.0095238
        k(   14) = (   0.0000000  -0.4197971   0.1199420), wk =   0.0190476
        k(   15) = (   0.0000000  -0.4197971   0.2398840), wk =   0.0190476
        k(   16) = (   0.0000000  -0.4197971   0.3598261), wk =   0.0190476
        k(   17) = (   0.1679188   0.0000000   0.0000000), wk =   0.0190476
        k(   18) = (   0.1679188   0.0000000   0.1199420), wk =   0.0380952
        k(   19) = (   0.1679188   0.0000000   0.2398840), wk =   0.0380952
        k(   20) = (   0.1679188   0.0000000   0.3598261), wk =   0.0380952
        k(   21) = (   0.1679188   0.1399324   0.0000000), wk =   0.0380952
        k(   22) = (   0.1679188   0.1399324   0.1199420), wk =   0.0761905
        k(   23) = (   0.1679188   0.1399324   0.2398840), wk =   0.0761905
        k(   24) = (   0.1679188   0.1399324   0.3598261), wk =   0.0761905
        k(   25) = (   0.1679188   0.2798647   0.0000000), wk =   0.0380952
        k(   26) = (   0.1679188   0.2798647   0.1199420), wk =   0.0761905
        k(   27) = (   0.1679188   0.2798647   0.2398840), wk =   0.0761905
        k(   28) = (   0.1679188   0.2798647   0.3598261), wk =   0.0761905
        k(   29) = (   0.1679188  -0.4197971   0.0000000), wk =   0.0190476
        k(   30) = (   0.1679188  -0.4197971   0.1199420), wk =   0.0380952
        k(   31) = (   0.1679188  -0.4197971   0.2398840), wk =   0.0380952
        k(   32) = (   0.1679188  -0.4197971   0.3598261), wk =   0.0380952
        k(   33) = (   0.3358377   0.0000000   0.0000000), wk =   0.0190476
        k(   34) = (   0.3358377   0.0000000   0.1199420), wk =   0.0380952
        k(   35) = (   0.3358377   0.0000000   0.2398840), wk =   0.0380952
        k(   36) = (   0.3358377   0.0000000   0.3598261), wk =   0.0380952
        k(   37) = (   0.3358377   0.1399324   0.0000000), wk =   0.0380952
        k(   38) = (   0.3358377   0.1399324   0.1199420), wk =   0.0761905
        k(   39) = (   0.3358377   0.1399324   0.2398840), wk =   0.0761905
        k(   40) = (   0.3358377   0.1399324   0.3598261), wk =   0.0761905
        k(   41) = (   0.3358377   0.2798647   0.0000000), wk =   0.0380952
        k(   42) = (   0.3358377   0.2798647   0.1199420), wk =   0.0761905
        k(   43) = (   0.3358377   0.2798647   0.2398840), wk =   0.0761905
        k(   44) = (   0.3358377   0.2798647   0.3598261), wk =   0.0761905
        k(   45) = (   0.3358377  -0.4197971   0.0000000), wk =   0.0190476
        k(   46) = (   0.3358377  -0.4197971   0.1199420), wk =   0.0380952
        k(   47) = (   0.3358377  -0.4197971   0.2398840), wk =   0.0380952
        k(   48) = (   0.3358377  -0.4197971   0.3598261), wk =   0.0380952

[...]

     The maximum number of steps has been reached.

     End of BFGS Geometry Optimization
Begin final coordinates
     new unit-cell volume =   1050.35770 a.u.^3 (   155.64695 Ang^3 )

CELL_PARAMETERS (alat=  8.53457320)
   1.191051666   0.000000000   0.000000000
   0.000000000   1.191051666   0.000000000
   0.000000000   0.000000000   1.191051666

ATOMIC_POSITIONS (crystal)
Cr       0.000000000   0.500000000   0.250000000
Cr       0.000000000   0.500000000   0.750000000
Cr       0.500000000   0.750000000   0.000000000
Cr       0.500000000   0.250000000   0.000000000
Cr       0.750000000   0.000000000   0.500000000
Cr       0.250000000   0.000000000   0.500000000
Si       0.500000000   0.500000000   0.500000000
Si       0.000000000   0.000000000   0.000000000
End final coordinates

     A final scf calculation at the relaxed structure.
     The G-vectors are recalculated for the final unit cell
     Results may differ from those at the preceding step.

     bravais-lattice index     =            0
     lattice parameter (alat)  =       8.5346  a.u.
     unit-cell volume          =    1050.3577 (a.u.)^3
     number of atoms/cell      =            8
     number of atomic types    =            2
     number of electrons       =       154.00
     number of Kohn-Sham states=           92
     kinetic-energy cutoff     =      40.0000  Ry
     charge density cutoff     =     160.0000  Ry
     convergence threshold     =      1.0E-06
     mixing beta               =       0.7000
     number of iterations used =            8  plain     mixing
     Exchange-correlation      = SLA-PZ-NOGX-NOGC ( 1 1 0 0 0)
     EXX-fraction              =        0.00

     celldm(1)=   8.534573  celldm(2)=   0.000000  celldm(3)=   0.000000
     celldm(4)=   0.000000  celldm(5)=   0.000000  celldm(6)=   0.000000

     crystal axes: (cart. coord. in units of alat)
               a(1) = (   1.191052   0.000000   0.000000 )
               a(2) = (   0.000000   1.191052   0.000000 )
               a(3) = (   0.000000   0.000000   1.191052 )

     reciprocal axes: (cart. coord. in units 2 pi/alat)
               b(1) = (  0.839594  0.000000  0.000000 )
               b(2) = (  0.000000  0.839594  0.000000 )
               b(3) = (  0.000000  0.000000  0.839594 )

     PseudoPot. # 1 for Dy read from file:
     /home/cwx6513/pp.La/Dy.UPF
     MD5 check sum: 9597327bec62616a94a14d07f3fd9936
     Pseudo is Norm-conserving, Zval = 20.0
     Generated in analytical, separable form
     Using radial grid of 1265 points,  6 beta functions with:
                l(1) =   0
                l(2) =   0
                l(3) =   1
                l(4) =   1
                l(5) =   2
                l(6) =   3

     PseudoPot. # 2 for Eu read from file:
     /home/cwx6513/pp.La/Eu.UPF
     MD5 check sum: 5efdbbfc50c6a10138933a6429836ad2
     Pseudo is Norm-conserving, Zval = 17.0
     Generated in analytical, separable form
     Using radial grid of 1261 points,  6 beta functions with:
                l(1) =   0
                l(2) =   0
                l(3) =   1
                l(4) =   1
                l(5) =   2
                l(6) =   3

     atomic species   valence    mass     pseudopotential
        Cr            20.00    51.99610     Dy( 1.00)
        Si            17.00    28.08550     Eu( 1.00)

     48 Sym. Ops., with inversion, found (24 have fractional translation)

   Cartesian axes

     site n.     atom                  positions (alat units)
         1           Cr  tau(   1) = (   0.0000000   0.5955258   0.2977629  )
         2           Cr  tau(   2) = (   0.0000000   0.5955258   0.8932887  )
         3           Cr  tau(   3) = (   0.5955258   0.8932887   0.0000000  )
         4           Cr  tau(   4) = (   0.5955258   0.2977629   0.0000000  )
         5           Cr  tau(   5) = (   0.8932887   0.0000000   0.5955258  )
         6           Cr  tau(   6) = (   0.2977629   0.0000000   0.5955258  )
         7           Si  tau(   7) = (   0.5955258   0.5955258   0.5955258  )
         8           Si  tau(   8) = (   0.0000000   0.0000000   0.0000000  )

     number of k points=    48  gaussian smearing, width (Ry)=  0.1000
                       cart. coord. in units 2pi/alat
        k(    1) = (   0.0000000   0.0000000   0.0000000), wk =   0.0095238
        k(    2) = (   0.0000000   0.0000000   0.1199420), wk =   0.0190476
        k(    3) = (   0.0000000   0.0000000   0.2398840), wk =   0.0190476
        k(    4) = (   0.0000000   0.0000000   0.3598261), wk =   0.0190476
        k(    5) = (   0.0000000   0.1399324   0.0000000), wk =   0.0190476
        k(    6) = (   0.0000000   0.1399324   0.1199420), wk =   0.0380952
        k(    7) = (   0.0000000   0.1399324   0.2398840), wk =   0.0380952
        k(    8) = (   0.0000000   0.1399324   0.3598261), wk =   0.0380952
        k(    9) = (   0.0000000   0.2798647   0.0000000), wk =   0.0190476
        k(   10) = (   0.0000000   0.2798647   0.1199420), wk =   0.0380952
        k(   11) = (   0.0000000   0.2798647   0.2398840), wk =   0.0380952
        k(   12) = (   0.0000000   0.2798647   0.3598261), wk =   0.0380952
        k(   13) = (   0.0000000  -0.4197971   0.0000000), wk =   0.0095238
        k(   14) = (   0.0000000  -0.4197971   0.1199420), wk =   0.0190476
        k(   15) = (   0.0000000  -0.4197971   0.2398840), wk =   0.0190476
        k(   16) = (   0.0000000  -0.4197971   0.3598261), wk =   0.0190476
        k(   17) = (   0.1679188   0.0000000   0.0000000), wk =   0.0190476
        k(   18) = (   0.1679188   0.0000000   0.1199420), wk =   0.0380952
        k(   19) = (   0.1679188   0.0000000   0.2398840), wk =   0.0380952
        k(   20) = (   0.1679188   0.0000000   0.3598261), wk =   0.0380952
        k(   21) = (   0.1679188   0.1399324   0.0000000), wk =   0.0380952
        k(   22) = (   0.1679188   0.1399324   0.1199420), wk =   0.0761905
        k(   23) = (   0.1679188   0.1399324   0.2398840), wk =   0.0761905
        k(   24) = (   0.1679188   0.1399324   0.3598261), wk =   0.0761905
        k(   25) = (   0.1679188   0.2798647   0.0000000), wk =   0.0380952
        k(   26) = (   0.1679188   0.2798647   0.1199420), wk =   0.0761905
        k(   27) = (   0.1679188   0.2798647   0.2398840), wk =   0.0761905
        k(   28) = (   0.1679188   0.2798647   0.3598261), wk =   0.0761905
        k(   29) = (   0.1679188  -0.4197971   0.0000000), wk =   0.0190476
        k(   30) = (   0.1679188  -0.4197971   0.1199420), wk =   0.0380952
        k(   31) = (   0.1679188  -0.4197971   0.2398840), wk =   0.0380952
        k(   32) = (   0.1679188  -0.4197971   0.3598261), wk =   0.0380952
        k(   33) = (   0.3358377   0.0000000   0.0000000), wk =   0.0190476
        k(   34) = (   0.3358377   0.0000000   0.1199420), wk =   0.0380952
        k(   35) = (   0.3358377   0.0000000   0.2398840), wk =   0.0380952
        k(   36) = (   0.3358377   0.0000000   0.3598261), wk =   0.0380952
        k(   37) = (   0.3358377   0.1399324   0.0000000), wk =   0.0380952
        k(   38) = (   0.3358377   0.1399324   0.1199420), wk =   0.0761905
        k(   39) = (   0.3358377   0.1399324   0.2398840), wk =   0.0761905
        k(   40) = (   0.3358377   0.1399324   0.3598261), wk =   0.0761905
        k(   41) = (   0.3358377   0.2798647   0.0000000), wk =   0.0380952
        k(   42) = (   0.3358377   0.2798647   0.1199420), wk =   0.0761905
        k(   43) = (   0.3358377   0.2798647   0.2398840), wk =   0.0761905
        k(   44) = (   0.3358377   0.2798647   0.3598261), wk =   0.0761905
        k(   45) = (   0.3358377  -0.4197971   0.0000000), wk =   0.0190476
        k(   46) = (   0.3358377  -0.4197971   0.1199420), wk =   0.0380952
        k(   47) = (   0.3358377  -0.4197971   0.2398840), wk =   0.0380952
        k(   48) = (   0.3358377  -0.4197971   0.3598261), wk =   0.0380952

     Largest allocated arrays     est. size (Mb)     dimensions
     Largest temporary arrays     est. size (Mb)     dimensions

     Initial potential from superposition of free atoms

     Starting from uniform charge
     Starting wfc are    0 randomized atomic wfcs

     Writing output data file Prototype-La-cP8-Cr3Si.save

     Self-consistent Calculation

[...]

     iteration #  9     ecut=    40.00 Ry     beta=0.70
     CG style diagonalization
     c_bands:  1 eigenvalues not converged
     ethr =  2.85E-06,  avg # of iterations =  3.3

[...]

     total energy              =   -1913.51107293 Ry
     Harris-Foulkes estimate   =   -1913.51107516 Ry
     estimated scf accuracy    <       0.00000480 Ry

     iteration # 12     ecut=    40.00 Ry     beta=0.70
     CG style diagonalization
     ethr =  3.12E-09,  avg # of iterations =  3.5

     End of self-consistent calculation

[...]

          k = 0.3358-0.4198 0.3598 (  4510 PWs)   bands (ev):

   -57.0038 -57.0012 -56.9923 -56.9919 -56.9825 -56.9804 -36.4905 -36.4905
   -24.1972 -24.1620 -24.0748 -24.0744 -23.9846 -23.9478 -23.9052 -23.9032
   -23.8670 -23.8613 -23.8557 -23.8526 -23.8477 -23.8384 -23.8292 -23.8273
   -23.8192 -23.8191  -9.3329  -9.3327  -9.3312  -9.3311  -9.3289  -9.3288
    15.8990  15.9003  15.9218  15.9865  15.9988  16.0840  16.1459  16.1550
    16.3289  16.3343  16.4120  16.4553  16.5153  16.5226  16.6197  16.6242
    17.0259  17.0259  17.1254  17.1419  17.2450  17.2613  17.6318  17.7833
    17.9426  17.9994  18.0960  18.1148  18.2135  18.2246  20.5806  20.5821
    21.0694  21.1045  21.3362  21.4286  23.5415  23.5433  23.7217  23.7378
    23.7738  23.7867  24.1594  24.2858  24.7123  24.7425  25.2240  25.3592
    31.2275  31.5091  32.3209  32.3378  33.2037  33.5325  33.8741  34.0163
    34.6514  34.7076  34.9293  35.0206

     the Fermi energy is    25.9990 ev

!    total energy              =   -1913.51107410 Ry
     Harris-Foulkes estimate   =   -1913.51107480 Ry
     estimated scf accuracy    <       0.00000077 Ry

     The total energy is the sum of the following terms:

     one-electron contribution =    -325.09723561 Ry
     hartree contribution      =     277.28021725 Ry
     xc contribution           =    -180.75829345 Ry
     ewald contribution        =   -1684.73408702 Ry
     smearing contrib. (-TS)   =      -0.20167526 Ry

     convergence has been achieved in  12 iterations

     Forces acting on atoms (Ry/au):

     atom    1 type  1   force =     0.00000000    0.00000000    0.00000000
     atom    2 type  1   force =     0.00000000    0.00000000    0.00000000
     atom    3 type  1   force =     0.00000000    0.00000000    0.00000000
     atom    4 type  1   force =     0.00000000    0.00000000    0.00000000
     atom    5 type  1   force =     0.00000000    0.00000000    0.00000000
     atom    6 type  1   force =     0.00000000    0.00000000    0.00000000
     atom    7 type  2   force =     0.00000000    0.00000000    0.00000000
     atom    8 type  2   force =     0.00000000    0.00000000    0.00000000

     Total force =     0.000000     Total SCF correction =     0.000000

     entering subroutine stress ...

          total   stress  (Ry/bohr**3)                   (kbar)     P=   -1.39
  -0.00000946   0.00000000   0.00000000         -1.39      0.00      0.00
   0.00000000  -0.00000946   0.00000000          0.00     -1.39      0.00
   0.00000000   0.00000000  -0.00000946          0.00      0.00     -1.39

     Writing output data file Prototype-La-cP8-Cr3Si.save

     General routines

     Parallel routines

   This run was terminated on:   5:51:47  23Mar2018

   JOB DONE.