     Program PWSCF v.5.0.2 starts on 23Mar2018 at  2:16:50

     Current dimensions of program PWSCF are:
     Max number of different atomic species (ntypx) = 10
     Max number of k-points (npk) =  40000
     Max angular momentum in pseudopotentials (lmaxx) =  3
     Waiting for input...
     Reading input from standard input

     Subspace diagonalization in iterative solution of the eigenvalue problem:
     a serial algorithm will be used

     bravais-lattice index     =            0
     lattice parameter (alat)  =      12.0168  a.u.
     unit-cell volume          =    1187.3413 (a.u.)^3
     number of atoms/cell      =            8
     number of atomic types    =            2
     number of electrons       =       154.00
     number of Kohn-Sham states=           92
     kinetic-energy cutoff     =      40.0000  Ry
     charge density cutoff     =     160.0000  Ry
     convergence threshold     =      1.0E-04
     mixing beta               =       0.7000
     number of iterations used =            8  plain     mixing
     Exchange-correlation      = SLA-PZ-NOGX-NOGC ( 1 1 0 0 0)
     EXX-fraction              =        0.00
     nstep                     =           50

     celldm(1)=  12.016801  celldm(2)=   0.000000  celldm(3)=   0.000000
     celldm(4)=   0.000000  celldm(5)=   0.000000  celldm(6)=   0.000000

     crystal axes: (cart. coord. in units of alat)
               a(1) = (   1.000000   0.000000   0.000000 )
               a(2) = (  -0.500000   0.866025   0.000000 )
               a(3) = (   0.000000   0.000000   0.790093 )

     reciprocal axes: (cart. coord. in units 2 pi/alat)
               b(1) = (  1.000000  0.577350  0.000000 )
               b(2) = (  0.000000  1.154701  0.000000 )
               b(3) = (  0.000000  0.000000  1.265674 )

     PseudoPot. # 1 for Dy read from file:
     /home/cwx6513/pp.La/Dy.UPF
     MD5 check sum: 9597327bec62616a94a14d07f3fd9936
     Pseudo is Norm-conserving, Zval = 20.0
     Generated in analytical, separable form
     Using radial grid of 1265 points,  6 beta functions with:
                l(1) =   0
                l(2) =   0
                l(3) =   1
                l(4) =   1
                l(5) =   2
                l(6) =   3

     PseudoPot. # 2 for Eu read from file:
     /home/cwx6513/pp.La/Eu.UPF
     MD5 check sum: 5efdbbfc50c6a10138933a6429836ad2
     Pseudo is Norm-conserving, Zval = 17.0
     Generated in analytical, separable form
     Using radial grid of 1261 points,  6 beta functions with:
                l(1) =   0
                l(2) =   0
                l(3) =   1
                l(4) =   1
                l(5) =   2
                l(6) =   3

     atomic species   valence    mass     pseudopotential
        Mg            20.00    24.30500     Dy( 1.00)
        Cd            17.00   112.41100     Eu( 1.00)

     24 Sym. Ops., with inversion, found (12 have fractional translation)

   Cartesian axes

     site n.     atom                  positions (alat units)
         1           Mg  tau(   1) = (   0.2478935   0.7204716   0.1975233  )
         2           Mg  tau(   2) = (   0.7478935   0.1455538   0.5925699  )
         3           Mg  tau(   3) = (   0.2521065   0.1455538   0.5925699  )
         4           Mg  tau(   4) = (  -0.2478935   0.7204716   0.1975233  )
         5           Mg  tau(   5) = (   0.0000000   0.2911075   0.1975233  )
         6           Mg  tau(   6) = (   0.5000000   0.5749179   0.5925699  )
         7           Cd  tau(   7) = (   0.5000005   0.2886748   0.1975233  )
         8           Cd  tau(   8) = (  -0.0000005   0.5773506   0.5925699  )

     number of k points=    64  gaussian smearing, width (Ry)=  0.1000
                       cart. coord. in units 2pi/alat
        k(    1) = (   0.0000000   0.0000000   0.0000000), wk =   0.0095238
        k(    2) = (   0.0000000   0.0000000   0.1808105), wk =   0.0190476
        k(    3) = (   0.0000000   0.0000000   0.3616210), wk =   0.0190476
        k(    4) = (   0.0000000   0.0000000   0.5424315), wk =   0.0190476
        k(    5) = (   0.0000000   0.1924501   0.0000000), wk =   0.0190476
        k(    6) = (   0.0000000   0.1924501   0.1808105), wk =   0.0380952
        k(    7) = (   0.0000000   0.1924501   0.3616210), wk =   0.0380952
        k(    8) = (   0.0000000   0.1924501   0.5424315), wk =   0.0380952
        k(    9) = (   0.0000000   0.3849002   0.0000000), wk =   0.0190476
        k(   10) = (   0.0000000   0.3849002   0.1808105), wk =   0.0380952
        k(   11) = (   0.0000000   0.3849002   0.3616210), wk =   0.0380952
        k(   12) = (   0.0000000   0.3849002   0.5424315), wk =   0.0380952
        k(   13) = (   0.0000000  -0.5773503   0.0000000), wk =   0.0095238
        k(   14) = (   0.0000000  -0.5773503   0.1808105), wk =   0.0190476
        k(   15) = (   0.0000000  -0.5773503   0.3616210), wk =   0.0190476
        k(   16) = (   0.0000000  -0.5773503   0.5424315), wk =   0.0190476
        k(   17) = (   0.2000000   0.1154701   0.0000000), wk =   0.0190476
        k(   18) = (   0.2000000   0.1154701   0.1808105), wk =   0.0380952
        k(   19) = (   0.2000000   0.1154701   0.3616210), wk =   0.0380952
        k(   20) = (   0.2000000   0.1154701   0.5424315), wk =   0.0380952
        k(   21) = (   0.2000000   0.3079201   0.0000000), wk =   0.0190476
        k(   22) = (   0.2000000   0.3079201   0.1808105), wk =   0.0380952
        k(   23) = (   0.2000000   0.3079201   0.3616210), wk =   0.0380952
        k(   24) = (   0.2000000   0.3079201   0.5424315), wk =   0.0380952
        k(   25) = (   0.2000000   0.5003702   0.0000000), wk =   0.0190476
        k(   26) = (   0.2000000   0.5003702   0.1808105), wk =   0.0380952
        k(   27) = (   0.2000000   0.5003702   0.3616210), wk =   0.0380952
        k(   28) = (   0.2000000   0.5003702   0.5424315), wk =   0.0380952
        k(   29) = (   0.2000000  -0.4618802   0.0000000), wk =   0.0190476
        k(   30) = (   0.2000000  -0.4618802   0.1808105), wk =   0.0380952
        k(   31) = (   0.2000000  -0.4618802   0.3616210), wk =   0.0380952
        k(   32) = (   0.2000000  -0.4618802   0.5424315), wk =   0.0380952
        k(   33) = (   0.2000000  -0.2694301   0.0000000), wk =   0.0190476
        k(   34) = (   0.2000000  -0.2694301   0.1808105), wk =   0.0380952
        k(   35) = (   0.2000000  -0.2694301   0.3616210), wk =   0.0380952
        k(   36) = (   0.2000000  -0.2694301   0.5424315), wk =   0.0380952
        k(   37) = (   0.2000000  -0.0769800   0.0000000), wk =   0.0190476
        k(   38) = (   0.2000000  -0.0769800   0.1808105), wk =   0.0380952
        k(   39) = (   0.2000000  -0.0769800   0.3616210), wk =   0.0380952
        k(   40) = (   0.2000000  -0.0769800   0.5424315), wk =   0.0380952
        k(   41) = (   0.4000000   0.2309401   0.0000000), wk =   0.0190476
        k(   42) = (   0.4000000   0.2309401   0.1808105), wk =   0.0380952
        k(   43) = (   0.4000000   0.2309401   0.3616210), wk =   0.0380952
        k(   44) = (   0.4000000   0.2309401   0.5424315), wk =   0.0380952
        k(   45) = (   0.4000000   0.4233902   0.0000000), wk =   0.0190476
        k(   46) = (   0.4000000   0.4233902   0.1808105), wk =   0.0380952
        k(   47) = (   0.4000000   0.4233902   0.3616210), wk =   0.0380952
        k(   48) = (   0.4000000   0.4233902   0.5424315), wk =   0.0380952
        k(   49) = (   0.4000000   0.6158403   0.0000000), wk =   0.0190476
        k(   50) = (   0.4000000   0.6158403   0.1808105), wk =   0.0380952
        k(   51) = (   0.4000000   0.6158403   0.3616210), wk =   0.0380952
        k(   52) = (   0.4000000   0.6158403   0.5424315), wk =   0.0380952
        k(   53) = (   0.4000000  -0.3464102   0.0000000), wk =   0.0190476
        k(   54) = (   0.4000000  -0.3464102   0.1808105), wk =   0.0380952
        k(   55) = (   0.4000000  -0.3464102   0.3616210), wk =   0.0380952
        k(   56) = (   0.4000000  -0.3464102   0.5424315), wk =   0.0380952
        k(   57) = (   0.4000000  -0.1539601   0.0000000), wk =   0.0190476
        k(   58) = (   0.4000000  -0.1539601   0.1808105), wk =   0.0380952
        k(   59) = (   0.4000000  -0.1539601   0.3616210), wk =   0.0380952
        k(   60) = (   0.4000000  -0.1539601   0.5424315), wk =   0.0380952
        k(   61) = (   0.4000000   0.0384900   0.0000000), wk =   0.0190476
        k(   62) = (   0.4000000   0.0384900   0.1808105), wk =   0.0380952
        k(   63) = (   0.4000000   0.0384900   0.3616210), wk =   0.0380952
        k(   64) = (   0.4000000   0.0384900   0.5424315), wk =   0.0380952

     Largest allocated arrays     est. size (Mb)     dimensions
     Largest temporary arrays     est. size (Mb)     dimensions

     Initial potential from superposition of free atoms

     Starting from uniform charge
     Starting wfc are    0 randomized atomic wfcs

     Self-consistent Calculation

     iteration #  1     ecut=    40.00 Ry     beta=0.70
     CG style diagonalization
     ethr =  1.00E-02,  avg # of iterations = 19.2

     total energy              =   -1589.61818555 Ry
     Harris-Foulkes estimate   =   -2382.51119879 Ry
     estimated scf accuracy    <     998.42105822 Ry

     iteration #  2     ecut=    40.00 Ry     beta=0.70
     CG style diagonalization
     c_bands:  5 eigenvalues not converged
     c_bands:  5 eigenvalues not converged
     c_bands:  5 eigenvalues not converged
     c_bands:  4 eigenvalues not converged
     c_bands:  3 eigenvalues not converged
     c_bands:  5 eigenvalues not converged
     c_bands:  4 eigenvalues not converged
     c_bands:  2 eigenvalues not converged
     ethr =  1.00E-02,  avg # of iterations = 15.3

[...]

     End of self-consistent calculation

          k = 0.0000 0.0000 0.0000 (  5047 PWs)   bands (ev):

   -60.2170 -60.2134 -60.2123 -60.2122 -60.2071 -60.2070 -39.9671 -39.9665
   -27.2544 -27.2480 -27.2107 -27.1686 -27.1685 -27.1451 -27.1451 -27.1327
   -27.1326 -27.0790 -27.0533 -27.0532 -27.0369 -27.0369 -27.0106 -27.0106
   -27.0068 -26.9799 -12.7379 -12.7293 -12.7168 -12.7168 -12.7163 -12.7163
    12.2529  12.4730  12.4730  12.5340  12.5364  12.7886  12.9661  13.0137
    13.0137  13.0796  13.0797  13.4768  13.7355  13.7355  14.1653  14.2039
    14.2040  14.3351  14.5167  14.5167  14.6367  14.6367  14.8175  14.8175
    15.0982  15.0982  15.3177  15.3178  15.7176  15.9465  16.0034  17.9323
    18.3449  19.0581  19.0581  19.4973  19.4974  19.9612  19.9612  20.3839
    20.3839  20.3990  21.7101  21.7102  22.1583  22.6185  22.6185  23.1976
    24.5618  26.2238  26.2237  27.1261  27.2406  27.2407  27.6567  27.6565
    28.0889  28.3472  29.1417  29.1416

[...]

     the Fermi energy is    22.3561 ev

!    total energy              =   -1913.99536574 Ry
     Harris-Foulkes estimate   =   -1913.99545242 Ry
     estimated scf accuracy    <       0.00009114 Ry

     The total energy is the sum of the following terms:

     one-electron contribution =    -419.12640479 Ry
     hartree contribution      =     305.51832696 Ry
     xc contribution           =    -179.49599511 Ry
     ewald contribution        =   -1620.67994680 Ry
[...]
        k(   14) = (   0.0000000  -0.5836777   0.1796556), wk =   0.0190476
        k(   15) = (   0.0000000  -0.5836777   0.3593113), wk =   0.0190476
        k(   16) = (   0.0000000  -0.5836777   0.5389669), wk =   0.0190476
        k(   17) = (   0.2021919   0.1167355   0.0000000), wk =   0.0190476
        k(   18) = (   0.2021919   0.1167355   0.1796556), wk =   0.0380952
        k(   19) = (   0.2021919   0.1167355   0.3593113), wk =   0.0380952
        k(   20) = (   0.2021919   0.1167355   0.5389669), wk =   0.0380952
        k(   21) = (   0.2021919   0.3112948   0.0000000), wk =   0.0190476
        k(   22) = (   0.2021919   0.3112948   0.1796556), wk =   0.0380952
        k(   23) = (   0.2021919   0.3112948   0.3593113), wk =   0.0380952
        k(   24) = (   0.2021919   0.3112948   0.5389669), wk =   0.0380952
        k(   25) = (   0.2021919   0.5058540   0.0000000), wk =   0.0190476
        k(   26) = (   0.2021919   0.5058540   0.1796556), wk =   0.0380952
        k(   27) = (   0.2021919   0.5058540   0.3593113), wk =   0.0380952
        k(   28) = (   0.2021919   0.5058540   0.5389669), wk =   0.0380952
        k(   29) = (   0.2021919  -0.4669422   0.0000000), wk =   0.0190476
        k(   30) = (   0.2021919  -0.4669422   0.1796556), wk =   0.0380952
        k(   31) = (   0.2021919  -0.4669422   0.3593113), wk =   0.0380952
        k(   32) = (   0.2021919  -0.4669422   0.5389669), wk =   0.0380952
        k(   33) = (   0.2021919  -0.2723829   0.0000000), wk =   0.0190476
        k(   34) = (   0.2021919  -0.2723829   0.1796556), wk =   0.0380952
        k(   35) = (   0.2021919  -0.2723829   0.3593113), wk =   0.0380952
        k(   36) = (   0.2021919  -0.2723829   0.5389669), wk =   0.0380952
        k(   37) = (   0.2021919  -0.0778237   0.0000000), wk =   0.0190476
        k(   38) = (   0.2021919  -0.0778237   0.1796556), wk =   0.0380952
        k(   39) = (   0.2021919  -0.0778237   0.3593113), wk =   0.0380952
        k(   40) = (   0.2021919  -0.0778237   0.5389669), wk =   0.0380952
        k(   41) = (   0.4043838   0.2334711   0.0000000), wk =   0.0190476
        k(   42) = (   0.4043838   0.2334711   0.1796556), wk =   0.0380952
        k(   43) = (   0.4043838   0.2334711   0.3593113), wk =   0.0380952
        k(   44) = (   0.4043838   0.2334711   0.5389669), wk =   0.0380952
        k(   45) = (   0.4043838   0.4280303   0.0000000), wk =   0.0190476
        k(   46) = (   0.4043838   0.4280303   0.1796556), wk =   0.0380952
        k(   47) = (   0.4043838   0.4280303   0.3593113), wk =   0.0380952
        k(   48) = (   0.4043838   0.4280303   0.5389669), wk =   0.0380952
        k(   49) = (   0.4043838   0.6225896   0.0000000), wk =   0.0190476
        k(   50) = (   0.4043838   0.6225896   0.1796556), wk =   0.0380952
        k(   51) = (   0.4043838   0.6225896   0.3593113), wk =   0.0380952
        k(   52) = (   0.4043838   0.6225896   0.5389669), wk =   0.0380952
        k(   53) = (   0.4043838  -0.3502066   0.0000000), wk =   0.0190476
        k(   54) = (   0.4043838  -0.3502066   0.1796556), wk =   0.0380952
        k(   55) = (   0.4043838  -0.3502066   0.3593113), wk =   0.0380952
        k(   56) = (   0.4043838  -0.3502066   0.5389669), wk =   0.0380952
        k(   57) = (   0.4043838  -0.1556474   0.0000000), wk =   0.0190476
        k(   58) = (   0.4043838  -0.1556474   0.1796556), wk =   0.0380952
        k(   59) = (   0.4043838  -0.1556474   0.3593113), wk =   0.0380952
        k(   60) = (   0.4043838  -0.1556474   0.5389669), wk =   0.0380952
        k(   61) = (   0.4043838   0.0389118   0.0000000), wk =   0.0190476
        k(   62) = (   0.4043838   0.0389118   0.1796556), wk =   0.0380952
        k(   63) = (   0.4043838   0.0389118   0.3593113), wk =   0.0380952
        k(   64) = (   0.4043838   0.0389118   0.5389669), wk =   0.0380952

[...]

     The maximum number of steps has been reached.

     End of BFGS Geometry Optimization
Begin final coordinates
     new unit-cell volume =   1169.20558 a.u.^3 (   173.25839 Ang^3 )

CELL_PARAMETERS (alat= 12.01680127)
   0.989159346   0.000000000   0.000000000
  -0.494579673   0.856637122   0.000000000
   0.000000000   0.000000000   0.795172029

ATOMIC_POSITIONS (crystal)
Mg       0.664772993   0.832386496   0.250000000
Mg       0.832386496   0.167613504   0.750000000
Mg       0.335227007   0.167613504   0.750000000
Mg       0.167613504   0.832386496   0.250000000
Mg       0.167613504   0.335227007   0.250000000
Mg       0.832386496   0.664772993   0.750000000
Cd       0.666667000   0.333333000   0.250000000
Cd       0.333333000   0.666667000   0.750000000
End final coordinates

     A final scf calculation at the relaxed structure.
     The G-vectors are recalculated for the final unit cell
     Results may differ from those at the preceding step.

     bravais-lattice index     =            0
     lattice parameter (alat)  =      12.0168  a.u.
     unit-cell volume          =    1169.2056 (a.u.)^3
     number of atoms/cell      =            8
     number of atomic types    =            2
     number of electrons       =       154.00
     number of Kohn-Sham states=           92
     kinetic-energy cutoff     =      40.0000  Ry
     charge density cutoff     =     160.0000  Ry
     convergence threshold     =      6.9E-05
     mixing beta               =       0.7000
     number of iterations used =            8  plain     mixing
     Exchange-correlation      = SLA-PZ-NOGX-NOGC ( 1 1 0 0 0)
     EXX-fraction              =        0.00

     celldm(1)=  12.016801  celldm(2)=   0.000000  celldm(3)=   0.000000
     celldm(4)=   0.000000  celldm(5)=   0.000000  celldm(6)=   0.000000

     crystal axes: (cart. coord. in units of alat)
               a(1) = (   0.989159   0.000000   0.000000 )
               a(2) = (  -0.494580   0.856637   0.000000 )
               a(3) = (   0.000000   0.000000   0.795172 )

     reciprocal axes: (cart. coord. in units 2 pi/alat)
               b(1) = (  1.010959  0.583678  0.000000 )
               b(2) = (  0.000000  1.167355  0.000000 )
               b(3) = (  0.000000  0.000000  1.257590 )

     PseudoPot. # 1 for Dy read from file:
     /home/cwx6513/pp.La/Dy.UPF
     MD5 check sum: 9597327bec62616a94a14d07f3fd9936
     Pseudo is Norm-conserving, Zval = 20.0
     Generated in analytical, separable form
     Using radial grid of 1265 points,  6 beta functions with:
                l(1) =   0
                l(2) =   0
                l(3) =   1
                l(4) =   1
                l(5) =   2
                l(6) =   3

     PseudoPot. # 2 for Eu read from file:
     /home/cwx6513/pp.La/Eu.UPF
     MD5 check sum: 5efdbbfc50c6a10138933a6429836ad2
     Pseudo is Norm-conserving, Zval = 17.0
     Generated in analytical, separable form
     Using radial grid of 1261 points,  6 beta functions with:
                l(1) =   0
                l(2) =   0
                l(3) =   1
                l(4) =   1
                l(5) =   2
                l(6) =   3

     atomic species   valence    mass     pseudopotential
        Mg            20.00    24.30500     Dy( 1.00)
        Cd            17.00   112.41100     Eu( 1.00)

     24 Sym. Ops., with inversion, found (12 have fractional translation)

   Cartesian axes

     site n.     atom                  positions (alat units)
         1           Mg  tau(   1) = (   0.2458850   0.7130532   0.1987930  )
         2           Mg  tau(   2) = (   0.7404647   0.1435839   0.5963790  )
         3           Mg  tau(   3) = (   0.2486947   0.1435839   0.5963790  )
         4           Mg  tau(   4) = (  -0.2458850   0.7130532   0.1987930  )
         5           Mg  tau(   5) = (   0.0000000   0.2871679   0.1987930  )
         6           Mg  tau(   6) = (   0.4945797   0.5694692   0.5963790  )
         7           Cd  tau(   7) = (   0.4945802   0.2855454   0.1987930  )
         8           Cd  tau(   8) = (  -0.0000005   0.5710917   0.5963790  )

     number of k points=    64  gaussian smearing, width (Ry)=  0.1000
                       cart. coord. in units 2pi/alat
        k(    1) = (   0.0000000   0.0000000   0.0000000), wk =   0.0095238
        k(    2) = (   0.0000000   0.0000000   0.1796556), wk =   0.0190476
        k(    3) = (   0.0000000   0.0000000   0.3593113), wk =   0.0190476
        k(    4) = (   0.0000000   0.0000000   0.5389669), wk =   0.0190476
        k(    5) = (   0.0000000   0.1945592   0.0000000), wk =   0.0190476
        k(    6) = (   0.0000000   0.1945592   0.1796556), wk =   0.0380952
        k(    7) = (   0.0000000   0.1945592   0.3593113), wk =   0.0380952
        k(    8) = (   0.0000000   0.1945592   0.5389669), wk =   0.0380952
        k(    9) = (   0.0000000   0.3891185   0.0000000), wk =   0.0190476
        k(   10) = (   0.0000000   0.3891185   0.1796556), wk =   0.0380952
        k(   11) = (   0.0000000   0.3891185   0.3593113), wk =   0.0380952
        k(   12) = (   0.0000000   0.3891185   0.5389669), wk =   0.0380952
        k(   13) = (   0.0000000  -0.5836777   0.0000000), wk =   0.0095238
        k(   14) = (   0.0000000  -0.5836777   0.1796556), wk =   0.0190476
        k(   15) = (   0.0000000  -0.5836777   0.3593113), wk =   0.0190476
        k(   16) = (   0.0000000  -0.5836777   0.5389669), wk =   0.0190476
        k(   17) = (   0.2021919   0.1167355   0.0000000), wk =   0.0190476
        k(   18) = (   0.2021919   0.1167355   0.1796556), wk =   0.0380952
        k(   19) = (   0.2021919   0.1167355   0.3593113), wk =   0.0380952
        k(   20) = (   0.2021919   0.1167355   0.5389669), wk =   0.0380952
        k(   21) = (   0.2021919   0.3112948   0.0000000), wk =   0.0190476
        k(   22) = (   0.2021919   0.3112948   0.1796556), wk =   0.0380952
        k(   23) = (   0.2021919   0.3112948   0.3593113), wk =   0.0380952
        k(   24) = (   0.2021919   0.3112948   0.5389669), wk =   0.0380952
        k(   25) = (   0.2021919   0.5058540   0.0000000), wk =   0.0190476
        k(   26) = (   0.2021919   0.5058540   0.1796556), wk =   0.0380952
        k(   27) = (   0.2021919   0.5058540   0.3593113), wk =   0.0380952
        k(   28) = (   0.2021919   0.5058540   0.5389669), wk =   0.0380952
        k(   29) = (   0.2021919  -0.4669422   0.0000000), wk =   0.0190476
        k(   30) = (   0.2021919  -0.4669422   0.1796556), wk =   0.0380952
        k(   31) = (   0.2021919  -0.4669422   0.3593113), wk =   0.0380952
        k(   32) = (   0.2021919  -0.4669422   0.5389669), wk =   0.0380952
        k(   33) = (   0.2021919  -0.2723829   0.0000000), wk =   0.0190476
        k(   34) = (   0.2021919  -0.2723829   0.1796556), wk =   0.0380952
        k(   35) = (   0.2021919  -0.2723829   0.3593113), wk =   0.0380952
        k(   36) = (   0.2021919  -0.2723829   0.5389669), wk =   0.0380952
        k(   37) = (   0.2021919  -0.0778237   0.0000000), wk =   0.0190476
        k(   38) = (   0.2021919  -0.0778237   0.1796556), wk =   0.0380952
        k(   39) = (   0.2021919  -0.0778237   0.3593113), wk =   0.0380952
        k(   40) = (   0.2021919  -0.0778237   0.5389669), wk =   0.0380952
        k(   41) = (   0.4043838   0.2334711   0.0000000), wk =   0.0190476
        k(   42) = (   0.4043838   0.2334711   0.1796556), wk =   0.0380952
        k(   43) = (   0.4043838   0.2334711   0.3593113), wk =   0.0380952
        k(   44) = (   0.4043838   0.2334711   0.5389669), wk =   0.0380952
        k(   45) = (   0.4043838   0.4280303   0.0000000), wk =   0.0190476
        k(   46) = (   0.4043838   0.4280303   0.1796556), wk =   0.0380952
        k(   47) = (   0.4043838   0.4280303   0.3593113), wk =   0.0380952
        k(   48) = (   0.4043838   0.4280303   0.5389669), wk =   0.0380952
        k(   49) = (   0.4043838   0.6225896   0.0000000), wk =   0.0190476
        k(   50) = (   0.4043838   0.6225896   0.1796556), wk =   0.0380952
        k(   51) = (   0.4043838   0.6225896   0.3593113), wk =   0.0380952
        k(   52) = (   0.4043838   0.6225896   0.5389669), wk =   0.0380952
        k(   53) = (   0.4043838  -0.3502066   0.0000000), wk =   0.0190476
        k(   54) = (   0.4043838  -0.3502066   0.1796556), wk =   0.0380952
        k(   55) = (   0.4043838  -0.3502066   0.3593113), wk =   0.0380952
        k(   56) = (   0.4043838  -0.3502066   0.5389669), wk =   0.0380952
        k(   57) = (   0.4043838  -0.1556474   0.0000000), wk =   0.0190476
        k(   58) = (   0.4043838  -0.1556474   0.1796556), wk =   0.0380952
        k(   59) = (   0.4043838  -0.1556474   0.3593113), wk =   0.0380952
        k(   60) = (   0.4043838  -0.1556474   0.5389669), wk =   0.0380952
        k(   61) = (   0.4043838   0.0389118   0.0000000), wk =   0.0190476
        k(   62) = (   0.4043838   0.0389118   0.1796556), wk =   0.0380952
        k(   63) = (   0.4043838   0.0389118   0.3593113), wk =   0.0380952
        k(   64) = (   0.4043838   0.0389118   0.5389669), wk =   0.0380952

     Largest allocated arrays     est. size (Mb)     dimensions
     Largest temporary arrays     est. size (Mb)     dimensions

     Initial potential from superposition of free atoms

     Starting from uniform charge
     Starting wfc are    0 randomized atomic wfcs

     Writing output data file Prototype-La-hP8-Mg3Cd.save

     Self-consistent Calculation

[...]

     iteration #  8     ecut=    40.00 Ry     beta=0.70
     CG style diagonalization
     ethr =  2.22E-04,  avg # of iterations =  3.6

[...]

     total energy              =   -1913.97121032 Ry
     Harris-Foulkes estimate   =   -1913.97162012 Ry
     estimated scf accuracy    <       0.00113886 Ry

     iteration # 11     ecut=    40.00 Ry     beta=0.70
     CG style diagonalization
     c_bands:  1 eigenvalues not converged
     c_bands:  1 eigenvalues not converged
     c_bands:  1 eigenvalues not converged
     c_bands:  1 eigenvalues not converged
     ethr =  7.40E-07,  avg # of iterations =  3.8

     End of self-consistent calculation

[...]

          k = 0.4044 0.0389 0.5390 (  4996 PWs)   bands (ev):

   -59.8367 -59.8331 -59.8309 -59.8294 -59.8288 -59.8271 -39.5490 -39.5487
   -26.8526 -26.8503 -26.8109 -26.8079 -26.7956 -26.7860 -26.7437 -26.7228
   -26.7106 -26.7036 -26.6939 -26.6899 -26.6678 -26.6607 -26.6528 -26.6509
   -26.6369 -26.6289 -12.3215 -12.3202 -12.3175 -12.3160 -12.3091 -12.3078
    13.0272  13.0574  13.2423  13.2551  13.3300  13.3987  13.4909  13.5148
    13.5526  13.5941  13.8175  13.9636  14.1735  14.2458  14.3263  14.4305
    14.4707  14.6246  14.7081  14.8758  14.9416  14.9770  15.1124  15.1759
    15.2333  15.2580  15.6119  15.6477  15.9792  16.0850  16.2008  16.9688
    17.9546  18.5842  18.7774  19.2022  19.8613  19.9421  20.1553  20.2496
    20.7445  20.8784  21.1480  21.3534  21.7876  22.0553  23.6445  23.9141
    25.7109  26.0750  27.4760  28.2173  28.5182  28.7023  29.5320  29.7045
    30.4776  30.7814  31.3835  31.5224

     the Fermi energy is    22.8002 ev

!    total energy              =   -1913.97144156 Ry
     Harris-Foulkes estimate   =   -1913.97149898 Ry
     estimated scf accuracy    <       0.00006598 Ry

     The total energy is the sum of the following terms:

     one-electron contribution =    -406.35894162 Ry
     hartree contribution      =     301.36313080 Ry
     xc contribution           =    -179.61802137 Ry
     ewald contribution        =   -1629.15121338 Ry
     smearing contrib. (-TS)   =      -0.20639599 Ry

     convergence has been achieved in  11 iterations

     Forces acting on atoms (Ry/au):

     atom    1 type  1   force =    -0.03953329   -0.02282456    0.00000000
     atom    2 type  1   force =    -0.03953329    0.02282456    0.00000000
     atom    3 type  1   force =     0.03953329    0.02282456    0.00000000
     atom    4 type  1   force =     0.03953329   -0.02282456    0.00000000
     atom    5 type  1   force =     0.00000000    0.04564911    0.00000000
     atom    6 type  1   force =     0.00000000   -0.04564911    0.00000000
     atom    7 type  2   force =     0.00000000    0.00000000    0.00000000
     atom    8 type  2   force =     0.00000000    0.00000000    0.00000000

     Total force =     0.111817     Total SCF correction =     0.000000

     entering subroutine stress ...

          total   stress  (Ry/bohr**3)                   (kbar)     P= -299.53
  -0.00207950   0.00000000   0.00000000       -305.91      0.00      0.00
   0.00000000  -0.00207950   0.00000000          0.00   -305.91      0.00
   0.00000000   0.00000000  -0.00194952          0.00      0.00   -286.78

     Writing output data file Prototype-La-hP8-Mg3Cd.save

     General routines

     Parallel routines

   This run was terminated on:   5:18:25  23Mar2018

   JOB DONE.