     Program PWSCF v.5.0.2 starts on 23Mar2018 at  2:16:49

     Current dimensions of program PWSCF are:
     Max number of different atomic species (ntypx) = 10
     Max number of k-points (npk) =  40000
     Max angular momentum in pseudopotentials (lmaxx) =  3
     Waiting for input...
     Reading input from standard input

     Subspace diagonalization in iterative solution of the eigenvalue problem:
     a serial algorithm will be used

     bravais-lattice index     =            0
     lattice parameter (alat)  =       9.9235  a.u.
     unit-cell volume          =    1361.0366 (a.u.)^3
     number of atoms/cell      =           12
     number of atomic types    =            2
     number of electrons       =       216.00
     number of Kohn-Sham states=          130
     kinetic-energy cutoff     =      40.0000  Ry
     charge density cutoff     =     160.0000  Ry
     convergence threshold     =      1.0E-04
     mixing beta               =       0.7000
     number of iterations used =            8  plain     mixing
     Exchange-correlation      = SLA-PZ-NOGX-NOGC ( 1 1 0 0 0)
     EXX-fraction              =        0.00
     nstep                     =           50

     celldm(1)=   9.923489  celldm(2)=   0.000000  celldm(3)=   0.000000
     celldm(4)=   0.000000  celldm(5)=   0.000000  celldm(6)=   0.000000

     crystal axes: (cart. coord. in units of alat)
               a(1) = (   1.000000   0.000000   0.000000 )
               a(2) = (  -0.500000   0.866025   0.000000 )
               a(3) = (   0.000000   0.000000   1.608222 )

     reciprocal axes: (cart. coord. in units 2 pi/alat)
               b(1) = (  1.000000  0.577350  0.000000 )
               b(2) = (  0.000000  1.154701  0.000000 )
               b(3) = (  0.000000  0.000000  0.621805 )

     PseudoPot. # 1 for Dy read from file:
     /home/cwx6513/pp.La/Dy.UPF
     MD5 check sum: 9597327bec62616a94a14d07f3fd9936
     Pseudo is Norm-conserving, Zval = 20.0
     Generated in analytical, separable form
     Using radial grid of 1265 points,  6 beta functions with:
                l(1) =   0
                l(2) =   0
                l(3) =   1
                l(4) =   1
                l(5) =   2
                l(6) =   3

     PseudoPot. # 2 for Eu read from file:
     /home/cwx6513/pp.La/Eu.UPF
     MD5 check sum: 5efdbbfc50c6a10138933a6429836ad2
     Pseudo is Norm-conserving, Zval = 17.0
     Generated in analytical, separable form
     Using radial grid of 1261 points,  6 beta functions with:
                l(1) =   0
                l(2) =   0
                l(3) =   1
                l(4) =   1
                l(5) =   2
                l(6) =   3

     atomic species   valence    mass     pseudopotential
        Mg            20.00    24.30500     Dy( 1.00)
        Zn            17.00    65.39000     Eu( 1.00)

     24 Sym. Ops., with inversion, found (12 have fractional translation)

   Cartesian axes

     site n.     atom                  positions (alat units)
         1           Mg  tau(   1) = (  -0.0000005   0.5773506   0.1003820  )
         2           Mg  tau(   2) = (   0.5000005   0.2886748   0.9044931  )
         3           Mg  tau(   3) = (   0.5000005   0.2886748   1.5078402  )
         4           Mg  tau(   4) = (  -0.0000005   0.5773506   0.7037291  )
         5           Zn  tau(   5) = (   0.0000000   0.0000000   0.0000000  )
         6           Zn  tau(   6) = (   0.0000000   0.0000000   0.8041111  )
         7           Zn  tau(   7) = (   0.0000000   0.2950739   1.2061667  )
         8           Zn  tau(   8) = (   0.7444585   0.1475370   0.4020556  )
         9           Zn  tau(   9) = (   0.2555415   0.1475370   0.4020556  )
        10           Zn  tau(  10) = (   0.2444585   0.7184884   1.2061667  )
        11           Zn  tau(  11) = (  -0.2444585   0.7184884   1.2061667  )
        12           Zn  tau(  12) = (   0.5000000   0.5709515   0.4020556  )

     number of k points=    12  gaussian smearing, width (Ry)=  0.1000
                       cart. coord. in units 2pi/alat
        k(    1) = (   0.0000000   0.0000000   0.0000000), wk =   0.0833333
        k(    2) = (   0.0000000   0.0000000   0.1554512), wk =   0.1666667
        k(    3) = (   0.0000000   0.0000000  -0.3109023), wk =   0.0833333
        k(    4) = (   0.0000000   0.3849002   0.0000000), wk =   0.1666667
        k(    5) = (   0.0000000   0.3849002   0.1554512), wk =   0.3333333
        k(    6) = (   0.0000000   0.3849002  -0.3109023), wk =   0.1666667
        k(    7) = (  -0.5000000  -0.2886751   0.0000000), wk =   0.0833333
        k(    8) = (  -0.5000000  -0.2886751   0.1554512), wk =   0.1666667
        k(    9) = (  -0.5000000  -0.2886751  -0.3109023), wk =   0.0833333
        k(   10) = (  -0.5000000   0.0962250   0.0000000), wk =   0.1666667
        k(   11) = (  -0.5000000   0.0962250   0.1554512), wk =   0.3333333
        k(   12) = (  -0.5000000   0.0962250  -0.3109023), wk =   0.1666667

     Largest allocated arrays     est. size (Mb)     dimensions
     Largest temporary arrays     est. size (Mb)     dimensions

     Initial potential from superposition of free atoms

     Starting from uniform charge
     Starting wfc are    0 randomized atomic wfcs

     Self-consistent Calculation

     iteration #  1     ecut=    40.00 Ry     beta=0.70
     CG style diagonalization
     ethr =  1.00E-02,  avg # of iterations = 17.0

     total energy              =   -2278.80874726 Ry
     Harris-Foulkes estimate   =   -2850.86745731 Ry
     estimated scf accuracy    <     746.98801793 Ry

[...]

     iteration #  3     ecut=    40.00 Ry     beta=0.70
     CG style diagonalization
     c_bands:  1 eigenvalues not converged
     ethr =  1.00E-02,  avg # of iterations =  6.6

[...]

     End of self-consistent calculation

          k = 0.0000 0.0000 0.0000 (  5769 PWs)   bands (ev):

   -53.0439 -53.0436 -53.0330 -53.0305 -34.1445 -33.9542 -33.7905 -33.5853
   -33.4802 -33.4802 -33.4787 -33.4787 -20.0291 -20.0229 -20.0114 -20.0114
   -19.9896 -19.9895 -19.9502 -19.9301 -19.9180 -19.9180 -19.9166 -19.9166
    -9.1407  -8.6537  -8.1333  -7.3902  -7.3902  -7.2487  -7.2487  -7.2306
    -7.2305  -6.8075  -6.5328  -6.4643  -6.4643  -6.3955  -6.3954  -5.6643
    -5.6566  -5.6565  -5.5712  -5.5630  -5.4675  -5.4674  -5.3836  -5.3836
    19.1606  19.5037  19.7670  19.7671  19.8132  19.9948  20.0794  20.0794
    20.4288  20.4624  20.4625  20.5669  20.5670  20.6186  20.6634  20.7643
    20.9838  20.9838  21.2285  21.2286  21.2743  21.2743  21.5526  21.5527
    21.8663  21.8663  22.1090  22.6011  22.6011  22.6078  22.6078  23.3116
    23.3667  23.5864  23.5864  24.1308  24.6646  24.6647  25.3261  25.3261
    25.4822  25.4822  26.4023  26.5875  27.2187  27.2187  27.7586  27.9762
    28.3630  28.6044  28.6044  28.6417  28.6417  28.8785  28.8785  29.1212
    29.1212  30.4495  30.8051  30.8052  31.1340  31.1340  31.6788  32.3673
    32.9172  32.9676  32.9677  32.9812  32.9812  33.4920  33.5067  34.8042
    34.8043  35.1713  35.6328  35.8481  36.4801  36.4803  37.1777  37.8160
    37.8161  37.8284

[...]

          k =-0.5000-0.2887 0.0000 (  5800 PWs)   bands (ev):

[...]

     the Fermi energy is    29.8166 ev

!    total energy              =   -2442.18428005 Ry
     Harris-Foulkes estimate   =   -2442.18429865 Ry
     estimated scf accuracy    <       0.00001569 Ry

     The total energy is the sum of the following terms:

     one-electron contribution =    -161.09878130 Ry
     hartree contribution      =     281.37539665 Ry
     xc contribution           =    -245.05055103 Ry
     ewald contribution        =   -2316.98136564 Ry
     smearing contrib. (-TS)   =      -0.42897873 Ry

     convergence has been achieved in  11 iterations

     Forces acting on atoms (Ry/au):

     atom    1 type  1   force =     0.00000000    0.00000000    0.02192605
     atom    2 type  1   force =     0.00000000    0.00000000    0.02192605
     atom    3 type  1   force =     0.00000000    0.00000000   -0.02192605
     atom    4 type  1   force =     0.00000000    0.00000000   -0.02192605
     atom    5 type  2   force =     0.00000000    0.00000000    0.00000000
     atom    6 type  2   force =     0.00000000    0.00000000    0.00000000
     atom    7 type  2   force =     0.00000000    0.03321119    0.00000000
     atom    8 type  2   force =    -0.02876174    0.01660560    0.00000000
     atom    9 type  2   force =     0.02876174    0.01660560    0.00000000
     atom   10 type  2   force =    -0.02876174   -0.01660560    0.00000000
     atom   11 type  2   force =     0.02876174   -0.01660560    0.00000000
     atom   12 type  2   force =     0.00000000   -0.03321119    0.00000000

     Total force =     0.092417     Total SCF correction =     0.000000

     entering subroutine stress ...

          total   stress  (Ry/bohr**3)                   (kbar)     P=  566.71
   0.00382942   0.00000000   0.00000000        563.33      0.00      0.00
   0.00000000   0.00382942   0.00000000          0.00    563.33      0.00
   0.00000000   0.00000000   0.00389844          0.00      0.00    573.48

     BFGS Geometry Optimization

     number of scf cycles    =   1
     number of bfgs steps    =   0

     enthalpy new            =   -2442.1842800549 Ry

     new trust radius        =       0.5000000000 bohr
     new conv_thr            =       0.0001000000 Ry

     new unit-cell volume =   1653.18054 a.u.^3 (   244.97608 Ang^3 )

CELL_PARAMETERS (alat=  9.92348860)
   1.066565188   0.000000000   0.000000000
  -0.533282594   0.923672548   0.000000000
   0.000000000   0.000000000   1.717203317

ATOMIC_POSITIONS (crystal)
Mg       0.333333000   0.666667000   0.063373265
Mg       0.666667000   0.333333000   0.563373265
Mg       0.666667000   0.333333000   0.936626735
Mg       0.333333000   0.666667000   0.436626735
Zn       0.000000000   0.000000000   0.000000000
Zn       0.000000000   0.000000000   0.500000000
Zn       0.171704487   0.343408974   0.750000000
Zn       0.828295513   0.171704487   0.250000000
Zn       0.343408974   0.171704487   0.250000000
Zn       0.656591026   0.828295513   0.750000000
Zn       0.171704487   0.828295513   0.750000000
Zn       0.828295513   0.656591026   0.250000000

     Writing output data file Prototype-La-hP12-MgZn2.save
     NEW-OLD atomic charge density approx. for the potential
     NEW k-points:
        k(    1) = (   0.0000000   0.0000000   0.0000000), wk =   0.0833333
        k(    2) = (   0.0000000   0.0000000   0.1455856), wk =   0.1666667
        k(    3) = (   0.0000000   0.0000000  -0.2911711), wk =   0.0833333
        k(    4) = (   0.0000000   0.3608783   0.0000000), wk =   0.1666667
        k(    5) = (   0.0000000   0.3608783   0.1455856), wk =   0.3333333
        k(    6) = (   0.0000000   0.3608783  -0.2911711), wk =   0.1666667
        k(    7) = (  -0.4687946  -0.2706587   0.0000000), wk =   0.0833333
        k(    8) = (  -0.4687946  -0.2706587   0.1455856), wk =   0.1666667
        k(    9) = (  -0.4687946  -0.2706587  -0.2911711), wk =   0.0833333
        k(   10) = (  -0.4687946   0.0902196   0.0000000), wk =   0.1666667
        k(   11) = (  -0.4687946   0.0902196   0.1455856), wk =   0.3333333
        k(   12) = (  -0.4687946   0.0902196  -0.2911711), wk =   0.1666667

[...]

     enthalpy old            =   -2442.1842800549 Ry
     enthalpy new            =   -2442.1517660189 Ry

     CASE: enthalpy_new > enthalpy_old

     new trust radius        =       0.2503575575 bohr

     trust_radius < trust_radius_min

     resetting bfgs history

     new conv_thr            =       0.0001000000 Ry

[...]

     number of scf cycles    =   3
     number of bfgs steps    =   1

     enthalpy old            =   -2442.1842800549 Ry
     enthalpy new            =   -2442.1829049904 Ry

     CASE: enthalpy_new > enthalpy_old

     new trust radius        =       0.2493921490 bohr

     trust_radius < trust_radius_min

     resetting bfgs history

     Message from routine bfgs:
     history already reset at previous step: stopping
     new conv_thr            =       0.0001000000 Ry

     new unit-cell volume =   1643.33890 a.u.^3 (   243.51770 Ang^3 )

[...]

ATOMIC_POSITIONS (crystal)
Mg       0.333333000   0.666667000   0.063285295
Mg       0.666667000   0.333333000   0.563285295
Mg       0.666667000   0.333333000   0.936714705
Mg       0.333333000   0.666667000   0.436714705
Zn       0.000000000   0.000000000   0.000000000
Zn       0.000000000   0.000000000   0.500000000
Zn       0.171583764   0.343167528   0.750000000
Zn       0.828416236   0.171583764   0.250000000
Zn       0.343167528   0.171583764   0.250000000
Zn       0.656832472   0.828416236   0.750000000
Zn       0.171583764   0.828416236   0.750000000
Zn       0.828416236   0.656832472   0.250000000

     Writing output data file Prototype-La-hP12-MgZn2.save
     NEW-OLD atomic charge density approx. for the potential
     NEW k-points:
        k(    1) = (   0.0000000   0.0000000   0.0000000), wk =   0.0833333
        k(    2) = (   0.0000000   0.0000000   0.1458642), wk =   0.1666667
        k(    3) = (   0.0000000   0.0000000  -0.2917285), wk =   0.0833333
        k(    4) = (   0.0000000   0.3616113   0.0000000), wk =   0.1666667
        k(    5) = (   0.0000000   0.3616113   0.1458642), wk =   0.3333333
        k(    6) = (   0.0000000   0.3616113  -0.2917285), wk =   0.1666667
        k(    7) = (  -0.4697469  -0.2712085   0.0000000), wk =   0.0833333
        k(    8) = (  -0.4697469  -0.2712085   0.1458642), wk =   0.1666667
        k(    9) = (  -0.4697469  -0.2712085  -0.2917285), wk =   0.0833333
        k(   10) = (  -0.4697469   0.0904028   0.0000000), wk =   0.1666667
        k(   11) = (  -0.4697469   0.0904028   0.1458642), wk =   0.3333333
        k(   12) = (  -0.4697469   0.0904028  -0.2917285), wk =   0.1666667

[...]

     The maximum number of steps has been reached.

     End of BFGS Geometry Optimization
Begin final coordinates
     new unit-cell volume =   1643.33890 a.u.^3 (   243.51770 Ang^3 )

CELL_PARAMETERS (alat=  9.92348860)
   1.064403010   0.000000000   0.000000000
  -0.532201505   0.921800046   0.000000000
   0.000000000   0.000000000   1.713922542

ATOMIC_POSITIONS (crystal)
Mg       0.333333000   0.666667000   0.063285295
Mg       0.666667000   0.333333000   0.563285295
Mg       0.666667000   0.333333000   0.936714705
Mg       0.333333000   0.666667000   0.436714705
Zn       0.000000000   0.000000000   0.000000000
Zn       0.000000000   0.000000000   0.500000000
Zn       0.171583764   0.343167528   0.750000000
Zn       0.828416236   0.171583764   0.250000000
Zn       0.343167528   0.171583764   0.250000000
Zn       0.656832472   0.828416236   0.750000000
Zn       0.171583764   0.828416236   0.750000000
Zn       0.828416236   0.656832472   0.250000000
End final coordinates

     A final scf calculation at the relaxed structure.
     The G-vectors are recalculated for the final unit cell
     Results may differ from those at the preceding step.

     bravais-lattice index     =            0
     lattice parameter (alat)  =       9.9235  a.u.
     unit-cell volume          =    1643.3389 (a.u.)^3
     number of atoms/cell      =           12
     number of atomic types    =            2
     number of electrons       =       216.00
     number of Kohn-Sham states=          130
     kinetic-energy cutoff     =      40.0000  Ry
     charge density cutoff     =     160.0000  Ry
     convergence threshold     =      1.0E-04
     mixing beta               =       0.7000
     number of iterations used =            8  plain     mixing
     Exchange-correlation      = SLA-PZ-NOGX-NOGC ( 1 1 0 0 0)
     EXX-fraction              =        0.00

     celldm(1)=   9.923489  celldm(2)=   0.000000  celldm(3)=   0.000000
     celldm(4)=   0.000000  celldm(5)=   0.000000  celldm(6)=   0.000000

     crystal axes: (cart. coord. in units of alat)
               a(1) = (   1.064403   0.000000   0.000000 )
               a(2) = (  -0.532202   0.921800   0.000000 )
               a(3) = (   0.000000   0.000000   1.713923 )

     reciprocal axes: (cart. coord. in units 2 pi/alat)
               b(1) = (  0.939494  0.542417  0.000000 )
               b(2) = (  0.000000  1.084834  0.000000 )
               b(3) = (  0.000000  0.000000  0.583457 )

     PseudoPot. # 1 for Dy read from file:
     /home/cwx6513/pp.La/Dy.UPF
     MD5 check sum: 9597327bec62616a94a14d07f3fd9936
     Pseudo is Norm-conserving, Zval = 20.0
     Generated in analytical, separable form
     Using radial grid of 1265 points,  6 beta functions with:
                l(1) =   0
                l(2) =   0
                l(3) =   1
                l(4) =   1
                l(5) =   2
                l(6) =   3

     PseudoPot. # 2 for Eu read from file:
     /home/cwx6513/pp.La/Eu.UPF
     MD5 check sum: 5efdbbfc50c6a10138933a6429836ad2
     Pseudo is Norm-conserving, Zval = 17.0
     Generated in analytical, separable form
     Using radial grid of 1261 points,  6 beta functions with:
                l(1) =   0
                l(2) =   0
                l(3) =   1
                l(4) =   1
                l(5) =   2
                l(6) =   3

     atomic species   valence    mass     pseudopotential
        Mg            20.00    24.30500     Dy( 1.00)
        Zn            17.00    65.39000     Eu( 1.00)

     24 Sym. Ops., with inversion, found (12 have fractional translation)

   Cartesian axes

     site n.     atom                  positions (alat units)
         1           Mg  tau(   1) = (  -0.0000005   0.6145337   0.1084661  )
         2           Mg  tau(   2) = (   0.5322020   0.3072664   0.9654274  )
         3           Mg  tau(   3) = (   0.5322020   0.3072664   1.6054564  )
         4           Mg  tau(   4) = (  -0.0000005   0.6145337   0.7484952  )
         5           Zn  tau(   5) = (   0.0000000   0.0000000   0.0000000  )
         6           Zn  tau(   6) = (   0.0000000   0.0000000   0.8569613  )
         7           Zn  tau(   7) = (   0.0000000   0.3163318   1.2854419  )
         8           Zn  tau(   8) = (   0.7904516   0.1581659   0.4284806  )
         9           Zn  tau(   9) = (   0.2739514   0.1581659   0.4284806  )
        10           Zn  tau(  10) = (   0.2582501   0.7636341   1.2854419  )
        11           Zn  tau(  11) = (  -0.2582501   0.7636341   1.2854419  )
        12           Zn  tau(  12) = (   0.5322015   0.6054682   0.4284806  )

     number of k points=    12  gaussian smearing, width (Ry)=  0.1000
                       cart. coord. in units 2pi/alat
        k(    1) = (   0.0000000   0.0000000   0.0000000), wk =   0.0833333
        k(    2) = (   0.0000000   0.0000000   0.1458642), wk =   0.1666667
        k(    3) = (   0.0000000   0.0000000  -0.2917285), wk =   0.0833333
        k(    4) = (   0.0000000   0.3616113   0.0000000), wk =   0.1666667
        k(    5) = (   0.0000000   0.3616113   0.1458642), wk =   0.3333333
        k(    6) = (   0.0000000   0.3616113  -0.2917285), wk =   0.1666667
        k(    7) = (  -0.4697469  -0.2712085   0.0000000), wk =   0.0833333
        k(    8) = (  -0.4697469  -0.2712085   0.1458642), wk =   0.1666667
        k(    9) = (  -0.4697469  -0.2712085  -0.2917285), wk =   0.0833333
        k(   10) = (  -0.4697469   0.0904028   0.0000000), wk =   0.1666667
        k(   11) = (  -0.4697469   0.0904028   0.1458642), wk =   0.3333333
        k(   12) = (  -0.4697469   0.0904028  -0.2917285), wk =   0.1666667

     Largest allocated arrays     est. size (Mb)     dimensions
     Largest temporary arrays     est. size (Mb)     dimensions

     Initial potential from superposition of free atoms

     Starting from uniform charge
     Starting wfc are    0 randomized atomic wfcs

     Writing output data file Prototype-La-hP12-MgZn2.save

     Self-consistent Calculation

[...]

     iteration #  9     ecut=    40.00 Ry     beta=0.70
     CG style diagonalization
     c_bands:  1 eigenvalues not converged
     c_bands:  1 eigenvalues not converged
     c_bands:  1 eigenvalues not converged
     c_bands:  2 eigenvalues not converged
     c_bands:  1 eigenvalues not converged
     ethr =  4.16E-06,  avg # of iterations =  4.4

[...]

     total energy              =   -2443.47565834 Ry
     Harris-Foulkes estimate   =   -2443.47593333 Ry
     estimated scf accuracy    <       0.00073488 Ry

     iteration # 11     ecut=    40.00 Ry     beta=0.70
     CG style diagonalization
     ethr =  3.40E-07,  avg # of iterations =  3.6

     End of self-consistent calculation

[...]

          k = 0.0000 0.3616-0.2917 (  7012 PWs)   bands (ev):

[...]

          k =-0.4697 0.0904-0.2917 (  7028 PWs)   bands (ev):

   -58.5433 -58.5432 -58.5396 -58.5395 -39.4381 -39.4381 -39.3386 -39.3386
   -39.2172 -39.2172 -39.1907 -39.1907 -25.4518 -25.4518 -25.4317 -25.4317
   -25.4230 -25.4230 -25.4177 -25.4177 -25.4094 -25.4094 -25.4036 -25.4036
   -13.0909 -13.0909 -12.7302 -12.7302 -12.3741 -12.3741 -12.3468 -12.3468
   -12.2714 -12.2714 -12.1460 -12.1460 -11.9361 -11.9361 -11.8074 -11.8074
   -11.7070 -11.7070 -11.6488 -11.6488 -11.5571 -11.5571 -11.4891 -11.4891
    15.0476  15.0476  15.1377  15.1377  15.2085  15.2085  15.3755  15.3756
    15.5163  15.5163  15.5807  15.5807  15.8296  15.8296  15.8660  15.8660
    16.1101  16.1101  16.3102  16.3102  17.0734  17.0734  17.3148  17.3148
    17.7863  17.7864  18.1906  18.1906  18.3770  18.3770  18.6328  18.6328
    18.8280  18.8280  19.2948  19.2948  19.6339  19.6339  19.7795  19.7796
    20.0012  20.0012  20.5604  20.5604  20.7298  20.7298  21.1501  21.1501
    21.4318  21.4318  21.6711  21.6711  21.8789  21.8789  22.3033  22.3033
    22.5994  22.5995  22.7855  22.7855  23.1538  23.1538  24.0936  24.0936
    24.7246  24.7246  26.1220  26.1220  26.9541  26.9541  27.3949  27.3949
    28.4769  28.4770  29.7531  29.7532  31.1049  31.1050  31.5496  31.5496
    31.9038  31.9040

     the Fermi energy is    23.6281 ev

!    total energy              =   -2443.47583446 Ry
     Harris-Foulkes estimate   =   -2443.47589722 Ry
     estimated scf accuracy    <       0.00006939 Ry

     The total energy is the sum of the following terms:

     one-electron contribution =    -362.45178347 Ry
     hartree contribution      =     337.40389281 Ry
     xc contribution           =    -241.58570010 Ry
     ewald contribution        =   -2176.28344578 Ry
     smearing contrib. (-TS)   =      -0.55879793 Ry

     convergence has been achieved in  11 iterations

     Forces acting on atoms (Ry/au):

     atom    1 type  1   force =     0.00000000    0.00000000    0.01621708
     atom    2 type  1   force =     0.00000000    0.00000000    0.01621708
     atom    3 type  1   force =     0.00000000    0.00000000   -0.01621708
     atom    4 type  1   force =     0.00000000    0.00000000   -0.01621708
     atom    5 type  2   force =     0.00000000    0.00000000    0.00000000
     atom    6 type  2   force =     0.00000000    0.00000000    0.00000000
     atom    7 type  2   force =     0.00000000   -0.01079644    0.00000000
     atom    8 type  2   force =     0.00934999   -0.00539822    0.00000000
     atom    9 type  2   force =    -0.00934999   -0.00539822    0.00000000
     atom   10 type  2   force =     0.00934999    0.00539822    0.00000000
     atom   11 type  2   force =    -0.00934999    0.00539822    0.00000000
     atom   12 type  2   force =     0.00000000    0.01079644    0.00000000

     Total force =     0.041849     Total SCF correction =     0.000000

     entering subroutine stress ...

          total   stress  (Ry/bohr**3)                   (kbar)     P= -154.69
  -0.00104833   0.00000000   0.00000000       -154.22      0.00      0.00
   0.00000000  -0.00104833   0.00000000          0.00   -154.22      0.00
   0.00000000   0.00000000  -0.00105804          0.00      0.00   -155.64

     Writing output data file Prototype-La-hP12-MgZn2.save

     General routines

     Parallel routines

   This run was terminated on:   5: 4:45  23Mar2018

   JOB DONE.