     Program PWSCF v.5.0.2 starts on 22Mar2018 at 12: 4:22

     Current dimensions of program PWSCF are:
     Max number of different atomic species (ntypx) = 10
     Max number of k-points (npk) =  40000
     Max angular momentum in pseudopotentials (lmaxx) =  3
     Waiting for input...
     Reading input from standard input

     Subspace diagonalization in iterative solution of the eigenvalue problem:
     a serial algorithm will be used

     bravais-lattice index     =            0
     lattice parameter (alat)  =      13.3930  a.u.
     unit-cell volume          =    1134.0956 (a.u.)^3
     number of atoms/cell      =            4
     number of atomic types    =            2
     number of electrons       =        88.00
     number of Kohn-Sham states=           53
     kinetic-energy cutoff     =      40.0000  Ry
     charge density cutoff     =     160.0000  Ry
     convergence threshold     =      1.0E-04
     mixing beta               =       0.7000
     number of iterations used =            8  plain     mixing
     Exchange-correlation      = SLA-PZ-NOGX-NOGC ( 1 1 0 0 0)
     EXX-fraction              =        0.00
     nstep                     =           50

     celldm(1)=  13.392972  celldm(2)=   0.000000  celldm(3)=   0.000000
     celldm(4)=   0.000000  celldm(5)=   0.000000  celldm(6)=   0.000000

     crystal axes: (cart. coord. in units of alat)
               a(1) = (   1.000000   0.000000   0.000000 )
               a(2) = (  -0.776311   0.630350   0.000000 )
               a(3) = (   0.000000   0.000000   0.748922 )

     reciprocal axes: (cart. coord. in units 2 pi/alat)
               b(1) = (  1.000000  1.231554  0.000000 )
               b(2) = (  0.000000  1.586419  0.000000 )
               b(3) = (  0.000000  0.000000  1.335252 )

     PseudoPot. # 1 for Yb read from file:
     /home/jld5415/pp.La/Yb.UPF
     MD5 check sum: 3e859b81cc28c53ec6aa3a2e888efcdf
     Pseudo is Norm-conserving, Zval = 24.0
     Generated in analytical, separable form
     Using radial grid of 1269 points,  6 beta functions with:
                l(1) =   0
                l(2) =   0
                l(3) =   1
                l(4) =   1
                l(5) =   2
                l(6) =   3

     PseudoPot. # 2 for Dy read from file:
     /home/jld5415/pp.La/Dy.UPF
     MD5 check sum: 9597327bec62616a94a14d07f3fd9936
     Pseudo is Norm-conserving, Zval = 20.0
     Generated in analytical, separable form
     Using radial grid of 1265 points,  6 beta functions with:
                l(1) =   0
                l(2) =   0
                l(3) =   1
                l(4) =   1
                l(5) =   2
                l(6) =   3

     atomic species   valence    mass     pseudopotential
        Tl            24.00   204.38300     Yb( 1.00)
        I             20.00   126.90400     Dy( 1.00)

      2 Sym. Ops., with inversion, found
          (note:  2 additional sym.ops. were found but ignored
           their fractional translations are incommensurate with FFT grid)

   Cartesian axes

     site n.     atom                  positions (alat units)
         1           Tl  tau(   1) = (  -0.0906317   0.3870269   0.5616917  )
         2           Tl  tau(   2) = (   0.3143210   0.2433234   0.1872306  )
         3           I   tau(   3) = (  -0.5408004   0.5467760   0.5616917  )
         4           I   tau(   4) = (   0.7644896   0.0835744   0.1872306  )

     number of k points=   106  gaussian smearing, width (Ry)=  0.1000

     Number of k-points >= 100: set verbosity='high' to print them.

     Largest allocated arrays     est. size (Mb)     dimensions
     Largest temporary arrays     est. size (Mb)     dimensions

     Initial potential from superposition of free atoms

     Starting from uniform charge
     Starting wfc are    0 randomized atomic wfcs

     Self-consistent Calculation

     iteration #  1     ecut=    40.00 Ry     beta=0.70
     CG style diagonalization
     ethr =  1.00E-02,  avg # of iterations = 20.5

     total energy              =    -938.64459338 Ry
     Harris-Foulkes estimate   =   -1927.93987084 Ry
     estimated scf accuracy    <    1198.68985379 Ry

     iteration #  2     ecut=    40.00 Ry     beta=0.70
     CG style diagonalization
     c_bands:  1 eigenvalues not converged
     c_bands:  1 eigenvalues not converged
     c_bands:  1 eigenvalues not converged
     c_bands:  1 eigenvalues not converged
     c_bands:  1 eigenvalues not converged
     c_bands:  1 eigenvalues not converged
     c_bands:  1 eigenvalues not converged
     c_bands:  1 eigenvalues not converged
     c_bands:  1 eigenvalues not converged
     c_bands:  1 eigenvalues not converged
     c_bands:  1 eigenvalues not converged
     c_bands:  1 eigenvalues not converged
     c_bands:  1 eigenvalues not converged
     c_bands:  1 eigenvalues not converged
     ethr =  1.00E-02,  avg # of iterations = 12.2

[...]

     End of self-consistent calculation

     Number of k-points >= 100: set verbosity='high' to print the bands.

     the Fermi energy is    10.7066 ev

!    total energy              =   -1340.75663411 Ry
     Harris-Foulkes estimate   =   -1340.75664018 Ry
     estimated scf accuracy    <       0.00000724 Ry

     The total energy is the sum of the following terms:

     one-electron contribution =    -758.80582317 Ry
     hartree contribution      =     373.73724670 Ry
     xc contribution           =    -109.62280082 Ry
     ewald contribution        =    -845.89328930 Ry
     smearing contrib. (-TS)   =      -0.17196752 Ry

     convergence has been achieved in  11 iterations

     Forces acting on atoms (Ry/au):

     atom    1 type  1   force =     0.00745259   -0.00389852   -0.01082405
     atom    2 type  1   force =    -0.00745259    0.00389852    0.01082405
     atom    3 type  2   force =     0.00175721   -0.00124442   -0.00704708
     atom    4 type  2   force =    -0.00175721    0.00124442    0.00704708

     Total force =     0.022009     Total SCF correction =     0.000000

     entering subroutine stress ...

          total   stress  (Ry/bohr**3)                   (kbar)     P= -442.26
  -0.00293177  -0.00003699   0.00000005       -431.28     -5.44      0.01
  -0.00003699  -0.00302247  -0.00000004         -5.44   -444.62     -0.01
   0.00000005  -0.00000004  -0.00306504          0.01     -0.01   -450.88

     BFGS Geometry Optimization

     number of scf cycles    =   1
     number of bfgs steps    =   0

     enthalpy new            =   -1340.7566341119 Ry

     new trust radius        =       0.5000000000 bohr
     new conv_thr            =       0.0001000000 Ry

     new unit-cell volume =    903.95110 a.u.^3 (   133.95173 Ang^3 )

CELL_PARAMETERS (alat= 13.39297219)
   0.928991732  -0.000895968   0.000001136
  -0.721751043   0.584901043  -0.000001484
   0.000000851  -0.000000715   0.693325154

ATOMIC_POSITIONS (crystal)
Tl       0.386204791   0.613539616   0.748954521
Tl       0.613795209   0.386460384   0.251045479
I        0.132600250   0.867273194   0.749319333
I        0.867399750   0.132726806   0.250680667

     Writing output data file Prototype-La-oS8-TlI.save
     NEW-OLD atomic charge density approx. for the potential
     NEW k-points: (use verbosity='high' to print them)

[...]

     enthalpy old            =   -1340.7566341119 Ry
     enthalpy new            =   -1341.3064760652 Ry

     CASE: enthalpy_new < enthalpy_old

     small trust_radius: resetting bfgs history

[...]

     number of scf cycles    =   3
     number of bfgs steps    =   2

     enthalpy old            =   -1341.3064760652 Ry
     enthalpy new            =   -1341.4235856986 Ry

     CASE: enthalpy_new < enthalpy_old

     Message from routine bfgs:
     history already reset at previous step: stopping
     small trust_radius: resetting bfgs history

     new trust radius        =       0.0710515535 bohr
     new conv_thr            =       0.0000211031 Ry

     new unit-cell volume =    770.71029 a.u.^3 (   114.20748 Ang^3 )

[...]

ATOMIC_POSITIONS (crystal)
Tl       0.386815950   0.612838095   0.747811851
Tl       0.613184050   0.387161905   0.252188149
I        0.131306566   0.868649596   0.748474971
I        0.868693434   0.131350404   0.251525029

     Writing output data file Prototype-La-oS8-TlI.save
     NEW-OLD atomic charge density approx. for the potential
     NEW k-points: (use verbosity='high' to print them)

[...]

     The maximum number of steps has been reached.

     End of BFGS Geometry Optimization
Begin final coordinates
     new unit-cell volume =    770.71029 a.u.^3 (   114.20748 Ang^3 )

CELL_PARAMETERS (alat= 13.39297219)
   0.885627800  -0.004219749   0.000061163
  -0.690182407   0.554918084  -0.000060395
   0.000045620  -0.000015263   0.656691620

ATOMIC_POSITIONS (crystal)
Tl       0.386815950   0.612838095   0.747811851
Tl       0.613184050   0.387161905   0.252188149
I        0.131306566   0.868649596   0.748474971
I        0.868693434   0.131350404   0.251525029
End final coordinates

     A final scf calculation at the relaxed structure.
     The G-vectors are recalculated for the final unit cell
     Results may differ from those at the preceding step.

     bravais-lattice index     =            0
     lattice parameter (alat)  =      13.3930  a.u.
     unit-cell volume          =     770.7103 (a.u.)^3
     number of atoms/cell      =            4
     number of atomic types    =            2
     number of electrons       =        88.00
     number of Kohn-Sham states=           53
     kinetic-energy cutoff     =      40.0000  Ry
     charge density cutoff     =     160.0000  Ry
     convergence threshold     =      2.1E-05
     mixing beta               =       0.7000
     number of iterations used =            8  plain     mixing
     Exchange-correlation      = SLA-PZ-NOGX-NOGC ( 1 1 0 0 0)
     EXX-fraction              =        0.00

     celldm(1)=  13.392972  celldm(2)=   0.000000  celldm(3)=   0.000000
     celldm(4)=   0.000000  celldm(5)=   0.000000  celldm(6)=   0.000000

     crystal axes: (cart. coord. in units of alat)
               a(1) = (   0.885628  -0.004220   0.000061 )
               a(2) = (  -0.690182   0.554918  -0.000060 )
               a(3) = (   0.000046  -0.000015   0.656692 )

     reciprocal axes: (cart. coord. in units 2 pi/alat)
               b(1) = (  1.135874  1.412749 -0.000046 )
               b(2) = (  0.008637  1.812811  0.000042 )
               b(3) = ( -0.000105  0.000035  1.522785 )

     PseudoPot. # 1 for Yb read from file:
     /home/jld5415/pp.La/Yb.UPF
     MD5 check sum: 3e859b81cc28c53ec6aa3a2e888efcdf
     Pseudo is Norm-conserving, Zval = 24.0
     Generated in analytical, separable form
     Using radial grid of 1269 points,  6 beta functions with:
                l(1) =   0
                l(2) =   0
                l(3) =   1
                l(4) =   1
                l(5) =   2
                l(6) =   3

     PseudoPot. # 2 for Dy read from file:
     /home/jld5415/pp.La/Dy.UPF
     MD5 check sum: 9597327bec62616a94a14d07f3fd9936
     Pseudo is Norm-conserving, Zval = 20.0
     Generated in analytical, separable form
     Using radial grid of 1265 points,  6 beta functions with:
                l(1) =   0
                l(2) =   0
                l(3) =   1
                l(4) =   1
                l(5) =   2
                l(6) =   3

     atomic species   valence    mass     pseudopotential
        Tl            24.00   204.38300     Yb( 1.00)
        I             20.00   126.90400     Dy( 1.00)

      2 Sym. Ops., with inversion, found
          (note:  2 additional sym.ops. were found but ignored
           their fractional translations are incommensurate with FFT grid)

   Cartesian axes

     site n.     atom                  positions (alat units)
         1           Tl  tau(   1) = (  -0.0803610   0.3384313   0.4910684  )
         2           Tl  tau(   2) = (   0.2758520   0.2122518   0.1656240  )
         3           I   tau(   3) = (  -0.4832038   0.4814639   0.4914728  )
         4           I   tau(   4) = (   0.6786948   0.0692192   0.1652196  )

     number of k points=   106  gaussian smearing, width (Ry)=  0.1000

     Number of k-points >= 100: set verbosity='high' to print them.

     Largest allocated arrays     est. size (Mb)     dimensions
     Largest temporary arrays     est. size (Mb)     dimensions

     Initial potential from superposition of free atoms

     Starting from uniform charge
     Starting wfc are    0 randomized atomic wfcs

     Writing output data file Prototype-La-oS8-TlI.save

     Self-consistent Calculation

[...]

     iteration #  9     ecut=    40.00 Ry     beta=0.70
     CG style diagonalization
     c_bands:  1 eigenvalues not converged
     c_bands:  1 eigenvalues not converged
     c_bands:  1 eigenvalues not converged
     c_bands:  1 eigenvalues not converged
     ethr =  1.81E-06,  avg # of iterations =  4.4

[...]

     total energy              =   -1340.64965215 Ry
     Harris-Foulkes estimate   =   -1340.64966474 Ry
     estimated scf accuracy    <       0.00002240 Ry

     iteration # 11     ecut=    40.00 Ry     beta=0.70
     CG style diagonalization
     ethr =  2.55E-08,  avg # of iterations =  4.2

     End of self-consistent calculation

     Number of k-points >= 100: set verbosity='high' to print the bands.

     the Fermi energy is    18.6090 ev

!    total energy              =   -1340.64966605 Ry
     Harris-Foulkes estimate   =   -1340.64966721 Ry
     estimated scf accuracy    <       0.00000159 Ry

     The total energy is the sum of the following terms:

     one-electron contribution =    -570.59341456 Ry
     hartree contribution      =     302.72086726 Ry
     xc contribution           =    -110.61501363 Ry
     ewald contribution        =    -962.03657822 Ry
     smearing contrib. (-TS)   =      -0.12552689 Ry

     convergence has been achieved in  11 iterations

     Forces acting on atoms (Ry/au):

     atom    1 type  1   force =     0.00535396   -0.00131182    0.01098496
     atom    2 type  1   force =    -0.00535396    0.00131182   -0.01098496
     atom    3 type  2   force =    -0.01644675    0.00650862    0.00932885
     atom    4 type  2   force =     0.01644675   -0.00650862   -0.00932885

     Total force =     0.033195     Total SCF correction =     0.000000

     entering subroutine stress ...

          total   stress  (Ry/bohr**3)                   (kbar)     P= -390.67
  -0.00256992  -0.00007939   0.00000029       -378.05    -11.68      0.04
  -0.00007939  -0.00276803  -0.00000001        -11.68   -407.19      0.00
   0.00000029  -0.00000001  -0.00262918          0.04      0.00   -386.77

     Writing output data file Prototype-La-oS8-TlI.save

     General routines

     Parallel routines

   This run was terminated on:  12:51:27  22Mar2018

   JOB DONE.