     Program PWSCF v.5.0.2 starts on 22Mar2018 at 12: 4:21

     Current dimensions of program PWSCF are:
     Max number of different atomic species (ntypx) = 10
     Max number of k-points (npk) =  40000
     Max angular momentum in pseudopotentials (lmaxx) =  3
     Waiting for input...
     Reading input from standard input

     Subspace diagonalization in iterative solution of the eigenvalue problem:
     a serial algorithm will be used

     bravais-lattice index     =            0
     lattice parameter (alat)  =      12.0168  a.u.
     unit-cell volume          =    1187.3413 (a.u.)^3
     number of atoms/cell      =            8
     number of atomic types    =            2
     number of electrons       =       184.00
     number of Kohn-Sham states=          110
     kinetic-energy cutoff     =      40.0000  Ry
     charge density cutoff     =     160.0000  Ry
     convergence threshold     =      1.0E-04
     mixing beta               =       0.7000
     number of iterations used =            8  plain     mixing
     Exchange-correlation      = SLA-PZ-NOGX-NOGC ( 1 1 0 0 0)
     EXX-fraction              =        0.00
     nstep                     =           50

     celldm(1)=  12.016801  celldm(2)=   0.000000  celldm(3)=   0.000000
     celldm(4)=   0.000000  celldm(5)=   0.000000  celldm(6)=   0.000000

     crystal axes: (cart. coord. in units of alat)
               a(1) = (   1.000000   0.000000   0.000000 )
               a(2) = (  -0.500000   0.866025   0.000000 )
               a(3) = (   0.000000   0.000000   0.790093 )

     reciprocal axes: (cart. coord. in units 2 pi/alat)
               b(1) = (  1.000000  0.577350  0.000000 )
               b(2) = (  0.000000  1.154701  0.000000 )
               b(3) = (  0.000000  0.000000  1.265674 )

     PseudoPot. # 1 for Yb read from file:
     /home/jld5415/pp.La/Yb.UPF
     MD5 check sum: 3e859b81cc28c53ec6aa3a2e888efcdf
     Pseudo is Norm-conserving, Zval = 24.0
     Generated in analytical, separable form
     Using radial grid of 1269 points,  6 beta functions with:
                l(1) =   0
                l(2) =   0
                l(3) =   1
                l(4) =   1
                l(5) =   2
                l(6) =   3

     PseudoPot. # 2 for Dy read from file:
     /home/jld5415/pp.La/Dy.UPF
     MD5 check sum: 9597327bec62616a94a14d07f3fd9936
     Pseudo is Norm-conserving, Zval = 20.0
     Generated in analytical, separable form
     Using radial grid of 1265 points,  6 beta functions with:
                l(1) =   0
                l(2) =   0
                l(3) =   1
                l(4) =   1
                l(5) =   2
                l(6) =   3

     atomic species   valence    mass     pseudopotential
        Mg            24.00    24.30500     Yb( 1.00)
        Cd            20.00   112.41100     Dy( 1.00)

     24 Sym. Ops., with inversion, found (12 have fractional translation)

   Cartesian axes

     site n.     atom                  positions (alat units)
         1           Mg  tau(   1) = (   0.2478935   0.7204716   0.1975233  )
         2           Mg  tau(   2) = (   0.7478935   0.1455538   0.5925699  )
         3           Mg  tau(   3) = (   0.2521065   0.1455538   0.5925699  )
         4           Mg  tau(   4) = (  -0.2478935   0.7204716   0.1975233  )
         5           Mg  tau(   5) = (   0.0000000   0.2911075   0.1975233  )
         6           Mg  tau(   6) = (   0.5000000   0.5749179   0.5925699  )
         7           Cd  tau(   7) = (   0.5000005   0.2886748   0.1975233  )
         8           Cd  tau(   8) = (  -0.0000005   0.5773506   0.5925699  )

     number of k points=    64  gaussian smearing, width (Ry)=  0.1000
                       cart. coord. in units 2pi/alat
        k(    1) = (   0.0000000   0.0000000   0.0000000), wk =   0.0095238
        k(    2) = (   0.0000000   0.0000000   0.1808105), wk =   0.0190476
        k(    3) = (   0.0000000   0.0000000   0.3616210), wk =   0.0190476
        k(    4) = (   0.0000000   0.0000000   0.5424315), wk =   0.0190476
        k(    5) = (   0.0000000   0.1924501   0.0000000), wk =   0.0190476
        k(    6) = (   0.0000000   0.1924501   0.1808105), wk =   0.0380952
        k(    7) = (   0.0000000   0.1924501   0.3616210), wk =   0.0380952
        k(    8) = (   0.0000000   0.1924501   0.5424315), wk =   0.0380952
        k(    9) = (   0.0000000   0.3849002   0.0000000), wk =   0.0190476
        k(   10) = (   0.0000000   0.3849002   0.1808105), wk =   0.0380952
        k(   11) = (   0.0000000   0.3849002   0.3616210), wk =   0.0380952
        k(   12) = (   0.0000000   0.3849002   0.5424315), wk =   0.0380952
        k(   13) = (   0.0000000  -0.5773503   0.0000000), wk =   0.0095238
        k(   14) = (   0.0000000  -0.5773503   0.1808105), wk =   0.0190476
        k(   15) = (   0.0000000  -0.5773503   0.3616210), wk =   0.0190476
        k(   16) = (   0.0000000  -0.5773503   0.5424315), wk =   0.0190476
        k(   17) = (   0.2000000   0.1154701   0.0000000), wk =   0.0190476
        k(   18) = (   0.2000000   0.1154701   0.1808105), wk =   0.0380952
        k(   19) = (   0.2000000   0.1154701   0.3616210), wk =   0.0380952
        k(   20) = (   0.2000000   0.1154701   0.5424315), wk =   0.0380952
        k(   21) = (   0.2000000   0.3079201   0.0000000), wk =   0.0190476
        k(   22) = (   0.2000000   0.3079201   0.1808105), wk =   0.0380952
        k(   23) = (   0.2000000   0.3079201   0.3616210), wk =   0.0380952
        k(   24) = (   0.2000000   0.3079201   0.5424315), wk =   0.0380952
        k(   25) = (   0.2000000   0.5003702   0.0000000), wk =   0.0190476
        k(   26) = (   0.2000000   0.5003702   0.1808105), wk =   0.0380952
        k(   27) = (   0.2000000   0.5003702   0.3616210), wk =   0.0380952
        k(   28) = (   0.2000000   0.5003702   0.5424315), wk =   0.0380952
        k(   29) = (   0.2000000  -0.4618802   0.0000000), wk =   0.0190476
        k(   30) = (   0.2000000  -0.4618802   0.1808105), wk =   0.0380952
        k(   31) = (   0.2000000  -0.4618802   0.3616210), wk =   0.0380952
        k(   32) = (   0.2000000  -0.4618802   0.5424315), wk =   0.0380952
        k(   33) = (   0.2000000  -0.2694301   0.0000000), wk =   0.0190476
        k(   34) = (   0.2000000  -0.2694301   0.1808105), wk =   0.0380952
        k(   35) = (   0.2000000  -0.2694301   0.3616210), wk =   0.0380952
        k(   36) = (   0.2000000  -0.2694301   0.5424315), wk =   0.0380952
        k(   37) = (   0.2000000  -0.0769800   0.0000000), wk =   0.0190476
        k(   38) = (   0.2000000  -0.0769800   0.1808105), wk =   0.0380952
        k(   39) = (   0.2000000  -0.0769800   0.3616210), wk =   0.0380952
        k(   40) = (   0.2000000  -0.0769800   0.5424315), wk =   0.0380952
        k(   41) = (   0.4000000   0.2309401   0.0000000), wk =   0.0190476
        k(   42) = (   0.4000000   0.2309401   0.1808105), wk =   0.0380952
        k(   43) = (   0.4000000   0.2309401   0.3616210), wk =   0.0380952
        k(   44) = (   0.4000000   0.2309401   0.5424315), wk =   0.0380952
        k(   45) = (   0.4000000   0.4233902   0.0000000), wk =   0.0190476
        k(   46) = (   0.4000000   0.4233902   0.1808105), wk =   0.0380952
        k(   47) = (   0.4000000   0.4233902   0.3616210), wk =   0.0380952
        k(   48) = (   0.4000000   0.4233902   0.5424315), wk =   0.0380952
        k(   49) = (   0.4000000   0.6158403   0.0000000), wk =   0.0190476
        k(   50) = (   0.4000000   0.6158403   0.1808105), wk =   0.0380952
        k(   51) = (   0.4000000   0.6158403   0.3616210), wk =   0.0380952
        k(   52) = (   0.4000000   0.6158403   0.5424315), wk =   0.0380952
        k(   53) = (   0.4000000  -0.3464102   0.0000000), wk =   0.0190476
        k(   54) = (   0.4000000  -0.3464102   0.1808105), wk =   0.0380952
        k(   55) = (   0.4000000  -0.3464102   0.3616210), wk =   0.0380952
        k(   56) = (   0.4000000  -0.3464102   0.5424315), wk =   0.0380952
        k(   57) = (   0.4000000  -0.1539601   0.0000000), wk =   0.0190476
        k(   58) = (   0.4000000  -0.1539601   0.1808105), wk =   0.0380952
        k(   59) = (   0.4000000  -0.1539601   0.3616210), wk =   0.0380952
        k(   60) = (   0.4000000  -0.1539601   0.5424315), wk =   0.0380952
        k(   61) = (   0.4000000   0.0384900   0.0000000), wk =   0.0190476
        k(   62) = (   0.4000000   0.0384900   0.1808105), wk =   0.0380952
        k(   63) = (   0.4000000   0.0384900   0.3616210), wk =   0.0380952
        k(   64) = (   0.4000000   0.0384900   0.5424315), wk =   0.0380952

     Largest allocated arrays     est. size (Mb)     dimensions
     Largest temporary arrays     est. size (Mb)     dimensions

     Initial potential from superposition of free atoms

     Starting from uniform charge
     Starting wfc are    0 randomized atomic wfcs

     Self-consistent Calculation

     iteration #  1     ecut=    40.00 Ry     beta=0.70
     CG style diagonalization
     c_bands:  5 eigenvalues not converged
     c_bands:  5 eigenvalues not converged
     c_bands:  4 eigenvalues not converged
     c_bands:  4 eigenvalues not converged
     c_bands:  4 eigenvalues not converged
     c_bands:  3 eigenvalues not converged
     c_bands:  5 eigenvalues not converged
     c_bands:  4 eigenvalues not converged
     c_bands:  3 eigenvalues not converged
     c_bands:  3 eigenvalues not converged
     c_bands:  4 eigenvalues not converged
     c_bands:  4 eigenvalues not converged
     c_bands:  5 eigenvalues not converged
     c_bands:  5 eigenvalues not converged
     c_bands:  5 eigenvalues not converged
     c_bands:  5 eigenvalues not converged
     c_bands:  3 eigenvalues not converged
     c_bands:  5 eigenvalues not converged
     ethr =  1.00E-02,  avg # of iterations = 17.9

     total energy              =   -2393.30683815 Ry
     Harris-Foulkes estimate   =   -3885.60761714 Ry
     estimated scf accuracy    <    1830.55155758 Ry

     iteration #  2     ecut=    40.00 Ry     beta=0.70
     CG style diagonalization
     ethr =  1.00E-02,  avg # of iterations = 15.9

[...]

     End of self-consistent calculation

          k = 0.0000 0.0000 0.0000 (  5047 PWs)   bands (ev):

   -97.4460 -97.4459 -97.4400 -97.3821 -97.3820 -97.3440 -56.2706 -56.2688
   -56.2685 -56.2459 -56.2458 -56.2188 -56.2184 -56.2183 -56.2170 -56.2170
   -56.2168 -56.2126 -56.2125 -56.2080 -56.2045 -56.1894 -56.1894 -56.1863
   -56.1862 -56.1804 -23.2346 -23.2289 -23.1885 -23.1885 -23.1828 -23.1828
     1.3230   1.3692   1.3692   1.4120   1.5155   1.5394   1.5632   1.5633
     1.6024   1.6025   1.6257   1.6710   1.6710   1.8194   1.8738   1.8739
     1.8983   1.9195   1.9196   1.9803   1.9804   2.0150   2.0151   2.1095
     2.1096   2.2152   2.2152   2.2153   2.2877   2.2891  10.1335  14.2755
    14.2756  14.2965  16.1048  16.1049  16.3958  17.4919  17.4920  17.5430
    17.5431  18.0418  18.2965  18.2965  18.7951  18.7951  18.8153  19.1193
    19.7863  21.7743  21.7744  22.3739  22.3740  22.8241  22.8242  24.4002
    24.7598  25.2624  26.5964  26.8563  26.8563  27.1010  27.1010  27.8161
[...]
        k(   14) = (   0.0000000  -0.5867030   0.1836168), wk =   0.0190476
        k(   15) = (   0.0000000  -0.5867030   0.3672335), wk =   0.0190476
        k(   16) = (   0.0000000  -0.5867030   0.5508503), wk =   0.0190476
        k(   17) = (   0.2032399   0.1173406   0.0000000), wk =   0.0190476
        k(   18) = (   0.2032399   0.1173406   0.1836168), wk =   0.0380952
        k(   19) = (   0.2032399   0.1173406   0.3672335), wk =   0.0380952
        k(   20) = (   0.2032399   0.1173406   0.5508503), wk =   0.0380952
        k(   21) = (   0.2032399   0.3129083   0.0000000), wk =   0.0190476
        k(   22) = (   0.2032399   0.3129083   0.1836168), wk =   0.0380952
        k(   23) = (   0.2032399   0.3129083   0.3672335), wk =   0.0380952
        k(   24) = (   0.2032399   0.3129083   0.5508503), wk =   0.0380952
        k(   25) = (   0.2032399   0.5084760   0.0000000), wk =   0.0190476
        k(   26) = (   0.2032399   0.5084760   0.1836168), wk =   0.0380952
        k(   27) = (   0.2032399   0.5084760   0.3672335), wk =   0.0380952
        k(   28) = (   0.2032399   0.5084760   0.5508503), wk =   0.0380952
        k(   29) = (   0.2032399  -0.4693624   0.0000000), wk =   0.0190476
        k(   30) = (   0.2032399  -0.4693624   0.1836168), wk =   0.0380952
        k(   31) = (   0.2032399  -0.4693624   0.3672335), wk =   0.0380952
        k(   32) = (   0.2032399  -0.4693624   0.5508503), wk =   0.0380952
        k(   33) = (   0.2032399  -0.2737948   0.0000000), wk =   0.0190476
        k(   34) = (   0.2032399  -0.2737948   0.1836168), wk =   0.0380952
        k(   35) = (   0.2032399  -0.2737948   0.3672335), wk =   0.0380952
        k(   36) = (   0.2032399  -0.2737948   0.5508503), wk =   0.0380952
        k(   37) = (   0.2032399  -0.0782271   0.0000000), wk =   0.0190476
        k(   38) = (   0.2032399  -0.0782271   0.1836168), wk =   0.0380952
        k(   39) = (   0.2032399  -0.0782271   0.3672335), wk =   0.0380952
        k(   40) = (   0.2032399  -0.0782271   0.5508503), wk =   0.0380952
        k(   41) = (   0.4064798   0.2346812   0.0000000), wk =   0.0190476
        k(   42) = (   0.4064798   0.2346812   0.1836168), wk =   0.0380952
        k(   43) = (   0.4064798   0.2346812   0.3672335), wk =   0.0380952
        k(   44) = (   0.4064798   0.2346812   0.5508503), wk =   0.0380952
        k(   45) = (   0.4064798   0.4302489   0.0000000), wk =   0.0190476
        k(   46) = (   0.4064798   0.4302489   0.1836168), wk =   0.0380952
        k(   47) = (   0.4064798   0.4302489   0.3672335), wk =   0.0380952
        k(   48) = (   0.4064798   0.4302489   0.5508503), wk =   0.0380952
        k(   49) = (   0.4064798   0.6258166   0.0000000), wk =   0.0190476
        k(   50) = (   0.4064798   0.6258166   0.1836168), wk =   0.0380952
        k(   51) = (   0.4064798   0.6258166   0.3672335), wk =   0.0380952
        k(   52) = (   0.4064798   0.6258166   0.5508503), wk =   0.0380952
        k(   53) = (   0.4064798  -0.3520218   0.0000000), wk =   0.0190476
        k(   54) = (   0.4064798  -0.3520218   0.1836168), wk =   0.0380952
        k(   55) = (   0.4064798  -0.3520218   0.3672335), wk =   0.0380952
        k(   56) = (   0.4064798  -0.3520218   0.5508503), wk =   0.0380952
        k(   57) = (   0.4064798  -0.1564541   0.0000000), wk =   0.0190476
        k(   58) = (   0.4064798  -0.1564541   0.1836168), wk =   0.0380952
        k(   59) = (   0.4064798  -0.1564541   0.3672335), wk =   0.0380952
        k(   60) = (   0.4064798  -0.1564541   0.5508503), wk =   0.0380952
        k(   61) = (   0.4064798   0.0391135   0.0000000), wk =   0.0190476
        k(   62) = (   0.4064798   0.0391135   0.1836168), wk =   0.0380952
        k(   63) = (   0.4064798   0.0391135   0.3672335), wk =   0.0380952
        k(   64) = (   0.4064798   0.0391135   0.5508503), wk =   0.0380952

[...]

     The maximum number of steps has been reached.

     End of BFGS Geometry Optimization
Begin final coordinates
     new unit-cell volume =   1132.21521 a.u.^3 (   167.77698 Ang^3 )

CELL_PARAMETERS (alat= 12.01680127)
   0.984058769   0.000000000   0.000000000
  -0.492029385   0.852219893   0.000000000
   0.000000000   0.000000000   0.778018002

ATOMIC_POSITIONS (crystal)
Mg       0.662293117   0.831146558   0.250000000
Mg       0.831146558   0.168853442   0.750000000
Mg       0.337706883   0.168853442   0.750000000
Mg       0.168853442   0.831146558   0.250000000
Mg       0.168853442   0.337706883   0.250000000
Mg       0.831146558   0.662293117   0.750000000
Cd       0.666667000   0.333333000   0.250000000
Cd       0.333333000   0.666667000   0.750000000
End final coordinates

     A final scf calculation at the relaxed structure.
     The G-vectors are recalculated for the final unit cell
     Results may differ from those at the preceding step.

     bravais-lattice index     =            0
     lattice parameter (alat)  =      12.0168  a.u.
     unit-cell volume          =    1132.2152 (a.u.)^3
     number of atoms/cell      =            8
     number of atomic types    =            2
     number of electrons       =       184.00
     number of Kohn-Sham states=          110
     kinetic-energy cutoff     =      40.0000  Ry
     charge density cutoff     =     160.0000  Ry
     convergence threshold     =      1.0E-04
     mixing beta               =       0.7000
     number of iterations used =            8  plain     mixing
     Exchange-correlation      = SLA-PZ-NOGX-NOGC ( 1 1 0 0 0)
     EXX-fraction              =        0.00

     celldm(1)=  12.016801  celldm(2)=   0.000000  celldm(3)=   0.000000
     celldm(4)=   0.000000  celldm(5)=   0.000000  celldm(6)=   0.000000

     crystal axes: (cart. coord. in units of alat)
               a(1) = (   0.984059   0.000000   0.000000 )
               a(2) = (  -0.492029   0.852220   0.000000 )
               a(3) = (   0.000000   0.000000   0.778018 )

     reciprocal axes: (cart. coord. in units 2 pi/alat)
               b(1) = (  1.016199  0.586703  0.000000 )
               b(2) = (  0.000000  1.173406  0.000000 )
               b(3) = (  0.000000  0.000000  1.285317 )

     PseudoPot. # 1 for Yb read from file:
     /home/jld5415/pp.La/Yb.UPF
     MD5 check sum: 3e859b81cc28c53ec6aa3a2e888efcdf
     Pseudo is Norm-conserving, Zval = 24.0
     Generated in analytical, separable form
     Using radial grid of 1269 points,  6 beta functions with:
                l(1) =   0
                l(2) =   0
                l(3) =   1
                l(4) =   1
                l(5) =   2
                l(6) =   3

     PseudoPot. # 2 for Dy read from file:
     /home/jld5415/pp.La/Dy.UPF
     MD5 check sum: 9597327bec62616a94a14d07f3fd9936
     Pseudo is Norm-conserving, Zval = 20.0
     Generated in analytical, separable form
     Using radial grid of 1265 points,  6 beta functions with:
                l(1) =   0
                l(2) =   0
                l(3) =   1
                l(4) =   1
                l(5) =   2
                l(6) =   3

     atomic species   valence    mass     pseudopotential
        Mg            24.00    24.30500     Yb( 1.00)
        Cd            20.00   112.41100     Dy( 1.00)

     24 Sym. Ops., with inversion, found (12 have fractional translation)

   Cartesian axes

     site n.     atom                  positions (alat units)
         1           Mg  tau(   1) = (   0.2427868   0.7083196   0.1945045  )
         2           Mg  tau(   2) = (   0.7348162   0.1439003   0.5835135  )
         3           Mg  tau(   3) = (   0.2492426   0.1439003   0.5835135  )
         4           Mg  tau(   4) = (  -0.2427868   0.7083196   0.1945045  )
         5           Mg  tau(   5) = (   0.0000000   0.2878005   0.1945045  )
         6           Mg  tau(   6) = (   0.4920294   0.5644194   0.5835135  )
         7           Cd  tau(   7) = (   0.4920299   0.2840730   0.1945045  )
         8           Cd  tau(   8) = (  -0.0000005   0.5681469   0.5835135  )

     number of k points=    64  gaussian smearing, width (Ry)=  0.1000
                       cart. coord. in units 2pi/alat
        k(    1) = (   0.0000000   0.0000000   0.0000000), wk =   0.0095238
        k(    2) = (   0.0000000   0.0000000   0.1836168), wk =   0.0190476
        k(    3) = (   0.0000000   0.0000000   0.3672335), wk =   0.0190476
        k(    4) = (   0.0000000   0.0000000   0.5508503), wk =   0.0190476
        k(    5) = (   0.0000000   0.1955677   0.0000000), wk =   0.0190476
        k(    6) = (   0.0000000   0.1955677   0.1836168), wk =   0.0380952
        k(    7) = (   0.0000000   0.1955677   0.3672335), wk =   0.0380952
        k(    8) = (   0.0000000   0.1955677   0.5508503), wk =   0.0380952
        k(    9) = (   0.0000000   0.3911354   0.0000000), wk =   0.0190476
        k(   10) = (   0.0000000   0.3911354   0.1836168), wk =   0.0380952
        k(   11) = (   0.0000000   0.3911354   0.3672335), wk =   0.0380952
        k(   12) = (   0.0000000   0.3911354   0.5508503), wk =   0.0380952
        k(   13) = (   0.0000000  -0.5867030   0.0000000), wk =   0.0095238
        k(   14) = (   0.0000000  -0.5867030   0.1836168), wk =   0.0190476
        k(   15) = (   0.0000000  -0.5867030   0.3672335), wk =   0.0190476
        k(   16) = (   0.0000000  -0.5867030   0.5508503), wk =   0.0190476
        k(   17) = (   0.2032399   0.1173406   0.0000000), wk =   0.0190476
        k(   18) = (   0.2032399   0.1173406   0.1836168), wk =   0.0380952
        k(   19) = (   0.2032399   0.1173406   0.3672335), wk =   0.0380952
        k(   20) = (   0.2032399   0.1173406   0.5508503), wk =   0.0380952
        k(   21) = (   0.2032399   0.3129083   0.0000000), wk =   0.0190476
        k(   22) = (   0.2032399   0.3129083   0.1836168), wk =   0.0380952
        k(   23) = (   0.2032399   0.3129083   0.3672335), wk =   0.0380952
        k(   24) = (   0.2032399   0.3129083   0.5508503), wk =   0.0380952
        k(   25) = (   0.2032399   0.5084760   0.0000000), wk =   0.0190476
        k(   26) = (   0.2032399   0.5084760   0.1836168), wk =   0.0380952
        k(   27) = (   0.2032399   0.5084760   0.3672335), wk =   0.0380952
        k(   28) = (   0.2032399   0.5084760   0.5508503), wk =   0.0380952
        k(   29) = (   0.2032399  -0.4693624   0.0000000), wk =   0.0190476
        k(   30) = (   0.2032399  -0.4693624   0.1836168), wk =   0.0380952
        k(   31) = (   0.2032399  -0.4693624   0.3672335), wk =   0.0380952
        k(   32) = (   0.2032399  -0.4693624   0.5508503), wk =   0.0380952
        k(   33) = (   0.2032399  -0.2737948   0.0000000), wk =   0.0190476
        k(   34) = (   0.2032399  -0.2737948   0.1836168), wk =   0.0380952
        k(   35) = (   0.2032399  -0.2737948   0.3672335), wk =   0.0380952
        k(   36) = (   0.2032399  -0.2737948   0.5508503), wk =   0.0380952
        k(   37) = (   0.2032399  -0.0782271   0.0000000), wk =   0.0190476
        k(   38) = (   0.2032399  -0.0782271   0.1836168), wk =   0.0380952
        k(   39) = (   0.2032399  -0.0782271   0.3672335), wk =   0.0380952
        k(   40) = (   0.2032399  -0.0782271   0.5508503), wk =   0.0380952
        k(   41) = (   0.4064798   0.2346812   0.0000000), wk =   0.0190476
        k(   42) = (   0.4064798   0.2346812   0.1836168), wk =   0.0380952
        k(   43) = (   0.4064798   0.2346812   0.3672335), wk =   0.0380952
        k(   44) = (   0.4064798   0.2346812   0.5508503), wk =   0.0380952
        k(   45) = (   0.4064798   0.4302489   0.0000000), wk =   0.0190476
        k(   46) = (   0.4064798   0.4302489   0.1836168), wk =   0.0380952
        k(   47) = (   0.4064798   0.4302489   0.3672335), wk =   0.0380952
        k(   48) = (   0.4064798   0.4302489   0.5508503), wk =   0.0380952
        k(   49) = (   0.4064798   0.6258166   0.0000000), wk =   0.0190476
        k(   50) = (   0.4064798   0.6258166   0.1836168), wk =   0.0380952
        k(   51) = (   0.4064798   0.6258166   0.3672335), wk =   0.0380952
        k(   52) = (   0.4064798   0.6258166   0.5508503), wk =   0.0380952
        k(   53) = (   0.4064798  -0.3520218   0.0000000), wk =   0.0190476
        k(   54) = (   0.4064798  -0.3520218   0.1836168), wk =   0.0380952
        k(   55) = (   0.4064798  -0.3520218   0.3672335), wk =   0.0380952
        k(   56) = (   0.4064798  -0.3520218   0.5508503), wk =   0.0380952
        k(   57) = (   0.4064798  -0.1564541   0.0000000), wk =   0.0190476
        k(   58) = (   0.4064798  -0.1564541   0.1836168), wk =   0.0380952
        k(   59) = (   0.4064798  -0.1564541   0.3672335), wk =   0.0380952
        k(   60) = (   0.4064798  -0.1564541   0.5508503), wk =   0.0380952
        k(   61) = (   0.4064798   0.0391135   0.0000000), wk =   0.0190476
        k(   62) = (   0.4064798   0.0391135   0.1836168), wk =   0.0380952
        k(   63) = (   0.4064798   0.0391135   0.3672335), wk =   0.0380952
        k(   64) = (   0.4064798   0.0391135   0.5508503), wk =   0.0380952

     Largest allocated arrays     est. size (Mb)     dimensions
     Largest temporary arrays     est. size (Mb)     dimensions

     Initial potential from superposition of free atoms

     Starting from uniform charge
     Starting wfc are    0 randomized atomic wfcs

     Writing output data file Prototype-La-hP8-Mg3Cd.save

     Self-consistent Calculation

[...]

     iteration # 10     ecut=    40.00 Ry     beta=0.70
     CG style diagonalization
     c_bands:  1 eigenvalues not converged
     ethr =  2.61E-07,  avg # of iterations =  4.0

     total energy              =   -2978.09338484 Ry
     Harris-Foulkes estimate   =   -2978.09352240 Ry
     estimated scf accuracy    <       0.00025659 Ry

     iteration # 11     ecut=    40.00 Ry     beta=0.70
     CG style diagonalization
     ethr =  1.39E-07,  avg # of iterations =  3.5

     End of self-consistent calculation

[...]

          k = 0.4065 0.0391 0.5509 (  4838 PWs)   bands (ev):

   -96.0016 -95.9897 -95.9768 -95.9691 -95.9560 -95.9461 -54.9494 -54.9481
   -54.7949 -54.7927 -54.7894 -54.7858 -54.7852 -54.7818 -54.7766 -54.7710
   -54.7652 -54.7636 -54.7615 -54.7593 -54.7553 -54.7522 -54.7504 -54.7487
   -54.7457 -54.7435 -21.9251 -21.9233 -21.8885 -21.8872 -21.8862 -21.8831
     2.7706   2.7758   2.8396   2.8707   2.8828   2.8933   2.9544   3.0040
     3.0053   3.0113   3.0946   3.1146   3.1367   3.2287   3.2411   3.2471
     3.2601   3.3125   3.3275   3.3405   3.3762   3.4177   3.4263   3.4295
     3.4838   3.5088   3.5974   3.6140   3.6551   3.6986  13.0326  13.9275
    14.8756  15.2919  16.0052  16.3423  18.1855  18.2900  18.4860  18.5631
    18.8670  18.9030  19.3357  19.4356  19.6630  19.7809  20.6261  21.0061
    21.4799  22.1916  23.5410  23.9840  25.3467  25.4322  26.1692  26.2605
    27.5339  28.0221  28.1927  28.6409  29.1626  29.6850  29.8273  29.9663
    30.8224  31.0570  31.5103  31.9918  32.2407  32.5387  32.9332  33.2893
    33.9050  34.2540  34.6649  35.0326  35.4396  35.6317

     the Fermi energy is    28.5773 ev

!    total energy              =   -2978.09342944 Ry
     Harris-Foulkes estimate   =   -2978.09343716 Ry
     estimated scf accuracy    <       0.00000876 Ry

     The total energy is the sum of the following terms:

     one-electron contribution =    -928.21606650 Ry
     hartree contribution      =     541.88677164 Ry
     xc contribution           =    -239.49359100 Ry
     ewald contribution        =   -2351.98867975 Ry
     smearing contrib. (-TS)   =      -0.28186383 Ry

     convergence has been achieved in  11 iterations

     Forces acting on atoms (Ry/au):

     atom    1 type  1   force =     0.00678227    0.00391574    0.00000000
     atom    2 type  1   force =     0.00678227   -0.00391574    0.00000000
     atom    3 type  1   force =    -0.00678227   -0.00391574    0.00000000
     atom    4 type  1   force =    -0.00678227    0.00391574    0.00000000
     atom    5 type  1   force =     0.00000000   -0.00783149    0.00000000
     atom    6 type  1   force =     0.00000000    0.00783149    0.00000000
     atom    7 type  2   force =     0.00000000    0.00000000    0.00000000
     atom    8 type  2   force =     0.00000000    0.00000000    0.00000000

     Total force =     0.019183     Total SCF correction =     0.000000

     entering subroutine stress ...

          total   stress  (Ry/bohr**3)                   (kbar)     P=   50.27
   0.00032815   0.00000000   0.00000000         48.27      0.00      0.00
   0.00000000   0.00032815   0.00000000          0.00     48.27      0.00
   0.00000000   0.00000000   0.00036879          0.00      0.00     54.25

     Writing output data file Prototype-La-hP8-Mg3Cd.save

     General routines

     Parallel routines

   This run was terminated on:  12:59:37  22Mar2018

   JOB DONE.