     Program PWSCF v.5.0.2 starts on 22Mar2018 at 16: 9: 9

     Current dimensions of program PWSCF are:
     Max number of different atomic species (ntypx) = 10
     Max number of k-points (npk) =  40000
     Max angular momentum in pseudopotentials (lmaxx) =  3
     Waiting for input...
     Reading input from standard input

     Subspace diagonalization in iterative solution of the eigenvalue problem:
     a serial algorithm will be used

     bravais-lattice index     =            0
     lattice parameter (alat)  =       8.5346  a.u.
     unit-cell volume          =     621.6493 (a.u.)^3
     number of atoms/cell      =            8
     number of atomic types    =            2
     number of electrons       =       186.00
     number of Kohn-Sham states=          112
     kinetic-energy cutoff     =      40.0000  Ry
     charge density cutoff     =     160.0000  Ry
     convergence threshold     =      1.0E-04
     mixing beta               =       0.7000
     number of iterations used =            8  plain     mixing
     Exchange-correlation      = SLA-PZ-NOGX-NOGC ( 1 1 0 0 0)
     EXX-fraction              =        0.00
     nstep                     =           50

     celldm(1)=   8.534573  celldm(2)=   0.000000  celldm(3)=   0.000000
     celldm(4)=   0.000000  celldm(5)=   0.000000  celldm(6)=   0.000000

     crystal axes: (cart. coord. in units of alat)
               a(1) = (   1.000000   0.000000   0.000000 )
               a(2) = (   0.000000   1.000000   0.000000 )
               a(3) = (   0.000000   0.000000   1.000000 )

     reciprocal axes: (cart. coord. in units 2 pi/alat)
               b(1) = (  1.000000  0.000000  0.000000 )
               b(2) = (  0.000000  1.000000  0.000000 )
               b(3) = (  0.000000  0.000000  1.000000 )

     PseudoPot. # 1 for Tm read from file:
     /home/cwx6513/pp.La/Tm.UPF
     MD5 check sum: 245516e0878b5372ceeb9443ded2c4e1
     Pseudo is Norm-conserving, Zval = 23.0
     Generated in analytical, separable form
     Using radial grid of 1269 points,  6 beta functions with:
                l(1) =   0
                l(2) =   0
                l(3) =   1
                l(4) =   1
                l(5) =   2
                l(6) =   3

     PseudoPot. # 2 for Yb read from file:
     /home/cwx6513/pp.La/Yb.UPF
     MD5 check sum: 3e859b81cc28c53ec6aa3a2e888efcdf
     Pseudo is Norm-conserving, Zval = 24.0
     Generated in analytical, separable form
     Using radial grid of 1269 points,  6 beta functions with:
                l(1) =   0
                l(2) =   0
                l(3) =   1
                l(4) =   1
                l(5) =   2
                l(6) =   3

     atomic species   valence    mass     pseudopotential
        Cr            23.00    51.99610     Tm( 1.00)
        Si            24.00    28.08550     Yb( 1.00)

     48 Sym. Ops., with inversion, found (24 have fractional translation)

   Cartesian axes

     site n.     atom                  positions (alat units)
         1           Cr  tau(   1) = (   0.0000000   0.5000000   0.2500000  )
         2           Cr  tau(   2) = (   0.0000000   0.5000000   0.7500000  )
         3           Cr  tau(   3) = (   0.5000000   0.7500000   0.0000000  )
         4           Cr  tau(   4) = (   0.5000000   0.2500000   0.0000000  )
         5           Cr  tau(   5) = (   0.7500000   0.0000000   0.5000000  )
         6           Cr  tau(   6) = (   0.2500000   0.0000000   0.5000000  )
         7           Si  tau(   7) = (   0.5000000   0.5000000   0.5000000  )
         8           Si  tau(   8) = (   0.0000000   0.0000000   0.0000000  )

     number of k points=    48  gaussian smearing, width (Ry)=  0.1000
                       cart. coord. in units 2pi/alat
        k(    1) = (   0.0000000   0.0000000   0.0000000), wk =   0.0095238
        k(    2) = (   0.0000000   0.0000000   0.1428571), wk =   0.0190476
        k(    3) = (   0.0000000   0.0000000   0.2857143), wk =   0.0190476
        k(    4) = (   0.0000000   0.0000000   0.4285714), wk =   0.0190476
        k(    5) = (   0.0000000   0.1666667   0.0000000), wk =   0.0190476
        k(    6) = (   0.0000000   0.1666667   0.1428571), wk =   0.0380952
        k(    7) = (   0.0000000   0.1666667   0.2857143), wk =   0.0380952
        k(    8) = (   0.0000000   0.1666667   0.4285714), wk =   0.0380952
        k(    9) = (   0.0000000   0.3333333   0.0000000), wk =   0.0190476
        k(   10) = (   0.0000000   0.3333333   0.1428571), wk =   0.0380952
        k(   11) = (   0.0000000   0.3333333   0.2857143), wk =   0.0380952
        k(   12) = (   0.0000000   0.3333333   0.4285714), wk =   0.0380952
        k(   13) = (   0.0000000  -0.5000000   0.0000000), wk =   0.0095238
        k(   14) = (   0.0000000  -0.5000000   0.1428571), wk =   0.0190476
        k(   15) = (   0.0000000  -0.5000000   0.2857143), wk =   0.0190476
        k(   16) = (   0.0000000  -0.5000000   0.4285714), wk =   0.0190476
        k(   17) = (   0.2000000   0.0000000   0.0000000), wk =   0.0190476
        k(   18) = (   0.2000000   0.0000000   0.1428571), wk =   0.0380952
        k(   19) = (   0.2000000   0.0000000   0.2857143), wk =   0.0380952
        k(   20) = (   0.2000000   0.0000000   0.4285714), wk =   0.0380952
        k(   21) = (   0.2000000   0.1666667   0.0000000), wk =   0.0380952
        k(   22) = (   0.2000000   0.1666667   0.1428571), wk =   0.0761905
        k(   23) = (   0.2000000   0.1666667   0.2857143), wk =   0.0761905
        k(   24) = (   0.2000000   0.1666667   0.4285714), wk =   0.0761905
        k(   25) = (   0.2000000   0.3333333   0.0000000), wk =   0.0380952
        k(   26) = (   0.2000000   0.3333333   0.1428571), wk =   0.0761905
        k(   27) = (   0.2000000   0.3333333   0.2857143), wk =   0.0761905
        k(   28) = (   0.2000000   0.3333333   0.4285714), wk =   0.0761905
        k(   29) = (   0.2000000  -0.5000000   0.0000000), wk =   0.0190476
        k(   30) = (   0.2000000  -0.5000000   0.1428571), wk =   0.0380952
        k(   31) = (   0.2000000  -0.5000000   0.2857143), wk =   0.0380952
        k(   32) = (   0.2000000  -0.5000000   0.4285714), wk =   0.0380952
        k(   33) = (   0.4000000   0.0000000   0.0000000), wk =   0.0190476
        k(   34) = (   0.4000000   0.0000000   0.1428571), wk =   0.0380952
        k(   35) = (   0.4000000   0.0000000   0.2857143), wk =   0.0380952
        k(   36) = (   0.4000000   0.0000000   0.4285714), wk =   0.0380952
        k(   37) = (   0.4000000   0.1666667   0.0000000), wk =   0.0380952
        k(   38) = (   0.4000000   0.1666667   0.1428571), wk =   0.0761905
        k(   39) = (   0.4000000   0.1666667   0.2857143), wk =   0.0761905
        k(   40) = (   0.4000000   0.1666667   0.4285714), wk =   0.0761905
        k(   41) = (   0.4000000   0.3333333   0.0000000), wk =   0.0380952
        k(   42) = (   0.4000000   0.3333333   0.1428571), wk =   0.0761905
        k(   43) = (   0.4000000   0.3333333   0.2857143), wk =   0.0761905
        k(   44) = (   0.4000000   0.3333333   0.4285714), wk =   0.0761905
        k(   45) = (   0.4000000  -0.5000000   0.0000000), wk =   0.0190476
        k(   46) = (   0.4000000  -0.5000000   0.1428571), wk =   0.0380952
        k(   47) = (   0.4000000  -0.5000000   0.2857143), wk =   0.0380952
        k(   48) = (   0.4000000  -0.5000000   0.4285714), wk =   0.0380952

     Largest allocated arrays     est. size (Mb)     dimensions
     Largest temporary arrays     est. size (Mb)     dimensions

     Initial potential from superposition of free atoms

     Starting from uniform charge
     Starting wfc are    0 randomized atomic wfcs

     Self-consistent Calculation

     iteration #  1     ecut=    40.00 Ry     beta=0.70
     CG style diagonalization
     ethr =  1.00E-02,  avg # of iterations = 17.3

     total energy              =   -2626.44973755 Ry
     Harris-Foulkes estimate   =   -3529.41740816 Ry
     estimated scf accuracy    <    1128.36803270 Ry

     iteration #  2     ecut=    40.00 Ry     beta=0.70
     CG style diagonalization
     c_bands:  1 eigenvalues not converged
     c_bands:  1 eigenvalues not converged
     c_bands:  1 eigenvalues not converged
     c_bands:  1 eigenvalues not converged
     ethr =  1.00E-02,  avg # of iterations =  8.8

[...]

     End of self-consistent calculation

          k = 0.0000 0.0000 0.0000 (  2601 PWs)   bands (ev):

   -71.5181 -71.4321 -59.2633 -59.2633 -59.1337 -58.8645 -58.8645 -58.8645
   -30.5836 -30.5836 -30.5836 -30.5705 -30.5705 -30.5705 -19.5936 -19.5936
   -19.4809 -18.1724 -18.1724 -18.1724 -17.8451 -17.8451 -17.8451 -17.7705
   -17.7705 -17.7705 -17.6897 -17.6897 -17.6897 -17.4407 -17.4407 -17.4407
    24.1622  24.1622  25.0616  25.5522  25.5522  25.5522  25.5560  25.5560
    26.0353  26.0353  26.0353  26.2426  26.2426  26.3944  26.3944  26.3944
    27.7659  27.7659  27.7659  27.8452  28.1629  28.4603  30.0917  30.0917
    30.0917  30.6152  30.6152  30.8528  30.8528  30.8528  31.9758  31.9758
    32.4040  32.4040  32.4040  32.4310  32.4310  32.4310  32.6638  32.6638
    32.6638  40.2521  40.2521  40.2521  41.5778  42.1318  42.1318  46.7509
    48.4788  48.4788  48.4788  49.4589  49.4589  49.7330  49.7330  49.7330
    51.4419  51.4419  51.4419  53.0348  53.0348  53.0348  53.5987  53.5987
    53.5987  53.9520  56.0743  56.0743  56.0743  58.5202  59.7834  59.7834
    59.7835  60.2525  60.2525  60.2526  60.6943  60.7315  60.7316  62.9883

[...]

     the Fermi energy is    54.1107 ev

!    total energy              =   -3010.41413109 Ry
     Harris-Foulkes estimate   =   -3010.41413440 Ry
     estimated scf accuracy    <       0.00000426 Ry

     The total energy is the sum of the following terms:

     one-electron contribution =    -168.51640510 Ry
     hartree contribution      =     333.79594662 Ry
     xc contribution           =    -254.42747264 Ry
     ewald contribution        =   -2920.86906517 Ry
     smearing contrib. (-TS)   =      -0.39713480 Ry

     convergence has been achieved in   8 iterations

     Forces acting on atoms (Ry/au):

     atom    1 type  1   force =     0.00000000    0.00000000    0.00000000
     atom    2 type  1   force =     0.00000000    0.00000000    0.00000000
     atom    3 type  1   force =     0.00000000    0.00000000    0.00000000
     atom    4 type  1   force =     0.00000000    0.00000000    0.00000000
     atom    5 type  1   force =     0.00000000    0.00000000    0.00000000
     atom    6 type  1   force =     0.00000000    0.00000000    0.00000000
     atom    7 type  2   force =     0.00000000    0.00000000    0.00000000
     atom    8 type  2   force =     0.00000000    0.00000000    0.00000000

     Total force =     0.000000     Total SCF correction =     0.000000

     entering subroutine stress ...

          total   stress  (Ry/bohr**3)                   (kbar)     P= 6110.78
   0.04154027   0.00000000   0.00000000       6110.78      0.00      0.00
   0.00000000   0.04154027   0.00000000          0.00   6110.78      0.00
   0.00000000   0.00000000   0.04154027          0.00      0.00   6110.78

     BFGS Geometry Optimization

     number of scf cycles    =   1
[...]

     enthalpy old            =   -3014.7586940361 Ry
     enthalpy new            =   -3011.1967998244 Ry

     CASE: enthalpy_new > enthalpy_old

     new trust radius        =       0.1381922007 bohr

     trust_radius < trust_radius_min

     resetting bfgs history

     Message from routine bfgs:
     history already reset at previous step: stopping
     new conv_thr            =       0.0000010000 Ry

     new unit-cell volume =   1047.62101 a.u.^3 (   155.24142 Ang^3 )

[...]

ATOMIC_POSITIONS (crystal)
Cr       0.000000000   0.500000000   0.250000000
Cr       0.000000000   0.500000000   0.750000000
Cr       0.500000000   0.750000000   0.000000000
Cr       0.500000000   0.250000000   0.000000000
Cr       0.750000000   0.000000000   0.500000000
Cr       0.250000000   0.000000000   0.500000000
Si       0.500000000   0.500000000   0.500000000
Si       0.000000000   0.000000000   0.000000000

     Writing output data file Prototype-La-cP8-Cr3Si.save
     NEW-OLD atomic charge density approx. for the potential
     NEW k-points:
        k(    1) = (   0.0000000   0.0000000   0.0000000), wk =   0.0095238
        k(    2) = (   0.0000000   0.0000000   0.1200464), wk =   0.0190476
        k(    3) = (   0.0000000   0.0000000   0.2400927), wk =   0.0190476
        k(    4) = (   0.0000000   0.0000000   0.3601391), wk =   0.0190476
        k(    5) = (   0.0000000   0.1400541   0.0000000), wk =   0.0190476
        k(    6) = (   0.0000000   0.1400541   0.1200464), wk =   0.0380952
        k(    7) = (   0.0000000   0.1400541   0.2400927), wk =   0.0380952
        k(    8) = (   0.0000000   0.1400541   0.3601391), wk =   0.0380952
        k(    9) = (   0.0000000   0.2801082   0.0000000), wk =   0.0190476
        k(   10) = (   0.0000000   0.2801082   0.1200464), wk =   0.0380952
        k(   11) = (   0.0000000   0.2801082   0.2400927), wk =   0.0380952
        k(   12) = (   0.0000000   0.2801082   0.3601391), wk =   0.0380952
        k(   13) = (   0.0000000  -0.4201623   0.0000000), wk =   0.0095238
        k(   14) = (   0.0000000  -0.4201623   0.1200464), wk =   0.0190476
        k(   15) = (   0.0000000  -0.4201623   0.2400927), wk =   0.0190476
        k(   16) = (   0.0000000  -0.4201623   0.3601391), wk =   0.0190476
        k(   17) = (   0.1680649   0.0000000   0.0000000), wk =   0.0190476
        k(   18) = (   0.1680649   0.0000000   0.1200464), wk =   0.0380952
        k(   19) = (   0.1680649   0.0000000   0.2400927), wk =   0.0380952
        k(   20) = (   0.1680649   0.0000000   0.3601391), wk =   0.0380952
        k(   21) = (   0.1680649   0.1400541   0.0000000), wk =   0.0380952
        k(   22) = (   0.1680649   0.1400541   0.1200464), wk =   0.0761905
        k(   23) = (   0.1680649   0.1400541   0.2400927), wk =   0.0761905
        k(   24) = (   0.1680649   0.1400541   0.3601391), wk =   0.0761905
        k(   25) = (   0.1680649   0.2801082   0.0000000), wk =   0.0380952
        k(   26) = (   0.1680649   0.2801082   0.1200464), wk =   0.0761905
        k(   27) = (   0.1680649   0.2801082   0.2400927), wk =   0.0761905
        k(   28) = (   0.1680649   0.2801082   0.3601391), wk =   0.0761905
        k(   29) = (   0.1680649  -0.4201623   0.0000000), wk =   0.0190476
        k(   30) = (   0.1680649  -0.4201623   0.1200464), wk =   0.0380952
        k(   31) = (   0.1680649  -0.4201623   0.2400927), wk =   0.0380952
        k(   32) = (   0.1680649  -0.4201623   0.3601391), wk =   0.0380952
        k(   33) = (   0.3361298   0.0000000   0.0000000), wk =   0.0190476
        k(   34) = (   0.3361298   0.0000000   0.1200464), wk =   0.0380952
        k(   35) = (   0.3361298   0.0000000   0.2400927), wk =   0.0380952
        k(   36) = (   0.3361298   0.0000000   0.3601391), wk =   0.0380952
        k(   37) = (   0.3361298   0.1400541   0.0000000), wk =   0.0380952
        k(   38) = (   0.3361298   0.1400541   0.1200464), wk =   0.0761905
        k(   39) = (   0.3361298   0.1400541   0.2400927), wk =   0.0761905
        k(   40) = (   0.3361298   0.1400541   0.3601391), wk =   0.0761905
        k(   41) = (   0.3361298   0.2801082   0.0000000), wk =   0.0380952
        k(   42) = (   0.3361298   0.2801082   0.1200464), wk =   0.0761905
        k(   43) = (   0.3361298   0.2801082   0.2400927), wk =   0.0761905
        k(   44) = (   0.3361298   0.2801082   0.3601391), wk =   0.0761905
        k(   45) = (   0.3361298  -0.4201623   0.0000000), wk =   0.0190476
        k(   46) = (   0.3361298  -0.4201623   0.1200464), wk =   0.0380952
        k(   47) = (   0.3361298  -0.4201623   0.2400927), wk =   0.0380952
        k(   48) = (   0.3361298  -0.4201623   0.3601391), wk =   0.0380952

[...]

          total   stress  (Ry/bohr**3)                   (kbar)     P=-1783.18
  -0.01212179   0.00000000   0.00000000      -1783.18      0.00      0.00
   0.00000000  -0.01212179   0.00000000          0.00  -1783.18      0.00
   0.00000000   0.00000000  -0.01212179          0.00      0.00  -1783.18

     The maximum number of steps has been reached.

     End of BFGS Geometry Optimization
Begin final coordinates
     new unit-cell volume =   1047.62101 a.u.^3 (   155.24142 Ang^3 )

CELL_PARAMETERS (alat=  8.53457320)
   1.190016344   0.000000000   0.000000000
   0.000000000   1.190016344   0.000000000
   0.000000000   0.000000000   1.190016344

ATOMIC_POSITIONS (crystal)
Cr       0.000000000   0.500000000   0.250000000
Cr       0.000000000   0.500000000   0.750000000
Cr       0.500000000   0.750000000   0.000000000
Cr       0.500000000   0.250000000   0.000000000
Cr       0.750000000   0.000000000   0.500000000
Cr       0.250000000   0.000000000   0.500000000
Si       0.500000000   0.500000000   0.500000000
Si       0.000000000   0.000000000   0.000000000
End final coordinates

     A final scf calculation at the relaxed structure.
     The G-vectors are recalculated for the final unit cell
     Results may differ from those at the preceding step.

     bravais-lattice index     =            0
     lattice parameter (alat)  =       8.5346  a.u.
     unit-cell volume          =    1047.6210 (a.u.)^3
     number of atoms/cell      =            8
     number of atomic types    =            2
     number of electrons       =       186.00
     number of Kohn-Sham states=          112
     kinetic-energy cutoff     =      40.0000  Ry
     charge density cutoff     =     160.0000  Ry
     convergence threshold     =      1.0E-06
     mixing beta               =       0.7000
     number of iterations used =            8  plain     mixing
     Exchange-correlation      = SLA-PZ-NOGX-NOGC ( 1 1 0 0 0)
     EXX-fraction              =        0.00

     celldm(1)=   8.534573  celldm(2)=   0.000000  celldm(3)=   0.000000
     celldm(4)=   0.000000  celldm(5)=   0.000000  celldm(6)=   0.000000

     crystal axes: (cart. coord. in units of alat)
               a(1) = (   1.190016   0.000000   0.000000 )
               a(2) = (   0.000000   1.190016   0.000000 )
               a(3) = (   0.000000   0.000000   1.190016 )

     reciprocal axes: (cart. coord. in units 2 pi/alat)
               b(1) = (  0.840325  0.000000  0.000000 )
               b(2) = (  0.000000  0.840325  0.000000 )
               b(3) = (  0.000000  0.000000  0.840325 )

     PseudoPot. # 1 for Tm read from file:
     /home/cwx6513/pp.La/Tm.UPF
     MD5 check sum: 245516e0878b5372ceeb9443ded2c4e1
     Pseudo is Norm-conserving, Zval = 23.0
     Generated in analytical, separable form
     Using radial grid of 1269 points,  6 beta functions with:
                l(1) =   0
                l(2) =   0
                l(3) =   1
                l(4) =   1
                l(5) =   2
                l(6) =   3

     PseudoPot. # 2 for Yb read from file:
     /home/cwx6513/pp.La/Yb.UPF
     MD5 check sum: 3e859b81cc28c53ec6aa3a2e888efcdf
     Pseudo is Norm-conserving, Zval = 24.0
     Generated in analytical, separable form
     Using radial grid of 1269 points,  6 beta functions with:
                l(1) =   0
                l(2) =   0
                l(3) =   1
                l(4) =   1
                l(5) =   2
                l(6) =   3

     atomic species   valence    mass     pseudopotential
        Cr            23.00    51.99610     Tm( 1.00)
        Si            24.00    28.08550     Yb( 1.00)

     48 Sym. Ops., with inversion, found (24 have fractional translation)

   Cartesian axes

     site n.     atom                  positions (alat units)
         1           Cr  tau(   1) = (   0.0000000   0.5950082   0.2975041  )
         2           Cr  tau(   2) = (   0.0000000   0.5950082   0.8925123  )
         3           Cr  tau(   3) = (   0.5950082   0.8925123   0.0000000  )
         4           Cr  tau(   4) = (   0.5950082   0.2975041   0.0000000  )
         5           Cr  tau(   5) = (   0.8925123   0.0000000   0.5950082  )
         6           Cr  tau(   6) = (   0.2975041   0.0000000   0.5950082  )
         7           Si  tau(   7) = (   0.5950082   0.5950082   0.5950082  )
         8           Si  tau(   8) = (   0.0000000   0.0000000   0.0000000  )

     number of k points=    48  gaussian smearing, width (Ry)=  0.1000
                       cart. coord. in units 2pi/alat
        k(    1) = (   0.0000000   0.0000000   0.0000000), wk =   0.0095238
        k(    2) = (   0.0000000   0.0000000   0.1200464), wk =   0.0190476
        k(    3) = (   0.0000000   0.0000000   0.2400927), wk =   0.0190476
        k(    4) = (   0.0000000   0.0000000   0.3601391), wk =   0.0190476
        k(    5) = (   0.0000000   0.1400541   0.0000000), wk =   0.0190476
        k(    6) = (   0.0000000   0.1400541   0.1200464), wk =   0.0380952
        k(    7) = (   0.0000000   0.1400541   0.2400927), wk =   0.0380952
        k(    8) = (   0.0000000   0.1400541   0.3601391), wk =   0.0380952
        k(    9) = (   0.0000000   0.2801082   0.0000000), wk =   0.0190476
        k(   10) = (   0.0000000   0.2801082   0.1200464), wk =   0.0380952
        k(   11) = (   0.0000000   0.2801082   0.2400927), wk =   0.0380952
        k(   12) = (   0.0000000   0.2801082   0.3601391), wk =   0.0380952
        k(   13) = (   0.0000000  -0.4201623   0.0000000), wk =   0.0095238
        k(   14) = (   0.0000000  -0.4201623   0.1200464), wk =   0.0190476
        k(   15) = (   0.0000000  -0.4201623   0.2400927), wk =   0.0190476
        k(   16) = (   0.0000000  -0.4201623   0.3601391), wk =   0.0190476
        k(   17) = (   0.1680649   0.0000000   0.0000000), wk =   0.0190476
        k(   18) = (   0.1680649   0.0000000   0.1200464), wk =   0.0380952
        k(   19) = (   0.1680649   0.0000000   0.2400927), wk =   0.0380952
        k(   20) = (   0.1680649   0.0000000   0.3601391), wk =   0.0380952
        k(   21) = (   0.1680649   0.1400541   0.0000000), wk =   0.0380952
        k(   22) = (   0.1680649   0.1400541   0.1200464), wk =   0.0761905
        k(   23) = (   0.1680649   0.1400541   0.2400927), wk =   0.0761905
        k(   24) = (   0.1680649   0.1400541   0.3601391), wk =   0.0761905
        k(   25) = (   0.1680649   0.2801082   0.0000000), wk =   0.0380952
        k(   26) = (   0.1680649   0.2801082   0.1200464), wk =   0.0761905
        k(   27) = (   0.1680649   0.2801082   0.2400927), wk =   0.0761905
        k(   28) = (   0.1680649   0.2801082   0.3601391), wk =   0.0761905
        k(   29) = (   0.1680649  -0.4201623   0.0000000), wk =   0.0190476
        k(   30) = (   0.1680649  -0.4201623   0.1200464), wk =   0.0380952
        k(   31) = (   0.1680649  -0.4201623   0.2400927), wk =   0.0380952
        k(   32) = (   0.1680649  -0.4201623   0.3601391), wk =   0.0380952
        k(   33) = (   0.3361298   0.0000000   0.0000000), wk =   0.0190476
        k(   34) = (   0.3361298   0.0000000   0.1200464), wk =   0.0380952
        k(   35) = (   0.3361298   0.0000000   0.2400927), wk =   0.0380952
        k(   36) = (   0.3361298   0.0000000   0.3601391), wk =   0.0380952
        k(   37) = (   0.3361298   0.1400541   0.0000000), wk =   0.0380952
        k(   38) = (   0.3361298   0.1400541   0.1200464), wk =   0.0761905
        k(   39) = (   0.3361298   0.1400541   0.2400927), wk =   0.0761905
        k(   40) = (   0.3361298   0.1400541   0.3601391), wk =   0.0761905
        k(   41) = (   0.3361298   0.2801082   0.0000000), wk =   0.0380952
        k(   42) = (   0.3361298   0.2801082   0.1200464), wk =   0.0761905
        k(   43) = (   0.3361298   0.2801082   0.2400927), wk =   0.0761905
        k(   44) = (   0.3361298   0.2801082   0.3601391), wk =   0.0761905
        k(   45) = (   0.3361298  -0.4201623   0.0000000), wk =   0.0190476
        k(   46) = (   0.3361298  -0.4201623   0.1200464), wk =   0.0380952
        k(   47) = (   0.3361298  -0.4201623   0.2400927), wk =   0.0380952
        k(   48) = (   0.3361298  -0.4201623   0.3601391), wk =   0.0380952

     Largest allocated arrays     est. size (Mb)     dimensions
     Largest temporary arrays     est. size (Mb)     dimensions

     Initial potential from superposition of free atoms

     Starting from uniform charge
     Starting wfc are    0 randomized atomic wfcs

     Writing output data file Prototype-La-cP8-Cr3Si.save

     Self-consistent Calculation

[...]

     iteration #  9     ecut=    40.00 Ry     beta=0.70
     CG style diagonalization
     c_bands:  1 eigenvalues not converged
     c_bands:  2 eigenvalues not converged
     c_bands:  1 eigenvalues not converged
     ethr =  3.12E-07,  avg # of iterations =  3.8

[...]

     total energy              =   -3021.73774267 Ry
     Harris-Foulkes estimate   =   -3021.73774400 Ry
     estimated scf accuracy    <       0.00000215 Ry

     iteration # 11     ecut=    40.00 Ry     beta=0.70
     CG style diagonalization
     ethr =  1.16E-09,  avg # of iterations =  4.2

     End of self-consistent calculation

[...]

          k = 0.3361-0.4202 0.3601 (  4492 PWs)   bands (ev):

   -92.9367 -92.9364 -80.2010 -80.1973 -80.1958 -80.1953 -80.1936 -80.1900
   -51.7463 -51.7462 -51.7451 -51.7449 -51.7424 -51.7422 -39.0503 -39.0385
   -39.0032 -39.0031 -38.9608 -38.9450 -38.8445 -38.8445 -38.8423 -38.8395
   -38.8390 -38.8382 -38.8368 -38.8350 -38.8331 -38.8311 -38.8247 -38.8246
     5.9742   5.9743   5.9777   5.9777   6.0484   6.0502   6.0540   6.0559
     6.0560   6.0569   9.1942   9.3110   9.5639   9.5761   9.6031   9.6213
     9.6877   9.6941   9.7701   9.7763   9.8795   9.9184   9.9442   9.9483
     9.9934  10.0116  10.0217  10.0334  10.1549  10.1624  10.1731  10.2006
    10.2339  10.2702  10.3518  10.3598  10.3914  10.3934  10.4234  10.4418
    17.1292  17.1293  18.1631  18.1880  18.6637  18.6797  19.5850  19.5858
    28.1979  28.2496  28.6346  28.8641  29.2774  29.6174  30.1478  30.3028
    30.4423  30.6491  31.1683  31.1953  31.5609  31.6200  31.6281  31.8337
    32.1443  32.2624  32.6896  32.7960  32.9502  32.9948  33.5534  33.7098
    38.0042  38.0279  38.3563  38.3691  38.9505  39.0884  39.0992  39.1126

     the Fermi energy is    31.7425 ev

!    total energy              =   -3021.73774401 Ry
     Harris-Foulkes estimate   =   -3021.73774405 Ry
     estimated scf accuracy    <       0.00000005 Ry

     The total energy is the sum of the following terms:

     one-electron contribution =    -848.62793731 Ry
     hartree contribution      =     526.68441713 Ry
     xc contribution           =    -244.98895587 Ry
     ewald contribution        =   -2454.47810839 Ry
     smearing contrib. (-TS)   =      -0.32715958 Ry

     convergence has been achieved in  11 iterations

     Forces acting on atoms (Ry/au):

     atom    1 type  1   force =     0.00000000    0.00000000    0.00000000
     atom    2 type  1   force =     0.00000000    0.00000000    0.00000000
     atom    3 type  1   force =     0.00000000    0.00000000    0.00000000
     atom    4 type  1   force =     0.00000000    0.00000000    0.00000000
     atom    5 type  1   force =     0.00000000    0.00000000    0.00000000
     atom    6 type  1   force =     0.00000000    0.00000000    0.00000000
     atom    7 type  2   force =     0.00000000    0.00000000    0.00000000
     atom    8 type  2   force =     0.00000000    0.00000000    0.00000000

     Total force =     0.000000     Total SCF correction =     0.000000

     entering subroutine stress ...

          total   stress  (Ry/bohr**3)                   (kbar)     P=  299.20
   0.00203394   0.00000000   0.00000000        299.20      0.00      0.00
   0.00000000   0.00203394   0.00000000          0.00    299.20      0.00
   0.00000000   0.00000000   0.00203394          0.00      0.00    299.20

     Writing output data file Prototype-La-cP8-Cr3Si.save

     General routines

     Parallel routines

   This run was terminated on:  16:54:29  22Mar2018

   JOB DONE.