     Program PWSCF v.5.0.2 starts on 22Mar2018 at 22:45:55

     Current dimensions of program PWSCF are:
     Max number of different atomic species (ntypx) = 10
     Max number of k-points (npk) =  40000
     Max angular momentum in pseudopotentials (lmaxx) =  3
     Waiting for input...
     Reading input from standard input

     Subspace diagonalization in iterative solution of the eigenvalue problem:
     a serial algorithm will be used

     bravais-lattice index     =            0
     lattice parameter (alat)  =      12.0168  a.u.
     unit-cell volume          =    1187.3413 (a.u.)^3
     number of atoms/cell      =            8
     number of atomic types    =            2
     number of electrons       =       152.00
     number of Kohn-Sham states=           91
     kinetic-energy cutoff     =      40.0000  Ry
     charge density cutoff     =     160.0000  Ry
     convergence threshold     =      1.0E-04
     mixing beta               =       0.7000
     number of iterations used =            8  plain     mixing
     Exchange-correlation      = SLA-PZ-NOGX-NOGC ( 1 1 0 0 0)
     EXX-fraction              =        0.00
     nstep                     =           50

     celldm(1)=  12.016801  celldm(2)=   0.000000  celldm(3)=   0.000000
     celldm(4)=   0.000000  celldm(5)=   0.000000  celldm(6)=   0.000000

     crystal axes: (cart. coord. in units of alat)
               a(1) = (   1.000000   0.000000   0.000000 )
               a(2) = (  -0.500000   0.866025   0.000000 )
               a(3) = (   0.000000   0.000000   0.790093 )

     reciprocal axes: (cart. coord. in units 2 pi/alat)
               b(1) = (  1.000000  0.577350  0.000000 )
               b(2) = (  0.000000  1.154701  0.000000 )
               b(3) = (  0.000000  0.000000  1.265674 )

     PseudoPot. # 1 for Gd read from file:
     /home/cwx6513/pp.La/Gd.UPF
     MD5 check sum: 09a8be538722f05520810cb6aac0efd2
     Pseudo is Norm-conserving, Zval = 18.0
     Generated in analytical, separable form
     Using radial grid of 1263 points,  6 beta functions with:
                l(1) =   0
                l(2) =   0
                l(3) =   1
                l(4) =   1
                l(5) =   2
                l(6) =   3

     PseudoPot. # 2 for Er read from file:
     /home/cwx6513/pp.La/Er.UPF
     MD5 check sum: e152ae21b84514339d8526f066caf99b
     Pseudo is Norm-conserving, Zval = 22.0
     Generated in analytical, separable form
     Using radial grid of 1267 points,  6 beta functions with:
                l(1) =   0
                l(2) =   0
                l(3) =   1
                l(4) =   1
                l(5) =   2
                l(6) =   3

     atomic species   valence    mass     pseudopotential
        Mg            18.00    24.30500     Gd( 1.00)
        Cd            22.00   112.41100     Er( 1.00)

     24 Sym. Ops., with inversion, found (12 have fractional translation)

   Cartesian axes

     site n.     atom                  positions (alat units)
         1           Mg  tau(   1) = (   0.2478935   0.7204716   0.1975233  )
         2           Mg  tau(   2) = (   0.7478935   0.1455538   0.5925699  )
         3           Mg  tau(   3) = (   0.2521065   0.1455538   0.5925699  )
         4           Mg  tau(   4) = (  -0.2478935   0.7204716   0.1975233  )
         5           Mg  tau(   5) = (   0.0000000   0.2911075   0.1975233  )
         6           Mg  tau(   6) = (   0.5000000   0.5749179   0.5925699  )
         7           Cd  tau(   7) = (   0.5000005   0.2886748   0.1975233  )
         8           Cd  tau(   8) = (  -0.0000005   0.5773506   0.5925699  )

     number of k points=    64  gaussian smearing, width (Ry)=  0.1000
                       cart. coord. in units 2pi/alat
        k(    1) = (   0.0000000   0.0000000   0.0000000), wk =   0.0095238
        k(    2) = (   0.0000000   0.0000000   0.1808105), wk =   0.0190476
        k(    3) = (   0.0000000   0.0000000   0.3616210), wk =   0.0190476
        k(    4) = (   0.0000000   0.0000000   0.5424315), wk =   0.0190476
        k(    5) = (   0.0000000   0.1924501   0.0000000), wk =   0.0190476
        k(    6) = (   0.0000000   0.1924501   0.1808105), wk =   0.0380952
        k(    7) = (   0.0000000   0.1924501   0.3616210), wk =   0.0380952
        k(    8) = (   0.0000000   0.1924501   0.5424315), wk =   0.0380952
        k(    9) = (   0.0000000   0.3849002   0.0000000), wk =   0.0190476
        k(   10) = (   0.0000000   0.3849002   0.1808105), wk =   0.0380952
        k(   11) = (   0.0000000   0.3849002   0.3616210), wk =   0.0380952
        k(   12) = (   0.0000000   0.3849002   0.5424315), wk =   0.0380952
        k(   13) = (   0.0000000  -0.5773503   0.0000000), wk =   0.0095238
        k(   14) = (   0.0000000  -0.5773503   0.1808105), wk =   0.0190476
        k(   15) = (   0.0000000  -0.5773503   0.3616210), wk =   0.0190476
        k(   16) = (   0.0000000  -0.5773503   0.5424315), wk =   0.0190476
        k(   17) = (   0.2000000   0.1154701   0.0000000), wk =   0.0190476
        k(   18) = (   0.2000000   0.1154701   0.1808105), wk =   0.0380952
        k(   19) = (   0.2000000   0.1154701   0.3616210), wk =   0.0380952
        k(   20) = (   0.2000000   0.1154701   0.5424315), wk =   0.0380952
        k(   21) = (   0.2000000   0.3079201   0.0000000), wk =   0.0190476
        k(   22) = (   0.2000000   0.3079201   0.1808105), wk =   0.0380952
        k(   23) = (   0.2000000   0.3079201   0.3616210), wk =   0.0380952
        k(   24) = (   0.2000000   0.3079201   0.5424315), wk =   0.0380952
        k(   25) = (   0.2000000   0.5003702   0.0000000), wk =   0.0190476
        k(   26) = (   0.2000000   0.5003702   0.1808105), wk =   0.0380952
        k(   27) = (   0.2000000   0.5003702   0.3616210), wk =   0.0380952
        k(   28) = (   0.2000000   0.5003702   0.5424315), wk =   0.0380952
        k(   29) = (   0.2000000  -0.4618802   0.0000000), wk =   0.0190476
        k(   30) = (   0.2000000  -0.4618802   0.1808105), wk =   0.0380952
        k(   31) = (   0.2000000  -0.4618802   0.3616210), wk =   0.0380952
        k(   32) = (   0.2000000  -0.4618802   0.5424315), wk =   0.0380952
        k(   33) = (   0.2000000  -0.2694301   0.0000000), wk =   0.0190476
        k(   34) = (   0.2000000  -0.2694301   0.1808105), wk =   0.0380952
        k(   35) = (   0.2000000  -0.2694301   0.3616210), wk =   0.0380952
        k(   36) = (   0.2000000  -0.2694301   0.5424315), wk =   0.0380952
        k(   37) = (   0.2000000  -0.0769800   0.0000000), wk =   0.0190476
        k(   38) = (   0.2000000  -0.0769800   0.1808105), wk =   0.0380952
        k(   39) = (   0.2000000  -0.0769800   0.3616210), wk =   0.0380952
        k(   40) = (   0.2000000  -0.0769800   0.5424315), wk =   0.0380952
        k(   41) = (   0.4000000   0.2309401   0.0000000), wk =   0.0190476
        k(   42) = (   0.4000000   0.2309401   0.1808105), wk =   0.0380952
        k(   43) = (   0.4000000   0.2309401   0.3616210), wk =   0.0380952
        k(   44) = (   0.4000000   0.2309401   0.5424315), wk =   0.0380952
        k(   45) = (   0.4000000   0.4233902   0.0000000), wk =   0.0190476
        k(   46) = (   0.4000000   0.4233902   0.1808105), wk =   0.0380952
        k(   47) = (   0.4000000   0.4233902   0.3616210), wk =   0.0380952
        k(   48) = (   0.4000000   0.4233902   0.5424315), wk =   0.0380952
        k(   49) = (   0.4000000   0.6158403   0.0000000), wk =   0.0190476
        k(   50) = (   0.4000000   0.6158403   0.1808105), wk =   0.0380952
        k(   51) = (   0.4000000   0.6158403   0.3616210), wk =   0.0380952
        k(   52) = (   0.4000000   0.6158403   0.5424315), wk =   0.0380952
        k(   53) = (   0.4000000  -0.3464102   0.0000000), wk =   0.0190476
        k(   54) = (   0.4000000  -0.3464102   0.1808105), wk =   0.0380952
        k(   55) = (   0.4000000  -0.3464102   0.3616210), wk =   0.0380952
        k(   56) = (   0.4000000  -0.3464102   0.5424315), wk =   0.0380952
        k(   57) = (   0.4000000  -0.1539601   0.0000000), wk =   0.0190476
        k(   58) = (   0.4000000  -0.1539601   0.1808105), wk =   0.0380952
        k(   59) = (   0.4000000  -0.1539601   0.3616210), wk =   0.0380952
        k(   60) = (   0.4000000  -0.1539601   0.5424315), wk =   0.0380952
        k(   61) = (   0.4000000   0.0384900   0.0000000), wk =   0.0190476
        k(   62) = (   0.4000000   0.0384900   0.1808105), wk =   0.0380952
        k(   63) = (   0.4000000   0.0384900   0.3616210), wk =   0.0380952
        k(   64) = (   0.4000000   0.0384900   0.5424315), wk =   0.0380952

     Largest allocated arrays     est. size (Mb)     dimensions
     Largest temporary arrays     est. size (Mb)     dimensions

     Initial potential from superposition of free atoms

     Starting from uniform charge
     Starting wfc are    0 randomized atomic wfcs

     Self-consistent Calculation

     iteration #  1     ecut=    40.00 Ry     beta=0.70
     CG style diagonalization
     c_bands:  2 eigenvalues not converged
     c_bands:  2 eigenvalues not converged
     c_bands:  1 eigenvalues not converged
     c_bands:  1 eigenvalues not converged
     c_bands:  3 eigenvalues not converged
     c_bands:  1 eigenvalues not converged
     c_bands:  1 eigenvalues not converged
     c_bands:  1 eigenvalues not converged
     c_bands:  1 eigenvalues not converged
     c_bands:  1 eigenvalues not converged
     c_bands:  1 eigenvalues not converged
     c_bands:  1 eigenvalues not converged
     c_bands:  1 eigenvalues not converged
     c_bands:  2 eigenvalues not converged
     c_bands:  1 eigenvalues not converged
     c_bands:  1 eigenvalues not converged
     c_bands:  1 eigenvalues not converged
     c_bands:  1 eigenvalues not converged
     c_bands:  1 eigenvalues not converged
     c_bands:  1 eigenvalues not converged
     c_bands:  1 eigenvalues not converged
     c_bands:  3 eigenvalues not converged
     c_bands:  1 eigenvalues not converged
     c_bands:  1 eigenvalues not converged
     c_bands:  1 eigenvalues not converged
     c_bands:  1 eigenvalues not converged
     c_bands:  2 eigenvalues not converged
     c_bands:  1 eigenvalues not converged
     c_bands:  1 eigenvalues not converged
     ethr =  1.00E-02,  avg # of iterations = 12.1

     total energy              =   -1351.02479403 Ry
     Harris-Foulkes estimate   =   -2365.52380565 Ry
     estimated scf accuracy    <    1240.62624917 Ry

[...]

     iteration #  4     ecut=    40.00 Ry     beta=0.70
     CG style diagonalization
     ethr =  1.00E-02,  avg # of iterations =  6.0

[...]

     End of self-consistent calculation

          k = 0.0000 0.0000 0.0000 (  5047 PWs)   bands (ev):

   -78.9914 -78.9856 -46.0386 -46.0010 -46.0009 -45.9966 -45.9811 -45.9810
   -40.9080 -40.9040 -40.9039 -40.9018 -40.8948 -40.8948 -17.2345 -17.1985
   -17.1083 -17.0856 -17.0855 -17.0829 -17.0828 -17.0557 -17.0556 -16.9723
   -16.8733 -16.8732 -16.8008 -16.7970 -16.7842 -16.7841 -16.7763 -16.7763
     6.0799   6.0799   6.0838   6.0902   6.0902   6.1012   6.1194   6.1194
     6.1771   6.1771  12.0105  13.2555  15.6670  16.1068  16.4338  16.4535
[...]
        k(   16) = (   0.0000000  -0.5843713   0.5387159), wk =   0.0190476
        k(   17) = (   0.2024322   0.1168743   0.0000000), wk =   0.0190476
        k(   18) = (   0.2024322   0.1168743   0.1795720), wk =   0.0380952
        k(   19) = (   0.2024322   0.1168743   0.3591440), wk =   0.0380952
        k(   20) = (   0.2024322   0.1168743   0.5387159), wk =   0.0380952
        k(   21) = (   0.2024322   0.3116647   0.0000000), wk =   0.0190476
        k(   22) = (   0.2024322   0.3116647   0.1795720), wk =   0.0380952
        k(   23) = (   0.2024322   0.3116647   0.3591440), wk =   0.0380952
        k(   24) = (   0.2024322   0.3116647   0.5387159), wk =   0.0380952
        k(   25) = (   0.2024322   0.5064552   0.0000000), wk =   0.0190476
        k(   26) = (   0.2024322   0.5064552   0.1795720), wk =   0.0380952
        k(   27) = (   0.2024322   0.5064552   0.3591440), wk =   0.0380952
        k(   28) = (   0.2024322   0.5064552   0.5387159), wk =   0.0380952
        k(   29) = (   0.2024322  -0.4674971   0.0000000), wk =   0.0190476
        k(   30) = (   0.2024322  -0.4674971   0.1795720), wk =   0.0380952
        k(   31) = (   0.2024322  -0.4674971   0.3591440), wk =   0.0380952
        k(   32) = (   0.2024322  -0.4674971   0.5387159), wk =   0.0380952
        k(   33) = (   0.2024322  -0.2727066   0.0000000), wk =   0.0190476
        k(   34) = (   0.2024322  -0.2727066   0.1795720), wk =   0.0380952
        k(   35) = (   0.2024322  -0.2727066   0.3591440), wk =   0.0380952
        k(   36) = (   0.2024322  -0.2727066   0.5387159), wk =   0.0380952
        k(   37) = (   0.2024322  -0.0779162   0.0000000), wk =   0.0190476
        k(   38) = (   0.2024322  -0.0779162   0.1795720), wk =   0.0380952
        k(   39) = (   0.2024322  -0.0779162   0.3591440), wk =   0.0380952
        k(   40) = (   0.2024322  -0.0779162   0.5387159), wk =   0.0380952
        k(   41) = (   0.4048643   0.2337485   0.0000000), wk =   0.0190476
        k(   42) = (   0.4048643   0.2337485   0.1795720), wk =   0.0380952
        k(   43) = (   0.4048643   0.2337485   0.3591440), wk =   0.0380952
        k(   44) = (   0.4048643   0.2337485   0.5387159), wk =   0.0380952
        k(   45) = (   0.4048643   0.4285390   0.0000000), wk =   0.0190476
        k(   46) = (   0.4048643   0.4285390   0.1795720), wk =   0.0380952
        k(   47) = (   0.4048643   0.4285390   0.3591440), wk =   0.0380952
        k(   48) = (   0.4048643   0.4285390   0.5387159), wk =   0.0380952
        k(   49) = (   0.4048643   0.6233294   0.0000000), wk =   0.0190476
        k(   50) = (   0.4048643   0.6233294   0.1795720), wk =   0.0380952
        k(   51) = (   0.4048643   0.6233294   0.3591440), wk =   0.0380952
        k(   52) = (   0.4048643   0.6233294   0.5387159), wk =   0.0380952
        k(   53) = (   0.4048643  -0.3506228   0.0000000), wk =   0.0190476
        k(   54) = (   0.4048643  -0.3506228   0.1795720), wk =   0.0380952
        k(   55) = (   0.4048643  -0.3506228   0.3591440), wk =   0.0380952
        k(   56) = (   0.4048643  -0.3506228   0.5387159), wk =   0.0380952
        k(   57) = (   0.4048643  -0.1558324   0.0000000), wk =   0.0190476
        k(   58) = (   0.4048643  -0.1558324   0.1795720), wk =   0.0380952
        k(   59) = (   0.4048643  -0.1558324   0.3591440), wk =   0.0380952
        k(   60) = (   0.4048643  -0.1558324   0.5387159), wk =   0.0380952
        k(   61) = (   0.4048643   0.0389581   0.0000000), wk =   0.0190476
        k(   62) = (   0.4048643   0.0389581   0.1795720), wk =   0.0380952
        k(   63) = (   0.4048643   0.0389581   0.3591440), wk =   0.0380952
        k(   64) = (   0.4048643   0.0389581   0.5387159), wk =   0.0380952

[...]

     The maximum number of steps has been reached.

     End of BFGS Geometry Optimization
Begin final coordinates
     new unit-cell volume =   1166.97508 a.u.^3 (   172.92786 Ang^3 )

CELL_PARAMETERS (alat= 12.01680127)
   0.987985244   0.000000000   0.000000000
  -0.493992622   0.855620320   0.000000000
   0.000000000   0.000000000   0.795542521

ATOMIC_POSITIONS (crystal)
Mg       0.668030658   0.834015329   0.250000000
Mg       0.834015329   0.165984671   0.750000000
Mg       0.331969342   0.165984671   0.750000000
Mg       0.165984671   0.834015329   0.250000000
Mg       0.165984671   0.331969342   0.250000000
Mg       0.834015329   0.668030658   0.750000000
Cd       0.666667000   0.333333000   0.250000000
Cd       0.333333000   0.666667000   0.750000000
End final coordinates

     A final scf calculation at the relaxed structure.
     The G-vectors are recalculated for the final unit cell
     Results may differ from those at the preceding step.

     bravais-lattice index     =            0
     lattice parameter (alat)  =      12.0168  a.u.
     unit-cell volume          =    1166.9751 (a.u.)^3
     number of atoms/cell      =            8
     number of atomic types    =            2
     number of electrons       =       152.00
     number of Kohn-Sham states=           91
     kinetic-energy cutoff     =      40.0000  Ry
     charge density cutoff     =     160.0000  Ry
     convergence threshold     =      1.2E-05
     mixing beta               =       0.7000
     number of iterations used =            8  plain     mixing
     Exchange-correlation      = SLA-PZ-NOGX-NOGC ( 1 1 0 0 0)
     EXX-fraction              =        0.00

     celldm(1)=  12.016801  celldm(2)=   0.000000  celldm(3)=   0.000000
     celldm(4)=   0.000000  celldm(5)=   0.000000  celldm(6)=   0.000000

     crystal axes: (cart. coord. in units of alat)
               a(1) = (   0.987985   0.000000   0.000000 )
               a(2) = (  -0.493993   0.855620   0.000000 )
               a(3) = (   0.000000   0.000000   0.795543 )

     reciprocal axes: (cart. coord. in units 2 pi/alat)
               b(1) = (  1.012161  0.584371  0.000000 )
               b(2) = (  0.000000  1.168743  0.000000 )
               b(3) = (  0.000000  0.000000  1.257004 )

     PseudoPot. # 1 for Gd read from file:
     /home/cwx6513/pp.La/Gd.UPF
     MD5 check sum: 09a8be538722f05520810cb6aac0efd2
     Pseudo is Norm-conserving, Zval = 18.0
     Generated in analytical, separable form
     Using radial grid of 1263 points,  6 beta functions with:
                l(1) =   0
                l(2) =   0
                l(3) =   1
                l(4) =   1
                l(5) =   2
                l(6) =   3

     PseudoPot. # 2 for Er read from file:
     /home/cwx6513/pp.La/Er.UPF
     MD5 check sum: e152ae21b84514339d8526f066caf99b
     Pseudo is Norm-conserving, Zval = 22.0
     Generated in analytical, separable form
     Using radial grid of 1267 points,  6 beta functions with:
                l(1) =   0
                l(2) =   0
                l(3) =   1
                l(4) =   1
                l(5) =   2
                l(6) =   3

     atomic species   valence    mass     pseudopotential
        Mg            18.00    24.30500     Gd( 1.00)
        Cd            22.00   112.41100     Er( 1.00)

     24 Sym. Ops., with inversion, found (12 have fractional translation)

   Cartesian axes

     site n.     atom                  positions (alat units)
         1           Mg  tau(   1) = (   0.2480070   0.7136005   0.1988856  )
         2           Mg  tau(   2) = (   0.7419996   0.1420199   0.5966569  )
         3           Mg  tau(   3) = (   0.2459856   0.1420199   0.5966569  )
         4           Mg  tau(   4) = (  -0.2480070   0.7136005   0.1988856  )
         5           Mg  tau(   5) = (   0.0000000   0.2840397   0.1988856  )
         6           Mg  tau(   6) = (   0.4939926   0.5715806   0.5966569  )
         7           Cd  tau(   7) = (   0.4939931   0.2852065   0.1988856  )
         8           Cd  tau(   8) = (  -0.0000005   0.5704138   0.5966569  )

     number of k points=    64  gaussian smearing, width (Ry)=  0.1000
                       cart. coord. in units 2pi/alat
        k(    1) = (   0.0000000   0.0000000   0.0000000), wk =   0.0095238
        k(    2) = (   0.0000000   0.0000000   0.1795720), wk =   0.0190476
        k(    3) = (   0.0000000   0.0000000   0.3591440), wk =   0.0190476
        k(    4) = (   0.0000000   0.0000000   0.5387159), wk =   0.0190476
        k(    5) = (   0.0000000   0.1947904   0.0000000), wk =   0.0190476
        k(    6) = (   0.0000000   0.1947904   0.1795720), wk =   0.0380952
        k(    7) = (   0.0000000   0.1947904   0.3591440), wk =   0.0380952
        k(    8) = (   0.0000000   0.1947904   0.5387159), wk =   0.0380952
        k(    9) = (   0.0000000   0.3895809   0.0000000), wk =   0.0190476
        k(   10) = (   0.0000000   0.3895809   0.1795720), wk =   0.0380952
        k(   11) = (   0.0000000   0.3895809   0.3591440), wk =   0.0380952
        k(   12) = (   0.0000000   0.3895809   0.5387159), wk =   0.0380952
        k(   13) = (   0.0000000  -0.5843713   0.0000000), wk =   0.0095238
        k(   14) = (   0.0000000  -0.5843713   0.1795720), wk =   0.0190476
        k(   15) = (   0.0000000  -0.5843713   0.3591440), wk =   0.0190476
        k(   16) = (   0.0000000  -0.5843713   0.5387159), wk =   0.0190476
        k(   17) = (   0.2024322   0.1168743   0.0000000), wk =   0.0190476
        k(   18) = (   0.2024322   0.1168743   0.1795720), wk =   0.0380952
        k(   19) = (   0.2024322   0.1168743   0.3591440), wk =   0.0380952
        k(   20) = (   0.2024322   0.1168743   0.5387159), wk =   0.0380952
        k(   21) = (   0.2024322   0.3116647   0.0000000), wk =   0.0190476
        k(   22) = (   0.2024322   0.3116647   0.1795720), wk =   0.0380952
        k(   23) = (   0.2024322   0.3116647   0.3591440), wk =   0.0380952
        k(   24) = (   0.2024322   0.3116647   0.5387159), wk =   0.0380952
        k(   25) = (   0.2024322   0.5064552   0.0000000), wk =   0.0190476
        k(   26) = (   0.2024322   0.5064552   0.1795720), wk =   0.0380952
        k(   27) = (   0.2024322   0.5064552   0.3591440), wk =   0.0380952
        k(   28) = (   0.2024322   0.5064552   0.5387159), wk =   0.0380952
        k(   29) = (   0.2024322  -0.4674971   0.0000000), wk =   0.0190476
        k(   30) = (   0.2024322  -0.4674971   0.1795720), wk =   0.0380952
        k(   31) = (   0.2024322  -0.4674971   0.3591440), wk =   0.0380952
        k(   32) = (   0.2024322  -0.4674971   0.5387159), wk =   0.0380952
        k(   33) = (   0.2024322  -0.2727066   0.0000000), wk =   0.0190476
        k(   34) = (   0.2024322  -0.2727066   0.1795720), wk =   0.0380952
        k(   35) = (   0.2024322  -0.2727066   0.3591440), wk =   0.0380952
        k(   36) = (   0.2024322  -0.2727066   0.5387159), wk =   0.0380952
        k(   37) = (   0.2024322  -0.0779162   0.0000000), wk =   0.0190476
        k(   38) = (   0.2024322  -0.0779162   0.1795720), wk =   0.0380952
        k(   39) = (   0.2024322  -0.0779162   0.3591440), wk =   0.0380952
        k(   40) = (   0.2024322  -0.0779162   0.5387159), wk =   0.0380952
        k(   41) = (   0.4048643   0.2337485   0.0000000), wk =   0.0190476
        k(   42) = (   0.4048643   0.2337485   0.1795720), wk =   0.0380952
        k(   43) = (   0.4048643   0.2337485   0.3591440), wk =   0.0380952
        k(   44) = (   0.4048643   0.2337485   0.5387159), wk =   0.0380952
        k(   45) = (   0.4048643   0.4285390   0.0000000), wk =   0.0190476
        k(   46) = (   0.4048643   0.4285390   0.1795720), wk =   0.0380952
        k(   47) = (   0.4048643   0.4285390   0.3591440), wk =   0.0380952
        k(   48) = (   0.4048643   0.4285390   0.5387159), wk =   0.0380952
        k(   49) = (   0.4048643   0.6233294   0.0000000), wk =   0.0190476
        k(   50) = (   0.4048643   0.6233294   0.1795720), wk =   0.0380952
        k(   51) = (   0.4048643   0.6233294   0.3591440), wk =   0.0380952
        k(   52) = (   0.4048643   0.6233294   0.5387159), wk =   0.0380952
        k(   53) = (   0.4048643  -0.3506228   0.0000000), wk =   0.0190476
        k(   54) = (   0.4048643  -0.3506228   0.1795720), wk =   0.0380952
        k(   55) = (   0.4048643  -0.3506228   0.3591440), wk =   0.0380952
        k(   56) = (   0.4048643  -0.3506228   0.5387159), wk =   0.0380952
        k(   57) = (   0.4048643  -0.1558324   0.0000000), wk =   0.0190476
        k(   58) = (   0.4048643  -0.1558324   0.1795720), wk =   0.0380952
        k(   59) = (   0.4048643  -0.1558324   0.3591440), wk =   0.0380952
        k(   60) = (   0.4048643  -0.1558324   0.5387159), wk =   0.0380952
        k(   61) = (   0.4048643   0.0389581   0.0000000), wk =   0.0190476
        k(   62) = (   0.4048643   0.0389581   0.1795720), wk =   0.0380952
        k(   63) = (   0.4048643   0.0389581   0.3591440), wk =   0.0380952
        k(   64) = (   0.4048643   0.0389581   0.5387159), wk =   0.0380952

     Largest allocated arrays     est. size (Mb)     dimensions
     Largest temporary arrays     est. size (Mb)     dimensions

     Initial potential from superposition of free atoms

     Starting from uniform charge
     Starting wfc are    0 randomized atomic wfcs

     Writing output data file Prototype-La-hP8-Mg3Cd.save

     Self-consistent Calculation

[...]

     iteration # 10     ecut=    40.00 Ry     beta=0.70
     CG style diagonalization
     c_bands:  1 eigenvalues not converged
     c_bands:  1 eigenvalues not converged
     c_bands:  1 eigenvalues not converged
     c_bands:  1 eigenvalues not converged
     c_bands:  1 eigenvalues not converged
     c_bands:  1 eigenvalues not converged
     c_bands:  1 eigenvalues not converged
     c_bands:  1 eigenvalues not converged
     ethr =  9.16E-07,  avg # of iterations =  4.1

[...]

     total energy              =   -1867.13025138 Ry
     Harris-Foulkes estimate   =   -1867.13025892 Ry
     estimated scf accuracy    <       0.00001405 Ry

     iteration # 13     ecut=    40.00 Ry     beta=0.70
     CG style diagonalization
     ethr =  9.25E-09,  avg # of iterations =  3.7

     End of self-consistent calculation

[...]

          k = 0.4049 0.0390 0.5387 (  4982 PWs)   bands (ev):

   -78.5636 -78.5593 -45.5765 -45.5657 -45.5564 -45.5513 -45.5480 -45.5447
   -40.4780 -40.4746 -40.4701 -40.4685 -40.4565 -40.4531 -16.7491 -16.7353
   -16.7295 -16.7204 -16.6800 -16.6794 -16.5499 -16.5400 -16.5065 -16.4937
   -16.4610 -16.4380 -16.4164 -16.4110 -16.4089 -16.3847 -16.3514 -16.3463
     6.5288   6.5341   6.5404   6.5433   6.5569   6.5614   6.5841   6.5853
     6.6030   6.6045  13.6757  13.8124  16.2189  16.3658  16.7845  16.8264
    17.0495  17.1611  17.2485  17.3683  17.4734  17.5550  17.7785  17.7930
    18.1333  18.1730  18.3874  18.4077  18.8824  18.9193  19.0104  19.5149
    19.5640  19.6541  19.9539  20.0549  20.1556  20.2340  20.4371  20.5616
    21.0130  21.2142  21.4008  21.5216  21.8102  22.2472  23.8009  24.0194
    25.5813  25.8917  28.0930  28.3019  28.7011  29.1886  29.4328  29.9757
    30.4710  30.8728  31.3368

     the Fermi energy is    22.4224 ev

!    total energy              =   -1867.13025523 Ry
     Harris-Foulkes estimate   =   -1867.13025615 Ry
     estimated scf accuracy    <       0.00000101 Ry

     The total energy is the sum of the following terms:

     one-electron contribution =    -390.22104082 Ry
     hartree contribution      =     289.97574973 Ry
     xc contribution           =    -175.59945087 Ry
     ewald contribution        =   -1591.00611493 Ry
     smearing contrib. (-TS)   =      -0.27939835 Ry

     convergence has been achieved in  13 iterations

     Forces acting on atoms (Ry/au):

     atom    1 type  1   force =     0.00761402    0.00439595    0.00000000
     atom    2 type  1   force =     0.00761402   -0.00439595    0.00000000
     atom    3 type  1   force =    -0.00761402   -0.00439595    0.00000000
     atom    4 type  1   force =    -0.00761402    0.00439595    0.00000000
     atom    5 type  1   force =     0.00000000   -0.00879191    0.00000000
     atom    6 type  1   force =     0.00000000    0.00879191    0.00000000
     atom    7 type  2   force =     0.00000000    0.00000000    0.00000000
     atom    8 type  2   force =     0.00000000    0.00000000    0.00000000

     Total force =     0.021536     Total SCF correction =     0.000000

     entering subroutine stress ...

          total   stress  (Ry/bohr**3)                   (kbar)     P= -349.83
  -0.00241141   0.00000000   0.00000000       -354.73      0.00      0.00
   0.00000000  -0.00241141   0.00000000          0.00   -354.73      0.00
   0.00000000   0.00000000  -0.00231145          0.00      0.00   -340.03

     Writing output data file Prototype-La-hP8-Mg3Cd.save

     General routines

     Parallel routines

   This run was terminated on:  23:47:24  22Mar2018

   JOB DONE.