     Program PWSCF v.5.0.2 starts on 22Mar2018 at 17:31: 4

     Current dimensions of program PWSCF are:
     Max number of different atomic species (ntypx) = 10
     Max number of k-points (npk) =  40000
     Max angular momentum in pseudopotentials (lmaxx) =  3
     Waiting for input...
     Reading input from standard input

     Subspace diagonalization in iterative solution of the eigenvalue problem:
     a serial algorithm will be used

     bravais-lattice index     =            0
     lattice parameter (alat)  =      12.0168  a.u.
     unit-cell volume          =    1187.3413 (a.u.)^3
     number of atoms/cell      =            8
     number of atomic types    =            2
     number of electrons       =       124.00
     number of Kohn-Sham states=           74
     kinetic-energy cutoff     =      40.0000  Ry
     charge density cutoff     =     160.0000  Ry
     convergence threshold     =      1.0E-04
     mixing beta               =       0.7000
     number of iterations used =            8  plain     mixing
     Exchange-correlation      = SLA-PZ-NOGX-NOGC ( 1 1 0 0 0)
     EXX-fraction              =        0.00
     nstep                     =           50

     celldm(1)=  12.016801  celldm(2)=   0.000000  celldm(3)=   0.000000
     celldm(4)=   0.000000  celldm(5)=   0.000000  celldm(6)=   0.000000

     crystal axes: (cart. coord. in units of alat)
               a(1) = (   1.000000   0.000000   0.000000 )
               a(2) = (  -0.500000   0.866025   0.000000 )
               a(3) = (   0.000000   0.000000   0.790093 )

     reciprocal axes: (cart. coord. in units 2 pi/alat)
               b(1) = (  1.000000  0.577350  0.000000 )
               b(2) = (  0.000000  1.154701  0.000000 )
               b(3) = (  0.000000  0.000000  1.265674 )

     PseudoPot. # 1 for Nd read from file:
     /home/cwx6513/pp.La/Nd.UPF
     MD5 check sum: c66c5b6abe7b5840ced9b1e244e3bed6
     Pseudo is Norm-conserving, Zval = 14.0
     Generated in analytical, separable form
     Using radial grid of 1257 points,  6 beta functions with:
                l(1) =   0
                l(2) =   0
                l(3) =   1
                l(4) =   1
                l(5) =   2
                l(6) =   3

     PseudoPot. # 2 for Dy read from file:
     /home/cwx6513/pp.La/Dy.UPF
     MD5 check sum: 9597327bec62616a94a14d07f3fd9936
     Pseudo is Norm-conserving, Zval = 20.0
     Generated in analytical, separable form
     Using radial grid of 1265 points,  6 beta functions with:
                l(1) =   0
                l(2) =   0
                l(3) =   1
                l(4) =   1
                l(5) =   2
                l(6) =   3

     atomic species   valence    mass     pseudopotential
        Mg            14.00    24.30500     Nd( 1.00)
        Cd            20.00   112.41100     Dy( 1.00)

     24 Sym. Ops., with inversion, found (12 have fractional translation)

   Cartesian axes

     site n.     atom                  positions (alat units)
         1           Mg  tau(   1) = (   0.2478935   0.7204716   0.1975233  )
         2           Mg  tau(   2) = (   0.7478935   0.1455538   0.5925699  )
         3           Mg  tau(   3) = (   0.2521065   0.1455538   0.5925699  )
         4           Mg  tau(   4) = (  -0.2478935   0.7204716   0.1975233  )
         5           Mg  tau(   5) = (   0.0000000   0.2911075   0.1975233  )
         6           Mg  tau(   6) = (   0.5000000   0.5749179   0.5925699  )
         7           Cd  tau(   7) = (   0.5000005   0.2886748   0.1975233  )
         8           Cd  tau(   8) = (  -0.0000005   0.5773506   0.5925699  )

     number of k points=    64  gaussian smearing, width (Ry)=  0.1000
                       cart. coord. in units 2pi/alat
        k(    1) = (   0.0000000   0.0000000   0.0000000), wk =   0.0095238
        k(    2) = (   0.0000000   0.0000000   0.1808105), wk =   0.0190476
        k(    3) = (   0.0000000   0.0000000   0.3616210), wk =   0.0190476
        k(    4) = (   0.0000000   0.0000000   0.5424315), wk =   0.0190476
        k(    5) = (   0.0000000   0.1924501   0.0000000), wk =   0.0190476
        k(    6) = (   0.0000000   0.1924501   0.1808105), wk =   0.0380952
        k(    7) = (   0.0000000   0.1924501   0.3616210), wk =   0.0380952
        k(    8) = (   0.0000000   0.1924501   0.5424315), wk =   0.0380952
        k(    9) = (   0.0000000   0.3849002   0.0000000), wk =   0.0190476
        k(   10) = (   0.0000000   0.3849002   0.1808105), wk =   0.0380952
        k(   11) = (   0.0000000   0.3849002   0.3616210), wk =   0.0380952
        k(   12) = (   0.0000000   0.3849002   0.5424315), wk =   0.0380952
        k(   13) = (   0.0000000  -0.5773503   0.0000000), wk =   0.0095238
        k(   14) = (   0.0000000  -0.5773503   0.1808105), wk =   0.0190476
        k(   15) = (   0.0000000  -0.5773503   0.3616210), wk =   0.0190476
        k(   16) = (   0.0000000  -0.5773503   0.5424315), wk =   0.0190476
        k(   17) = (   0.2000000   0.1154701   0.0000000), wk =   0.0190476
        k(   18) = (   0.2000000   0.1154701   0.1808105), wk =   0.0380952
        k(   19) = (   0.2000000   0.1154701   0.3616210), wk =   0.0380952
        k(   20) = (   0.2000000   0.1154701   0.5424315), wk =   0.0380952
        k(   21) = (   0.2000000   0.3079201   0.0000000), wk =   0.0190476
        k(   22) = (   0.2000000   0.3079201   0.1808105), wk =   0.0380952
        k(   23) = (   0.2000000   0.3079201   0.3616210), wk =   0.0380952
        k(   24) = (   0.2000000   0.3079201   0.5424315), wk =   0.0380952
        k(   25) = (   0.2000000   0.5003702   0.0000000), wk =   0.0190476
        k(   26) = (   0.2000000   0.5003702   0.1808105), wk =   0.0380952
        k(   27) = (   0.2000000   0.5003702   0.3616210), wk =   0.0380952
        k(   28) = (   0.2000000   0.5003702   0.5424315), wk =   0.0380952
        k(   29) = (   0.2000000  -0.4618802   0.0000000), wk =   0.0190476
        k(   30) = (   0.2000000  -0.4618802   0.1808105), wk =   0.0380952
        k(   31) = (   0.2000000  -0.4618802   0.3616210), wk =   0.0380952
        k(   32) = (   0.2000000  -0.4618802   0.5424315), wk =   0.0380952
        k(   33) = (   0.2000000  -0.2694301   0.0000000), wk =   0.0190476
        k(   34) = (   0.2000000  -0.2694301   0.1808105), wk =   0.0380952
        k(   35) = (   0.2000000  -0.2694301   0.3616210), wk =   0.0380952
        k(   36) = (   0.2000000  -0.2694301   0.5424315), wk =   0.0380952
        k(   37) = (   0.2000000  -0.0769800   0.0000000), wk =   0.0190476
        k(   38) = (   0.2000000  -0.0769800   0.1808105), wk =   0.0380952
        k(   39) = (   0.2000000  -0.0769800   0.3616210), wk =   0.0380952
        k(   40) = (   0.2000000  -0.0769800   0.5424315), wk =   0.0380952
        k(   41) = (   0.4000000   0.2309401   0.0000000), wk =   0.0190476
        k(   42) = (   0.4000000   0.2309401   0.1808105), wk =   0.0380952
        k(   43) = (   0.4000000   0.2309401   0.3616210), wk =   0.0380952
        k(   44) = (   0.4000000   0.2309401   0.5424315), wk =   0.0380952
        k(   45) = (   0.4000000   0.4233902   0.0000000), wk =   0.0190476
        k(   46) = (   0.4000000   0.4233902   0.1808105), wk =   0.0380952
        k(   47) = (   0.4000000   0.4233902   0.3616210), wk =   0.0380952
        k(   48) = (   0.4000000   0.4233902   0.5424315), wk =   0.0380952
        k(   49) = (   0.4000000   0.6158403   0.0000000), wk =   0.0190476
        k(   50) = (   0.4000000   0.6158403   0.1808105), wk =   0.0380952
        k(   51) = (   0.4000000   0.6158403   0.3616210), wk =   0.0380952
        k(   52) = (   0.4000000   0.6158403   0.5424315), wk =   0.0380952
        k(   53) = (   0.4000000  -0.3464102   0.0000000), wk =   0.0190476
        k(   54) = (   0.4000000  -0.3464102   0.1808105), wk =   0.0380952
        k(   55) = (   0.4000000  -0.3464102   0.3616210), wk =   0.0380952
        k(   56) = (   0.4000000  -0.3464102   0.5424315), wk =   0.0380952
        k(   57) = (   0.4000000  -0.1539601   0.0000000), wk =   0.0190476
        k(   58) = (   0.4000000  -0.1539601   0.1808105), wk =   0.0380952
        k(   59) = (   0.4000000  -0.1539601   0.3616210), wk =   0.0380952
        k(   60) = (   0.4000000  -0.1539601   0.5424315), wk =   0.0380952
        k(   61) = (   0.4000000   0.0384900   0.0000000), wk =   0.0190476
        k(   62) = (   0.4000000   0.0384900   0.1808105), wk =   0.0380952
        k(   63) = (   0.4000000   0.0384900   0.3616210), wk =   0.0380952
        k(   64) = (   0.4000000   0.0384900   0.5424315), wk =   0.0380952

     Largest allocated arrays     est. size (Mb)     dimensions
     Largest temporary arrays     est. size (Mb)     dimensions

     Initial potential from superposition of free atoms

     Starting from uniform charge
     Starting wfc are    0 randomized atomic wfcs

     Self-consistent Calculation

     iteration #  1     ecut=    40.00 Ry     beta=0.70
     CG style diagonalization
     c_bands:  2 eigenvalues not converged
     c_bands:  2 eigenvalues not converged
     c_bands:  3 eigenvalues not converged
     c_bands:  3 eigenvalues not converged
     c_bands:  2 eigenvalues not converged
     c_bands:  4 eigenvalues not converged
     c_bands:  1 eigenvalues not converged
     c_bands:  3 eigenvalues not converged
     c_bands:  4 eigenvalues not converged
     c_bands:  3 eigenvalues not converged
     c_bands:  5 eigenvalues not converged
     c_bands:  3 eigenvalues not converged
     c_bands:  3 eigenvalues not converged
     c_bands:  2 eigenvalues not converged
     c_bands:  3 eigenvalues not converged
     c_bands:  4 eigenvalues not converged
     c_bands:  3 eigenvalues not converged
     c_bands:  4 eigenvalues not converged
     c_bands:  3 eigenvalues not converged
     c_bands:  2 eigenvalues not converged
     c_bands:  1 eigenvalues not converged
     c_bands:  5 eigenvalues not converged
     c_bands:  2 eigenvalues not converged
     c_bands:  4 eigenvalues not converged
     c_bands:  3 eigenvalues not converged
     c_bands:  2 eigenvalues not converged
     c_bands:  2 eigenvalues not converged
     c_bands:  2 eigenvalues not converged
     c_bands:  3 eigenvalues not converged
     c_bands:  3 eigenvalues not converged
     c_bands:  4 eigenvalues not converged
     c_bands:  2 eigenvalues not converged
     c_bands:  3 eigenvalues not converged
     c_bands:  5 eigenvalues not converged
     c_bands:  4 eigenvalues not converged
     c_bands:  4 eigenvalues not converged
     c_bands:  2 eigenvalues not converged
     c_bands:  4 eigenvalues not converged
     c_bands:  4 eigenvalues not converged
     c_bands:  4 eigenvalues not converged
     c_bands:  5 eigenvalues not converged
     c_bands:  4 eigenvalues not converged
     c_bands:  3 eigenvalues not converged
     c_bands:  1 eigenvalues not converged
     c_bands:  3 eigenvalues not converged
     c_bands:  5 eigenvalues not converged
     c_bands:  4 eigenvalues not converged
     c_bands:  3 eigenvalues not converged
     c_bands:  5 eigenvalues not converged
     c_bands:  4 eigenvalues not converged
[...]
        k(   12) = (   0.0000000   0.3941594   0.5429061), wk =   0.0380952
        k(   13) = (   0.0000000  -0.5912391   0.0000000), wk =   0.0095238
        k(   14) = (   0.0000000  -0.5912391   0.1809687), wk =   0.0190476
        k(   15) = (   0.0000000  -0.5912391   0.3619374), wk =   0.0190476
        k(   16) = (   0.0000000  -0.5912391   0.5429061), wk =   0.0190476
        k(   17) = (   0.2048112   0.1182478   0.0000000), wk =   0.0190476
        k(   18) = (   0.2048112   0.1182478   0.1809687), wk =   0.0380952
        k(   19) = (   0.2048112   0.1182478   0.3619374), wk =   0.0380952
        k(   20) = (   0.2048112   0.1182478   0.5429061), wk =   0.0380952
        k(   21) = (   0.2048112   0.3153275   0.0000000), wk =   0.0190476
        k(   22) = (   0.2048112   0.3153275   0.1809687), wk =   0.0380952
        k(   23) = (   0.2048112   0.3153275   0.3619374), wk =   0.0380952
        k(   24) = (   0.2048112   0.3153275   0.5429061), wk =   0.0380952
        k(   25) = (   0.2048112   0.5124072   0.0000000), wk =   0.0190476
        k(   26) = (   0.2048112   0.5124072   0.1809687), wk =   0.0380952
        k(   27) = (   0.2048112   0.5124072   0.3619374), wk =   0.0380952
        k(   28) = (   0.2048112   0.5124072   0.5429061), wk =   0.0380952
        k(   29) = (   0.2048112  -0.4729913   0.0000000), wk =   0.0190476
        k(   30) = (   0.2048112  -0.4729913   0.1809687), wk =   0.0380952
        k(   31) = (   0.2048112  -0.4729913   0.3619374), wk =   0.0380952
        k(   32) = (   0.2048112  -0.4729913   0.5429061), wk =   0.0380952
        k(   33) = (   0.2048112  -0.2759116   0.0000000), wk =   0.0190476
        k(   34) = (   0.2048112  -0.2759116   0.1809687), wk =   0.0380952
        k(   35) = (   0.2048112  -0.2759116   0.3619374), wk =   0.0380952
        k(   36) = (   0.2048112  -0.2759116   0.5429061), wk =   0.0380952
        k(   37) = (   0.2048112  -0.0788319   0.0000000), wk =   0.0190476
        k(   38) = (   0.2048112  -0.0788319   0.1809687), wk =   0.0380952
        k(   39) = (   0.2048112  -0.0788319   0.3619374), wk =   0.0380952
        k(   40) = (   0.2048112  -0.0788319   0.5429061), wk =   0.0380952
        k(   41) = (   0.4096225   0.2364957   0.0000000), wk =   0.0190476
        k(   42) = (   0.4096225   0.2364957   0.1809687), wk =   0.0380952
        k(   43) = (   0.4096225   0.2364957   0.3619374), wk =   0.0380952
        k(   44) = (   0.4096225   0.2364957   0.5429061), wk =   0.0380952
        k(   45) = (   0.4096225   0.4335754   0.0000000), wk =   0.0190476
        k(   46) = (   0.4096225   0.4335754   0.1809687), wk =   0.0380952
        k(   47) = (   0.4096225   0.4335754   0.3619374), wk =   0.0380952
        k(   48) = (   0.4096225   0.4335754   0.5429061), wk =   0.0380952
        k(   49) = (   0.4096225   0.6306551   0.0000000), wk =   0.0190476
        k(   50) = (   0.4096225   0.6306551   0.1809687), wk =   0.0380952
        k(   51) = (   0.4096225   0.6306551   0.3619374), wk =   0.0380952
        k(   52) = (   0.4096225   0.6306551   0.5429061), wk =   0.0380952
        k(   53) = (   0.4096225  -0.3547435   0.0000000), wk =   0.0190476
        k(   54) = (   0.4096225  -0.3547435   0.1809687), wk =   0.0380952
        k(   55) = (   0.4096225  -0.3547435   0.3619374), wk =   0.0380952
        k(   56) = (   0.4096225  -0.3547435   0.5429061), wk =   0.0380952
        k(   57) = (   0.4096225  -0.1576638   0.0000000), wk =   0.0190476
        k(   58) = (   0.4096225  -0.1576638   0.1809687), wk =   0.0380952
        k(   59) = (   0.4096225  -0.1576638   0.3619374), wk =   0.0380952
        k(   60) = (   0.4096225  -0.1576638   0.5429061), wk =   0.0380952
        k(   61) = (   0.4096225   0.0394159   0.0000000), wk =   0.0190476
        k(   62) = (   0.4096225   0.0394159   0.1809687), wk =   0.0380952
        k(   63) = (   0.4096225   0.0394159   0.3619374), wk =   0.0380952
        k(   64) = (   0.4096225   0.0394159   0.5429061), wk =   0.0380952

[...]

     The maximum number of steps has been reached.

     End of BFGS Geometry Optimization
Begin final coordinates
     new unit-cell volume =   1131.22284 a.u.^3 (   167.62993 Ang^3 )

CELL_PARAMETERS (alat= 12.01680127)
   0.976508897   0.000000000   0.000000000
  -0.488254449   0.845681512   0.000000000
   0.000000000   0.000000000   0.789402483

ATOMIC_POSITIONS (crystal)
Mg       0.671949537   0.835974769   0.250000000
Mg       0.835974769   0.164025231   0.750000000
Mg       0.328050463   0.164025231   0.750000000
Mg       0.164025231   0.835974769   0.250000000
Mg       0.164025231   0.328050463   0.250000000
Mg       0.835974769   0.671949537   0.750000000
Cd       0.666667000   0.333333000   0.250000000
Cd       0.333333000   0.666667000   0.750000000
End final coordinates

     A final scf calculation at the relaxed structure.
     The G-vectors are recalculated for the final unit cell
     Results may differ from those at the preceding step.

     bravais-lattice index     =            0
     lattice parameter (alat)  =      12.0168  a.u.
     unit-cell volume          =    1131.2228 (a.u.)^3
     number of atoms/cell      =            8
     number of atomic types    =            2
     number of electrons       =       124.00
     number of Kohn-Sham states=           74
     kinetic-energy cutoff     =      40.0000  Ry
     charge density cutoff     =     160.0000  Ry
     convergence threshold     =      3.6E-05
     mixing beta               =       0.7000
     number of iterations used =            8  plain     mixing
     Exchange-correlation      = SLA-PZ-NOGX-NOGC ( 1 1 0 0 0)
     EXX-fraction              =        0.00

     celldm(1)=  12.016801  celldm(2)=   0.000000  celldm(3)=   0.000000
     celldm(4)=   0.000000  celldm(5)=   0.000000  celldm(6)=   0.000000

     crystal axes: (cart. coord. in units of alat)
               a(1) = (   0.976509   0.000000   0.000000 )
               a(2) = (  -0.488254   0.845682   0.000000 )
               a(3) = (   0.000000   0.000000   0.789402 )

     reciprocal axes: (cart. coord. in units 2 pi/alat)
               b(1) = (  1.024056  0.591239  0.000000 )
               b(2) = (  0.000000  1.182478  0.000000 )
               b(3) = (  0.000000  0.000000  1.266781 )

     PseudoPot. # 1 for Nd read from file:
     /home/cwx6513/pp.La/Nd.UPF
     MD5 check sum: c66c5b6abe7b5840ced9b1e244e3bed6
     Pseudo is Norm-conserving, Zval = 14.0
     Generated in analytical, separable form
     Using radial grid of 1257 points,  6 beta functions with:
                l(1) =   0
                l(2) =   0
                l(3) =   1
                l(4) =   1
                l(5) =   2
                l(6) =   3

     PseudoPot. # 2 for Dy read from file:
     /home/cwx6513/pp.La/Dy.UPF
     MD5 check sum: 9597327bec62616a94a14d07f3fd9936
     Pseudo is Norm-conserving, Zval = 20.0
     Generated in analytical, separable form
     Using radial grid of 1265 points,  6 beta functions with:
                l(1) =   0
                l(2) =   0
                l(3) =   1
                l(4) =   1
                l(5) =   2
                l(6) =   3

     atomic species   valence    mass     pseudopotential
        Mg            14.00    24.30500     Nd( 1.00)
        Cd            20.00   112.41100     Dy( 1.00)

     24 Sym. Ops., with inversion, found (12 have fractional translation)

   Cartesian axes

     site n.     atom                  positions (alat units)
         1           Mg  tau(   1) = (   0.2479963   0.7069684   0.1973506  )
         2           Mg  tau(   2) = (   0.7362508   0.1387131   0.5920519  )
         3           Mg  tau(   3) = (   0.2402581   0.1387131   0.5920519  )
         4           Mg  tau(   4) = (  -0.2479963   0.7069684   0.1973506  )
         5           Mg  tau(   5) = (   0.0000000   0.2774262   0.1973506  )
         6           Mg  tau(   6) = (   0.4882544   0.5682553   0.5920519  )
         7           Cd  tau(   7) = (   0.4882549   0.2818936   0.1973506  )
         8           Cd  tau(   8) = (  -0.0000005   0.5637880   0.5920519  )

     number of k points=    64  gaussian smearing, width (Ry)=  0.1000
                       cart. coord. in units 2pi/alat
        k(    1) = (   0.0000000   0.0000000   0.0000000), wk =   0.0095238
        k(    2) = (   0.0000000   0.0000000   0.1809687), wk =   0.0190476
        k(    3) = (   0.0000000   0.0000000   0.3619374), wk =   0.0190476
        k(    4) = (   0.0000000   0.0000000   0.5429061), wk =   0.0190476
        k(    5) = (   0.0000000   0.1970797   0.0000000), wk =   0.0190476
        k(    6) = (   0.0000000   0.1970797   0.1809687), wk =   0.0380952
        k(    7) = (   0.0000000   0.1970797   0.3619374), wk =   0.0380952
        k(    8) = (   0.0000000   0.1970797   0.5429061), wk =   0.0380952
        k(    9) = (   0.0000000   0.3941594   0.0000000), wk =   0.0190476
        k(   10) = (   0.0000000   0.3941594   0.1809687), wk =   0.0380952
        k(   11) = (   0.0000000   0.3941594   0.3619374), wk =   0.0380952
        k(   12) = (   0.0000000   0.3941594   0.5429061), wk =   0.0380952
        k(   13) = (   0.0000000  -0.5912391   0.0000000), wk =   0.0095238
        k(   14) = (   0.0000000  -0.5912391   0.1809687), wk =   0.0190476
        k(   15) = (   0.0000000  -0.5912391   0.3619374), wk =   0.0190476
        k(   16) = (   0.0000000  -0.5912391   0.5429061), wk =   0.0190476
        k(   17) = (   0.2048112   0.1182478   0.0000000), wk =   0.0190476
        k(   18) = (   0.2048112   0.1182478   0.1809687), wk =   0.0380952
        k(   19) = (   0.2048112   0.1182478   0.3619374), wk =   0.0380952
        k(   20) = (   0.2048112   0.1182478   0.5429061), wk =   0.0380952
        k(   21) = (   0.2048112   0.3153275   0.0000000), wk =   0.0190476
        k(   22) = (   0.2048112   0.3153275   0.1809687), wk =   0.0380952
        k(   23) = (   0.2048112   0.3153275   0.3619374), wk =   0.0380952
        k(   24) = (   0.2048112   0.3153275   0.5429061), wk =   0.0380952
        k(   25) = (   0.2048112   0.5124072   0.0000000), wk =   0.0190476
        k(   26) = (   0.2048112   0.5124072   0.1809687), wk =   0.0380952
        k(   27) = (   0.2048112   0.5124072   0.3619374), wk =   0.0380952
        k(   28) = (   0.2048112   0.5124072   0.5429061), wk =   0.0380952
        k(   29) = (   0.2048112  -0.4729913   0.0000000), wk =   0.0190476
        k(   30) = (   0.2048112  -0.4729913   0.1809687), wk =   0.0380952
        k(   31) = (   0.2048112  -0.4729913   0.3619374), wk =   0.0380952
        k(   32) = (   0.2048112  -0.4729913   0.5429061), wk =   0.0380952
        k(   33) = (   0.2048112  -0.2759116   0.0000000), wk =   0.0190476
        k(   34) = (   0.2048112  -0.2759116   0.1809687), wk =   0.0380952
        k(   35) = (   0.2048112  -0.2759116   0.3619374), wk =   0.0380952
        k(   36) = (   0.2048112  -0.2759116   0.5429061), wk =   0.0380952
        k(   37) = (   0.2048112  -0.0788319   0.0000000), wk =   0.0190476
        k(   38) = (   0.2048112  -0.0788319   0.1809687), wk =   0.0380952
        k(   39) = (   0.2048112  -0.0788319   0.3619374), wk =   0.0380952
        k(   40) = (   0.2048112  -0.0788319   0.5429061), wk =   0.0380952
        k(   41) = (   0.4096225   0.2364957   0.0000000), wk =   0.0190476
        k(   42) = (   0.4096225   0.2364957   0.1809687), wk =   0.0380952
        k(   43) = (   0.4096225   0.2364957   0.3619374), wk =   0.0380952
        k(   44) = (   0.4096225   0.2364957   0.5429061), wk =   0.0380952
        k(   45) = (   0.4096225   0.4335754   0.0000000), wk =   0.0190476
        k(   46) = (   0.4096225   0.4335754   0.1809687), wk =   0.0380952
        k(   47) = (   0.4096225   0.4335754   0.3619374), wk =   0.0380952
        k(   48) = (   0.4096225   0.4335754   0.5429061), wk =   0.0380952
        k(   49) = (   0.4096225   0.6306551   0.0000000), wk =   0.0190476
        k(   50) = (   0.4096225   0.6306551   0.1809687), wk =   0.0380952
        k(   51) = (   0.4096225   0.6306551   0.3619374), wk =   0.0380952
        k(   52) = (   0.4096225   0.6306551   0.5429061), wk =   0.0380952
        k(   53) = (   0.4096225  -0.3547435   0.0000000), wk =   0.0190476
        k(   54) = (   0.4096225  -0.3547435   0.1809687), wk =   0.0380952
        k(   55) = (   0.4096225  -0.3547435   0.3619374), wk =   0.0380952
        k(   56) = (   0.4096225  -0.3547435   0.5429061), wk =   0.0380952
        k(   57) = (   0.4096225  -0.1576638   0.0000000), wk =   0.0190476
        k(   58) = (   0.4096225  -0.1576638   0.1809687), wk =   0.0380952
        k(   59) = (   0.4096225  -0.1576638   0.3619374), wk =   0.0380952
        k(   60) = (   0.4096225  -0.1576638   0.5429061), wk =   0.0380952
        k(   61) = (   0.4096225   0.0394159   0.0000000), wk =   0.0190476
        k(   62) = (   0.4096225   0.0394159   0.1809687), wk =   0.0380952
        k(   63) = (   0.4096225   0.0394159   0.3619374), wk =   0.0380952
        k(   64) = (   0.4096225   0.0394159   0.5429061), wk =   0.0380952

     Largest allocated arrays     est. size (Mb)     dimensions
     Largest temporary arrays     est. size (Mb)     dimensions

     Initial potential from superposition of free atoms

     Starting from uniform charge
     Starting wfc are    0 randomized atomic wfcs

     Writing output data file Prototype-La-hP8-Mg3Cd.save

     Self-consistent Calculation

[...]

     iteration #  9     ecut=    40.00 Ry     beta=0.70
     CG style diagonalization
     c_bands:  1 eigenvalues not converged
     c_bands:  1 eigenvalues not converged
     c_bands:  1 eigenvalues not converged
     c_bands:  1 eigenvalues not converged
     ethr =  1.38E-06,  avg # of iterations =  3.6

     total energy              =   -1183.71201520 Ry
     Harris-Foulkes estimate   =   -1183.71207149 Ry
     estimated scf accuracy    <       0.00009028 Ry

     iteration # 10     ecut=    40.00 Ry     beta=0.70
     CG style diagonalization
     ethr =  7.28E-08,  avg # of iterations =  4.5

     End of self-consistent calculation

[...]

          k = 0.4096 0.0394 0.5429 (  4823 PWs)   bands (ev):

   -59.8910 -59.8896 -26.7881 -26.7869 -26.7845 -26.7833 -26.7793 -26.7779
   -25.2068 -25.1443 -25.0791 -25.0533 -25.0271 -25.0060  -4.2911  -4.2690
    -4.2032  -4.1664  -4.0444  -3.9971  -3.5480  -3.4171  -3.3023  -3.2893
    -3.1593  -3.0720  -3.0144  -2.9776  -2.9362  -2.8518  -2.7959  -2.7827
    14.0798  14.1225  14.1493  14.1792  14.2529  14.2711  14.3518  14.3721
    14.4587  14.5076  16.6819  16.7861  18.5728  18.8484  19.0764  19.1133
    19.5778  19.8498  19.8668  19.9615  20.2186  20.2515  20.7086  20.7471
    21.2195  21.2875  21.5708  21.6621  22.3314  22.3939  22.4519  23.3629
    23.5916  23.8531  24.3678  24.4544  24.5569  24.7448  25.0415  25.2659
    25.7909  25.9530

     the Fermi energy is    22.7180 ev

!    total energy              =   -1183.71205766 Ry
     Harris-Foulkes estimate   =   -1183.71206559 Ry
     estimated scf accuracy    <       0.00000982 Ry

     The total energy is the sum of the following terms:

     one-electron contribution =    -125.49311404 Ry
     hartree contribution      =     149.24182056 Ry
     xc contribution           =    -126.31898669 Ry
     ewald contribution        =   -1080.70395989 Ry
     smearing contrib. (-TS)   =      -0.43781760 Ry

     convergence has been achieved in  10 iterations

     Forces acting on atoms (Ry/au):

     atom    1 type  1   force =     0.01736387    0.01002504    0.00000000
     atom    2 type  1   force =     0.01736387   -0.01002504    0.00000000
     atom    3 type  1   force =    -0.01736387   -0.01002504    0.00000000
     atom    4 type  1   force =    -0.01736387    0.01002504    0.00000000
     atom    5 type  1   force =     0.00000000   -0.02005007    0.00000000
     atom    6 type  1   force =     0.00000000    0.02005007    0.00000000
     atom    7 type  2   force =     0.00000000    0.00000000    0.00000000
     atom    8 type  2   force =     0.00000000    0.00000000    0.00000000

     Total force =     0.049112     Total SCF correction =     0.000000

     entering subroutine stress ...

          total   stress  (Ry/bohr**3)                   (kbar)     P=  -33.41
  -0.00027899   0.00000000   0.00000000        -41.04      0.00      0.00
   0.00000000  -0.00027899   0.00000000          0.00    -41.04      0.00
   0.00000000   0.00000000  -0.00012329          0.00      0.00    -18.14

     Writing output data file Prototype-La-hP8-Mg3Cd.save

     General routines

     Parallel routines

   This run was terminated on:  18: 9:27  22Mar2018

   JOB DONE.