     Program PWSCF v.5.0.2 starts on 22Mar2018 at 17:31: 2

     Current dimensions of program PWSCF are:
     Max number of different atomic species (ntypx) = 10
     Max number of k-points (npk) =  40000
     Max angular momentum in pseudopotentials (lmaxx) =  3
     Waiting for input...
     Reading input from standard input

     Subspace diagonalization in iterative solution of the eigenvalue problem:
     a serial algorithm will be used

     bravais-lattice index     =            0
     lattice parameter (alat)  =       9.9235  a.u.
     unit-cell volume          =    1361.0366 (a.u.)^3
     number of atoms/cell      =           12
     number of atomic types    =            2
     number of electrons       =       216.00
     number of Kohn-Sham states=          130
     kinetic-energy cutoff     =      40.0000  Ry
     charge density cutoff     =     160.0000  Ry
     convergence threshold     =      1.0E-04
     mixing beta               =       0.7000
     number of iterations used =            8  plain     mixing
     Exchange-correlation      = SLA-PZ-NOGX-NOGC ( 1 1 0 0 0)
     EXX-fraction              =        0.00
     nstep                     =           50

     celldm(1)=   9.923489  celldm(2)=   0.000000  celldm(3)=   0.000000
     celldm(4)=   0.000000  celldm(5)=   0.000000  celldm(6)=   0.000000

     crystal axes: (cart. coord. in units of alat)
               a(1) = (   1.000000   0.000000   0.000000 )
               a(2) = (  -0.500000   0.866025   0.000000 )
               a(3) = (   0.000000   0.000000   1.608222 )

     reciprocal axes: (cart. coord. in units 2 pi/alat)
               b(1) = (  1.000000  0.577350  0.000000 )
               b(2) = (  0.000000  1.154701  0.000000 )
               b(3) = (  0.000000  0.000000  0.621805 )

     PseudoPot. # 1 for Nd read from file:
     /home/cwx6513/pp.La/Nd.UPF
     MD5 check sum: c66c5b6abe7b5840ced9b1e244e3bed6
     Pseudo is Norm-conserving, Zval = 14.0
     Generated in analytical, separable form
     Using radial grid of 1257 points,  6 beta functions with:
                l(1) =   0
                l(2) =   0
                l(3) =   1
                l(4) =   1
                l(5) =   2
                l(6) =   3

     PseudoPot. # 2 for Dy read from file:
     /home/cwx6513/pp.La/Dy.UPF
     MD5 check sum: 9597327bec62616a94a14d07f3fd9936
     Pseudo is Norm-conserving, Zval = 20.0
     Generated in analytical, separable form
     Using radial grid of 1265 points,  6 beta functions with:
                l(1) =   0
                l(2) =   0
                l(3) =   1
                l(4) =   1
                l(5) =   2
                l(6) =   3

     atomic species   valence    mass     pseudopotential
        Mg            14.00    24.30500     Nd( 1.00)
        Zn            20.00    65.39000     Dy( 1.00)

     24 Sym. Ops., with inversion, found (12 have fractional translation)

   Cartesian axes

     site n.     atom                  positions (alat units)
         1           Mg  tau(   1) = (  -0.0000005   0.5773506   0.1003820  )
         2           Mg  tau(   2) = (   0.5000005   0.2886748   0.9044931  )
         3           Mg  tau(   3) = (   0.5000005   0.2886748   1.5078402  )
         4           Mg  tau(   4) = (  -0.0000005   0.5773506   0.7037291  )
         5           Zn  tau(   5) = (   0.0000000   0.0000000   0.0000000  )
         6           Zn  tau(   6) = (   0.0000000   0.0000000   0.8041111  )
         7           Zn  tau(   7) = (   0.0000000   0.2950739   1.2061667  )
         8           Zn  tau(   8) = (   0.7444585   0.1475370   0.4020556  )
         9           Zn  tau(   9) = (   0.2555415   0.1475370   0.4020556  )
        10           Zn  tau(  10) = (   0.2444585   0.7184884   1.2061667  )
        11           Zn  tau(  11) = (  -0.2444585   0.7184884   1.2061667  )
        12           Zn  tau(  12) = (   0.5000000   0.5709515   0.4020556  )

     number of k points=    12  gaussian smearing, width (Ry)=  0.1000
                       cart. coord. in units 2pi/alat
        k(    1) = (   0.0000000   0.0000000   0.0000000), wk =   0.0833333
        k(    2) = (   0.0000000   0.0000000   0.1554512), wk =   0.1666667
        k(    3) = (   0.0000000   0.0000000  -0.3109023), wk =   0.0833333
        k(    4) = (   0.0000000   0.3849002   0.0000000), wk =   0.1666667
        k(    5) = (   0.0000000   0.3849002   0.1554512), wk =   0.3333333
        k(    6) = (   0.0000000   0.3849002  -0.3109023), wk =   0.1666667
        k(    7) = (  -0.5000000  -0.2886751   0.0000000), wk =   0.0833333
        k(    8) = (  -0.5000000  -0.2886751   0.1554512), wk =   0.1666667
        k(    9) = (  -0.5000000  -0.2886751  -0.3109023), wk =   0.0833333
        k(   10) = (  -0.5000000   0.0962250   0.0000000), wk =   0.1666667
        k(   11) = (  -0.5000000   0.0962250   0.1554512), wk =   0.3333333
        k(   12) = (  -0.5000000   0.0962250  -0.3109023), wk =   0.1666667

     Largest allocated arrays     est. size (Mb)     dimensions
     Largest temporary arrays     est. size (Mb)     dimensions

     Initial potential from superposition of free atoms

     Starting from uniform charge
     Starting wfc are    0 randomized atomic wfcs

     Self-consistent Calculation

     iteration #  1     ecut=    40.00 Ry     beta=0.70
     CG style diagonalization
     c_bands:  1 eigenvalues not converged
     ethr =  1.00E-02,  avg # of iterations = 20.0

     total energy              =   -1612.37247345 Ry
     Harris-Foulkes estimate   =   -3304.15178545 Ry
     estimated scf accuracy    <    2041.86182405 Ry

     iteration #  2     ecut=    40.00 Ry     beta=0.70
     CG style diagonalization
     ethr =  1.00E-02,  avg # of iterations = 19.4

[...]

     End of self-consistent calculation

          k = 0.0000 0.0000 0.0000 (  5769 PWs)   bands (ev):

   -53.4749 -53.4245 -53.3442 -53.2659 -53.2612 -53.2612 -53.2555 -53.2555
   -21.7063 -21.4600 -21.1075 -20.7213 -20.7213 -20.6647 -20.6647 -20.5749
   -20.5749 -20.4430 -20.3963 -20.2200 -20.2199 -20.2105 -20.2105 -19.9183
   -19.9059 -19.9059 -19.8628 -19.8627 -19.8534 -19.8500 -19.8500 -19.8417
   -17.0647 -16.9916 -16.9165 -16.8591   4.1774   4.1899   4.2033   4.2033
     4.2338   4.2338   4.7702   4.7791   4.7892   4.7892   4.8412   4.8412
    15.0080  15.7282  16.2280  17.2205  17.2205  17.5751  17.5752  17.8601
    17.9664  17.9664  18.3869  18.3869  19.1296  19.1668  19.4192  19.4192
    19.6439  20.0194  20.0194  20.8675  21.0318  21.0318  21.0495  21.0495
    21.1193  22.1159  22.1245  22.1246  22.1480  22.1480  22.2145  22.2145
    22.2277  22.3043  22.3044  22.3520  23.5630  23.5630  23.7150  24.2850
    24.2850  25.3026  25.3053  26.3929  26.5586  26.5587  26.7809  26.7809
    27.4137  27.5661  27.7981  27.7981  28.5547  28.5548  28.6085  28.6086
    29.4322  29.4322  30.6231  30.9677  31.9340  32.2942  32.2942  32.4114
    32.4114  34.2152  34.2152  35.7637  35.7993  35.8833  35.8833  35.9684
    36.0771  36.1168  36.1169  36.6023  36.6024  36.6454  36.7825  37.2674
    38.0146  38.0153

[...]

          k =-0.5000-0.2887 0.0000 (  5800 PWs)   bands (ev):

[...]

     the Fermi energy is    30.9673 ev

!    total energy              =   -2523.85239599 Ry
     Harris-Foulkes estimate   =   -2523.85240254 Ry
     estimated scf accuracy    <       0.00000806 Ry

     The total energy is the sum of the following terms:

     one-electron contribution =    -356.69772165 Ry
     hartree contribution      =     372.62378832 Ry
     xc contribution           =    -247.88033583 Ry
     ewald contribution        =   -2291.52218954 Ry
     smearing contrib. (-TS)   =      -0.37593729 Ry

     convergence has been achieved in  11 iterations

     Forces acting on atoms (Ry/au):

     atom    1 type  1   force =     0.00000000    0.00000000    0.01652454
     atom    2 type  1   force =     0.00000000    0.00000000    0.01652454
     atom    3 type  1   force =     0.00000000    0.00000000   -0.01652454
     atom    4 type  1   force =     0.00000000    0.00000000   -0.01652454
     atom    5 type  2   force =     0.00000000    0.00000000    0.00000000
     atom    6 type  2   force =     0.00000000    0.00000000    0.00000000
     atom    7 type  2   force =     0.00000000    0.08050088    0.00000000
     atom    8 type  2   force =    -0.06971580    0.04025044    0.00000000
     atom    9 type  2   force =     0.06971580    0.04025044    0.00000000
     atom   10 type  2   force =    -0.06971580   -0.04025044    0.00000000
     atom   11 type  2   force =     0.06971580   -0.04025044    0.00000000
     atom   12 type  2   force =     0.00000000   -0.08050088    0.00000000

     Total force =     0.199936     Total SCF correction =     0.000000

     entering subroutine stress ...

          total   stress  (Ry/bohr**3)                   (kbar)     P=  904.21
   0.00615291   0.00000000   0.00000000        905.12      0.00      0.00
   0.00000000   0.00615291   0.00000000          0.00    905.12      0.00
   0.00000000   0.00000000   0.00613420          0.00      0.00    902.37

     BFGS Geometry Optimization

     number of scf cycles    =   1
     number of bfgs steps    =   0

     enthalpy new            =   -2523.8523959867 Ry

     new trust radius        =       0.5000000000 bohr
     new conv_thr            =       0.0001000000 Ry

     new unit-cell volume =   1656.58212 a.u.^3 (   245.48014 Ang^3 )

CELL_PARAMETERS (alat=  9.92348860)
   1.067764947   0.000000000   0.000000000
  -0.533882474   0.924711570   0.000000000
   0.000000000   0.000000000   1.716871904

ATOMIC_POSITIONS (crystal)
Mg       0.333333000   0.666667000   0.062874146
Mg       0.666667000   0.333333000   0.562874146
Mg       0.666667000   0.333333000   0.937125854
Mg       0.333333000   0.666667000   0.437125854
Zn       0.000000000   0.000000000   0.000000000
Zn       0.000000000   0.000000000   0.500000000
Zn       0.172424290   0.344848581   0.750000000
Zn       0.827575710   0.172424290   0.250000000
Zn       0.344848581   0.172424290   0.250000000
Zn       0.655151419   0.827575710   0.750000000
Zn       0.172424290   0.827575710   0.750000000
Zn       0.827575710   0.655151419   0.250000000

     Writing output data file Prototype-La-hP12-MgZn2.save
     NEW-OLD atomic charge density approx. for the potential
     NEW k-points:
        k(    1) = (   0.0000000   0.0000000   0.0000000), wk =   0.0833333
        k(    2) = (   0.0000000   0.0000000   0.1456137), wk =   0.1666667
        k(    3) = (   0.0000000   0.0000000  -0.2912273), wk =   0.0833333
        k(    4) = (   0.0000000   0.3604728   0.0000000), wk =   0.1666667
        k(    5) = (   0.0000000   0.3604728   0.1456137), wk =   0.3333333
        k(    6) = (   0.0000000   0.3604728  -0.2912273), wk =   0.1666667
        k(    7) = (  -0.4682679  -0.2703546   0.0000000), wk =   0.0833333
        k(    8) = (  -0.4682679  -0.2703546   0.1456137), wk =   0.1666667
        k(    9) = (  -0.4682679  -0.2703546  -0.2912273), wk =   0.0833333
        k(   10) = (  -0.4682679   0.0901182   0.0000000), wk =   0.1666667
        k(   11) = (  -0.4682679   0.0901182   0.1456137), wk =   0.3333333
        k(   12) = (  -0.4682679   0.0901182  -0.2912273), wk =   0.1666667

[...]

     enthalpy old            =   -2523.8523959867 Ry
     enthalpy new            =   -2524.3797349906 Ry

     CASE: enthalpy_new < enthalpy_old

     small trust_radius: resetting bfgs history

     new trust radius        =       0.3315963498 bohr
     new conv_thr            =       0.0000185943 Ry

[...]

     number of scf cycles    =   3
     number of bfgs steps    =   2

     enthalpy old            =   -2524.3797349906 Ry
     enthalpy new            =   -2524.3393706691 Ry

     CASE: enthalpy_new > enthalpy_old

     new trust radius        =       0.1428800184 bohr

     trust_radius < trust_radius_min

     resetting bfgs history

     Message from routine bfgs:
     history already reset at previous step: stopping
     new conv_thr            =       0.0000185943 Ry

     new unit-cell volume =   1470.59184 a.u.^3 (   217.91923 Ang^3 )

[...]

ATOMIC_POSITIONS (crystal)
Mg       0.333333000   0.666667000   0.064058515
Mg       0.666667000   0.333333000   0.564058515
Mg       0.666667000   0.333333000   0.935941485
Mg       0.333333000   0.666667000   0.435941485
Zn       0.000000000   0.000000000   0.000000000
Zn       0.000000000   0.000000000   0.500000000
Zn       0.171334415   0.342668831   0.750000000
Zn       0.828665585   0.171334415   0.250000000
Zn       0.342668831   0.171334415   0.250000000
Zn       0.657331169   0.828665585   0.750000000
Zn       0.171334415   0.828665585   0.750000000
Zn       0.828665585   0.657331169   0.250000000

     Writing output data file Prototype-La-hP12-MgZn2.save
     NEW-OLD atomic charge density approx. for the potential
     NEW k-points:
        k(    1) = (   0.0000000   0.0000000   0.0000000), wk =   0.0833333
        k(    2) = (   0.0000000   0.0000000   0.1520031), wk =   0.1666667
        k(    3) = (   0.0000000   0.0000000  -0.3040062), wk =   0.0833333
        k(    4) = (   0.0000000   0.3744620   0.0000000), wk =   0.1666667
        k(    5) = (   0.0000000   0.3744620   0.1520031), wk =   0.3333333
        k(    6) = (   0.0000000   0.3744620  -0.3040062), wk =   0.1666667
        k(    7) = (  -0.4864404  -0.2808465   0.0000000), wk =   0.0833333
        k(    8) = (  -0.4864404  -0.2808465   0.1520031), wk =   0.1666667
        k(    9) = (  -0.4864404  -0.2808465  -0.3040062), wk =   0.0833333
        k(   10) = (  -0.4864404   0.0936155   0.0000000), wk =   0.1666667
        k(   11) = (  -0.4864404   0.0936155   0.1520031), wk =   0.3333333
        k(   12) = (  -0.4864404   0.0936155  -0.3040062), wk =   0.1666667

[...]

     The maximum number of steps has been reached.

     End of BFGS Geometry Optimization
Begin final coordinates
     new unit-cell volume =   1470.59184 a.u.^3 (   217.91923 Ang^3 )

CELL_PARAMETERS (alat=  9.92348860)
   1.027875251   0.000000000   0.000000000
  -0.513937625   0.890166079   0.000000000
   0.000000000   0.000000000   1.644703352

ATOMIC_POSITIONS (crystal)
Mg       0.333333000   0.666667000   0.064058515
Mg       0.666667000   0.333333000   0.564058515
Mg       0.666667000   0.333333000   0.935941485
Mg       0.333333000   0.666667000   0.435941485
Zn       0.000000000   0.000000000   0.000000000
Zn       0.000000000   0.000000000   0.500000000
Zn       0.171334415   0.342668831   0.750000000
Zn       0.828665585   0.171334415   0.250000000
Zn       0.342668831   0.171334415   0.250000000
Zn       0.657331169   0.828665585   0.750000000
Zn       0.171334415   0.828665585   0.750000000
Zn       0.828665585   0.657331169   0.250000000
End final coordinates

     A final scf calculation at the relaxed structure.
     The G-vectors are recalculated for the final unit cell
     Results may differ from those at the preceding step.

     bravais-lattice index     =            0
     lattice parameter (alat)  =       9.9235  a.u.
     unit-cell volume          =    1470.5918 (a.u.)^3
     number of atoms/cell      =           12
     number of atomic types    =            2
     number of electrons       =       216.00
     number of Kohn-Sham states=          130
     kinetic-energy cutoff     =      40.0000  Ry
     charge density cutoff     =     160.0000  Ry
     convergence threshold     =      1.9E-05
     mixing beta               =       0.7000
     number of iterations used =            8  plain     mixing
     Exchange-correlation      = SLA-PZ-NOGX-NOGC ( 1 1 0 0 0)
     EXX-fraction              =        0.00

     celldm(1)=   9.923489  celldm(2)=   0.000000  celldm(3)=   0.000000
     celldm(4)=   0.000000  celldm(5)=   0.000000  celldm(6)=   0.000000

     crystal axes: (cart. coord. in units of alat)
               a(1) = (   1.027875   0.000000   0.000000 )
               a(2) = (  -0.513938   0.890166   0.000000 )
               a(3) = (   0.000000   0.000000   1.644703 )

     reciprocal axes: (cart. coord. in units 2 pi/alat)
               b(1) = (  0.972881  0.561693  0.000000 )
               b(2) = (  0.000000  1.123386  0.000000 )
               b(3) = (  0.000000  0.000000  0.608012 )

     PseudoPot. # 1 for Nd read from file:
     /home/cwx6513/pp.La/Nd.UPF
     MD5 check sum: c66c5b6abe7b5840ced9b1e244e3bed6
     Pseudo is Norm-conserving, Zval = 14.0
     Generated in analytical, separable form
     Using radial grid of 1257 points,  6 beta functions with:
                l(1) =   0
                l(2) =   0
                l(3) =   1
                l(4) =   1
                l(5) =   2
                l(6) =   3

     PseudoPot. # 2 for Dy read from file:
     /home/cwx6513/pp.La/Dy.UPF
     MD5 check sum: 9597327bec62616a94a14d07f3fd9936
     Pseudo is Norm-conserving, Zval = 20.0
     Generated in analytical, separable form
     Using radial grid of 1265 points,  6 beta functions with:
                l(1) =   0
                l(2) =   0
                l(3) =   1
                l(4) =   1
                l(5) =   2
                l(6) =   3

     atomic species   valence    mass     pseudopotential
        Mg            14.00    24.30500     Nd( 1.00)
        Zn            20.00    65.39000     Dy( 1.00)

     24 Sym. Ops., with inversion, found (12 have fractional translation)

   Cartesian axes

     site n.     atom                  positions (alat units)
         1           Mg  tau(   1) = (  -0.0000005   0.5934443   0.1053573  )
         2           Mg  tau(   2) = (   0.5139381   0.2967217   0.9277089  )
         3           Mg  tau(   3) = (   0.5139381   0.2967217   1.5393461  )
         4           Mg  tau(   4) = (  -0.0000005   0.5934443   0.7169944  )
         5           Zn  tau(   5) = (   0.0000000   0.0000000   0.0000000  )
         6           Zn  tau(   6) = (   0.0000000   0.0000000   0.8223517  )
         7           Zn  tau(   7) = (   0.0000000   0.3050322   1.2335275  )
         8           Zn  tau(   8) = (   0.7637096   0.1525161   0.4111758  )
         9           Zn  tau(   9) = (   0.2641656   0.1525161   0.4111758  )
        10           Zn  tau(  10) = (   0.2497720   0.7376500   1.2335275  )
        11           Zn  tau(  11) = (  -0.2497720   0.7376500   1.2335275  )
        12           Zn  tau(  12) = (   0.5139376   0.5851339   0.4111758  )

     number of k points=    12  gaussian smearing, width (Ry)=  0.1000
                       cart. coord. in units 2pi/alat
        k(    1) = (   0.0000000   0.0000000   0.0000000), wk =   0.0833333
        k(    2) = (   0.0000000   0.0000000   0.1520031), wk =   0.1666667
        k(    3) = (   0.0000000   0.0000000  -0.3040062), wk =   0.0833333
        k(    4) = (   0.0000000   0.3744620   0.0000000), wk =   0.1666667
        k(    5) = (   0.0000000   0.3744620   0.1520031), wk =   0.3333333
        k(    6) = (   0.0000000   0.3744620  -0.3040062), wk =   0.1666667
        k(    7) = (  -0.4864404  -0.2808465   0.0000000), wk =   0.0833333
        k(    8) = (  -0.4864404  -0.2808465   0.1520031), wk =   0.1666667
        k(    9) = (  -0.4864404  -0.2808465  -0.3040062), wk =   0.0833333
        k(   10) = (  -0.4864404   0.0936155   0.0000000), wk =   0.1666667
        k(   11) = (  -0.4864404   0.0936155   0.1520031), wk =   0.3333333
        k(   12) = (  -0.4864404   0.0936155  -0.3040062), wk =   0.1666667

     Largest allocated arrays     est. size (Mb)     dimensions
     Largest temporary arrays     est. size (Mb)     dimensions

     Initial potential from superposition of free atoms

     Starting from uniform charge
     Starting wfc are    0 randomized atomic wfcs

     Writing output data file Prototype-La-hP12-MgZn2.save

     Self-consistent Calculation

[...]

     iteration # 10     ecut=    40.00 Ry     beta=0.70
     CG style diagonalization
     c_bands:  1 eigenvalues not converged
     c_bands:  1 eigenvalues not converged
     ethr =  1.04E-06,  avg # of iterations =  3.4

     total energy              =   -2524.77305624 Ry
     Harris-Foulkes estimate   =   -2524.77315691 Ry
     estimated scf accuracy    <       0.00023876 Ry

     iteration # 11     ecut=    40.00 Ry     beta=0.70
     CG style diagonalization
     ethr =  1.11E-07,  avg # of iterations =  3.8

     End of self-consistent calculation

[...]

          k = 0.0000 0.3745-0.3040 (  6280 PWs)   bands (ev):

[...]

          k =-0.4864 0.0936-0.3040 (  6278 PWs)   bands (ev):

   -55.6180 -55.6180 -55.5832 -55.5832 -55.5252 -55.5252 -55.5084 -55.5084
   -23.2711 -23.2711 -23.0301 -23.0301 -22.7447 -22.7447 -22.6972 -22.6972
   -22.6363 -22.6363 -22.5912 -22.5912 -22.4629 -22.4629 -22.3672 -22.3672
   -22.2793 -22.2793 -22.2420 -22.2420 -22.2268 -22.2268 -22.1994 -22.1994
   -19.6781 -19.6780 -19.6272 -19.6271   1.6101   1.6102   1.6463   1.6463
     1.7980   1.7980   2.0226   2.0226   2.1908   2.1908   2.2066   2.2066
    14.8979  14.8979  15.8228  15.8228  16.1309  16.1309  16.3995  16.3995
    16.5681  16.5681  17.0367  17.0367  17.3992  17.3992  17.4695  17.4695
    17.8706  17.8706  18.0210  18.0210  18.2460  18.2460  18.5831  18.5831
    18.8093  18.8093  19.2763  19.2763  19.4184  19.4184  19.6542  19.6542
    19.8371  19.8371  19.9198  19.9198  20.0841  20.0841  20.4365  20.4365
    21.2905  21.2905  21.9448  21.9448  23.9904  23.9904  24.7698  24.7698
    25.7417  25.7417  26.1620  26.1621  26.2080  26.2080  26.6792  26.6792
    27.3044  27.3044  28.2585  28.2586  28.6340  28.6340  28.9991  28.9991
    29.5308  29.5308  29.9055  29.9055  31.5583  31.5583  32.9072  32.9072
    33.3880  33.3881  33.9540  33.9540  35.2559  35.2560  35.8348  35.8355
    35.9282  35.9284

     the Fermi energy is    28.2609 ev

!    total energy              =   -2524.77312795 Ry
     Harris-Foulkes estimate   =   -2524.77314103 Ry
     estimated scf accuracy    <       0.00001150 Ry

     The total energy is the sum of the following terms:

     one-electron contribution =    -438.43293212 Ry
     hartree contribution      =     394.51427350 Ry
     xc contribution           =    -246.33586034 Ry
     ewald contribution        =   -2234.10866811 Ry
     smearing contrib. (-TS)   =      -0.40994088 Ry

     convergence has been achieved in  11 iterations

     Forces acting on atoms (Ry/au):

     atom    1 type  1   force =     0.00000000    0.00000000    0.00581204
     atom    2 type  1   force =     0.00000000    0.00000000    0.00581204
     atom    3 type  1   force =     0.00000000    0.00000000   -0.00581204
     atom    4 type  1   force =     0.00000000    0.00000000   -0.00581204
     atom    5 type  2   force =     0.00000000    0.00000000    0.00000000
     atom    6 type  2   force =     0.00000000    0.00000000    0.00000000
     atom    7 type  2   force =     0.00000000    0.03547186    0.00000000
     atom    8 type  2   force =    -0.03071953    0.01773593    0.00000000
     atom    9 type  2   force =     0.03071953    0.01773593    0.00000000
     atom   10 type  2   force =    -0.03071953   -0.01773593    0.00000000
     atom   11 type  2   force =     0.03071953   -0.01773593    0.00000000
     atom   12 type  2   force =     0.00000000   -0.03547186    0.00000000

     Total force =     0.087662     Total SCF correction =     0.000000

     entering subroutine stress ...

          total   stress  (Ry/bohr**3)                   (kbar)     P=  476.18
   0.00326505   0.00000000   0.00000000        480.30      0.00      0.00
   0.00000000   0.00326505   0.00000000          0.00    480.30      0.00
   0.00000000   0.00000000   0.00318093          0.00      0.00    467.93

     Writing output data file Prototype-La-hP12-MgZn2.save

     General routines

     Parallel routines

   This run was terminated on:  17:57:13  22Mar2018

   JOB DONE.