     Program PWSCF v.5.0.2 starts on 22Mar2018 at 17:31: 2

     Current dimensions of program PWSCF are:
     Max number of different atomic species (ntypx) = 10
     Max number of k-points (npk) =  40000
     Max angular momentum in pseudopotentials (lmaxx) =  3
     Waiting for input...
     Reading input from standard input

     Subspace diagonalization in iterative solution of the eigenvalue problem:
     a serial algorithm will be used

     bravais-lattice index     =            0
     lattice parameter (alat)  =       8.5346  a.u.
     unit-cell volume          =     621.6493 (a.u.)^3
     number of atoms/cell      =            8
     number of atomic types    =            2
     number of electrons       =       124.00
     number of Kohn-Sham states=           74
     kinetic-energy cutoff     =      40.0000  Ry
     charge density cutoff     =     160.0000  Ry
     convergence threshold     =      1.0E-04
     mixing beta               =       0.7000
     number of iterations used =            8  plain     mixing
     Exchange-correlation      = SLA-PZ-NOGX-NOGC ( 1 1 0 0 0)
     EXX-fraction              =        0.00
     nstep                     =           50

     celldm(1)=   8.534573  celldm(2)=   0.000000  celldm(3)=   0.000000
     celldm(4)=   0.000000  celldm(5)=   0.000000  celldm(6)=   0.000000

     crystal axes: (cart. coord. in units of alat)
               a(1) = (   1.000000   0.000000   0.000000 )
               a(2) = (   0.000000   1.000000   0.000000 )
               a(3) = (   0.000000   0.000000   1.000000 )

     reciprocal axes: (cart. coord. in units 2 pi/alat)
               b(1) = (  1.000000  0.000000  0.000000 )
               b(2) = (  0.000000  1.000000  0.000000 )
               b(3) = (  0.000000  0.000000  1.000000 )

     PseudoPot. # 1 for Nd read from file:
     /home/cwx6513/pp.La/Nd.UPF
     MD5 check sum: c66c5b6abe7b5840ced9b1e244e3bed6
     Pseudo is Norm-conserving, Zval = 14.0
     Generated in analytical, separable form
     Using radial grid of 1257 points,  6 beta functions with:
                l(1) =   0
                l(2) =   0
                l(3) =   1
                l(4) =   1
                l(5) =   2
                l(6) =   3

     PseudoPot. # 2 for Dy read from file:
     /home/cwx6513/pp.La/Dy.UPF
     MD5 check sum: 9597327bec62616a94a14d07f3fd9936
     Pseudo is Norm-conserving, Zval = 20.0
     Generated in analytical, separable form
     Using radial grid of 1265 points,  6 beta functions with:
                l(1) =   0
                l(2) =   0
                l(3) =   1
                l(4) =   1
                l(5) =   2
                l(6) =   3

     atomic species   valence    mass     pseudopotential
        Cr            14.00    51.99610     Nd( 1.00)
        Si            20.00    28.08550     Dy( 1.00)

     48 Sym. Ops., with inversion, found (24 have fractional translation)

   Cartesian axes

     site n.     atom                  positions (alat units)
         1           Cr  tau(   1) = (   0.0000000   0.5000000   0.2500000  )
         2           Cr  tau(   2) = (   0.0000000   0.5000000   0.7500000  )
         3           Cr  tau(   3) = (   0.5000000   0.7500000   0.0000000  )
         4           Cr  tau(   4) = (   0.5000000   0.2500000   0.0000000  )
         5           Cr  tau(   5) = (   0.7500000   0.0000000   0.5000000  )
         6           Cr  tau(   6) = (   0.2500000   0.0000000   0.5000000  )
         7           Si  tau(   7) = (   0.5000000   0.5000000   0.5000000  )
         8           Si  tau(   8) = (   0.0000000   0.0000000   0.0000000  )

     number of k points=    48  gaussian smearing, width (Ry)=  0.1000
                       cart. coord. in units 2pi/alat
        k(    1) = (   0.0000000   0.0000000   0.0000000), wk =   0.0095238
        k(    2) = (   0.0000000   0.0000000   0.1428571), wk =   0.0190476
        k(    3) = (   0.0000000   0.0000000   0.2857143), wk =   0.0190476
        k(    4) = (   0.0000000   0.0000000   0.4285714), wk =   0.0190476
        k(    5) = (   0.0000000   0.1666667   0.0000000), wk =   0.0190476
        k(    6) = (   0.0000000   0.1666667   0.1428571), wk =   0.0380952
        k(    7) = (   0.0000000   0.1666667   0.2857143), wk =   0.0380952
        k(    8) = (   0.0000000   0.1666667   0.4285714), wk =   0.0380952
        k(    9) = (   0.0000000   0.3333333   0.0000000), wk =   0.0190476
        k(   10) = (   0.0000000   0.3333333   0.1428571), wk =   0.0380952
        k(   11) = (   0.0000000   0.3333333   0.2857143), wk =   0.0380952
        k(   12) = (   0.0000000   0.3333333   0.4285714), wk =   0.0380952
        k(   13) = (   0.0000000  -0.5000000   0.0000000), wk =   0.0095238
        k(   14) = (   0.0000000  -0.5000000   0.1428571), wk =   0.0190476
        k(   15) = (   0.0000000  -0.5000000   0.2857143), wk =   0.0190476
        k(   16) = (   0.0000000  -0.5000000   0.4285714), wk =   0.0190476
        k(   17) = (   0.2000000   0.0000000   0.0000000), wk =   0.0190476
        k(   18) = (   0.2000000   0.0000000   0.1428571), wk =   0.0380952
        k(   19) = (   0.2000000   0.0000000   0.2857143), wk =   0.0380952
        k(   20) = (   0.2000000   0.0000000   0.4285714), wk =   0.0380952
        k(   21) = (   0.2000000   0.1666667   0.0000000), wk =   0.0380952
        k(   22) = (   0.2000000   0.1666667   0.1428571), wk =   0.0761905
        k(   23) = (   0.2000000   0.1666667   0.2857143), wk =   0.0761905
        k(   24) = (   0.2000000   0.1666667   0.4285714), wk =   0.0761905
        k(   25) = (   0.2000000   0.3333333   0.0000000), wk =   0.0380952
        k(   26) = (   0.2000000   0.3333333   0.1428571), wk =   0.0761905
        k(   27) = (   0.2000000   0.3333333   0.2857143), wk =   0.0761905
        k(   28) = (   0.2000000   0.3333333   0.4285714), wk =   0.0761905
        k(   29) = (   0.2000000  -0.5000000   0.0000000), wk =   0.0190476
        k(   30) = (   0.2000000  -0.5000000   0.1428571), wk =   0.0380952
        k(   31) = (   0.2000000  -0.5000000   0.2857143), wk =   0.0380952
        k(   32) = (   0.2000000  -0.5000000   0.4285714), wk =   0.0380952
        k(   33) = (   0.4000000   0.0000000   0.0000000), wk =   0.0190476
        k(   34) = (   0.4000000   0.0000000   0.1428571), wk =   0.0380952
        k(   35) = (   0.4000000   0.0000000   0.2857143), wk =   0.0380952
        k(   36) = (   0.4000000   0.0000000   0.4285714), wk =   0.0380952
        k(   37) = (   0.4000000   0.1666667   0.0000000), wk =   0.0380952
        k(   38) = (   0.4000000   0.1666667   0.1428571), wk =   0.0761905
        k(   39) = (   0.4000000   0.1666667   0.2857143), wk =   0.0761905
        k(   40) = (   0.4000000   0.1666667   0.4285714), wk =   0.0761905
        k(   41) = (   0.4000000   0.3333333   0.0000000), wk =   0.0380952
        k(   42) = (   0.4000000   0.3333333   0.1428571), wk =   0.0761905
        k(   43) = (   0.4000000   0.3333333   0.2857143), wk =   0.0761905
        k(   44) = (   0.4000000   0.3333333   0.4285714), wk =   0.0761905
        k(   45) = (   0.4000000  -0.5000000   0.0000000), wk =   0.0190476
        k(   46) = (   0.4000000  -0.5000000   0.1428571), wk =   0.0380952
        k(   47) = (   0.4000000  -0.5000000   0.2857143), wk =   0.0380952
        k(   48) = (   0.4000000  -0.5000000   0.4285714), wk =   0.0380952

     Largest allocated arrays     est. size (Mb)     dimensions
     Largest temporary arrays     est. size (Mb)     dimensions

     Initial potential from superposition of free atoms

     Starting from uniform charge
     Starting wfc are    0 randomized atomic wfcs

     Self-consistent Calculation

     iteration #  1     ecut=    40.00 Ry     beta=0.70
     CG style diagonalization
     ethr =  1.00E-02,  avg # of iterations = 15.9

     total energy              =    -781.55952535 Ry
     Harris-Foulkes estimate   =   -1371.17290211 Ry
     estimated scf accuracy    <     712.25081987 Ry

     iteration #  2     ecut=    40.00 Ry     beta=0.70
     CG style diagonalization
     c_bands:  4 eigenvalues not converged
     c_bands:  1 eigenvalues not converged
     c_bands:  1 eigenvalues not converged
     c_bands:  4 eigenvalues not converged
     c_bands:  1 eigenvalues not converged
     c_bands:  1 eigenvalues not converged
     c_bands:  4 eigenvalues not converged
     c_bands:  1 eigenvalues not converged
     c_bands:  3 eigenvalues not converged
     c_bands:  2 eigenvalues not converged
     c_bands:  3 eigenvalues not converged
     c_bands:  4 eigenvalues not converged
     c_bands:  2 eigenvalues not converged
     c_bands:  1 eigenvalues not converged
     c_bands:  2 eigenvalues not converged
     c_bands:  1 eigenvalues not converged
     c_bands:  2 eigenvalues not converged
     c_bands:  2 eigenvalues not converged
     c_bands:  2 eigenvalues not converged
     c_bands:  1 eigenvalues not converged
     c_bands:  1 eigenvalues not converged
     c_bands:  5 eigenvalues not converged
     c_bands:  1 eigenvalues not converged
     c_bands:  1 eigenvalues not converged
     c_bands:  2 eigenvalues not converged
     c_bands:  3 eigenvalues not converged
     c_bands:  2 eigenvalues not converged
     c_bands:  1 eigenvalues not converged
     c_bands:  3 eigenvalues not converged
     c_bands:  2 eigenvalues not converged
     c_bands:  4 eigenvalues not converged
     c_bands:  1 eigenvalues not converged
     c_bands:  5 eigenvalues not converged
     c_bands:  2 eigenvalues not converged
     c_bands:  2 eigenvalues not converged
     c_bands:  5 eigenvalues not converged
     c_bands:  4 eigenvalues not converged
     c_bands:  3 eigenvalues not converged
     c_bands:  2 eigenvalues not converged
     c_bands:  2 eigenvalues not converged
     c_bands:  3 eigenvalues not converged
     c_bands:  2 eigenvalues not converged
     c_bands:  1 eigenvalues not converged
     ethr =  1.00E-02,  avg # of iterations = 10.5

[...]

     End of self-consistent calculation

          k = 0.0000 0.0000 0.0000 (  2601 PWs)   bands (ev):

   -41.6958 -41.6744  -9.1136  -9.1136  -9.1136  -9.0053  -9.0053  -9.0053
    -7.4316  -6.1074  -6.1074  -3.5540  -3.5540  -3.5540   9.9312   9.9312
    11.1057  13.3681  13.3681  13.3681  15.7798  15.7798  15.7798  17.0598
    17.0598  17.0598  17.4747  17.4747  17.4747  21.8268  21.8268  21.8268
    30.3516  30.3516  31.7217  31.7217  32.0291  32.0291  32.0291  32.3374
    32.3374  32.3374  33.1981  33.5508  33.5508  33.5508  34.2676  35.3968
    37.2377  37.2378  37.2378  38.1955  38.1954  38.9797  41.5747  41.5747
    41.5747  41.9330  41.9330  44.2867  44.2867  44.2867  44.5010  44.5011
    44.5011  48.1767  48.6832  48.6836  49.0778  49.0778  49.0777  49.6471
    49.6474  49.6474

[...]

     the Fermi energy is    44.3670 ev

!    total energy              =   -1177.21817221 Ry
     Harris-Foulkes estimate   =   -1177.21823586 Ry
     estimated scf accuracy    <       0.00007855 Ry

     The total energy is the sum of the following terms:

     one-electron contribution =     194.10319141 Ry
     hartree contribution      =      81.39205073 Ry
[...]

[...]

     enthalpy old            =   -1177.2181722103 Ry
     enthalpy new            =   -1181.0463653965 Ry

     CASE: enthalpy_new < enthalpy_old

     small trust_radius: resetting bfgs history

     new trust radius        =       1.0496965270 bohr
     new conv_thr            =       0.0000010000 Ry

[...]

          total   stress  (Ry/bohr**3)                   (kbar)     P=-1253.30
  -0.00851978   0.00000000   0.00000000      -1253.30      0.00      0.00
   0.00000000  -0.00851978   0.00000000          0.00  -1253.30      0.00
   0.00000000   0.00000000  -0.00851978          0.00      0.00  -1253.30

     number of scf cycles    =   3
     number of bfgs steps    =   2

     enthalpy old            =   -1181.0463653965 Ry
     enthalpy new            =   -1179.1867090601 Ry

     CASE: enthalpy_new > enthalpy_old

     new trust radius        =       0.3652354366 bohr

     trust_radius < trust_radius_min

     resetting bfgs history

     Message from routine bfgs:
     history already reset at previous step: stopping
     new conv_thr            =       0.0000010000 Ry

     new unit-cell volume =   1042.77549 a.u.^3 (   154.52338 Ang^3 )

[...]

ATOMIC_POSITIONS (crystal)
Cr       0.000000000   0.500000000   0.250000000
Cr       0.000000000   0.500000000   0.750000000
Cr       0.500000000   0.750000000   0.000000000
Cr       0.500000000   0.250000000   0.000000000
Cr       0.750000000   0.000000000   0.500000000
Cr       0.250000000   0.000000000   0.500000000
Si       0.500000000   0.500000000   0.500000000
Si       0.000000000   0.000000000   0.000000000

     Writing output data file Prototype-La-cP8-Cr3Si.save
     NEW-OLD atomic charge density approx. for the potential
     NEW k-points:
        k(    1) = (   0.0000000   0.0000000   0.0000000), wk =   0.0095238
        k(    2) = (   0.0000000   0.0000000   0.1202320), wk =   0.0190476
        k(    3) = (   0.0000000   0.0000000   0.2404641), wk =   0.0190476
        k(    4) = (   0.0000000   0.0000000   0.3606961), wk =   0.0190476
        k(    5) = (   0.0000000   0.1402707   0.0000000), wk =   0.0190476
        k(    6) = (   0.0000000   0.1402707   0.1202320), wk =   0.0380952
        k(    7) = (   0.0000000   0.1402707   0.2404641), wk =   0.0380952
        k(    8) = (   0.0000000   0.1402707   0.3606961), wk =   0.0380952
        k(    9) = (   0.0000000   0.2805414   0.0000000), wk =   0.0190476
        k(   10) = (   0.0000000   0.2805414   0.1202320), wk =   0.0380952
        k(   11) = (   0.0000000   0.2805414   0.2404641), wk =   0.0380952
        k(   12) = (   0.0000000   0.2805414   0.3606961), wk =   0.0380952
        k(   13) = (   0.0000000  -0.4208121   0.0000000), wk =   0.0095238
        k(   14) = (   0.0000000  -0.4208121   0.1202320), wk =   0.0190476
        k(   15) = (   0.0000000  -0.4208121   0.2404641), wk =   0.0190476
        k(   16) = (   0.0000000  -0.4208121   0.3606961), wk =   0.0190476
        k(   17) = (   0.1683248   0.0000000   0.0000000), wk =   0.0190476
        k(   18) = (   0.1683248   0.0000000   0.1202320), wk =   0.0380952
        k(   19) = (   0.1683248   0.0000000   0.2404641), wk =   0.0380952
        k(   20) = (   0.1683248   0.0000000   0.3606961), wk =   0.0380952
        k(   21) = (   0.1683248   0.1402707   0.0000000), wk =   0.0380952
        k(   22) = (   0.1683248   0.1402707   0.1202320), wk =   0.0761905
        k(   23) = (   0.1683248   0.1402707   0.2404641), wk =   0.0761905
        k(   24) = (   0.1683248   0.1402707   0.3606961), wk =   0.0761905
        k(   25) = (   0.1683248   0.2805414   0.0000000), wk =   0.0380952
        k(   26) = (   0.1683248   0.2805414   0.1202320), wk =   0.0761905
        k(   27) = (   0.1683248   0.2805414   0.2404641), wk =   0.0761905
        k(   28) = (   0.1683248   0.2805414   0.3606961), wk =   0.0761905
        k(   29) = (   0.1683248  -0.4208121   0.0000000), wk =   0.0190476
        k(   30) = (   0.1683248  -0.4208121   0.1202320), wk =   0.0380952
        k(   31) = (   0.1683248  -0.4208121   0.2404641), wk =   0.0380952
        k(   32) = (   0.1683248  -0.4208121   0.3606961), wk =   0.0380952
        k(   33) = (   0.3366497   0.0000000   0.0000000), wk =   0.0190476
        k(   34) = (   0.3366497   0.0000000   0.1202320), wk =   0.0380952
        k(   35) = (   0.3366497   0.0000000   0.2404641), wk =   0.0380952
        k(   36) = (   0.3366497   0.0000000   0.3606961), wk =   0.0380952
        k(   37) = (   0.3366497   0.1402707   0.0000000), wk =   0.0380952
        k(   38) = (   0.3366497   0.1402707   0.1202320), wk =   0.0761905
        k(   39) = (   0.3366497   0.1402707   0.2404641), wk =   0.0761905
        k(   40) = (   0.3366497   0.1402707   0.3606961), wk =   0.0761905
        k(   41) = (   0.3366497   0.2805414   0.0000000), wk =   0.0380952
        k(   42) = (   0.3366497   0.2805414   0.1202320), wk =   0.0761905
        k(   43) = (   0.3366497   0.2805414   0.2404641), wk =   0.0761905
        k(   44) = (   0.3366497   0.2805414   0.3606961), wk =   0.0761905
        k(   45) = (   0.3366497  -0.4208121   0.0000000), wk =   0.0190476
        k(   46) = (   0.3366497  -0.4208121   0.1202320), wk =   0.0380952
        k(   47) = (   0.3366497  -0.4208121   0.2404641), wk =   0.0380952
        k(   48) = (   0.3366497  -0.4208121   0.3606961), wk =   0.0380952

[...]

     The maximum number of steps has been reached.

     End of BFGS Geometry Optimization
Begin final coordinates
     new unit-cell volume =   1042.77549 a.u.^3 (   154.52338 Ang^3 )

CELL_PARAMETERS (alat=  8.53457320)
   1.188178796   0.000000000   0.000000000
   0.000000000   1.188178796   0.000000000
   0.000000000   0.000000000   1.188178796

ATOMIC_POSITIONS (crystal)
Cr       0.000000000   0.500000000   0.250000000
Cr       0.000000000   0.500000000   0.750000000
Cr       0.500000000   0.750000000   0.000000000
Cr       0.500000000   0.250000000   0.000000000
Cr       0.750000000   0.000000000   0.500000000
Cr       0.250000000   0.000000000   0.500000000
Si       0.500000000   0.500000000   0.500000000
Si       0.000000000   0.000000000   0.000000000
End final coordinates

     A final scf calculation at the relaxed structure.
     The G-vectors are recalculated for the final unit cell
     Results may differ from those at the preceding step.

     bravais-lattice index     =            0
     lattice parameter (alat)  =       8.5346  a.u.
     unit-cell volume          =    1042.7755 (a.u.)^3
     number of atoms/cell      =            8
     number of atomic types    =            2
     number of electrons       =       124.00
     number of Kohn-Sham states=           74
     kinetic-energy cutoff     =      40.0000  Ry
     charge density cutoff     =     160.0000  Ry
     convergence threshold     =      1.0E-06
     mixing beta               =       0.7000
     number of iterations used =            8  plain     mixing
     Exchange-correlation      = SLA-PZ-NOGX-NOGC ( 1 1 0 0 0)
     EXX-fraction              =        0.00

     celldm(1)=   8.534573  celldm(2)=   0.000000  celldm(3)=   0.000000
     celldm(4)=   0.000000  celldm(5)=   0.000000  celldm(6)=   0.000000

     crystal axes: (cart. coord. in units of alat)
               a(1) = (   1.188179   0.000000   0.000000 )
               a(2) = (   0.000000   1.188179   0.000000 )
               a(3) = (   0.000000   0.000000   1.188179 )

     reciprocal axes: (cart. coord. in units 2 pi/alat)
               b(1) = (  0.841624  0.000000  0.000000 )
               b(2) = (  0.000000  0.841624  0.000000 )
               b(3) = (  0.000000  0.000000  0.841624 )

     PseudoPot. # 1 for Nd read from file:
     /home/cwx6513/pp.La/Nd.UPF
     MD5 check sum: c66c5b6abe7b5840ced9b1e244e3bed6
     Pseudo is Norm-conserving, Zval = 14.0
     Generated in analytical, separable form
     Using radial grid of 1257 points,  6 beta functions with:
                l(1) =   0
                l(2) =   0
                l(3) =   1
                l(4) =   1
                l(5) =   2
                l(6) =   3

     PseudoPot. # 2 for Dy read from file:
     /home/cwx6513/pp.La/Dy.UPF
     MD5 check sum: 9597327bec62616a94a14d07f3fd9936
     Pseudo is Norm-conserving, Zval = 20.0
     Generated in analytical, separable form
     Using radial grid of 1265 points,  6 beta functions with:
                l(1) =   0
                l(2) =   0
                l(3) =   1
                l(4) =   1
                l(5) =   2
                l(6) =   3

     atomic species   valence    mass     pseudopotential
        Cr            14.00    51.99610     Nd( 1.00)
        Si            20.00    28.08550     Dy( 1.00)

     48 Sym. Ops., with inversion, found (24 have fractional translation)

   Cartesian axes

     site n.     atom                  positions (alat units)
         1           Cr  tau(   1) = (   0.0000000   0.5940894   0.2970447  )
         2           Cr  tau(   2) = (   0.0000000   0.5940894   0.8911341  )
         3           Cr  tau(   3) = (   0.5940894   0.8911341   0.0000000  )
         4           Cr  tau(   4) = (   0.5940894   0.2970447   0.0000000  )
         5           Cr  tau(   5) = (   0.8911341   0.0000000   0.5940894  )
         6           Cr  tau(   6) = (   0.2970447   0.0000000   0.5940894  )
         7           Si  tau(   7) = (   0.5940894   0.5940894   0.5940894  )
         8           Si  tau(   8) = (   0.0000000   0.0000000   0.0000000  )

     number of k points=    48  gaussian smearing, width (Ry)=  0.1000
                       cart. coord. in units 2pi/alat
        k(    1) = (   0.0000000   0.0000000   0.0000000), wk =   0.0095238
        k(    2) = (   0.0000000   0.0000000   0.1202320), wk =   0.0190476
        k(    3) = (   0.0000000   0.0000000   0.2404641), wk =   0.0190476
        k(    4) = (   0.0000000   0.0000000   0.3606961), wk =   0.0190476
        k(    5) = (   0.0000000   0.1402707   0.0000000), wk =   0.0190476
        k(    6) = (   0.0000000   0.1402707   0.1202320), wk =   0.0380952
        k(    7) = (   0.0000000   0.1402707   0.2404641), wk =   0.0380952
        k(    8) = (   0.0000000   0.1402707   0.3606961), wk =   0.0380952
        k(    9) = (   0.0000000   0.2805414   0.0000000), wk =   0.0190476
        k(   10) = (   0.0000000   0.2805414   0.1202320), wk =   0.0380952
        k(   11) = (   0.0000000   0.2805414   0.2404641), wk =   0.0380952
        k(   12) = (   0.0000000   0.2805414   0.3606961), wk =   0.0380952
        k(   13) = (   0.0000000  -0.4208121   0.0000000), wk =   0.0095238
        k(   14) = (   0.0000000  -0.4208121   0.1202320), wk =   0.0190476
        k(   15) = (   0.0000000  -0.4208121   0.2404641), wk =   0.0190476
        k(   16) = (   0.0000000  -0.4208121   0.3606961), wk =   0.0190476
        k(   17) = (   0.1683248   0.0000000   0.0000000), wk =   0.0190476
        k(   18) = (   0.1683248   0.0000000   0.1202320), wk =   0.0380952
        k(   19) = (   0.1683248   0.0000000   0.2404641), wk =   0.0380952
        k(   20) = (   0.1683248   0.0000000   0.3606961), wk =   0.0380952
        k(   21) = (   0.1683248   0.1402707   0.0000000), wk =   0.0380952
        k(   22) = (   0.1683248   0.1402707   0.1202320), wk =   0.0761905
        k(   23) = (   0.1683248   0.1402707   0.2404641), wk =   0.0761905
        k(   24) = (   0.1683248   0.1402707   0.3606961), wk =   0.0761905
        k(   25) = (   0.1683248   0.2805414   0.0000000), wk =   0.0380952
        k(   26) = (   0.1683248   0.2805414   0.1202320), wk =   0.0761905
        k(   27) = (   0.1683248   0.2805414   0.2404641), wk =   0.0761905
        k(   28) = (   0.1683248   0.2805414   0.3606961), wk =   0.0761905
        k(   29) = (   0.1683248  -0.4208121   0.0000000), wk =   0.0190476
        k(   30) = (   0.1683248  -0.4208121   0.1202320), wk =   0.0380952
        k(   31) = (   0.1683248  -0.4208121   0.2404641), wk =   0.0380952
        k(   32) = (   0.1683248  -0.4208121   0.3606961), wk =   0.0380952
        k(   33) = (   0.3366497   0.0000000   0.0000000), wk =   0.0190476
        k(   34) = (   0.3366497   0.0000000   0.1202320), wk =   0.0380952
        k(   35) = (   0.3366497   0.0000000   0.2404641), wk =   0.0380952
        k(   36) = (   0.3366497   0.0000000   0.3606961), wk =   0.0380952
        k(   37) = (   0.3366497   0.1402707   0.0000000), wk =   0.0380952
        k(   38) = (   0.3366497   0.1402707   0.1202320), wk =   0.0761905
        k(   39) = (   0.3366497   0.1402707   0.2404641), wk =   0.0761905
        k(   40) = (   0.3366497   0.1402707   0.3606961), wk =   0.0761905
        k(   41) = (   0.3366497   0.2805414   0.0000000), wk =   0.0380952
        k(   42) = (   0.3366497   0.2805414   0.1202320), wk =   0.0761905
        k(   43) = (   0.3366497   0.2805414   0.2404641), wk =   0.0761905
        k(   44) = (   0.3366497   0.2805414   0.3606961), wk =   0.0761905
        k(   45) = (   0.3366497  -0.4208121   0.0000000), wk =   0.0190476
        k(   46) = (   0.3366497  -0.4208121   0.1202320), wk =   0.0380952
        k(   47) = (   0.3366497  -0.4208121   0.2404641), wk =   0.0380952
        k(   48) = (   0.3366497  -0.4208121   0.3606961), wk =   0.0380952

     Largest allocated arrays     est. size (Mb)     dimensions
     Largest temporary arrays     est. size (Mb)     dimensions

     Initial potential from superposition of free atoms

     Starting from uniform charge
     Starting wfc are    0 randomized atomic wfcs

     Writing output data file Prototype-La-cP8-Cr3Si.save

     Self-consistent Calculation

[...]

     iteration #  9     ecut=    40.00 Ry     beta=0.70
     CG style diagonalization
     c_bands:  1 eigenvalues not converged
     ethr =  2.47E-08,  avg # of iterations =  4.7

     total energy              =   -1183.44463817 Ry
     Harris-Foulkes estimate   =   -1183.44463891 Ry
     estimated scf accuracy    <       0.00000176 Ry

     iteration # 10     ecut=    40.00 Ry     beta=0.70
     CG style diagonalization
     ethr =  1.42E-09,  avg # of iterations =  4.4

     End of self-consistent calculation

[...]

          k = 0.3366-0.4208 0.3607 (  4466 PWs)   bands (ev):

   -57.8259 -57.8259 -24.7655 -24.7655 -24.7601 -24.7599 -24.7591 -24.7588
   -23.0120 -22.9888 -22.9189 -22.9176 -22.8492 -22.8239  -2.2885  -2.1457
    -1.8686  -1.8607  -1.7734  -1.7688  -1.5079  -1.4440  -1.2199  -1.1905
    -1.1077  -1.0934  -0.9894  -0.9772  -0.9538  -0.9379  -0.9342  -0.9066
    15.9015  15.9144  15.9712  15.9741  16.0084  16.0290  16.0496  16.0549
    16.0821  16.0952  19.4829  19.4833  21.0423  21.0978  21.5240  21.5303
    21.6210  21.6594  22.4468  22.4645  22.7366  22.7387  22.8604  22.9172
    23.8449  24.1095  24.3320  24.4707  24.6002  24.6715  25.0526  25.1296
    25.6840  25.7222  26.5534  26.6188  26.7235  26.8335  26.9245  27.1931
    27.2888  27.3590

     the Fermi energy is    25.0160 ev

!    total energy              =   -1183.44463871 Ry
     Harris-Foulkes estimate   =   -1183.44463907 Ry
     estimated scf accuracy    <       0.00000052 Ry

     The total energy is the sum of the following terms:

     one-electron contribution =     -88.28312550 Ry
     hartree contribution      =     140.52948093 Ry
     xc contribution           =    -127.35094183 Ry
     ewald contribution        =   -1107.95863804 Ry
     smearing contrib. (-TS)   =      -0.38141427 Ry

     convergence has been achieved in  10 iterations

     Forces acting on atoms (Ry/au):

     atom    1 type  1   force =     0.00000000    0.00000000    0.00000000
     atom    2 type  1   force =     0.00000000    0.00000000    0.00000000
     atom    3 type  1   force =     0.00000000    0.00000000    0.00000000
     atom    4 type  1   force =     0.00000000    0.00000000    0.00000000
     atom    5 type  1   force =     0.00000000    0.00000000    0.00000000
     atom    6 type  1   force =     0.00000000    0.00000000    0.00000000
     atom    7 type  2   force =     0.00000000    0.00000000    0.00000000
     atom    8 type  2   force =     0.00000000    0.00000000    0.00000000

     Total force =     0.000000     Total SCF correction =     0.000000

     entering subroutine stress ...

          total   stress  (Ry/bohr**3)                   (kbar)     P=  229.78
   0.00156198   0.00000000   0.00000000        229.78      0.00      0.00
   0.00000000   0.00156198   0.00000000          0.00    229.78      0.00
   0.00000000   0.00000000   0.00156198          0.00      0.00    229.78

     Writing output data file Prototype-La-cP8-Cr3Si.save

     General routines

     Parallel routines

   This run was terminated on:  17:52:50  22Mar2018

   JOB DONE.