     Program PWSCF v.5.0.2 starts on 23Mar2018 at  0:55:57

     Current dimensions of program PWSCF are:
     Max number of different atomic species (ntypx) = 10
     Max number of k-points (npk) =  40000
     Max angular momentum in pseudopotentials (lmaxx) =  3
     Waiting for input...
     Reading input from standard input

     Subspace diagonalization in iterative solution of the eigenvalue problem:
     a serial algorithm will be used

     bravais-lattice index     =            0
     lattice parameter (alat)  =      12.0168  a.u.
     unit-cell volume          =    1187.3413 (a.u.)^3
     number of atoms/cell      =            8
     number of atomic types    =            2
     number of electrons       =       160.00
     number of Kohn-Sham states=           96
     kinetic-energy cutoff     =      40.0000  Ry
     charge density cutoff     =     160.0000  Ry
     convergence threshold     =      1.0E-04
     mixing beta               =       0.7000
     number of iterations used =            8  plain     mixing
     Exchange-correlation      = SLA-PZ-NOGX-NOGC ( 1 1 0 0 0)
     EXX-fraction              =        0.00
     nstep                     =           50

     celldm(1)=  12.016801  celldm(2)=   0.000000  celldm(3)=   0.000000
     celldm(4)=   0.000000  celldm(5)=   0.000000  celldm(6)=   0.000000

     crystal axes: (cart. coord. in units of alat)
               a(1) = (   1.000000   0.000000   0.000000 )
               a(2) = (  -0.500000   0.866025   0.000000 )
               a(3) = (   0.000000   0.000000   0.790093 )

     reciprocal axes: (cart. coord. in units 2 pi/alat)
               b(1) = (  1.000000  0.577350  0.000000 )
               b(2) = (  0.000000  1.154701  0.000000 )
               b(3) = (  0.000000  0.000000  1.265674 )

     PseudoPot. # 1 for Ho read from file:
     /home/cwx6513/pp.La/Ho.UPF
     MD5 check sum: f307ee11bce99f5b724fa279e3790763
     Pseudo is Norm-conserving, Zval = 21.0
     Generated in analytical, separable form
     Using radial grid of 1265 points,  6 beta functions with:
                l(1) =   0
                l(2) =   0
                l(3) =   1
                l(4) =   1
                l(5) =   2
                l(6) =   3

     PseudoPot. # 2 for Eu read from file:
     /home/cwx6513/pp.La/Eu.UPF
     MD5 check sum: 5efdbbfc50c6a10138933a6429836ad2
     Pseudo is Norm-conserving, Zval = 17.0
     Generated in analytical, separable form
     Using radial grid of 1261 points,  6 beta functions with:
                l(1) =   0
                l(2) =   0
                l(3) =   1
                l(4) =   1
                l(5) =   2
                l(6) =   3

     atomic species   valence    mass     pseudopotential
        Mg            21.00    24.30500     Ho( 1.00)
        Cd            17.00   112.41100     Eu( 1.00)

     24 Sym. Ops., with inversion, found (12 have fractional translation)

   Cartesian axes

     site n.     atom                  positions (alat units)
         1           Mg  tau(   1) = (   0.2478935   0.7204716   0.1975233  )
         2           Mg  tau(   2) = (   0.7478935   0.1455538   0.5925699  )
         3           Mg  tau(   3) = (   0.2521065   0.1455538   0.5925699  )
         4           Mg  tau(   4) = (  -0.2478935   0.7204716   0.1975233  )
         5           Mg  tau(   5) = (   0.0000000   0.2911075   0.1975233  )
         6           Mg  tau(   6) = (   0.5000000   0.5749179   0.5925699  )
         7           Cd  tau(   7) = (   0.5000005   0.2886748   0.1975233  )
         8           Cd  tau(   8) = (  -0.0000005   0.5773506   0.5925699  )

     number of k points=    64  gaussian smearing, width (Ry)=  0.1000
                       cart. coord. in units 2pi/alat
        k(    1) = (   0.0000000   0.0000000   0.0000000), wk =   0.0095238
        k(    2) = (   0.0000000   0.0000000   0.1808105), wk =   0.0190476
        k(    3) = (   0.0000000   0.0000000   0.3616210), wk =   0.0190476
        k(    4) = (   0.0000000   0.0000000   0.5424315), wk =   0.0190476
        k(    5) = (   0.0000000   0.1924501   0.0000000), wk =   0.0190476
        k(    6) = (   0.0000000   0.1924501   0.1808105), wk =   0.0380952
        k(    7) = (   0.0000000   0.1924501   0.3616210), wk =   0.0380952
        k(    8) = (   0.0000000   0.1924501   0.5424315), wk =   0.0380952
        k(    9) = (   0.0000000   0.3849002   0.0000000), wk =   0.0190476
        k(   10) = (   0.0000000   0.3849002   0.1808105), wk =   0.0380952
        k(   11) = (   0.0000000   0.3849002   0.3616210), wk =   0.0380952
        k(   12) = (   0.0000000   0.3849002   0.5424315), wk =   0.0380952
        k(   13) = (   0.0000000  -0.5773503   0.0000000), wk =   0.0095238
        k(   14) = (   0.0000000  -0.5773503   0.1808105), wk =   0.0190476
        k(   15) = (   0.0000000  -0.5773503   0.3616210), wk =   0.0190476
        k(   16) = (   0.0000000  -0.5773503   0.5424315), wk =   0.0190476
        k(   17) = (   0.2000000   0.1154701   0.0000000), wk =   0.0190476
        k(   18) = (   0.2000000   0.1154701   0.1808105), wk =   0.0380952
        k(   19) = (   0.2000000   0.1154701   0.3616210), wk =   0.0380952
        k(   20) = (   0.2000000   0.1154701   0.5424315), wk =   0.0380952
        k(   21) = (   0.2000000   0.3079201   0.0000000), wk =   0.0190476
        k(   22) = (   0.2000000   0.3079201   0.1808105), wk =   0.0380952
        k(   23) = (   0.2000000   0.3079201   0.3616210), wk =   0.0380952
        k(   24) = (   0.2000000   0.3079201   0.5424315), wk =   0.0380952
        k(   25) = (   0.2000000   0.5003702   0.0000000), wk =   0.0190476
        k(   26) = (   0.2000000   0.5003702   0.1808105), wk =   0.0380952
        k(   27) = (   0.2000000   0.5003702   0.3616210), wk =   0.0380952
        k(   28) = (   0.2000000   0.5003702   0.5424315), wk =   0.0380952
        k(   29) = (   0.2000000  -0.4618802   0.0000000), wk =   0.0190476
        k(   30) = (   0.2000000  -0.4618802   0.1808105), wk =   0.0380952
        k(   31) = (   0.2000000  -0.4618802   0.3616210), wk =   0.0380952
        k(   32) = (   0.2000000  -0.4618802   0.5424315), wk =   0.0380952
        k(   33) = (   0.2000000  -0.2694301   0.0000000), wk =   0.0190476
        k(   34) = (   0.2000000  -0.2694301   0.1808105), wk =   0.0380952
        k(   35) = (   0.2000000  -0.2694301   0.3616210), wk =   0.0380952
        k(   36) = (   0.2000000  -0.2694301   0.5424315), wk =   0.0380952
        k(   37) = (   0.2000000  -0.0769800   0.0000000), wk =   0.0190476
        k(   38) = (   0.2000000  -0.0769800   0.1808105), wk =   0.0380952
        k(   39) = (   0.2000000  -0.0769800   0.3616210), wk =   0.0380952
        k(   40) = (   0.2000000  -0.0769800   0.5424315), wk =   0.0380952
        k(   41) = (   0.4000000   0.2309401   0.0000000), wk =   0.0190476
        k(   42) = (   0.4000000   0.2309401   0.1808105), wk =   0.0380952
        k(   43) = (   0.4000000   0.2309401   0.3616210), wk =   0.0380952
        k(   44) = (   0.4000000   0.2309401   0.5424315), wk =   0.0380952
        k(   45) = (   0.4000000   0.4233902   0.0000000), wk =   0.0190476
        k(   46) = (   0.4000000   0.4233902   0.1808105), wk =   0.0380952
        k(   47) = (   0.4000000   0.4233902   0.3616210), wk =   0.0380952
        k(   48) = (   0.4000000   0.4233902   0.5424315), wk =   0.0380952
        k(   49) = (   0.4000000   0.6158403   0.0000000), wk =   0.0190476
        k(   50) = (   0.4000000   0.6158403   0.1808105), wk =   0.0380952
        k(   51) = (   0.4000000   0.6158403   0.3616210), wk =   0.0380952
        k(   52) = (   0.4000000   0.6158403   0.5424315), wk =   0.0380952
        k(   53) = (   0.4000000  -0.3464102   0.0000000), wk =   0.0190476
        k(   54) = (   0.4000000  -0.3464102   0.1808105), wk =   0.0380952
        k(   55) = (   0.4000000  -0.3464102   0.3616210), wk =   0.0380952
        k(   56) = (   0.4000000  -0.3464102   0.5424315), wk =   0.0380952
        k(   57) = (   0.4000000  -0.1539601   0.0000000), wk =   0.0190476
        k(   58) = (   0.4000000  -0.1539601   0.1808105), wk =   0.0380952
        k(   59) = (   0.4000000  -0.1539601   0.3616210), wk =   0.0380952
        k(   60) = (   0.4000000  -0.1539601   0.5424315), wk =   0.0380952
        k(   61) = (   0.4000000   0.0384900   0.0000000), wk =   0.0190476
        k(   62) = (   0.4000000   0.0384900   0.1808105), wk =   0.0380952
        k(   63) = (   0.4000000   0.0384900   0.3616210), wk =   0.0380952
        k(   64) = (   0.4000000   0.0384900   0.5424315), wk =   0.0380952

     Largest allocated arrays     est. size (Mb)     dimensions
     Largest temporary arrays     est. size (Mb)     dimensions

     Initial potential from superposition of free atoms

     Starting from uniform charge
     Starting wfc are    0 randomized atomic wfcs

     Self-consistent Calculation

     iteration #  1     ecut=    40.00 Ry     beta=0.70
     CG style diagonalization
     c_bands:  1 eigenvalues not converged
     c_bands:  1 eigenvalues not converged
     ethr =  1.00E-02,  avg # of iterations = 12.1

     total energy              =   -1745.97624059 Ry
     Harris-Foulkes estimate   =   -2675.05323558 Ry
     estimated scf accuracy    <    1162.62477519 Ry

[...]

     iteration #  4     ecut=    40.00 Ry     beta=0.70
     CG style diagonalization
     ethr =  1.00E-02,  avg # of iterations =  7.7

[...]

     End of self-consistent calculation

          k = 0.0000 0.0000 0.0000 (  5047 PWs)   bands (ev):

   -68.2129 -68.2115 -68.2115 -68.1947 -68.1946 -68.1897 -38.7852 -38.7846
   -32.4639 -32.4398 -32.4194 -32.3932 -32.3931 -32.3680 -32.3680 -32.3498
   -32.3498 -32.3156 -32.3011 -32.3010 -32.2845 -32.2845 -32.2604 -32.2604
   -32.2597 -32.2318 -11.6207 -11.6109 -11.5563 -11.5563 -11.5544 -11.5544
    10.2377  10.3816  10.3816  10.4185  10.5315  10.8735  10.8735  10.8862
    10.8903  10.8904  11.0271  11.2787  11.2788  11.5923  11.7166  11.7167
    11.8067  11.9356  11.9357  12.0328  12.0329  12.1607  12.1608  12.2283
    12.3859  12.3860  12.6041  12.6042  12.7470  12.9244  12.9695  17.4940
    18.0006  18.0007  18.2552  18.9767  18.9768  20.0058  20.5100  20.5101
    20.7056  20.7057  21.9214  21.9215  22.3020  22.3820  22.6919  22.6919
    24.0848  25.5181  25.5181  26.2800  26.2801  26.5401  26.5402  26.9890
    27.5299  27.9595  29.0353  29.0353  29.1964  29.6343  30.8203  30.8206

[...]

     the Fermi energy is    23.9281 ev

!    total energy              =   -2111.95338990 Ry
     Harris-Foulkes estimate   =   -2111.95341689 Ry
     estimated scf accuracy    <       0.00002982 Ry

     The total energy is the sum of the following terms:

     one-electron contribution =    -523.76186597 Ry
     hartree contribution      =     355.49407742 Ry
     xc contribution           =    -191.42986798 Ry
     ewald contribution        =   -1752.02793863 Ry
     smearing contrib. (-TS)   =      -0.22779474 Ry

     convergence has been achieved in  12 iterations

     Forces acting on atoms (Ry/au):

     atom    1 type  1   force =     0.00214093    0.00123606    0.00000000
[...]
        k(   13) = (   0.0000000  -0.5772788   0.0000000), wk =   0.0095238
        k(   14) = (   0.0000000  -0.5772788   0.1769708), wk =   0.0190476
        k(   15) = (   0.0000000  -0.5772788   0.3539415), wk =   0.0190476
        k(   16) = (   0.0000000  -0.5772788   0.5309123), wk =   0.0190476
        k(   17) = (   0.1999752   0.1154558   0.0000000), wk =   0.0190476
        k(   18) = (   0.1999752   0.1154558   0.1769708), wk =   0.0380952
        k(   19) = (   0.1999752   0.1154558   0.3539415), wk =   0.0380952
        k(   20) = (   0.1999752   0.1154558   0.5309123), wk =   0.0380952
        k(   21) = (   0.1999752   0.3078820   0.0000000), wk =   0.0190476
        k(   22) = (   0.1999752   0.3078820   0.1769708), wk =   0.0380952
        k(   23) = (   0.1999752   0.3078820   0.3539415), wk =   0.0380952
        k(   24) = (   0.1999752   0.3078820   0.5309123), wk =   0.0380952
        k(   25) = (   0.1999752   0.5003083   0.0000000), wk =   0.0190476
        k(   26) = (   0.1999752   0.5003083   0.1769708), wk =   0.0380952
        k(   27) = (   0.1999752   0.5003083   0.3539415), wk =   0.0380952
        k(   28) = (   0.1999752   0.5003083   0.5309123), wk =   0.0380952
        k(   29) = (   0.1999752  -0.4618230   0.0000000), wk =   0.0190476
        k(   30) = (   0.1999752  -0.4618230   0.1769708), wk =   0.0380952
        k(   31) = (   0.1999752  -0.4618230   0.3539415), wk =   0.0380952
        k(   32) = (   0.1999752  -0.4618230   0.5309123), wk =   0.0380952
        k(   33) = (   0.1999752  -0.2693968   0.0000000), wk =   0.0190476
        k(   34) = (   0.1999752  -0.2693968   0.1769708), wk =   0.0380952
        k(   35) = (   0.1999752  -0.2693968   0.3539415), wk =   0.0380952
        k(   36) = (   0.1999752  -0.2693968   0.5309123), wk =   0.0380952
        k(   37) = (   0.1999752  -0.0769705   0.0000000), wk =   0.0190476
        k(   38) = (   0.1999752  -0.0769705   0.1769708), wk =   0.0380952
        k(   39) = (   0.1999752  -0.0769705   0.3539415), wk =   0.0380952
        k(   40) = (   0.1999752  -0.0769705   0.5309123), wk =   0.0380952
        k(   41) = (   0.3999505   0.2309115   0.0000000), wk =   0.0190476
        k(   42) = (   0.3999505   0.2309115   0.1769708), wk =   0.0380952
        k(   43) = (   0.3999505   0.2309115   0.3539415), wk =   0.0380952
        k(   44) = (   0.3999505   0.2309115   0.5309123), wk =   0.0380952
        k(   45) = (   0.3999505   0.4233378   0.0000000), wk =   0.0190476
        k(   46) = (   0.3999505   0.4233378   0.1769708), wk =   0.0380952
        k(   47) = (   0.3999505   0.4233378   0.3539415), wk =   0.0380952
        k(   48) = (   0.3999505   0.4233378   0.5309123), wk =   0.0380952
        k(   49) = (   0.3999505   0.6157640   0.0000000), wk =   0.0190476
        k(   50) = (   0.3999505   0.6157640   0.1769708), wk =   0.0380952
        k(   51) = (   0.3999505   0.6157640   0.3539415), wk =   0.0380952
        k(   52) = (   0.3999505   0.6157640   0.5309123), wk =   0.0380952
        k(   53) = (   0.3999505  -0.3463673   0.0000000), wk =   0.0190476
        k(   54) = (   0.3999505  -0.3463673   0.1769708), wk =   0.0380952
        k(   55) = (   0.3999505  -0.3463673   0.3539415), wk =   0.0380952
        k(   56) = (   0.3999505  -0.3463673   0.5309123), wk =   0.0380952
        k(   57) = (   0.3999505  -0.1539410   0.0000000), wk =   0.0190476
        k(   58) = (   0.3999505  -0.1539410   0.1769708), wk =   0.0380952
        k(   59) = (   0.3999505  -0.1539410   0.3539415), wk =   0.0380952
        k(   60) = (   0.3999505  -0.1539410   0.5309123), wk =   0.0380952
        k(   61) = (   0.3999505   0.0384853   0.0000000), wk =   0.0190476
        k(   62) = (   0.3999505   0.0384853   0.1769708), wk =   0.0380952
        k(   63) = (   0.3999505   0.0384853   0.3539415), wk =   0.0380952
        k(   64) = (   0.3999505   0.0384853   0.5309123), wk =   0.0380952

[...]

     The maximum number of steps has been reached.

     End of BFGS Geometry Optimization
Begin final coordinates
     new unit-cell volume =   1213.40354 a.u.^3 (   179.80785 Ang^3 )

CELL_PARAMETERS (alat= 12.01680127)
   1.000123816   0.000000000   0.000000000
  -0.500061908   0.866132632   0.000000000
   0.000000000   0.000000000   0.807235869

ATOMIC_POSITIONS (crystal)
Mg       0.666871158   0.833435579   0.250000000
Mg       0.833435579   0.166564421   0.750000000
Mg       0.333128842   0.166564421   0.750000000
Mg       0.166564421   0.833435579   0.250000000
Mg       0.166564421   0.333128842   0.250000000
Mg       0.833435579   0.666871158   0.750000000
Cd       0.666667000   0.333333000   0.250000000
Cd       0.333333000   0.666667000   0.750000000
End final coordinates

     A final scf calculation at the relaxed structure.
     The G-vectors are recalculated for the final unit cell
     Results may differ from those at the preceding step.

     bravais-lattice index     =            0
     lattice parameter (alat)  =      12.0168  a.u.
     unit-cell volume          =    1213.4035 (a.u.)^3
     number of atoms/cell      =            8
     number of atomic types    =            2
     number of electrons       =       160.00
     number of Kohn-Sham states=           96
     kinetic-energy cutoff     =      40.0000  Ry
     charge density cutoff     =     160.0000  Ry
     convergence threshold     =      3.1E-05
     mixing beta               =       0.7000
     number of iterations used =            8  plain     mixing
     Exchange-correlation      = SLA-PZ-NOGX-NOGC ( 1 1 0 0 0)
     EXX-fraction              =        0.00

     celldm(1)=  12.016801  celldm(2)=   0.000000  celldm(3)=   0.000000
     celldm(4)=   0.000000  celldm(5)=   0.000000  celldm(6)=   0.000000

     crystal axes: (cart. coord. in units of alat)
               a(1) = (   1.000124   0.000000   0.000000 )
               a(2) = (  -0.500062   0.866133   0.000000 )
               a(3) = (   0.000000   0.000000   0.807236 )

     reciprocal axes: (cart. coord. in units 2 pi/alat)
               b(1) = (  0.999876  0.577279  0.000000 )
               b(2) = (  0.000000  1.154558  0.000000 )
               b(3) = (  0.000000  0.000000  1.238795 )

     PseudoPot. # 1 for Ho read from file:
     /home/cwx6513/pp.La/Ho.UPF
     MD5 check sum: f307ee11bce99f5b724fa279e3790763
     Pseudo is Norm-conserving, Zval = 21.0
     Generated in analytical, separable form
     Using radial grid of 1265 points,  6 beta functions with:
                l(1) =   0
                l(2) =   0
                l(3) =   1
                l(4) =   1
                l(5) =   2
                l(6) =   3

     PseudoPot. # 2 for Eu read from file:
     /home/cwx6513/pp.La/Eu.UPF
     MD5 check sum: 5efdbbfc50c6a10138933a6429836ad2
     Pseudo is Norm-conserving, Zval = 17.0
     Generated in analytical, separable form
     Using radial grid of 1261 points,  6 beta functions with:
                l(1) =   0
                l(2) =   0
                l(3) =   1
                l(4) =   1
                l(5) =   2
                l(6) =   3

     atomic species   valence    mass     pseudopotential
        Mg            21.00    24.30500     Ho( 1.00)
        Cd            17.00   112.41100     Eu( 1.00)

     24 Sym. Ops., with inversion, found (12 have fractional translation)

   Cartesian axes

     site n.     atom                  positions (alat units)
         1           Mg  tau(   1) = (   0.2501843   0.7218658   0.2018090  )
         2           Mg  tau(   2) = (   0.7502462   0.1442669   0.6054269  )
         3           Mg  tau(   3) = (   0.2498776   0.1442669   0.6054269  )
         4           Mg  tau(   4) = (  -0.2501843   0.7218658   0.2018090  )
         5           Mg  tau(   5) = (   0.0000000   0.2885338   0.2018090  )
         6           Mg  tau(   6) = (   0.5000619   0.5775989   0.6054269  )
         7           Cd  tau(   7) = (   0.5000624   0.2887106   0.2018090  )
         8           Cd  tau(   8) = (  -0.0000005   0.5774220   0.6054269  )

     number of k points=    64  gaussian smearing, width (Ry)=  0.1000
                       cart. coord. in units 2pi/alat
        k(    1) = (   0.0000000   0.0000000   0.0000000), wk =   0.0095238
        k(    2) = (   0.0000000   0.0000000   0.1769708), wk =   0.0190476
        k(    3) = (   0.0000000   0.0000000   0.3539415), wk =   0.0190476
        k(    4) = (   0.0000000   0.0000000   0.5309123), wk =   0.0190476
        k(    5) = (   0.0000000   0.1924263   0.0000000), wk =   0.0190476
        k(    6) = (   0.0000000   0.1924263   0.1769708), wk =   0.0380952
        k(    7) = (   0.0000000   0.1924263   0.3539415), wk =   0.0380952
        k(    8) = (   0.0000000   0.1924263   0.5309123), wk =   0.0380952
        k(    9) = (   0.0000000   0.3848525   0.0000000), wk =   0.0190476
        k(   10) = (   0.0000000   0.3848525   0.1769708), wk =   0.0380952
        k(   11) = (   0.0000000   0.3848525   0.3539415), wk =   0.0380952
        k(   12) = (   0.0000000   0.3848525   0.5309123), wk =   0.0380952
        k(   13) = (   0.0000000  -0.5772788   0.0000000), wk =   0.0095238
        k(   14) = (   0.0000000  -0.5772788   0.1769708), wk =   0.0190476
        k(   15) = (   0.0000000  -0.5772788   0.3539415), wk =   0.0190476
        k(   16) = (   0.0000000  -0.5772788   0.5309123), wk =   0.0190476
        k(   17) = (   0.1999752   0.1154558   0.0000000), wk =   0.0190476
        k(   18) = (   0.1999752   0.1154558   0.1769708), wk =   0.0380952
        k(   19) = (   0.1999752   0.1154558   0.3539415), wk =   0.0380952
        k(   20) = (   0.1999752   0.1154558   0.5309123), wk =   0.0380952
        k(   21) = (   0.1999752   0.3078820   0.0000000), wk =   0.0190476
        k(   22) = (   0.1999752   0.3078820   0.1769708), wk =   0.0380952
        k(   23) = (   0.1999752   0.3078820   0.3539415), wk =   0.0380952
        k(   24) = (   0.1999752   0.3078820   0.5309123), wk =   0.0380952
        k(   25) = (   0.1999752   0.5003083   0.0000000), wk =   0.0190476
        k(   26) = (   0.1999752   0.5003083   0.1769708), wk =   0.0380952
        k(   27) = (   0.1999752   0.5003083   0.3539415), wk =   0.0380952
        k(   28) = (   0.1999752   0.5003083   0.5309123), wk =   0.0380952
        k(   29) = (   0.1999752  -0.4618230   0.0000000), wk =   0.0190476
        k(   30) = (   0.1999752  -0.4618230   0.1769708), wk =   0.0380952
        k(   31) = (   0.1999752  -0.4618230   0.3539415), wk =   0.0380952
        k(   32) = (   0.1999752  -0.4618230   0.5309123), wk =   0.0380952
        k(   33) = (   0.1999752  -0.2693968   0.0000000), wk =   0.0190476
        k(   34) = (   0.1999752  -0.2693968   0.1769708), wk =   0.0380952
        k(   35) = (   0.1999752  -0.2693968   0.3539415), wk =   0.0380952
        k(   36) = (   0.1999752  -0.2693968   0.5309123), wk =   0.0380952
        k(   37) = (   0.1999752  -0.0769705   0.0000000), wk =   0.0190476
        k(   38) = (   0.1999752  -0.0769705   0.1769708), wk =   0.0380952
        k(   39) = (   0.1999752  -0.0769705   0.3539415), wk =   0.0380952
        k(   40) = (   0.1999752  -0.0769705   0.5309123), wk =   0.0380952
        k(   41) = (   0.3999505   0.2309115   0.0000000), wk =   0.0190476
        k(   42) = (   0.3999505   0.2309115   0.1769708), wk =   0.0380952
        k(   43) = (   0.3999505   0.2309115   0.3539415), wk =   0.0380952
        k(   44) = (   0.3999505   0.2309115   0.5309123), wk =   0.0380952
        k(   45) = (   0.3999505   0.4233378   0.0000000), wk =   0.0190476
        k(   46) = (   0.3999505   0.4233378   0.1769708), wk =   0.0380952
        k(   47) = (   0.3999505   0.4233378   0.3539415), wk =   0.0380952
        k(   48) = (   0.3999505   0.4233378   0.5309123), wk =   0.0380952
        k(   49) = (   0.3999505   0.6157640   0.0000000), wk =   0.0190476
        k(   50) = (   0.3999505   0.6157640   0.1769708), wk =   0.0380952
        k(   51) = (   0.3999505   0.6157640   0.3539415), wk =   0.0380952
        k(   52) = (   0.3999505   0.6157640   0.5309123), wk =   0.0380952
        k(   53) = (   0.3999505  -0.3463673   0.0000000), wk =   0.0190476
        k(   54) = (   0.3999505  -0.3463673   0.1769708), wk =   0.0380952
        k(   55) = (   0.3999505  -0.3463673   0.3539415), wk =   0.0380952
        k(   56) = (   0.3999505  -0.3463673   0.5309123), wk =   0.0380952
        k(   57) = (   0.3999505  -0.1539410   0.0000000), wk =   0.0190476
        k(   58) = (   0.3999505  -0.1539410   0.1769708), wk =   0.0380952
        k(   59) = (   0.3999505  -0.1539410   0.3539415), wk =   0.0380952
        k(   60) = (   0.3999505  -0.1539410   0.5309123), wk =   0.0380952
        k(   61) = (   0.3999505   0.0384853   0.0000000), wk =   0.0190476
        k(   62) = (   0.3999505   0.0384853   0.1769708), wk =   0.0380952
        k(   63) = (   0.3999505   0.0384853   0.3539415), wk =   0.0380952
        k(   64) = (   0.3999505   0.0384853   0.5309123), wk =   0.0380952

     Largest allocated arrays     est. size (Mb)     dimensions
     Largest temporary arrays     est. size (Mb)     dimensions

     Initial potential from superposition of free atoms

     Starting from uniform charge
     Starting wfc are    0 randomized atomic wfcs

     Writing output data file Prototype-La-hP8-Mg3Cd.save

     Self-consistent Calculation

[...]

     iteration # 12     ecut=    40.00 Ry     beta=0.70
     CG style diagonalization
     c_bands:  1 eigenvalues not converged
     ethr =  9.56E-08,  avg # of iterations =  4.1

[...]

     total energy              =   -2112.01202748 Ry
     Harris-Foulkes estimate   =   -2112.01204674 Ry
     estimated scf accuracy    <       0.00003748 Ry

     iteration # 14     ecut=    40.00 Ry     beta=0.70
     CG style diagonalization
     ethr =  2.34E-08,  avg # of iterations =  3.4

     End of self-consistent calculation

[...]

          k = 0.4000 0.0385 0.5309 (  5189 PWs)   bands (ev):

   -68.7870 -68.7824 -68.7776 -68.7758 -68.7713 -68.7657 -39.3538 -39.3531
   -32.9969 -32.9882 -32.9644 -32.9611 -32.9526 -32.9483 -32.9164 -32.9048
   -32.9011 -32.8894 -32.8822 -32.8764 -32.8641 -32.8578 -32.8522 -32.8484
   -32.8397 -32.8347 -12.1494 -12.1473 -12.1303 -12.1274 -12.1257 -12.1229
    10.0949  10.1051  10.1877  10.2626  10.3075  10.3342  10.3491  10.4095
    10.4514  10.4685  10.6804  10.7370  10.9666  11.0566  11.0780  11.0955
    11.1546  11.2859  11.3248  11.3985  11.4337  11.4899  11.5590  11.6064
    11.6286  11.6536  11.9006  11.9337  12.0853  12.2013  14.0313  15.0799
    16.1859  16.7351  17.3135  17.7396  19.0733  19.2947  19.4814  19.6115
    20.2364  20.3779  20.6561  20.7691  21.1166  21.2846  22.3000  22.4968
    23.5539  23.9998  25.3553  26.0459  26.5540  26.7611  27.6825  27.7123
    28.5882  28.8362  29.6070  29.7171  30.0846  30.3171  30.4319  30.6019

     the Fermi energy is    23.2846 ev

!    total energy              =   -2112.01203129 Ry
     Harris-Foulkes estimate   =   -2112.01203283 Ry
     estimated scf accuracy    <       0.00000180 Ry

     The total energy is the sum of the following terms:

     one-electron contribution =    -543.23653290 Ry
     hartree contribution      =     361.87653338 Ry
     xc contribution           =    -191.22862432 Ry
     ewald contribution        =   -1739.18903610 Ry
     smearing contrib. (-TS)   =      -0.23437136 Ry

     convergence has been achieved in  14 iterations

     Forces acting on atoms (Ry/au):

     atom    1 type  1   force =    -0.03008525   -0.01736973    0.00000000
     atom    2 type  1   force =    -0.03008525    0.01736973    0.00000000
     atom    3 type  1   force =     0.03008525    0.01736973    0.00000000
     atom    4 type  1   force =     0.03008525   -0.01736973    0.00000000
     atom    5 type  1   force =     0.00000000    0.03473946    0.00000000
     atom    6 type  1   force =     0.00000000   -0.03473946    0.00000000
     atom    7 type  2   force =     0.00000000    0.00000000    0.00000000
     atom    8 type  2   force =     0.00000000    0.00000000    0.00000000

     Total force =     0.085094     Total SCF correction =     0.000000

     entering subroutine stress ...

          total   stress  (Ry/bohr**3)                   (kbar)     P= -351.15
  -0.00245740   0.00000000   0.00000000       -361.50      0.00      0.00
   0.00000000  -0.00245740   0.00000000          0.00   -361.50      0.00
   0.00000000   0.00000000  -0.00224634          0.00      0.00   -330.45

     Writing output data file Prototype-La-hP8-Mg3Cd.save

     General routines

     Parallel routines

   This run was terminated on:   3:16:32  23Mar2018

   JOB DONE.