     Program PWSCF v.5.0.2 starts on 23Mar2018 at  0:55:55

     Current dimensions of program PWSCF are:
     Max number of different atomic species (ntypx) = 10
     Max number of k-points (npk) =  40000
     Max angular momentum in pseudopotentials (lmaxx) =  3
     Waiting for input...
     Reading input from standard input

     Subspace diagonalization in iterative solution of the eigenvalue problem:
     a serial algorithm will be used

     bravais-lattice index     =            0
     lattice parameter (alat)  =       8.5346  a.u.
     unit-cell volume          =     621.6493 (a.u.)^3
     number of atoms/cell      =            8
     number of atomic types    =            2
     number of electrons       =       160.00
     number of Kohn-Sham states=           96
     kinetic-energy cutoff     =      40.0000  Ry
     charge density cutoff     =     160.0000  Ry
     convergence threshold     =      1.0E-04
     mixing beta               =       0.7000
     number of iterations used =            8  plain     mixing
     Exchange-correlation      = SLA-PZ-NOGX-NOGC ( 1 1 0 0 0)
     EXX-fraction              =        0.00
     nstep                     =           50

     celldm(1)=   8.534573  celldm(2)=   0.000000  celldm(3)=   0.000000
     celldm(4)=   0.000000  celldm(5)=   0.000000  celldm(6)=   0.000000

     crystal axes: (cart. coord. in units of alat)
               a(1) = (   1.000000   0.000000   0.000000 )
               a(2) = (   0.000000   1.000000   0.000000 )
               a(3) = (   0.000000   0.000000   1.000000 )

     reciprocal axes: (cart. coord. in units 2 pi/alat)
               b(1) = (  1.000000  0.000000  0.000000 )
               b(2) = (  0.000000  1.000000  0.000000 )
               b(3) = (  0.000000  0.000000  1.000000 )

     PseudoPot. # 1 for Ho read from file:
     /home/cwx6513/pp.La/Ho.UPF
     MD5 check sum: f307ee11bce99f5b724fa279e3790763
     Pseudo is Norm-conserving, Zval = 21.0
     Generated in analytical, separable form
     Using radial grid of 1265 points,  6 beta functions with:
                l(1) =   0
                l(2) =   0
                l(3) =   1
                l(4) =   1
                l(5) =   2
                l(6) =   3

     PseudoPot. # 2 for Eu read from file:
     /home/cwx6513/pp.La/Eu.UPF
     MD5 check sum: 5efdbbfc50c6a10138933a6429836ad2
     Pseudo is Norm-conserving, Zval = 17.0
     Generated in analytical, separable form
     Using radial grid of 1261 points,  6 beta functions with:
                l(1) =   0
                l(2) =   0
                l(3) =   1
                l(4) =   1
                l(5) =   2
                l(6) =   3

     atomic species   valence    mass     pseudopotential
        Cr            21.00    51.99610     Ho( 1.00)
        Si            17.00    28.08550     Eu( 1.00)

     48 Sym. Ops., with inversion, found (24 have fractional translation)

   Cartesian axes

     site n.     atom                  positions (alat units)
         1           Cr  tau(   1) = (   0.0000000   0.5000000   0.2500000  )
         2           Cr  tau(   2) = (   0.0000000   0.5000000   0.7500000  )
         3           Cr  tau(   3) = (   0.5000000   0.7500000   0.0000000  )
         4           Cr  tau(   4) = (   0.5000000   0.2500000   0.0000000  )
         5           Cr  tau(   5) = (   0.7500000   0.0000000   0.5000000  )
         6           Cr  tau(   6) = (   0.2500000   0.0000000   0.5000000  )
         7           Si  tau(   7) = (   0.5000000   0.5000000   0.5000000  )
         8           Si  tau(   8) = (   0.0000000   0.0000000   0.0000000  )

     number of k points=    48  gaussian smearing, width (Ry)=  0.1000
                       cart. coord. in units 2pi/alat
        k(    1) = (   0.0000000   0.0000000   0.0000000), wk =   0.0095238
        k(    2) = (   0.0000000   0.0000000   0.1428571), wk =   0.0190476
        k(    3) = (   0.0000000   0.0000000   0.2857143), wk =   0.0190476
        k(    4) = (   0.0000000   0.0000000   0.4285714), wk =   0.0190476
        k(    5) = (   0.0000000   0.1666667   0.0000000), wk =   0.0190476
        k(    6) = (   0.0000000   0.1666667   0.1428571), wk =   0.0380952
        k(    7) = (   0.0000000   0.1666667   0.2857143), wk =   0.0380952
        k(    8) = (   0.0000000   0.1666667   0.4285714), wk =   0.0380952
        k(    9) = (   0.0000000   0.3333333   0.0000000), wk =   0.0190476
        k(   10) = (   0.0000000   0.3333333   0.1428571), wk =   0.0380952
        k(   11) = (   0.0000000   0.3333333   0.2857143), wk =   0.0380952
        k(   12) = (   0.0000000   0.3333333   0.4285714), wk =   0.0380952
        k(   13) = (   0.0000000  -0.5000000   0.0000000), wk =   0.0095238
        k(   14) = (   0.0000000  -0.5000000   0.1428571), wk =   0.0190476
        k(   15) = (   0.0000000  -0.5000000   0.2857143), wk =   0.0190476
        k(   16) = (   0.0000000  -0.5000000   0.4285714), wk =   0.0190476
        k(   17) = (   0.2000000   0.0000000   0.0000000), wk =   0.0190476
        k(   18) = (   0.2000000   0.0000000   0.1428571), wk =   0.0380952
        k(   19) = (   0.2000000   0.0000000   0.2857143), wk =   0.0380952
        k(   20) = (   0.2000000   0.0000000   0.4285714), wk =   0.0380952
        k(   21) = (   0.2000000   0.1666667   0.0000000), wk =   0.0380952
        k(   22) = (   0.2000000   0.1666667   0.1428571), wk =   0.0761905
        k(   23) = (   0.2000000   0.1666667   0.2857143), wk =   0.0761905
        k(   24) = (   0.2000000   0.1666667   0.4285714), wk =   0.0761905
        k(   25) = (   0.2000000   0.3333333   0.0000000), wk =   0.0380952
        k(   26) = (   0.2000000   0.3333333   0.1428571), wk =   0.0761905
        k(   27) = (   0.2000000   0.3333333   0.2857143), wk =   0.0761905
        k(   28) = (   0.2000000   0.3333333   0.4285714), wk =   0.0761905
        k(   29) = (   0.2000000  -0.5000000   0.0000000), wk =   0.0190476
        k(   30) = (   0.2000000  -0.5000000   0.1428571), wk =   0.0380952
        k(   31) = (   0.2000000  -0.5000000   0.2857143), wk =   0.0380952
        k(   32) = (   0.2000000  -0.5000000   0.4285714), wk =   0.0380952
        k(   33) = (   0.4000000   0.0000000   0.0000000), wk =   0.0190476
        k(   34) = (   0.4000000   0.0000000   0.1428571), wk =   0.0380952
        k(   35) = (   0.4000000   0.0000000   0.2857143), wk =   0.0380952
        k(   36) = (   0.4000000   0.0000000   0.4285714), wk =   0.0380952
        k(   37) = (   0.4000000   0.1666667   0.0000000), wk =   0.0380952
        k(   38) = (   0.4000000   0.1666667   0.1428571), wk =   0.0761905
        k(   39) = (   0.4000000   0.1666667   0.2857143), wk =   0.0761905
        k(   40) = (   0.4000000   0.1666667   0.4285714), wk =   0.0761905
        k(   41) = (   0.4000000   0.3333333   0.0000000), wk =   0.0380952
        k(   42) = (   0.4000000   0.3333333   0.1428571), wk =   0.0761905
        k(   43) = (   0.4000000   0.3333333   0.2857143), wk =   0.0761905
        k(   44) = (   0.4000000   0.3333333   0.4285714), wk =   0.0761905
        k(   45) = (   0.4000000  -0.5000000   0.0000000), wk =   0.0190476
        k(   46) = (   0.4000000  -0.5000000   0.1428571), wk =   0.0380952
        k(   47) = (   0.4000000  -0.5000000   0.2857143), wk =   0.0380952
        k(   48) = (   0.4000000  -0.5000000   0.4285714), wk =   0.0380952

     Largest allocated arrays     est. size (Mb)     dimensions
     Largest temporary arrays     est. size (Mb)     dimensions

     Initial potential from superposition of free atoms

     Starting from uniform charge
     Starting wfc are    0 randomized atomic wfcs

     Self-consistent Calculation

     iteration #  1     ecut=    40.00 Ry     beta=0.70
     CG style diagonalization
     c_bands:  5 eigenvalues not converged
     c_bands:  4 eigenvalues not converged
     c_bands:  3 eigenvalues not converged
     c_bands:  3 eigenvalues not converged
     c_bands:  4 eigenvalues not converged
     c_bands:  2 eigenvalues not converged
     c_bands:  4 eigenvalues not converged
     c_bands:  3 eigenvalues not converged
     c_bands:  2 eigenvalues not converged
     c_bands:  1 eigenvalues not converged
     c_bands:  4 eigenvalues not converged
     c_bands:  5 eigenvalues not converged
     c_bands:  3 eigenvalues not converged
     c_bands:  2 eigenvalues not converged
     c_bands:  5 eigenvalues not converged
     c_bands:  2 eigenvalues not converged
     c_bands:  5 eigenvalues not converged
     ethr =  1.00E-02,  avg # of iterations = 14.0

     total energy              =   -1830.93342154 Ry
     Harris-Foulkes estimate   =   -2405.58553865 Ry
     estimated scf accuracy    <     724.76709737 Ry

[...]

     iteration #  3     ecut=    40.00 Ry     beta=0.70
     CG style diagonalization
     ethr =  1.00E-02,  avg # of iterations =  8.5

[...]

     End of self-consistent calculation

          k = 0.0000 0.0000 0.0000 (  2601 PWs)   bands (ev):

   -45.7588 -45.7350 -45.7350 -45.2150 -45.2150 -45.2150 -16.1010 -16.0148
   -12.1466 -12.1466 -11.8247 -10.3793 -10.3793 -10.3793  -9.7297  -9.7297
    -9.7297  -9.6612  -9.6612  -9.6612  -9.4901  -9.4901  -9.4901  -8.7924
    -8.7924  -8.7924  10.3427  10.3427  10.3427  10.3960  10.3960  10.3960
    27.2736  27.2736  27.4399  28.4412  28.4412  28.4412  30.4802  30.8293
    31.3826  31.3826  31.3826  31.5496  31.5496  31.5496  31.6511  31.6511
    32.0146  34.4981  34.4981  34.4981  35.9365  35.9365  35.9365  35.9618
    35.9618  35.9618  35.9910  35.9910  36.1694  36.1694  36.1694  37.2297
    37.2297  41.3733  41.3733  41.3733  41.9141  41.9141  43.1020  43.1020
    43.1020  44.8271  44.8271  44.8271  50.0828  50.8149  50.8149  51.2224
    51.2224  51.2224  51.9350  51.9350  51.9350  51.9897  55.1168  55.1169
    55.6433  55.6433  55.6435  56.0847  56.0849  56.0851  56.8818  56.8824

[...]

     the Fermi energy is    50.9461 ev

!    total energy              =   -2103.22890749 Ry
     Harris-Foulkes estimate   =   -2103.22890864 Ry
     estimated scf accuracy    <       0.00000129 Ry

     The total energy is the sum of the following terms:

     one-electron contribution =      75.14447096 Ry
     hartree contribution      =     192.15549130 Ry
     xc contribution           =    -201.12757047 Ry
     ewald contribution        =   -2169.25534441 Ry
     smearing contrib. (-TS)   =      -0.14595487 Ry

     convergence has been achieved in  10 iterations

     Forces acting on atoms (Ry/au):

     atom    1 type  1   force =     0.00000000    0.00000000    0.00000000
     atom    2 type  1   force =     0.00000000    0.00000000    0.00000000
     atom    3 type  1   force =     0.00000000    0.00000000    0.00000000
     atom    4 type  1   force =     0.00000000    0.00000000    0.00000000
     atom    5 type  1   force =     0.00000000    0.00000000    0.00000000
     atom    6 type  1   force =     0.00000000    0.00000000    0.00000000
     atom    7 type  2   force =     0.00000000    0.00000000    0.00000000
     atom    8 type  2   force =     0.00000000    0.00000000    0.00000000

     Total force =     0.000000     Total SCF correction =     0.000000
[...]
   0.00000000   0.00000000  -0.00981403          0.00      0.00  -1443.69

     number of scf cycles    =   3
     number of bfgs steps    =   2

     enthalpy old            =   -2107.0336489011 Ry
     enthalpy new            =   -2105.6311234757 Ry

     CASE: enthalpy_new > enthalpy_old

     new trust radius        =       0.1735485768 bohr

     trust_radius < trust_radius_min

     resetting bfgs history

     Message from routine bfgs:
     history already reset at previous step: stopping
     new conv_thr            =       0.0000010000 Ry

     new unit-cell volume =   1049.52533 a.u.^3 (   155.52361 Ang^3 )

[...]

ATOMIC_POSITIONS (crystal)
Cr       0.000000000   0.500000000   0.250000000
Cr       0.000000000   0.500000000   0.750000000
Cr       0.500000000   0.750000000   0.000000000
Cr       0.500000000   0.250000000   0.000000000
Cr       0.750000000   0.000000000   0.500000000
Cr       0.250000000   0.000000000   0.500000000
Si       0.500000000   0.500000000   0.500000000
Si       0.000000000   0.000000000   0.000000000

     Writing output data file Prototype-La-cP8-Cr3Si.save
     NEW-OLD atomic charge density approx. for the potential
     NEW k-points:
        k(    1) = (   0.0000000   0.0000000   0.0000000), wk =   0.0095238
        k(    2) = (   0.0000000   0.0000000   0.1199737), wk =   0.0190476
        k(    3) = (   0.0000000   0.0000000   0.2399474), wk =   0.0190476
        k(    4) = (   0.0000000   0.0000000   0.3599212), wk =   0.0190476
        k(    5) = (   0.0000000   0.1399693   0.0000000), wk =   0.0190476
        k(    6) = (   0.0000000   0.1399693   0.1199737), wk =   0.0380952
        k(    7) = (   0.0000000   0.1399693   0.2399474), wk =   0.0380952
        k(    8) = (   0.0000000   0.1399693   0.3599212), wk =   0.0380952
        k(    9) = (   0.0000000   0.2799387   0.0000000), wk =   0.0190476
        k(   10) = (   0.0000000   0.2799387   0.1199737), wk =   0.0380952
        k(   11) = (   0.0000000   0.2799387   0.2399474), wk =   0.0380952
        k(   12) = (   0.0000000   0.2799387   0.3599212), wk =   0.0380952
        k(   13) = (   0.0000000  -0.4199080   0.0000000), wk =   0.0095238
        k(   14) = (   0.0000000  -0.4199080   0.1199737), wk =   0.0190476
        k(   15) = (   0.0000000  -0.4199080   0.2399474), wk =   0.0190476
        k(   16) = (   0.0000000  -0.4199080   0.3599212), wk =   0.0190476
        k(   17) = (   0.1679632   0.0000000   0.0000000), wk =   0.0190476
        k(   18) = (   0.1679632   0.0000000   0.1199737), wk =   0.0380952
        k(   19) = (   0.1679632   0.0000000   0.2399474), wk =   0.0380952
        k(   20) = (   0.1679632   0.0000000   0.3599212), wk =   0.0380952
        k(   21) = (   0.1679632   0.1399693   0.0000000), wk =   0.0380952
        k(   22) = (   0.1679632   0.1399693   0.1199737), wk =   0.0761905
        k(   23) = (   0.1679632   0.1399693   0.2399474), wk =   0.0761905
        k(   24) = (   0.1679632   0.1399693   0.3599212), wk =   0.0761905
        k(   25) = (   0.1679632   0.2799387   0.0000000), wk =   0.0380952
        k(   26) = (   0.1679632   0.2799387   0.1199737), wk =   0.0761905
        k(   27) = (   0.1679632   0.2799387   0.2399474), wk =   0.0761905
        k(   28) = (   0.1679632   0.2799387   0.3599212), wk =   0.0761905
        k(   29) = (   0.1679632  -0.4199080   0.0000000), wk =   0.0190476
        k(   30) = (   0.1679632  -0.4199080   0.1199737), wk =   0.0380952
        k(   31) = (   0.1679632  -0.4199080   0.2399474), wk =   0.0380952
        k(   32) = (   0.1679632  -0.4199080   0.3599212), wk =   0.0380952
        k(   33) = (   0.3359264   0.0000000   0.0000000), wk =   0.0190476
        k(   34) = (   0.3359264   0.0000000   0.1199737), wk =   0.0380952
        k(   35) = (   0.3359264   0.0000000   0.2399474), wk =   0.0380952
        k(   36) = (   0.3359264   0.0000000   0.3599212), wk =   0.0380952
        k(   37) = (   0.3359264   0.1399693   0.0000000), wk =   0.0380952
        k(   38) = (   0.3359264   0.1399693   0.1199737), wk =   0.0761905
        k(   39) = (   0.3359264   0.1399693   0.2399474), wk =   0.0761905
        k(   40) = (   0.3359264   0.1399693   0.3599212), wk =   0.0761905
        k(   41) = (   0.3359264   0.2799387   0.0000000), wk =   0.0380952
        k(   42) = (   0.3359264   0.2799387   0.1199737), wk =   0.0761905
        k(   43) = (   0.3359264   0.2799387   0.2399474), wk =   0.0761905
        k(   44) = (   0.3359264   0.2799387   0.3599212), wk =   0.0761905
        k(   45) = (   0.3359264  -0.4199080   0.0000000), wk =   0.0190476
        k(   46) = (   0.3359264  -0.4199080   0.1199737), wk =   0.0380952
        k(   47) = (   0.3359264  -0.4199080   0.2399474), wk =   0.0380952
        k(   48) = (   0.3359264  -0.4199080   0.3599212), wk =   0.0380952

[...]

          total   stress  (Ry/bohr**3)                   (kbar)     P=-1068.74
  -0.00726515   0.00000000   0.00000000      -1068.74      0.00      0.00
   0.00000000  -0.00726515   0.00000000          0.00  -1068.74      0.00
   0.00000000   0.00000000  -0.00726515          0.00      0.00  -1068.74

     The maximum number of steps has been reached.

     End of BFGS Geometry Optimization
Begin final coordinates
     new unit-cell volume =   1049.52533 a.u.^3 (   155.52361 Ang^3 )

CELL_PARAMETERS (alat=  8.53457320)
   1.190736961   0.000000000   0.000000000
   0.000000000   1.190736961   0.000000000
   0.000000000   0.000000000   1.190736961

ATOMIC_POSITIONS (crystal)
Cr       0.000000000   0.500000000   0.250000000
Cr       0.000000000   0.500000000   0.750000000
Cr       0.500000000   0.750000000   0.000000000
Cr       0.500000000   0.250000000   0.000000000
Cr       0.750000000   0.000000000   0.500000000
Cr       0.250000000   0.000000000   0.500000000
Si       0.500000000   0.500000000   0.500000000
Si       0.000000000   0.000000000   0.000000000
End final coordinates

     A final scf calculation at the relaxed structure.
     The G-vectors are recalculated for the final unit cell
     Results may differ from those at the preceding step.

     bravais-lattice index     =            0
     lattice parameter (alat)  =       8.5346  a.u.
     unit-cell volume          =    1049.5253 (a.u.)^3
     number of atoms/cell      =            8
     number of atomic types    =            2
     number of electrons       =       160.00
     number of Kohn-Sham states=           96
     kinetic-energy cutoff     =      40.0000  Ry
     charge density cutoff     =     160.0000  Ry
     convergence threshold     =      1.0E-06
     mixing beta               =       0.7000
     number of iterations used =            8  plain     mixing
     Exchange-correlation      = SLA-PZ-NOGX-NOGC ( 1 1 0 0 0)
     EXX-fraction              =        0.00

     celldm(1)=   8.534573  celldm(2)=   0.000000  celldm(3)=   0.000000
     celldm(4)=   0.000000  celldm(5)=   0.000000  celldm(6)=   0.000000

     crystal axes: (cart. coord. in units of alat)
               a(1) = (   1.190737   0.000000   0.000000 )
               a(2) = (   0.000000   1.190737   0.000000 )
               a(3) = (   0.000000   0.000000   1.190737 )

     reciprocal axes: (cart. coord. in units 2 pi/alat)
               b(1) = (  0.839816  0.000000  0.000000 )
               b(2) = (  0.000000  0.839816  0.000000 )
               b(3) = (  0.000000  0.000000  0.839816 )

     PseudoPot. # 1 for Ho read from file:
     /home/cwx6513/pp.La/Ho.UPF
     MD5 check sum: f307ee11bce99f5b724fa279e3790763
     Pseudo is Norm-conserving, Zval = 21.0
     Generated in analytical, separable form
     Using radial grid of 1265 points,  6 beta functions with:
                l(1) =   0
                l(2) =   0
                l(3) =   1
                l(4) =   1
                l(5) =   2
                l(6) =   3

     PseudoPot. # 2 for Eu read from file:
     /home/cwx6513/pp.La/Eu.UPF
     MD5 check sum: 5efdbbfc50c6a10138933a6429836ad2
     Pseudo is Norm-conserving, Zval = 17.0
     Generated in analytical, separable form
     Using radial grid of 1261 points,  6 beta functions with:
                l(1) =   0
                l(2) =   0
                l(3) =   1
                l(4) =   1
                l(5) =   2
                l(6) =   3

     atomic species   valence    mass     pseudopotential
        Cr            21.00    51.99610     Ho( 1.00)
        Si            17.00    28.08550     Eu( 1.00)

     48 Sym. Ops., with inversion, found (24 have fractional translation)

   Cartesian axes

     site n.     atom                  positions (alat units)
         1           Cr  tau(   1) = (   0.0000000   0.5953685   0.2976842  )
         2           Cr  tau(   2) = (   0.0000000   0.5953685   0.8930527  )
         3           Cr  tau(   3) = (   0.5953685   0.8930527   0.0000000  )
         4           Cr  tau(   4) = (   0.5953685   0.2976842   0.0000000  )
         5           Cr  tau(   5) = (   0.8930527   0.0000000   0.5953685  )
         6           Cr  tau(   6) = (   0.2976842   0.0000000   0.5953685  )
         7           Si  tau(   7) = (   0.5953685   0.5953685   0.5953685  )
         8           Si  tau(   8) = (   0.0000000   0.0000000   0.0000000  )

     number of k points=    48  gaussian smearing, width (Ry)=  0.1000
                       cart. coord. in units 2pi/alat
        k(    1) = (   0.0000000   0.0000000   0.0000000), wk =   0.0095238
        k(    2) = (   0.0000000   0.0000000   0.1199737), wk =   0.0190476
        k(    3) = (   0.0000000   0.0000000   0.2399474), wk =   0.0190476
        k(    4) = (   0.0000000   0.0000000   0.3599212), wk =   0.0190476
        k(    5) = (   0.0000000   0.1399693   0.0000000), wk =   0.0190476
        k(    6) = (   0.0000000   0.1399693   0.1199737), wk =   0.0380952
        k(    7) = (   0.0000000   0.1399693   0.2399474), wk =   0.0380952
        k(    8) = (   0.0000000   0.1399693   0.3599212), wk =   0.0380952
        k(    9) = (   0.0000000   0.2799387   0.0000000), wk =   0.0190476
        k(   10) = (   0.0000000   0.2799387   0.1199737), wk =   0.0380952
        k(   11) = (   0.0000000   0.2799387   0.2399474), wk =   0.0380952
        k(   12) = (   0.0000000   0.2799387   0.3599212), wk =   0.0380952
        k(   13) = (   0.0000000  -0.4199080   0.0000000), wk =   0.0095238
        k(   14) = (   0.0000000  -0.4199080   0.1199737), wk =   0.0190476
        k(   15) = (   0.0000000  -0.4199080   0.2399474), wk =   0.0190476
        k(   16) = (   0.0000000  -0.4199080   0.3599212), wk =   0.0190476
        k(   17) = (   0.1679632   0.0000000   0.0000000), wk =   0.0190476
        k(   18) = (   0.1679632   0.0000000   0.1199737), wk =   0.0380952
        k(   19) = (   0.1679632   0.0000000   0.2399474), wk =   0.0380952
        k(   20) = (   0.1679632   0.0000000   0.3599212), wk =   0.0380952
        k(   21) = (   0.1679632   0.1399693   0.0000000), wk =   0.0380952
        k(   22) = (   0.1679632   0.1399693   0.1199737), wk =   0.0761905
        k(   23) = (   0.1679632   0.1399693   0.2399474), wk =   0.0761905
        k(   24) = (   0.1679632   0.1399693   0.3599212), wk =   0.0761905
        k(   25) = (   0.1679632   0.2799387   0.0000000), wk =   0.0380952
        k(   26) = (   0.1679632   0.2799387   0.1199737), wk =   0.0761905
        k(   27) = (   0.1679632   0.2799387   0.2399474), wk =   0.0761905
        k(   28) = (   0.1679632   0.2799387   0.3599212), wk =   0.0761905
        k(   29) = (   0.1679632  -0.4199080   0.0000000), wk =   0.0190476
        k(   30) = (   0.1679632  -0.4199080   0.1199737), wk =   0.0380952
        k(   31) = (   0.1679632  -0.4199080   0.2399474), wk =   0.0380952
        k(   32) = (   0.1679632  -0.4199080   0.3599212), wk =   0.0380952
        k(   33) = (   0.3359264   0.0000000   0.0000000), wk =   0.0190476
        k(   34) = (   0.3359264   0.0000000   0.1199737), wk =   0.0380952
        k(   35) = (   0.3359264   0.0000000   0.2399474), wk =   0.0380952
        k(   36) = (   0.3359264   0.0000000   0.3599212), wk =   0.0380952
        k(   37) = (   0.3359264   0.1399693   0.0000000), wk =   0.0380952
        k(   38) = (   0.3359264   0.1399693   0.1199737), wk =   0.0761905
        k(   39) = (   0.3359264   0.1399693   0.2399474), wk =   0.0761905
        k(   40) = (   0.3359264   0.1399693   0.3599212), wk =   0.0761905
        k(   41) = (   0.3359264   0.2799387   0.0000000), wk =   0.0380952
        k(   42) = (   0.3359264   0.2799387   0.1199737), wk =   0.0761905
        k(   43) = (   0.3359264   0.2799387   0.2399474), wk =   0.0761905
        k(   44) = (   0.3359264   0.2799387   0.3599212), wk =   0.0761905
        k(   45) = (   0.3359264  -0.4199080   0.0000000), wk =   0.0190476
        k(   46) = (   0.3359264  -0.4199080   0.1199737), wk =   0.0380952
        k(   47) = (   0.3359264  -0.4199080   0.2399474), wk =   0.0380952
        k(   48) = (   0.3359264  -0.4199080   0.3599212), wk =   0.0380952

     Largest allocated arrays     est. size (Mb)     dimensions
     Largest temporary arrays     est. size (Mb)     dimensions

     Initial potential from superposition of free atoms

     Starting from uniform charge
     Starting wfc are    0 randomized atomic wfcs

     Writing output data file Prototype-La-cP8-Cr3Si.save

     Self-consistent Calculation

[...]

     iteration #  9     ecut=    40.00 Ry     beta=0.70
     CG style diagonalization
     c_bands:  1 eigenvalues not converged
     c_bands:  1 eigenvalues not converged
     ethr =  1.40E-06,  avg # of iterations =  4.0

[...]

     total energy              =   -2111.39459413 Ry
     Harris-Foulkes estimate   =   -2111.39460146 Ry
     estimated scf accuracy    <       0.00001119 Ry

     iteration # 11     ecut=    40.00 Ry     beta=0.70
     CG style diagonalization
     ethr =  7.00E-09,  avg # of iterations =  4.5

     End of self-consistent calculation

[...]

          k = 0.3359-0.4199 0.3599 (  4506 PWs)   bands (ev):

   -64.8362 -64.8353 -64.8318 -64.8302 -64.8238 -64.8229 -35.4464 -35.4464
   -29.2340 -29.2072 -29.1419 -29.1418 -29.0702 -29.0417 -28.9607 -28.9591
   -28.9417 -28.9388 -28.9359 -28.9348 -28.9298 -28.9260 -28.9201 -28.9168
   -28.9104 -28.9098  -8.3166  -8.3165  -8.3140  -8.3140  -8.3119  -8.3119
    13.6642  13.8222  13.9500  13.9567  14.0106  14.0224  14.1556  14.1580
    14.2039  14.2189  14.3298  14.3377  14.4393  14.4393  14.5270  14.5347
    14.8903  14.8914  14.9384  14.9495  14.9985  15.0178  15.2066  15.3213
    15.4393  15.4816  15.5342  15.5521  15.5930  15.5948  19.2709  19.2810
    19.9221  19.9263  20.3549  20.3783  22.9768  22.9768  23.9803  23.9859
    23.9995  24.0049  24.6677  24.7541  25.0257  25.0468  25.3189  25.3882
    30.3277  30.6017  31.4153  31.4532  32.4206  32.8382  33.5682  33.6447
    33.8055  33.8550  34.1088  34.1530  34.3614  34.4564  35.0977  35.1018

     the Fermi energy is    27.8062 ev

!    total energy              =   -2111.39460317 Ry
     Harris-Foulkes estimate   =   -2111.39460359 Ry
     estimated scf accuracy    <       0.00000056 Ry

     The total energy is the sum of the following terms:

     one-electron contribution =    -420.74081937 Ry
     hartree contribution      =     323.98576620 Ry
     xc contribution           =    -192.71232121 Ry
     ewald contribution        =   -1821.77543502 Ry
     smearing contrib. (-TS)   =      -0.15179378 Ry

     convergence has been achieved in  11 iterations

     Forces acting on atoms (Ry/au):

     atom    1 type  1   force =     0.00000000    0.00000000    0.00000000
     atom    2 type  1   force =     0.00000000    0.00000000    0.00000000
     atom    3 type  1   force =     0.00000000    0.00000000    0.00000000
     atom    4 type  1   force =     0.00000000    0.00000000    0.00000000
     atom    5 type  1   force =     0.00000000    0.00000000    0.00000000
     atom    6 type  1   force =     0.00000000    0.00000000    0.00000000
     atom    7 type  2   force =     0.00000000    0.00000000    0.00000000
     atom    8 type  2   force =     0.00000000    0.00000000    0.00000000

     Total force =     0.000000     Total SCF correction =     0.000000

     entering subroutine stress ...

          total   stress  (Ry/bohr**3)                   (kbar)     P=   19.58
   0.00013310   0.00000000   0.00000000         19.58      0.00      0.00
   0.00000000   0.00013310   0.00000000          0.00     19.58      0.00
   0.00000000   0.00000000   0.00013310          0.00      0.00     19.58

     Writing output data file Prototype-La-cP8-Cr3Si.save

     General routines

     Parallel routines

   This run was terminated on:   1:29:25  23Mar2018

   JOB DONE.