     Program PWSCF v.5.0.2 starts on 23Mar2018 at  0:55:55

     Current dimensions of program PWSCF are:
     Max number of different atomic species (ntypx) = 10
     Max number of k-points (npk) =  40000
     Max angular momentum in pseudopotentials (lmaxx) =  3
     Waiting for input...
     Reading input from standard input

     Subspace diagonalization in iterative solution of the eigenvalue problem:
     a serial algorithm will be used

     bravais-lattice index     =            0
     lattice parameter (alat)  =       9.9235  a.u.
     unit-cell volume          =    1361.0366 (a.u.)^3
     number of atoms/cell      =           12
     number of atomic types    =            2
     number of electrons       =       220.00
     number of Kohn-Sham states=          132
     kinetic-energy cutoff     =      40.0000  Ry
     charge density cutoff     =     160.0000  Ry
     convergence threshold     =      1.0E-04
     mixing beta               =       0.7000
     number of iterations used =            8  plain     mixing
     Exchange-correlation      = SLA-PZ-NOGX-NOGC ( 1 1 0 0 0)
     EXX-fraction              =        0.00
     nstep                     =           50

     celldm(1)=   9.923489  celldm(2)=   0.000000  celldm(3)=   0.000000
     celldm(4)=   0.000000  celldm(5)=   0.000000  celldm(6)=   0.000000

     crystal axes: (cart. coord. in units of alat)
               a(1) = (   1.000000   0.000000   0.000000 )
               a(2) = (  -0.500000   0.866025   0.000000 )
               a(3) = (   0.000000   0.000000   1.608222 )

     reciprocal axes: (cart. coord. in units 2 pi/alat)
               b(1) = (  1.000000  0.577350  0.000000 )
               b(2) = (  0.000000  1.154701  0.000000 )
               b(3) = (  0.000000  0.000000  0.621805 )

     PseudoPot. # 1 for Ho read from file:
     /home/cwx6513/pp.La/Ho.UPF
     MD5 check sum: f307ee11bce99f5b724fa279e3790763
     Pseudo is Norm-conserving, Zval = 21.0
     Generated in analytical, separable form
     Using radial grid of 1265 points,  6 beta functions with:
                l(1) =   0
                l(2) =   0
                l(3) =   1
                l(4) =   1
                l(5) =   2
                l(6) =   3

     PseudoPot. # 2 for Eu read from file:
     /home/cwx6513/pp.La/Eu.UPF
     MD5 check sum: 5efdbbfc50c6a10138933a6429836ad2
     Pseudo is Norm-conserving, Zval = 17.0
     Generated in analytical, separable form
     Using radial grid of 1261 points,  6 beta functions with:
                l(1) =   0
                l(2) =   0
                l(3) =   1
                l(4) =   1
                l(5) =   2
                l(6) =   3

     atomic species   valence    mass     pseudopotential
        Mg            21.00    24.30500     Ho( 1.00)
        Zn            17.00    65.39000     Eu( 1.00)

     24 Sym. Ops., with inversion, found (12 have fractional translation)

   Cartesian axes

     site n.     atom                  positions (alat units)
         1           Mg  tau(   1) = (  -0.0000005   0.5773506   0.1003820  )
         2           Mg  tau(   2) = (   0.5000005   0.2886748   0.9044931  )
         3           Mg  tau(   3) = (   0.5000005   0.2886748   1.5078402  )
         4           Mg  tau(   4) = (  -0.0000005   0.5773506   0.7037291  )
         5           Zn  tau(   5) = (   0.0000000   0.0000000   0.0000000  )
         6           Zn  tau(   6) = (   0.0000000   0.0000000   0.8041111  )
         7           Zn  tau(   7) = (   0.0000000   0.2950739   1.2061667  )
         8           Zn  tau(   8) = (   0.7444585   0.1475370   0.4020556  )
         9           Zn  tau(   9) = (   0.2555415   0.1475370   0.4020556  )
        10           Zn  tau(  10) = (   0.2444585   0.7184884   1.2061667  )
        11           Zn  tau(  11) = (  -0.2444585   0.7184884   1.2061667  )
        12           Zn  tau(  12) = (   0.5000000   0.5709515   0.4020556  )

     number of k points=    12  gaussian smearing, width (Ry)=  0.1000
                       cart. coord. in units 2pi/alat
        k(    1) = (   0.0000000   0.0000000   0.0000000), wk =   0.0833333
        k(    2) = (   0.0000000   0.0000000   0.1554512), wk =   0.1666667
        k(    3) = (   0.0000000   0.0000000  -0.3109023), wk =   0.0833333
        k(    4) = (   0.0000000   0.3849002   0.0000000), wk =   0.1666667
        k(    5) = (   0.0000000   0.3849002   0.1554512), wk =   0.3333333
        k(    6) = (   0.0000000   0.3849002  -0.3109023), wk =   0.1666667
        k(    7) = (  -0.5000000  -0.2886751   0.0000000), wk =   0.0833333
        k(    8) = (  -0.5000000  -0.2886751   0.1554512), wk =   0.1666667
        k(    9) = (  -0.5000000  -0.2886751  -0.3109023), wk =   0.0833333
        k(   10) = (  -0.5000000   0.0962250   0.0000000), wk =   0.1666667
        k(   11) = (  -0.5000000   0.0962250   0.1554512), wk =   0.3333333
        k(   12) = (  -0.5000000   0.0962250  -0.3109023), wk =   0.1666667

     Largest allocated arrays     est. size (Mb)     dimensions
     Largest temporary arrays     est. size (Mb)     dimensions

     Initial potential from superposition of free atoms

     Starting from uniform charge
     Starting wfc are    0 randomized atomic wfcs

     Self-consistent Calculation

     iteration #  1     ecut=    40.00 Ry     beta=0.70
     CG style diagonalization
     ethr =  1.00E-02,  avg # of iterations = 17.7

     total energy              =   -1780.37412884 Ry
     Harris-Foulkes estimate   =   -3056.32674831 Ry
     estimated scf accuracy    <    1567.17721038 Ry

[...]

     iteration #  3     ecut=    40.00 Ry     beta=0.70
     CG style diagonalization
     c_bands:  1 eigenvalues not converged
     c_bands:  1 eigenvalues not converged
     ethr =  1.00E-02,  avg # of iterations = 11.1

[...]

     End of self-consistent calculation

          k = 0.0000 0.0000 0.0000 (  5769 PWs)   bands (ev):

   -61.5636 -61.5584 -61.5510 -61.5347 -33.4776 -33.2762 -33.1412 -32.9246
   -32.8009 -32.8008 -32.7994 -32.7993 -25.7632 -25.7510 -25.7469 -25.7469
   -25.7235 -25.7235 -25.6995 -25.6735 -25.6735 -25.6730 -25.6665 -25.6665
    -8.4520  -7.9566  -7.4868  -6.7474  -6.7474  -6.6095  -6.6095  -6.6024
    -6.6024  -6.1726  -5.8626  -5.8441  -5.8440  -5.7548  -5.7547  -5.0219
    -5.0219  -5.0158  -4.9299  -4.9218  -4.7793  -4.7792  -4.6968  -4.6968
    17.3861  17.4031  17.4031  17.5236  17.5652  17.5652  17.7518  17.7518
    17.8465  17.8465  18.1197  18.2781  18.2781  18.3193  18.4181  18.4181
    18.5042  18.5042  18.5548  18.5548  18.9181  20.1974  20.3803  20.9335
    21.7918  22.0860  22.0860  22.7012  22.7012  22.9958  22.9959  23.0120
    23.0988  23.2673  23.6942  23.6942  25.0603  25.0603  25.1094  25.1094
    25.5395  25.5395  26.2113  27.1592  27.3593  27.3594  28.0080  28.4714
    28.8972  28.9568  29.0094  29.0094  29.1458  29.1458  29.3108  29.3108
    29.3621  29.3621  30.7716  31.1936  31.1936  31.2996  31.2997  32.2486
    32.3062  32.3062  32.3835  32.9966  32.9966  34.0837  34.0838  34.1456
    34.1617  34.9868  35.1860  35.2173  35.6740  35.6742  36.7523  37.6405
    37.6406  37.7891  38.0568  38.4845

[...]

          k =-0.5000-0.2887 0.0000 (  5800 PWs)   bands (ev):

[...]

     the Fermi energy is    30.6301 ev

!    total energy              =   -2574.13803759 Ry
     Harris-Foulkes estimate   =   -2574.13805892 Ry
     estimated scf accuracy    <       0.00002813 Ry

     The total energy is the sum of the following terms:

     one-electron contribution =    -218.02943071 Ry
     hartree contribution      =     310.10237300 Ry
     xc contribution           =    -253.13068510 Ry
     ewald contribution        =   -2412.64975252 Ry
     smearing contrib. (-TS)   =      -0.43054226 Ry

     convergence has been achieved in  11 iterations

     Forces acting on atoms (Ry/au):

     atom    1 type  1   force =     0.00000000    0.00000000    0.03294188
     atom    2 type  1   force =     0.00000000    0.00000000    0.03294188
     atom    3 type  1   force =     0.00000000    0.00000000   -0.03294188
     atom    4 type  1   force =     0.00000000    0.00000000   -0.03294188
     atom    5 type  2   force =     0.00000000    0.00000000    0.00000000
     atom    6 type  2   force =     0.00000000    0.00000000    0.00000000
     atom    7 type  2   force =     0.00000000    0.02545636    0.00000000
     atom    8 type  2   force =    -0.02204585    0.01272818    0.00000000
     atom    9 type  2   force =     0.02204585    0.01272818    0.00000000
     atom   10 type  2   force =    -0.02204585   -0.01272818    0.00000000
     atom   11 type  2   force =     0.02204585   -0.01272818    0.00000000
     atom   12 type  2   force =     0.00000000   -0.02545636    0.00000000

     Total force =     0.090713     Total SCF correction =     0.000000

     entering subroutine stress ...

          total   stress  (Ry/bohr**3)                   (kbar)     P=  578.96
   0.00393899   0.00000000   0.00000000        579.45      0.00      0.00
   0.00000000   0.00393899   0.00000000          0.00    579.45      0.00
   0.00000000   0.00000000   0.00392906          0.00      0.00    577.98

     BFGS Geometry Optimization

     number of scf cycles    =   1
     number of bfgs steps    =   0

     enthalpy new            =   -2574.1380375896 Ry

     new trust radius        =       0.5000000000 bohr
     new conv_thr            =       0.0001000000 Ry

     new unit-cell volume =   1656.63671 a.u.^3 (   245.48823 Ang^3 )

CELL_PARAMETERS (alat=  9.92348860)
   1.067764947   0.000000000   0.000000000
  -0.533882474   0.924711570   0.000000000
   0.000000000   0.000000000   1.716928482

ATOMIC_POSITIONS (crystal)
Mg       0.333333000   0.666667000   0.063838423
Mg       0.666667000   0.333333000   0.563838423
Mg       0.666667000   0.333333000   0.936161577
Mg       0.333333000   0.666667000   0.436161577
Zn       0.000000000   0.000000000   0.000000000
Zn       0.000000000   0.000000000   0.500000000
Zn       0.171380180   0.342760360   0.750000000
Zn       0.828619820   0.171380180   0.250000000
Zn       0.342760360   0.171380180   0.250000000
Zn       0.657239640   0.828619820   0.750000000
Zn       0.171380180   0.828619820   0.750000000
Zn       0.828619820   0.657239640   0.250000000

     Writing output data file Prototype-La-hP12-MgZn2.save
     NEW-OLD atomic charge density approx. for the potential
     NEW k-points:
        k(    1) = (   0.0000000   0.0000000   0.0000000), wk =   0.0833333
        k(    2) = (   0.0000000   0.0000000   0.1456089), wk =   0.1666667
        k(    3) = (   0.0000000   0.0000000  -0.2912177), wk =   0.0833333
        k(    4) = (   0.0000000   0.3604728   0.0000000), wk =   0.1666667
        k(    5) = (   0.0000000   0.3604728   0.1456089), wk =   0.3333333
        k(    6) = (   0.0000000   0.3604728  -0.2912177), wk =   0.1666667
        k(    7) = (  -0.4682679  -0.2703546   0.0000000), wk =   0.0833333
        k(    8) = (  -0.4682679  -0.2703546   0.1456089), wk =   0.1666667
        k(    9) = (  -0.4682679  -0.2703546  -0.2912177), wk =   0.0833333
        k(   10) = (  -0.4682679   0.0901182   0.0000000), wk =   0.1666667
        k(   11) = (  -0.4682679   0.0901182   0.1456089), wk =   0.3333333
        k(   12) = (  -0.4682679   0.0901182  -0.2912177), wk =   0.1666667

[...]

     enthalpy old            =   -2574.1380375896 Ry
     enthalpy new            =   -2574.0613570161 Ry

     CASE: enthalpy_new > enthalpy_old

     new trust radius        =       0.2413874600 bohr

     trust_radius < trust_radius_min

     resetting bfgs history

     new conv_thr            =       0.0001000000 Ry

[...]

     number of scf cycles    =   3
     number of bfgs steps    =   1

     enthalpy old            =   -2574.1380375896 Ry
     enthalpy new            =   -2574.0954676305 Ry

     CASE: enthalpy_new > enthalpy_old

     new trust radius        =       0.2400833575 bohr

     trust_radius < trust_radius_min

     resetting bfgs history

     Message from routine bfgs:
     history already reset at previous step: stopping
     new conv_thr            =       0.0001000000 Ry

     new unit-cell volume =   1646.79457 a.u.^3 (   244.02978 Ang^3 )

[...]

ATOMIC_POSITIONS (crystal)
Mg       0.333333000   0.666667000   0.063709664
Mg       0.666667000   0.333333000   0.563709664
Mg       0.666667000   0.333333000   0.936290336
Mg       0.333333000   0.666667000   0.436290336
Zn       0.000000000   0.000000000   0.000000000
Zn       0.000000000   0.000000000   0.500000000
Zn       0.171287469   0.342574939   0.750000000
Zn       0.828712531   0.171287469   0.250000000
Zn       0.342574939   0.171287469   0.250000000
Zn       0.657425061   0.828712531   0.750000000
Zn       0.171287469   0.828712531   0.750000000
Zn       0.828712531   0.657425061   0.250000000

     Writing output data file Prototype-La-hP12-MgZn2.save
     NEW-OLD atomic charge density approx. for the potential
     NEW k-points:
        k(    1) = (   0.0000000   0.0000000   0.0000000), wk =   0.0833333
        k(    2) = (   0.0000000   0.0000000   0.1459000), wk =   0.1666667
        k(    3) = (   0.0000000   0.0000000  -0.2918000), wk =   0.0833333
        k(    4) = (   0.0000000   0.3611874   0.0000000), wk =   0.1666667
        k(    5) = (   0.0000000   0.3611874   0.1459000), wk =   0.3333333
        k(    6) = (   0.0000000   0.3611874  -0.2918000), wk =   0.1666667
        k(    7) = (  -0.4691962  -0.2708906   0.0000000), wk =   0.0833333
        k(    8) = (  -0.4691962  -0.2708906   0.1459000), wk =   0.1666667
        k(    9) = (  -0.4691962  -0.2708906  -0.2918000), wk =   0.0833333
        k(   10) = (  -0.4691962   0.0902969   0.0000000), wk =   0.1666667
        k(   11) = (  -0.4691962   0.0902969   0.1459000), wk =   0.3333333
        k(   12) = (  -0.4691962   0.0902969  -0.2918000), wk =   0.1666667

[...]

     The maximum number of steps has been reached.

     End of BFGS Geometry Optimization
Begin final coordinates
     new unit-cell volume =   1646.79457 a.u.^3 (   244.02978 Ang^3 )

CELL_PARAMETERS (alat=  9.92348860)
   1.065652173   0.000000000   0.000000000
  -0.532826087   0.922881854   0.000000000
   0.000000000   0.000000000   1.713502411

ATOMIC_POSITIONS (crystal)
Mg       0.333333000   0.666667000   0.063709664
Mg       0.666667000   0.333333000   0.563709664
Mg       0.666667000   0.333333000   0.936290336
Mg       0.333333000   0.666667000   0.436290336
Zn       0.000000000   0.000000000   0.000000000
Zn       0.000000000   0.000000000   0.500000000
Zn       0.171287469   0.342574939   0.750000000
Zn       0.828712531   0.171287469   0.250000000
Zn       0.342574939   0.171287469   0.250000000
Zn       0.657425061   0.828712531   0.750000000
Zn       0.171287469   0.828712531   0.750000000
Zn       0.828712531   0.657425061   0.250000000
End final coordinates

     A final scf calculation at the relaxed structure.
     The G-vectors are recalculated for the final unit cell
     Results may differ from those at the preceding step.

     bravais-lattice index     =            0
     lattice parameter (alat)  =       9.9235  a.u.
     unit-cell volume          =    1646.7946 (a.u.)^3
     number of atoms/cell      =           12
     number of atomic types    =            2
     number of electrons       =       220.00
     number of Kohn-Sham states=          132
     kinetic-energy cutoff     =      40.0000  Ry
     charge density cutoff     =     160.0000  Ry
     convergence threshold     =      1.0E-04
     mixing beta               =       0.7000
     number of iterations used =            8  plain     mixing
     Exchange-correlation      = SLA-PZ-NOGX-NOGC ( 1 1 0 0 0)
     EXX-fraction              =        0.00

     celldm(1)=   9.923489  celldm(2)=   0.000000  celldm(3)=   0.000000
     celldm(4)=   0.000000  celldm(5)=   0.000000  celldm(6)=   0.000000

     crystal axes: (cart. coord. in units of alat)
               a(1) = (   1.065652   0.000000   0.000000 )
               a(2) = (  -0.532826   0.922882   0.000000 )
               a(3) = (   0.000000   0.000000   1.713502 )

     reciprocal axes: (cart. coord. in units 2 pi/alat)
               b(1) = (  0.938392  0.541781  0.000000 )
               b(2) = (  0.000000  1.083562  0.000000 )
               b(3) = (  0.000000  0.000000  0.583600 )

     PseudoPot. # 1 for Ho read from file:
     /home/cwx6513/pp.La/Ho.UPF
     MD5 check sum: f307ee11bce99f5b724fa279e3790763
     Pseudo is Norm-conserving, Zval = 21.0
     Generated in analytical, separable form
     Using radial grid of 1265 points,  6 beta functions with:
                l(1) =   0
                l(2) =   0
                l(3) =   1
                l(4) =   1
                l(5) =   2
                l(6) =   3

     PseudoPot. # 2 for Eu read from file:
     /home/cwx6513/pp.La/Eu.UPF
     MD5 check sum: 5efdbbfc50c6a10138933a6429836ad2
     Pseudo is Norm-conserving, Zval = 17.0
     Generated in analytical, separable form
     Using radial grid of 1261 points,  6 beta functions with:
                l(1) =   0
                l(2) =   0
                l(3) =   1
                l(4) =   1
                l(5) =   2
                l(6) =   3

     atomic species   valence    mass     pseudopotential
        Mg            21.00    24.30500     Ho( 1.00)
        Zn            17.00    65.39000     Eu( 1.00)

     24 Sym. Ops., with inversion, found (12 have fractional translation)

   Cartesian axes

     site n.     atom                  positions (alat units)
         1           Mg  tau(   1) = (  -0.0000005   0.6152549   0.1091667  )
         2           Mg  tau(   2) = (   0.5328266   0.3076270   0.9659179  )
         3           Mg  tau(   3) = (   0.5328266   0.3076270   1.6043357  )
         4           Mg  tau(   4) = (  -0.0000005   0.6152549   0.7475845  )
         5           Zn  tau(   5) = (   0.0000000   0.0000000   0.0000000  )
         6           Zn  tau(   6) = (   0.0000000   0.0000000   0.8567512  )
         7           Zn  tau(   7) = (   0.0000000   0.3161562   1.2851268  )
         8           Zn  tau(   8) = (   0.7918529   0.1580781   0.4283756  )
         9           Zn  tau(   9) = (   0.2737993   0.1580781   0.4283756  )
        10           Zn  tau(  10) = (   0.2590268   0.7648038   1.2851268  )
        11           Zn  tau(  11) = (  -0.2590268   0.7648038   1.2851268  )
        12           Zn  tau(  12) = (   0.5328261   0.6067257   0.4283756  )

     number of k points=    12  gaussian smearing, width (Ry)=  0.1000
                       cart. coord. in units 2pi/alat
        k(    1) = (   0.0000000   0.0000000   0.0000000), wk =   0.0833333
        k(    2) = (   0.0000000   0.0000000   0.1459000), wk =   0.1666667
        k(    3) = (   0.0000000   0.0000000  -0.2918000), wk =   0.0833333
        k(    4) = (   0.0000000   0.3611874   0.0000000), wk =   0.1666667
        k(    5) = (   0.0000000   0.3611874   0.1459000), wk =   0.3333333
        k(    6) = (   0.0000000   0.3611874  -0.2918000), wk =   0.1666667
        k(    7) = (  -0.4691962  -0.2708906   0.0000000), wk =   0.0833333
        k(    8) = (  -0.4691962  -0.2708906   0.1459000), wk =   0.1666667
        k(    9) = (  -0.4691962  -0.2708906  -0.2918000), wk =   0.0833333
        k(   10) = (  -0.4691962   0.0902969   0.0000000), wk =   0.1666667
        k(   11) = (  -0.4691962   0.0902969   0.1459000), wk =   0.3333333
        k(   12) = (  -0.4691962   0.0902969  -0.2918000), wk =   0.1666667

     Largest allocated arrays     est. size (Mb)     dimensions
     Largest temporary arrays     est. size (Mb)     dimensions

     Initial potential from superposition of free atoms

     Starting from uniform charge
     Starting wfc are    0 randomized atomic wfcs

     Writing output data file Prototype-La-hP12-MgZn2.save

     Self-consistent Calculation

[...]

     iteration #  8     ecut=    40.00 Ry     beta=0.70
     CG style diagonalization
     ethr =  4.13E-04,  avg # of iterations =  3.6

[...]

     total energy              =   -2575.59146280 Ry
     Harris-Foulkes estimate   =   -2575.59216319 Ry
     estimated scf accuracy    <       0.00188056 Ry

     iteration # 11     ecut=    40.00 Ry     beta=0.70
     CG style diagonalization
     c_bands:  1 eigenvalues not converged
     ethr =  8.55E-07,  avg # of iterations =  4.0

     End of self-consistent calculation

[...]

          k = 0.0000 0.3612-0.2918 (  7024 PWs)   bands (ev):

[...]

          k =-0.4692 0.0903-0.2918 (  7040 PWs)   bands (ev):

   -67.2514 -67.2513 -67.2470 -67.2469 -38.8786 -38.8786 -38.7744 -38.7744
   -38.6573 -38.6573 -38.6302 -38.6302 -31.3816 -31.3815 -31.3681 -31.3681
   -31.3596 -31.3596 -31.3572 -31.3572 -31.3557 -31.3556 -31.3509 -31.3508
   -12.5197 -12.5197 -12.1603 -12.1603 -11.8358 -11.8358 -11.8009 -11.8009
   -11.7296 -11.7296 -11.5951 -11.5951 -11.3947 -11.3947 -11.2664 -11.2664
   -11.1666 -11.1666 -11.1118 -11.1118 -11.0041 -11.0041 -10.9366 -10.9366
    12.2587  12.2587  12.2818  12.2818  12.3462  12.3463  12.4877  12.4877
    12.5459  12.5458  12.6991  12.6991  12.7750  12.7750  12.8284  12.8284
    12.9995  12.9995  13.0628  13.0628  16.4502  16.4502  17.1119  17.1119
    17.6317  17.6317  18.3866  18.3866  18.6435  18.6435  18.8306  18.8306
    19.0985  19.0985  19.3427  19.3427  19.7253  19.7253  19.8342  19.8342
    20.1472  20.1472  20.7931  20.7931  20.9541  20.9541  21.3218  21.3218
    21.5906  21.5907  21.8211  21.8211  22.1379  22.1379  22.4895  22.4895
    22.8858  22.8858  23.1545  23.1545  23.4579  23.4579  24.2460  24.2460
    24.9255  24.9255  25.7797  25.7797  26.4458  26.4459  27.0526  27.0526
    28.0002  28.0003  29.1521  29.1522  30.6665  30.6666  31.0388  31.0387
    31.3657  31.3657  32.0059  32.0057

     the Fermi energy is    24.2542 ev

!    total energy              =   -2575.59193889 Ry
     Harris-Foulkes estimate   =   -2575.59199338 Ry
     estimated scf accuracy    <       0.00006562 Ry

     The total energy is the sum of the following terms:

     one-electron contribution =    -431.04168520 Ry
     hartree contribution      =     369.98445478 Ry
     xc contribution           =    -249.53896028 Ry
     ewald contribution        =   -2264.42684020 Ry
     smearing contrib. (-TS)   =      -0.56890799 Ry

     convergence has been achieved in  11 iterations

     Forces acting on atoms (Ry/au):

     atom    1 type  1   force =     0.00000000    0.00000000    0.01747857
     atom    2 type  1   force =     0.00000000    0.00000000    0.01747857
     atom    3 type  1   force =     0.00000000    0.00000000   -0.01747857
     atom    4 type  1   force =     0.00000000    0.00000000   -0.01747857
     atom    5 type  2   force =     0.00000000    0.00000000    0.00000000
     atom    6 type  2   force =     0.00000000    0.00000000    0.00000000
     atom    7 type  2   force =     0.00000000   -0.02117889    0.00000000
     atom    8 type  2   force =     0.01834146   -0.01058945    0.00000000
     atom    9 type  2   force =    -0.01834146   -0.01058945    0.00000000
     atom   10 type  2   force =     0.01834146    0.01058945    0.00000000
     atom   11 type  2   force =    -0.01834146    0.01058945    0.00000000
     atom   12 type  2   force =     0.00000000    0.02117889    0.00000000

     Total force =     0.062556     Total SCF correction =     0.000000

     entering subroutine stress ...

          total   stress  (Ry/bohr**3)                   (kbar)     P= -168.65
  -0.00112808   0.00000000   0.00000000       -165.95      0.00      0.00
   0.00000000  -0.00112808   0.00000000          0.00   -165.95      0.00
   0.00000000   0.00000000  -0.00118312          0.00      0.00   -174.04

     Writing output data file Prototype-La-hP12-MgZn2.save

     General routines

     Parallel routines

   This run was terminated on:   1:23:28  23Mar2018

   JOB DONE.