     Program PWSCF v.5.0.2 starts on 22Mar2018 at 21:32:28

     Current dimensions of program PWSCF are:
     Max number of different atomic species (ntypx) = 10
     Max number of k-points (npk) =  40000
     Max angular momentum in pseudopotentials (lmaxx) =  3
     Waiting for input...
     Reading input from standard input

     Subspace diagonalization in iterative solution of the eigenvalue problem:
     a serial algorithm will be used

     bravais-lattice index     =            0
     lattice parameter (alat)  =       9.9235  a.u.
     unit-cell volume          =    1361.0366 (a.u.)^3
     number of atoms/cell      =           12
     number of atomic types    =            2
     number of electrons       =       268.00
     number of Kohn-Sham states=          161
     kinetic-energy cutoff     =      40.0000  Ry
     charge density cutoff     =     160.0000  Ry
     convergence threshold     =      1.0E-04
     mixing beta               =       0.7000
     number of iterations used =            8  plain     mixing
     Exchange-correlation      = SLA-PZ-NOGX-NOGC ( 1 1 0 0 0)
     EXX-fraction              =        0.00
     nstep                     =           50

     celldm(1)=   9.923489  celldm(2)=   0.000000  celldm(3)=   0.000000
     celldm(4)=   0.000000  celldm(5)=   0.000000  celldm(6)=   0.000000

     crystal axes: (cart. coord. in units of alat)
               a(1) = (   1.000000   0.000000   0.000000 )
               a(2) = (  -0.500000   0.866025   0.000000 )
               a(3) = (   0.000000   0.000000   1.608222 )

     reciprocal axes: (cart. coord. in units 2 pi/alat)
               b(1) = (  1.000000  0.577350  0.000000 )
               b(2) = (  0.000000  1.154701  0.000000 )
               b(3) = (  0.000000  0.000000  0.621805 )

     PseudoPot. # 1 for Tm read from file:
     /home/cwx6513/pp.La/Tm.UPF
     MD5 check sum: 245516e0878b5372ceeb9443ded2c4e1
     Pseudo is Norm-conserving, Zval = 23.0
     Generated in analytical, separable form
     Using radial grid of 1269 points,  6 beta functions with:
                l(1) =   0
                l(2) =   0
                l(3) =   1
                l(4) =   1
                l(5) =   2
                l(6) =   3

     PseudoPot. # 2 for Er read from file:
     /home/cwx6513/pp.La/Er.UPF
     MD5 check sum: e152ae21b84514339d8526f066caf99b
     Pseudo is Norm-conserving, Zval = 22.0
     Generated in analytical, separable form
     Using radial grid of 1267 points,  6 beta functions with:
                l(1) =   0
                l(2) =   0
                l(3) =   1
                l(4) =   1
                l(5) =   2
                l(6) =   3

     atomic species   valence    mass     pseudopotential
        Mg            23.00    24.30500     Tm( 1.00)
        Zn            22.00    65.39000     Er( 1.00)

     24 Sym. Ops., with inversion, found (12 have fractional translation)

   Cartesian axes

     site n.     atom                  positions (alat units)
         1           Mg  tau(   1) = (  -0.0000005   0.5773506   0.1003820  )
         2           Mg  tau(   2) = (   0.5000005   0.2886748   0.9044931  )
         3           Mg  tau(   3) = (   0.5000005   0.2886748   1.5078402  )
         4           Mg  tau(   4) = (  -0.0000005   0.5773506   0.7037291  )
         5           Zn  tau(   5) = (   0.0000000   0.0000000   0.0000000  )
         6           Zn  tau(   6) = (   0.0000000   0.0000000   0.8041111  )
         7           Zn  tau(   7) = (   0.0000000   0.2950739   1.2061667  )
         8           Zn  tau(   8) = (   0.7444585   0.1475370   0.4020556  )
         9           Zn  tau(   9) = (   0.2555415   0.1475370   0.4020556  )
        10           Zn  tau(  10) = (   0.2444585   0.7184884   1.2061667  )
        11           Zn  tau(  11) = (  -0.2444585   0.7184884   1.2061667  )
        12           Zn  tau(  12) = (   0.5000000   0.5709515   0.4020556  )

     number of k points=    12  gaussian smearing, width (Ry)=  0.1000
                       cart. coord. in units 2pi/alat
        k(    1) = (   0.0000000   0.0000000   0.0000000), wk =   0.0833333
        k(    2) = (   0.0000000   0.0000000   0.1554512), wk =   0.1666667
        k(    3) = (   0.0000000   0.0000000  -0.3109023), wk =   0.0833333
        k(    4) = (   0.0000000   0.3849002   0.0000000), wk =   0.1666667
        k(    5) = (   0.0000000   0.3849002   0.1554512), wk =   0.3333333
        k(    6) = (   0.0000000   0.3849002  -0.3109023), wk =   0.1666667
        k(    7) = (  -0.5000000  -0.2886751   0.0000000), wk =   0.0833333
        k(    8) = (  -0.5000000  -0.2886751   0.1554512), wk =   0.1666667
        k(    9) = (  -0.5000000  -0.2886751  -0.3109023), wk =   0.0833333
        k(   10) = (  -0.5000000   0.0962250   0.0000000), wk =   0.1666667
        k(   11) = (  -0.5000000   0.0962250   0.1554512), wk =   0.3333333
        k(   12) = (  -0.5000000   0.0962250  -0.3109023), wk =   0.1666667

     Largest allocated arrays     est. size (Mb)     dimensions
     Largest temporary arrays     est. size (Mb)     dimensions

     Initial potential from superposition of free atoms

     Starting from uniform charge
     Starting wfc are    0 randomized atomic wfcs

     Self-consistent Calculation

     iteration #  1     ecut=    40.00 Ry     beta=0.70
     CG style diagonalization
     ethr =  1.00E-02,  avg # of iterations = 18.1

     total energy              =   -3604.81485499 Ry
     Harris-Foulkes estimate   =   -5075.03137810 Ry
     estimated scf accuracy    <    1841.95890707 Ry

     iteration #  2     ecut=    40.00 Ry     beta=0.70
     CG style diagonalization
     c_bands:  3 eigenvalues not converged
     c_bands:  2 eigenvalues not converged
     c_bands:  1 eigenvalues not converged
     c_bands:  4 eigenvalues not converged
     c_bands:  3 eigenvalues not converged
     c_bands:  1 eigenvalues not converged
     c_bands:  2 eigenvalues not converged
     c_bands:  2 eigenvalues not converged
     c_bands:  1 eigenvalues not converged
     c_bands:  4 eigenvalues not converged
     ethr =  1.00E-02,  avg # of iterations = 10.2

[...]

     End of self-consistent calculation

          k = 0.0000 0.0000 0.0000 (  5769 PWs)   bands (ev):

   -75.5470 -75.5326 -75.5266 -75.4851 -66.9441 -66.9390 -66.8935 -66.8817
   -66.8817 -66.8690 -66.8690 -66.8384 -34.2836 -34.2675 -34.2622 -34.2622
   -34.2422 -34.2417 -34.2417 -34.2182 -34.2182 -34.2176 -34.2095 -34.2095
   -29.8768 -29.7221 -29.4587 -29.2111 -29.2111 -29.1832 -29.1832 -29.1312
   -29.0763 -29.0762 -28.9773 -28.8962 -28.8962 -28.8450 -28.8450 -28.7573
   -28.7573 -28.7361 -28.7078 -28.7078 -28.6575 -28.6574 -28.6568 -28.6409
    13.1469  13.6312  13.9214  14.0394  14.0394  14.1634  14.1635  14.2705
    14.3246  14.3246  14.3253  14.3393  14.3393  14.4667  14.4950  14.4950
    14.6489  14.6489  14.6993  14.6994  14.7230  14.7230  14.7977  15.2166
    15.2166  15.2172  15.2173  15.4092  15.4092  15.6841  15.9667  15.9668
    16.3734  16.6627  16.8703  16.8703  17.1487  17.1487  17.2429  17.5683
    17.6985  17.6985  18.1602  18.1602  18.3653  18.4407  18.4407  18.4869
    18.5246  18.6414  18.6414  18.7287  18.7288  18.9053  18.9054  19.5826
    19.5827  19.9076  19.9076  20.3787  20.4424  20.4434  20.4762  26.2602
    26.4619  27.7185  28.1615  28.1616  28.3419  28.3420  28.5066  28.5318
    29.7063  30.3380  30.3734  30.3736  30.9958  30.9959  31.7343  32.0383
    32.0385  32.3344  32.3345  35.3796  36.3745  36.5125  36.9053  36.9055
    36.9139  36.9140  37.5286  37.6544  37.6546  37.9250  37.9251  38.4032
    38.6469  38.6469  38.8149  40.4348  40.7001  40.7002  40.9448  41.2508
    41.4367  41.6930  41.6930  42.9770  43.1729  43.5919  43.5921  43.6754
    43.6755

[...]

          k =-0.5000-0.2887 0.0000 (  5800 PWs)   bands (ev):

[...]

     the Fermi energy is    36.3778 ev

!    total energy              =   -4097.88497499 Ry
     Harris-Foulkes estimate   =   -4097.88501656 Ry
     estimated scf accuracy    <       0.00004649 Ry

     The total energy is the sum of the following terms:

     one-electron contribution =    -843.13243368 Ry
     hartree contribution      =     635.94953186 Ry
     xc contribution           =    -348.20941756 Ry
     ewald contribution        =   -3542.03527436 Ry
     smearing contrib. (-TS)   =      -0.45738126 Ry

     convergence has been achieved in  11 iterations

     Forces acting on atoms (Ry/au):

     atom    1 type  1   force =     0.00000000    0.00000000    0.01697882
     atom    2 type  1   force =     0.00000000    0.00000000    0.01697882
     atom    3 type  1   force =     0.00000000    0.00000000   -0.01697882
     atom    4 type  1   force =     0.00000000    0.00000000   -0.01697882
     atom    5 type  2   force =     0.00000000    0.00000000    0.00000000
     atom    6 type  2   force =     0.00000000    0.00000000    0.00000000
     atom    7 type  2   force =     0.00000000    0.11520913    0.00000000
     atom    8 type  2   force =    -0.09977404    0.05760457    0.00000000
     atom    9 type  2   force =     0.09977404    0.05760457    0.00000000
     atom   10 type  2   force =    -0.09977404   -0.05760457    0.00000000
     atom   11 type  2   force =     0.09977404   -0.05760457    0.00000000
     atom   12 type  2   force =     0.00000000   -0.11520913    0.00000000

     Total force =     0.284239     Total SCF correction =     0.000000

     entering subroutine stress ...

          total   stress  (Ry/bohr**3)                   (kbar)     P= 1255.30
   0.00857306   0.00000000   0.00000000       1261.14      0.00      0.00
   0.00000000   0.00857306   0.00000000          0.00   1261.14      0.00
   0.00000000   0.00000000   0.00845385          0.00      0.00   1243.60

     BFGS Geometry Optimization

     number of scf cycles    =   1
     number of bfgs steps    =   0

     enthalpy new            =   -4097.8849749905 Ry

     new trust radius        =       0.5000000000 bohr
     new conv_thr            =       0.0001000000 Ry

     new unit-cell volume =   1655.43966 a.u.^3 (   245.31085 Ang^3 )

CELL_PARAMETERS (alat=  9.92348860)
   1.067764947   0.000000000   0.000000000
  -0.533882474   0.924711570   0.000000000
   0.000000000   0.000000000   1.715687867

ATOMIC_POSITIONS (crystal)
Mg       0.333333000   0.666667000   0.062754377
Mg       0.666667000   0.333333000   0.562754377
Mg       0.666667000   0.333333000   0.937245623
Mg       0.333333000   0.666667000   0.437245623
Zn       0.000000000   0.000000000   0.000000000
Zn       0.000000000   0.000000000   0.500000000
Zn       0.172480293   0.344960585   0.750000000
Zn       0.827519707   0.172480293   0.250000000
Zn       0.344960585   0.172480293   0.250000000
Zn       0.655039415   0.827519707   0.750000000
Zn       0.172480293   0.827519707   0.750000000
Zn       0.827519707   0.655039415   0.250000000

     Writing output data file Prototype-La-hP12-MgZn2.save
     NEW-OLD atomic charge density approx. for the potential
     NEW k-points:
        k(    1) = (   0.0000000   0.0000000   0.0000000), wk =   0.0833333
        k(    2) = (   0.0000000   0.0000000   0.1457142), wk =   0.1666667
        k(    3) = (   0.0000000   0.0000000  -0.2914283), wk =   0.0833333
        k(    4) = (   0.0000000   0.3604728   0.0000000), wk =   0.1666667
        k(    5) = (   0.0000000   0.3604728   0.1457142), wk =   0.3333333
        k(    6) = (   0.0000000   0.3604728  -0.2914283), wk =   0.1666667
        k(    7) = (  -0.4682679  -0.2703546   0.0000000), wk =   0.0833333
        k(    8) = (  -0.4682679  -0.2703546   0.1457142), wk =   0.1666667
        k(    9) = (  -0.4682679  -0.2703546  -0.2914283), wk =   0.0833333
        k(   10) = (  -0.4682679   0.0901182   0.0000000), wk =   0.1666667
        k(   11) = (  -0.4682679   0.0901182   0.1457142), wk =   0.3333333
        k(   12) = (  -0.4682679   0.0901182  -0.2914283), wk =   0.1666667

[...]

     enthalpy old            =   -4097.8849749905 Ry
     enthalpy new            =   -4098.6333066248 Ry

     CASE: enthalpy_new < enthalpy_old

     small trust_radius: resetting bfgs history

     new trust radius        =       0.5109660784 bohr
     new conv_thr            =       0.0000376421 Ry

[...]

     number of scf cycles    =   3
     number of bfgs steps    =   2

     enthalpy old            =   -4098.6333066248 Ry
     enthalpy new            =   -4098.0678253304 Ry

     CASE: enthalpy_new > enthalpy_old

     new trust radius        =       0.1361834989 bohr

     trust_radius < trust_radius_min

     resetting bfgs history

     Message from routine bfgs:
     history already reset at previous step: stopping
     new conv_thr            =       0.0000376421 Ry

     new unit-cell volume =   1379.34296 a.u.^3 (   204.39754 Ang^3 )

[...]

ATOMIC_POSITIONS (crystal)
Mg       0.333333000   0.666667000   0.060352566
Mg       0.666667000   0.333333000   0.560352566
Mg       0.666667000   0.333333000   0.939647434
Mg       0.333333000   0.666667000   0.439647434
Zn       0.000000000   0.000000000   0.000000000
Zn       0.000000000   0.000000000   0.500000000
Zn       0.172520882   0.345041764   0.750000000
Zn       0.827479118   0.172520882   0.250000000
Zn       0.345041764   0.172520882   0.250000000
Zn       0.654958236   0.827479118   0.750000000
Zn       0.172520882   0.827479118   0.750000000
Zn       0.827479118   0.654958236   0.250000000

     Writing output data file Prototype-La-hP12-MgZn2.save
     NEW-OLD atomic charge density approx. for the potential
     NEW k-points:
        k(    1) = (   0.0000000   0.0000000   0.0000000), wk =   0.0833333
        k(    2) = (   0.0000000   0.0000000   0.1555133), wk =   0.1666667
        k(    3) = (   0.0000000   0.0000000  -0.3110266), wk =   0.0833333
        k(    4) = (   0.0000000   0.3822611   0.0000000), wk =   0.1666667
        k(    5) = (   0.0000000   0.3822611   0.1555133), wk =   0.3333333
        k(    6) = (   0.0000000   0.3822611  -0.3110266), wk =   0.1666667
        k(    7) = (  -0.4965717  -0.2866958   0.0000000), wk =   0.0833333
        k(    8) = (  -0.4965717  -0.2866958   0.1555133), wk =   0.1666667
        k(    9) = (  -0.4965717  -0.2866958  -0.3110266), wk =   0.0833333
        k(   10) = (  -0.4965717   0.0955653   0.0000000), wk =   0.1666667
        k(   11) = (  -0.4965717   0.0955653   0.1555133), wk =   0.3333333
        k(   12) = (  -0.4965717   0.0955653  -0.3110266), wk =   0.1666667

[...]

     The maximum number of steps has been reached.

     End of BFGS Geometry Optimization
Begin final coordinates
     new unit-cell volume =   1379.34296 a.u.^3 (   204.39754 Ang^3 )

CELL_PARAMETERS (alat=  9.92348860)
   1.006903951   0.000000000   0.000000000
  -0.503451976   0.872004401   0.000000000
   0.000000000   0.000000000   1.607579336

ATOMIC_POSITIONS (crystal)
Mg       0.333333000   0.666667000   0.060352566
Mg       0.666667000   0.333333000   0.560352566
Mg       0.666667000   0.333333000   0.939647434
Mg       0.333333000   0.666667000   0.439647434
Zn       0.000000000   0.000000000   0.000000000
Zn       0.000000000   0.000000000   0.500000000
Zn       0.172520882   0.345041764   0.750000000
Zn       0.827479118   0.172520882   0.250000000
Zn       0.345041764   0.172520882   0.250000000
Zn       0.654958236   0.827479118   0.750000000
Zn       0.172520882   0.827479118   0.750000000
Zn       0.827479118   0.654958236   0.250000000
End final coordinates

     A final scf calculation at the relaxed structure.
     The G-vectors are recalculated for the final unit cell
     Results may differ from those at the preceding step.

     bravais-lattice index     =            0
     lattice parameter (alat)  =       9.9235  a.u.
     unit-cell volume          =    1379.3430 (a.u.)^3
     number of atoms/cell      =           12
     number of atomic types    =            2
     number of electrons       =       268.00
     number of Kohn-Sham states=          161
     kinetic-energy cutoff     =      40.0000  Ry
     charge density cutoff     =     160.0000  Ry
     convergence threshold     =      3.8E-05
     mixing beta               =       0.7000
     number of iterations used =            8  plain     mixing
     Exchange-correlation      = SLA-PZ-NOGX-NOGC ( 1 1 0 0 0)
     EXX-fraction              =        0.00

     celldm(1)=   9.923489  celldm(2)=   0.000000  celldm(3)=   0.000000
     celldm(4)=   0.000000  celldm(5)=   0.000000  celldm(6)=   0.000000

     crystal axes: (cart. coord. in units of alat)
               a(1) = (   1.006904   0.000000   0.000000 )
               a(2) = (  -0.503452   0.872004   0.000000 )
               a(3) = (   0.000000   0.000000   1.607579 )

     reciprocal axes: (cart. coord. in units 2 pi/alat)
               b(1) = (  0.993143  0.573392  0.000000 )
               b(2) = (  0.000000  1.146783  0.000000 )
               b(3) = (  0.000000  0.000000  0.622053 )

     PseudoPot. # 1 for Tm read from file:
     /home/cwx6513/pp.La/Tm.UPF
     MD5 check sum: 245516e0878b5372ceeb9443ded2c4e1
     Pseudo is Norm-conserving, Zval = 23.0
     Generated in analytical, separable form
     Using radial grid of 1269 points,  6 beta functions with:
                l(1) =   0
                l(2) =   0
                l(3) =   1
                l(4) =   1
                l(5) =   2
                l(6) =   3

     PseudoPot. # 2 for Er read from file:
     /home/cwx6513/pp.La/Er.UPF
     MD5 check sum: e152ae21b84514339d8526f066caf99b
     Pseudo is Norm-conserving, Zval = 22.0
     Generated in analytical, separable form
     Using radial grid of 1267 points,  6 beta functions with:
                l(1) =   0
                l(2) =   0
                l(3) =   1
                l(4) =   1
                l(5) =   2
                l(6) =   3

     atomic species   valence    mass     pseudopotential
        Mg            23.00    24.30500     Tm( 1.00)
        Zn            22.00    65.39000     Er( 1.00)

     24 Sym. Ops., with inversion, found (12 have fractional translation)

   Cartesian axes

     site n.     atom                  positions (alat units)
         1           Mg  tau(   1) = (  -0.0000005   0.5813366   0.0970215  )
         2           Mg  tau(   2) = (   0.5034525   0.2906678   0.9008112  )
         3           Mg  tau(   3) = (   0.5034525   0.2906678   1.5105578  )
         4           Mg  tau(   4) = (  -0.0000005   0.5813366   0.7067681  )
         5           Zn  tau(   5) = (   0.0000000   0.0000000   0.0000000  )
         6           Zn  tau(   6) = (   0.0000000   0.0000000   0.8037897  )
         7           Zn  tau(   7) = (   0.0000000   0.3008779   1.2056845  )
         8           Zn  tau(   8) = (   0.7463360   0.1504390   0.4018948  )
         9           Zn  tau(   9) = (   0.2605679   0.1504390   0.4018948  )
        10           Zn  tau(  10) = (   0.2428840   0.7215654   1.2056845  )
        11           Zn  tau(  11) = (  -0.2428840   0.7215654   1.2056845  )
        12           Zn  tau(  12) = (   0.5034520   0.5711265   0.4018948  )

     number of k points=    12  gaussian smearing, width (Ry)=  0.1000
                       cart. coord. in units 2pi/alat
        k(    1) = (   0.0000000   0.0000000   0.0000000), wk =   0.0833333
        k(    2) = (   0.0000000   0.0000000   0.1555133), wk =   0.1666667
        k(    3) = (   0.0000000   0.0000000  -0.3110266), wk =   0.0833333
        k(    4) = (   0.0000000   0.3822611   0.0000000), wk =   0.1666667
        k(    5) = (   0.0000000   0.3822611   0.1555133), wk =   0.3333333
        k(    6) = (   0.0000000   0.3822611  -0.3110266), wk =   0.1666667
        k(    7) = (  -0.4965717  -0.2866958   0.0000000), wk =   0.0833333
        k(    8) = (  -0.4965717  -0.2866958   0.1555133), wk =   0.1666667
        k(    9) = (  -0.4965717  -0.2866958  -0.3110266), wk =   0.0833333
        k(   10) = (  -0.4965717   0.0955653   0.0000000), wk =   0.1666667
        k(   11) = (  -0.4965717   0.0955653   0.1555133), wk =   0.3333333
        k(   12) = (  -0.4965717   0.0955653  -0.3110266), wk =   0.1666667

     Largest allocated arrays     est. size (Mb)     dimensions
     Largest temporary arrays     est. size (Mb)     dimensions

     Initial potential from superposition of free atoms

     Starting from uniform charge
     Starting wfc are    0 randomized atomic wfcs

     Writing output data file Prototype-La-hP12-MgZn2.save

     Self-consistent Calculation

[...]

     iteration #  7     ecut=    40.00 Ry     beta=0.70
     CG style diagonalization
     ethr =  3.37E-04,  avg # of iterations =  3.7

[...]

     total energy              =   -4098.22162458 Ry
     Harris-Foulkes estimate   =   -4098.22169594 Ry
     estimated scf accuracy    <       0.00013195 Ry

     iteration # 11     ecut=    40.00 Ry     beta=0.70
     CG style diagonalization
     c_bands:  1 eigenvalues not converged
     c_bands:  1 eigenvalues not converged
     ethr =  4.92E-08,  avg # of iterations =  4.2

     End of self-consistent calculation

[...]

          k = 0.0000 0.3823-0.3110 (  5896 PWs)   bands (ev):

[...]

          k =-0.4966 0.0956-0.3110 (  5904 PWs)   bands (ev):

   -76.0814 -76.0813 -76.0673 -76.0672 -67.4038 -67.4038 -67.3584 -67.3584
   -67.3467 -67.3467 -67.3053 -67.3053 -34.8017 -34.8016 -34.7882 -34.7882
   -34.7834 -34.7834 -34.7701 -34.7700 -34.7570 -34.7570 -34.7419 -34.7419
   -30.0248 -30.0248 -29.8361 -29.8361 -29.6040 -29.6040 -29.5434 -29.5434
   -29.4763 -29.4763 -29.4458 -29.4458 -29.3671 -29.3671 -29.2893 -29.2892
   -29.2236 -29.2235 -29.1924 -29.1924 -29.1738 -29.1738 -29.1560 -29.1560
    13.5880  13.5880  13.6413  13.6414  13.6731  13.6731  13.7998  13.7998
    13.8357  13.8358  13.9398  13.9399  13.9682  13.9683  14.0222  14.0223
    14.1424  14.1424  14.2970  14.2970  14.3389  14.3389  14.8822  14.8822
    15.1500  15.1500  15.3708  15.3709  15.5082  15.5082  16.1384  16.1385
    16.2279  16.2279  16.4934  16.4935  16.7776  16.7776  16.8339  16.8339
    17.1129  17.1129  17.3267  17.3268  17.6190  17.6190  17.7725  17.7725
    17.9253  17.9253  18.1101  18.1101  18.1987  18.1987  18.2990  18.2990
    18.4648  18.4648  19.1927  19.1928  19.9076  19.9076  21.6223  21.6223
    23.4811  23.4811  26.1023  26.1023  27.5780  27.5780  28.3678  28.3678
    29.1831  29.1831  31.0399  31.0400  33.2285  33.2285  34.0193  34.0193
    35.0295  35.0295  35.6948  35.6948  36.0494  36.0494  36.5018  36.5018
    37.0507  37.0507  37.3329  37.3329  37.6010  37.6010  38.3138  38.3138
    38.5406  38.5406  39.5783  39.5783  40.0066  40.0066  40.1697  40.1697
    41.1896  41.1897  41.4102  41.4102  41.9791  41.9792  42.3096  42.3096
    42.9517

     the Fermi energy is    35.8423 ev

!    total energy              =   -4098.22169203 Ry
     Harris-Foulkes estimate   =   -4098.22170265 Ry
     estimated scf accuracy    <       0.00001308 Ry

     The total energy is the sum of the following terms:

     one-electron contribution =    -864.51646796 Ry
     hartree contribution      =     641.94752175 Ry
     xc contribution           =    -347.91360235 Ry
     ewald contribution        =   -3527.28578197 Ry
     smearing contrib. (-TS)   =      -0.45336151 Ry

     convergence has been achieved in  11 iterations

     Forces acting on atoms (Ry/au):

     atom    1 type  1   force =     0.00000000    0.00000000    0.04381665
     atom    2 type  1   force =     0.00000000    0.00000000    0.04381665
     atom    3 type  1   force =     0.00000000    0.00000000   -0.04381665
     atom    4 type  1   force =     0.00000000    0.00000000   -0.04381665
     atom    5 type  2   force =     0.00000000    0.00000000    0.00000000
     atom    6 type  2   force =     0.00000000    0.00000000    0.00000000
     atom    7 type  2   force =     0.00000000   -0.01173658    0.00000000
     atom    8 type  2   force =     0.01016417   -0.00586829    0.00000000
     atom    9 type  2   force =    -0.01016417   -0.00586829    0.00000000
     atom   10 type  2   force =     0.01016417    0.00586829    0.00000000
     atom   11 type  2   force =    -0.01016417    0.00586829    0.00000000
     atom   12 type  2   force =     0.00000000    0.01173658    0.00000000

     Total force =     0.092228     Total SCF correction =     0.000000

     entering subroutine stress ...

          total   stress  (Ry/bohr**3)                   (kbar)     P= 1160.15
   0.00794477   0.00000000   0.00000000       1168.72      0.00      0.00
   0.00000000   0.00794477   0.00000000          0.00   1168.72      0.00
   0.00000000   0.00000000   0.00777015          0.00      0.00   1143.03

     Writing output data file Prototype-La-hP12-MgZn2.save

     General routines

     Parallel routines

   This run was terminated on:  22:23:33  22Mar2018

   JOB DONE.