     Program PWSCF v.5.0.2 starts on 22Mar2018 at 21:37: 9

     Current dimensions of program PWSCF are:
     Max number of different atomic species (ntypx) = 10
     Max number of k-points (npk) =  40000
     Max angular momentum in pseudopotentials (lmaxx) =  3
     Waiting for input...
     Reading input from standard input

     Subspace diagonalization in iterative solution of the eigenvalue problem:
     a serial algorithm will be used

     bravais-lattice index     =            0
     lattice parameter (alat)  =       9.9235  a.u.
     unit-cell volume          =    1361.0366 (a.u.)^3
     number of atoms/cell      =           12
     number of atomic types    =            2
     number of electrons       =       284.00
     number of Kohn-Sham states=          170
     kinetic-energy cutoff     =      40.0000  Ry
     charge density cutoff     =     160.0000  Ry
     convergence threshold     =      1.0E-04
     mixing beta               =       0.7000
     number of iterations used =            8  plain     mixing
     Exchange-correlation      = SLA-PZ-NOGX-NOGC ( 1 1 0 0 0)
     EXX-fraction              =        0.00
     nstep                     =           50

     celldm(1)=   9.923489  celldm(2)=   0.000000  celldm(3)=   0.000000
     celldm(4)=   0.000000  celldm(5)=   0.000000  celldm(6)=   0.000000

     crystal axes: (cart. coord. in units of alat)
               a(1) = (   1.000000   0.000000   0.000000 )
               a(2) = (  -0.500000   0.866025   0.000000 )
               a(3) = (   0.000000   0.000000   1.608222 )

     reciprocal axes: (cart. coord. in units 2 pi/alat)
               b(1) = (  1.000000  0.577350  0.000000 )
               b(2) = (  0.000000  1.154701  0.000000 )
               b(3) = (  0.000000  0.000000  0.621805 )

     PseudoPot. # 1 for Tm read from file:
     /home/cwx6513/pp.La/Tm.UPF
     MD5 check sum: 245516e0878b5372ceeb9443ded2c4e1
     Pseudo is Norm-conserving, Zval = 23.0
     Generated in analytical, separable form
     Using radial grid of 1269 points,  6 beta functions with:
                l(1) =   0
                l(2) =   0
                l(3) =   1
                l(4) =   1
                l(5) =   2
                l(6) =   3

     PseudoPot. # 2 for Yb read from file:
     /home/cwx6513/pp.La/Yb.UPF
     MD5 check sum: 3e859b81cc28c53ec6aa3a2e888efcdf
     Pseudo is Norm-conserving, Zval = 24.0
     Generated in analytical, separable form
     Using radial grid of 1269 points,  6 beta functions with:
                l(1) =   0
                l(2) =   0
                l(3) =   1
                l(4) =   1
                l(5) =   2
                l(6) =   3

     atomic species   valence    mass     pseudopotential
        Mg            23.00    24.30500     Tm( 1.00)
        Zn            24.00    65.39000     Yb( 1.00)

     24 Sym. Ops., with inversion, found (12 have fractional translation)

   Cartesian axes

     site n.     atom                  positions (alat units)
         1           Mg  tau(   1) = (  -0.0000005   0.5773506   0.1003820  )
         2           Mg  tau(   2) = (   0.5000005   0.2886748   0.9044931  )
         3           Mg  tau(   3) = (   0.5000005   0.2886748   1.5078402  )
         4           Mg  tau(   4) = (  -0.0000005   0.5773506   0.7037291  )
         5           Zn  tau(   5) = (   0.0000000   0.0000000   0.0000000  )
         6           Zn  tau(   6) = (   0.0000000   0.0000000   0.8041111  )
         7           Zn  tau(   7) = (   0.0000000   0.2950739   1.2061667  )
         8           Zn  tau(   8) = (   0.7444585   0.1475370   0.4020556  )
         9           Zn  tau(   9) = (   0.2555415   0.1475370   0.4020556  )
        10           Zn  tau(  10) = (   0.2444585   0.7184884   1.2061667  )
        11           Zn  tau(  11) = (  -0.2444585   0.7184884   1.2061667  )
        12           Zn  tau(  12) = (   0.5000000   0.5709515   0.4020556  )

     number of k points=    12  gaussian smearing, width (Ry)=  0.1000
                       cart. coord. in units 2pi/alat
        k(    1) = (   0.0000000   0.0000000   0.0000000), wk =   0.0833333
        k(    2) = (   0.0000000   0.0000000   0.1554512), wk =   0.1666667
        k(    3) = (   0.0000000   0.0000000  -0.3109023), wk =   0.0833333
        k(    4) = (   0.0000000   0.3849002   0.0000000), wk =   0.1666667
        k(    5) = (   0.0000000   0.3849002   0.1554512), wk =   0.3333333
        k(    6) = (   0.0000000   0.3849002  -0.3109023), wk =   0.1666667
        k(    7) = (  -0.5000000  -0.2886751   0.0000000), wk =   0.0833333
        k(    8) = (  -0.5000000  -0.2886751   0.1554512), wk =   0.1666667
        k(    9) = (  -0.5000000  -0.2886751  -0.3109023), wk =   0.0833333
        k(   10) = (  -0.5000000   0.0962250   0.0000000), wk =   0.1666667
        k(   11) = (  -0.5000000   0.0962250   0.1554512), wk =   0.3333333
        k(   12) = (  -0.5000000   0.0962250  -0.3109023), wk =   0.1666667

     Largest allocated arrays     est. size (Mb)     dimensions
     Largest temporary arrays     est. size (Mb)     dimensions

     Initial potential from superposition of free atoms

     Starting from uniform charge
     Starting wfc are    0 randomized atomic wfcs

     Self-consistent Calculation

     iteration #  1     ecut=    40.00 Ry     beta=0.70
     CG style diagonalization
     c_bands:  2 eigenvalues not converged
     c_bands:  2 eigenvalues not converged
     c_bands:  3 eigenvalues not converged
     c_bands:  1 eigenvalues not converged
     c_bands:  1 eigenvalues not converged
     c_bands:  2 eigenvalues not converged
     c_bands:  2 eigenvalues not converged
     c_bands:  2 eigenvalues not converged
     c_bands:  2 eigenvalues not converged
     c_bands:  2 eigenvalues not converged
     c_bands:  1 eigenvalues not converged
     ethr =  1.00E-02,  avg # of iterations = 20.3

     total energy              =   -4143.13262924 Ry
     Harris-Foulkes estimate   =   -6002.08181166 Ry
     estimated scf accuracy    <    2299.98740182 Ry

[...]

     iteration #  5     ecut=    40.00 Ry     beta=0.70
     CG style diagonalization
     ethr =  1.00E-02,  avg # of iterations =  3.6

[...]

     End of self-consistent calculation

          k = 0.0000 0.0000 0.0000 (  5769 PWs)   bands (ev):

   -87.9979 -87.9799 -87.9694 -87.9693 -87.9648 -87.9453 -87.9452 -87.8689
   -74.1773 -74.1630 -74.1569 -74.1155 -47.2727 -47.1995 -47.1018 -46.9886
   -46.9640 -46.9640 -46.9517 -46.9517 -46.8926 -46.8926 -46.8269 -46.8105
   -46.8105 -46.8000 -46.7999 -46.7578 -46.7577 -46.7517 -46.7397 -46.7397
   -46.7197 -46.7196 -46.6908 -46.6830 -32.9064 -32.8902 -32.8829 -32.8829
   -32.8649 -32.8632 -32.8632 -32.8398 -32.8393 -32.8393 -32.8302 -32.8301
     7.9060   8.2401   8.4594   8.9597   8.9597   9.0472   9.0472   9.2454
     9.2455   9.3753   9.5534   9.5534  10.0256  10.2744  10.3326  10.3326
    10.4146  10.4146  10.7735  10.9108  10.9108  11.1575  11.1575  11.2603
    11.2889  11.2889  11.3619  11.3619  11.3703  11.3816  11.4800  11.4800
    11.5898  11.5898  12.0284  12.0284  12.2534  12.2534  12.5899  12.5907
    15.6288  15.6465  15.6804  15.6804  15.7121  15.7121  15.7671  15.7671
    15.7923  15.7923  15.9089  16.0846  16.0846  16.1021  16.1021  16.1274
    16.1482  16.2268  16.2268  16.3269  16.3269  17.8943  19.5634  23.1153
    23.6018  25.6460  25.6461  25.8947  26.6420  26.6421  27.9503  28.1065
    28.1067  28.1551  28.1552  28.2046  28.2234  28.4391  28.4393  29.1521
    29.6576  31.6584  31.6585  33.9231  34.9454  34.9456  35.4065  35.4637
    35.4638  35.8285  36.0140  36.0453  36.0454  36.9516  36.9517  37.4682
    37.4682  37.5511  38.1954  39.5563  40.2685  40.2685  40.4197  40.4198
    40.5163  40.5346  40.5509  40.6793  41.5817  42.4489  42.4490  42.8648
    42.8648  43.6262  43.8979  43.8980  43.9872  44.6479  44.6479  44.7076
    45.0393  45.0394

[...]

          k =-0.5000-0.2887 0.0000 (  5800 PWs)   bands (ev):

[...]

     the Fermi energy is    37.2271 ev

!    total energy              =   -4740.19887773 Ry
     Harris-Foulkes estimate   =   -4740.19892948 Ry
     estimated scf accuracy    <       0.00006095 Ry

     The total energy is the sum of the following terms:

     one-electron contribution =   -1175.88690173 Ry
     hartree contribution      =     781.39137028 Ry
     xc contribution           =    -380.75439229 Ry
     ewald contribution        =   -3964.45456325 Ry
     smearing contrib. (-TS)   =      -0.49439074 Ry

     convergence has been achieved in  11 iterations

     Forces acting on atoms (Ry/au):

     atom    1 type  1   force =     0.00000000    0.00000000    0.03272913
     atom    2 type  1   force =     0.00000000    0.00000000    0.03272913
     atom    3 type  1   force =     0.00000000    0.00000000   -0.03272913
     atom    4 type  1   force =     0.00000000    0.00000000   -0.03272913
     atom    5 type  2   force =     0.00000000    0.00000000    0.00000000
     atom    6 type  2   force =     0.00000000    0.00000000    0.00000000
     atom    7 type  2   force =     0.00000000    0.11468904    0.00000000
     atom    8 type  2   force =    -0.09932363    0.05734452    0.00000000
     atom    9 type  2   force =     0.09932363    0.05734452    0.00000000
     atom   10 type  2   force =    -0.09932363   -0.05734452    0.00000000
     atom   11 type  2   force =     0.09932363   -0.05734452    0.00000000
     atom   12 type  2   force =     0.00000000   -0.11468904    0.00000000

     Total force =     0.288455     Total SCF correction =     0.000000

     entering subroutine stress ...

          total   stress  (Ry/bohr**3)                   (kbar)     P= 1314.95
   0.00889762   0.00000000   0.00000000       1308.88      0.00      0.00
   0.00000000   0.00889762   0.00000000          0.00   1308.88      0.00
   0.00000000   0.00000000   0.00902124          0.00      0.00   1327.07

     BFGS Geometry Optimization

     number of scf cycles    =   1
     number of bfgs steps    =   0

     enthalpy new            =   -4740.1988777301 Ry

     new trust radius        =       0.5000000000 bohr
     new conv_thr            =       0.0001000000 Ry

     new unit-cell volume =   1654.02124 a.u.^3 (   245.10066 Ang^3 )

CELL_PARAMETERS (alat=  9.92348860)
   1.066836346   0.000000000   0.000000000
  -0.533418173   0.923907378   0.000000000
   0.000000000   0.000000000   1.717203317

ATOMIC_POSITIONS (crystal)
Mg       0.333333000   0.666667000   0.063034202
Mg       0.666667000   0.333333000   0.563034202
Mg       0.666667000   0.333333000   0.936965798
Mg       0.333333000   0.666667000   0.436965798
Zn       0.000000000   0.000000000   0.000000000
Zn       0.000000000   0.000000000   0.500000000
Zn       0.172365915   0.344731830   0.750000000
Zn       0.827634085   0.172365915   0.250000000
Zn       0.344731830   0.172365915   0.250000000
Zn       0.655268170   0.827634085   0.750000000
Zn       0.172365915   0.827634085   0.750000000
Zn       0.827634085   0.655268170   0.250000000

     Writing output data file Prototype-La-hP12-MgZn2.save
     NEW-OLD atomic charge density approx. for the potential
     NEW k-points:
        k(    1) = (   0.0000000   0.0000000   0.0000000), wk =   0.0833333
        k(    2) = (   0.0000000   0.0000000   0.1455856), wk =   0.1666667
        k(    3) = (   0.0000000   0.0000000  -0.2911711), wk =   0.0833333
        k(    4) = (   0.0000000   0.3607865   0.0000000), wk =   0.1666667
        k(    5) = (   0.0000000   0.3607865   0.1455856), wk =   0.3333333
        k(    6) = (   0.0000000   0.3607865  -0.2911711), wk =   0.1666667
        k(    7) = (  -0.4686754  -0.2705899   0.0000000), wk =   0.0833333
        k(    8) = (  -0.4686754  -0.2705899   0.1455856), wk =   0.1666667
        k(    9) = (  -0.4686754  -0.2705899  -0.2911711), wk =   0.0833333
        k(   10) = (  -0.4686754   0.0901966   0.0000000), wk =   0.1666667
        k(   11) = (  -0.4686754   0.0901966   0.1455856), wk =   0.3333333
        k(   12) = (  -0.4686754   0.0901966  -0.2911711), wk =   0.1666667

[...]

     enthalpy old            =   -4740.1988777302 Ry
     enthalpy new            =   -4741.0454408982 Ry

     CASE: enthalpy_new < enthalpy_old

     small trust_radius: resetting bfgs history

     new trust radius        =       0.4610791188 bohr
     new conv_thr            =       0.0000335674 Ry

[...]

     number of scf cycles    =   3
     number of bfgs steps    =   2

     enthalpy old            =   -4741.0454408982 Ry
     enthalpy new            =   -4740.5642371363 Ry

     CASE: enthalpy_new > enthalpy_old

     new trust radius        =       0.1209043056 bohr

     trust_radius < trust_radius_min

     resetting bfgs history

     Message from routine bfgs:
     history already reset at previous step: stopping
     new conv_thr            =       0.0000335674 Ry

     new unit-cell volume =   1393.23339 a.u.^3 (   206.45588 Ang^3 )

[...]

ATOMIC_POSITIONS (crystal)
Mg       0.333333000   0.666667000   0.065247903
Mg       0.666667000   0.333333000   0.565247903
Mg       0.666667000   0.333333000   0.934752097
Mg       0.333333000   0.666667000   0.434752097
Zn       0.000000000   0.000000000   0.000000000
Zn       0.000000000   0.000000000   0.500000000
Zn       0.171938199   0.343876397   0.750000000
Zn       0.828061801   0.171938199   0.250000000
Zn       0.343876397   0.171938199   0.250000000
Zn       0.656123603   0.828061801   0.750000000
Zn       0.171938199   0.828061801   0.750000000
Zn       0.828061801   0.656123603   0.250000000

     Writing output data file Prototype-La-hP12-MgZn2.save
     NEW-OLD atomic charge density approx. for the potential
     NEW k-points:
        k(    1) = (   0.0000000   0.0000000   0.0000000), wk =   0.0833333
        k(    2) = (   0.0000000   0.0000000   0.1547684), wk =   0.1666667
        k(    3) = (   0.0000000   0.0000000  -0.3095368), wk =   0.0833333
        k(    4) = (   0.0000000   0.3812650   0.0000000), wk =   0.1666667
        k(    5) = (   0.0000000   0.3812650   0.1547684), wk =   0.3333333
        k(    6) = (   0.0000000   0.3812650  -0.3095368), wk =   0.1666667
        k(    7) = (  -0.4952778  -0.2859487   0.0000000), wk =   0.0833333
        k(    8) = (  -0.4952778  -0.2859487   0.1547684), wk =   0.1666667
        k(    9) = (  -0.4952778  -0.2859487  -0.3095368), wk =   0.0833333
        k(   10) = (  -0.4952778   0.0953162   0.0000000), wk =   0.1666667
        k(   11) = (  -0.4952778   0.0953162   0.1547684), wk =   0.3333333
        k(   12) = (  -0.4952778   0.0953162  -0.3095368), wk =   0.1666667

[...]

     The maximum number of steps has been reached.

     End of BFGS Geometry Optimization
Begin final coordinates
     new unit-cell volume =   1393.23339 a.u.^3 (   206.45588 Ang^3 )

CELL_PARAMETERS (alat=  9.92348860)
   1.009534535   0.000000000   0.000000000
  -0.504767268   0.874282554   0.000000000
   0.000000000   0.000000000   1.615316968

ATOMIC_POSITIONS (crystal)
Mg       0.333333000   0.666667000   0.065247903
Mg       0.666667000   0.333333000   0.565247903
Mg       0.666667000   0.333333000   0.934752097
Mg       0.333333000   0.666667000   0.434752097
Zn       0.000000000   0.000000000   0.000000000
Zn       0.000000000   0.000000000   0.500000000
Zn       0.171938199   0.343876397   0.750000000
Zn       0.828061801   0.171938199   0.250000000
Zn       0.343876397   0.171938199   0.250000000
Zn       0.656123603   0.828061801   0.750000000
Zn       0.171938199   0.828061801   0.750000000
Zn       0.828061801   0.656123603   0.250000000
End final coordinates

     A final scf calculation at the relaxed structure.
     The G-vectors are recalculated for the final unit cell
     Results may differ from those at the preceding step.

     bravais-lattice index     =            0
     lattice parameter (alat)  =       9.9235  a.u.
     unit-cell volume          =    1393.2334 (a.u.)^3
     number of atoms/cell      =           12
     number of atomic types    =            2
     number of electrons       =       284.00
     number of Kohn-Sham states=          170
     kinetic-energy cutoff     =      40.0000  Ry
     charge density cutoff     =     160.0000  Ry
     convergence threshold     =      3.4E-05
     mixing beta               =       0.7000
     number of iterations used =            8  plain     mixing
     Exchange-correlation      = SLA-PZ-NOGX-NOGC ( 1 1 0 0 0)
     EXX-fraction              =        0.00

     celldm(1)=   9.923489  celldm(2)=   0.000000  celldm(3)=   0.000000
     celldm(4)=   0.000000  celldm(5)=   0.000000  celldm(6)=   0.000000

     crystal axes: (cart. coord. in units of alat)
               a(1) = (   1.009535   0.000000   0.000000 )
               a(2) = (  -0.504767   0.874283   0.000000 )
               a(3) = (   0.000000   0.000000   1.615317 )

     reciprocal axes: (cart. coord. in units 2 pi/alat)
               b(1) = (  0.990556  0.571897  0.000000 )
               b(2) = (  0.000000  1.143795  0.000000 )
               b(3) = (  0.000000  0.000000  0.619074 )

     PseudoPot. # 1 for Tm read from file:
     /home/cwx6513/pp.La/Tm.UPF
     MD5 check sum: 245516e0878b5372ceeb9443ded2c4e1
     Pseudo is Norm-conserving, Zval = 23.0
     Generated in analytical, separable form
     Using radial grid of 1269 points,  6 beta functions with:
                l(1) =   0
                l(2) =   0
                l(3) =   1
                l(4) =   1
                l(5) =   2
                l(6) =   3

     PseudoPot. # 2 for Yb read from file:
     /home/cwx6513/pp.La/Yb.UPF
     MD5 check sum: 3e859b81cc28c53ec6aa3a2e888efcdf
     Pseudo is Norm-conserving, Zval = 24.0
     Generated in analytical, separable form
     Using radial grid of 1269 points,  6 beta functions with:
                l(1) =   0
                l(2) =   0
                l(3) =   1
                l(4) =   1
                l(5) =   2
                l(6) =   3

     atomic species   valence    mass     pseudopotential
        Mg            23.00    24.30500     Tm( 1.00)
        Zn            24.00    65.39000     Yb( 1.00)

     24 Sym. Ops., with inversion, found (12 have fractional translation)

   Cartesian axes

     site n.     atom                  positions (alat units)
         1           Mg  tau(   1) = (  -0.0000005   0.5828553   0.1053960  )
         2           Mg  tau(   2) = (   0.5047678   0.2914272   0.9130545  )
         3           Mg  tau(   3) = (   0.5047678   0.2914272   1.5099209  )
         4           Mg  tau(   4) = (  -0.0000005   0.5828553   0.7022624  )
         5           Zn  tau(   5) = (   0.0000000   0.0000000   0.0000000  )
         6           Zn  tau(   6) = (   0.0000000   0.0000000   0.8076585  )
         7           Zn  tau(   7) = (   0.0000000   0.3006451   1.2114877  )
         8           Zn  tau(   8) = (   0.7491682   0.1503226   0.4038292  )
         9           Zn  tau(   9) = (   0.2603663   0.1503226   0.4038292  )
        10           Zn  tau(  10) = (   0.2444009   0.7239600   1.2114877  )
        11           Zn  tau(  11) = (  -0.2444009   0.7239600   1.2114877  )
        12           Zn  tau(  12) = (   0.5047673   0.5736374   0.4038292  )

     number of k points=    12  gaussian smearing, width (Ry)=  0.1000
                       cart. coord. in units 2pi/alat
        k(    1) = (   0.0000000   0.0000000   0.0000000), wk =   0.0833333
        k(    2) = (   0.0000000   0.0000000   0.1547684), wk =   0.1666667
        k(    3) = (   0.0000000   0.0000000  -0.3095368), wk =   0.0833333
        k(    4) = (   0.0000000   0.3812650   0.0000000), wk =   0.1666667
        k(    5) = (   0.0000000   0.3812650   0.1547684), wk =   0.3333333
        k(    6) = (   0.0000000   0.3812650  -0.3095368), wk =   0.1666667
        k(    7) = (  -0.4952778  -0.2859487   0.0000000), wk =   0.0833333
        k(    8) = (  -0.4952778  -0.2859487   0.1547684), wk =   0.1666667
        k(    9) = (  -0.4952778  -0.2859487  -0.3095368), wk =   0.0833333
        k(   10) = (  -0.4952778   0.0953162   0.0000000), wk =   0.1666667
        k(   11) = (  -0.4952778   0.0953162   0.1547684), wk =   0.3333333
        k(   12) = (  -0.4952778   0.0953162  -0.3095368), wk =   0.1666667

     Largest allocated arrays     est. size (Mb)     dimensions
     Largest temporary arrays     est. size (Mb)     dimensions

     Initial potential from superposition of free atoms

     Starting from uniform charge
     Starting wfc are    0 randomized atomic wfcs

     Writing output data file Prototype-La-hP12-MgZn2.save

     Self-consistent Calculation

[...]

     iteration #  9     ecut=    40.00 Ry     beta=0.70
     CG style diagonalization
     c_bands:  1 eigenvalues not converged
     c_bands:  1 eigenvalues not converged
     ethr =  5.33E-06,  avg # of iterations =  3.6

[...]

     total energy              =   -4740.79678351 Ry
     Harris-Foulkes estimate   =   -4740.79686559 Ry
     estimated scf accuracy    <       0.00015094 Ry

     iteration # 11     ecut=    40.00 Ry     beta=0.70
     CG style diagonalization
     ethr =  5.31E-08,  avg # of iterations =  3.8

     End of self-consistent calculation

[...]

          k = 0.0000 0.3813-0.3095 (  5946 PWs)   bands (ev):

[...]

          k =-0.4953 0.0953-0.3095 (  5966 PWs)   bands (ev):

   -88.8585 -88.8585 -88.8468 -88.8468 -88.8370 -88.8370 -88.7980 -88.7980
   -75.0892 -75.0891 -75.0769 -75.0768 -47.9753 -47.9753 -47.9003 -47.9003
   -47.7973 -47.7973 -47.7715 -47.7715 -47.7014 -47.7014 -47.6914 -47.6914
   -47.6528 -47.6528 -47.6252 -47.6252 -47.6136 -47.6136 -47.5931 -47.5931
   -47.5863 -47.5863 -47.5797 -47.5797 -33.7957 -33.7955 -33.7832 -33.7832
   -33.7766 -33.7766 -33.7657 -33.7654 -33.7548 -33.7548 -33.7485 -33.7485
     8.0473   8.0473   8.3946   8.3947   8.5639   8.5639   8.7096   8.7096
     8.7907   8.7907   9.2279   9.2279   9.4027   9.4027   9.5806   9.5806
     9.7293   9.7293   9.7826   9.7826   9.9734   9.9734  10.0447  10.0447
    10.1870  10.1870  10.3819  10.3819  10.4538  10.4538  10.6131  10.6131
    10.6358  10.6358  10.6936  10.6936  10.8673  10.8673  11.2346  11.2347
    14.7438  14.7438  14.8052  14.8052  14.8530  14.8531  14.9500  14.9502
    15.0060  15.0061  15.1684  15.1685  15.2194  15.2196  15.2634  15.2635
    15.3811  15.3812  15.3983  15.3983  17.5039  17.5039  19.3240  19.3241
    21.6097  21.6097  23.2010  23.2010  25.3765  25.3765  26.2751  26.2751
    27.2016  27.2016  28.6586  28.6586  30.7358  30.7358  31.4758  31.4758
    32.4709  32.4709  33.5099  33.5099  33.9576  33.9576  34.3179  34.3180
    35.3358  35.3358  35.4681  35.4681  36.0287  36.0287  36.5198  36.5198
    36.9495  36.9495  37.5084  37.5084  37.8708  37.8708  38.6046  38.6047
    39.8143  39.8143  40.2335  40.2335  40.5494  40.5494  40.7952  40.7952
    41.7046  41.7047  42.3967  42.3967  42.6915  42.6916  43.0633  43.0637
    43.4152  43.4153

     the Fermi energy is    36.3261 ev

!    total energy              =   -4740.79682401 Ry
     Harris-Foulkes estimate   =   -4740.79683702 Ry
     estimated scf accuracy    <       0.00001532 Ry

     The total energy is the sum of the following terms:

     one-electron contribution =   -1218.45644809 Ry
     hartree contribution      =     793.56704709 Ry
     xc contribution           =    -380.17542902 Ry
     ewald contribution        =   -3935.23906296 Ry
     smearing contrib. (-TS)   =      -0.49293103 Ry

     convergence has been achieved in  11 iterations

     Forces acting on atoms (Ry/au):

     atom    1 type  1   force =     0.00000000    0.00000000   -0.00295169
     atom    2 type  1   force =     0.00000000    0.00000000   -0.00295169
     atom    3 type  1   force =     0.00000000    0.00000000    0.00295169
     atom    4 type  1   force =     0.00000000    0.00000000    0.00295169
     atom    5 type  2   force =     0.00000000    0.00000000    0.00000000
     atom    6 type  2   force =     0.00000000    0.00000000    0.00000000
     atom    7 type  2   force =     0.00000000   -0.00266354    0.00000000
     atom    8 type  2   force =     0.00230669   -0.00133177    0.00000000
     atom    9 type  2   force =    -0.00230669   -0.00133177    0.00000000
     atom   10 type  2   force =     0.00230669    0.00133177    0.00000000
     atom   11 type  2   force =    -0.00230669    0.00133177    0.00000000
     atom   12 type  2   force =     0.00000000    0.00266354    0.00000000

     Total force =     0.008799     Total SCF correction =     0.000000

     entering subroutine stress ...

          total   stress  (Ry/bohr**3)                   (kbar)     P= 1140.22
   0.00780824   0.00000000   0.00000000       1148.63      0.00      0.00
   0.00000000   0.00780824   0.00000000          0.00   1148.63      0.00
   0.00000000   0.00000000   0.00763661          0.00      0.00   1123.38

     Writing output data file Prototype-La-hP12-MgZn2.save

     General routines

     Parallel routines

   This run was terminated on:  22:10:58  22Mar2018

   JOB DONE.