     Program PWSCF v.5.0.2 starts on 22Mar2018 at 18:43:51

     Current dimensions of program PWSCF are:
     Max number of different atomic species (ntypx) = 10
     Max number of k-points (npk) =  40000
     Max angular momentum in pseudopotentials (lmaxx) =  3
     Waiting for input...
     Reading input from standard input

     Subspace diagonalization in iterative solution of the eigenvalue problem:
     a serial algorithm will be used

     bravais-lattice index     =            0
     lattice parameter (alat)  =       8.5346  a.u.
     unit-cell volume          =     621.6493 (a.u.)^3
     number of atoms/cell      =            8
     number of atomic types    =            2
     number of electrons       =       132.00
     number of Kohn-Sham states=           79
     kinetic-energy cutoff     =      40.0000  Ry
     charge density cutoff     =     160.0000  Ry
     convergence threshold     =      1.0E-04
     mixing beta               =       0.7000
     number of iterations used =            8  plain     mixing
     Exchange-correlation      = SLA-PZ-NOGX-NOGC ( 1 1 0 0 0)
     EXX-fraction              =        0.00
     nstep                     =           50

     celldm(1)=   8.534573  celldm(2)=   0.000000  celldm(3)=   0.000000
     celldm(4)=   0.000000  celldm(5)=   0.000000  celldm(6)=   0.000000

     crystal axes: (cart. coord. in units of alat)
               a(1) = (   1.000000   0.000000   0.000000 )
               a(2) = (   0.000000   1.000000   0.000000 )
               a(3) = (   0.000000   0.000000   1.000000 )

     reciprocal axes: (cart. coord. in units 2 pi/alat)
               b(1) = (  1.000000  0.000000  0.000000 )
               b(2) = (  0.000000  1.000000  0.000000 )
               b(3) = (  0.000000  0.000000  1.000000 )

     PseudoPot. # 1 for Sm read from file:
     /home/cwx6513/pp.La/Sm.UPF
     MD5 check sum: 5079e8b144a06bfcdbc14fb02b96ab09
     Pseudo is Norm-conserving, Zval = 16.0
     Generated in analytical, separable form
     Using radial grid of 1259 points,  6 beta functions with:
                l(1) =   0
                l(2) =   0
                l(3) =   1
                l(4) =   1
                l(5) =   2
                l(6) =   3

     PseudoPot. # 2 for Gd read from file:
     /home/cwx6513/pp.La/Gd.UPF
     MD5 check sum: 09a8be538722f05520810cb6aac0efd2
     Pseudo is Norm-conserving, Zval = 18.0
     Generated in analytical, separable form
     Using radial grid of 1263 points,  6 beta functions with:
                l(1) =   0
                l(2) =   0
                l(3) =   1
                l(4) =   1
                l(5) =   2
                l(6) =   3

     atomic species   valence    mass     pseudopotential
        Cr            16.00    51.99610     Sm( 1.00)
        Si            18.00    28.08550     Gd( 1.00)

     48 Sym. Ops., with inversion, found (24 have fractional translation)

   Cartesian axes

     site n.     atom                  positions (alat units)
         1           Cr  tau(   1) = (   0.0000000   0.5000000   0.2500000  )
         2           Cr  tau(   2) = (   0.0000000   0.5000000   0.7500000  )
         3           Cr  tau(   3) = (   0.5000000   0.7500000   0.0000000  )
         4           Cr  tau(   4) = (   0.5000000   0.2500000   0.0000000  )
         5           Cr  tau(   5) = (   0.7500000   0.0000000   0.5000000  )
         6           Cr  tau(   6) = (   0.2500000   0.0000000   0.5000000  )
         7           Si  tau(   7) = (   0.5000000   0.5000000   0.5000000  )
         8           Si  tau(   8) = (   0.0000000   0.0000000   0.0000000  )

     number of k points=    48  gaussian smearing, width (Ry)=  0.1000
                       cart. coord. in units 2pi/alat
        k(    1) = (   0.0000000   0.0000000   0.0000000), wk =   0.0095238
        k(    2) = (   0.0000000   0.0000000   0.1428571), wk =   0.0190476
        k(    3) = (   0.0000000   0.0000000   0.2857143), wk =   0.0190476
        k(    4) = (   0.0000000   0.0000000   0.4285714), wk =   0.0190476
        k(    5) = (   0.0000000   0.1666667   0.0000000), wk =   0.0190476
        k(    6) = (   0.0000000   0.1666667   0.1428571), wk =   0.0380952
        k(    7) = (   0.0000000   0.1666667   0.2857143), wk =   0.0380952
        k(    8) = (   0.0000000   0.1666667   0.4285714), wk =   0.0380952
        k(    9) = (   0.0000000   0.3333333   0.0000000), wk =   0.0190476
        k(   10) = (   0.0000000   0.3333333   0.1428571), wk =   0.0380952
        k(   11) = (   0.0000000   0.3333333   0.2857143), wk =   0.0380952
        k(   12) = (   0.0000000   0.3333333   0.4285714), wk =   0.0380952
        k(   13) = (   0.0000000  -0.5000000   0.0000000), wk =   0.0095238
        k(   14) = (   0.0000000  -0.5000000   0.1428571), wk =   0.0190476
        k(   15) = (   0.0000000  -0.5000000   0.2857143), wk =   0.0190476
        k(   16) = (   0.0000000  -0.5000000   0.4285714), wk =   0.0190476
        k(   17) = (   0.2000000   0.0000000   0.0000000), wk =   0.0190476
        k(   18) = (   0.2000000   0.0000000   0.1428571), wk =   0.0380952
        k(   19) = (   0.2000000   0.0000000   0.2857143), wk =   0.0380952
        k(   20) = (   0.2000000   0.0000000   0.4285714), wk =   0.0380952
        k(   21) = (   0.2000000   0.1666667   0.0000000), wk =   0.0380952
        k(   22) = (   0.2000000   0.1666667   0.1428571), wk =   0.0761905
        k(   23) = (   0.2000000   0.1666667   0.2857143), wk =   0.0761905
        k(   24) = (   0.2000000   0.1666667   0.4285714), wk =   0.0761905
        k(   25) = (   0.2000000   0.3333333   0.0000000), wk =   0.0380952
        k(   26) = (   0.2000000   0.3333333   0.1428571), wk =   0.0761905
        k(   27) = (   0.2000000   0.3333333   0.2857143), wk =   0.0761905
        k(   28) = (   0.2000000   0.3333333   0.4285714), wk =   0.0761905
        k(   29) = (   0.2000000  -0.5000000   0.0000000), wk =   0.0190476
        k(   30) = (   0.2000000  -0.5000000   0.1428571), wk =   0.0380952
        k(   31) = (   0.2000000  -0.5000000   0.2857143), wk =   0.0380952
        k(   32) = (   0.2000000  -0.5000000   0.4285714), wk =   0.0380952
        k(   33) = (   0.4000000   0.0000000   0.0000000), wk =   0.0190476
        k(   34) = (   0.4000000   0.0000000   0.1428571), wk =   0.0380952
        k(   35) = (   0.4000000   0.0000000   0.2857143), wk =   0.0380952
        k(   36) = (   0.4000000   0.0000000   0.4285714), wk =   0.0380952
        k(   37) = (   0.4000000   0.1666667   0.0000000), wk =   0.0380952
        k(   38) = (   0.4000000   0.1666667   0.1428571), wk =   0.0761905
        k(   39) = (   0.4000000   0.1666667   0.2857143), wk =   0.0761905
        k(   40) = (   0.4000000   0.1666667   0.4285714), wk =   0.0761905
        k(   41) = (   0.4000000   0.3333333   0.0000000), wk =   0.0380952
        k(   42) = (   0.4000000   0.3333333   0.1428571), wk =   0.0761905
        k(   43) = (   0.4000000   0.3333333   0.2857143), wk =   0.0761905
        k(   44) = (   0.4000000   0.3333333   0.4285714), wk =   0.0761905
        k(   45) = (   0.4000000  -0.5000000   0.0000000), wk =   0.0190476
        k(   46) = (   0.4000000  -0.5000000   0.1428571), wk =   0.0380952
        k(   47) = (   0.4000000  -0.5000000   0.2857143), wk =   0.0380952
        k(   48) = (   0.4000000  -0.5000000   0.4285714), wk =   0.0380952

     Largest allocated arrays     est. size (Mb)     dimensions
     Largest temporary arrays     est. size (Mb)     dimensions

     Initial potential from superposition of free atoms

     Starting from uniform charge
     Starting wfc are    0 randomized atomic wfcs

     Self-consistent Calculation

     iteration #  1     ecut=    40.00 Ry     beta=0.70
     CG style diagonalization
     c_bands:  1 eigenvalues not converged
     ethr =  1.00E-02,  avg # of iterations = 10.9

     total energy              =   -1239.97922672 Ry
     Harris-Foulkes estimate   =   -1407.62521910 Ry
     estimated scf accuracy    <     223.30261702 Ry

     iteration #  2     ecut=    40.00 Ry     beta=0.70
     CG style diagonalization
     ethr =  1.00E-02,  avg # of iterations =  7.5

[...]

     End of self-consistent calculation

          k = 0.0000 0.0000 0.0000 (  2601 PWs)   bands (ev):

   -26.7933 -26.7647 -16.0990 -15.4511 -15.4511 -13.8624 -13.8624 -13.8624
     1.3173   1.3173   1.3173   1.5115   1.5115   1.5115   4.7782   4.7782
     5.6546   8.5265   8.5265   8.5265   9.8530   9.8530   9.8530  10.6308
    10.6308  10.6308  10.7583  10.7583  10.7583  13.5019  13.5019  13.5019
    32.4458  32.4458  32.6334  32.6334  32.6334  32.8714  34.5931  34.5989
    34.5989  34.5989  35.3014  35.9221  35.9221  35.9511  36.2791  36.2791
    36.2791  36.3353  36.3353  36.4002  36.4002  36.4002  41.2575  41.2575
    41.2575  41.6913  41.6913  42.1616  42.1616  42.1616  42.3878  42.3878
    42.3878  45.4459  45.4459  46.3599  46.3599  46.3599  48.3882  48.3882
    48.3882  49.6596  50.5364  50.5364  50.5364  51.1885  51.1884

[...]

     the Fermi energy is    44.8043 ev

!    total energy              =   -1306.96316635 Ry
     Harris-Foulkes estimate   =   -1306.96321494 Ry
     estimated scf accuracy    <       0.00007476 Ry

     The total energy is the sum of the following terms:

     one-electron contribution =     239.41491259 Ry
     hartree contribution      =      74.07676730 Ry
     xc contribution           =    -147.29300569 Ry
     ewald contribution        =   -1472.86587286 Ry
     smearing contrib. (-TS)   =      -0.29596770 Ry

     convergence has been achieved in   7 iterations

     Forces acting on atoms (Ry/au):

     atom    1 type  1   force =     0.00000000    0.00000000    0.00000000
     atom    2 type  1   force =     0.00000000    0.00000000    0.00000000
     atom    3 type  1   force =     0.00000000    0.00000000    0.00000000
     atom    4 type  1   force =     0.00000000    0.00000000    0.00000000
     atom    5 type  1   force =     0.00000000    0.00000000    0.00000000
     atom    6 type  1   force =     0.00000000    0.00000000    0.00000000
     atom    7 type  2   force =     0.00000000    0.00000000    0.00000000
     atom    8 type  2   force =     0.00000000    0.00000000    0.00000000

     Total force =     0.000000     Total SCF correction =     0.000000

     entering subroutine stress ...

          total   stress  (Ry/bohr**3)                   (kbar)     P= 4863.97
   0.03306462   0.00000000   0.00000000       4863.97      0.00      0.00
   0.00000000   0.03306462   0.00000000          0.00   4863.97      0.00
   0.00000000   0.00000000   0.03306462          0.00      0.00   4863.97

     BFGS Geometry Optimization

     number of scf cycles    =   1
     number of bfgs steps    =   0

     enthalpy new            =   -1306.9631663473 Ry

     new trust radius        =       0.5000000000 bohr
     new conv_thr            =       0.0001000000 Ry

     new unit-cell volume =    828.02266 a.u.^3 (   122.70030 Ang^3 )

CELL_PARAMETERS (alat=  8.53457320)
   1.100269143   0.000000000   0.000000000
   0.000000000   1.100269143   0.000000000
   0.000000000   0.000000000   1.100269143

[...]
     enthalpy new            =   -1309.3631284308 Ry

     CASE: enthalpy_new > enthalpy_old

     new trust radius        =       0.2567772212 bohr

     trust_radius < trust_radius_min

     resetting bfgs history

     Message from routine bfgs:
     history already reset at previous step: stopping
     new conv_thr            =       0.0000010000 Ry

     new unit-cell volume =   1047.75297 a.u.^3 (   155.26097 Ang^3 )

[...]

ATOMIC_POSITIONS (crystal)
Cr       0.000000000   0.500000000   0.250000000
Cr       0.000000000   0.500000000   0.750000000
Cr       0.500000000   0.750000000   0.000000000
Cr       0.500000000   0.250000000   0.000000000
Cr       0.750000000   0.000000000   0.500000000
Cr       0.250000000   0.000000000   0.500000000
Si       0.500000000   0.500000000   0.500000000
Si       0.000000000   0.000000000   0.000000000

     Writing output data file Prototype-La-cP8-Cr3Si.save
     NEW-OLD atomic charge density approx. for the potential
     NEW k-points:
        k(    1) = (   0.0000000   0.0000000   0.0000000), wk =   0.0095238
        k(    2) = (   0.0000000   0.0000000   0.1200413), wk =   0.0190476
        k(    3) = (   0.0000000   0.0000000   0.2400827), wk =   0.0190476
        k(    4) = (   0.0000000   0.0000000   0.3601240), wk =   0.0190476
        k(    5) = (   0.0000000   0.1400482   0.0000000), wk =   0.0190476
        k(    6) = (   0.0000000   0.1400482   0.1200413), wk =   0.0380952
        k(    7) = (   0.0000000   0.1400482   0.2400827), wk =   0.0380952
        k(    8) = (   0.0000000   0.1400482   0.3601240), wk =   0.0380952
        k(    9) = (   0.0000000   0.2800964   0.0000000), wk =   0.0190476
        k(   10) = (   0.0000000   0.2800964   0.1200413), wk =   0.0380952
        k(   11) = (   0.0000000   0.2800964   0.2400827), wk =   0.0380952
        k(   12) = (   0.0000000   0.2800964   0.3601240), wk =   0.0380952
        k(   13) = (   0.0000000  -0.4201447   0.0000000), wk =   0.0095238
        k(   14) = (   0.0000000  -0.4201447   0.1200413), wk =   0.0190476
        k(   15) = (   0.0000000  -0.4201447   0.2400827), wk =   0.0190476
        k(   16) = (   0.0000000  -0.4201447   0.3601240), wk =   0.0190476
        k(   17) = (   0.1680579   0.0000000   0.0000000), wk =   0.0190476
        k(   18) = (   0.1680579   0.0000000   0.1200413), wk =   0.0380952
        k(   19) = (   0.1680579   0.0000000   0.2400827), wk =   0.0380952
        k(   20) = (   0.1680579   0.0000000   0.3601240), wk =   0.0380952
        k(   21) = (   0.1680579   0.1400482   0.0000000), wk =   0.0380952
        k(   22) = (   0.1680579   0.1400482   0.1200413), wk =   0.0761905
        k(   23) = (   0.1680579   0.1400482   0.2400827), wk =   0.0761905
        k(   24) = (   0.1680579   0.1400482   0.3601240), wk =   0.0761905
        k(   25) = (   0.1680579   0.2800964   0.0000000), wk =   0.0380952
        k(   26) = (   0.1680579   0.2800964   0.1200413), wk =   0.0761905
        k(   27) = (   0.1680579   0.2800964   0.2400827), wk =   0.0761905
        k(   28) = (   0.1680579   0.2800964   0.3601240), wk =   0.0761905
        k(   29) = (   0.1680579  -0.4201447   0.0000000), wk =   0.0190476
        k(   30) = (   0.1680579  -0.4201447   0.1200413), wk =   0.0380952
        k(   31) = (   0.1680579  -0.4201447   0.2400827), wk =   0.0380952
        k(   32) = (   0.1680579  -0.4201447   0.3601240), wk =   0.0380952
        k(   33) = (   0.3361157   0.0000000   0.0000000), wk =   0.0190476
        k(   34) = (   0.3361157   0.0000000   0.1200413), wk =   0.0380952
        k(   35) = (   0.3361157   0.0000000   0.2400827), wk =   0.0380952
        k(   36) = (   0.3361157   0.0000000   0.3601240), wk =   0.0380952
        k(   37) = (   0.3361157   0.1400482   0.0000000), wk =   0.0380952
        k(   38) = (   0.3361157   0.1400482   0.1200413), wk =   0.0761905
        k(   39) = (   0.3361157   0.1400482   0.2400827), wk =   0.0761905
        k(   40) = (   0.3361157   0.1400482   0.3601240), wk =   0.0761905
        k(   41) = (   0.3361157   0.2800964   0.0000000), wk =   0.0380952
        k(   42) = (   0.3361157   0.2800964   0.1200413), wk =   0.0761905
        k(   43) = (   0.3361157   0.2800964   0.2400827), wk =   0.0761905
        k(   44) = (   0.3361157   0.2800964   0.3601240), wk =   0.0761905
        k(   45) = (   0.3361157  -0.4201447   0.0000000), wk =   0.0190476
        k(   46) = (   0.3361157  -0.4201447   0.1200413), wk =   0.0380952
        k(   47) = (   0.3361157  -0.4201447   0.2400827), wk =   0.0380952
        k(   48) = (   0.3361157  -0.4201447   0.3601240), wk =   0.0380952

[...]

     The maximum number of steps has been reached.

     End of BFGS Geometry Optimization
Begin final coordinates
     new unit-cell volume =   1047.75297 a.u.^3 (   155.26097 Ang^3 )

CELL_PARAMETERS (alat=  8.53457320)
   1.190066307   0.000000000   0.000000000
   0.000000000   1.190066307   0.000000000
   0.000000000   0.000000000   1.190066307

ATOMIC_POSITIONS (crystal)
Cr       0.000000000   0.500000000   0.250000000
Cr       0.000000000   0.500000000   0.750000000
Cr       0.500000000   0.750000000   0.000000000
Cr       0.500000000   0.250000000   0.000000000
Cr       0.750000000   0.000000000   0.500000000
Cr       0.250000000   0.000000000   0.500000000
Si       0.500000000   0.500000000   0.500000000
Si       0.000000000   0.000000000   0.000000000
End final coordinates

     A final scf calculation at the relaxed structure.
     The G-vectors are recalculated for the final unit cell
     Results may differ from those at the preceding step.

     bravais-lattice index     =            0
     lattice parameter (alat)  =       8.5346  a.u.
     unit-cell volume          =    1047.7530 (a.u.)^3
     number of atoms/cell      =            8
     number of atomic types    =            2
     number of electrons       =       132.00
     number of Kohn-Sham states=           79
     kinetic-energy cutoff     =      40.0000  Ry
     charge density cutoff     =     160.0000  Ry
     convergence threshold     =      1.0E-06
     mixing beta               =       0.7000
     number of iterations used =            8  plain     mixing
     Exchange-correlation      = SLA-PZ-NOGX-NOGC ( 1 1 0 0 0)
     EXX-fraction              =        0.00

     celldm(1)=   8.534573  celldm(2)=   0.000000  celldm(3)=   0.000000
     celldm(4)=   0.000000  celldm(5)=   0.000000  celldm(6)=   0.000000

     crystal axes: (cart. coord. in units of alat)
               a(1) = (   1.190066   0.000000   0.000000 )
               a(2) = (   0.000000   1.190066   0.000000 )
               a(3) = (   0.000000   0.000000   1.190066 )

     reciprocal axes: (cart. coord. in units 2 pi/alat)
               b(1) = (  0.840289  0.000000  0.000000 )
               b(2) = (  0.000000  0.840289  0.000000 )
               b(3) = (  0.000000  0.000000  0.840289 )

     PseudoPot. # 1 for Sm read from file:
     /home/cwx6513/pp.La/Sm.UPF
     MD5 check sum: 5079e8b144a06bfcdbc14fb02b96ab09
     Pseudo is Norm-conserving, Zval = 16.0
     Generated in analytical, separable form
     Using radial grid of 1259 points,  6 beta functions with:
                l(1) =   0
                l(2) =   0
                l(3) =   1
                l(4) =   1
                l(5) =   2
                l(6) =   3

     PseudoPot. # 2 for Gd read from file:
     /home/cwx6513/pp.La/Gd.UPF
     MD5 check sum: 09a8be538722f05520810cb6aac0efd2
     Pseudo is Norm-conserving, Zval = 18.0
     Generated in analytical, separable form
     Using radial grid of 1263 points,  6 beta functions with:
                l(1) =   0
                l(2) =   0
                l(3) =   1
                l(4) =   1
                l(5) =   2
                l(6) =   3

     atomic species   valence    mass     pseudopotential
        Cr            16.00    51.99610     Sm( 1.00)
        Si            18.00    28.08550     Gd( 1.00)

     48 Sym. Ops., with inversion, found (24 have fractional translation)

   Cartesian axes

     site n.     atom                  positions (alat units)
         1           Cr  tau(   1) = (   0.0000000   0.5950332   0.2975166  )
         2           Cr  tau(   2) = (   0.0000000   0.5950332   0.8925497  )
         3           Cr  tau(   3) = (   0.5950332   0.8925497   0.0000000  )
         4           Cr  tau(   4) = (   0.5950332   0.2975166   0.0000000  )
         5           Cr  tau(   5) = (   0.8925497   0.0000000   0.5950332  )
         6           Cr  tau(   6) = (   0.2975166   0.0000000   0.5950332  )
         7           Si  tau(   7) = (   0.5950332   0.5950332   0.5950332  )
         8           Si  tau(   8) = (   0.0000000   0.0000000   0.0000000  )

     number of k points=    48  gaussian smearing, width (Ry)=  0.1000
                       cart. coord. in units 2pi/alat
        k(    1) = (   0.0000000   0.0000000   0.0000000), wk =   0.0095238
        k(    2) = (   0.0000000   0.0000000   0.1200413), wk =   0.0190476
        k(    3) = (   0.0000000   0.0000000   0.2400827), wk =   0.0190476
        k(    4) = (   0.0000000   0.0000000   0.3601240), wk =   0.0190476
        k(    5) = (   0.0000000   0.1400482   0.0000000), wk =   0.0190476
        k(    6) = (   0.0000000   0.1400482   0.1200413), wk =   0.0380952
        k(    7) = (   0.0000000   0.1400482   0.2400827), wk =   0.0380952
        k(    8) = (   0.0000000   0.1400482   0.3601240), wk =   0.0380952
        k(    9) = (   0.0000000   0.2800964   0.0000000), wk =   0.0190476
        k(   10) = (   0.0000000   0.2800964   0.1200413), wk =   0.0380952
        k(   11) = (   0.0000000   0.2800964   0.2400827), wk =   0.0380952
        k(   12) = (   0.0000000   0.2800964   0.3601240), wk =   0.0380952
        k(   13) = (   0.0000000  -0.4201447   0.0000000), wk =   0.0095238
        k(   14) = (   0.0000000  -0.4201447   0.1200413), wk =   0.0190476
        k(   15) = (   0.0000000  -0.4201447   0.2400827), wk =   0.0190476
        k(   16) = (   0.0000000  -0.4201447   0.3601240), wk =   0.0190476
        k(   17) = (   0.1680579   0.0000000   0.0000000), wk =   0.0190476
        k(   18) = (   0.1680579   0.0000000   0.1200413), wk =   0.0380952
        k(   19) = (   0.1680579   0.0000000   0.2400827), wk =   0.0380952
        k(   20) = (   0.1680579   0.0000000   0.3601240), wk =   0.0380952
        k(   21) = (   0.1680579   0.1400482   0.0000000), wk =   0.0380952
        k(   22) = (   0.1680579   0.1400482   0.1200413), wk =   0.0761905
        k(   23) = (   0.1680579   0.1400482   0.2400827), wk =   0.0761905
        k(   24) = (   0.1680579   0.1400482   0.3601240), wk =   0.0761905
        k(   25) = (   0.1680579   0.2800964   0.0000000), wk =   0.0380952
        k(   26) = (   0.1680579   0.2800964   0.1200413), wk =   0.0761905
        k(   27) = (   0.1680579   0.2800964   0.2400827), wk =   0.0761905
        k(   28) = (   0.1680579   0.2800964   0.3601240), wk =   0.0761905
        k(   29) = (   0.1680579  -0.4201447   0.0000000), wk =   0.0190476
        k(   30) = (   0.1680579  -0.4201447   0.1200413), wk =   0.0380952
        k(   31) = (   0.1680579  -0.4201447   0.2400827), wk =   0.0380952
        k(   32) = (   0.1680579  -0.4201447   0.3601240), wk =   0.0380952
        k(   33) = (   0.3361157   0.0000000   0.0000000), wk =   0.0190476
        k(   34) = (   0.3361157   0.0000000   0.1200413), wk =   0.0380952
        k(   35) = (   0.3361157   0.0000000   0.2400827), wk =   0.0380952
        k(   36) = (   0.3361157   0.0000000   0.3601240), wk =   0.0380952
        k(   37) = (   0.3361157   0.1400482   0.0000000), wk =   0.0380952
        k(   38) = (   0.3361157   0.1400482   0.1200413), wk =   0.0761905
        k(   39) = (   0.3361157   0.1400482   0.2400827), wk =   0.0761905
        k(   40) = (   0.3361157   0.1400482   0.3601240), wk =   0.0761905
        k(   41) = (   0.3361157   0.2800964   0.0000000), wk =   0.0380952
        k(   42) = (   0.3361157   0.2800964   0.1200413), wk =   0.0761905
        k(   43) = (   0.3361157   0.2800964   0.2400827), wk =   0.0761905
        k(   44) = (   0.3361157   0.2800964   0.3601240), wk =   0.0761905
        k(   45) = (   0.3361157  -0.4201447   0.0000000), wk =   0.0190476
        k(   46) = (   0.3361157  -0.4201447   0.1200413), wk =   0.0380952
        k(   47) = (   0.3361157  -0.4201447   0.2400827), wk =   0.0380952
        k(   48) = (   0.3361157  -0.4201447   0.3601240), wk =   0.0380952

     Largest allocated arrays     est. size (Mb)     dimensions
     Largest temporary arrays     est. size (Mb)     dimensions

     Initial potential from superposition of free atoms

     Starting from uniform charge
     Starting wfc are    0 randomized atomic wfcs

     Writing output data file Prototype-La-cP8-Cr3Si.save

     Self-consistent Calculation

[...]

     iteration # 11     ecut=    40.00 Ry     beta=0.70
     CG style diagonalization
     c_bands:  1 eigenvalues not converged
     c_bands:  1 eigenvalues not converged
     c_bands:  1 eigenvalues not converged
     c_bands:  1 eigenvalues not converged
     c_bands:  1 eigenvalues not converged
     c_bands:  1 eigenvalues not converged
     c_bands:  1 eigenvalues not converged
     c_bands:  1 eigenvalues not converged
     c_bands:  1 eigenvalues not converged
     c_bands:  1 eigenvalues not converged
     c_bands:  1 eigenvalues not converged
     c_bands:  1 eigenvalues not converged
     c_bands:  1 eigenvalues not converged
     c_bands:  1 eigenvalues not converged
     c_bands:  1 eigenvalues not converged
     c_bands:  1 eigenvalues not converged
     c_bands:  1 eigenvalues not converged
     c_bands:  1 eigenvalues not converged
     ethr =  1.70E-06,  avg # of iterations =  4.4

[...]

     total energy              =   -1312.26007523 Ry
     Harris-Foulkes estimate   =   -1312.26007726 Ry
     estimated scf accuracy    <       0.00000603 Ry

     iteration # 17     ecut=    40.00 Ry     beta=0.70
     CG style diagonalization
     ethr =  4.57E-09,  avg # of iterations =  3.1

     End of self-consistent calculation

[...]

          k = 0.3361-0.4201 0.3601 (  4492 PWs)   bands (ev):

   -44.2510 -44.2510 -33.3575 -33.3444 -33.3070 -33.3068 -33.2703 -33.2567
   -15.2422 -15.2418 -15.2401 -15.2400 -15.2369 -15.2367  -9.0954  -9.0029
    -8.7648  -8.7617  -8.6222  -8.6205  -8.5391  -8.4764  -8.3708  -8.3468
    -8.3128  -8.2945  -8.2506  -8.2480  -8.2198  -8.2175  -8.2033  -8.2023
    18.0597  18.0785  18.1995  18.2382  18.3447  18.3573  18.5735  18.5836
    18.6416  18.6509  19.3800  19.3812  20.0646  20.0724  20.4828  20.4990
    20.5560  20.5561  20.9330  21.1650  21.5933  21.6465  22.1911  22.1995
    22.2691  22.2873  22.8563  22.9005  23.4526  23.6813  23.7506  23.7658
    23.9321  24.0304  24.2849  24.2917  24.4741  24.6206  24.8165  24.8588
    25.3317  25.3915  26.2038  26.4262  26.6527  26.9928  27.6584

     the Fermi energy is    24.3546 ev

!    total energy              =   -1312.26007604 Ry
     Harris-Foulkes estimate   =   -1312.26007609 Ry
     estimated scf accuracy    <       0.00000006 Ry

     The total energy is the sum of the following terms:

     one-electron contribution =     -77.75585193 Ry
     hartree contribution      =     142.16182171 Ry
     xc contribution           =    -138.45008379 Ry
     ewald contribution        =   -1237.63345306 Ry
     smearing contrib. (-TS)   =      -0.58250898 Ry

     convergence has been achieved in  17 iterations

     Forces acting on atoms (Ry/au):

     atom    1 type  1   force =     0.00000000    0.00000000    0.00000000
     atom    2 type  1   force =     0.00000000    0.00000000    0.00000000
     atom    3 type  1   force =     0.00000000    0.00000000    0.00000000
     atom    4 type  1   force =     0.00000000    0.00000000    0.00000000
     atom    5 type  1   force =     0.00000000    0.00000000    0.00000000
     atom    6 type  1   force =     0.00000000    0.00000000    0.00000000
     atom    7 type  2   force =     0.00000000    0.00000000    0.00000000
     atom    8 type  2   force =     0.00000000    0.00000000    0.00000000

     Total force =     0.000000     Total SCF correction =     0.000000

     entering subroutine stress ...

          total   stress  (Ry/bohr**3)                   (kbar)     P=    3.04
   0.00002069   0.00000000   0.00000000          3.04      0.00      0.00
   0.00000000   0.00002069   0.00000000          0.00      3.04      0.00
   0.00000000   0.00000000   0.00002069          0.00      0.00      3.04

     Writing output data file Prototype-La-cP8-Cr3Si.save

     General routines

     Parallel routines

   This run was terminated on:  19: 5:31  22Mar2018

   JOB DONE.