     Program PWSCF v.5.0.2 starts on 22Mar2018 at 18:43:52

     Current dimensions of program PWSCF are:
     Max number of different atomic species (ntypx) = 10
     Max number of k-points (npk) =  40000
     Max angular momentum in pseudopotentials (lmaxx) =  3
     Waiting for input...
     Reading input from standard input

     Subspace diagonalization in iterative solution of the eigenvalue problem:
     a serial algorithm will be used

     bravais-lattice index     =            0
     lattice parameter (alat)  =       7.0151  a.u.
     unit-cell volume          =     862.2778 (a.u.)^3
     number of atoms/cell      =           12
     number of atomic types    =            2
     number of electrons       =       200.00
     number of Kohn-Sham states=          120
     kinetic-energy cutoff     =      40.0000  Ry
     charge density cutoff     =     160.0000  Ry
     convergence threshold     =      1.0E-04
     mixing beta               =       0.7000
     number of iterations used =            8  plain     mixing
     Exchange-correlation      = SLA-PZ-NOGX-NOGC ( 1 1 0 0 0)
     EXX-fraction              =        0.00
     nstep                     =           50

     celldm(1)=   7.015105  celldm(2)=   0.000000  celldm(3)=   0.000000
     celldm(4)=   0.000000  celldm(5)=   0.000000  celldm(6)=   0.000000

     crystal axes: (cart. coord. in units of alat)
               a(1) = (   1.000000   0.000000   0.000000 )
               a(2) = (   0.000000   1.315963   0.000000 )
               a(3) = (   0.000000   0.000000   1.898020 )

     reciprocal axes: (cart. coord. in units 2 pi/alat)
               b(1) = (  1.000000  0.000000  0.000000 )
               b(2) = (  0.000000  0.759900  0.000000 )
               b(3) = (  0.000000  0.000000  0.526865 )

     PseudoPot. # 1 for Sm read from file:
     /home/cwx6513/pp.La/Sm.UPF
     MD5 check sum: 5079e8b144a06bfcdbc14fb02b96ab09
     Pseudo is Norm-conserving, Zval = 16.0
     Generated in analytical, separable form
     Using radial grid of 1259 points,  6 beta functions with:
                l(1) =   0
                l(2) =   0
                l(3) =   1
                l(4) =   1
                l(5) =   2
                l(6) =   3

     PseudoPot. # 2 for Gd read from file:
     /home/cwx6513/pp.La/Gd.UPF
     MD5 check sum: 09a8be538722f05520810cb6aac0efd2
     Pseudo is Norm-conserving, Zval = 18.0
     Generated in analytical, separable form
     Using radial grid of 1263 points,  6 beta functions with:
                l(1) =   0
                l(2) =   0
                l(3) =   1
                l(4) =   1
                l(5) =   2
                l(6) =   3

     atomic species   valence    mass     pseudopotential
        Co            16.00    58.93320     Sm( 1.00)
        Si            18.00    28.08550     Gd( 1.00)

      8 Sym. Ops., with inversion, found ( 6 have fractional translation)

   Cartesian axes

     site n.     atom                  positions (alat units)
         1           Co  tau(   1) = (   0.7500000   1.0875135   0.8270358  )
         2           Co  tau(   2) = (   0.2500000   0.2284499   1.0709846  )
         3           Co  tau(   3) = (   0.7500000   0.4295318   0.1219744  )
         4           Co  tau(   4) = (   0.2500000   0.8864316   1.7760460  )
         5           Co  tau(   5) = (   0.2500000   0.7067855   0.5358966  )
         6           Co  tau(   6) = (   0.7500000   0.6091779   1.3621238  )
         7           Co  tau(   7) = (   0.2500000   0.0488038   0.4131136  )
         8           Co  tau(   8) = (   0.7500000   1.2671596   1.4849068  )
         9           Si  tau(   9) = (   0.2500000   0.2669484   1.6960710  )
        10           Si  tau(  10) = (   0.7500000   1.0490149   0.2019494  )
        11           Si  tau(  11) = (   0.2500000   0.9249301   1.1509596  )
        12           Si  tau(  12) = (   0.7500000   0.3910333   0.7470608  )

     number of k points=    12  gaussian smearing, width (Ry)=  0.1000
                       cart. coord. in units 2pi/alat
        k(    1) = (   0.0000000   0.0000000   0.0000000), wk =   0.0833333
        k(    2) = (   0.0000000   0.0000000   0.1317162), wk =   0.1666667
        k(    3) = (   0.0000000   0.0000000  -0.2634324), wk =   0.0833333
        k(    4) = (   0.0000000   0.2532999   0.0000000), wk =   0.1666667
        k(    5) = (   0.0000000   0.2532999   0.1317162), wk =   0.3333333
        k(    6) = (   0.0000000   0.2532999  -0.2634324), wk =   0.1666667
        k(    7) = (  -0.5000000   0.0000000   0.0000000), wk =   0.0833333
        k(    8) = (  -0.5000000   0.0000000   0.1317162), wk =   0.1666667
        k(    9) = (  -0.5000000   0.0000000  -0.2634324), wk =   0.0833333
        k(   10) = (  -0.5000000   0.2532999   0.0000000), wk =   0.1666667
        k(   11) = (  -0.5000000   0.2532999   0.1317162), wk =   0.3333333
        k(   12) = (  -0.5000000   0.2532999  -0.2634324), wk =   0.1666667

     Largest allocated arrays     est. size (Mb)     dimensions
     Largest temporary arrays     est. size (Mb)     dimensions

     Initial potential from superposition of free atoms

     Starting from uniform charge
     Starting wfc are    0 randomized atomic wfcs

     Self-consistent Calculation

     iteration #  1     ecut=    40.00 Ry     beta=0.70
     CG style diagonalization
     c_bands:  1 eigenvalues not converged
     c_bands:  1 eigenvalues not converged
     c_bands:  1 eigenvalues not converged
     ethr =  1.00E-02,  avg # of iterations = 12.1

     total energy              =   -1873.77291579 Ry
     Harris-Foulkes estimate   =   -2152.34547516 Ry
     estimated scf accuracy    <     366.36503860 Ry

[...]

     iteration #  3     ecut=    40.00 Ry     beta=0.70
     CG style diagonalization
     ethr =  1.00E-02,  avg # of iterations =  7.4

[...]

     End of self-consistent calculation

          k = 0.0000 0.0000 0.0000 (  3675 PWs)   bands (ev):

   -23.7416 -23.6434 -23.6143 -23.5831 -11.9050 -11.6810 -11.2904 -10.9054
   -10.7818 -10.7726 -10.6792 -10.5813   3.4133   3.9037   3.9937   4.0018
     4.1196   4.1767   4.3303   4.3648   4.4991   4.6675   4.7837   5.0431
    10.4030  10.7812  11.0056  11.5521  12.2458  12.3620  12.4963  12.6269
    12.7708  12.8423  13.3262  13.3856  13.5111  13.5180  13.9332  13.9874
    14.1862  14.2821  14.3769  14.4856  15.4332  15.4656  15.5254  15.7805
    33.1055  33.2621  33.5674  34.3791  34.4058  34.4726  34.4832  34.8897
    35.1399  35.7577  36.2524  36.7073  36.8899  37.0353  37.3295  38.2342
    38.7217  39.0226  39.3948  39.7398  39.7453  40.3156  40.5234  40.8144
    40.8707  41.2223  41.4388  41.4709  42.2840  42.3241  42.4294  42.5921
    42.6597  43.4326  43.5155  43.8530  43.8823  44.7654  44.8558  44.9314
    45.2847  45.3995  45.5324  46.8128  47.1090  47.4478  47.8761  48.0457
    48.4275  49.1538  49.3809  49.6473  49.7559  50.2270  50.3686  50.3911
    50.9071  50.9937  51.3674  51.7021  51.9987  52.5798  52.8898  53.7897
    54.6187  55.3823  55.5304  55.9323  56.5172  56.9867  57.0037  57.1042

[...]

          k =-0.5000 0.0000 0.0000 (  3722 PWs)   bands (ev):

[...]

     the Fermi energy is    48.8292 ev

!    total energy              =   -2007.05183169 Ry
     Harris-Foulkes estimate   =   -2007.05188707 Ry
     estimated scf accuracy    <       0.00006483 Ry

     The total energy is the sum of the following terms:

     one-electron contribution =     426.61907763 Ry
     hartree contribution      =     106.51379380 Ry
     xc contribution           =    -227.35343190 Ry
     ewald contribution        =   -2312.41906471 Ry
     smearing contrib. (-TS)   =      -0.41220652 Ry

     convergence has been achieved in   9 iterations

     Forces acting on atoms (Ry/au):

     atom    1 type  1   force =     0.00000000   -0.07690809   -0.06735803
     atom    2 type  1   force =     0.00000000    0.07690809    0.06735803
     atom    3 type  1   force =     0.00000000   -0.07690809    0.06735803
     atom    4 type  1   force =     0.00000000    0.07690809   -0.06735803
     atom    5 type  1   force =     0.00000000    0.18823696   -0.23317571
     atom    6 type  1   force =     0.00000000   -0.18823696    0.23317571
     atom    7 type  1   force =     0.00000000    0.18823696    0.23317571
     atom    8 type  1   force =     0.00000000   -0.18823696   -0.23317571
     atom    9 type  2   force =     0.00000000   -0.20096810   -0.05123983
     atom   10 type  2   force =     0.00000000    0.20096810    0.05123983
     atom   11 type  2   force =     0.00000000   -0.20096810    0.05123983
     atom   12 type  2   force =     0.00000000    0.20096810   -0.05123983

     Total force =     0.757020     Total SCF correction =     0.000000

     entering subroutine stress ...

          total   stress  (Ry/bohr**3)                   (kbar)     P= 6657.49
   0.04850111   0.00000000   0.00000000       7134.76      0.00      0.00
   0.00000000   0.04216705   0.00000000          0.00   6202.99      0.00
   0.00000000   0.00000000   0.04510187          0.00      0.00   6634.71

     BFGS Geometry Optimization

     number of scf cycles    =   1
     number of bfgs steps    =   0

     enthalpy new            =   -2007.0518316924 Ry

     new trust radius        =       0.5000000000 bohr
     new conv_thr            =       0.0001000000 Ry

     new unit-cell volume =   1084.50862 a.u.^3 (   160.70759 Ang^3 )

CELL_PARAMETERS (alat=  7.01510508)
   1.085136619   0.000000000   0.000000000
   0.000000000   1.413368494   0.000000000
   0.000000000   0.000000000   2.048286200

ATOMIC_POSITIONS (crystal)
Co       0.750000000   0.825816050   0.435380795
Co       0.250000000   0.174183950   0.564619205
Co       0.750000000   0.325816050   0.064619205
Co       0.250000000   0.674183950   0.935380795
Co       0.250000000   0.538517699   0.281115374
Co       0.750000000   0.461482301   0.718884626
Co       0.250000000   0.038517699   0.218884626
Co       0.750000000   0.961482301   0.781115374
Si       0.250000000   0.201325471   0.893329793
Si       0.750000000   0.798674529   0.106670207
Si       0.250000000   0.701325471   0.606670207
Si       0.750000000   0.298674529   0.393329793

     Writing output data file Prototype-La-oP12-Co2Si.save
     NEW-OLD atomic charge density approx. for the potential
     NEW k-points:
        k(    1) = (   0.0000000   0.0000000   0.0000000), wk =   0.0833333
        k(    2) = (   0.0000000   0.0000000   0.1220533), wk =   0.1666667
        k(    3) = (   0.0000000   0.0000000  -0.2441065), wk =   0.0833333
        k(    4) = (   0.0000000   0.2358432   0.0000000), wk =   0.1666667
        k(    5) = (   0.0000000   0.2358432   0.1220533), wk =   0.3333333
        k(    6) = (   0.0000000   0.2358432  -0.2441065), wk =   0.1666667
        k(    7) = (  -0.4607715   0.0000000   0.0000000), wk =   0.0833333
        k(    8) = (  -0.4607715   0.0000000   0.1220533), wk =   0.1666667
        k(    9) = (  -0.4607715   0.0000000  -0.2441065), wk =   0.0833333
        k(   10) = (  -0.4607715   0.2358432   0.0000000), wk =   0.1666667
        k(   11) = (  -0.4607715   0.2358432   0.1220533), wk =   0.3333333
        k(   12) = (  -0.4607715   0.2358432  -0.2441065), wk =   0.1666667

[...]

     enthalpy old            =   -2007.0518316924 Ry
     enthalpy new            =   -2013.2953257131 Ry

     CASE: enthalpy_new < enthalpy_old

     small trust_radius: resetting bfgs history

     new trust radius        =       2.5835383270 bohr
     new conv_thr            =       0.0001000000 Ry

[...]

          total   stress  (Ry/bohr**3)                   (kbar)     P=-1255.19
  -0.00887114   0.00000000   0.00000000      -1304.99      0.00      0.00
   0.00000000  -0.00817609   0.00000000          0.00  -1202.74      0.00
   0.00000000   0.00000000  -0.00855060          0.00      0.00  -1257.84

     number of scf cycles    =   3
     number of bfgs steps    =   2

     enthalpy old            =   -2013.2953257131 Ry
     enthalpy new            =   -2004.1021514345 Ry

     CASE: enthalpy_new > enthalpy_old

     new trust radius        =       0.9825921610 bohr

     trust_radius < trust_radius_min

     resetting bfgs history

     Message from routine bfgs:
     history already reset at previous step: stopping
     new conv_thr            =       0.0001000000 Ry

     new unit-cell volume =   1292.15703 a.u.^3 (   191.47791 Ang^3 )

[...]

ATOMIC_POSITIONS (crystal)
Co       0.750000000   0.825229530   0.435285454
Co       0.250000000   0.174770470   0.564714546
Co       0.750000000   0.325229530   0.064714546
Co       0.250000000   0.674770470   0.935285454
Co       0.250000000   0.540022800   0.280065502
Co       0.750000000   0.459977200   0.719934498
Co       0.250000000   0.040022800   0.219934498
Co       0.750000000   0.959977200   0.780065502
Si       0.250000000   0.200156296   0.893176500
Si       0.750000000   0.799843704   0.106823500
Si       0.250000000   0.700156296   0.606823500
Si       0.750000000   0.299843704   0.393176500

     Writing output data file Prototype-La-oP12-Co2Si.save
     NEW-OLD atomic charge density approx. for the potential
     NEW k-points:
        k(    1) = (   0.0000000   0.0000000   0.0000000), wk =   0.0833333
        k(    2) = (   0.0000000   0.0000000   0.1150058), wk =   0.1666667
        k(    3) = (   0.0000000   0.0000000  -0.2300115), wk =   0.0833333
        k(    4) = (   0.0000000   0.2239374   0.0000000), wk =   0.1666667
        k(    5) = (   0.0000000   0.2239374   0.1150058), wk =   0.3333333
        k(    6) = (   0.0000000   0.2239374  -0.2300115), wk =   0.1666667
        k(    7) = (  -0.4322448   0.0000000   0.0000000), wk =   0.0833333
        k(    8) = (  -0.4322448   0.0000000   0.1150058), wk =   0.1666667
        k(    9) = (  -0.4322448   0.0000000  -0.2300115), wk =   0.0833333
        k(   10) = (  -0.4322448   0.2239374   0.0000000), wk =   0.1666667
        k(   11) = (  -0.4322448   0.2239374   0.1150058), wk =   0.3333333
        k(   12) = (  -0.4322448   0.2239374  -0.2300115), wk =   0.1666667

[...]

     The maximum number of steps has been reached.

     End of BFGS Geometry Optimization
Begin final coordinates
     new unit-cell volume =   1292.15703 a.u.^3 (   191.47791 Ang^3 )

CELL_PARAMETERS (alat=  7.01510508)
   1.156751810   0.000000000   0.000000000
   0.000000000   1.488511417   0.000000000
   0.000000000   0.000000000   2.173804049

ATOMIC_POSITIONS (crystal)
Co       0.750000000   0.825229530   0.435285454
Co       0.250000000   0.174770470   0.564714546
Co       0.750000000   0.325229530   0.064714546
Co       0.250000000   0.674770470   0.935285454
Co       0.250000000   0.540022800   0.280065502
Co       0.750000000   0.459977200   0.719934498
Co       0.250000000   0.040022800   0.219934498
Co       0.750000000   0.959977200   0.780065502
Si       0.250000000   0.200156296   0.893176500
Si       0.750000000   0.799843704   0.106823500
Si       0.250000000   0.700156296   0.606823500
Si       0.750000000   0.299843704   0.393176500
End final coordinates

     A final scf calculation at the relaxed structure.
     The G-vectors are recalculated for the final unit cell
     Results may differ from those at the preceding step.

     bravais-lattice index     =            0
     lattice parameter (alat)  =       7.0151  a.u.
     unit-cell volume          =    1292.1570 (a.u.)^3
     number of atoms/cell      =           12
     number of atomic types    =            2
     number of electrons       =       200.00
     number of Kohn-Sham states=          120
     kinetic-energy cutoff     =      40.0000  Ry
     charge density cutoff     =     160.0000  Ry
     convergence threshold     =      1.0E-04
     mixing beta               =       0.7000
     number of iterations used =            8  plain     mixing
     Exchange-correlation      = SLA-PZ-NOGX-NOGC ( 1 1 0 0 0)
     EXX-fraction              =        0.00

     celldm(1)=   7.015105  celldm(2)=   0.000000  celldm(3)=   0.000000
     celldm(4)=   0.000000  celldm(5)=   0.000000  celldm(6)=   0.000000

     crystal axes: (cart. coord. in units of alat)
               a(1) = (   1.156752   0.000000   0.000000 )
               a(2) = (   0.000000   1.488511   0.000000 )
               a(3) = (   0.000000   0.000000   2.173804 )

     reciprocal axes: (cart. coord. in units 2 pi/alat)
               b(1) = (  0.864490  0.000000  0.000000 )
               b(2) = (  0.000000  0.671812  0.000000 )
               b(3) = (  0.000000  0.000000  0.460023 )

     PseudoPot. # 1 for Sm read from file:
     /home/cwx6513/pp.La/Sm.UPF
     MD5 check sum: 5079e8b144a06bfcdbc14fb02b96ab09
     Pseudo is Norm-conserving, Zval = 16.0
     Generated in analytical, separable form
     Using radial grid of 1259 points,  6 beta functions with:
                l(1) =   0
                l(2) =   0
                l(3) =   1
                l(4) =   1
                l(5) =   2
                l(6) =   3

     PseudoPot. # 2 for Gd read from file:
     /home/cwx6513/pp.La/Gd.UPF
     MD5 check sum: 09a8be538722f05520810cb6aac0efd2
     Pseudo is Norm-conserving, Zval = 18.0
     Generated in analytical, separable form
     Using radial grid of 1263 points,  6 beta functions with:
                l(1) =   0
                l(2) =   0
                l(3) =   1
                l(4) =   1
                l(5) =   2
                l(6) =   3

     atomic species   valence    mass     pseudopotential
        Co            16.00    58.93320     Sm( 1.00)
        Si            18.00    28.08550     Gd( 1.00)

      8 Sym. Ops., with inversion, found ( 6 have fractional translation)

   Cartesian axes

     site n.     atom                  positions (alat units)
         1           Co  tau(   1) = (   0.8675639   1.2283636   0.9462253  )
         2           Co  tau(   2) = (   0.2891880   0.2601478   1.2275788  )
         3           Co  tau(   3) = (   0.8675639   0.4841079   0.1406767  )
         4           Co  tau(   4) = (   0.2891880   1.0044035   2.0331273  )
         5           Co  tau(   5) = (   0.2891880   0.8038301   0.6088075  )
         6           Co  tau(   6) = (   0.8675639   0.6846813   1.5649965  )
         7           Co  tau(   7) = (   0.2891880   0.0595744   0.4780945  )
         8           Co  tau(   8) = (   0.8675639   1.4289370   1.6957095  )
         9           Si  tau(   9) = (   0.2891880   0.2979349   1.9415907  )
        10           Si  tau(  10) = (   0.8675639   1.1905765   0.2322134  )
        11           Si  tau(  11) = (   0.2891880   1.0421906   1.3191154  )
        12           Si  tau(  12) = (   0.8675639   0.4463208   0.8546887  )

     number of k points=    12  gaussian smearing, width (Ry)=  0.1000
                       cart. coord. in units 2pi/alat
        k(    1) = (   0.0000000   0.0000000   0.0000000), wk =   0.0833333
        k(    2) = (   0.0000000   0.0000000   0.1150058), wk =   0.1666667
        k(    3) = (   0.0000000   0.0000000  -0.2300115), wk =   0.0833333
        k(    4) = (   0.0000000   0.2239374   0.0000000), wk =   0.1666667
        k(    5) = (   0.0000000   0.2239374   0.1150058), wk =   0.3333333
        k(    6) = (   0.0000000   0.2239374  -0.2300115), wk =   0.1666667
        k(    7) = (  -0.4322448   0.0000000   0.0000000), wk =   0.0833333
        k(    8) = (  -0.4322448   0.0000000   0.1150058), wk =   0.1666667
        k(    9) = (  -0.4322448   0.0000000  -0.2300115), wk =   0.0833333
        k(   10) = (  -0.4322448   0.2239374   0.0000000), wk =   0.1666667
        k(   11) = (  -0.4322448   0.2239374   0.1150058), wk =   0.3333333
        k(   12) = (  -0.4322448   0.2239374  -0.2300115), wk =   0.1666667

     Largest allocated arrays     est. size (Mb)     dimensions
     Largest temporary arrays     est. size (Mb)     dimensions

     Initial potential from superposition of free atoms

     Starting from uniform charge
     Starting wfc are    0 randomized atomic wfcs

     Writing output data file Prototype-La-oP12-Co2Si.save

     Self-consistent Calculation

[...]

     iteration # 10     ecut=    40.00 Ry     beta=0.70
     CG style diagonalization
     c_bands:  1 eigenvalues not converged
     c_bands:  1 eigenvalues not converged
     ethr =  2.25E-06,  avg # of iterations =  3.6

     total energy              =   -2016.96034356 Ry
     Harris-Foulkes estimate   =   -2016.96038115 Ry
     estimated scf accuracy    <       0.00010050 Ry

     iteration # 11     ecut=    40.00 Ry     beta=0.70
     CG style diagonalization
     ethr =  5.02E-08,  avg # of iterations =  4.5

     End of self-consistent calculation

[...]

          k = 0.0000 0.2239-0.2300 (  5502 PWs)   bands (ev):

[...]

          k =-0.4322 0.2239-0.2300 (  5528 PWs)   bands (ev):

   -38.7151 -38.7151 -38.7129 -38.7129 -27.1824 -27.1824 -27.0778 -27.0778
   -26.9895 -26.9895 -26.9884 -26.9884 -10.0124 -10.0124  -9.9894  -9.9894
    -9.9567  -9.9567  -9.9291  -9.9291  -9.7836  -9.7836  -9.7519  -9.7519
    -3.0934  -3.0934  -2.8418  -2.8418  -2.7687  -2.7687  -2.7164  -2.7164
    -2.6112  -2.6112  -2.3066  -2.3066  -2.1369  -2.1369  -2.0550  -2.0550
    -1.9772  -1.9772  -1.9633  -1.9633  -1.8216  -1.8216  -1.7873  -1.7873
    22.3743  22.3743  22.8089  22.8089  22.8983  22.8983  23.2673  23.2673
    23.2971  23.2971  23.6762  23.6762  23.7807  23.7807  23.9618  23.9618
    24.5268  24.5268  25.0355  25.0355  25.2581  25.2581  25.2786  25.2786
    25.8664  25.8664  26.0019  26.0019  26.0140  26.0140  26.3227  26.3227
    26.7723  26.7723  27.5439  27.5439  27.6281  27.6281  28.2398  28.2398
    28.5505  28.5505  28.6949  28.6949  28.8854  28.8854  29.4930  29.4930
    29.6649  29.6649  29.9732  29.9732  30.8274  30.8274  31.2787  31.2787
    32.0663  32.0663  32.3163  32.3163  33.0135  33.0135  33.0682  33.0682
    34.3493  34.3493  34.9032  34.9032  36.1707  36.1707  39.2293  39.2297

     the Fermi energy is    30.8772 ev

!    total energy              =   -2016.96039028 Ry
     Harris-Foulkes estimate   =   -2016.96040805 Ry
     estimated scf accuracy    <       0.00001972 Ry

     The total energy is the sum of the following terms:

     one-electron contribution =      39.95681334 Ry
     hartree contribution      =     180.63298069 Ry
     xc contribution           =    -215.24769855 Ry
     ewald contribution        =   -2021.63286713 Ry
     smearing contrib. (-TS)   =      -0.66961863 Ry

     convergence has been achieved in  11 iterations

     Forces acting on atoms (Ry/au):

     atom    1 type  1   force =     0.00000000   -0.03892189   -0.00866071
     atom    2 type  1   force =     0.00000000    0.03892189    0.00866071
     atom    3 type  1   force =     0.00000000   -0.03892189    0.00866071
     atom    4 type  1   force =     0.00000000    0.03892189   -0.00866071
     atom    5 type  1   force =     0.00000000    0.07438477   -0.06495112
     atom    6 type  1   force =     0.00000000   -0.07438477    0.06495112
     atom    7 type  1   force =     0.00000000    0.07438477    0.06495112
     atom    8 type  1   force =     0.00000000   -0.07438477   -0.06495112
     atom    9 type  2   force =     0.00000000   -0.05344876   -0.02465920
     atom   10 type  2   force =     0.00000000    0.05344876    0.02465920
     atom   11 type  2   force =     0.00000000   -0.05344876    0.02465920
     atom   12 type  2   force =     0.00000000    0.05344876   -0.02465920

     Total force =     0.243364     Total SCF correction =     0.000000

     entering subroutine stress ...

          total   stress  (Ry/bohr**3)                   (kbar)     P=  872.72
   0.00621542   0.00000000   0.00000000        914.32      0.00      0.00
   0.00000000   0.00554717   0.00000000          0.00    816.02      0.00
   0.00000000   0.00000000   0.00603538          0.00      0.00    887.84

     Writing output data file Prototype-La-oP12-Co2Si.save

     General routines

     Parallel routines

   This run was terminated on:  18:57:56  22Mar2018

   JOB DONE.