     Program PWSCF v.5.0.2 starts on 22Mar2018 at 18:43:52

     Current dimensions of program PWSCF are:
     Max number of different atomic species (ntypx) = 10
     Max number of k-points (npk) =  40000
     Max angular momentum in pseudopotentials (lmaxx) =  3
     Waiting for input...
     Reading input from standard input

     Subspace diagonalization in iterative solution of the eigenvalue problem:
     a serial algorithm will be used

     bravais-lattice index     =            0
     lattice parameter (alat)  =      12.0168  a.u.
     unit-cell volume          =    1187.3413 (a.u.)^3
     number of atoms/cell      =            8
     number of atomic types    =            2
     number of electrons       =       132.00
     number of Kohn-Sham states=           79
     kinetic-energy cutoff     =      40.0000  Ry
     charge density cutoff     =     160.0000  Ry
     convergence threshold     =      1.0E-04
     mixing beta               =       0.7000
     number of iterations used =            8  plain     mixing
     Exchange-correlation      = SLA-PZ-NOGX-NOGC ( 1 1 0 0 0)
     EXX-fraction              =        0.00
     nstep                     =           50

     celldm(1)=  12.016801  celldm(2)=   0.000000  celldm(3)=   0.000000
     celldm(4)=   0.000000  celldm(5)=   0.000000  celldm(6)=   0.000000

     crystal axes: (cart. coord. in units of alat)
               a(1) = (   1.000000   0.000000   0.000000 )
               a(2) = (  -0.500000   0.866025   0.000000 )
               a(3) = (   0.000000   0.000000   0.790093 )

     reciprocal axes: (cart. coord. in units 2 pi/alat)
               b(1) = (  1.000000  0.577350  0.000000 )
               b(2) = (  0.000000  1.154701  0.000000 )
               b(3) = (  0.000000  0.000000  1.265674 )

     PseudoPot. # 1 for Sm read from file:
     /home/cwx6513/pp.La/Sm.UPF
     MD5 check sum: 5079e8b144a06bfcdbc14fb02b96ab09
     Pseudo is Norm-conserving, Zval = 16.0
     Generated in analytical, separable form
     Using radial grid of 1259 points,  6 beta functions with:
                l(1) =   0
                l(2) =   0
                l(3) =   1
                l(4) =   1
                l(5) =   2
                l(6) =   3

     PseudoPot. # 2 for Gd read from file:
     /home/cwx6513/pp.La/Gd.UPF
     MD5 check sum: 09a8be538722f05520810cb6aac0efd2
     Pseudo is Norm-conserving, Zval = 18.0
     Generated in analytical, separable form
     Using radial grid of 1263 points,  6 beta functions with:
                l(1) =   0
                l(2) =   0
                l(3) =   1
                l(4) =   1
                l(5) =   2
                l(6) =   3

     atomic species   valence    mass     pseudopotential
        Mg            16.00    24.30500     Sm( 1.00)
        Cd            18.00   112.41100     Gd( 1.00)

     24 Sym. Ops., with inversion, found (12 have fractional translation)

   Cartesian axes

     site n.     atom                  positions (alat units)
         1           Mg  tau(   1) = (   0.2478935   0.7204716   0.1975233  )
         2           Mg  tau(   2) = (   0.7478935   0.1455538   0.5925699  )
         3           Mg  tau(   3) = (   0.2521065   0.1455538   0.5925699  )
         4           Mg  tau(   4) = (  -0.2478935   0.7204716   0.1975233  )
         5           Mg  tau(   5) = (   0.0000000   0.2911075   0.1975233  )
         6           Mg  tau(   6) = (   0.5000000   0.5749179   0.5925699  )
         7           Cd  tau(   7) = (   0.5000005   0.2886748   0.1975233  )
         8           Cd  tau(   8) = (  -0.0000005   0.5773506   0.5925699  )

     number of k points=    64  gaussian smearing, width (Ry)=  0.1000
                       cart. coord. in units 2pi/alat
        k(    1) = (   0.0000000   0.0000000   0.0000000), wk =   0.0095238
        k(    2) = (   0.0000000   0.0000000   0.1808105), wk =   0.0190476
        k(    3) = (   0.0000000   0.0000000   0.3616210), wk =   0.0190476
        k(    4) = (   0.0000000   0.0000000   0.5424315), wk =   0.0190476
        k(    5) = (   0.0000000   0.1924501   0.0000000), wk =   0.0190476
        k(    6) = (   0.0000000   0.1924501   0.1808105), wk =   0.0380952
        k(    7) = (   0.0000000   0.1924501   0.3616210), wk =   0.0380952
        k(    8) = (   0.0000000   0.1924501   0.5424315), wk =   0.0380952
        k(    9) = (   0.0000000   0.3849002   0.0000000), wk =   0.0190476
        k(   10) = (   0.0000000   0.3849002   0.1808105), wk =   0.0380952
        k(   11) = (   0.0000000   0.3849002   0.3616210), wk =   0.0380952
        k(   12) = (   0.0000000   0.3849002   0.5424315), wk =   0.0380952
        k(   13) = (   0.0000000  -0.5773503   0.0000000), wk =   0.0095238
        k(   14) = (   0.0000000  -0.5773503   0.1808105), wk =   0.0190476
        k(   15) = (   0.0000000  -0.5773503   0.3616210), wk =   0.0190476
        k(   16) = (   0.0000000  -0.5773503   0.5424315), wk =   0.0190476
        k(   17) = (   0.2000000   0.1154701   0.0000000), wk =   0.0190476
        k(   18) = (   0.2000000   0.1154701   0.1808105), wk =   0.0380952
        k(   19) = (   0.2000000   0.1154701   0.3616210), wk =   0.0380952
        k(   20) = (   0.2000000   0.1154701   0.5424315), wk =   0.0380952
        k(   21) = (   0.2000000   0.3079201   0.0000000), wk =   0.0190476
        k(   22) = (   0.2000000   0.3079201   0.1808105), wk =   0.0380952
        k(   23) = (   0.2000000   0.3079201   0.3616210), wk =   0.0380952
        k(   24) = (   0.2000000   0.3079201   0.5424315), wk =   0.0380952
        k(   25) = (   0.2000000   0.5003702   0.0000000), wk =   0.0190476
        k(   26) = (   0.2000000   0.5003702   0.1808105), wk =   0.0380952
        k(   27) = (   0.2000000   0.5003702   0.3616210), wk =   0.0380952
        k(   28) = (   0.2000000   0.5003702   0.5424315), wk =   0.0380952
        k(   29) = (   0.2000000  -0.4618802   0.0000000), wk =   0.0190476
        k(   30) = (   0.2000000  -0.4618802   0.1808105), wk =   0.0380952
        k(   31) = (   0.2000000  -0.4618802   0.3616210), wk =   0.0380952
        k(   32) = (   0.2000000  -0.4618802   0.5424315), wk =   0.0380952
        k(   33) = (   0.2000000  -0.2694301   0.0000000), wk =   0.0190476
        k(   34) = (   0.2000000  -0.2694301   0.1808105), wk =   0.0380952
        k(   35) = (   0.2000000  -0.2694301   0.3616210), wk =   0.0380952
        k(   36) = (   0.2000000  -0.2694301   0.5424315), wk =   0.0380952
        k(   37) = (   0.2000000  -0.0769800   0.0000000), wk =   0.0190476
        k(   38) = (   0.2000000  -0.0769800   0.1808105), wk =   0.0380952
        k(   39) = (   0.2000000  -0.0769800   0.3616210), wk =   0.0380952
        k(   40) = (   0.2000000  -0.0769800   0.5424315), wk =   0.0380952
        k(   41) = (   0.4000000   0.2309401   0.0000000), wk =   0.0190476
        k(   42) = (   0.4000000   0.2309401   0.1808105), wk =   0.0380952
        k(   43) = (   0.4000000   0.2309401   0.3616210), wk =   0.0380952
        k(   44) = (   0.4000000   0.2309401   0.5424315), wk =   0.0380952
        k(   45) = (   0.4000000   0.4233902   0.0000000), wk =   0.0190476
        k(   46) = (   0.4000000   0.4233902   0.1808105), wk =   0.0380952
        k(   47) = (   0.4000000   0.4233902   0.3616210), wk =   0.0380952
        k(   48) = (   0.4000000   0.4233902   0.5424315), wk =   0.0380952
        k(   49) = (   0.4000000   0.6158403   0.0000000), wk =   0.0190476
        k(   50) = (   0.4000000   0.6158403   0.1808105), wk =   0.0380952
        k(   51) = (   0.4000000   0.6158403   0.3616210), wk =   0.0380952
        k(   52) = (   0.4000000   0.6158403   0.5424315), wk =   0.0380952
        k(   53) = (   0.4000000  -0.3464102   0.0000000), wk =   0.0190476
        k(   54) = (   0.4000000  -0.3464102   0.1808105), wk =   0.0380952
        k(   55) = (   0.4000000  -0.3464102   0.3616210), wk =   0.0380952
        k(   56) = (   0.4000000  -0.3464102   0.5424315), wk =   0.0380952
        k(   57) = (   0.4000000  -0.1539601   0.0000000), wk =   0.0190476
        k(   58) = (   0.4000000  -0.1539601   0.1808105), wk =   0.0380952
        k(   59) = (   0.4000000  -0.1539601   0.3616210), wk =   0.0380952
        k(   60) = (   0.4000000  -0.1539601   0.5424315), wk =   0.0380952
        k(   61) = (   0.4000000   0.0384900   0.0000000), wk =   0.0190476
        k(   62) = (   0.4000000   0.0384900   0.1808105), wk =   0.0380952
        k(   63) = (   0.4000000   0.0384900   0.3616210), wk =   0.0380952
        k(   64) = (   0.4000000   0.0384900   0.5424315), wk =   0.0380952

     Largest allocated arrays     est. size (Mb)     dimensions
     Largest temporary arrays     est. size (Mb)     dimensions

     Initial potential from superposition of free atoms

     Starting from uniform charge
     Starting wfc are    0 randomized atomic wfcs

     Self-consistent Calculation

     iteration #  1     ecut=    40.00 Ry     beta=0.70
     CG style diagonalization
     c_bands:  1 eigenvalues not converged
     ethr =  1.00E-02,  avg # of iterations = 15.3

     total energy              =    -992.17908335 Ry
     Harris-Foulkes estimate   =   -1561.34854656 Ry
     estimated scf accuracy    <     713.92858310 Ry

[...]

     iteration #  4     ecut=    40.00 Ry     beta=0.70
     CG style diagonalization
     ethr =  1.00E-02,  avg # of iterations =  6.9

[...]

     End of self-consistent calculation

          k = 0.0000 0.0000 0.0000 (  5047 PWs)   bands (ev):

   -47.5430 -47.5420 -36.7847 -36.6919 -36.6918 -36.6753 -36.6378 -36.6377
   -18.5026 -18.4924 -18.4528 -18.4528 -18.4500 -18.4500 -12.2378 -12.1897
   -12.0573 -11.9401 -11.9400 -11.9353 -11.9352 -11.9024 -11.9024 -11.7251
   -11.5751 -11.5750 -11.4726 -11.4726 -11.4409 -11.4409 -11.4409 -11.4359
    14.1213  14.8626  14.8626  14.9106  14.9174  15.3631  15.3632  15.5766
    15.5767  15.6557  15.8223  16.8388  16.8388  17.6876  17.7356  17.7357
    17.8544  18.2130  18.2653  18.2654  18.5536  18.5536  18.6517  18.7498
    18.7498  19.0797  19.1923  19.1923  19.2097  19.2097  21.3035  21.3036
    21.4172  21.4172  21.6587  21.6588  21.8330  21.8331  21.8942  22.1518
    22.6002  22.6702  23.6988  24.2977  24.2979  25.1427  25.6517

[...]

     the Fermi energy is    20.7048 ev

!    total energy              =   -1312.46507748 Ry
     Harris-Foulkes estimate   =   -1312.46507801 Ry
     estimated scf accuracy    <       0.00000069 Ry

     The total energy is the sum of the following terms:

     one-electron contribution =    -145.35577397 Ry
     hartree contribution      =     159.64160888 Ry
     xc contribution           =    -136.95656704 Ry
     ewald contribution        =   -1189.16632263 Ry
     smearing contrib. (-TS)   =      -0.62802273 Ry

     convergence has been achieved in  12 iterations

     Forces acting on atoms (Ry/au):

     atom    1 type  1   force =     0.01416611    0.00817881    0.00000000
     atom    2 type  1   force =     0.01416611   -0.00817881    0.00000000
     atom    3 type  1   force =    -0.01416611   -0.00817881    0.00000000
     atom    4 type  1   force =    -0.01416611    0.00817881    0.00000000
[...]
        k(   12) = (   0.0000000   0.4048864   0.5626655), wk =   0.0380952
        k(   13) = (   0.0000000  -0.6073296   0.0000000), wk =   0.0095238
        k(   14) = (   0.0000000  -0.6073296   0.1875552), wk =   0.0190476
        k(   15) = (   0.0000000  -0.6073296   0.3751103), wk =   0.0190476
        k(   16) = (   0.0000000  -0.6073296   0.5626655), wk =   0.0190476
        k(   17) = (   0.2103851   0.1214659   0.0000000), wk =   0.0190476
        k(   18) = (   0.2103851   0.1214659   0.1875552), wk =   0.0380952
        k(   19) = (   0.2103851   0.1214659   0.3751103), wk =   0.0380952
        k(   20) = (   0.2103851   0.1214659   0.5626655), wk =   0.0380952
        k(   21) = (   0.2103851   0.3239091   0.0000000), wk =   0.0190476
        k(   22) = (   0.2103851   0.3239091   0.1875552), wk =   0.0380952
        k(   23) = (   0.2103851   0.3239091   0.3751103), wk =   0.0380952
        k(   24) = (   0.2103851   0.3239091   0.5626655), wk =   0.0380952
        k(   25) = (   0.2103851   0.5263523   0.0000000), wk =   0.0190476
        k(   26) = (   0.2103851   0.5263523   0.1875552), wk =   0.0380952
        k(   27) = (   0.2103851   0.5263523   0.3751103), wk =   0.0380952
        k(   28) = (   0.2103851   0.5263523   0.5626655), wk =   0.0380952
        k(   29) = (   0.2103851  -0.4858636   0.0000000), wk =   0.0190476
        k(   30) = (   0.2103851  -0.4858636   0.1875552), wk =   0.0380952
        k(   31) = (   0.2103851  -0.4858636   0.3751103), wk =   0.0380952
        k(   32) = (   0.2103851  -0.4858636   0.5626655), wk =   0.0380952
        k(   33) = (   0.2103851  -0.2834205   0.0000000), wk =   0.0190476
        k(   34) = (   0.2103851  -0.2834205   0.1875552), wk =   0.0380952
        k(   35) = (   0.2103851  -0.2834205   0.3751103), wk =   0.0380952
        k(   36) = (   0.2103851  -0.2834205   0.5626655), wk =   0.0380952
        k(   37) = (   0.2103851  -0.0809773   0.0000000), wk =   0.0190476
        k(   38) = (   0.2103851  -0.0809773   0.1875552), wk =   0.0380952
        k(   39) = (   0.2103851  -0.0809773   0.3751103), wk =   0.0380952
        k(   40) = (   0.2103851  -0.0809773   0.5626655), wk =   0.0380952
        k(   41) = (   0.4207703   0.2429318   0.0000000), wk =   0.0190476
        k(   42) = (   0.4207703   0.2429318   0.1875552), wk =   0.0380952
        k(   43) = (   0.4207703   0.2429318   0.3751103), wk =   0.0380952
        k(   44) = (   0.4207703   0.2429318   0.5626655), wk =   0.0380952
        k(   45) = (   0.4207703   0.4453750   0.0000000), wk =   0.0190476
        k(   46) = (   0.4207703   0.4453750   0.1875552), wk =   0.0380952
        k(   47) = (   0.4207703   0.4453750   0.3751103), wk =   0.0380952
        k(   48) = (   0.4207703   0.4453750   0.5626655), wk =   0.0380952
        k(   49) = (   0.4207703   0.6478182   0.0000000), wk =   0.0190476
        k(   50) = (   0.4207703   0.6478182   0.1875552), wk =   0.0380952
        k(   51) = (   0.4207703   0.6478182   0.3751103), wk =   0.0380952
        k(   52) = (   0.4207703   0.6478182   0.5626655), wk =   0.0380952
        k(   53) = (   0.4207703  -0.3643977   0.0000000), wk =   0.0190476
        k(   54) = (   0.4207703  -0.3643977   0.1875552), wk =   0.0380952
        k(   55) = (   0.4207703  -0.3643977   0.3751103), wk =   0.0380952
        k(   56) = (   0.4207703  -0.3643977   0.5626655), wk =   0.0380952
        k(   57) = (   0.4207703  -0.1619545   0.0000000), wk =   0.0190476
        k(   58) = (   0.4207703  -0.1619545   0.1875552), wk =   0.0380952
        k(   59) = (   0.4207703  -0.1619545   0.3751103), wk =   0.0380952
        k(   60) = (   0.4207703  -0.1619545   0.5626655), wk =   0.0380952
        k(   61) = (   0.4207703   0.0404886   0.0000000), wk =   0.0190476
        k(   62) = (   0.4207703   0.0404886   0.1875552), wk =   0.0380952
        k(   63) = (   0.4207703   0.0404886   0.3751103), wk =   0.0380952
        k(   64) = (   0.4207703   0.0404886   0.5626655), wk =   0.0380952

[...]

     The maximum number of steps has been reached.

     End of BFGS Geometry Optimization
Begin final coordinates
     new unit-cell volume =   1034.42770 a.u.^3 (   153.28637 Ang^3 )

CELL_PARAMETERS (alat= 12.01680127)
   0.950637529   0.000000000   0.000000000
  -0.475318765   0.823276250   0.000000000
   0.000000000   0.000000000   0.761680717

ATOMIC_POSITIONS (crystal)
Mg       0.668611619   0.834305810   0.250000000
Mg       0.834305810   0.165694190   0.750000000
Mg       0.331388381   0.165694190   0.750000000
Mg       0.165694190   0.834305810   0.250000000
Mg       0.165694190   0.331388381   0.250000000
Mg       0.834305810   0.668611619   0.750000000
Cd       0.666667000   0.333333000   0.250000000
Cd       0.333333000   0.666667000   0.750000000
End final coordinates

     A final scf calculation at the relaxed structure.
     The G-vectors are recalculated for the final unit cell
     Results may differ from those at the preceding step.

     bravais-lattice index     =            0
     lattice parameter (alat)  =      12.0168  a.u.
     unit-cell volume          =    1034.4277 (a.u.)^3
     number of atoms/cell      =            8
     number of atomic types    =            2
     number of electrons       =       132.00
     number of Kohn-Sham states=           79
     kinetic-energy cutoff     =      40.0000  Ry
     charge density cutoff     =     160.0000  Ry
     convergence threshold     =      1.6E-05
     mixing beta               =       0.7000
     number of iterations used =            8  plain     mixing
     Exchange-correlation      = SLA-PZ-NOGX-NOGC ( 1 1 0 0 0)
     EXX-fraction              =        0.00

     celldm(1)=  12.016801  celldm(2)=   0.000000  celldm(3)=   0.000000
     celldm(4)=   0.000000  celldm(5)=   0.000000  celldm(6)=   0.000000

     crystal axes: (cart. coord. in units of alat)
               a(1) = (   0.950638   0.000000   0.000000 )
               a(2) = (  -0.475319   0.823276   0.000000 )
               a(3) = (   0.000000   0.000000   0.761681 )

     reciprocal axes: (cart. coord. in units 2 pi/alat)
               b(1) = (  1.051926  0.607330  0.000000 )
               b(2) = (  0.000000  1.214659  0.000000 )
               b(3) = (  0.000000  0.000000  1.312886 )

     PseudoPot. # 1 for Sm read from file:
     /home/cwx6513/pp.La/Sm.UPF
     MD5 check sum: 5079e8b144a06bfcdbc14fb02b96ab09
     Pseudo is Norm-conserving, Zval = 16.0
     Generated in analytical, separable form
     Using radial grid of 1259 points,  6 beta functions with:
                l(1) =   0
                l(2) =   0
                l(3) =   1
                l(4) =   1
                l(5) =   2
                l(6) =   3

     PseudoPot. # 2 for Gd read from file:
     /home/cwx6513/pp.La/Gd.UPF
     MD5 check sum: 09a8be538722f05520810cb6aac0efd2
     Pseudo is Norm-conserving, Zval = 18.0
     Generated in analytical, separable form
     Using radial grid of 1263 points,  6 beta functions with:
                l(1) =   0
                l(2) =   0
                l(3) =   1
                l(4) =   1
                l(5) =   2
                l(6) =   3

     atomic species   valence    mass     pseudopotential
        Mg            16.00    24.30500     Sm( 1.00)
        Cd            18.00   112.41100     Gd( 1.00)

     24 Sym. Ops., with inversion, found (12 have fractional translation)

   Cartesian axes

     site n.     atom                  positions (alat units)
         1           Mg  tau(   1) = (   0.2390461   0.6868642   0.1904202  )
         2           Mg  tau(   2) = (   0.7143649   0.1364121   0.5712605  )
         3           Mg  tau(   3) = (   0.2362727   0.1364121   0.5712605  )
         4           Mg  tau(   4) = (  -0.2390461   0.6868642   0.1904202  )
         5           Mg  tau(   5) = (   0.0000000   0.2728242   0.1904202  )
         6           Mg  tau(   6) = (   0.4753188   0.5504521   0.5712605  )
         7           Cd  tau(   7) = (   0.4753192   0.2744251   0.1904202  )
         8           Cd  tau(   8) = (  -0.0000005   0.5488511   0.5712605  )

     number of k points=    64  gaussian smearing, width (Ry)=  0.1000
                       cart. coord. in units 2pi/alat
        k(    1) = (   0.0000000   0.0000000   0.0000000), wk =   0.0095238
        k(    2) = (   0.0000000   0.0000000   0.1875552), wk =   0.0190476
        k(    3) = (   0.0000000   0.0000000   0.3751103), wk =   0.0190476
        k(    4) = (   0.0000000   0.0000000   0.5626655), wk =   0.0190476
        k(    5) = (   0.0000000   0.2024432   0.0000000), wk =   0.0190476
        k(    6) = (   0.0000000   0.2024432   0.1875552), wk =   0.0380952
        k(    7) = (   0.0000000   0.2024432   0.3751103), wk =   0.0380952
        k(    8) = (   0.0000000   0.2024432   0.5626655), wk =   0.0380952
        k(    9) = (   0.0000000   0.4048864   0.0000000), wk =   0.0190476
        k(   10) = (   0.0000000   0.4048864   0.1875552), wk =   0.0380952
        k(   11) = (   0.0000000   0.4048864   0.3751103), wk =   0.0380952
        k(   12) = (   0.0000000   0.4048864   0.5626655), wk =   0.0380952
        k(   13) = (   0.0000000  -0.6073296   0.0000000), wk =   0.0095238
        k(   14) = (   0.0000000  -0.6073296   0.1875552), wk =   0.0190476
        k(   15) = (   0.0000000  -0.6073296   0.3751103), wk =   0.0190476
        k(   16) = (   0.0000000  -0.6073296   0.5626655), wk =   0.0190476
        k(   17) = (   0.2103851   0.1214659   0.0000000), wk =   0.0190476
        k(   18) = (   0.2103851   0.1214659   0.1875552), wk =   0.0380952
        k(   19) = (   0.2103851   0.1214659   0.3751103), wk =   0.0380952
        k(   20) = (   0.2103851   0.1214659   0.5626655), wk =   0.0380952
        k(   21) = (   0.2103851   0.3239091   0.0000000), wk =   0.0190476
        k(   22) = (   0.2103851   0.3239091   0.1875552), wk =   0.0380952
        k(   23) = (   0.2103851   0.3239091   0.3751103), wk =   0.0380952
        k(   24) = (   0.2103851   0.3239091   0.5626655), wk =   0.0380952
        k(   25) = (   0.2103851   0.5263523   0.0000000), wk =   0.0190476
        k(   26) = (   0.2103851   0.5263523   0.1875552), wk =   0.0380952
        k(   27) = (   0.2103851   0.5263523   0.3751103), wk =   0.0380952
        k(   28) = (   0.2103851   0.5263523   0.5626655), wk =   0.0380952
        k(   29) = (   0.2103851  -0.4858636   0.0000000), wk =   0.0190476
        k(   30) = (   0.2103851  -0.4858636   0.1875552), wk =   0.0380952
        k(   31) = (   0.2103851  -0.4858636   0.3751103), wk =   0.0380952
        k(   32) = (   0.2103851  -0.4858636   0.5626655), wk =   0.0380952
        k(   33) = (   0.2103851  -0.2834205   0.0000000), wk =   0.0190476
        k(   34) = (   0.2103851  -0.2834205   0.1875552), wk =   0.0380952
        k(   35) = (   0.2103851  -0.2834205   0.3751103), wk =   0.0380952
        k(   36) = (   0.2103851  -0.2834205   0.5626655), wk =   0.0380952
        k(   37) = (   0.2103851  -0.0809773   0.0000000), wk =   0.0190476
        k(   38) = (   0.2103851  -0.0809773   0.1875552), wk =   0.0380952
        k(   39) = (   0.2103851  -0.0809773   0.3751103), wk =   0.0380952
        k(   40) = (   0.2103851  -0.0809773   0.5626655), wk =   0.0380952
        k(   41) = (   0.4207703   0.2429318   0.0000000), wk =   0.0190476
        k(   42) = (   0.4207703   0.2429318   0.1875552), wk =   0.0380952
        k(   43) = (   0.4207703   0.2429318   0.3751103), wk =   0.0380952
        k(   44) = (   0.4207703   0.2429318   0.5626655), wk =   0.0380952
        k(   45) = (   0.4207703   0.4453750   0.0000000), wk =   0.0190476
        k(   46) = (   0.4207703   0.4453750   0.1875552), wk =   0.0380952
        k(   47) = (   0.4207703   0.4453750   0.3751103), wk =   0.0380952
        k(   48) = (   0.4207703   0.4453750   0.5626655), wk =   0.0380952
        k(   49) = (   0.4207703   0.6478182   0.0000000), wk =   0.0190476
        k(   50) = (   0.4207703   0.6478182   0.1875552), wk =   0.0380952
        k(   51) = (   0.4207703   0.6478182   0.3751103), wk =   0.0380952
        k(   52) = (   0.4207703   0.6478182   0.5626655), wk =   0.0380952
        k(   53) = (   0.4207703  -0.3643977   0.0000000), wk =   0.0190476
        k(   54) = (   0.4207703  -0.3643977   0.1875552), wk =   0.0380952
        k(   55) = (   0.4207703  -0.3643977   0.3751103), wk =   0.0380952
        k(   56) = (   0.4207703  -0.3643977   0.5626655), wk =   0.0380952
        k(   57) = (   0.4207703  -0.1619545   0.0000000), wk =   0.0190476
        k(   58) = (   0.4207703  -0.1619545   0.1875552), wk =   0.0380952
        k(   59) = (   0.4207703  -0.1619545   0.3751103), wk =   0.0380952
        k(   60) = (   0.4207703  -0.1619545   0.5626655), wk =   0.0380952
        k(   61) = (   0.4207703   0.0404886   0.0000000), wk =   0.0190476
        k(   62) = (   0.4207703   0.0404886   0.1875552), wk =   0.0380952
        k(   63) = (   0.4207703   0.0404886   0.3751103), wk =   0.0380952
        k(   64) = (   0.4207703   0.0404886   0.5626655), wk =   0.0380952

     Largest allocated arrays     est. size (Mb)     dimensions
     Largest temporary arrays     est. size (Mb)     dimensions

     Initial potential from superposition of free atoms

     Starting from uniform charge
     Starting wfc are    0 randomized atomic wfcs

     Writing output data file Prototype-La-hP8-Mg3Cd.save

     Self-consistent Calculation

[...]

     iteration # 10     ecut=    40.00 Ry     beta=0.70
     CG style diagonalization
     c_bands:  1 eigenvalues not converged
     c_bands:  1 eigenvalues not converged
     c_bands:  1 eigenvalues not converged
     ethr =  3.06E-06,  avg # of iterations =  4.7

[...]

     total energy              =   -1312.45600010 Ry
     Harris-Foulkes estimate   =   -1312.45601373 Ry
     estimated scf accuracy    <       0.00004990 Ry

     iteration # 13     ecut=    40.00 Ry     beta=0.70
     CG style diagonalization
     ethr =  3.78E-08,  avg # of iterations =  3.9

     End of self-consistent calculation

[...]

          k = 0.4208 0.0405 0.5627 (  4424 PWs)   bands (ev):

   -44.0568 -44.0560 -32.9927 -32.9540 -32.9150 -32.8961 -32.8788 -32.8650
   -15.0486 -15.0455 -15.0369 -15.0339 -15.0266 -15.0247  -8.6451  -8.6242
    -8.5737  -8.5497  -8.4574  -8.4255  -8.1367  -8.0510  -7.9719  -7.9555
    -7.8757  -7.8174  -7.7633  -7.7386  -7.7184  -7.6629  -7.6241  -7.6136
    18.1946  18.2438  18.3859  18.5437  18.6198  18.8215  19.0178  19.1114
    19.2223  19.2632  19.4419  19.7546  19.8112  20.0197  20.0357  20.2678
    20.8337  20.8947  21.4440  21.5042  21.7047  21.8297  22.0987  22.2325
    22.3467  22.4173  22.6965  22.9797  23.1256  23.2580  23.3976  23.7066
    24.3432  24.8255  25.0763  25.1654  25.5045  25.5274  25.8202  25.9607
    26.1608  26.4753  26.6183  27.0626  27.7464  28.1526  30.4939

     the Fermi energy is    24.7060 ev

!    total energy              =   -1312.45601228 Ry
     Harris-Foulkes estimate   =   -1312.45601591 Ry
     estimated scf accuracy    <       0.00000471 Ry

     The total energy is the sum of the following terms:

     one-electron contribution =     -65.39955247 Ry
     hartree contribution      =     137.52274239 Ry
     xc contribution           =    -138.40950000 Ry
     ewald contribution        =   -1245.65720094 Ry
     smearing contrib. (-TS)   =      -0.51250126 Ry

     convergence has been achieved in  13 iterations

     Forces acting on atoms (Ry/au):

     atom    1 type  1   force =    -0.00008380   -0.00004838    0.00000000
     atom    2 type  1   force =    -0.00008380    0.00004838    0.00000000
     atom    3 type  1   force =     0.00008380    0.00004838    0.00000000
     atom    4 type  1   force =     0.00008380   -0.00004838    0.00000000
     atom    5 type  1   force =     0.00000000    0.00009677    0.00000000
     atom    6 type  1   force =     0.00000000   -0.00009677    0.00000000
     atom    7 type  2   force =     0.00000000    0.00000000    0.00000000
     atom    8 type  2   force =     0.00000000    0.00000000    0.00000000

     Total force =     0.000237     Total SCF correction =     0.000000

     entering subroutine stress ...

          total   stress  (Ry/bohr**3)                   (kbar)     P=  -39.21
  -0.00030430   0.00000000   0.00000000        -44.76      0.00      0.00
   0.00000000  -0.00030430   0.00000000          0.00    -44.76      0.00
   0.00000000   0.00000000  -0.00019103          0.00      0.00    -28.10

     Writing output data file Prototype-La-hP8-Mg3Cd.save

     General routines

     Parallel routines

   This run was terminated on:  19:29:13  22Mar2018

   JOB DONE.