     Program PWSCF v.5.0.2 starts on 21Mar2018 at 22:59: 9

     Current dimensions of program PWSCF are:
     Max number of different atomic species (ntypx) = 10
     Max number of k-points (npk) =  40000
     Max angular momentum in pseudopotentials (lmaxx) =  3
     Waiting for input...
     Reading input from standard input

     bravais-lattice index     =            0
     lattice parameter (alat)  =       7.0054  a.u.
     unit-cell volume          =     956.6091 (a.u.)^3
     number of atoms/cell      =            4
     number of atomic types    =            1
     number of electrons       =        56.00
     number of Kohn-Sham states=           34
     kinetic-energy cutoff     =      40.0000  Ry
     charge density cutoff     =     160.0000  Ry
     convergence threshold     =      1.0E-04
     mixing beta               =       0.7000
     number of iterations used =            8  plain     mixing
     Exchange-correlation      = SLA-PZ-NOGX-NOGC ( 1 1 0 0 0)
     EXX-fraction              =        0.00
     nstep                     =           50

     celldm(1)=   7.005365  celldm(2)=   0.000000  celldm(3)=   0.000000
     celldm(4)=   0.000000  celldm(5)=   0.000000  celldm(6)=   0.000000

     crystal axes: (cart. coord. in units of alat)
               a(1) = (   1.000000   0.000000   0.000000 )
               a(2) = (  -0.500000   0.866025   0.000000 )
               a(3) = (   0.000000   0.000000   3.213006 )

     reciprocal axes: (cart. coord. in units 2 pi/alat)
               b(1) = (  1.000000  0.577350  0.000000 )
               b(2) = (  0.000000  1.154701  0.000000 )
               b(3) = (  0.000000  0.000000  0.311235 )

     PseudoPot. # 1 for Nd read from file:
     /home/cwx6513/pp.La/Nd.UPF
     MD5 check sum: c66c5b6abe7b5840ced9b1e244e3bed6
     Pseudo is Norm-conserving, Zval = 14.0
     Generated in analytical, separable form
     Using radial grid of 1257 points,  6 beta functions with:
                l(1) =   0
                l(2) =   0
                l(3) =   1
                l(4) =   1
                l(5) =   2
                l(6) =   3

     atomic species   valence    mass     pseudopotential
        Nd            14.00   144.24000     Nd( 1.00)

     24 Sym. Ops., with inversion, found (12 have fractional translation)

   Cartesian axes

     site n.     atom                  positions (alat units)
         1           Nd  tau(   1) = (   0.0000000   0.0000000   0.0000000  )
         2           Nd  tau(   2) = (   0.0000000   0.0000000   1.6065028  )
         3           Nd  tau(   3) = (  -0.0000005   0.5773506   0.8032514  )
         4           Nd  tau(   4) = (   0.5000005   0.2886748   2.4097542  )

     number of k points=    12  gaussian smearing, width (Ry)=  0.1000
                       cart. coord. in units 2pi/alat
        k(    1) = (   0.0000000   0.0000000   0.0000000), wk =   0.0833333
        k(    2) = (   0.0000000   0.0000000   0.0778088), wk =   0.1666667
        k(    3) = (   0.0000000   0.0000000  -0.1556175), wk =   0.0833333
        k(    4) = (   0.0000000   0.3849002   0.0000000), wk =   0.1666667
        k(    5) = (   0.0000000   0.3849002   0.0778088), wk =   0.3333333
        k(    6) = (   0.0000000   0.3849002  -0.1556175), wk =   0.1666667
        k(    7) = (  -0.5000000  -0.2886751   0.0000000), wk =   0.0833333
        k(    8) = (  -0.5000000  -0.2886751   0.0778088), wk =   0.1666667
        k(    9) = (  -0.5000000  -0.2886751  -0.1556175), wk =   0.0833333
        k(   10) = (  -0.5000000   0.0962250   0.0000000), wk =   0.1666667
        k(   11) = (  -0.5000000   0.0962250   0.0778088), wk =   0.3333333
        k(   12) = (  -0.5000000   0.0962250  -0.1556175), wk =   0.1666667

     Largest allocated arrays     est. size (Mb)     dimensions
     Largest temporary arrays     est. size (Mb)     dimensions

     Initial potential from superposition of free atoms

     Starting from uniform charge
     Starting wfc are    0 randomized atomic wfcs

     Self-consistent Calculation

     iteration #  1     ecut=    40.00 Ry     beta=0.70
     CG style diagonalization
     ethr =  1.00E-02,  avg # of iterations =  8.3

     total energy              =    -411.76091839 Ry
     Harris-Foulkes estimate   =    -528.08491208 Ry
     estimated scf accuracy    <     158.09510600 Ry

[...]

     iteration #  4     ecut=    40.00 Ry     beta=0.70
     CG style diagonalization
     c_bands:  1 eigenvalues not converged
     ethr =  2.00E-03,  avg # of iterations =  4.5

     negative rho (up, down):  0.123E-03 0.000E+00

[...]

     End of self-consistent calculation

          k = 0.0000 0.0000 0.0000 (  4071 PWs)   bands (ev):

   -36.6705 -36.6496 -36.6448 -36.6238 -14.9532 -14.7369 -14.7300 -14.6291
   -14.6290 -14.5951 -14.5951 -14.5937 -14.5937 -14.5615 -14.5615 -14.5041
     7.3109   8.4620   8.4626   8.6926  10.7225  10.7527  10.7911  10.7911
    10.8117  10.8117  10.9894  11.1134  11.1134  11.1806  11.1806  12.0127
    12.0128  12.4504

[...]

          k =-0.5000-0.2887 0.0000 (  4096 PWs)   bands (ev):

[...]

     the Fermi energy is    11.6307 ev

!    total energy              =    -441.25027232 Ry
     Harris-Foulkes estimate   =    -441.25029792 Ry
     estimated scf accuracy    <       0.00002795 Ry

     The total energy is the sum of the following terms:

     one-electron contribution =     -87.69847368 Ry
     hartree contribution      =      61.87682524 Ry
     xc contribution           =     -50.14234800 Ry
     ewald contribution        =    -364.78598279 Ry
     smearing contrib. (-TS)   =      -0.50029310 Ry

     convergence has been achieved in  11 iterations

     Forces acting on atoms (Ry/au):

     atom    1 type  1   force =     0.00000000    0.00000000    0.00000000
     atom    2 type  1   force =     0.00000000    0.00000000    0.00000000
     atom    3 type  1   force =     0.00000000    0.00000000    0.00000000
     atom    4 type  1   force =     0.00000000    0.00000000    0.00000000

     Total force =     0.000000     Total SCF correction =     0.000000

     entering subroutine stress ...

          total   stress  (Ry/bohr**3)                   (kbar)     P= -346.91
  -0.00242264   0.00000000   0.00000000       -356.38      0.00      0.00
   0.00000000  -0.00242264   0.00000000          0.00   -356.38      0.00
   0.00000000   0.00000000  -0.00222944          0.00      0.00   -327.96

     BFGS Geometry Optimization

     number of scf cycles    =   1
     number of bfgs steps    =   0

     enthalpy new            =    -441.2502723231 Ry

     new trust radius        =       0.3746502507 bohr
     new conv_thr            =       0.0001000000 Ry

     new unit-cell volume =    797.18758 a.u.^3 (   118.13101 Ang^3 )

CELL_PARAMETERS (alat=  7.00536547)
   0.939434016   0.000000000   0.000000000
  -0.469717008   0.813573723   0.000000000
   0.000000000   0.000000000   3.033925679

ATOMIC_POSITIONS (crystal)
Nd       0.000000000   0.000000000   0.000000000
Nd       0.000000000   0.000000000   0.500000000
Nd       0.333333000   0.666667000   0.250000000
Nd       0.666667000   0.333333000   0.750000000

     Writing output data file Element-Nd.q.save
     NEW-OLD atomic charge density approx. for the potential
     NEW k-points:
        k(    1) = (   0.0000000   0.0000000   0.0000000), wk =   0.0833333
        k(    2) = (   0.0000000   0.0000000   0.0824015), wk =   0.1666667
        k(    3) = (   0.0000000   0.0000000  -0.1648030), wk =   0.0833333
        k(    4) = (   0.0000000   0.4097150   0.0000000), wk =   0.1666667
        k(    5) = (   0.0000000   0.4097150   0.0824015), wk =   0.3333333
        k(    6) = (   0.0000000   0.4097150  -0.1648030), wk =   0.1666667
        k(    7) = (  -0.5322354  -0.3072862   0.0000000), wk =   0.0833333
        k(    8) = (  -0.5322354  -0.3072862   0.0824015), wk =   0.1666667
        k(    9) = (  -0.5322354  -0.3072862  -0.1648030), wk =   0.0833333
        k(   10) = (  -0.5322354   0.1024287   0.0000000), wk =   0.1666667
        k(   11) = (  -0.5322354   0.1024287   0.0824015), wk =   0.3333333
        k(   12) = (  -0.5322354   0.1024287  -0.1648030), wk =   0.1666667

[...]

     enthalpy old            =    -441.2502723231 Ry
     enthalpy new            =    -441.6030202122 Ry

     CASE: enthalpy_new < enthalpy_old

     small trust_radius: resetting bfgs history

[...]

     number of scf cycles    =   3
     number of bfgs steps    =   2

     enthalpy old            =    -441.6030202122 Ry
     enthalpy new            =    -441.8052418685 Ry

     CASE: enthalpy_new < enthalpy_old

     Message from routine bfgs:
     history already reset at previous step: stopping
     small trust_radius: resetting bfgs history

     new trust radius        =       0.2082765914 bohr
     new conv_thr            =       0.0000010000 Ry

     new unit-cell volume =    614.32697 a.u.^3 (    91.03386 Ang^3 )

[...]

ATOMIC_POSITIONS (crystal)
Nd       0.000000000   0.000000000   0.000000000
Nd       0.000000000   0.000000000   0.500000000
Nd       0.333333000   0.666667000   0.250000000
Nd       0.666667000   0.333333000   0.750000000

     Writing output data file Element-Nd.q.save
     NEW-OLD atomic charge density approx. for the potential
     NEW k-points:
        k(    1) = (   0.0000000   0.0000000   0.0000000), wk =   0.0833333
        k(    2) = (   0.0000000   0.0000000   0.0882715), wk =   0.1666667
        k(    3) = (   0.0000000   0.0000000  -0.1765431), wk =   0.0833333
        k(    4) = (   0.0000000   0.4509408   0.0000000), wk =   0.1666667
        k(    5) = (   0.0000000   0.4509408   0.0882715), wk =   0.3333333
        k(    6) = (   0.0000000   0.4509408  -0.1765431), wk =   0.1666667
        k(    7) = (  -0.5857892  -0.3382056   0.0000000), wk =   0.0833333
        k(    8) = (  -0.5857892  -0.3382056   0.0882715), wk =   0.1666667
        k(    9) = (  -0.5857892  -0.3382056  -0.1765431), wk =   0.0833333
        k(   10) = (  -0.5857892   0.1127352   0.0000000), wk =   0.1666667
        k(   11) = (  -0.5857892   0.1127352   0.0882715), wk =   0.3333333
        k(   12) = (  -0.5857892   0.1127352  -0.1765431), wk =   0.1666667

[...]

     The maximum number of steps has been reached.

     End of BFGS Geometry Optimization
Begin final coordinates
     new unit-cell volume =    614.32697 a.u.^3 (    91.03386 Ang^3 )

CELL_PARAMETERS (alat=  7.00536547)
   0.853549329   0.000000000   0.000000000
  -0.426774664   0.739195402   0.000000000
   0.000000000   0.000000000   2.832169955

ATOMIC_POSITIONS (crystal)
Nd       0.000000000   0.000000000   0.000000000
Nd       0.000000000   0.000000000   0.500000000
Nd       0.333333000   0.666667000   0.250000000
Nd       0.666667000   0.333333000   0.750000000
End final coordinates

     A final scf calculation at the relaxed structure.
     The G-vectors are recalculated for the final unit cell
     Results may differ from those at the preceding step.

     bravais-lattice index     =            0
     lattice parameter (alat)  =       7.0054  a.u.
     unit-cell volume          =     614.3270 (a.u.)^3
     number of atoms/cell      =            4
     number of atomic types    =            1
     number of electrons       =        56.00
     number of Kohn-Sham states=           34
     kinetic-energy cutoff     =      40.0000  Ry
     charge density cutoff     =     160.0000  Ry
     convergence threshold     =      1.0E-06
     mixing beta               =       0.7000
     number of iterations used =            8  plain     mixing
     Exchange-correlation      = SLA-PZ-NOGX-NOGC ( 1 1 0 0 0)
     EXX-fraction              =        0.00

     celldm(1)=   7.005365  celldm(2)=   0.000000  celldm(3)=   0.000000
     celldm(4)=   0.000000  celldm(5)=   0.000000  celldm(6)=   0.000000

     crystal axes: (cart. coord. in units of alat)
               a(1) = (   0.853549   0.000000   0.000000 )
               a(2) = (  -0.426775   0.739195   0.000000 )
               a(3) = (   0.000000   0.000000   2.832170 )

     reciprocal axes: (cart. coord. in units 2 pi/alat)
               b(1) = (  1.171578  0.676411  0.000000 )
               b(2) = (  0.000000  1.352822  0.000000 )
               b(3) = (  0.000000  0.000000  0.353086 )

     PseudoPot. # 1 for Nd read from file:
     /home/cwx6513/pp.La/Nd.UPF
     MD5 check sum: c66c5b6abe7b5840ced9b1e244e3bed6
     Pseudo is Norm-conserving, Zval = 14.0
     Generated in analytical, separable form
     Using radial grid of 1257 points,  6 beta functions with:
                l(1) =   0
                l(2) =   0
                l(3) =   1
                l(4) =   1
                l(5) =   2
                l(6) =   3

     atomic species   valence    mass     pseudopotential
        Nd            14.00   144.24000     Nd( 1.00)

     24 Sym. Ops., with inversion, found (12 have fractional translation)

   Cartesian axes

     site n.     atom                  positions (alat units)
         1           Nd  tau(   1) = (   0.0000000   0.0000000   0.0000000  )
         2           Nd  tau(   2) = (   0.0000000   0.0000000   1.4160850  )
         3           Nd  tau(   3) = (  -0.0000004   0.4927972   0.7080425  )
         4           Nd  tau(   4) = (   0.4267751   0.2463982   2.1241275  )

     number of k points=    12  gaussian smearing, width (Ry)=  0.1000
                       cart. coord. in units 2pi/alat
        k(    1) = (   0.0000000   0.0000000   0.0000000), wk =   0.0833333
        k(    2) = (   0.0000000   0.0000000   0.0882715), wk =   0.1666667
        k(    3) = (   0.0000000   0.0000000  -0.1765431), wk =   0.0833333
        k(    4) = (   0.0000000   0.4509408   0.0000000), wk =   0.1666667
        k(    5) = (   0.0000000   0.4509408   0.0882715), wk =   0.3333333
        k(    6) = (   0.0000000   0.4509408  -0.1765431), wk =   0.1666667
        k(    7) = (  -0.5857892  -0.3382056   0.0000000), wk =   0.0833333
        k(    8) = (  -0.5857892  -0.3382056   0.0882715), wk =   0.1666667
        k(    9) = (  -0.5857892  -0.3382056  -0.1765431), wk =   0.0833333
        k(   10) = (  -0.5857892   0.1127352   0.0000000), wk =   0.1666667
        k(   11) = (  -0.5857892   0.1127352   0.0882715), wk =   0.3333333
        k(   12) = (  -0.5857892   0.1127352  -0.1765431), wk =   0.1666667

     Largest allocated arrays     est. size (Mb)     dimensions
     Largest temporary arrays     est. size (Mb)     dimensions

     Initial potential from superposition of free atoms

     Starting from uniform charge
     Starting wfc are    0 randomized atomic wfcs

     Writing output data file Element-Nd.q.save

     Self-consistent Calculation

[...]

     negative rho (up, down):  0.147E-04 0.000E+00

[...]

     iteration # 13     ecut=    40.00 Ry     beta=0.70
     CG style diagonalization
     c_bands:  1 eigenvalues not converged
     ethr =  2.79E-07,  avg # of iterations =  3.7

[...]

     total energy              =    -441.78595853 Ry
     Harris-Foulkes estimate   =    -441.78595962 Ry
     estimated scf accuracy    <       0.00000229 Ry

     iteration # 19     ecut=    40.00 Ry     beta=0.70
     CG style diagonalization
     ethr =  4.08E-09,  avg # of iterations =  3.5

     End of self-consistent calculation

[...]

          k = 0.0000 0.4509-0.1765 (  2620 PWs)   bands (ev):

[...]

          k =-0.5858 0.1127-0.1765 (  2626 PWs)   bands (ev):

   -27.5213 -27.5213 -27.4535 -27.4535  -6.6507  -6.6507  -6.5429  -6.5429
    -5.9354  -5.9354  -5.7292  -5.7292  -5.6322  -5.6322  -5.3562  -5.3562
    16.1621  16.1621  16.6886  16.6886  16.7602  16.7602  18.1928  18.1928
    19.1218  19.1218  19.9874  19.9874  20.5773  20.5773  21.9706  21.9706
    23.0570  23.0570

     the Fermi energy is    20.4179 ev

!    total energy              =    -441.78595873 Ry
     Harris-Foulkes estimate   =    -441.78595883 Ry
     estimated scf accuracy    <       0.00000014 Ry

     The total energy is the sum of the following terms:

     one-electron contribution =      -6.40847761 Ry
     hartree contribution      =      39.65611480 Ry
     xc contribution           =     -51.93315151 Ry
     ewald contribution        =    -422.81788662 Ry
     smearing contrib. (-TS)   =      -0.28255779 Ry

     convergence has been achieved in  19 iterations

     Forces acting on atoms (Ry/au):

     atom    1 type  1   force =     0.00000000    0.00000000    0.00000000
     atom    2 type  1   force =     0.00000000    0.00000000    0.00000000
     atom    3 type  1   force =     0.00000000    0.00000000    0.00000000
     atom    4 type  1   force =     0.00000000    0.00000000    0.00000000

     Total force =     0.000000     Total SCF correction =     0.000000

     entering subroutine stress ...

          total   stress  (Ry/bohr**3)                   (kbar)     P= -162.72
  -0.00138094   0.00000000   0.00000000       -203.14      0.00      0.00
   0.00000000  -0.00138094   0.00000000          0.00   -203.14      0.00
   0.00000000   0.00000000  -0.00055650          0.00      0.00    -81.86

     Writing output data file Element-Nd.q.save

     General routines

     Parallel routines

   This run was terminated on:  23: 0:33  21Mar2018

   JOB DONE.