     Program PWSCF v.5.0.2 starts on 22Mar2018 at 16:17:24

     Current dimensions of program PWSCF are:
     Max number of different atomic species (ntypx) = 10
     Max number of k-points (npk) =  40000
     Max angular momentum in pseudopotentials (lmaxx) =  3
     Waiting for input...
     Reading input from standard input

     Subspace diagonalization in iterative solution of the eigenvalue problem:
     a serial algorithm will be used

     bravais-lattice index     =            0
     lattice parameter (alat)  =       9.9235  a.u.
     unit-cell volume          =    1361.0366 (a.u.)^3
     number of atoms/cell      =           12
     number of atomic types    =            2
     number of electrons       =       228.00
     number of Kohn-Sham states=          137
     kinetic-energy cutoff     =      40.0000  Ry
     charge density cutoff     =     160.0000  Ry
     convergence threshold     =      1.0E-04
     mixing beta               =       0.7000
     number of iterations used =            8  plain     mixing
     Exchange-correlation      = SLA-PZ-NOGX-NOGC ( 1 1 0 0 0)
     EXX-fraction              =        0.00
     nstep                     =           50

     celldm(1)=   9.923489  celldm(2)=   0.000000  celldm(3)=   0.000000
     celldm(4)=   0.000000  celldm(5)=   0.000000  celldm(6)=   0.000000

     crystal axes: (cart. coord. in units of alat)
               a(1) = (   1.000000   0.000000   0.000000 )
               a(2) = (  -0.500000   0.866025   0.000000 )
               a(3) = (   0.000000   0.000000   1.608222 )

     reciprocal axes: (cart. coord. in units 2 pi/alat)
               b(1) = (  1.000000  0.577350  0.000000 )
               b(2) = (  0.000000  1.154701  0.000000 )
               b(3) = (  0.000000  0.000000  0.621805 )

     PseudoPot. # 1 for Pr read from file:
     /home/cwx6513/pp.La/Pr.UPF
     MD5 check sum: 70e2b4b153859e92c8c91247dfc63203
     Pseudo is Norm-conserving, Zval = 13.0
     Generated in analytical, separable form
     Using radial grid of 1255 points,  6 beta functions with:
                l(1) =   0
                l(2) =   0
                l(3) =   1
                l(4) =   1
                l(5) =   2
                l(6) =   3

     PseudoPot. # 2 for Er read from file:
     /home/cwx6513/pp.La/Er.UPF
     MD5 check sum: e152ae21b84514339d8526f066caf99b
     Pseudo is Norm-conserving, Zval = 22.0
     Generated in analytical, separable form
     Using radial grid of 1267 points,  6 beta functions with:
                l(1) =   0
                l(2) =   0
                l(3) =   1
                l(4) =   1
                l(5) =   2
                l(6) =   3

     atomic species   valence    mass     pseudopotential
        Mg            13.00    24.30500     Pr( 1.00)
        Zn            22.00    65.39000     Er( 1.00)

     24 Sym. Ops., with inversion, found (12 have fractional translation)

   Cartesian axes

     site n.     atom                  positions (alat units)
         1           Mg  tau(   1) = (  -0.0000005   0.5773506   0.1003820  )
         2           Mg  tau(   2) = (   0.5000005   0.2886748   0.9044931  )
         3           Mg  tau(   3) = (   0.5000005   0.2886748   1.5078402  )
         4           Mg  tau(   4) = (  -0.0000005   0.5773506   0.7037291  )
         5           Zn  tau(   5) = (   0.0000000   0.0000000   0.0000000  )
         6           Zn  tau(   6) = (   0.0000000   0.0000000   0.8041111  )
         7           Zn  tau(   7) = (   0.0000000   0.2950739   1.2061667  )
         8           Zn  tau(   8) = (   0.7444585   0.1475370   0.4020556  )
         9           Zn  tau(   9) = (   0.2555415   0.1475370   0.4020556  )
        10           Zn  tau(  10) = (   0.2444585   0.7184884   1.2061667  )
        11           Zn  tau(  11) = (  -0.2444585   0.7184884   1.2061667  )
        12           Zn  tau(  12) = (   0.5000000   0.5709515   0.4020556  )

     number of k points=    12  gaussian smearing, width (Ry)=  0.1000
                       cart. coord. in units 2pi/alat
        k(    1) = (   0.0000000   0.0000000   0.0000000), wk =   0.0833333
        k(    2) = (   0.0000000   0.0000000   0.1554512), wk =   0.1666667
        k(    3) = (   0.0000000   0.0000000  -0.3109023), wk =   0.0833333
        k(    4) = (   0.0000000   0.3849002   0.0000000), wk =   0.1666667
        k(    5) = (   0.0000000   0.3849002   0.1554512), wk =   0.3333333
        k(    6) = (   0.0000000   0.3849002  -0.3109023), wk =   0.1666667
        k(    7) = (  -0.5000000  -0.2886751   0.0000000), wk =   0.0833333
        k(    8) = (  -0.5000000  -0.2886751   0.1554512), wk =   0.1666667
        k(    9) = (  -0.5000000  -0.2886751  -0.3109023), wk =   0.0833333
        k(   10) = (  -0.5000000   0.0962250   0.0000000), wk =   0.1666667
        k(   11) = (  -0.5000000   0.0962250   0.1554512), wk =   0.3333333
        k(   12) = (  -0.5000000   0.0962250  -0.3109023), wk =   0.1666667

     Largest allocated arrays     est. size (Mb)     dimensions
     Largest temporary arrays     est. size (Mb)     dimensions

     Initial potential from superposition of free atoms
     Check: negative starting charge=   -0.002087

     starting charge   51.96217, renormalised to  228.00000

     negative rho (up, down):  0.916E-02 0.000E+00
     Starting wfc are   80 randomized atomic wfcs

     Self-consistent Calculation

     iteration #  1     ecut=    40.00 Ry     beta=0.70
     CG style diagonalization
     c_bands:  5 eigenvalues not converged
     c_bands:  5 eigenvalues not converged
     c_bands:  5 eigenvalues not converged
     c_bands:  1 eigenvalues not converged
     c_bands:  1 eigenvalues not converged
     c_bands:  4 eigenvalues not converged
     ethr =  1.00E-02,  avg # of iterations = 38.5

     negative rho (up, down):  0.273E-02 0.000E+00

     total energy              =   -2303.01390217 Ry
     Harris-Foulkes estimate   =   -8207.45048973 Ry
     estimated scf accuracy    <    6879.54052471 Ry

[...]

     iteration #  3     ecut=    40.00 Ry     beta=0.70
     CG style diagonalization
     ethr =  1.00E-02,  avg # of iterations = 17.4

[...]

     End of self-consistent calculation

          k = 0.0000 0.0000 0.0000 (  5769 PWs)   bands (ev):

   -69.8738 -69.8514 -69.8509 -69.7893 -69.7892 -69.7766 -69.7766 -69.7681
   -32.8113 -32.6448 -32.4066 -32.1108 -32.1108 -32.0993 -32.0805 -32.0805
   -31.9635 -31.9635 -31.8388 -31.7584 -31.7583 -31.7499 -31.7499 -31.6504
   -31.6504 -31.6297 -31.6068 -31.6068 -31.5462 -31.5461 -31.5222 -31.5065
    -9.7267  -9.6283  -9.4808  -9.3841   9.3380   9.3816   9.3816   9.3858
     9.4746   9.4746  10.1446  10.2370  10.3783  10.3784  10.3793  10.4049
    10.4049  10.8768  11.6512  12.1258  12.1258  12.3060  12.3060  12.7499
    12.7499  12.8847  13.0195  13.0195  13.8341  14.0848  14.2410  14.2410
    14.7055  14.7055  15.0292  15.2461  15.2461  15.3890  15.3932  15.3932
    15.7180  15.7180  15.7380  15.7563  15.7563  15.7710  15.8267  15.8267
    15.9009  15.9009  16.6943  16.6943  17.0712  17.0712  17.4119  17.5691
    17.5701  19.6145  21.6607  24.0201  24.7202  25.9771  25.9771  26.5718
    26.7553  26.7553  26.7886  26.7886  27.7594  27.7595  28.7532  28.7532
    30.1154  30.1154  30.4201  31.6418  32.9538  33.6710  33.6711  33.8910
    33.8910  34.0877  34.0878  34.1791  34.2612  34.7980  34.7980  35.0561
    35.0561  35.6374  36.0871  36.6239  36.7219  36.8926  36.8926  37.1914
    37.9403  37.9408  38.2871  38.2876  38.3878  38.4063  38.4702  38.5114
    38.5120

[...]

          k =-0.5000-0.2887 0.0000 (  5800 PWs)   bands (ev):

[...]

     the Fermi energy is    33.7449 ev

!    total energy              =   -3001.48469654 Ry
     Harris-Foulkes estimate   =   -3001.48470553 Ry
     estimated scf accuracy    <       0.00001042 Ry

     The total energy is the sum of the following terms:

     one-electron contribution =    -689.58795528 Ry
     hartree contribution      =     530.26062777 Ry
     xc contribution           =    -274.83686703 Ry
     ewald contribution        =   -2566.78139369 Ry
     smearing contrib. (-TS)   =      -0.53910831 Ry

     convergence has been achieved in  12 iterations

     Forces acting on atoms (Ry/au):

     atom    1 type  1   force =     0.00000000    0.00000000    0.03139438
     atom    2 type  1   force =     0.00000000    0.00000000    0.03139438
     atom    3 type  1   force =     0.00000000    0.00000000   -0.03139438
     atom    4 type  1   force =     0.00000000    0.00000000   -0.03139438
     atom    5 type  2   force =     0.00000000    0.00000000    0.00000000
     atom    6 type  2   force =     0.00000000    0.00000000    0.00000000
     atom    7 type  2   force =     0.00000000    0.15817299    0.00000000
     atom    8 type  2   force =    -0.13698182    0.07908649    0.00000000
     atom    9 type  2   force =     0.13698182    0.07908649    0.00000000
     atom   10 type  2   force =    -0.13698182   -0.07908649    0.00000000
     atom   11 type  2   force =     0.13698182   -0.07908649    0.00000000
     atom   12 type  2   force =     0.00000000   -0.15817299    0.00000000

     Total force =     0.392498     Total SCF correction =     0.003584

     entering subroutine stress ...

          total   stress  (Ry/bohr**3)                   (kbar)     P= 1151.02
   0.00776400   0.00000000   0.00000000       1142.12      0.00      0.00
   0.00000000   0.00776400   0.00000000          0.00   1142.12      0.00
   0.00000000   0.00000000   0.00794551          0.00      0.00   1168.82

     BFGS Geometry Optimization

     number of scf cycles    =   1
     number of bfgs steps    =   0

     enthalpy new            =   -3001.4846965393 Ry

     new trust radius        =       0.5000000000 bohr
     new conv_thr            =       0.0001000000 Ry

     new unit-cell volume =   1652.10114 a.u.^3 (   244.81613 Ang^3 )

CELL_PARAMETERS (alat=  9.92348860)
   1.066216937   0.000000000   0.000000000
  -0.533108469   0.923370953   0.000000000
   0.000000000   0.000000000   1.717203317

ATOMIC_POSITIONS (crystal)
Mg       0.333333000   0.666667000   0.063089096
Mg       0.666667000   0.333333000   0.563089096
Mg       0.666667000   0.333333000   0.936910904
Mg       0.333333000   0.666667000   0.436910904
Zn       0.000000000   0.000000000   0.000000000
Zn       0.000000000   0.000000000   0.500000000
Zn       0.173500429   0.347000859   0.750000000
Zn       0.826499571   0.173500429   0.250000000
Zn       0.347000859   0.173500429   0.250000000
Zn       0.652999141   0.826499571   0.750000000
Zn       0.173500429   0.826499571   0.750000000
Zn       0.826499571   0.652999141   0.250000000

     Writing output data file Prototype-La-hP12-MgZn2.save
     Check: negative starting charge=   -0.002087
     NEW-OLD atomic charge density approx. for the potential
     NEW k-points:
        k(    1) = (   0.0000000   0.0000000   0.0000000), wk =   0.0833333
        k(    2) = (   0.0000000   0.0000000   0.1455856), wk =   0.1666667
        k(    3) = (   0.0000000   0.0000000  -0.2911711), wk =   0.0833333
        k(    4) = (   0.0000000   0.3609961   0.0000000), wk =   0.1666667
        k(    5) = (   0.0000000   0.3609961   0.1455856), wk =   0.3333333
        k(    6) = (   0.0000000   0.3609961  -0.2911711), wk =   0.1666667
        k(    7) = (  -0.4689477  -0.2707471   0.0000000), wk =   0.0833333
        k(    8) = (  -0.4689477  -0.2707471   0.1455856), wk =   0.1666667
        k(    9) = (  -0.4689477  -0.2707471  -0.2911711), wk =   0.0833333
        k(   10) = (  -0.4689477   0.0902490   0.0000000), wk =   0.1666667
        k(   11) = (  -0.4689477   0.0902490   0.1455856), wk =   0.3333333
        k(   12) = (  -0.4689477   0.0902490  -0.2911711), wk =   0.1666667
     Check: negative starting charge=   -0.006939

     negative rho (up, down):  0.465E-02 0.000E+00
     extrapolated charge  237.15461, renormalised to  228.00000

[...]

     enthalpy old            =   -3001.4846965393 Ry
     enthalpy new            =   -3002.3441329376 Ry

     CASE: enthalpy_new < enthalpy_old

     small trust_radius: resetting bfgs history

     new trust radius        =       0.2398644831 bohr
     new conv_thr            =       0.0000178161 Ry

[...]

     Writing output data file Prototype-La-hP12-MgZn2.save
     Check: negative starting charge=   -0.006939
     NEW-OLD atomic charge density approx. for the potential
     NEW k-points:
        k(    1) = (   0.0000000   0.0000000   0.0000000), wk =   0.0833333
        k(    2) = (   0.0000000   0.0000000   0.1500119), wk =   0.1666667
        k(    3) = (   0.0000000   0.0000000  -0.3000238), wk =   0.0833333
        k(    4) = (   0.0000000   0.3692218   0.0000000), wk =   0.1666667
        k(    5) = (   0.0000000   0.3692218   0.1500119), wk =   0.3333333
        k(    6) = (   0.0000000   0.3692218  -0.3000238), wk =   0.1666667
        k(    7) = (  -0.4796332  -0.2769163   0.0000000), wk =   0.0833333
        k(    8) = (  -0.4796332  -0.2769163   0.1500119), wk =   0.1666667
        k(    9) = (  -0.4796332  -0.2769163  -0.3000238), wk =   0.0833333
        k(   10) = (  -0.4796332   0.0923054   0.0000000), wk =   0.1666667
        k(   11) = (  -0.4796332   0.0923054   0.1500119), wk =   0.3333333
        k(   12) = (  -0.4796332   0.0923054  -0.3000238), wk =   0.1666667
     Check: negative starting charge=   -0.004541

     negative rho (up, down):  0.566E-01 0.000E+00
     extrapolated charge  223.95234, renormalised to  228.00000

[...]

     number of scf cycles    =   3
     number of bfgs steps    =   2

     enthalpy old            =   -3002.3441329376 Ry
     enthalpy new            =   -3002.3004750126 Ry

     CASE: enthalpy_new > enthalpy_old

     new trust radius        =       0.0881974614 bohr

     trust_radius < trust_radius_min

     resetting bfgs history

     Message from routine bfgs:
     history already reset at previous step: stopping
     new conv_thr            =       0.0000178161 Ry

     new unit-cell volume =   1529.87754 a.u.^3 (   226.70446 Ang^3 )

[...]

ATOMIC_POSITIONS (crystal)
Mg       0.333333000   0.666667000   0.064199145
Mg       0.666667000   0.333333000   0.564199145
Mg       0.666667000   0.333333000   0.935800855
Mg       0.333333000   0.666667000   0.435800855
Zn       0.000000000   0.000000000   0.000000000
Zn       0.000000000   0.000000000   0.500000000
Zn       0.172988022   0.345976043   0.750000000
Zn       0.827011978   0.172988022   0.250000000
Zn       0.345976043   0.172988022   0.250000000
Zn       0.654023957   0.827011978   0.750000000
Zn       0.172988022   0.827011978   0.750000000
Zn       0.827011978   0.654023957   0.250000000

     Writing output data file Prototype-La-hP12-MgZn2.save
     Check: negative starting charge=   -0.004541
     NEW-OLD atomic charge density approx. for the potential
     NEW k-points:
        k(    1) = (   0.0000000   0.0000000   0.0000000), wk =   0.0833333
        k(    2) = (   0.0000000   0.0000000   0.1500814), wk =   0.1666667
        k(    3) = (   0.0000000   0.0000000  -0.3001627), wk =   0.0833333
        k(    4) = (   0.0000000   0.3694778   0.0000000), wk =   0.1666667
        k(    5) = (   0.0000000   0.3694778   0.1500814), wk =   0.3333333
        k(    6) = (   0.0000000   0.3694778  -0.3001627), wk =   0.1666667
        k(    7) = (  -0.4799657  -0.2771083   0.0000000), wk =   0.0833333
        k(    8) = (  -0.4799657  -0.2771083   0.1500814), wk =   0.1666667
        k(    9) = (  -0.4799657  -0.2771083  -0.3001627), wk =   0.0833333
        k(   10) = (  -0.4799657   0.0923694   0.0000000), wk =   0.1666667
        k(   11) = (  -0.4799657   0.0923694   0.1500814), wk =   0.3333333
        k(   12) = (  -0.4799657   0.0923694  -0.3001627), wk =   0.1666667
     Check: negative starting charge=   -0.004462
     extrapolated charge  227.90383, renormalised to  228.00000

[...]

     The maximum number of steps has been reached.

     End of BFGS Geometry Optimization
Begin final coordinates
     new unit-cell volume =   1529.87754 a.u.^3 (   226.70446 Ang^3 )

CELL_PARAMETERS (alat=  9.92348860)
   1.041741148   0.000000000   0.000000000
  -0.520870574   0.902174298   0.000000000
   0.000000000   0.000000000   1.665763246

ATOMIC_POSITIONS (crystal)
Mg       0.333333000   0.666667000   0.064199145
Mg       0.666667000   0.333333000   0.564199145
Mg       0.666667000   0.333333000   0.935800855
Mg       0.333333000   0.666667000   0.435800855
Zn       0.000000000   0.000000000   0.000000000
Zn       0.000000000   0.000000000   0.500000000
Zn       0.172988022   0.345976043   0.750000000
Zn       0.827011978   0.172988022   0.250000000
Zn       0.345976043   0.172988022   0.250000000
Zn       0.654023957   0.827011978   0.750000000
Zn       0.172988022   0.827011978   0.750000000
Zn       0.827011978   0.654023957   0.250000000
End final coordinates

     A final scf calculation at the relaxed structure.
     The G-vectors are recalculated for the final unit cell
     Results may differ from those at the preceding step.

     bravais-lattice index     =            0
     lattice parameter (alat)  =       9.9235  a.u.
     unit-cell volume          =    1529.8775 (a.u.)^3
     number of atoms/cell      =           12
     number of atomic types    =            2
     number of electrons       =       228.00
     number of Kohn-Sham states=          137
     kinetic-energy cutoff     =      40.0000  Ry
     charge density cutoff     =     160.0000  Ry
     convergence threshold     =      1.8E-05
     mixing beta               =       0.7000
     number of iterations used =            8  plain     mixing
     Exchange-correlation      = SLA-PZ-NOGX-NOGC ( 1 1 0 0 0)
     EXX-fraction              =        0.00

     celldm(1)=   9.923489  celldm(2)=   0.000000  celldm(3)=   0.000000
     celldm(4)=   0.000000  celldm(5)=   0.000000  celldm(6)=   0.000000

     crystal axes: (cart. coord. in units of alat)
               a(1) = (   1.041741   0.000000   0.000000 )
               a(2) = (  -0.520871   0.902174   0.000000 )
               a(3) = (   0.000000   0.000000   1.665763 )

     reciprocal axes: (cart. coord. in units 2 pi/alat)
               b(1) = (  0.959931  0.554217  0.000000 )
               b(2) = (  0.000000  1.108433  0.000000 )
               b(3) = (  0.000000  0.000000  0.600325 )

     PseudoPot. # 1 for Pr read from file:
     /home/cwx6513/pp.La/Pr.UPF
     MD5 check sum: 70e2b4b153859e92c8c91247dfc63203
     Pseudo is Norm-conserving, Zval = 13.0
     Generated in analytical, separable form
     Using radial grid of 1255 points,  6 beta functions with:
                l(1) =   0
                l(2) =   0
                l(3) =   1
                l(4) =   1
                l(5) =   2
                l(6) =   3

     PseudoPot. # 2 for Er read from file:
     /home/cwx6513/pp.La/Er.UPF
     MD5 check sum: e152ae21b84514339d8526f066caf99b
     Pseudo is Norm-conserving, Zval = 22.0
     Generated in analytical, separable form
     Using radial grid of 1267 points,  6 beta functions with:
                l(1) =   0
                l(2) =   0
                l(3) =   1
                l(4) =   1
                l(5) =   2
                l(6) =   3

     atomic species   valence    mass     pseudopotential
        Mg            13.00    24.30500     Pr( 1.00)
        Zn            22.00    65.39000     Er( 1.00)

     24 Sym. Ops., with inversion, found (12 have fractional translation)

   Cartesian axes

     site n.     atom                  positions (alat units)
         1           Mg  tau(   1) = (  -0.0000005   0.6014498   0.1069406  )
         2           Mg  tau(   2) = (   0.5208711   0.3007245   0.9398222  )
         3           Mg  tau(   3) = (   0.5208711   0.3007245   1.5588227  )
         4           Mg  tau(   4) = (  -0.0000005   0.6014498   0.7259410  )
         5           Zn  tau(   5) = (   0.0000000   0.0000000   0.0000000  )
         6           Zn  tau(   6) = (   0.0000000   0.0000000   0.8328816  )
         7           Zn  tau(   7) = (   0.0000000   0.3121307   1.2493224  )
         8           Zn  tau(   8) = (   0.7714280   0.1560653   0.4164408  )
         9           Zn  tau(   9) = (   0.2703131   0.1560653   0.4164408  )
        10           Zn  tau(  10) = (   0.2505575   0.7461090   1.2493224  )
        11           Zn  tau(  11) = (  -0.2505575   0.7461090   1.2493224  )
        12           Zn  tau(  12) = (   0.5208706   0.5900436   0.4164408  )

     number of k points=    12  gaussian smearing, width (Ry)=  0.1000
                       cart. coord. in units 2pi/alat
        k(    1) = (   0.0000000   0.0000000   0.0000000), wk =   0.0833333
        k(    2) = (   0.0000000   0.0000000   0.1500814), wk =   0.1666667
        k(    3) = (   0.0000000   0.0000000  -0.3001627), wk =   0.0833333
        k(    4) = (   0.0000000   0.3694778   0.0000000), wk =   0.1666667
        k(    5) = (   0.0000000   0.3694778   0.1500814), wk =   0.3333333
        k(    6) = (   0.0000000   0.3694778  -0.3001627), wk =   0.1666667
        k(    7) = (  -0.4799657  -0.2771083   0.0000000), wk =   0.0833333
        k(    8) = (  -0.4799657  -0.2771083   0.1500814), wk =   0.1666667
        k(    9) = (  -0.4799657  -0.2771083  -0.3001627), wk =   0.0833333
        k(   10) = (  -0.4799657   0.0923694   0.0000000), wk =   0.1666667
        k(   11) = (  -0.4799657   0.0923694   0.1500814), wk =   0.3333333
        k(   12) = (  -0.4799657   0.0923694  -0.3001627), wk =   0.1666667

     Largest allocated arrays     est. size (Mb)     dimensions
     Largest temporary arrays     est. size (Mb)     dimensions

     Initial potential from superposition of free atoms
     Check: negative starting charge=   -0.001169

     starting charge   51.96217, renormalised to  228.00000

     negative rho (up, down):  0.513E-02 0.000E+00
     Starting wfc are   80 randomized atomic wfcs

     Writing output data file Prototype-La-hP12-MgZn2.save

     Self-consistent Calculation

[...]

     negative rho (up, down):  0.688E-04 0.000E+00

[...]

     iteration #  9     ecut=    40.00 Ry     beta=0.70
     CG style diagonalization
     ethr =  3.54E-04,  avg # of iterations =  3.5

[...]

     total energy              =   -3003.36744646 Ry
     Harris-Foulkes estimate   =   -3003.36753769 Ry
     estimated scf accuracy    <       0.00017721 Ry

     iteration # 12     ecut=    40.00 Ry     beta=0.70
     CG style diagonalization
     c_bands:  2 eigenvalues not converged
     ethr =  7.77E-08,  avg # of iterations =  4.0

     End of self-consistent calculation

[...]

          k = 0.0000 0.3695-0.3002 (  6548 PWs)   bands (ev):

[...]

          k =-0.4800 0.0924-0.3002 (  6538 PWs)   bands (ev):

   -73.2750 -73.2749 -73.2628 -73.2628 -73.2430 -73.2429 -73.2358 -73.2358
   -35.7345 -35.7344 -35.5993 -35.5993 -35.4086 -35.4086 -35.3842 -35.3841
   -35.2698 -35.2698 -35.2475 -35.2475 -35.1872 -35.1872 -35.1528 -35.1528
   -35.1153 -35.1153 -35.0782 -35.0782 -35.0702 -35.0702 -35.0631 -35.0631
   -13.6654 -13.6653 -13.5847 -13.5846   5.7053   5.7054   5.7534   5.7534
     5.9599   5.9600   6.2823   6.2824   6.4994   6.4994   6.5265   6.5265
     9.0300   9.0300   9.5970   9.5970   9.8162   9.8162  10.0268  10.0269
    10.0859  10.0859  10.6171  10.6171  10.8059  10.8059  11.0483  11.0483
    11.2810  11.2810  11.3380  11.3380  11.5511  11.5511  11.6499  11.6499
    11.8068  11.8068  12.0697  12.0697  12.1461  12.1462  12.3325  12.3325
    12.3779  12.3779  12.4289  12.4289  12.6534  12.6534  13.1073  13.1073
    16.1950  16.1951  18.0320  18.0321  21.0459  21.0459  21.4025  21.4025
    24.0833  24.0833  24.9506  24.9506  25.4547  25.4547  26.3328  26.3328
    26.5849  26.5849  27.4309  27.4310  28.4155  28.4155  28.9653  28.9653
    29.4742  29.4743  29.7702  29.7703  30.0452  30.0452  30.4962  30.4962
    30.9674  30.9674  32.2238  32.2239  32.4736  32.4737  33.1515  33.1517
    33.6162  33.6162  34.1066  34.1067  34.2182  34.2183  34.9451  34.9464
    35.0477

     the Fermi energy is    29.6432 ev

!    total energy              =   -3003.36748961 Ry
     Harris-Foulkes estimate   =   -3003.36750008 Ry
     estimated scf accuracy    <       0.00001316 Ry

     The total energy is the sum of the following terms:

     one-electron contribution =    -826.97467760 Ry
     hartree contribution      =     568.33475604 Ry
     xc contribution           =    -272.43827978 Ry
     ewald contribution        =   -2471.71634216 Ry
     smearing contrib. (-TS)   =      -0.57294610 Ry

     convergence has been achieved in  12 iterations

     Forces acting on atoms (Ry/au):

     atom    1 type  1   force =     0.00000000    0.00000000    0.01917774
     atom    2 type  1   force =     0.00000000    0.00000000    0.01917774
     atom    3 type  1   force =     0.00000000    0.00000000   -0.01917774
     atom    4 type  1   force =     0.00000000    0.00000000   -0.01917774
     atom    5 type  2   force =     0.00000000    0.00000000    0.00000000
     atom    6 type  2   force =     0.00000000    0.00000000    0.00000000
     atom    7 type  2   force =     0.00000000    0.02472758    0.00000000
     atom    8 type  2   force =    -0.02141471    0.01236379    0.00000000
     atom    9 type  2   force =     0.02141471    0.01236379    0.00000000
     atom   10 type  2   force =    -0.02141471   -0.01236379    0.00000000
     atom   11 type  2   force =     0.02141471   -0.01236379    0.00000000
     atom   12 type  2   force =     0.00000000   -0.02472758    0.00000000

     Total force =     0.071693     Total SCF correction =     0.006069

     entering subroutine stress ...

          total   stress  (Ry/bohr**3)                   (kbar)     P=  500.83
   0.00344882   0.00000000   0.00000000        507.34      0.00      0.00
   0.00000000   0.00344882   0.00000000          0.00    507.34      0.00
   0.00000000   0.00000000   0.00331616          0.00      0.00    487.82

     Writing output data file Prototype-La-hP12-MgZn2.save

     General routines

     Parallel routines

   This run was terminated on:  16:51:13  22Mar2018

   JOB DONE.