     Program PWSCF v.5.0.2 starts on 22Mar2018 at 16:17:25

     Current dimensions of program PWSCF are:
     Max number of different atomic species (ntypx) = 10
     Max number of k-points (npk) =  40000
     Max angular momentum in pseudopotentials (lmaxx) =  3
     Waiting for input...
     Reading input from standard input

     Subspace diagonalization in iterative solution of the eigenvalue problem:
     a serial algorithm will be used

     bravais-lattice index     =            0
     lattice parameter (alat)  =       7.0151  a.u.
     unit-cell volume          =     862.2778 (a.u.)^3
     number of atoms/cell      =           12
     number of atomic types    =            2
     number of electrons       =       192.00
     number of Kohn-Sham states=          115
     kinetic-energy cutoff     =      40.0000  Ry
     charge density cutoff     =     160.0000  Ry
     convergence threshold     =      1.0E-04
     mixing beta               =       0.7000
     number of iterations used =            8  plain     mixing
     Exchange-correlation      = SLA-PZ-NOGX-NOGC ( 1 1 0 0 0)
     EXX-fraction              =        0.00
     nstep                     =           50

     celldm(1)=   7.015105  celldm(2)=   0.000000  celldm(3)=   0.000000
     celldm(4)=   0.000000  celldm(5)=   0.000000  celldm(6)=   0.000000

     crystal axes: (cart. coord. in units of alat)
               a(1) = (   1.000000   0.000000   0.000000 )
               a(2) = (   0.000000   1.315963   0.000000 )
               a(3) = (   0.000000   0.000000   1.898020 )

     reciprocal axes: (cart. coord. in units 2 pi/alat)
               b(1) = (  1.000000  0.000000  0.000000 )
               b(2) = (  0.000000  0.759900  0.000000 )
               b(3) = (  0.000000  0.000000  0.526865 )

     PseudoPot. # 1 for Pr read from file:
     /home/cwx6513/pp.La/Pr.UPF
     MD5 check sum: 70e2b4b153859e92c8c91247dfc63203
     Pseudo is Norm-conserving, Zval = 13.0
     Generated in analytical, separable form
     Using radial grid of 1255 points,  6 beta functions with:
                l(1) =   0
                l(2) =   0
                l(3) =   1
                l(4) =   1
                l(5) =   2
                l(6) =   3

     PseudoPot. # 2 for Er read from file:
     /home/cwx6513/pp.La/Er.UPF
     MD5 check sum: e152ae21b84514339d8526f066caf99b
     Pseudo is Norm-conserving, Zval = 22.0
     Generated in analytical, separable form
     Using radial grid of 1267 points,  6 beta functions with:
                l(1) =   0
                l(2) =   0
                l(3) =   1
                l(4) =   1
                l(5) =   2
                l(6) =   3

     atomic species   valence    mass     pseudopotential
        Co            13.00    58.93320     Pr( 1.00)
        Si            22.00    28.08550     Er( 1.00)

      8 Sym. Ops., with inversion, found ( 6 have fractional translation)

   Cartesian axes

     site n.     atom                  positions (alat units)
         1           Co  tau(   1) = (   0.7500000   1.0875135   0.8270358  )
         2           Co  tau(   2) = (   0.2500000   0.2284499   1.0709846  )
         3           Co  tau(   3) = (   0.7500000   0.4295318   0.1219744  )
         4           Co  tau(   4) = (   0.2500000   0.8864316   1.7760460  )
         5           Co  tau(   5) = (   0.2500000   0.7067855   0.5358966  )
         6           Co  tau(   6) = (   0.7500000   0.6091779   1.3621238  )
         7           Co  tau(   7) = (   0.2500000   0.0488038   0.4131136  )
         8           Co  tau(   8) = (   0.7500000   1.2671596   1.4849068  )
         9           Si  tau(   9) = (   0.2500000   0.2669484   1.6960710  )
        10           Si  tau(  10) = (   0.7500000   1.0490149   0.2019494  )
        11           Si  tau(  11) = (   0.2500000   0.9249301   1.1509596  )
        12           Si  tau(  12) = (   0.7500000   0.3910333   0.7470608  )

     number of k points=    12  gaussian smearing, width (Ry)=  0.1000
                       cart. coord. in units 2pi/alat
        k(    1) = (   0.0000000   0.0000000   0.0000000), wk =   0.0833333
        k(    2) = (   0.0000000   0.0000000   0.1317162), wk =   0.1666667
        k(    3) = (   0.0000000   0.0000000  -0.2634324), wk =   0.0833333
        k(    4) = (   0.0000000   0.2532999   0.0000000), wk =   0.1666667
        k(    5) = (   0.0000000   0.2532999   0.1317162), wk =   0.3333333
        k(    6) = (   0.0000000   0.2532999  -0.2634324), wk =   0.1666667
        k(    7) = (  -0.5000000   0.0000000   0.0000000), wk =   0.0833333
        k(    8) = (  -0.5000000   0.0000000   0.1317162), wk =   0.1666667
        k(    9) = (  -0.5000000   0.0000000  -0.2634324), wk =   0.0833333
        k(   10) = (  -0.5000000   0.2532999   0.0000000), wk =   0.1666667
        k(   11) = (  -0.5000000   0.2532999   0.1317162), wk =   0.3333333
        k(   12) = (  -0.5000000   0.2532999  -0.2634324), wk =   0.1666667

     Largest allocated arrays     est. size (Mb)     dimensions
     Largest temporary arrays     est. size (Mb)     dimensions

     Initial potential from superposition of free atoms

     starting charge  103.92434, renormalised to  192.00000
     Starting wfc are  160 randomized atomic wfcs

     Self-consistent Calculation

     iteration #  1     ecut=    40.00 Ry     beta=0.70
     CG style diagonalization
     ethr =  1.00E-02,  avg # of iterations = 18.7

     total energy              =    -419.64168128 Ry
     Harris-Foulkes estimate   =   -3617.07259763 Ry
     estimated scf accuracy    <    3801.71243269 Ry

[...]

     iteration #  3     ecut=    40.00 Ry     beta=0.70
     CG style diagonalization
     c_bands:  1 eigenvalues not converged
     c_bands:  1 eigenvalues not converged
     c_bands:  1 eigenvalues not converged
     c_bands:  1 eigenvalues not converged
     ethr =  1.00E-02,  avg # of iterations = 13.2

[...]

     End of self-consistent calculation

          k = 0.0000 0.0000 0.0000 (  3675 PWs)   bands (ev):

   -55.2356 -55.2263 -55.2227 -55.2066 -17.7705 -17.7607 -17.7252 -17.7099
   -17.6978 -17.6913 -17.6912 -17.6891 -17.5094 -17.4754 -17.4224 -17.3826
     1.1300   2.6323   3.0171   3.7511   4.1519   4.5972   4.6694   4.9248
    17.3726  17.9774  18.8766  19.2070  19.3236  19.3284  19.6650  20.5243
    20.5702  20.9869  21.3482  21.3741  21.9266  21.9815  22.5392  23.3174
    23.3964  23.5176  24.3012  24.8346  25.2950  26.0379  26.3262  26.6511
    26.7046  27.6333  27.7025  27.8307  27.9527  28.0608  28.1845  28.8016
    28.8971  29.0241  29.0796  29.6330  29.7652  30.4659  30.7645  31.1991
    31.3332  31.3391  31.6713  31.9706  35.7828  37.8412  38.8673  39.1053
    40.1720  40.3068  41.0447  41.9158  42.1144  42.6195  42.9655  42.9967
    43.1017  43.1226  43.1960  43.5680  44.0357  44.9016  45.2753  45.4092
    46.0841  47.6089  47.6548  47.9720  48.2923  48.8724  48.8834  49.9080
    49.9469  50.4074  50.4269  50.5755  50.6768  50.9519  52.1688  52.1919
    52.5759  52.6426  52.7470  52.8514  53.6554  53.7682  53.8049  54.2135
    55.7863  55.8418  56.0608

[...]

          k =-0.5000 0.0000 0.0000 (  3722 PWs)   bands (ev):

[...]

     the Fermi energy is    48.8326 ev

!    total energy              =   -2045.52095309 Ry
     Harris-Foulkes estimate   =   -2045.52097185 Ry
     estimated scf accuracy    <       0.00002318 Ry

     The total energy is the sum of the following terms:

     one-electron contribution =     183.82277450 Ry
     hartree contribution      =     195.78586436 Ry
     xc contribution           =    -222.07021969 Ry
     ewald contribution        =   -2202.70207594 Ry
     smearing contrib. (-TS)   =      -0.35729632 Ry

     convergence has been achieved in  11 iterations

     Forces acting on atoms (Ry/au):

     atom    1 type  1   force =     0.00000000   -0.07157004   -0.05977914
     atom    2 type  1   force =     0.00000000    0.07157004    0.05977914
     atom    3 type  1   force =     0.00000000   -0.07157004    0.05977914
     atom    4 type  1   force =     0.00000000    0.07157004   -0.05977914
     atom    5 type  1   force =     0.00000000    0.20129513   -0.32365270
     atom    6 type  1   force =     0.00000000   -0.20129513    0.32365270
     atom    7 type  1   force =     0.00000000    0.20129513    0.32365270
     atom    8 type  1   force =     0.00000000   -0.20129513   -0.32365270
     atom    9 type  2   force =     0.00000000   -0.21385064    0.00102669
     atom   10 type  2   force =     0.00000000    0.21385064   -0.00102669
     atom   11 type  2   force =     0.00000000   -0.21385064   -0.00102669
     atom   12 type  2   force =     0.00000000    0.21385064    0.00102669

     Total force =     0.893756     Total SCF correction =     0.022737

     entering subroutine stress ...

          total   stress  (Ry/bohr**3)                   (kbar)     P= 6818.75
   0.05047603   0.00000000   0.00000000       7425.28      0.00      0.00
   0.00000000   0.04292367   0.00000000          0.00   6314.29      0.00
   0.00000000   0.00000000   0.04565905          0.00      0.00   6716.68

     BFGS Geometry Optimization

     number of scf cycles    =   1
     number of bfgs steps    =   0

     enthalpy new            =   -2045.5209530939 Ry

     new trust radius        =       0.5000000000 bohr
     new conv_thr            =       0.0001000000 Ry

     new unit-cell volume =   1080.70774 a.u.^3 (   160.14436 Ang^3 )

CELL_PARAMETERS (alat=  7.01510508)
   1.085136619   0.000000000   0.000000000
   0.000000000   1.411236841   0.000000000
   0.000000000   0.000000000   2.044190642

ATOMIC_POSITIONS (crystal)
Co       0.750000000   0.825877948   0.435433095
Co       0.250000000   0.174122052   0.564566905
Co       0.750000000   0.325877948   0.064566905
Co       0.250000000   0.674122052   0.935433095
Co       0.250000000   0.538557115   0.280705032
Co       0.750000000   0.461442885   0.719294968
Co       0.250000000   0.038557115   0.219294968
Co       0.750000000   0.961442885   0.780705032
Si       0.250000000   0.201291127   0.893605202
Si       0.750000000   0.798708873   0.106394798
Si       0.250000000   0.701291127   0.606394798
Si       0.750000000   0.298708873   0.393605202

     Writing output data file Prototype-La-oP12-Co2Si.save
     NEW-OLD atomic charge density approx. for the potential
     NEW k-points:
        k(    1) = (   0.0000000   0.0000000   0.0000000), wk =   0.0833333
        k(    2) = (   0.0000000   0.0000000   0.1222978), wk =   0.1666667
        k(    3) = (   0.0000000   0.0000000  -0.2445956), wk =   0.0833333
        k(    4) = (   0.0000000   0.2361994   0.0000000), wk =   0.1666667
        k(    5) = (   0.0000000   0.2361994   0.1222978), wk =   0.3333333
        k(    6) = (   0.0000000   0.2361994  -0.2445956), wk =   0.1666667
        k(    7) = (  -0.4607715   0.0000000   0.0000000), wk =   0.0833333
        k(    8) = (  -0.4607715   0.0000000   0.1222978), wk =   0.1666667
        k(    9) = (  -0.4607715   0.0000000  -0.2445956), wk =   0.0833333
        k(   10) = (  -0.4607715   0.2361994   0.0000000), wk =   0.1666667
        k(   11) = (  -0.4607715   0.2361994   0.1222978), wk =   0.3333333
        k(   12) = (  -0.4607715   0.2361994  -0.2445956), wk =   0.1666667
     Check: negative starting charge=   -0.010775

     negative rho (up, down):  0.112E-01 0.000E+00
     extrapolated charge  213.00492, renormalised to  192.00000

[...]

     negative rho (up, down):  0.239E-02 0.000E+00

[...]

     enthalpy old            =   -2045.5209530939 Ry
     enthalpy new            =   -2052.1594096298 Ry

     CASE: enthalpy_new < enthalpy_old

     small trust_radius: resetting bfgs history

     new trust radius        =       3.1920628516 bohr
     new conv_thr            =       0.0001000000 Ry

[...]

     Writing output data file Prototype-La-oP12-Co2Si.save
     Check: negative starting charge=   -0.010775
     NEW-OLD atomic charge density approx. for the potential
     NEW k-points:
        k(    1) = (   0.0000000   0.0000000   0.0000000), wk =   0.0833333
        k(    2) = (   0.0000000   0.0000000   0.0851758), wk =   0.1666667
        k(    3) = (   0.0000000   0.0000000  -0.1703516), wk =   0.0833333
        k(    4) = (   0.0000000   0.1694195   0.0000000), wk =   0.1666667
        k(    5) = (   0.0000000   0.1694195   0.0851758), wk =   0.3333333
        k(    6) = (   0.0000000   0.1694195  -0.1703516), wk =   0.1666667
        k(    7) = (  -0.3101798   0.0000000   0.0000000), wk =   0.0833333
        k(    8) = (  -0.3101798   0.0000000   0.0851758), wk =   0.1666667
        k(    9) = (  -0.3101798   0.0000000  -0.1703516), wk =   0.0833333
        k(   10) = (  -0.3101798   0.1694195   0.0000000), wk =   0.1666667
        k(   11) = (  -0.3101798   0.1694195   0.0851758), wk =   0.3333333
        k(   12) = (  -0.3101798   0.1694195  -0.1703516), wk =   0.1666667
     Check: negative starting charge=   -0.001853

[...]

     Total force =     0.071446     Total SCF correction =     0.015206
     SCF correction compared to forces is large: reduce conv_thr to get better values

[...]

          total   stress  (Ry/bohr**3)                   (kbar)     P=-2328.95
  -0.01734418   0.00000000   0.00000000      -2551.42      0.00      0.00
   0.00000000  -0.01452178   0.00000000          0.00  -2136.23      0.00
   0.00000000   0.00000000  -0.01562977          0.00      0.00  -2299.22

     number of scf cycles    =   3
     number of bfgs steps    =   2

     enthalpy old            =   -2052.1594096298 Ry
     enthalpy new            =   -2033.0475811909 Ry

     CASE: enthalpy_new > enthalpy_old

     new trust radius        =       1.0576569872 bohr

     trust_radius < trust_radius_min

     resetting bfgs history

     Message from routine bfgs:
     history already reset at previous step: stopping
     new conv_thr            =       0.0001000000 Ry

     new unit-cell volume =   1271.68151 a.u.^3 (   188.44376 Ang^3 )

[...]

ATOMIC_POSITIONS (crystal)
Co       0.750000000   0.825406482   0.435273609
Co       0.250000000   0.174593518   0.564726391
Co       0.750000000   0.325406482   0.064726391
Co       0.250000000   0.674593518   0.935273609
Co       0.250000000   0.539741342   0.279505265
Co       0.750000000   0.460258658   0.720494735
Co       0.250000000   0.039741342   0.220494735
Co       0.750000000   0.960258658   0.779505265
Si       0.250000000   0.199964036   0.893653397
Si       0.750000000   0.800035964   0.106346603
Si       0.250000000   0.699964036   0.606346603
Si       0.750000000   0.300035964   0.393653397

     Writing output data file Prototype-La-oP12-Co2Si.save
     Check: negative starting charge=   -0.001853
     NEW-OLD atomic charge density approx. for the potential
     NEW k-points:
        k(    1) = (   0.0000000   0.0000000   0.0000000), wk =   0.0833333
        k(    2) = (   0.0000000   0.0000000   0.1159285), wk =   0.1666667
        k(    3) = (   0.0000000   0.0000000  -0.2318570), wk =   0.0833333
        k(    4) = (   0.0000000   0.2256291   0.0000000), wk =   0.1666667
        k(    5) = (   0.0000000   0.2256291   0.1159285), wk =   0.3333333
        k(    6) = (   0.0000000   0.2256291  -0.2318570), wk =   0.1666667
        k(    7) = (  -0.4324419   0.0000000   0.0000000), wk =   0.0833333
        k(    8) = (  -0.4324419   0.0000000   0.1159285), wk =   0.1666667
        k(    9) = (  -0.4324419   0.0000000  -0.2318570), wk =   0.0833333
        k(   10) = (  -0.4324419   0.2256291   0.0000000), wk =   0.1666667
        k(   11) = (  -0.4324419   0.2256291   0.1159285), wk =   0.3333333
        k(   12) = (  -0.4324419   0.2256291  -0.2318570), wk =   0.1666667
     Check: negative starting charge=   -0.022494

     negative rho (up, down):  0.709E+02 0.000E+00
     extrapolated charge   33.29875, renormalised to  192.00000

[...]

     The maximum number of steps has been reached.

     End of BFGS Geometry Optimization
Begin final coordinates
     new unit-cell volume =   1271.68151 a.u.^3 (   188.44376 Ang^3 )

CELL_PARAMETERS (alat=  7.01510508)
   1.156224800   0.000000000   0.000000000
   0.000000000   1.477350966   0.000000000
   0.000000000   0.000000000   2.156501947

ATOMIC_POSITIONS (crystal)
Co       0.750000000   0.825406482   0.435273609
Co       0.250000000   0.174593518   0.564726391
Co       0.750000000   0.325406482   0.064726391
Co       0.250000000   0.674593518   0.935273609
Co       0.250000000   0.539741342   0.279505265
Co       0.750000000   0.460258658   0.720494735
Co       0.250000000   0.039741342   0.220494735
Co       0.750000000   0.960258658   0.779505265
Si       0.250000000   0.199964036   0.893653397
Si       0.750000000   0.800035964   0.106346603
Si       0.250000000   0.699964036   0.606346603
Si       0.750000000   0.300035964   0.393653397
End final coordinates

     A final scf calculation at the relaxed structure.
     The G-vectors are recalculated for the final unit cell
     Results may differ from those at the preceding step.

     bravais-lattice index     =            0
     lattice parameter (alat)  =       7.0151  a.u.
     unit-cell volume          =    1271.6815 (a.u.)^3
     number of atoms/cell      =           12
     number of atomic types    =            2
     number of electrons       =       192.00
     number of Kohn-Sham states=          115
     kinetic-energy cutoff     =      40.0000  Ry
     charge density cutoff     =     160.0000  Ry
     convergence threshold     =      1.0E-04
     mixing beta               =       0.7000
     number of iterations used =            8  plain     mixing
     Exchange-correlation      = SLA-PZ-NOGX-NOGC ( 1 1 0 0 0)
     EXX-fraction              =        0.00

     celldm(1)=   7.015105  celldm(2)=   0.000000  celldm(3)=   0.000000
     celldm(4)=   0.000000  celldm(5)=   0.000000  celldm(6)=   0.000000

     crystal axes: (cart. coord. in units of alat)
               a(1) = (   1.156225   0.000000   0.000000 )
               a(2) = (   0.000000   1.477351   0.000000 )
               a(3) = (   0.000000   0.000000   2.156502 )

     reciprocal axes: (cart. coord. in units 2 pi/alat)
               b(1) = (  0.864884  0.000000  0.000000 )
               b(2) = (  0.000000  0.676887  0.000000 )
               b(3) = (  0.000000  0.000000  0.463714 )

     PseudoPot. # 1 for Pr read from file:
     /home/cwx6513/pp.La/Pr.UPF
     MD5 check sum: 70e2b4b153859e92c8c91247dfc63203
     Pseudo is Norm-conserving, Zval = 13.0
     Generated in analytical, separable form
     Using radial grid of 1255 points,  6 beta functions with:
                l(1) =   0
                l(2) =   0
                l(3) =   1
                l(4) =   1
                l(5) =   2
                l(6) =   3

     PseudoPot. # 2 for Er read from file:
     /home/cwx6513/pp.La/Er.UPF
     MD5 check sum: e152ae21b84514339d8526f066caf99b
     Pseudo is Norm-conserving, Zval = 22.0
     Generated in analytical, separable form
     Using radial grid of 1267 points,  6 beta functions with:
                l(1) =   0
                l(2) =   0
                l(3) =   1
                l(4) =   1
                l(5) =   2
                l(6) =   3

     atomic species   valence    mass     pseudopotential
        Co            13.00    58.93320     Pr( 1.00)
        Si            22.00    28.08550     Er( 1.00)

      8 Sym. Ops., with inversion, found ( 6 have fractional translation)

   Cartesian axes

     site n.     atom                  positions (alat units)
         1           Co  tau(   1) = (   0.8671686   1.2194151   0.9386684  )
         2           Co  tau(   2) = (   0.2890562   0.2579359   1.2178336  )
         3           Co  tau(   3) = (   0.8671686   0.4807396   0.1395826  )
         4           Co  tau(   4) = (   0.2890562   0.9966114   2.0169194  )
         5           Co  tau(   5) = (   0.2890562   0.7973874   0.6027536  )
         6           Co  tau(   6) = (   0.8671686   0.6799636   1.5537483  )
         7           Co  tau(   7) = (   0.2890562   0.0587119   0.4754973  )
         8           Co  tau(   8) = (   0.8671686   1.4186391   1.6810046  )
         9           Si  tau(   9) = (   0.2890562   0.2954171   1.9271653  )
        10           Si  tau(  10) = (   0.8671686   1.1819339   0.2293367  )
        11           Si  tau(  11) = (   0.2890562   1.0340925   1.3075876  )
        12           Si  tau(  12) = (   0.8671686   0.4432584   0.8489143  )

     number of k points=    12  gaussian smearing, width (Ry)=  0.1000
                       cart. coord. in units 2pi/alat
        k(    1) = (   0.0000000   0.0000000   0.0000000), wk =   0.0833333
        k(    2) = (   0.0000000   0.0000000   0.1159285), wk =   0.1666667
        k(    3) = (   0.0000000   0.0000000  -0.2318570), wk =   0.0833333
        k(    4) = (   0.0000000   0.2256291   0.0000000), wk =   0.1666667
        k(    5) = (   0.0000000   0.2256291   0.1159285), wk =   0.3333333
        k(    6) = (   0.0000000   0.2256291  -0.2318570), wk =   0.1666667
        k(    7) = (  -0.4324419   0.0000000   0.0000000), wk =   0.0833333
        k(    8) = (  -0.4324419   0.0000000   0.1159285), wk =   0.1666667
        k(    9) = (  -0.4324419   0.0000000  -0.2318570), wk =   0.0833333
        k(   10) = (  -0.4324419   0.2256291   0.0000000), wk =   0.1666667
        k(   11) = (  -0.4324419   0.2256291   0.1159285), wk =   0.3333333
        k(   12) = (  -0.4324419   0.2256291  -0.2318570), wk =   0.1666667

     Largest allocated arrays     est. size (Mb)     dimensions
     Largest temporary arrays     est. size (Mb)     dimensions

     Initial potential from superposition of free atoms
     Check: negative starting charge=   -0.000904

     starting charge  103.92434, renormalised to  192.00000

     negative rho (up, down):  0.167E-02 0.000E+00
     Starting wfc are  160 randomized atomic wfcs

     Writing output data file Prototype-La-oP12-Co2Si.save

     Self-consistent Calculation

[...]

     negative rho (up, down):  0.406E-04 0.000E+00

[...]

     iteration # 11     ecut=    40.00 Ry     beta=0.70
     CG style diagonalization
     c_bands:  1 eigenvalues not converged
     c_bands:  1 eigenvalues not converged
     ethr =  1.28E-06,  avg # of iterations =  3.7

     total energy              =   -2057.16839056 Ry
     Harris-Foulkes estimate   =   -2057.16846646 Ry
     estimated scf accuracy    <       0.00020619 Ry

     iteration # 12     ecut=    40.00 Ry     beta=0.70
     CG style diagonalization
     ethr =  1.07E-07,  avg # of iterations =  4.3

     End of self-consistent calculation

[...]

          k = 0.0000 0.2256-0.2319 (  5434 PWs)   bands (ev):

[...]

          k =-0.4324 0.2256-0.2319 (  5448 PWs)   bands (ev):

   -69.3557 -69.3557 -69.3503 -69.3503 -31.4423 -31.4423 -31.4415 -31.4415
   -31.4209 -31.4209 -31.4180 -31.4180 -31.3544 -31.3544 -31.3455 -31.3455
   -10.7965 -10.7965 -10.6050 -10.6050 -10.4386 -10.4386 -10.3194 -10.3194
     7.0020   7.0020   7.3631   7.3631   7.5477   7.5477   7.8046   7.8046
     7.8273   7.8273   8.8097   8.8097   9.1484   9.1484   9.4363   9.4363
     9.8021   9.8021   9.8324   9.8324  10.1369  10.1369  10.3472  10.3472
    14.9732  14.9732  14.9880  14.9880  15.1545  15.1545  15.1841  15.1841
    15.4602  15.4602  15.5445  15.5445  15.6582  15.6582  15.6812  15.6812
    15.7745  15.7745  15.8680  15.8680  23.3560  23.3560  24.3754  24.3754
    27.2892  27.2892  27.4071  27.4071  28.0290  28.0290  28.4064  28.4064
    28.5823  28.5823  29.3960  29.3960  29.5301  29.5301  29.9068  29.9068
    30.5375  30.5375  30.9481  30.9481  31.3499  31.3499  32.5355  32.5355
    32.7902  32.7902  33.0799  33.0799  33.7471  33.7471  34.4631  34.4631
    34.7407  34.7407  34.8151  34.8151  35.3968  35.3970  36.2274  36.2274
    38.0146  38.0147  38.6325

     the Fermi energy is    32.5709 ev

!    total energy              =   -2057.16847486 Ry
     Harris-Foulkes estimate   =   -2057.16848080 Ry
     estimated scf accuracy    <       0.00000799 Ry

     The total energy is the sum of the following terms:

     one-electron contribution =    -180.88335648 Ry
     hartree contribution      =     271.59588479 Ry
     xc contribution           =    -211.02574783 Ry
     ewald contribution        =   -1936.37139221 Ry
     smearing contrib. (-TS)   =      -0.48386314 Ry

     convergence has been achieved in  12 iterations

     Forces acting on atoms (Ry/au):

     atom    1 type  1   force =     0.00000000   -0.05143510   -0.00479089
     atom    2 type  1   force =     0.00000000    0.05143510    0.00479089
     atom    3 type  1   force =     0.00000000   -0.05143510    0.00479089
     atom    4 type  1   force =     0.00000000    0.05143510   -0.00479089
     atom    5 type  1   force =     0.00000000    0.08429825   -0.12998692
     atom    6 type  1   force =     0.00000000   -0.08429825    0.12998692
     atom    7 type  1   force =     0.00000000    0.08429825    0.12998692
     atom    8 type  1   force =     0.00000000   -0.08429825   -0.12998692
     atom    9 type  2   force =     0.00000000   -0.08023292    0.00505465
     atom   10 type  2   force =     0.00000000    0.08023292   -0.00505465
     atom   11 type  2   force =     0.00000000   -0.08023292   -0.00505465
     atom   12 type  2   force =     0.00000000    0.08023292    0.00505465

     Total force =     0.364056     Total SCF correction =     0.004336

     entering subroutine stress ...

          total   stress  (Ry/bohr**3)                   (kbar)     P= 1437.27
   0.01078646   0.00000000   0.00000000       1586.74      0.00      0.00
   0.00000000   0.00880488   0.00000000          0.00   1295.24      0.00
   0.00000000   0.00000000   0.00971966          0.00      0.00   1429.81

     Writing output data file Prototype-La-oP12-Co2Si.save

     General routines

     Parallel routines

   This run was terminated on:  16:46:39  22Mar2018

   JOB DONE.