     Program PWSCF v.5.0.2 starts on 22Mar2018 at 17:31: 9

     Current dimensions of program PWSCF are:
     Max number of different atomic species (ntypx) = 10
     Max number of k-points (npk) =  40000
     Max angular momentum in pseudopotentials (lmaxx) =  3
     Waiting for input...
     Reading input from standard input

     Subspace diagonalization in iterative solution of the eigenvalue problem:
     a serial algorithm will be used

     bravais-lattice index     =            0
     lattice parameter (alat)  =       8.5346  a.u.
     unit-cell volume          =     621.6493 (a.u.)^3
     number of atoms/cell      =            8
     number of atomic types    =            2
     number of electrons       =       128.00
     number of Kohn-Sham states=           77
     kinetic-energy cutoff     =      40.0000  Ry
     charge density cutoff     =     160.0000  Ry
     convergence threshold     =      1.0E-04
     mixing beta               =       0.7000
     number of iterations used =            8  plain     mixing
     Exchange-correlation      = SLA-PZ-NOGX-NOGC ( 1 1 0 0 0)
     EXX-fraction              =        0.00
     nstep                     =           50

     celldm(1)=   8.534573  celldm(2)=   0.000000  celldm(3)=   0.000000
     celldm(4)=   0.000000  celldm(5)=   0.000000  celldm(6)=   0.000000

     crystal axes: (cart. coord. in units of alat)
               a(1) = (   1.000000   0.000000   0.000000 )
               a(2) = (   0.000000   1.000000   0.000000 )
               a(3) = (   0.000000   0.000000   1.000000 )

     reciprocal axes: (cart. coord. in units 2 pi/alat)
               b(1) = (  1.000000  0.000000  0.000000 )
               b(2) = (  0.000000  1.000000  0.000000 )
               b(3) = (  0.000000  0.000000  1.000000 )

     PseudoPot. # 1 for Nd read from file:
     /home/cwx6513/pp.La/Nd.UPF
     MD5 check sum: c66c5b6abe7b5840ced9b1e244e3bed6
     Pseudo is Norm-conserving, Zval = 14.0
     Generated in analytical, separable form
     Using radial grid of 1257 points,  6 beta functions with:
                l(1) =   0
                l(2) =   0
                l(3) =   1
                l(4) =   1
                l(5) =   2
                l(6) =   3

     PseudoPot. # 2 for Er read from file:
     /home/cwx6513/pp.La/Er.UPF
     MD5 check sum: e152ae21b84514339d8526f066caf99b
     Pseudo is Norm-conserving, Zval = 22.0
     Generated in analytical, separable form
     Using radial grid of 1267 points,  6 beta functions with:
                l(1) =   0
                l(2) =   0
                l(3) =   1
                l(4) =   1
                l(5) =   2
                l(6) =   3

     atomic species   valence    mass     pseudopotential
        Cr            14.00    51.99610     Nd( 1.00)
        Si            22.00    28.08550     Er( 1.00)

     48 Sym. Ops., with inversion, found (24 have fractional translation)

   Cartesian axes

     site n.     atom                  positions (alat units)
         1           Cr  tau(   1) = (   0.0000000   0.5000000   0.2500000  )
         2           Cr  tau(   2) = (   0.0000000   0.5000000   0.7500000  )
         3           Cr  tau(   3) = (   0.5000000   0.7500000   0.0000000  )
         4           Cr  tau(   4) = (   0.5000000   0.2500000   0.0000000  )
         5           Cr  tau(   5) = (   0.7500000   0.0000000   0.5000000  )
         6           Cr  tau(   6) = (   0.2500000   0.0000000   0.5000000  )
         7           Si  tau(   7) = (   0.5000000   0.5000000   0.5000000  )
         8           Si  tau(   8) = (   0.0000000   0.0000000   0.0000000  )

     number of k points=    48  gaussian smearing, width (Ry)=  0.1000
                       cart. coord. in units 2pi/alat
        k(    1) = (   0.0000000   0.0000000   0.0000000), wk =   0.0095238
        k(    2) = (   0.0000000   0.0000000   0.1428571), wk =   0.0190476
        k(    3) = (   0.0000000   0.0000000   0.2857143), wk =   0.0190476
        k(    4) = (   0.0000000   0.0000000   0.4285714), wk =   0.0190476
        k(    5) = (   0.0000000   0.1666667   0.0000000), wk =   0.0190476
        k(    6) = (   0.0000000   0.1666667   0.1428571), wk =   0.0380952
        k(    7) = (   0.0000000   0.1666667   0.2857143), wk =   0.0380952
        k(    8) = (   0.0000000   0.1666667   0.4285714), wk =   0.0380952
        k(    9) = (   0.0000000   0.3333333   0.0000000), wk =   0.0190476
        k(   10) = (   0.0000000   0.3333333   0.1428571), wk =   0.0380952
        k(   11) = (   0.0000000   0.3333333   0.2857143), wk =   0.0380952
        k(   12) = (   0.0000000   0.3333333   0.4285714), wk =   0.0380952
        k(   13) = (   0.0000000  -0.5000000   0.0000000), wk =   0.0095238
        k(   14) = (   0.0000000  -0.5000000   0.1428571), wk =   0.0190476
        k(   15) = (   0.0000000  -0.5000000   0.2857143), wk =   0.0190476
        k(   16) = (   0.0000000  -0.5000000   0.4285714), wk =   0.0190476
        k(   17) = (   0.2000000   0.0000000   0.0000000), wk =   0.0190476
        k(   18) = (   0.2000000   0.0000000   0.1428571), wk =   0.0380952
        k(   19) = (   0.2000000   0.0000000   0.2857143), wk =   0.0380952
        k(   20) = (   0.2000000   0.0000000   0.4285714), wk =   0.0380952
        k(   21) = (   0.2000000   0.1666667   0.0000000), wk =   0.0380952
        k(   22) = (   0.2000000   0.1666667   0.1428571), wk =   0.0761905
        k(   23) = (   0.2000000   0.1666667   0.2857143), wk =   0.0761905
        k(   24) = (   0.2000000   0.1666667   0.4285714), wk =   0.0761905
        k(   25) = (   0.2000000   0.3333333   0.0000000), wk =   0.0380952
        k(   26) = (   0.2000000   0.3333333   0.1428571), wk =   0.0761905
        k(   27) = (   0.2000000   0.3333333   0.2857143), wk =   0.0761905
        k(   28) = (   0.2000000   0.3333333   0.4285714), wk =   0.0761905
        k(   29) = (   0.2000000  -0.5000000   0.0000000), wk =   0.0190476
        k(   30) = (   0.2000000  -0.5000000   0.1428571), wk =   0.0380952
        k(   31) = (   0.2000000  -0.5000000   0.2857143), wk =   0.0380952
        k(   32) = (   0.2000000  -0.5000000   0.4285714), wk =   0.0380952
        k(   33) = (   0.4000000   0.0000000   0.0000000), wk =   0.0190476
        k(   34) = (   0.4000000   0.0000000   0.1428571), wk =   0.0380952
        k(   35) = (   0.4000000   0.0000000   0.2857143), wk =   0.0380952
        k(   36) = (   0.4000000   0.0000000   0.4285714), wk =   0.0380952
        k(   37) = (   0.4000000   0.1666667   0.0000000), wk =   0.0380952
        k(   38) = (   0.4000000   0.1666667   0.1428571), wk =   0.0761905
        k(   39) = (   0.4000000   0.1666667   0.2857143), wk =   0.0761905
        k(   40) = (   0.4000000   0.1666667   0.4285714), wk =   0.0761905
        k(   41) = (   0.4000000   0.3333333   0.0000000), wk =   0.0380952
        k(   42) = (   0.4000000   0.3333333   0.1428571), wk =   0.0761905
        k(   43) = (   0.4000000   0.3333333   0.2857143), wk =   0.0761905
        k(   44) = (   0.4000000   0.3333333   0.4285714), wk =   0.0761905
        k(   45) = (   0.4000000  -0.5000000   0.0000000), wk =   0.0190476
        k(   46) = (   0.4000000  -0.5000000   0.1428571), wk =   0.0380952
        k(   47) = (   0.4000000  -0.5000000   0.2857143), wk =   0.0380952
        k(   48) = (   0.4000000  -0.5000000   0.4285714), wk =   0.0380952

     Largest allocated arrays     est. size (Mb)     dimensions
     Largest temporary arrays     est. size (Mb)     dimensions

     Initial potential from superposition of free atoms

     Starting from uniform charge
     Starting wfc are    0 randomized atomic wfcs

     Self-consistent Calculation

     iteration #  1     ecut=    40.00 Ry     beta=0.70
     CG style diagonalization
     c_bands:  4 eigenvalues not converged
     c_bands:  1 eigenvalues not converged
     c_bands:  2 eigenvalues not converged
     c_bands:  2 eigenvalues not converged
     c_bands:  1 eigenvalues not converged
     c_bands:  1 eigenvalues not converged
     c_bands:  1 eigenvalues not converged
     c_bands:  1 eigenvalues not converged
     c_bands:  2 eigenvalues not converged
     c_bands:  2 eigenvalues not converged
     c_bands:  1 eigenvalues not converged
     c_bands:  4 eigenvalues not converged
     ethr =  1.00E-02,  avg # of iterations = 14.2

     total energy              =    -838.40344474 Ry
     Harris-Foulkes estimate   =   -1612.06043208 Ry
     estimated scf accuracy    <     926.52326231 Ry

[...]

     iteration #  4     ecut=    40.00 Ry     beta=0.70
     CG style diagonalization
     ethr =  1.00E-02,  avg # of iterations =  3.4

[...]

     End of self-consistent calculation

          k = 0.0000 0.0000 0.0000 (  2601 PWs)   bands (ev):

   -58.0099 -57.9593 -20.2909 -20.2909 -20.2909 -20.2530 -20.2530 -20.2530
    -6.6910  -5.3163  -5.3163  -2.8274  -2.8274  -2.8274  10.6336  10.6336
    11.7661  13.8830  13.8830  13.8830  16.2087  16.2087  16.2087  17.6300
    17.6300  17.6300  17.9846  17.9846  17.9846  22.6019  22.6019  22.6019
    25.4622  25.4622  26.1177  26.1177  26.5894  26.5894  26.5894  27.0982
    27.0982  27.0982  32.0704  32.4264  33.8143  33.8143  33.8143  35.8709
    36.8714  36.8714  36.8714  38.5778  38.5778  38.9003  41.4712  41.4711
    41.4711  41.7558  41.7558  44.3228  44.3228  44.3228  44.6655  44.6655
    44.6655  47.8114  49.3661  49.3659  49.4903  49.4903  49.4904  49.7093
    49.7092  49.7093  50.9604  50.9604  50.9603

[...]

     the Fermi energy is    45.2360 ev

!    total energy              =   -1314.24632857 Ry
     Harris-Foulkes estimate   =   -1314.24634264 Ry
     estimated scf accuracy    <       0.00001736 Ry

     The total energy is the sum of the following terms:

     one-electron contribution =     132.50998435 Ry
     hartree contribution      =     113.74471731 Ry
     xc contribution           =    -144.29948217 Ry
     ewald contribution        =   -1415.95559317 Ry
     smearing contrib. (-TS)   =      -0.24595489 Ry

     convergence has been achieved in   8 iterations

     Forces acting on atoms (Ry/au):

     atom    1 type  1   force =     0.00000000    0.00000000    0.00000000
     atom    2 type  1   force =     0.00000000    0.00000000    0.00000000
     atom    3 type  1   force =     0.00000000    0.00000000    0.00000000
     atom    4 type  1   force =     0.00000000    0.00000000    0.00000000
     atom    5 type  1   force =     0.00000000    0.00000000    0.00000000
     atom    6 type  1   force =     0.00000000    0.00000000    0.00000000
     atom    7 type  2   force =     0.00000000    0.00000000    0.00000000
     atom    8 type  2   force =     0.00000000    0.00000000    0.00000000

     Total force =     0.000000     Total SCF correction =     0.000000

     entering subroutine stress ...

          total   stress  (Ry/bohr**3)                   (kbar)     P= 5138.58
   0.03493136   0.00000000   0.00000000       5138.58      0.00      0.00
   0.00000000   0.03493136   0.00000000          0.00   5138.58      0.00
   0.00000000   0.00000000   0.03493136          0.00      0.00   5138.58

     BFGS Geometry Optimization

[...]

[...]

     enthalpy old            =   -1314.2463285662 Ry
     enthalpy new            =   -1318.1040498865 Ry

     CASE: enthalpy_new < enthalpy_old

     small trust_radius: resetting bfgs history

     new trust radius        =       0.9931439153 bohr
     new conv_thr            =       0.0000010000 Ry

[...]

          total   stress  (Ry/bohr**3)                   (kbar)     P=-1495.55
  -0.01016658   0.00000000   0.00000000      -1495.55      0.00      0.00
   0.00000000  -0.01016658   0.00000000          0.00  -1495.55      0.00
   0.00000000   0.00000000  -0.01016658          0.00      0.00  -1495.55

     number of scf cycles    =   3
     number of bfgs steps    =   2

     enthalpy old            =   -1318.1040498865 Ry
     enthalpy new            =   -1315.9348193128 Ry

     CASE: enthalpy_new > enthalpy_old

     new trust radius        =       0.3102622740 bohr

     trust_radius < trust_radius_min

     resetting bfgs history

     Message from routine bfgs:
     history already reset at previous step: stopping
     new conv_thr            =       0.0000010000 Ry

     new unit-cell volume =   1043.74361 a.u.^3 (   154.66684 Ang^3 )

[...]

ATOMIC_POSITIONS (crystal)
Cr       0.000000000   0.500000000   0.250000000
Cr       0.000000000   0.500000000   0.750000000
Cr       0.500000000   0.750000000   0.000000000
Cr       0.500000000   0.250000000   0.000000000
Cr       0.750000000   0.000000000   0.500000000
Cr       0.250000000   0.000000000   0.500000000
Si       0.500000000   0.500000000   0.500000000
Si       0.000000000   0.000000000   0.000000000

     Writing output data file Prototype-La-cP8-Cr3Si.save
     NEW-OLD atomic charge density approx. for the potential
     NEW k-points:
        k(    1) = (   0.0000000   0.0000000   0.0000000), wk =   0.0095238
        k(    2) = (   0.0000000   0.0000000   0.1201948), wk =   0.0190476
        k(    3) = (   0.0000000   0.0000000   0.2403897), wk =   0.0190476
        k(    4) = (   0.0000000   0.0000000   0.3605845), wk =   0.0190476
        k(    5) = (   0.0000000   0.1402273   0.0000000), wk =   0.0190476
        k(    6) = (   0.0000000   0.1402273   0.1201948), wk =   0.0380952
        k(    7) = (   0.0000000   0.1402273   0.2403897), wk =   0.0380952
        k(    8) = (   0.0000000   0.1402273   0.3605845), wk =   0.0380952
        k(    9) = (   0.0000000   0.2804546   0.0000000), wk =   0.0190476
        k(   10) = (   0.0000000   0.2804546   0.1201948), wk =   0.0380952
        k(   11) = (   0.0000000   0.2804546   0.2403897), wk =   0.0380952
        k(   12) = (   0.0000000   0.2804546   0.3605845), wk =   0.0380952
        k(   13) = (   0.0000000  -0.4206819   0.0000000), wk =   0.0095238
        k(   14) = (   0.0000000  -0.4206819   0.1201948), wk =   0.0190476
        k(   15) = (   0.0000000  -0.4206819   0.2403897), wk =   0.0190476
        k(   16) = (   0.0000000  -0.4206819   0.3605845), wk =   0.0190476
        k(   17) = (   0.1682728   0.0000000   0.0000000), wk =   0.0190476
        k(   18) = (   0.1682728   0.0000000   0.1201948), wk =   0.0380952
        k(   19) = (   0.1682728   0.0000000   0.2403897), wk =   0.0380952
        k(   20) = (   0.1682728   0.0000000   0.3605845), wk =   0.0380952
        k(   21) = (   0.1682728   0.1402273   0.0000000), wk =   0.0380952
        k(   22) = (   0.1682728   0.1402273   0.1201948), wk =   0.0761905
        k(   23) = (   0.1682728   0.1402273   0.2403897), wk =   0.0761905
        k(   24) = (   0.1682728   0.1402273   0.3605845), wk =   0.0761905
        k(   25) = (   0.1682728   0.2804546   0.0000000), wk =   0.0380952
        k(   26) = (   0.1682728   0.2804546   0.1201948), wk =   0.0761905
        k(   27) = (   0.1682728   0.2804546   0.2403897), wk =   0.0761905
        k(   28) = (   0.1682728   0.2804546   0.3605845), wk =   0.0761905
        k(   29) = (   0.1682728  -0.4206819   0.0000000), wk =   0.0190476
        k(   30) = (   0.1682728  -0.4206819   0.1201948), wk =   0.0380952
        k(   31) = (   0.1682728  -0.4206819   0.2403897), wk =   0.0380952
        k(   32) = (   0.1682728  -0.4206819   0.3605845), wk =   0.0380952
        k(   33) = (   0.3365456   0.0000000   0.0000000), wk =   0.0190476
        k(   34) = (   0.3365456   0.0000000   0.1201948), wk =   0.0380952
        k(   35) = (   0.3365456   0.0000000   0.2403897), wk =   0.0380952
        k(   36) = (   0.3365456   0.0000000   0.3605845), wk =   0.0380952
        k(   37) = (   0.3365456   0.1402273   0.0000000), wk =   0.0380952
        k(   38) = (   0.3365456   0.1402273   0.1201948), wk =   0.0761905
        k(   39) = (   0.3365456   0.1402273   0.2403897), wk =   0.0761905
        k(   40) = (   0.3365456   0.1402273   0.3605845), wk =   0.0761905
        k(   41) = (   0.3365456   0.2804546   0.0000000), wk =   0.0380952
        k(   42) = (   0.3365456   0.2804546   0.1201948), wk =   0.0761905
        k(   43) = (   0.3365456   0.2804546   0.2403897), wk =   0.0761905
        k(   44) = (   0.3365456   0.2804546   0.3605845), wk =   0.0761905
        k(   45) = (   0.3365456  -0.4206819   0.0000000), wk =   0.0190476
        k(   46) = (   0.3365456  -0.4206819   0.1201948), wk =   0.0380952
        k(   47) = (   0.3365456  -0.4206819   0.2403897), wk =   0.0380952
        k(   48) = (   0.3365456  -0.4206819   0.3605845), wk =   0.0380952

[...]

     The maximum number of steps has been reached.

     End of BFGS Geometry Optimization
Begin final coordinates
     new unit-cell volume =   1043.74361 a.u.^3 (   154.66684 Ang^3 )

CELL_PARAMETERS (alat=  8.53457320)
   1.188546385   0.000000000   0.000000000
   0.000000000   1.188546385   0.000000000
   0.000000000   0.000000000   1.188546385

ATOMIC_POSITIONS (crystal)
Cr       0.000000000   0.500000000   0.250000000
Cr       0.000000000   0.500000000   0.750000000
Cr       0.500000000   0.750000000   0.000000000
Cr       0.500000000   0.250000000   0.000000000
Cr       0.750000000   0.000000000   0.500000000
Cr       0.250000000   0.000000000   0.500000000
Si       0.500000000   0.500000000   0.500000000
Si       0.000000000   0.000000000   0.000000000
End final coordinates

     A final scf calculation at the relaxed structure.
     The G-vectors are recalculated for the final unit cell
     Results may differ from those at the preceding step.

     bravais-lattice index     =            0
     lattice parameter (alat)  =       8.5346  a.u.
     unit-cell volume          =    1043.7436 (a.u.)^3
     number of atoms/cell      =            8
     number of atomic types    =            2
     number of electrons       =       128.00
     number of Kohn-Sham states=           77
     kinetic-energy cutoff     =      40.0000  Ry
     charge density cutoff     =     160.0000  Ry
     convergence threshold     =      1.0E-06
     mixing beta               =       0.7000
     number of iterations used =            8  plain     mixing
     Exchange-correlation      = SLA-PZ-NOGX-NOGC ( 1 1 0 0 0)
     EXX-fraction              =        0.00

     celldm(1)=   8.534573  celldm(2)=   0.000000  celldm(3)=   0.000000
     celldm(4)=   0.000000  celldm(5)=   0.000000  celldm(6)=   0.000000

     crystal axes: (cart. coord. in units of alat)
               a(1) = (   1.188546   0.000000   0.000000 )
               a(2) = (   0.000000   1.188546   0.000000 )
               a(3) = (   0.000000   0.000000   1.188546 )

     reciprocal axes: (cart. coord. in units 2 pi/alat)
               b(1) = (  0.841364  0.000000  0.000000 )
               b(2) = (  0.000000  0.841364  0.000000 )
               b(3) = (  0.000000  0.000000  0.841364 )

     PseudoPot. # 1 for Nd read from file:
     /home/cwx6513/pp.La/Nd.UPF
     MD5 check sum: c66c5b6abe7b5840ced9b1e244e3bed6
     Pseudo is Norm-conserving, Zval = 14.0
     Generated in analytical, separable form
     Using radial grid of 1257 points,  6 beta functions with:
                l(1) =   0
                l(2) =   0
                l(3) =   1
                l(4) =   1
                l(5) =   2
                l(6) =   3

     PseudoPot. # 2 for Er read from file:
     /home/cwx6513/pp.La/Er.UPF
     MD5 check sum: e152ae21b84514339d8526f066caf99b
     Pseudo is Norm-conserving, Zval = 22.0
     Generated in analytical, separable form
     Using radial grid of 1267 points,  6 beta functions with:
                l(1) =   0
                l(2) =   0
                l(3) =   1
                l(4) =   1
                l(5) =   2
                l(6) =   3

     atomic species   valence    mass     pseudopotential
        Cr            14.00    51.99610     Nd( 1.00)
        Si            22.00    28.08550     Er( 1.00)

     48 Sym. Ops., with inversion, found (24 have fractional translation)

   Cartesian axes

     site n.     atom                  positions (alat units)
         1           Cr  tau(   1) = (   0.0000000   0.5942732   0.2971366  )
         2           Cr  tau(   2) = (   0.0000000   0.5942732   0.8914098  )
         3           Cr  tau(   3) = (   0.5942732   0.8914098   0.0000000  )
         4           Cr  tau(   4) = (   0.5942732   0.2971366   0.0000000  )
         5           Cr  tau(   5) = (   0.8914098   0.0000000   0.5942732  )
         6           Cr  tau(   6) = (   0.2971366   0.0000000   0.5942732  )
         7           Si  tau(   7) = (   0.5942732   0.5942732   0.5942732  )
         8           Si  tau(   8) = (   0.0000000   0.0000000   0.0000000  )

     number of k points=    48  gaussian smearing, width (Ry)=  0.1000
                       cart. coord. in units 2pi/alat
        k(    1) = (   0.0000000   0.0000000   0.0000000), wk =   0.0095238
        k(    2) = (   0.0000000   0.0000000   0.1201948), wk =   0.0190476
        k(    3) = (   0.0000000   0.0000000   0.2403897), wk =   0.0190476
        k(    4) = (   0.0000000   0.0000000   0.3605845), wk =   0.0190476
        k(    5) = (   0.0000000   0.1402273   0.0000000), wk =   0.0190476
        k(    6) = (   0.0000000   0.1402273   0.1201948), wk =   0.0380952
        k(    7) = (   0.0000000   0.1402273   0.2403897), wk =   0.0380952
        k(    8) = (   0.0000000   0.1402273   0.3605845), wk =   0.0380952
        k(    9) = (   0.0000000   0.2804546   0.0000000), wk =   0.0190476
        k(   10) = (   0.0000000   0.2804546   0.1201948), wk =   0.0380952
        k(   11) = (   0.0000000   0.2804546   0.2403897), wk =   0.0380952
        k(   12) = (   0.0000000   0.2804546   0.3605845), wk =   0.0380952
        k(   13) = (   0.0000000  -0.4206819   0.0000000), wk =   0.0095238
        k(   14) = (   0.0000000  -0.4206819   0.1201948), wk =   0.0190476
        k(   15) = (   0.0000000  -0.4206819   0.2403897), wk =   0.0190476
        k(   16) = (   0.0000000  -0.4206819   0.3605845), wk =   0.0190476
        k(   17) = (   0.1682728   0.0000000   0.0000000), wk =   0.0190476
        k(   18) = (   0.1682728   0.0000000   0.1201948), wk =   0.0380952
        k(   19) = (   0.1682728   0.0000000   0.2403897), wk =   0.0380952
        k(   20) = (   0.1682728   0.0000000   0.3605845), wk =   0.0380952
        k(   21) = (   0.1682728   0.1402273   0.0000000), wk =   0.0380952
        k(   22) = (   0.1682728   0.1402273   0.1201948), wk =   0.0761905
        k(   23) = (   0.1682728   0.1402273   0.2403897), wk =   0.0761905
        k(   24) = (   0.1682728   0.1402273   0.3605845), wk =   0.0761905
        k(   25) = (   0.1682728   0.2804546   0.0000000), wk =   0.0380952
        k(   26) = (   0.1682728   0.2804546   0.1201948), wk =   0.0761905
        k(   27) = (   0.1682728   0.2804546   0.2403897), wk =   0.0761905
        k(   28) = (   0.1682728   0.2804546   0.3605845), wk =   0.0761905
        k(   29) = (   0.1682728  -0.4206819   0.0000000), wk =   0.0190476
        k(   30) = (   0.1682728  -0.4206819   0.1201948), wk =   0.0380952
        k(   31) = (   0.1682728  -0.4206819   0.2403897), wk =   0.0380952
        k(   32) = (   0.1682728  -0.4206819   0.3605845), wk =   0.0380952
        k(   33) = (   0.3365456   0.0000000   0.0000000), wk =   0.0190476
        k(   34) = (   0.3365456   0.0000000   0.1201948), wk =   0.0380952
        k(   35) = (   0.3365456   0.0000000   0.2403897), wk =   0.0380952
        k(   36) = (   0.3365456   0.0000000   0.3605845), wk =   0.0380952
        k(   37) = (   0.3365456   0.1402273   0.0000000), wk =   0.0380952
        k(   38) = (   0.3365456   0.1402273   0.1201948), wk =   0.0761905
        k(   39) = (   0.3365456   0.1402273   0.2403897), wk =   0.0761905
        k(   40) = (   0.3365456   0.1402273   0.3605845), wk =   0.0761905
        k(   41) = (   0.3365456   0.2804546   0.0000000), wk =   0.0380952
        k(   42) = (   0.3365456   0.2804546   0.1201948), wk =   0.0761905
        k(   43) = (   0.3365456   0.2804546   0.2403897), wk =   0.0761905
        k(   44) = (   0.3365456   0.2804546   0.3605845), wk =   0.0761905
        k(   45) = (   0.3365456  -0.4206819   0.0000000), wk =   0.0190476
        k(   46) = (   0.3365456  -0.4206819   0.1201948), wk =   0.0380952
        k(   47) = (   0.3365456  -0.4206819   0.2403897), wk =   0.0380952
        k(   48) = (   0.3365456  -0.4206819   0.3605845), wk =   0.0380952

     Largest allocated arrays     est. size (Mb)     dimensions
     Largest temporary arrays     est. size (Mb)     dimensions

     Initial potential from superposition of free atoms

     Starting from uniform charge
     Starting wfc are    0 randomized atomic wfcs

     Writing output data file Prototype-La-cP8-Cr3Si.save

     Self-consistent Calculation

[...]

     iteration #  9     ecut=    40.00 Ry     beta=0.70
     CG style diagonalization
     c_bands:  1 eigenvalues not converged
     ethr =  4.54E-08,  avg # of iterations =  4.2

     total energy              =   -1320.90943748 Ry
     Harris-Foulkes estimate   =   -1320.90944174 Ry
     estimated scf accuracy    <       0.00000631 Ry

     iteration # 10     ecut=    40.00 Ry     beta=0.70
     CG style diagonalization
     ethr =  4.93E-09,  avg # of iterations =  4.1

     End of self-consistent calculation

[...]

          k = 0.3365-0.4207 0.3606 (  4474 PWs)   bands (ev):

   -75.2373 -75.2373 -37.1932 -37.1931 -37.1900 -37.1898 -37.1869 -37.1867
   -22.2700 -22.2460 -22.1715 -22.1707 -22.0989 -22.0731  -1.5701  -1.4283
    -1.2035  -1.1968  -1.0611  -1.0585  -0.8000  -0.7384  -0.5091  -0.4813
    -0.4008  -0.3868  -0.2865  -0.2796  -0.2385  -0.2306  -0.2279  -0.1819
     9.5933   9.5959   9.6087   9.6106   9.6283   9.6391   9.6449   9.6456
     9.6501   9.6537  17.5658  17.5664  20.8710  20.9728  21.2948  21.3297
    21.4344  21.4556  22.5306  22.5325  22.6955  22.7270  22.8501  22.9141
    24.1210  24.1449  24.2271  24.3846  24.4231  24.5418  25.0222  25.0772
    25.7096  25.7648  26.8823  26.9512  27.0154  27.0505  27.3374  27.3856
    27.5901  27.8674  28.1380  28.2648  28.5498

     the Fermi energy is    25.8614 ev

!    total energy              =   -1320.90943988 Ry
     Harris-Foulkes estimate   =   -1320.90944048 Ry
     estimated scf accuracy    <       0.00000068 Ry

     The total energy is the sum of the following terms:

     one-electron contribution =    -174.91408331 Ry
     hartree contribution      =     181.19987638 Ry
     xc contribution           =    -135.52269627 Ry
     ewald contribution        =   -1191.33389419 Ry
     smearing contrib. (-TS)   =      -0.33864249 Ry

     convergence has been achieved in  10 iterations

     Forces acting on atoms (Ry/au):

     atom    1 type  1   force =     0.00000000    0.00000000    0.00000000
     atom    2 type  1   force =     0.00000000    0.00000000    0.00000000
     atom    3 type  1   force =     0.00000000    0.00000000    0.00000000
     atom    4 type  1   force =     0.00000000    0.00000000    0.00000000
     atom    5 type  1   force =     0.00000000    0.00000000    0.00000000
     atom    6 type  1   force =     0.00000000    0.00000000    0.00000000
     atom    7 type  2   force =     0.00000000    0.00000000    0.00000000
     atom    8 type  2   force =     0.00000000    0.00000000    0.00000000

     Total force =     0.000000     Total SCF correction =     0.000000

     entering subroutine stress ...

          total   stress  (Ry/bohr**3)                   (kbar)     P=  200.27
   0.00136140   0.00000000   0.00000000        200.27      0.00      0.00
   0.00000000   0.00136140   0.00000000          0.00    200.27      0.00
   0.00000000   0.00000000   0.00136140          0.00      0.00    200.27

     Writing output data file Prototype-La-cP8-Cr3Si.save

     General routines

     Parallel routines

   This run was terminated on:  17:55:51  22Mar2018

   JOB DONE.