     Program PWSCF v.5.0.2 starts on 22Mar2018 at 17:31: 9

     Current dimensions of program PWSCF are:
     Max number of different atomic species (ntypx) = 10
     Max number of k-points (npk) =  40000
     Max angular momentum in pseudopotentials (lmaxx) =  3
     Waiting for input...
     Reading input from standard input

     Subspace diagonalization in iterative solution of the eigenvalue problem:
     a serial algorithm will be used

     bravais-lattice index     =            0
     lattice parameter (alat)  =       9.9235  a.u.
     unit-cell volume          =    1361.0366 (a.u.)^3
     number of atoms/cell      =           12
     number of atomic types    =            2
     number of electrons       =       232.00
     number of Kohn-Sham states=          139
     kinetic-energy cutoff     =      40.0000  Ry
     charge density cutoff     =     160.0000  Ry
     convergence threshold     =      1.0E-04
     mixing beta               =       0.7000
     number of iterations used =            8  plain     mixing
     Exchange-correlation      = SLA-PZ-NOGX-NOGC ( 1 1 0 0 0)
     EXX-fraction              =        0.00
     nstep                     =           50

     celldm(1)=   9.923489  celldm(2)=   0.000000  celldm(3)=   0.000000
     celldm(4)=   0.000000  celldm(5)=   0.000000  celldm(6)=   0.000000

     crystal axes: (cart. coord. in units of alat)
               a(1) = (   1.000000   0.000000   0.000000 )
               a(2) = (  -0.500000   0.866025   0.000000 )
               a(3) = (   0.000000   0.000000   1.608222 )

     reciprocal axes: (cart. coord. in units 2 pi/alat)
               b(1) = (  1.000000  0.577350  0.000000 )
               b(2) = (  0.000000  1.154701  0.000000 )
               b(3) = (  0.000000  0.000000  0.621805 )

     PseudoPot. # 1 for Nd read from file:
     /home/cwx6513/pp.La/Nd.UPF
     MD5 check sum: c66c5b6abe7b5840ced9b1e244e3bed6
     Pseudo is Norm-conserving, Zval = 14.0
     Generated in analytical, separable form
     Using radial grid of 1257 points,  6 beta functions with:
                l(1) =   0
                l(2) =   0
                l(3) =   1
                l(4) =   1
                l(5) =   2
                l(6) =   3

     PseudoPot. # 2 for Er read from file:
     /home/cwx6513/pp.La/Er.UPF
     MD5 check sum: e152ae21b84514339d8526f066caf99b
     Pseudo is Norm-conserving, Zval = 22.0
     Generated in analytical, separable form
     Using radial grid of 1267 points,  6 beta functions with:
                l(1) =   0
                l(2) =   0
                l(3) =   1
                l(4) =   1
                l(5) =   2
                l(6) =   3

     atomic species   valence    mass     pseudopotential
        Mg            14.00    24.30500     Nd( 1.00)
        Zn            22.00    65.39000     Er( 1.00)

     24 Sym. Ops., with inversion, found (12 have fractional translation)

   Cartesian axes

     site n.     atom                  positions (alat units)
         1           Mg  tau(   1) = (  -0.0000005   0.5773506   0.1003820  )
         2           Mg  tau(   2) = (   0.5000005   0.2886748   0.9044931  )
         3           Mg  tau(   3) = (   0.5000005   0.2886748   1.5078402  )
         4           Mg  tau(   4) = (  -0.0000005   0.5773506   0.7037291  )
         5           Zn  tau(   5) = (   0.0000000   0.0000000   0.0000000  )
         6           Zn  tau(   6) = (   0.0000000   0.0000000   0.8041111  )
         7           Zn  tau(   7) = (   0.0000000   0.2950739   1.2061667  )
         8           Zn  tau(   8) = (   0.7444585   0.1475370   0.4020556  )
         9           Zn  tau(   9) = (   0.2555415   0.1475370   0.4020556  )
        10           Zn  tau(  10) = (   0.2444585   0.7184884   1.2061667  )
        11           Zn  tau(  11) = (  -0.2444585   0.7184884   1.2061667  )
        12           Zn  tau(  12) = (   0.5000000   0.5709515   0.4020556  )

     number of k points=    12  gaussian smearing, width (Ry)=  0.1000
                       cart. coord. in units 2pi/alat
        k(    1) = (   0.0000000   0.0000000   0.0000000), wk =   0.0833333
        k(    2) = (   0.0000000   0.0000000   0.1554512), wk =   0.1666667
        k(    3) = (   0.0000000   0.0000000  -0.3109023), wk =   0.0833333
        k(    4) = (   0.0000000   0.3849002   0.0000000), wk =   0.1666667
        k(    5) = (   0.0000000   0.3849002   0.1554512), wk =   0.3333333
        k(    6) = (   0.0000000   0.3849002  -0.3109023), wk =   0.1666667
        k(    7) = (  -0.5000000  -0.2886751   0.0000000), wk =   0.0833333
        k(    8) = (  -0.5000000  -0.2886751   0.1554512), wk =   0.1666667
        k(    9) = (  -0.5000000  -0.2886751  -0.3109023), wk =   0.0833333
        k(   10) = (  -0.5000000   0.0962250   0.0000000), wk =   0.1666667
        k(   11) = (  -0.5000000   0.0962250   0.1554512), wk =   0.3333333
        k(   12) = (  -0.5000000   0.0962250  -0.3109023), wk =   0.1666667

     Largest allocated arrays     est. size (Mb)     dimensions
     Largest temporary arrays     est. size (Mb)     dimensions

     Initial potential from superposition of free atoms

     Starting from uniform charge
     Starting wfc are    0 randomized atomic wfcs

     Self-consistent Calculation

     iteration #  1     ecut=    40.00 Ry     beta=0.70
     CG style diagonalization
     c_bands:  2 eigenvalues not converged
     c_bands:  1 eigenvalues not converged
     c_bands:  1 eigenvalues not converged
     c_bands:  2 eigenvalues not converged
     c_bands:  1 eigenvalues not converged
     c_bands:  2 eigenvalues not converged
     c_bands:  2 eigenvalues not converged
     c_bands:  2 eigenvalues not converged
     ethr =  1.00E-02,  avg # of iterations = 20.9

     total energy              =   -2020.96201789 Ry
     Harris-Foulkes estimate   =   -4206.18002293 Ry
     estimated scf accuracy    <    2625.43726373 Ry

     iteration #  2     ecut=    40.00 Ry     beta=0.70
     CG style diagonalization
     ethr =  1.00E-02,  avg # of iterations = 19.6

[...]

     End of self-consistent calculation

          k = 0.0000 0.0000 0.0000 (  5769 PWs)   bands (ev):

   -69.7552 -69.7493 -69.7218 -69.6873 -69.6872 -69.6746 -69.6746 -69.6555
   -32.7016 -32.5404 -32.2835 -32.0027 -32.0027 -31.9767 -31.9748 -31.9748
   -31.8432 -31.8432 -31.7316 -31.6514 -31.6514 -31.6216 -31.6216 -31.5442
   -31.5442 -31.5178 -31.4990 -31.4990 -31.4273 -31.4273 -31.4145 -31.3988
   -14.3331 -14.2692 -14.1747 -14.1130   6.6790   6.6981   6.7327   6.7327
     6.7389   6.7390   7.3305   7.3399   7.3684   7.3684   7.4189   7.4189
    10.4482  10.9902  11.4894  12.2412  12.2412  12.4203  12.4203  12.7956
    12.7957  12.8514  13.1360  13.1360  13.8861  14.1798  14.2738  14.2738
    14.6180  14.6180  14.9756  15.2816  15.2816  15.4904  15.4905  15.5198
    15.7995  15.7995  15.8687  15.8921  15.8921  15.9009  15.9529  15.9530
    16.0155  16.0155  16.8098  16.8099  17.1864  17.1865  17.3964  17.6765
    17.6775  19.4262  21.5569  24.1107  24.7469  25.9779  25.9780  26.4033
    26.5850  26.5851  26.6639  26.6639  27.6817  27.6818  28.5598  28.5599
    29.7010  29.7010  30.2116  31.0498  32.5678  33.2427  33.2427  33.3015
    33.3016  33.7944  33.8489  33.9378  33.9378  33.9390  33.9391  34.3223
    34.3223  35.1745  35.5529  36.3442  36.4201  36.4202  36.5105  37.4534
    37.6151  37.6153  38.0494  38.0495  38.1334  38.1334  38.2087  38.2532
    38.2532  38.3395  38.5413

[...]

          k =-0.5000-0.2887 0.0000 (  5800 PWs)   bands (ev):

[...]

     the Fermi energy is    33.7558 ev

!    total energy              =   -3071.49141905 Ry
     Harris-Foulkes estimate   =   -3071.49149683 Ry
     estimated scf accuracy    <       0.00009181 Ry

     The total energy is the sum of the following terms:

     one-electron contribution =    -660.27874469 Ry
     hartree contribution      =     520.39701328 Ry
     xc contribution           =    -280.59738711 Ry
     ewald contribution        =   -2650.44141545 Ry
     smearing contrib. (-TS)   =      -0.57088507 Ry

     convergence has been achieved in  11 iterations

     Forces acting on atoms (Ry/au):

     atom    1 type  1   force =     0.00000000    0.00000000    0.00595827
     atom    2 type  1   force =     0.00000000    0.00000000    0.00595827
     atom    3 type  1   force =     0.00000000    0.00000000   -0.00595827
     atom    4 type  1   force =     0.00000000    0.00000000   -0.00595827
     atom    5 type  2   force =     0.00000000    0.00000000    0.00000000
     atom    6 type  2   force =     0.00000000    0.00000000    0.00000000
     atom    7 type  2   force =     0.00000000    0.17543418    0.00000000
     atom    8 type  2   force =    -0.15193045    0.08771709    0.00000000
     atom    9 type  2   force =     0.15193045    0.08771709    0.00000000
     atom   10 type  2   force =    -0.15193045   -0.08771709    0.00000000
     atom   11 type  2   force =     0.15193045   -0.08771709    0.00000000
     atom   12 type  2   force =     0.00000000   -0.17543418    0.00000000

     Total force =     0.429889     Total SCF correction =     0.000000

     entering subroutine stress ...

          total   stress  (Ry/bohr**3)                   (kbar)     P= 1065.89
   0.00724099   0.00000000   0.00000000       1065.19      0.00      0.00
   0.00000000   0.00724099   0.00000000          0.00   1065.19      0.00
   0.00000000   0.00000000   0.00725531          0.00      0.00   1067.29

     BFGS Geometry Optimization

     number of scf cycles    =   1
     number of bfgs steps    =   0

     enthalpy new            =   -3071.4914190470 Ry

     new trust radius        =       0.5000000000 bohr
     new conv_thr            =       0.0001000000 Ry

     new unit-cell volume =   1656.48684 a.u.^3 (   245.46602 Ang^3 )

CELL_PARAMETERS (alat=  9.92348860)
   1.067631200   0.000000000   0.000000000
  -0.533815600   0.924595741   0.000000000
   0.000000000   0.000000000   1.717203317

ATOMIC_POSITIONS (crystal)
Mg       0.333333000   0.666667000   0.062557482
Mg       0.666667000   0.333333000   0.562557482
Mg       0.666667000   0.333333000   0.937442518
Mg       0.333333000   0.666667000   0.437442518
Zn       0.000000000   0.000000000   0.000000000
Zn       0.000000000   0.000000000   0.500000000
Zn       0.174174277   0.348348554   0.750000000
Zn       0.825825723   0.174174277   0.250000000
Zn       0.348348554   0.174174277   0.250000000
Zn       0.651651446   0.825825723   0.750000000
Zn       0.174174277   0.825825723   0.750000000
Zn       0.825825723   0.651651446   0.250000000

     Writing output data file Prototype-La-hP12-MgZn2.save
     NEW-OLD atomic charge density approx. for the potential
     NEW k-points:
        k(    1) = (   0.0000000   0.0000000   0.0000000), wk =   0.0833333
        k(    2) = (   0.0000000   0.0000000   0.1455856), wk =   0.1666667
        k(    3) = (   0.0000000   0.0000000  -0.2911711), wk =   0.0833333
        k(    4) = (   0.0000000   0.3605179   0.0000000), wk =   0.1666667
        k(    5) = (   0.0000000   0.3605179   0.1455856), wk =   0.3333333
        k(    6) = (   0.0000000   0.3605179  -0.2911711), wk =   0.1666667
        k(    7) = (  -0.4683265  -0.2703884   0.0000000), wk =   0.0833333
        k(    8) = (  -0.4683265  -0.2703884   0.1455856), wk =   0.1666667
        k(    9) = (  -0.4683265  -0.2703884  -0.2911711), wk =   0.0833333
        k(   10) = (  -0.4683265   0.0901295   0.0000000), wk =   0.1666667
        k(   11) = (  -0.4683265   0.0901295   0.1455856), wk =   0.3333333
        k(   12) = (  -0.4683265   0.0901295  -0.2911711), wk =   0.1666667

[...]

     enthalpy old            =   -3071.4914190470 Ry
     enthalpy new            =   -3072.1958305134 Ry

     CASE: enthalpy_new < enthalpy_old

     small trust_radius: resetting bfgs history

     new trust radius        =       0.3555998414 bohr
     new conv_thr            =       0.0000164090 Ry

[...]

     number of scf cycles    =   3
     number of bfgs steps    =   2

     enthalpy old            =   -3072.1958305134 Ry
     enthalpy new            =   -3072.1044512604 Ry

     CASE: enthalpy_new > enthalpy_old

     new trust radius        =       0.1321727767 bohr

     trust_radius < trust_radius_min

     resetting bfgs history

     Message from routine bfgs:
     history already reset at previous step: stopping
     new conv_thr            =       0.0000164090 Ry

     new unit-cell volume =   1473.10795 a.u.^3 (   218.29207 Ang^3 )

[...]

ATOMIC_POSITIONS (crystal)
Mg       0.333333000   0.666667000   0.063610401
Mg       0.666667000   0.333333000   0.563610401
Mg       0.666667000   0.333333000   0.936389599
Mg       0.333333000   0.666667000   0.436389599
Zn       0.000000000   0.000000000   0.000000000
Zn       0.000000000   0.000000000   0.500000000
Zn       0.173830797   0.347661595   0.750000000
Zn       0.826169203   0.173830797   0.250000000
Zn       0.347661595   0.173830797   0.250000000
Zn       0.652338405   0.826169203   0.750000000
Zn       0.173830797   0.826169203   0.750000000
Zn       0.826169203   0.652338405   0.250000000

     Writing output data file Prototype-La-hP12-MgZn2.save
     NEW-OLD atomic charge density approx. for the potential
     NEW k-points:
        k(    1) = (   0.0000000   0.0000000   0.0000000), wk =   0.0833333
        k(    2) = (   0.0000000   0.0000000   0.1524031), wk =   0.1666667
        k(    3) = (   0.0000000   0.0000000  -0.3048062), wk =   0.0833333
        k(    4) = (   0.0000000   0.3736507   0.0000000), wk =   0.1666667
        k(    5) = (   0.0000000   0.3736507   0.1524031), wk =   0.3333333
        k(    6) = (   0.0000000   0.3736507  -0.3048062), wk =   0.1666667
        k(    7) = (  -0.4853865  -0.2802380   0.0000000), wk =   0.0833333
        k(    8) = (  -0.4853865  -0.2802380   0.1524031), wk =   0.1666667
        k(    9) = (  -0.4853865  -0.2802380  -0.3048062), wk =   0.0833333
        k(   10) = (  -0.4853865   0.0934127   0.0000000), wk =   0.1666667
        k(   11) = (  -0.4853865   0.0934127   0.1524031), wk =   0.3333333
        k(   12) = (  -0.4853865   0.0934127  -0.3048062), wk =   0.1666667

[...]

     The maximum number of steps has been reached.

     End of BFGS Geometry Optimization
Begin final coordinates
     new unit-cell volume =   1473.10795 a.u.^3 (   218.29207 Ang^3 )

CELL_PARAMETERS (alat=  9.92348860)
   1.030106970   0.000000000   0.000000000
  -0.515053485   0.892098805   0.000000000
   0.000000000   0.000000000   1.640386422

ATOMIC_POSITIONS (crystal)
Mg       0.333333000   0.666667000   0.063610401
Mg       0.666667000   0.333333000   0.563610401
Mg       0.666667000   0.333333000   0.936389599
Mg       0.333333000   0.666667000   0.436389599
Zn       0.000000000   0.000000000   0.000000000
Zn       0.000000000   0.000000000   0.500000000
Zn       0.173830797   0.347661595   0.750000000
Zn       0.826169203   0.173830797   0.250000000
Zn       0.347661595   0.173830797   0.250000000
Zn       0.652338405   0.826169203   0.750000000
Zn       0.173830797   0.826169203   0.750000000
Zn       0.826169203   0.652338405   0.250000000
End final coordinates

     A final scf calculation at the relaxed structure.
     The G-vectors are recalculated for the final unit cell
     Results may differ from those at the preceding step.

     bravais-lattice index     =            0
     lattice parameter (alat)  =       9.9235  a.u.
     unit-cell volume          =    1473.1080 (a.u.)^3
     number of atoms/cell      =           12
     number of atomic types    =            2
     number of electrons       =       232.00
     number of Kohn-Sham states=          139
     kinetic-energy cutoff     =      40.0000  Ry
     charge density cutoff     =     160.0000  Ry
     convergence threshold     =      1.6E-05
     mixing beta               =       0.7000
     number of iterations used =            8  plain     mixing
     Exchange-correlation      = SLA-PZ-NOGX-NOGC ( 1 1 0 0 0)
     EXX-fraction              =        0.00

     celldm(1)=   9.923489  celldm(2)=   0.000000  celldm(3)=   0.000000
     celldm(4)=   0.000000  celldm(5)=   0.000000  celldm(6)=   0.000000

     crystal axes: (cart. coord. in units of alat)
               a(1) = (   1.030107   0.000000   0.000000 )
               a(2) = (  -0.515053   0.892099   0.000000 )
               a(3) = (   0.000000   0.000000   1.640386 )

     reciprocal axes: (cart. coord. in units 2 pi/alat)
               b(1) = (  0.970773  0.560476  0.000000 )
               b(2) = (  0.000000  1.120952  0.000000 )
               b(3) = (  0.000000  0.000000  0.609612 )

     PseudoPot. # 1 for Nd read from file:
     /home/cwx6513/pp.La/Nd.UPF
     MD5 check sum: c66c5b6abe7b5840ced9b1e244e3bed6
     Pseudo is Norm-conserving, Zval = 14.0
     Generated in analytical, separable form
     Using radial grid of 1257 points,  6 beta functions with:
                l(1) =   0
                l(2) =   0
                l(3) =   1
                l(4) =   1
                l(5) =   2
                l(6) =   3

     PseudoPot. # 2 for Er read from file:
     /home/cwx6513/pp.La/Er.UPF
     MD5 check sum: e152ae21b84514339d8526f066caf99b
     Pseudo is Norm-conserving, Zval = 22.0
     Generated in analytical, separable form
     Using radial grid of 1267 points,  6 beta functions with:
                l(1) =   0
                l(2) =   0
                l(3) =   1
                l(4) =   1
                l(5) =   2
                l(6) =   3

     atomic species   valence    mass     pseudopotential
        Mg            14.00    24.30500     Nd( 1.00)
        Zn            22.00    65.39000     Er( 1.00)

     24 Sym. Ops., with inversion, found (12 have fractional translation)

   Cartesian axes

     site n.     atom                  positions (alat units)
         1           Mg  tau(   1) = (  -0.0000005   0.5947328   0.1043456  )
         2           Mg  tau(   2) = (   0.5150540   0.2973660   0.9245388  )
         3           Mg  tau(   3) = (   0.5150540   0.2973660   1.5360408  )
         4           Mg  tau(   4) = (  -0.0000005   0.5947328   0.7158476  )
         5           Zn  tau(   5) = (   0.0000000   0.0000000   0.0000000  )
         6           Zn  tau(   6) = (   0.0000000   0.0000000   0.8201932  )
         7           Zn  tau(   7) = (   0.0000000   0.3101485   1.2302898  )
         8           Zn  tau(   8) = (   0.7615105   0.1550742   0.4100966  )
         9           Zn  tau(   9) = (   0.2685965   0.1550742   0.4100966  )
        10           Zn  tau(  10) = (   0.2464570   0.7370246   1.2302898  )
        11           Zn  tau(  11) = (  -0.2464570   0.7370246   1.2302898  )
        12           Zn  tau(  12) = (   0.5150535   0.5819503   0.4100966  )

     number of k points=    12  gaussian smearing, width (Ry)=  0.1000
                       cart. coord. in units 2pi/alat
        k(    1) = (   0.0000000   0.0000000   0.0000000), wk =   0.0833333
        k(    2) = (   0.0000000   0.0000000   0.1524031), wk =   0.1666667
        k(    3) = (   0.0000000   0.0000000  -0.3048062), wk =   0.0833333
        k(    4) = (   0.0000000   0.3736507   0.0000000), wk =   0.1666667
        k(    5) = (   0.0000000   0.3736507   0.1524031), wk =   0.3333333
        k(    6) = (   0.0000000   0.3736507  -0.3048062), wk =   0.1666667
        k(    7) = (  -0.4853865  -0.2802380   0.0000000), wk =   0.0833333
        k(    8) = (  -0.4853865  -0.2802380   0.1524031), wk =   0.1666667
        k(    9) = (  -0.4853865  -0.2802380  -0.3048062), wk =   0.0833333
        k(   10) = (  -0.4853865   0.0934127   0.0000000), wk =   0.1666667
        k(   11) = (  -0.4853865   0.0934127   0.1524031), wk =   0.3333333
        k(   12) = (  -0.4853865   0.0934127  -0.3048062), wk =   0.1666667

     Largest allocated arrays     est. size (Mb)     dimensions
     Largest temporary arrays     est. size (Mb)     dimensions

     Initial potential from superposition of free atoms

     Starting from uniform charge
     Starting wfc are    0 randomized atomic wfcs

     Writing output data file Prototype-La-hP12-MgZn2.save

     Self-consistent Calculation

[...]

     iteration # 11     ecut=    40.00 Ry     beta=0.70
     CG style diagonalization
     c_bands:  1 eigenvalues not converged
     c_bands:  1 eigenvalues not converged
     ethr =  2.04E-07,  avg # of iterations =  4.3

     total energy              =   -3072.79201419 Ry
     Harris-Foulkes estimate   =   -3072.79208148 Ry
     estimated scf accuracy    <       0.00014644 Ry

     iteration # 12     ecut=    40.00 Ry     beta=0.70
     CG style diagonalization
     ethr =  6.31E-08,  avg # of iterations =  3.5

     End of self-consistent calculation

[...]

          k = 0.0000 0.3737-0.3048 (  6280 PWs)   bands (ev):

[...]

          k =-0.4854 0.0934-0.3048 (  6288 PWs)   bands (ev):

   -72.1367 -72.1367 -72.1174 -72.1174 -72.0836 -72.0836 -72.0749 -72.0749
   -34.6625 -34.6625 -34.4967 -34.4967 -34.2847 -34.2847 -34.2639 -34.2639
   -34.1375 -34.1375 -34.1062 -34.1062 -34.0466 -34.0465 -34.0012 -34.0012
   -33.9491 -33.9491 -33.9154 -33.9154 -33.9066 -33.9066 -33.8917 -33.8917
   -17.0603 -17.0603 -17.0002 -17.0002   4.0411   4.0411   4.0968   4.0968
     4.2581   4.2582   4.5075   4.5076   4.6804   4.6805   4.7031   4.7031
     9.9314   9.9314  10.5349  10.5349  10.7881  10.7881  10.9931  10.9931
    11.0705  11.0705  11.5975  11.5976  11.8483  11.8484  12.0949  12.0949
    12.3334  12.3334  12.3931  12.3931  12.6478  12.6478  12.7462  12.7462
    12.9313  12.9313  13.2187  13.2187  13.3100  13.3100  13.5106  13.5106
    13.5541  13.5541  13.6216  13.6216  13.8312  13.8312  14.3491  14.3491
    17.1483  17.1483  18.9988  18.9988  22.0710  22.0710  22.5293  22.5293
    25.0778  25.0779  25.9076  25.9076  26.4162  26.4162  27.1306  27.1306
    27.3366  27.3366  28.1555  28.1555  29.1850  29.1850  29.7583  29.7583
    30.2174  30.2174  30.4075  30.4075  31.1058  31.1058  31.4228  31.4228
    31.7901  31.7901  33.1927  33.1927  33.4090  33.4090  34.2010  34.2010
    34.7582  34.7583  35.1938  35.1940  35.3515  35.3515  36.0234  36.0235
    36.1787  36.1788  36.7229

     the Fermi energy is    30.8968 ev

!    total energy              =   -3072.79203997 Ry
     Harris-Foulkes estimate   =   -3072.79204612 Ry
     estimated scf accuracy    <       0.00000708 Ry

     The total energy is the sum of the following terms:

     one-electron contribution =    -753.64087219 Ry
     hartree contribution      =     545.45040415 Ry
     xc contribution           =    -278.92393532 Ry
     ewald contribution        =   -2585.07762001 Ry
     smearing contrib. (-TS)   =      -0.60001660 Ry

     convergence has been achieved in  12 iterations

     Forces acting on atoms (Ry/au):

     atom    1 type  1   force =     0.00000000    0.00000000    0.01709625
     atom    2 type  1   force =     0.00000000    0.00000000    0.01709625
     atom    3 type  1   force =     0.00000000    0.00000000   -0.01709625
     atom    4 type  1   force =     0.00000000    0.00000000   -0.01709625
     atom    5 type  2   force =     0.00000000    0.00000000    0.00000000
     atom    6 type  2   force =     0.00000000    0.00000000    0.00000000
     atom    7 type  2   force =     0.00000000   -0.01208111    0.00000000
     atom    8 type  2   force =     0.01046255   -0.00604055    0.00000000
     atom    9 type  2   force =    -0.01046255   -0.00604055    0.00000000
     atom   10 type  2   force =     0.01046255    0.00604055    0.00000000
     atom   11 type  2   force =    -0.01046255    0.00604055    0.00000000
     atom   12 type  2   force =     0.00000000    0.01208111    0.00000000

     Total force =     0.045220     Total SCF correction =     0.000000

     entering subroutine stress ...

          total   stress  (Ry/bohr**3)                   (kbar)     P=  603.73
   0.00421091   0.00000000   0.00000000        619.45      0.00      0.00
   0.00000000   0.00421091   0.00000000          0.00    619.45      0.00
   0.00000000   0.00000000   0.00389049          0.00      0.00    572.31

     Writing output data file Prototype-La-hP12-MgZn2.save

     General routines

     Parallel routines

   This run was terminated on:  18: 4:20  22Mar2018

   JOB DONE.