     Program PWSCF v.5.0.2 starts on 22Mar2018 at 22:48:59

     Current dimensions of program PWSCF are:
     Max number of different atomic species (ntypx) = 10
     Max number of k-points (npk) =  40000
     Max angular momentum in pseudopotentials (lmaxx) =  3
     Waiting for input...
     Reading input from standard input

     Subspace diagonalization in iterative solution of the eigenvalue problem:
     a serial algorithm will be used

     bravais-lattice index     =            0
     lattice parameter (alat)  =       9.9235  a.u.
     unit-cell volume          =    1361.0366 (a.u.)^3
     number of atoms/cell      =           12
     number of atomic types    =            2
     number of electrons       =       200.00
     number of Kohn-Sham states=          120
     kinetic-energy cutoff     =      40.0000  Ry
     charge density cutoff     =     160.0000  Ry
     convergence threshold     =      1.0E-04
     mixing beta               =       0.7000
     number of iterations used =            8  plain     mixing
     Exchange-correlation      = SLA-PZ-NOGX-NOGC ( 1 1 0 0 0)
     EXX-fraction              =        0.00
     nstep                     =           50

     celldm(1)=   9.923489  celldm(2)=   0.000000  celldm(3)=   0.000000
     celldm(4)=   0.000000  celldm(5)=   0.000000  celldm(6)=   0.000000

     crystal axes: (cart. coord. in units of alat)
               a(1) = (   1.000000   0.000000   0.000000 )
               a(2) = (  -0.500000   0.866025   0.000000 )
               a(3) = (   0.000000   0.000000   1.608222 )

     reciprocal axes: (cart. coord. in units 2 pi/alat)
               b(1) = (  1.000000  0.577350  0.000000 )
               b(2) = (  0.000000  1.154701  0.000000 )
               b(3) = (  0.000000  0.000000  0.621805 )

     PseudoPot. # 1 for Gd read from file:
     /home/cwx6513/pp.La/Gd.UPF
     MD5 check sum: 09a8be538722f05520810cb6aac0efd2
     Pseudo is Norm-conserving, Zval = 18.0
     Generated in analytical, separable form
     Using radial grid of 1263 points,  6 beta functions with:
                l(1) =   0
                l(2) =   0
                l(3) =   1
                l(4) =   1
                l(5) =   2
                l(6) =   3

     PseudoPot. # 2 for Sm read from file:
     /home/cwx6513/pp.La/Sm.UPF
     MD5 check sum: 5079e8b144a06bfcdbc14fb02b96ab09
     Pseudo is Norm-conserving, Zval = 16.0
     Generated in analytical, separable form
     Using radial grid of 1259 points,  6 beta functions with:
                l(1) =   0
                l(2) =   0
                l(3) =   1
                l(4) =   1
                l(5) =   2
                l(6) =   3

     atomic species   valence    mass     pseudopotential
        Mg            18.00    24.30500     Gd( 1.00)
        Zn            16.00    65.39000     Sm( 1.00)

     24 Sym. Ops., with inversion, found (12 have fractional translation)

   Cartesian axes

     site n.     atom                  positions (alat units)
         1           Mg  tau(   1) = (  -0.0000005   0.5773506   0.1003820  )
         2           Mg  tau(   2) = (   0.5000005   0.2886748   0.9044931  )
         3           Mg  tau(   3) = (   0.5000005   0.2886748   1.5078402  )
         4           Mg  tau(   4) = (  -0.0000005   0.5773506   0.7037291  )
         5           Zn  tau(   5) = (   0.0000000   0.0000000   0.0000000  )
         6           Zn  tau(   6) = (   0.0000000   0.0000000   0.8041111  )
         7           Zn  tau(   7) = (   0.0000000   0.2950739   1.2061667  )
         8           Zn  tau(   8) = (   0.7444585   0.1475370   0.4020556  )
         9           Zn  tau(   9) = (   0.2555415   0.1475370   0.4020556  )
        10           Zn  tau(  10) = (   0.2444585   0.7184884   1.2061667  )
        11           Zn  tau(  11) = (  -0.2444585   0.7184884   1.2061667  )
        12           Zn  tau(  12) = (   0.5000000   0.5709515   0.4020556  )

     number of k points=    12  gaussian smearing, width (Ry)=  0.1000
                       cart. coord. in units 2pi/alat
        k(    1) = (   0.0000000   0.0000000   0.0000000), wk =   0.0833333
        k(    2) = (   0.0000000   0.0000000   0.1554512), wk =   0.1666667
        k(    3) = (   0.0000000   0.0000000  -0.3109023), wk =   0.0833333
        k(    4) = (   0.0000000   0.3849002   0.0000000), wk =   0.1666667
        k(    5) = (   0.0000000   0.3849002   0.1554512), wk =   0.3333333
        k(    6) = (   0.0000000   0.3849002  -0.3109023), wk =   0.1666667
        k(    7) = (  -0.5000000  -0.2886751   0.0000000), wk =   0.0833333
        k(    8) = (  -0.5000000  -0.2886751   0.1554512), wk =   0.1666667
        k(    9) = (  -0.5000000  -0.2886751  -0.3109023), wk =   0.0833333
        k(   10) = (  -0.5000000   0.0962250   0.0000000), wk =   0.1666667
        k(   11) = (  -0.5000000   0.0962250   0.1554512), wk =   0.3333333
        k(   12) = (  -0.5000000   0.0962250  -0.3109023), wk =   0.1666667

     Largest allocated arrays     est. size (Mb)     dimensions
     Largest temporary arrays     est. size (Mb)     dimensions

     Initial potential from superposition of free atoms

     Starting from uniform charge
     Starting wfc are    0 randomized atomic wfcs

     Self-consistent Calculation

     iteration #  1     ecut=    40.00 Ry     beta=0.70
     CG style diagonalization
     c_bands:  1 eigenvalues not converged
     c_bands:  1 eigenvalues not converged
     c_bands:  1 eigenvalues not converged
     c_bands:  3 eigenvalues not converged
     c_bands:  2 eigenvalues not converged
     c_bands:  1 eigenvalues not converged
     c_bands:  2 eigenvalues not converged
     c_bands:  1 eigenvalues not converged
     ethr =  1.00E-02,  avg # of iterations = 12.7

     total energy              =   -1892.94866207 Ry
     Harris-Foulkes estimate   =   -2306.43345514 Ry
     estimated scf accuracy    <     547.19033752 Ry

     iteration #  2     ecut=    40.00 Ry     beta=0.70
     CG style diagonalization
     ethr =  1.00E-02,  avg # of iterations =  8.2

[...]

     End of self-consistent calculation

          k = 0.0000 0.0000 0.0000 (  5769 PWs)   bands (ev):

   -39.6779 -39.6724 -39.6587 -39.6468 -29.7588 -29.5434 -29.1683 -28.9287
   -28.8810 -28.8810 -28.8793 -28.8793 -10.7638 -10.7622 -10.7622 -10.7579
   -10.7244 -10.7243 -10.6147 -10.6125 -10.5996 -10.5996 -10.5813 -10.5813
    -7.5059  -6.9412  -6.2620  -5.4378  -5.4378  -5.2808  -5.2808  -5.1748
    -5.1747  -4.6986  -4.2429  -4.2413  -4.2412  -4.1893  -4.1892  -3.2501
    -3.2482  -3.2451  -3.2450  -3.2361  -3.0570  -3.0569  -2.9555  -2.9555
    19.0823  19.9486  19.9697  20.7973  21.0950  21.0950  21.7069  21.7316
    21.7538  21.7538  21.8287  21.8287  22.2886  22.2886  22.3413  22.3817
    22.3817  22.5905  22.9644  22.9645  23.5423  23.5424  23.7156  24.1996
    24.1997  24.7394  24.7394  24.7921  24.8058  24.8058  24.9155  24.9155
    25.2162  25.2162  25.3540  25.3540  25.8584  25.8584  26.0032  26.4929
    26.9423  27.8982  27.9002  27.9003  28.0203  28.0203  28.2016  28.6725
    28.9722  29.0403  29.0403  29.4935  29.4935  29.5248  29.5248  30.3813
    30.3814  31.7590  31.7590  32.0014  32.0015  32.3539  33.2576  33.3214
    34.4111  34.4229  34.4230  34.4385  34.5358  34.7756  34.7756  35.9475

[...]

          k =-0.5000-0.2887 0.0000 (  5800 PWs)   bands (ev):

[...]

     the Fermi energy is    28.9352 ev

!    total energy              =   -2017.10817052 Ry
     Harris-Foulkes estimate   =   -2017.10817322 Ry
     estimated scf accuracy    <       0.00000613 Ry

     The total energy is the sum of the following terms:

     one-electron contribution =     -18.98897168 Ry
     hartree contribution      =     197.81418785 Ry
     xc contribution           =    -214.71762673 Ry
     ewald contribution        =   -1980.50021236 Ry
     smearing contrib. (-TS)   =      -0.71554760 Ry

     convergence has been achieved in  11 iterations

     Forces acting on atoms (Ry/au):

     atom    1 type  1   force =     0.00000000    0.00000000    0.02805218
     atom    2 type  1   force =     0.00000000    0.00000000    0.02805218
     atom    3 type  1   force =     0.00000000    0.00000000   -0.02805218
     atom    4 type  1   force =     0.00000000    0.00000000   -0.02805218
     atom    5 type  2   force =     0.00000000    0.00000000    0.00000000
     atom    6 type  2   force =     0.00000000    0.00000000    0.00000000
     atom    7 type  2   force =     0.00000000    0.05119732    0.00000000
     atom    8 type  2   force =    -0.04433818    0.02559866    0.00000000
     atom    9 type  2   force =     0.04433818    0.02559866    0.00000000
     atom   10 type  2   force =    -0.04433818   -0.02559866    0.00000000
     atom   11 type  2   force =     0.04433818   -0.02559866    0.00000000
     atom   12 type  2   force =     0.00000000   -0.05119732    0.00000000

     Total force =     0.137385     Total SCF correction =     0.000000

     entering subroutine stress ...

          total   stress  (Ry/bohr**3)                   (kbar)     P=  694.59
   0.00465039   0.00000000   0.00000000        684.10      0.00      0.00
   0.00000000   0.00465039   0.00000000          0.00    684.10      0.00
   0.00000000   0.00000000   0.00486446          0.00      0.00    715.59

     BFGS Geometry Optimization

     number of scf cycles    =   1
     number of bfgs steps    =   0

     enthalpy new            =   -2017.1081705167 Ry

     new trust radius        =       0.5000000000 bohr
     new conv_thr            =       0.0001000000 Ry

     new unit-cell volume =   1647.65940 a.u.^3 (   244.15793 Ang^3 )

CELL_PARAMETERS (alat=  9.92348860)
   1.064782689   0.000000000   0.000000000
  -0.532391344   0.922128858   0.000000000
   0.000000000   0.000000000   1.717203317

ATOMIC_POSITIONS (crystal)
Mg       0.333333000   0.666667000   0.063397459
Mg       0.666667000   0.333333000   0.563397459
Mg       0.666667000   0.333333000   0.936602541
Mg       0.333333000   0.666667000   0.436602541
Zn       0.000000000   0.000000000   0.000000000
Zn       0.000000000   0.000000000   0.500000000
Zn       0.172020786   0.344041573   0.750000000
Zn       0.827979214   0.172020786   0.250000000
Zn       0.344041573   0.172020786   0.250000000
Zn       0.655958427   0.827979214   0.750000000
Zn       0.172020786   0.827979214   0.750000000
Zn       0.827979214   0.655958427   0.250000000

     Writing output data file Prototype-La-hP12-MgZn2.save
     NEW-OLD atomic charge density approx. for the potential
     NEW k-points:
        k(    1) = (   0.0000000   0.0000000   0.0000000), wk =   0.0833333
        k(    2) = (   0.0000000   0.0000000   0.1455856), wk =   0.1666667
        k(    3) = (   0.0000000   0.0000000  -0.2911711), wk =   0.0833333
        k(    4) = (   0.0000000   0.3614824   0.0000000), wk =   0.1666667
        k(    5) = (   0.0000000   0.3614824   0.1455856), wk =   0.3333333
        k(    6) = (   0.0000000   0.3614824  -0.2911711), wk =   0.1666667
        k(    7) = (  -0.4695794  -0.2711118   0.0000000), wk =   0.0833333
        k(    8) = (  -0.4695794  -0.2711118   0.1455856), wk =   0.1666667
        k(    9) = (  -0.4695794  -0.2711118  -0.2911711), wk =   0.0833333
        k(   10) = (  -0.4695794   0.0903706   0.0000000), wk =   0.1666667
        k(   11) = (  -0.4695794   0.0903706   0.1455856), wk =   0.3333333
        k(   12) = (  -0.4695794   0.0903706  -0.2911711), wk =   0.1666667

[...]

     enthalpy old            =   -2017.1081705168 Ry
     enthalpy new            =   -2017.4457859326 Ry

     CASE: enthalpy_new < enthalpy_old

     small trust_radius: resetting bfgs history

     new trust radius        =       0.3272959157 bohr
     new conv_thr            =       0.0000157786 Ry

[...]

     number of scf cycles    =   3
     number of bfgs steps    =   2

     enthalpy old            =   -2017.4457859326 Ry
     enthalpy new            =   -2017.4428869927 Ry

     CASE: enthalpy_new > enthalpy_old

     new trust radius        =       0.1591215562 bohr

     trust_radius < trust_radius_min

     resetting bfgs history

     Message from routine bfgs:
     history already reset at previous step: stopping
     new conv_thr            =       0.0000157786 Ry

     new unit-cell volume =   1455.16074 a.u.^3 (   215.63257 Ang^3 )

[...]

ATOMIC_POSITIONS (crystal)
Mg       0.333333000   0.666667000   0.064402829
Mg       0.666667000   0.333333000   0.564402829
Mg       0.666667000   0.333333000   0.935597171
Mg       0.333333000   0.666667000   0.435597171
Zn       0.000000000   0.000000000   0.000000000
Zn       0.000000000   0.000000000   0.500000000
Zn       0.171506640   0.343013279   0.750000000
Zn       0.828493360   0.171506640   0.250000000
Zn       0.343013279   0.171506640   0.250000000
Zn       0.656986721   0.828493360   0.750000000
Zn       0.171506640   0.828493360   0.750000000
Zn       0.828493360   0.656986721   0.250000000

     Writing output data file Prototype-La-hP12-MgZn2.save
     NEW-OLD atomic charge density approx. for the potential
     NEW k-points:
        k(    1) = (   0.0000000   0.0000000   0.0000000), wk =   0.0833333
        k(    2) = (   0.0000000   0.0000000   0.1519422), wk =   0.1666667
        k(    3) = (   0.0000000   0.0000000  -0.3038843), wk =   0.0833333
        k(    4) = (   0.0000000   0.3765177   0.0000000), wk =   0.1666667
        k(    5) = (   0.0000000   0.3765177   0.1519422), wk =   0.3333333
        k(    6) = (   0.0000000   0.3765177  -0.3038843), wk =   0.1666667
        k(    7) = (  -0.4891108  -0.2823883   0.0000000), wk =   0.0833333
        k(    8) = (  -0.4891108  -0.2823883   0.1519422), wk =   0.1666667
        k(    9) = (  -0.4891108  -0.2823883  -0.3038843), wk =   0.0833333
        k(   10) = (  -0.4891108   0.0941294   0.0000000), wk =   0.1666667
        k(   11) = (  -0.4891108   0.0941294   0.1519422), wk =   0.3333333
        k(   12) = (  -0.4891108   0.0941294  -0.3038843), wk =   0.1666667

[...]

     The maximum number of steps has been reached.

     End of BFGS Geometry Optimization
Begin final coordinates
     new unit-cell volume =   1455.16074 a.u.^3 (   215.63257 Ang^3 )

CELL_PARAMETERS (alat=  9.92348860)
   1.022263225   0.000000000   0.000000000
  -0.511131613   0.885305923   0.000000000
   0.000000000   0.000000000   1.645363030

ATOMIC_POSITIONS (crystal)
Mg       0.333333000   0.666667000   0.064402829
Mg       0.666667000   0.333333000   0.564402829
Mg       0.666667000   0.333333000   0.935597171
Mg       0.333333000   0.666667000   0.435597171
Zn       0.000000000   0.000000000   0.000000000
Zn       0.000000000   0.000000000   0.500000000
Zn       0.171506640   0.343013279   0.750000000
Zn       0.828493360   0.171506640   0.250000000
Zn       0.343013279   0.171506640   0.250000000
Zn       0.656986721   0.828493360   0.750000000
Zn       0.171506640   0.828493360   0.750000000
Zn       0.828493360   0.656986721   0.250000000
End final coordinates

     A final scf calculation at the relaxed structure.
     The G-vectors are recalculated for the final unit cell
     Results may differ from those at the preceding step.

     bravais-lattice index     =            0
     lattice parameter (alat)  =       9.9235  a.u.
     unit-cell volume          =    1455.1607 (a.u.)^3
     number of atoms/cell      =           12
     number of atomic types    =            2
     number of electrons       =       200.00
     number of Kohn-Sham states=          120
     kinetic-energy cutoff     =      40.0000  Ry
     charge density cutoff     =     160.0000  Ry
     convergence threshold     =      1.6E-05
     mixing beta               =       0.7000
     number of iterations used =            8  plain     mixing
     Exchange-correlation      = SLA-PZ-NOGX-NOGC ( 1 1 0 0 0)
     EXX-fraction              =        0.00

     celldm(1)=   9.923489  celldm(2)=   0.000000  celldm(3)=   0.000000
     celldm(4)=   0.000000  celldm(5)=   0.000000  celldm(6)=   0.000000

     crystal axes: (cart. coord. in units of alat)
               a(1) = (   1.022263   0.000000   0.000000 )
               a(2) = (  -0.511132   0.885306   0.000000 )
               a(3) = (   0.000000   0.000000   1.645363 )

     reciprocal axes: (cart. coord. in units 2 pi/alat)
               b(1) = (  0.978222  0.564777  0.000000 )
               b(2) = (  0.000000  1.129553  0.000000 )
               b(3) = (  0.000000  0.000000  0.607769 )

     PseudoPot. # 1 for Gd read from file:
     /home/cwx6513/pp.La/Gd.UPF
     MD5 check sum: 09a8be538722f05520810cb6aac0efd2
     Pseudo is Norm-conserving, Zval = 18.0
     Generated in analytical, separable form
     Using radial grid of 1263 points,  6 beta functions with:
                l(1) =   0
                l(2) =   0
                l(3) =   1
                l(4) =   1
                l(5) =   2
                l(6) =   3

     PseudoPot. # 2 for Sm read from file:
     /home/cwx6513/pp.La/Sm.UPF
     MD5 check sum: 5079e8b144a06bfcdbc14fb02b96ab09
     Pseudo is Norm-conserving, Zval = 16.0
     Generated in analytical, separable form
     Using radial grid of 1259 points,  6 beta functions with:
                l(1) =   0
                l(2) =   0
                l(3) =   1
                l(4) =   1
                l(5) =   2
                l(6) =   3

     atomic species   valence    mass     pseudopotential
        Mg            18.00    24.30500     Gd( 1.00)
        Zn            16.00    65.39000     Sm( 1.00)

     24 Sym. Ops., with inversion, found (12 have fractional translation)

   Cartesian axes

     site n.     atom                  positions (alat units)
         1           Mg  tau(   1) = (  -0.0000005   0.5902042   0.1059660  )
         2           Mg  tau(   2) = (   0.5111321   0.2951017   0.9286475  )
         3           Mg  tau(   3) = (   0.5111321   0.2951017   1.5393970  )
         4           Mg  tau(   4) = (  -0.0000005   0.5902042   0.7167155  )
         5           Zn  tau(   5) = (   0.0000000   0.0000000   0.0000000  )
         6           Zn  tau(   6) = (   0.0000000   0.0000000   0.8226815  )
         7           Zn  tau(   7) = (   0.0000000   0.3036717   1.2340223  )
         8           Zn  tau(   8) = (   0.7592758   0.1518358   0.4113408  )
         9           Zn  tau(   9) = (   0.2629874   0.1518358   0.4113408  )
        10           Zn  tau(  10) = (   0.2481442   0.7334701   1.2340223  )
        11           Zn  tau(  11) = (  -0.2481442   0.7334701   1.2340223  )
        12           Zn  tau(  12) = (   0.5111316   0.5816342   0.4113408  )

     number of k points=    12  gaussian smearing, width (Ry)=  0.1000
                       cart. coord. in units 2pi/alat
        k(    1) = (   0.0000000   0.0000000   0.0000000), wk =   0.0833333
        k(    2) = (   0.0000000   0.0000000   0.1519422), wk =   0.1666667
        k(    3) = (   0.0000000   0.0000000  -0.3038843), wk =   0.0833333
        k(    4) = (   0.0000000   0.3765177   0.0000000), wk =   0.1666667
        k(    5) = (   0.0000000   0.3765177   0.1519422), wk =   0.3333333
        k(    6) = (   0.0000000   0.3765177  -0.3038843), wk =   0.1666667
        k(    7) = (  -0.4891108  -0.2823883   0.0000000), wk =   0.0833333
        k(    8) = (  -0.4891108  -0.2823883   0.1519422), wk =   0.1666667
        k(    9) = (  -0.4891108  -0.2823883  -0.3038843), wk =   0.0833333
        k(   10) = (  -0.4891108   0.0941294   0.0000000), wk =   0.1666667
        k(   11) = (  -0.4891108   0.0941294   0.1519422), wk =   0.3333333
        k(   12) = (  -0.4891108   0.0941294  -0.3038843), wk =   0.1666667

     Largest allocated arrays     est. size (Mb)     dimensions
     Largest temporary arrays     est. size (Mb)     dimensions

     Initial potential from superposition of free atoms

     Starting from uniform charge
     Starting wfc are    0 randomized atomic wfcs

     Writing output data file Prototype-La-hP12-MgZn2.save

     Self-consistent Calculation

[...]

     iteration #  8     ecut=    40.00 Ry     beta=0.70
     CG style diagonalization
     c_bands:  1 eigenvalues not converged
     ethr =  1.77E-05,  avg # of iterations =  3.6

[...]

     total energy              =   -2017.63077972 Ry
     Harris-Foulkes estimate   =   -2017.63079826 Ry
     estimated scf accuracy    <       0.00004093 Ry

     iteration # 11     ecut=    40.00 Ry     beta=0.70
     CG style diagonalization
     ethr =  2.05E-08,  avg # of iterations =  3.6

     End of self-consistent calculation

[...]

          k = 0.0000 0.3765-0.3039 (  6194 PWs)   bands (ev):

[...]

          k =-0.4891 0.0941-0.3039 (  6210 PWs)   bands (ev):

   -41.6789 -41.6789 -41.6695 -41.6695 -31.4819 -31.4819 -31.3028 -31.3028
   -31.0160 -31.0160 -31.0136 -31.0136 -12.7426 -12.7426 -12.7110 -12.7110
   -12.6746 -12.6746 -12.6192 -12.6192 -12.5735 -12.5734 -12.5710 -12.5710
    -8.2131  -8.2131  -7.5649  -7.5649  -7.0097  -7.0097  -6.9546  -6.9546
    -6.8138  -6.8138  -6.6506  -6.6506  -6.3117  -6.3117  -6.0263  -6.0263
    -5.8263  -5.8263  -5.7000  -5.7000  -5.4733  -5.4733  -5.4067  -5.4067
    19.2106  19.2106  19.6565  19.6565  20.0267  20.0267  20.3711  20.3711
    20.4557  20.4557  20.6049  20.6049  20.7683  20.7683  21.0276  21.0276
    21.0936  21.0936  21.3992  21.3992  21.6071  21.6071  22.1029  22.1029
    22.2349  22.2349  22.4816  22.4816  22.9560  22.9560  23.3459  23.3459
    23.5843  23.5843  23.7325  23.7325  23.9866  23.9866  24.3950  24.3950
    24.5664  24.5664  24.8467  24.8467  25.3249  25.3249  25.7577  25.7577
    25.9928  25.9928  26.2503  26.2503  26.4878  26.4878  26.9686  26.9686
    27.2267  27.2267  27.4397  27.4397  27.7900  27.7900  29.0209  29.0209
    29.9583  29.9583  31.6130  31.6131  32.8692  32.8692  33.5197  33.5199

     the Fermi energy is    26.6711 ev

!    total energy              =   -2017.63078765 Ry
     Harris-Foulkes estimate   =   -2017.63078958 Ry
     estimated scf accuracy    <       0.00000228 Ry

     The total energy is the sum of the following terms:

     one-electron contribution =     -78.66819212 Ry
     hartree contribution      =     212.35510169 Ry
     xc contribution           =    -213.31660071 Ry
     ewald contribution        =   -1937.23696075 Ry
     smearing contrib. (-TS)   =      -0.76413576 Ry

     convergence has been achieved in  11 iterations

     Forces acting on atoms (Ry/au):

     atom    1 type  1   force =     0.00000000    0.00000000    0.01564920
     atom    2 type  1   force =     0.00000000    0.00000000    0.01564920
     atom    3 type  1   force =     0.00000000    0.00000000   -0.01564920
     atom    4 type  1   force =     0.00000000    0.00000000   -0.01564920
     atom    5 type  2   force =     0.00000000    0.00000000    0.00000000
     atom    6 type  2   force =     0.00000000    0.00000000    0.00000000
     atom    7 type  2   force =     0.00000000    0.01168744    0.00000000
     atom    8 type  2   force =    -0.01012162    0.00584372    0.00000000
     atom    9 type  2   force =     0.01012162    0.00584372    0.00000000
     atom   10 type  2   force =    -0.01012162   -0.00584372    0.00000000
     atom   11 type  2   force =     0.01012162   -0.00584372    0.00000000
     atom   12 type  2   force =     0.00000000   -0.01168744    0.00000000

     Total force =     0.042417     Total SCF correction =     0.000000

     entering subroutine stress ...

          total   stress  (Ry/bohr**3)                   (kbar)     P=  365.12
   0.00247816   0.00000000   0.00000000        364.55      0.00      0.00
   0.00000000   0.00247816   0.00000000          0.00    364.55      0.00
   0.00000000   0.00000000   0.00248984          0.00      0.00    366.27

     Writing output data file Prototype-La-hP12-MgZn2.save

     General routines

     Parallel routines

   This run was terminated on:  23:10:15  22Mar2018

   JOB DONE.