     Program PWSCF v.5.0.2 starts on 22Mar2018 at 16: 4:12

     Current dimensions of program PWSCF are:
     Max number of different atomic species (ntypx) = 10
     Max number of k-points (npk) =  40000
     Max angular momentum in pseudopotentials (lmaxx) =  3
     Waiting for input...
     Reading input from standard input

     Subspace diagonalization in iterative solution of the eigenvalue problem:
     a serial algorithm will be used

     bravais-lattice index     =            0
     lattice parameter (alat)  =       7.0151  a.u.
     unit-cell volume          =     862.2778 (a.u.)^3
     number of atoms/cell      =           12
     number of atomic types    =            2
     number of electrons       =       272.00
     number of Kohn-Sham states=          163
     kinetic-energy cutoff     =      40.0000  Ry
     charge density cutoff     =     160.0000  Ry
     convergence threshold     =      1.0E-04
     mixing beta               =       0.7000
     number of iterations used =            8  plain     mixing
     Exchange-correlation      = SLA-PZ-NOGX-NOGC ( 1 1 0 0 0)
     EXX-fraction              =        0.00
     nstep                     =           50

     celldm(1)=   7.015105  celldm(2)=   0.000000  celldm(3)=   0.000000
     celldm(4)=   0.000000  celldm(5)=   0.000000  celldm(6)=   0.000000

     crystal axes: (cart. coord. in units of alat)
               a(1) = (   1.000000   0.000000   0.000000 )
               a(2) = (   0.000000   1.315963   0.000000 )
               a(3) = (   0.000000   0.000000   1.898020 )

     reciprocal axes: (cart. coord. in units 2 pi/alat)
               b(1) = (  1.000000  0.000000  0.000000 )
               b(2) = (  0.000000  0.759900  0.000000 )
               b(3) = (  0.000000  0.000000  0.526865 )

     PseudoPot. # 1 for Tm read from file:
     /home/cwx6513/pp.La/Tm.UPF
     MD5 check sum: 245516e0878b5372ceeb9443ded2c4e1
     Pseudo is Norm-conserving, Zval = 23.0
     Generated in analytical, separable form
     Using radial grid of 1269 points,  6 beta functions with:
                l(1) =   0
                l(2) =   0
                l(3) =   1
                l(4) =   1
                l(5) =   2
                l(6) =   3

     PseudoPot. # 2 for Er read from file:
     /home/cwx6513/pp.La/Er.UPF
     MD5 check sum: e152ae21b84514339d8526f066caf99b
     Pseudo is Norm-conserving, Zval = 22.0
     Generated in analytical, separable form
     Using radial grid of 1267 points,  6 beta functions with:
                l(1) =   0
                l(2) =   0
                l(3) =   1
                l(4) =   1
                l(5) =   2
                l(6) =   3

     atomic species   valence    mass     pseudopotential
        Co            23.00    58.93320     Tm( 1.00)
        Si            22.00    28.08550     Er( 1.00)

      8 Sym. Ops., with inversion, found ( 6 have fractional translation)

   Cartesian axes

     site n.     atom                  positions (alat units)
         1           Co  tau(   1) = (   0.7500000   1.0875135   0.8270358  )
         2           Co  tau(   2) = (   0.2500000   0.2284499   1.0709846  )
         3           Co  tau(   3) = (   0.7500000   0.4295318   0.1219744  )
         4           Co  tau(   4) = (   0.2500000   0.8864316   1.7760460  )
         5           Co  tau(   5) = (   0.2500000   0.7067855   0.5358966  )
         6           Co  tau(   6) = (   0.7500000   0.6091779   1.3621238  )
         7           Co  tau(   7) = (   0.2500000   0.0488038   0.4131136  )
         8           Co  tau(   8) = (   0.7500000   1.2671596   1.4849068  )
         9           Si  tau(   9) = (   0.2500000   0.2669484   1.6960710  )
        10           Si  tau(  10) = (   0.7500000   1.0490149   0.2019494  )
        11           Si  tau(  11) = (   0.2500000   0.9249301   1.1509596  )
        12           Si  tau(  12) = (   0.7500000   0.3910333   0.7470608  )

     number of k points=    12  gaussian smearing, width (Ry)=  0.1000
                       cart. coord. in units 2pi/alat
        k(    1) = (   0.0000000   0.0000000   0.0000000), wk =   0.0833333
        k(    2) = (   0.0000000   0.0000000   0.1317162), wk =   0.1666667
        k(    3) = (   0.0000000   0.0000000  -0.2634324), wk =   0.0833333
        k(    4) = (   0.0000000   0.2532999   0.0000000), wk =   0.1666667
        k(    5) = (   0.0000000   0.2532999   0.1317162), wk =   0.3333333
        k(    6) = (   0.0000000   0.2532999  -0.2634324), wk =   0.1666667
        k(    7) = (  -0.5000000   0.0000000   0.0000000), wk =   0.0833333
        k(    8) = (  -0.5000000   0.0000000   0.1317162), wk =   0.1666667
        k(    9) = (  -0.5000000   0.0000000  -0.2634324), wk =   0.0833333
        k(   10) = (  -0.5000000   0.2532999   0.0000000), wk =   0.1666667
        k(   11) = (  -0.5000000   0.2532999   0.1317162), wk =   0.3333333
        k(   12) = (  -0.5000000   0.2532999  -0.2634324), wk =   0.1666667

     Largest allocated arrays     est. size (Mb)     dimensions
     Largest temporary arrays     est. size (Mb)     dimensions

     Initial potential from superposition of free atoms

     Starting from uniform charge
     Starting wfc are    0 randomized atomic wfcs

     Self-consistent Calculation

     iteration #  1     ecut=    40.00 Ry     beta=0.70
     CG style diagonalization
     ethr =  1.00E-02,  avg # of iterations = 17.6

     total energy              =   -3823.50310470 Ry
     Harris-Foulkes estimate   =   -4854.64944630 Ry
     estimated scf accuracy    <    1312.20423884 Ry

[...]

     iteration #  6     ecut=    40.00 Ry     beta=0.70
     CG style diagonalization
     c_bands:  2 eigenvalues not converged
     c_bands:  1 eigenvalues not converged
     ethr =  1.47E-04,  avg # of iterations =  4.4

[...]

     End of self-consistent calculation

          k = 0.0000 0.0000 0.0000 (  3675 PWs)   bands (ev):

   -55.9735 -55.9535 -55.9519 -55.9349 -55.6839 -55.6425 -55.5726 -55.5701
   -47.1026 -47.0915 -47.0788 -47.0710 -15.4676 -15.4122 -15.3652 -15.2368
   -15.2295 -15.2229 -15.2155 -15.1484 -15.1309 -15.1160 -15.0120 -14.9012
   -14.8871 -14.8835 -14.7327 -14.7236 -14.7212 -14.6381 -14.6279 -14.5815
   -14.5331 -14.4840 -14.3160 -14.2772  -9.6339  -9.6193  -9.5983  -9.5747
    -9.5624  -9.5466  -9.5221  -9.5052  -9.2424  -9.2386  -9.2064  -9.1822
    28.8566  29.0387  29.0556  29.2709  29.2918  29.3153  29.6170  29.7260
    29.8345  30.0196  30.0587  30.4269  30.5438  30.6528  31.0164  31.3675
    31.5394  31.6885  31.7068  31.7252  31.9432  32.0675  32.1874  32.2968
    32.4523  32.5897  32.7852  33.0961  33.1203  33.2928  33.3850  33.4077
    33.4740  33.5016  33.5336  34.2216  34.2734  34.5926  34.6882  34.9873
    35.2415  35.5275  35.8025  36.0034  36.4373  36.4618  36.5382  37.0343
    37.3136  37.3885  37.9057  37.9792  37.9828  38.0074  38.0609  38.2307
    38.7238  39.0140  39.1613  39.3952  39.4588  39.5534  40.1708  43.8268
    45.4368  45.8626  46.4155  46.7043  48.6352  49.3305  50.3930  52.3920
    53.5441  53.8547  54.0072  54.1382  54.5821  54.5947  55.4692  55.8438
    55.9032  56.0265  56.1908  56.3894  56.7140  57.2789  57.5367  57.5516
    58.0890  58.1143  58.1441  58.1483  58.4276  58.6703  58.7639  58.9218
    59.1957  59.4572  60.1410  60.6391  61.3714  61.3774  61.8835  61.8992
    62.3326  62.5289  62.6076  62.8987  63.1558  63.3773  64.1846  64.2670
    64.4381  65.0728  65.3907

[...]

          k =-0.5000 0.0000 0.0000 (  3722 PWs)   bands (ev):

[...]

     the Fermi energy is    58.1109 ev

!    total energy              =   -4232.40790803 Ry
     Harris-Foulkes estimate   =   -4232.40791897 Ry
     estimated scf accuracy    <       0.00001277 Ry

     The total energy is the sum of the following terms:

     one-electron contribution =      -5.39981800 Ry
     hartree contribution      =     417.79045398 Ry
     xc contribution           =    -369.80655356 Ry
     ewald contribution        =   -4274.46299438 Ry
     smearing contrib. (-TS)   =      -0.52899607 Ry

     convergence has been achieved in  10 iterations

     Forces acting on atoms (Ry/au):

     atom    1 type  1   force =     0.00000000   -0.05094474   -0.05511835
     atom    2 type  1   force =     0.00000000    0.05094474    0.05511835
     atom    3 type  1   force =     0.00000000   -0.05094474    0.05511835
     atom    4 type  1   force =     0.00000000    0.05094474   -0.05511835
     atom    5 type  1   force =     0.00000000    0.11305307   -0.24703265
     atom    6 type  1   force =     0.00000000   -0.11305307    0.24703265
     atom    7 type  1   force =     0.00000000    0.11305307    0.24703265
     atom    8 type  1   force =     0.00000000   -0.11305307   -0.24703265
     atom    9 type  2   force =     0.00000000   -0.21593130    0.05588872
     atom   10 type  2   force =     0.00000000    0.21593130   -0.05588872
     atom   11 type  2   force =     0.00000000   -0.21593130   -0.05588872
     atom   12 type  2   force =     0.00000000    0.21593130    0.05588872

     Total force =     0.718859     Total SCF correction =     0.000000

     entering subroutine stress ...

          total   stress  (Ry/bohr**3)                   (kbar)     P= 7953.36
   0.05887265   0.00000000   0.00000000       8660.46      0.00      0.00
   0.00000000   0.05036892   0.00000000          0.00   7409.52      0.00
   0.00000000   0.00000000   0.05295600          0.00      0.00   7790.09

     BFGS Geometry Optimization

     number of scf cycles    =   1
     number of bfgs steps    =   0

     enthalpy new            =   -4232.4079080303 Ry

     new trust radius        =       0.5000000000 bohr
     new conv_thr            =       0.0001000000 Ry

     new unit-cell volume =   1080.71900 a.u.^3 (   160.14603 Ang^3 )

CELL_PARAMETERS (alat=  7.01510508)
   1.085136619   0.000000000   0.000000000
   0.000000000   1.411817158   0.000000000
   0.000000000   0.000000000   2.043371669

ATOMIC_POSITIONS (crystal)
Co       0.750000000   0.826081784   0.435496545
Co       0.250000000   0.173918216   0.564503455
Co       0.750000000   0.326081784   0.064503455
Co       0.250000000   0.673918216   0.935496545
Co       0.250000000   0.537794381   0.281271796
Co       0.750000000   0.462205619   0.718728204
Co       0.250000000   0.037794381   0.218728204
Co       0.750000000   0.962205619   0.781271796
Si       0.250000000   0.201500992   0.893842802
Si       0.750000000   0.798499008   0.106157198
Si       0.250000000   0.701500992   0.606157198
Si       0.750000000   0.298499008   0.393842802

     Writing output data file Prototype-La-oP12-Co2Si.save
     NEW-OLD atomic charge density approx. for the potential
     NEW k-points:
        k(    1) = (   0.0000000   0.0000000   0.0000000), wk =   0.0833333
        k(    2) = (   0.0000000   0.0000000   0.1223468), wk =   0.1666667
        k(    3) = (   0.0000000   0.0000000  -0.2446936), wk =   0.0833333
        k(    4) = (   0.0000000   0.2361023   0.0000000), wk =   0.1666667
        k(    5) = (   0.0000000   0.2361023   0.1223468), wk =   0.3333333
        k(    6) = (   0.0000000   0.2361023  -0.2446936), wk =   0.1666667
        k(    7) = (  -0.4607715   0.0000000   0.0000000), wk =   0.0833333
        k(    8) = (  -0.4607715   0.0000000   0.1223468), wk =   0.1666667
        k(    9) = (  -0.4607715   0.0000000  -0.2446936), wk =   0.0833333
        k(   10) = (  -0.4607715   0.2361023   0.0000000), wk =   0.1666667
        k(   11) = (  -0.4607715   0.2361023   0.1223468), wk =   0.3333333
        k(   12) = (  -0.4607715   0.2361023  -0.2446936), wk =   0.1666667

[...]

     enthalpy old            =   -4232.4079080303 Ry
     enthalpy new            =   -4239.9731785145 Ry

     CASE: enthalpy_new < enthalpy_old

     small trust_radius: resetting bfgs history

     new trust radius        =       3.2560705852 bohr
     new conv_thr            =       0.0001000000 Ry

[...]

          total   stress  (Ry/bohr**3)                   (kbar)     P=-5931.08
  -0.04378024   0.00000000   0.00000000      -6440.29      0.00      0.00
   0.00000000  -0.03727852   0.00000000          0.00  -5483.86      0.00
   0.00000000   0.00000000  -0.03989733          0.00      0.00  -5869.10

     number of scf cycles    =   3
     number of bfgs steps    =   2

     enthalpy old            =   -4239.9731785145 Ry
     enthalpy new            =   -4184.2369080214 Ry

     CASE: enthalpy_new > enthalpy_old

     new trust radius        =       0.6490150947 bohr

     trust_radius < trust_radius_min

     resetting bfgs history

     Message from routine bfgs:
     history already reset at previous step: stopping
     new conv_thr            =       0.0001000000 Ry

     new unit-cell volume =   1279.19762 a.u.^3 (   189.55753 Ang^3 )

[...]

ATOMIC_POSITIONS (crystal)
Co       0.750000000   0.825795585   0.435146260
Co       0.250000000   0.174204415   0.564853740
Co       0.750000000   0.325795585   0.064853740
Co       0.250000000   0.674204415   0.935146260
Co       0.250000000   0.538329319   0.280218383
Co       0.750000000   0.461670681   0.719781617
Co       0.250000000   0.038329319   0.219781617
Co       0.750000000   0.961670681   0.780218383
Si       0.250000000   0.200221061   0.893866997
Si       0.750000000   0.799778939   0.106133003
Si       0.250000000   0.700221061   0.606133003
Si       0.750000000   0.299778939   0.393866997

     Writing output data file Prototype-La-oP12-Co2Si.save
     NEW-OLD atomic charge density approx. for the potential
     NEW k-points:
        k(    1) = (   0.0000000   0.0000000   0.0000000), wk =   0.0833333
        k(    2) = (   0.0000000   0.0000000   0.1156798), wk =   0.1666667
        k(    3) = (   0.0000000   0.0000000  -0.2313596), wk =   0.0833333
        k(    4) = (   0.0000000   0.2245076   0.0000000), wk =   0.1666667
        k(    5) = (   0.0000000   0.2245076   0.1156798), wk =   0.3333333
        k(    6) = (   0.0000000   0.2245076  -0.2313596), wk =   0.1666667
        k(    7) = (  -0.4329773   0.0000000   0.0000000), wk =   0.0833333
        k(    8) = (  -0.4329773   0.0000000   0.1156798), wk =   0.1666667
        k(    9) = (  -0.4329773   0.0000000  -0.2313596), wk =   0.0833333
        k(   10) = (  -0.4329773   0.2245076   0.0000000), wk =   0.1666667
        k(   11) = (  -0.4329773   0.2245076   0.1156798), wk =   0.3333333
        k(   12) = (  -0.4329773   0.2245076  -0.2313596), wk =   0.1666667

[...]

     The maximum number of steps has been reached.

     End of BFGS Geometry Optimization
Begin final coordinates
     new unit-cell volume =   1279.19762 a.u.^3 (   189.55753 Ang^3 )

CELL_PARAMETERS (alat=  7.01510508)
   1.154794951   0.000000000   0.000000000
   0.000000000   1.484730798   0.000000000
   0.000000000   0.000000000   2.161138036

ATOMIC_POSITIONS (crystal)
Co       0.750000000   0.825795585   0.435146260
Co       0.250000000   0.174204415   0.564853740
Co       0.750000000   0.325795585   0.064853740
Co       0.250000000   0.674204415   0.935146260
Co       0.250000000   0.538329319   0.280218383
Co       0.750000000   0.461670681   0.719781617
Co       0.250000000   0.038329319   0.219781617
Co       0.750000000   0.961670681   0.780218383
Si       0.250000000   0.200221061   0.893866997
Si       0.750000000   0.799778939   0.106133003
Si       0.250000000   0.700221061   0.606133003
Si       0.750000000   0.299778939   0.393866997
End final coordinates

     A final scf calculation at the relaxed structure.
     The G-vectors are recalculated for the final unit cell
     Results may differ from those at the preceding step.

     bravais-lattice index     =            0
     lattice parameter (alat)  =       7.0151  a.u.
     unit-cell volume          =    1279.1976 (a.u.)^3
     number of atoms/cell      =           12
     number of atomic types    =            2
     number of electrons       =       272.00
     number of Kohn-Sham states=          163
     kinetic-energy cutoff     =      40.0000  Ry
     charge density cutoff     =     160.0000  Ry
     convergence threshold     =      1.0E-04
     mixing beta               =       0.7000
     number of iterations used =            8  plain     mixing
     Exchange-correlation      = SLA-PZ-NOGX-NOGC ( 1 1 0 0 0)
     EXX-fraction              =        0.00

     celldm(1)=   7.015105  celldm(2)=   0.000000  celldm(3)=   0.000000
     celldm(4)=   0.000000  celldm(5)=   0.000000  celldm(6)=   0.000000

     crystal axes: (cart. coord. in units of alat)
               a(1) = (   1.154795   0.000000   0.000000 )
               a(2) = (   0.000000   1.484731   0.000000 )
               a(3) = (   0.000000   0.000000   2.161138 )

     reciprocal axes: (cart. coord. in units 2 pi/alat)
               b(1) = (  0.865955  0.000000  0.000000 )
               b(2) = (  0.000000  0.673523  0.000000 )
               b(3) = (  0.000000  0.000000  0.462719 )

     PseudoPot. # 1 for Tm read from file:
     /home/cwx6513/pp.La/Tm.UPF
     MD5 check sum: 245516e0878b5372ceeb9443ded2c4e1
     Pseudo is Norm-conserving, Zval = 23.0
     Generated in analytical, separable form
     Using radial grid of 1269 points,  6 beta functions with:
                l(1) =   0
                l(2) =   0
                l(3) =   1
                l(4) =   1
                l(5) =   2
                l(6) =   3

     PseudoPot. # 2 for Er read from file:
     /home/cwx6513/pp.La/Er.UPF
     MD5 check sum: e152ae21b84514339d8526f066caf99b
     Pseudo is Norm-conserving, Zval = 22.0
     Generated in analytical, separable form
     Using radial grid of 1267 points,  6 beta functions with:
                l(1) =   0
                l(2) =   0
                l(3) =   1
                l(4) =   1
                l(5) =   2
                l(6) =   3

     atomic species   valence    mass     pseudopotential
        Co            23.00    58.93320     Tm( 1.00)
        Si            22.00    28.08550     Er( 1.00)

      8 Sym. Ops., with inversion, found ( 6 have fractional translation)

   Cartesian axes

     site n.     atom                  positions (alat units)
         1           Co  tau(   1) = (   0.8660962   1.2260841   0.9404111  )
         2           Co  tau(   2) = (   0.2886987   0.2586467   1.2207269  )
         3           Co  tau(   3) = (   0.8660962   0.4837187   0.1401579  )
         4           Co  tau(   4) = (   0.2886987   1.0010121   2.0209802  )
         5           Co  tau(   5) = (   0.2886987   0.7992741   0.6055906  )
         6           Co  tau(   6) = (   0.8660962   0.6854567   1.5555474  )
         7           Co  tau(   7) = (   0.2886987   0.0569087   0.4749784  )
         8           Co  tau(   8) = (   0.8660962   1.4278221   1.6861596  )
         9           Si  tau(   9) = (   0.2886987   0.2972744   1.9317700  )
        10           Si  tau(  10) = (   0.8660962   1.1874564   0.2293681  )
        11           Si  tau(  11) = (   0.2886987   1.0396398   1.3099371  )
        12           Si  tau(  12) = (   0.8660962   0.4450910   0.8512009  )

     number of k points=    12  gaussian smearing, width (Ry)=  0.1000
                       cart. coord. in units 2pi/alat
        k(    1) = (   0.0000000   0.0000000   0.0000000), wk =   0.0833333
        k(    2) = (   0.0000000   0.0000000   0.1156798), wk =   0.1666667
        k(    3) = (   0.0000000   0.0000000  -0.2313596), wk =   0.0833333
        k(    4) = (   0.0000000   0.2245076   0.0000000), wk =   0.1666667
        k(    5) = (   0.0000000   0.2245076   0.1156798), wk =   0.3333333
        k(    6) = (   0.0000000   0.2245076  -0.2313596), wk =   0.1666667
        k(    7) = (  -0.4329773   0.0000000   0.0000000), wk =   0.0833333
        k(    8) = (  -0.4329773   0.0000000   0.1156798), wk =   0.1666667
        k(    9) = (  -0.4329773   0.0000000  -0.2313596), wk =   0.0833333
        k(   10) = (  -0.4329773   0.2245076   0.0000000), wk =   0.1666667
        k(   11) = (  -0.4329773   0.2245076   0.1156798), wk =   0.3333333
        k(   12) = (  -0.4329773   0.2245076  -0.2313596), wk =   0.1666667

     Largest allocated arrays     est. size (Mb)     dimensions
     Largest temporary arrays     est. size (Mb)     dimensions

     Initial potential from superposition of free atoms

     Starting from uniform charge
     Starting wfc are    0 randomized atomic wfcs

     Writing output data file Prototype-La-oP12-Co2Si.save

     Self-consistent Calculation

[...]

     iteration #  7     ecut=    40.00 Ry     beta=0.70
     CG style diagonalization
     ethr =  1.08E-04,  avg # of iterations =  3.8

[...]

     total energy              =   -4249.40185433 Ry
     Harris-Foulkes estimate   =   -4249.40196076 Ry
     estimated scf accuracy    <       0.00019218 Ry

     iteration # 11     ecut=    40.00 Ry     beta=0.70
     CG style diagonalization
     c_bands:  1 eigenvalues not converged
     ethr =  7.07E-08,  avg # of iterations =  4.3

     End of self-consistent calculation

[...]

          k = 0.0000 0.2245-0.2314 (  5470 PWs)   bands (ev):

[...]

          k =-0.4330 0.2245-0.2314 (  5488 PWs)   bands (ev):

   -73.5020 -73.5020 -73.4979 -73.4979 -73.2840 -73.2840 -73.2782 -73.2782
   -63.8955 -63.8955 -63.8934 -63.8934 -32.3288 -32.3288 -32.3226 -32.3226
   -32.2972 -32.2972 -32.2958 -32.2958 -32.2399 -32.2399 -32.2393 -32.2393
   -32.1187 -32.1187 -32.0777 -32.0777 -32.0756 -32.0756 -32.0418 -32.0418
   -32.0101 -32.0101 -31.9835 -31.9835 -26.0556 -26.0556 -26.0524 -26.0524
   -26.0278 -26.0278 -26.0250 -26.0250 -25.9090 -25.9090 -25.9055 -25.9055
    15.2549  15.2549  15.4138  15.4138  15.4970  15.4970  15.6229  15.6229
    15.6345  15.6345  15.7498  15.7498  15.8201  15.8201  15.9530  15.9530
    16.0150  16.0150  16.0768  16.0768  16.1457  16.1457  16.2999  16.2999
    16.4090  16.4090  16.4996  16.4996  16.5199  16.5199  16.6395  16.6395
    16.7982  16.7982  17.0152  17.0152  17.0820  17.0820  17.4176  17.4176
    19.7247  19.7247  19.7367  19.7367  20.2574  20.2574  20.3191  20.3191
    20.4328  20.4328  20.4673  20.4673  20.7206  20.7206  20.7357  20.7357
    20.8742  20.8742  20.9234  20.9234  23.4515  23.4515  23.8600  23.8600
    25.9055  25.9055  26.2288  26.2288  29.4226  29.4226  30.7607  30.7607
    32.0396  32.0396  32.4888  32.4888  34.6522  34.6522  34.9431  34.9431
    38.6104  38.6104  39.3734  39.3734  39.7984  39.7984  39.9622  39.9622
    40.3176  40.3176  40.4873  40.4873  41.6896  41.6896  41.7767  41.7767
    42.0216  42.0216  42.1128  42.1128  42.2929  42.2929  42.8114  42.8114
    42.8787  42.8787  43.3016  43.3016  43.4510  43.4510  45.2364  45.2365
    45.6927  45.6932  46.1210

     the Fermi energy is    39.4612 ev

!    total energy              =   -4249.40193266 Ry
     Harris-Foulkes estimate   =   -4249.40194638 Ry
     estimated scf accuracy    <       0.00001480 Ry

     The total energy is the sum of the following terms:

     one-electron contribution =    -757.88375920 Ry
     hartree contribution      =     615.86137958 Ry
     xc contribution           =    -357.80375042 Ry
     ewald contribution        =   -3749.21276822 Ry
     smearing contrib. (-TS)   =      -0.36303440 Ry

     convergence has been achieved in  11 iterations

     Forces acting on atoms (Ry/au):

     atom    1 type  1   force =     0.00000000   -0.02392742   -0.01596381
     atom    2 type  1   force =     0.00000000    0.02392742    0.01596381
     atom    3 type  1   force =     0.00000000   -0.02392742    0.01596381
     atom    4 type  1   force =     0.00000000    0.02392742   -0.01596381
     atom    5 type  1   force =     0.00000000    0.03187620   -0.10059368
     atom    6 type  1   force =     0.00000000   -0.03187620    0.10059368
     atom    7 type  1   force =     0.00000000    0.03187620    0.10059368
     atom    8 type  1   force =     0.00000000   -0.03187620   -0.10059368
     atom    9 type  2   force =     0.00000000   -0.09912428    0.02144810
     atom   10 type  2   force =     0.00000000    0.09912428   -0.02144810
     atom   11 type  2   force =     0.00000000   -0.09912428   -0.02144810
     atom   12 type  2   force =     0.00000000    0.09912428    0.02144810

     Total force =     0.298317     Total SCF correction =     0.000000

     entering subroutine stress ...

          total   stress  (Ry/bohr**3)                   (kbar)     P= 1642.71
   0.01150109   0.00000000   0.00000000       1691.87      0.00      0.00
   0.00000000   0.01070412   0.00000000          0.00   1574.63      0.00
   0.00000000   0.00000000   0.01129550          0.00      0.00   1661.62

     Writing output data file Prototype-La-oP12-Co2Si.save

     General routines

     Parallel routines

   This run was terminated on:  16:29: 7  22Mar2018

   JOB DONE.