     Program PWSCF v.5.0.2 starts on 22Mar2018 at 16: 4:12

     Current dimensions of program PWSCF are:
     Max number of different atomic species (ntypx) = 10
     Max number of k-points (npk) =  40000
     Max angular momentum in pseudopotentials (lmaxx) =  3
     Waiting for input...
     Reading input from standard input

     Subspace diagonalization in iterative solution of the eigenvalue problem:
     a serial algorithm will be used

     bravais-lattice index     =            0
     lattice parameter (alat)  =       8.5346  a.u.
     unit-cell volume          =     621.6493 (a.u.)^3
     number of atoms/cell      =            8
     number of atomic types    =            2
     number of electrons       =       182.00
     number of Kohn-Sham states=          109
     kinetic-energy cutoff     =      40.0000  Ry
     charge density cutoff     =     160.0000  Ry
     convergence threshold     =      1.0E-04
     mixing beta               =       0.7000
     number of iterations used =            8  plain     mixing
     Exchange-correlation      = SLA-PZ-NOGX-NOGC ( 1 1 0 0 0)
     EXX-fraction              =        0.00
     nstep                     =           50

     celldm(1)=   8.534573  celldm(2)=   0.000000  celldm(3)=   0.000000
     celldm(4)=   0.000000  celldm(5)=   0.000000  celldm(6)=   0.000000

     crystal axes: (cart. coord. in units of alat)
               a(1) = (   1.000000   0.000000   0.000000 )
               a(2) = (   0.000000   1.000000   0.000000 )
               a(3) = (   0.000000   0.000000   1.000000 )

     reciprocal axes: (cart. coord. in units 2 pi/alat)
               b(1) = (  1.000000  0.000000  0.000000 )
               b(2) = (  0.000000  1.000000  0.000000 )
               b(3) = (  0.000000  0.000000  1.000000 )

     PseudoPot. # 1 for Tm read from file:
     /home/cwx6513/pp.La/Tm.UPF
     MD5 check sum: 245516e0878b5372ceeb9443ded2c4e1
     Pseudo is Norm-conserving, Zval = 23.0
     Generated in analytical, separable form
     Using radial grid of 1269 points,  6 beta functions with:
                l(1) =   0
                l(2) =   0
                l(3) =   1
                l(4) =   1
                l(5) =   2
                l(6) =   3

     PseudoPot. # 2 for Er read from file:
     /home/cwx6513/pp.La/Er.UPF
     MD5 check sum: e152ae21b84514339d8526f066caf99b
     Pseudo is Norm-conserving, Zval = 22.0
     Generated in analytical, separable form
     Using radial grid of 1267 points,  6 beta functions with:
                l(1) =   0
                l(2) =   0
                l(3) =   1
                l(4) =   1
                l(5) =   2
                l(6) =   3

     atomic species   valence    mass     pseudopotential
        Cr            23.00    51.99610     Tm( 1.00)
        Si            22.00    28.08550     Er( 1.00)

     48 Sym. Ops., with inversion, found (24 have fractional translation)

   Cartesian axes

     site n.     atom                  positions (alat units)
         1           Cr  tau(   1) = (   0.0000000   0.5000000   0.2500000  )
         2           Cr  tau(   2) = (   0.0000000   0.5000000   0.7500000  )
         3           Cr  tau(   3) = (   0.5000000   0.7500000   0.0000000  )
         4           Cr  tau(   4) = (   0.5000000   0.2500000   0.0000000  )
         5           Cr  tau(   5) = (   0.7500000   0.0000000   0.5000000  )
         6           Cr  tau(   6) = (   0.2500000   0.0000000   0.5000000  )
         7           Si  tau(   7) = (   0.5000000   0.5000000   0.5000000  )
         8           Si  tau(   8) = (   0.0000000   0.0000000   0.0000000  )

     number of k points=    48  gaussian smearing, width (Ry)=  0.1000
                       cart. coord. in units 2pi/alat
        k(    1) = (   0.0000000   0.0000000   0.0000000), wk =   0.0095238
        k(    2) = (   0.0000000   0.0000000   0.1428571), wk =   0.0190476
        k(    3) = (   0.0000000   0.0000000   0.2857143), wk =   0.0190476
        k(    4) = (   0.0000000   0.0000000   0.4285714), wk =   0.0190476
        k(    5) = (   0.0000000   0.1666667   0.0000000), wk =   0.0190476
        k(    6) = (   0.0000000   0.1666667   0.1428571), wk =   0.0380952
        k(    7) = (   0.0000000   0.1666667   0.2857143), wk =   0.0380952
        k(    8) = (   0.0000000   0.1666667   0.4285714), wk =   0.0380952
        k(    9) = (   0.0000000   0.3333333   0.0000000), wk =   0.0190476
        k(   10) = (   0.0000000   0.3333333   0.1428571), wk =   0.0380952
        k(   11) = (   0.0000000   0.3333333   0.2857143), wk =   0.0380952
        k(   12) = (   0.0000000   0.3333333   0.4285714), wk =   0.0380952
        k(   13) = (   0.0000000  -0.5000000   0.0000000), wk =   0.0095238
        k(   14) = (   0.0000000  -0.5000000   0.1428571), wk =   0.0190476
        k(   15) = (   0.0000000  -0.5000000   0.2857143), wk =   0.0190476
        k(   16) = (   0.0000000  -0.5000000   0.4285714), wk =   0.0190476
        k(   17) = (   0.2000000   0.0000000   0.0000000), wk =   0.0190476
        k(   18) = (   0.2000000   0.0000000   0.1428571), wk =   0.0380952
        k(   19) = (   0.2000000   0.0000000   0.2857143), wk =   0.0380952
        k(   20) = (   0.2000000   0.0000000   0.4285714), wk =   0.0380952
        k(   21) = (   0.2000000   0.1666667   0.0000000), wk =   0.0380952
        k(   22) = (   0.2000000   0.1666667   0.1428571), wk =   0.0761905
        k(   23) = (   0.2000000   0.1666667   0.2857143), wk =   0.0761905
        k(   24) = (   0.2000000   0.1666667   0.4285714), wk =   0.0761905
        k(   25) = (   0.2000000   0.3333333   0.0000000), wk =   0.0380952
        k(   26) = (   0.2000000   0.3333333   0.1428571), wk =   0.0761905
        k(   27) = (   0.2000000   0.3333333   0.2857143), wk =   0.0761905
        k(   28) = (   0.2000000   0.3333333   0.4285714), wk =   0.0761905
        k(   29) = (   0.2000000  -0.5000000   0.0000000), wk =   0.0190476
        k(   30) = (   0.2000000  -0.5000000   0.1428571), wk =   0.0380952
        k(   31) = (   0.2000000  -0.5000000   0.2857143), wk =   0.0380952
        k(   32) = (   0.2000000  -0.5000000   0.4285714), wk =   0.0380952
        k(   33) = (   0.4000000   0.0000000   0.0000000), wk =   0.0190476
        k(   34) = (   0.4000000   0.0000000   0.1428571), wk =   0.0380952
        k(   35) = (   0.4000000   0.0000000   0.2857143), wk =   0.0380952
        k(   36) = (   0.4000000   0.0000000   0.4285714), wk =   0.0380952
        k(   37) = (   0.4000000   0.1666667   0.0000000), wk =   0.0380952
        k(   38) = (   0.4000000   0.1666667   0.1428571), wk =   0.0761905
        k(   39) = (   0.4000000   0.1666667   0.2857143), wk =   0.0761905
        k(   40) = (   0.4000000   0.1666667   0.4285714), wk =   0.0761905
        k(   41) = (   0.4000000   0.3333333   0.0000000), wk =   0.0380952
        k(   42) = (   0.4000000   0.3333333   0.1428571), wk =   0.0761905
        k(   43) = (   0.4000000   0.3333333   0.2857143), wk =   0.0761905
        k(   44) = (   0.4000000   0.3333333   0.4285714), wk =   0.0761905
        k(   45) = (   0.4000000  -0.5000000   0.0000000), wk =   0.0190476
        k(   46) = (   0.4000000  -0.5000000   0.1428571), wk =   0.0380952
        k(   47) = (   0.4000000  -0.5000000   0.2857143), wk =   0.0380952
        k(   48) = (   0.4000000  -0.5000000   0.4285714), wk =   0.0380952

     Largest allocated arrays     est. size (Mb)     dimensions
     Largest temporary arrays     est. size (Mb)     dimensions

     Initial potential from superposition of free atoms

     Starting from uniform charge
     Starting wfc are    0 randomized atomic wfcs

     Self-consistent Calculation

     iteration #  1     ecut=    40.00 Ry     beta=0.70
     CG style diagonalization
     c_bands:  5 eigenvalues not converged
     c_bands:  5 eigenvalues not converged
     c_bands:  4 eigenvalues not converged
     c_bands:  2 eigenvalues not converged
     c_bands:  4 eigenvalues not converged
     c_bands:  3 eigenvalues not converged
     c_bands:  2 eigenvalues not converged
     c_bands:  2 eigenvalues not converged
     c_bands:  3 eigenvalues not converged
     c_bands:  4 eigenvalues not converged
     c_bands:  2 eigenvalues not converged
     c_bands:  4 eigenvalues not converged
     c_bands:  2 eigenvalues not converged
     c_bands:  3 eigenvalues not converged
     c_bands:  2 eigenvalues not converged
     c_bands:  2 eigenvalues not converged
     c_bands:  1 eigenvalues not converged
     c_bands:  2 eigenvalues not converged
     c_bands:  4 eigenvalues not converged
     c_bands:  4 eigenvalues not converged
     c_bands:  4 eigenvalues not converged
     c_bands:  3 eigenvalues not converged
     c_bands:  4 eigenvalues not converged
     c_bands:  1 eigenvalues not converged
     c_bands:  3 eigenvalues not converged
     c_bands:  2 eigenvalues not converged
     c_bands:  3 eigenvalues not converged
     c_bands:  3 eigenvalues not converged
     c_bands:  3 eigenvalues not converged
     c_bands:  4 eigenvalues not converged
     ethr =  1.00E-02,  avg # of iterations = 15.0

     total energy              =   -2573.45387583 Ry
     Harris-Foulkes estimate   =   -3318.30477530 Ry
     estimated scf accuracy    <     942.66833420 Ry

[...]

     iteration #  3     ecut=    40.00 Ry     beta=0.70
     CG style diagonalization
     ethr =  1.00E-02,  avg # of iterations =  6.4

[...]

     End of self-consistent calculation

          k = 0.0000 0.0000 0.0000 (  2601 PWs)   bands (ev):

   -59.9350 -59.9350 -59.8135 -59.5366 -59.5366 -59.5366 -50.3290 -50.2724
   -20.2555 -20.2555 -20.1407 -18.8889 -18.8889 -18.8889 -18.5407 -18.5407
   -18.5407 -18.4426 -18.4426 -18.4426 -18.3624 -18.3624 -18.3624 -18.1095
   -18.1095 -18.1095 -12.6307 -12.6307 -12.6307 -12.6254 -12.6254 -12.6254
    24.2857  24.2857  24.4103  25.8420  25.8420  25.8420  27.4179  27.4179
    27.4179  27.8213  27.9363  28.0961  28.0961  28.3515  28.3515  28.3515
    28.6527  30.2276  30.2276  30.2276  30.7882  30.7882  30.7882  30.9288
    30.9288  30.9288  31.3113  31.3113  31.3218  31.3218  31.9615  31.9615
    31.9615  33.6339  33.6339  33.6339  33.8726  33.8726  34.3399  34.3399
    34.3399  40.7939  40.7939  40.7939  43.2149  43.2149  43.5357  48.9514
    49.3304  49.3304  49.3304  49.7548  49.7548  50.6987  50.6987  50.6987
    52.0918  52.0918  52.0918  53.1490  53.1490  53.1490  54.1697  54.2240
    54.2240  54.2240  55.9393  55.9393  55.9393  58.5726  60.5389  60.5390
    60.5481  60.5481  60.5483  61.3260  61.6878

[...]

     the Fermi energy is    53.8819 ev

!    total energy              =   -2849.80930292 Ry
     Harris-Foulkes estimate   =   -2849.80931149 Ry
     estimated scf accuracy    <       0.00001003 Ry

     The total energy is the sum of the following terms:

     one-electron contribution =    -114.54395454 Ry
     hartree contribution      =     307.85264922 Ry
     xc contribution           =    -246.08429572 Ry
     ewald contribution        =   -2796.63023933 Ry
     smearing contrib. (-TS)   =      -0.40346256 Ry

     convergence has been achieved in   8 iterations

     Forces acting on atoms (Ry/au):
[...]

     number of scf cycles    =   3
     number of bfgs steps    =   2

     enthalpy old            =   -2854.1612022217 Ry
     enthalpy new            =   -2850.1658158814 Ry

     CASE: enthalpy_new > enthalpy_old

     new trust radius        =       0.1611348636 bohr

     trust_radius < trust_radius_min

     resetting bfgs history

     Message from routine bfgs:
     history already reset at previous step: stopping
     new conv_thr            =       0.0000010000 Ry

     new unit-cell volume =   1046.21204 a.u.^3 (   155.03263 Ang^3 )

[...]

ATOMIC_POSITIONS (crystal)
Cr       0.000000000   0.500000000   0.250000000
Cr       0.000000000   0.500000000   0.750000000
Cr       0.500000000   0.750000000   0.000000000
Cr       0.500000000   0.250000000   0.000000000
Cr       0.750000000   0.000000000   0.500000000
Cr       0.250000000   0.000000000   0.500000000
Si       0.500000000   0.500000000   0.500000000
Si       0.000000000   0.000000000   0.000000000

     Writing output data file Prototype-La-cP8-Cr3Si.save
     NEW-OLD atomic charge density approx. for the potential
     NEW k-points:
        k(    1) = (   0.0000000   0.0000000   0.0000000), wk =   0.0095238
        k(    2) = (   0.0000000   0.0000000   0.1201002), wk =   0.0190476
        k(    3) = (   0.0000000   0.0000000   0.2402005), wk =   0.0190476
        k(    4) = (   0.0000000   0.0000000   0.3603007), wk =   0.0190476
        k(    5) = (   0.0000000   0.1401169   0.0000000), wk =   0.0190476
        k(    6) = (   0.0000000   0.1401169   0.1201002), wk =   0.0380952
        k(    7) = (   0.0000000   0.1401169   0.2402005), wk =   0.0380952
        k(    8) = (   0.0000000   0.1401169   0.3603007), wk =   0.0380952
        k(    9) = (   0.0000000   0.2802339   0.0000000), wk =   0.0190476
        k(   10) = (   0.0000000   0.2802339   0.1201002), wk =   0.0380952
        k(   11) = (   0.0000000   0.2802339   0.2402005), wk =   0.0380952
        k(   12) = (   0.0000000   0.2802339   0.3603007), wk =   0.0380952
        k(   13) = (   0.0000000  -0.4203508   0.0000000), wk =   0.0095238
        k(   14) = (   0.0000000  -0.4203508   0.1201002), wk =   0.0190476
        k(   15) = (   0.0000000  -0.4203508   0.2402005), wk =   0.0190476
        k(   16) = (   0.0000000  -0.4203508   0.3603007), wk =   0.0190476
        k(   17) = (   0.1681403   0.0000000   0.0000000), wk =   0.0190476
        k(   18) = (   0.1681403   0.0000000   0.1201002), wk =   0.0380952
        k(   19) = (   0.1681403   0.0000000   0.2402005), wk =   0.0380952
        k(   20) = (   0.1681403   0.0000000   0.3603007), wk =   0.0380952
        k(   21) = (   0.1681403   0.1401169   0.0000000), wk =   0.0380952
        k(   22) = (   0.1681403   0.1401169   0.1201002), wk =   0.0761905
        k(   23) = (   0.1681403   0.1401169   0.2402005), wk =   0.0761905
        k(   24) = (   0.1681403   0.1401169   0.3603007), wk =   0.0761905
        k(   25) = (   0.1681403   0.2802339   0.0000000), wk =   0.0380952
        k(   26) = (   0.1681403   0.2802339   0.1201002), wk =   0.0761905
        k(   27) = (   0.1681403   0.2802339   0.2402005), wk =   0.0761905
        k(   28) = (   0.1681403   0.2802339   0.3603007), wk =   0.0761905
        k(   29) = (   0.1681403  -0.4203508   0.0000000), wk =   0.0190476
        k(   30) = (   0.1681403  -0.4203508   0.1201002), wk =   0.0380952
        k(   31) = (   0.1681403  -0.4203508   0.2402005), wk =   0.0380952
        k(   32) = (   0.1681403  -0.4203508   0.3603007), wk =   0.0380952
        k(   33) = (   0.3362807   0.0000000   0.0000000), wk =   0.0190476
        k(   34) = (   0.3362807   0.0000000   0.1201002), wk =   0.0380952
        k(   35) = (   0.3362807   0.0000000   0.2402005), wk =   0.0380952
        k(   36) = (   0.3362807   0.0000000   0.3603007), wk =   0.0380952
        k(   37) = (   0.3362807   0.1401169   0.0000000), wk =   0.0380952
        k(   38) = (   0.3362807   0.1401169   0.1201002), wk =   0.0761905
        k(   39) = (   0.3362807   0.1401169   0.2402005), wk =   0.0761905
        k(   40) = (   0.3362807   0.1401169   0.3603007), wk =   0.0761905
        k(   41) = (   0.3362807   0.2802339   0.0000000), wk =   0.0380952
        k(   42) = (   0.3362807   0.2802339   0.1201002), wk =   0.0761905
        k(   43) = (   0.3362807   0.2802339   0.2402005), wk =   0.0761905
        k(   44) = (   0.3362807   0.2802339   0.3603007), wk =   0.0761905
        k(   45) = (   0.3362807  -0.4203508   0.0000000), wk =   0.0190476
        k(   46) = (   0.3362807  -0.4203508   0.1201002), wk =   0.0380952
        k(   47) = (   0.3362807  -0.4203508   0.2402005), wk =   0.0380952
        k(   48) = (   0.3362807  -0.4203508   0.3603007), wk =   0.0380952

[...]

          total   stress  (Ry/bohr**3)                   (kbar)     P=-1613.36
  -0.01096742   0.00000000   0.00000000      -1613.36      0.00      0.00
   0.00000000  -0.01096742   0.00000000          0.00  -1613.36      0.00
   0.00000000   0.00000000  -0.01096742          0.00      0.00  -1613.36

     The maximum number of steps has been reached.

     End of BFGS Geometry Optimization
Begin final coordinates
     new unit-cell volume =   1046.21204 a.u.^3 (   155.03263 Ang^3 )

CELL_PARAMETERS (alat=  8.53457320)
   1.189482610   0.000000000   0.000000000
   0.000000000   1.189482610   0.000000000
   0.000000000   0.000000000   1.189482610

ATOMIC_POSITIONS (crystal)
Cr       0.000000000   0.500000000   0.250000000
Cr       0.000000000   0.500000000   0.750000000
Cr       0.500000000   0.750000000   0.000000000
Cr       0.500000000   0.250000000   0.000000000
Cr       0.750000000   0.000000000   0.500000000
Cr       0.250000000   0.000000000   0.500000000
Si       0.500000000   0.500000000   0.500000000
Si       0.000000000   0.000000000   0.000000000
End final coordinates

     A final scf calculation at the relaxed structure.
     The G-vectors are recalculated for the final unit cell
     Results may differ from those at the preceding step.

     bravais-lattice index     =            0
     lattice parameter (alat)  =       8.5346  a.u.
     unit-cell volume          =    1046.2120 (a.u.)^3
     number of atoms/cell      =            8
     number of atomic types    =            2
     number of electrons       =       182.00
     number of Kohn-Sham states=          109
     kinetic-energy cutoff     =      40.0000  Ry
     charge density cutoff     =     160.0000  Ry
     convergence threshold     =      1.0E-06
     mixing beta               =       0.7000
     number of iterations used =            8  plain     mixing
     Exchange-correlation      = SLA-PZ-NOGX-NOGC ( 1 1 0 0 0)
     EXX-fraction              =        0.00

     celldm(1)=   8.534573  celldm(2)=   0.000000  celldm(3)=   0.000000
     celldm(4)=   0.000000  celldm(5)=   0.000000  celldm(6)=   0.000000

     crystal axes: (cart. coord. in units of alat)
               a(1) = (   1.189483   0.000000   0.000000 )
               a(2) = (   0.000000   1.189483   0.000000 )
               a(3) = (   0.000000   0.000000   1.189483 )

     reciprocal axes: (cart. coord. in units 2 pi/alat)
               b(1) = (  0.840702  0.000000  0.000000 )
               b(2) = (  0.000000  0.840702  0.000000 )
               b(3) = (  0.000000  0.000000  0.840702 )

     PseudoPot. # 1 for Tm read from file:
     /home/cwx6513/pp.La/Tm.UPF
     MD5 check sum: 245516e0878b5372ceeb9443ded2c4e1
     Pseudo is Norm-conserving, Zval = 23.0
     Generated in analytical, separable form
     Using radial grid of 1269 points,  6 beta functions with:
                l(1) =   0
                l(2) =   0
                l(3) =   1
                l(4) =   1
                l(5) =   2
                l(6) =   3

     PseudoPot. # 2 for Er read from file:
     /home/cwx6513/pp.La/Er.UPF
     MD5 check sum: e152ae21b84514339d8526f066caf99b
     Pseudo is Norm-conserving, Zval = 22.0
     Generated in analytical, separable form
     Using radial grid of 1267 points,  6 beta functions with:
                l(1) =   0
                l(2) =   0
                l(3) =   1
                l(4) =   1
                l(5) =   2
                l(6) =   3

     atomic species   valence    mass     pseudopotential
        Cr            23.00    51.99610     Tm( 1.00)
        Si            22.00    28.08550     Er( 1.00)

     48 Sym. Ops., with inversion, found (24 have fractional translation)

   Cartesian axes

     site n.     atom                  positions (alat units)
         1           Cr  tau(   1) = (   0.0000000   0.5947413   0.2973707  )
         2           Cr  tau(   2) = (   0.0000000   0.5947413   0.8921120  )
         3           Cr  tau(   3) = (   0.5947413   0.8921120   0.0000000  )
         4           Cr  tau(   4) = (   0.5947413   0.2973707   0.0000000  )
         5           Cr  tau(   5) = (   0.8921120   0.0000000   0.5947413  )
         6           Cr  tau(   6) = (   0.2973707   0.0000000   0.5947413  )
         7           Si  tau(   7) = (   0.5947413   0.5947413   0.5947413  )
         8           Si  tau(   8) = (   0.0000000   0.0000000   0.0000000  )

     number of k points=    48  gaussian smearing, width (Ry)=  0.1000
                       cart. coord. in units 2pi/alat
        k(    1) = (   0.0000000   0.0000000   0.0000000), wk =   0.0095238
        k(    2) = (   0.0000000   0.0000000   0.1201002), wk =   0.0190476
        k(    3) = (   0.0000000   0.0000000   0.2402005), wk =   0.0190476
        k(    4) = (   0.0000000   0.0000000   0.3603007), wk =   0.0190476
        k(    5) = (   0.0000000   0.1401169   0.0000000), wk =   0.0190476
        k(    6) = (   0.0000000   0.1401169   0.1201002), wk =   0.0380952
        k(    7) = (   0.0000000   0.1401169   0.2402005), wk =   0.0380952
        k(    8) = (   0.0000000   0.1401169   0.3603007), wk =   0.0380952
        k(    9) = (   0.0000000   0.2802339   0.0000000), wk =   0.0190476
        k(   10) = (   0.0000000   0.2802339   0.1201002), wk =   0.0380952
        k(   11) = (   0.0000000   0.2802339   0.2402005), wk =   0.0380952
        k(   12) = (   0.0000000   0.2802339   0.3603007), wk =   0.0380952
        k(   13) = (   0.0000000  -0.4203508   0.0000000), wk =   0.0095238
        k(   14) = (   0.0000000  -0.4203508   0.1201002), wk =   0.0190476
        k(   15) = (   0.0000000  -0.4203508   0.2402005), wk =   0.0190476
        k(   16) = (   0.0000000  -0.4203508   0.3603007), wk =   0.0190476
        k(   17) = (   0.1681403   0.0000000   0.0000000), wk =   0.0190476
        k(   18) = (   0.1681403   0.0000000   0.1201002), wk =   0.0380952
        k(   19) = (   0.1681403   0.0000000   0.2402005), wk =   0.0380952
        k(   20) = (   0.1681403   0.0000000   0.3603007), wk =   0.0380952
        k(   21) = (   0.1681403   0.1401169   0.0000000), wk =   0.0380952
        k(   22) = (   0.1681403   0.1401169   0.1201002), wk =   0.0761905
        k(   23) = (   0.1681403   0.1401169   0.2402005), wk =   0.0761905
        k(   24) = (   0.1681403   0.1401169   0.3603007), wk =   0.0761905
        k(   25) = (   0.1681403   0.2802339   0.0000000), wk =   0.0380952
        k(   26) = (   0.1681403   0.2802339   0.1201002), wk =   0.0761905
        k(   27) = (   0.1681403   0.2802339   0.2402005), wk =   0.0761905
        k(   28) = (   0.1681403   0.2802339   0.3603007), wk =   0.0761905
        k(   29) = (   0.1681403  -0.4203508   0.0000000), wk =   0.0190476
        k(   30) = (   0.1681403  -0.4203508   0.1201002), wk =   0.0380952
        k(   31) = (   0.1681403  -0.4203508   0.2402005), wk =   0.0380952
        k(   32) = (   0.1681403  -0.4203508   0.3603007), wk =   0.0380952
        k(   33) = (   0.3362807   0.0000000   0.0000000), wk =   0.0190476
        k(   34) = (   0.3362807   0.0000000   0.1201002), wk =   0.0380952
        k(   35) = (   0.3362807   0.0000000   0.2402005), wk =   0.0380952
        k(   36) = (   0.3362807   0.0000000   0.3603007), wk =   0.0380952
        k(   37) = (   0.3362807   0.1401169   0.0000000), wk =   0.0380952
        k(   38) = (   0.3362807   0.1401169   0.1201002), wk =   0.0761905
        k(   39) = (   0.3362807   0.1401169   0.2402005), wk =   0.0761905
        k(   40) = (   0.3362807   0.1401169   0.3603007), wk =   0.0761905
        k(   41) = (   0.3362807   0.2802339   0.0000000), wk =   0.0380952
        k(   42) = (   0.3362807   0.2802339   0.1201002), wk =   0.0761905
        k(   43) = (   0.3362807   0.2802339   0.2402005), wk =   0.0761905
        k(   44) = (   0.3362807   0.2802339   0.3603007), wk =   0.0761905
        k(   45) = (   0.3362807  -0.4203508   0.0000000), wk =   0.0190476
        k(   46) = (   0.3362807  -0.4203508   0.1201002), wk =   0.0380952
        k(   47) = (   0.3362807  -0.4203508   0.2402005), wk =   0.0380952
        k(   48) = (   0.3362807  -0.4203508   0.3603007), wk =   0.0380952

     Largest allocated arrays     est. size (Mb)     dimensions
     Largest temporary arrays     est. size (Mb)     dimensions

     Initial potential from superposition of free atoms

     Starting from uniform charge
     Starting wfc are    0 randomized atomic wfcs

     Writing output data file Prototype-La-cP8-Cr3Si.save

     Self-consistent Calculation

[...]

     iteration # 10     ecut=    40.00 Ry     beta=0.70
     CG style diagonalization
     c_bands:  1 eigenvalues not converged
     ethr =  5.85E-09,  avg # of iterations =  4.4

     total energy              =   -2861.04458533 Ry
     Harris-Foulkes estimate   =   -2861.04458898 Ry
     estimated scf accuracy    <       0.00000689 Ry

     iteration # 11     ecut=    40.00 Ry     beta=0.70
     CG style diagonalization
     ethr =  3.79E-09,  avg # of iterations =  3.3

     End of self-consistent calculation

[...]

          k = 0.3363-0.4204 0.3603 (  4488 PWs)   bands (ev):

   -80.6479 -80.6440 -80.6407 -80.6403 -80.6371 -80.6330 -70.5328 -70.5326
   -39.5018 -39.4915 -39.4563 -39.4563 -39.4121 -39.3982 -39.2867 -39.2864
   -39.2849 -39.2817 -39.2806 -39.2789 -39.2781 -39.2763 -39.2746 -39.2721
   -39.2664 -39.2651 -32.5383 -32.5382 -32.5343 -32.5340 -32.5291 -32.5291
     8.7231   8.8385   9.0883   9.0922   9.1155   9.1242   9.1465   9.1540
     9.2517   9.2580   9.2932   9.3012   9.3358   9.3575   9.3885   9.3992
     9.5750   9.5752   9.7078   9.7157   9.7304   9.7481   9.7878   9.8147
     9.8574   9.8765   9.9010   9.9148   9.9272   9.9356  14.0761  14.0798
    14.0863  14.1014  14.1574  14.1586  14.2230  14.2243  14.2328  14.2335
    17.7173  17.7305  18.6886  18.7052  19.2437  19.2603  20.4058  20.4067
    28.8337  28.9899  29.5029  29.5435  30.3472  30.7910  30.9792  31.0268
    31.1457  31.1847  31.6593  31.7396  32.1148  32.2407  32.3297  32.3967
    32.7926  32.8937  33.1565  33.2150  33.4424  33.6371  33.7715  33.8851
    38.0208  38.1165  38.4971  38.5002  39.1194

     the Fermi energy is    31.4283 ev

!    total energy              =   -2861.04458604 Ry
     Harris-Foulkes estimate   =   -2861.04458636 Ry
     estimated scf accuracy    <       0.00000036 Ry

     The total energy is the sum of the following terms:

     one-electron contribution =    -763.77655569 Ry
     hartree contribution      =     491.17150230 Ry
     xc contribution           =    -236.99738392 Ry
     ewald contribution        =   -2351.13167248 Ry
     smearing contrib. (-TS)   =      -0.31047625 Ry

     convergence has been achieved in  11 iterations

     Forces acting on atoms (Ry/au):

     atom    1 type  1   force =     0.00000000    0.00000000    0.00000000
     atom    2 type  1   force =     0.00000000    0.00000000    0.00000000
     atom    3 type  1   force =     0.00000000    0.00000000    0.00000000
     atom    4 type  1   force =     0.00000000    0.00000000    0.00000000
     atom    5 type  1   force =     0.00000000    0.00000000    0.00000000
     atom    6 type  1   force =     0.00000000    0.00000000    0.00000000
     atom    7 type  2   force =     0.00000000    0.00000000    0.00000000
     atom    8 type  2   force =     0.00000000    0.00000000    0.00000000

     Total force =     0.000000     Total SCF correction =     0.000000

     entering subroutine stress ...

          total   stress  (Ry/bohr**3)                   (kbar)     P=  308.09
   0.00209433   0.00000000   0.00000000        308.09      0.00      0.00
   0.00000000   0.00209433   0.00000000          0.00    308.09      0.00
   0.00000000   0.00000000   0.00209433          0.00      0.00    308.09

     Writing output data file Prototype-La-cP8-Cr3Si.save

     General routines

     Parallel routines

   This run was terminated on:  16:37:19  22Mar2018

   JOB DONE.