     Program PWSCF v.5.0.2 starts on 22Mar2018 at 22:44:18

     Current dimensions of program PWSCF are:
     Max number of different atomic species (ntypx) = 10
     Max number of k-points (npk) =  40000
     Max angular momentum in pseudopotentials (lmaxx) =  3
     Waiting for input...
     Reading input from standard input

     Subspace diagonalization in iterative solution of the eigenvalue problem:
     a serial algorithm will be used

     bravais-lattice index     =            0
     lattice parameter (alat)  =       8.5346  a.u.
     unit-cell volume          =     621.6493 (a.u.)^3
     number of atoms/cell      =            8
     number of atomic types    =            2
     number of electrons       =       160.00
     number of Kohn-Sham states=           96
     kinetic-energy cutoff     =      40.0000  Ry
     charge density cutoff     =     160.0000  Ry
     convergence threshold     =      1.0E-04
     mixing beta               =       0.7000
     number of iterations used =            8  plain     mixing
     Exchange-correlation      = SLA-PZ-NOGX-NOGC ( 1 1 0 0 0)
     EXX-fraction              =        0.00
     nstep                     =           50

     celldm(1)=   8.534573  celldm(2)=   0.000000  celldm(3)=   0.000000
     celldm(4)=   0.000000  celldm(5)=   0.000000  celldm(6)=   0.000000

     crystal axes: (cart. coord. in units of alat)
               a(1) = (   1.000000   0.000000   0.000000 )
               a(2) = (   0.000000   1.000000   0.000000 )
               a(3) = (   0.000000   0.000000   1.000000 )

     reciprocal axes: (cart. coord. in units 2 pi/alat)
               b(1) = (  1.000000  0.000000  0.000000 )
               b(2) = (  0.000000  1.000000  0.000000 )
               b(3) = (  0.000000  0.000000  1.000000 )

     PseudoPot. # 1 for Er read from file:
     /home/cwx6513/pp.La/Er.UPF
     MD5 check sum: e152ae21b84514339d8526f066caf99b
     Pseudo is Norm-conserving, Zval = 22.0
     Generated in analytical, separable form
     Using radial grid of 1267 points,  6 beta functions with:
                l(1) =   0
                l(2) =   0
                l(3) =   1
                l(4) =   1
                l(5) =   2
                l(6) =   3

     PseudoPot. # 2 for Nd read from file:
     /home/cwx6513/pp.La/Nd.UPF
     MD5 check sum: c66c5b6abe7b5840ced9b1e244e3bed6
     Pseudo is Norm-conserving, Zval = 14.0
     Generated in analytical, separable form
     Using radial grid of 1257 points,  6 beta functions with:
                l(1) =   0
                l(2) =   0
                l(3) =   1
                l(4) =   1
                l(5) =   2
                l(6) =   3

     atomic species   valence    mass     pseudopotential
        Cr            22.00    51.99610     Er( 1.00)
        Si            14.00    28.08550     Nd( 1.00)

     48 Sym. Ops., with inversion, found (24 have fractional translation)

   Cartesian axes

     site n.     atom                  positions (alat units)
         1           Cr  tau(   1) = (   0.0000000   0.5000000   0.2500000  )
         2           Cr  tau(   2) = (   0.0000000   0.5000000   0.7500000  )
         3           Cr  tau(   3) = (   0.5000000   0.7500000   0.0000000  )
         4           Cr  tau(   4) = (   0.5000000   0.2500000   0.0000000  )
         5           Cr  tau(   5) = (   0.7500000   0.0000000   0.5000000  )
         6           Cr  tau(   6) = (   0.2500000   0.0000000   0.5000000  )
         7           Si  tau(   7) = (   0.5000000   0.5000000   0.5000000  )
         8           Si  tau(   8) = (   0.0000000   0.0000000   0.0000000  )

     number of k points=    48  gaussian smearing, width (Ry)=  0.1000
                       cart. coord. in units 2pi/alat
        k(    1) = (   0.0000000   0.0000000   0.0000000), wk =   0.0095238
        k(    2) = (   0.0000000   0.0000000   0.1428571), wk =   0.0190476
        k(    3) = (   0.0000000   0.0000000   0.2857143), wk =   0.0190476
        k(    4) = (   0.0000000   0.0000000   0.4285714), wk =   0.0190476
        k(    5) = (   0.0000000   0.1666667   0.0000000), wk =   0.0190476
        k(    6) = (   0.0000000   0.1666667   0.1428571), wk =   0.0380952
        k(    7) = (   0.0000000   0.1666667   0.2857143), wk =   0.0380952
        k(    8) = (   0.0000000   0.1666667   0.4285714), wk =   0.0380952
        k(    9) = (   0.0000000   0.3333333   0.0000000), wk =   0.0190476
        k(   10) = (   0.0000000   0.3333333   0.1428571), wk =   0.0380952
        k(   11) = (   0.0000000   0.3333333   0.2857143), wk =   0.0380952
        k(   12) = (   0.0000000   0.3333333   0.4285714), wk =   0.0380952
        k(   13) = (   0.0000000  -0.5000000   0.0000000), wk =   0.0095238
        k(   14) = (   0.0000000  -0.5000000   0.1428571), wk =   0.0190476
        k(   15) = (   0.0000000  -0.5000000   0.2857143), wk =   0.0190476
        k(   16) = (   0.0000000  -0.5000000   0.4285714), wk =   0.0190476
        k(   17) = (   0.2000000   0.0000000   0.0000000), wk =   0.0190476
        k(   18) = (   0.2000000   0.0000000   0.1428571), wk =   0.0380952
        k(   19) = (   0.2000000   0.0000000   0.2857143), wk =   0.0380952
        k(   20) = (   0.2000000   0.0000000   0.4285714), wk =   0.0380952
        k(   21) = (   0.2000000   0.1666667   0.0000000), wk =   0.0380952
        k(   22) = (   0.2000000   0.1666667   0.1428571), wk =   0.0761905
        k(   23) = (   0.2000000   0.1666667   0.2857143), wk =   0.0761905
        k(   24) = (   0.2000000   0.1666667   0.4285714), wk =   0.0761905
        k(   25) = (   0.2000000   0.3333333   0.0000000), wk =   0.0380952
        k(   26) = (   0.2000000   0.3333333   0.1428571), wk =   0.0761905
        k(   27) = (   0.2000000   0.3333333   0.2857143), wk =   0.0761905
        k(   28) = (   0.2000000   0.3333333   0.4285714), wk =   0.0761905
        k(   29) = (   0.2000000  -0.5000000   0.0000000), wk =   0.0190476
        k(   30) = (   0.2000000  -0.5000000   0.1428571), wk =   0.0380952
        k(   31) = (   0.2000000  -0.5000000   0.2857143), wk =   0.0380952
        k(   32) = (   0.2000000  -0.5000000   0.4285714), wk =   0.0380952
        k(   33) = (   0.4000000   0.0000000   0.0000000), wk =   0.0190476
        k(   34) = (   0.4000000   0.0000000   0.1428571), wk =   0.0380952
        k(   35) = (   0.4000000   0.0000000   0.2857143), wk =   0.0380952
        k(   36) = (   0.4000000   0.0000000   0.4285714), wk =   0.0380952
        k(   37) = (   0.4000000   0.1666667   0.0000000), wk =   0.0380952
        k(   38) = (   0.4000000   0.1666667   0.1428571), wk =   0.0761905
        k(   39) = (   0.4000000   0.1666667   0.2857143), wk =   0.0761905
        k(   40) = (   0.4000000   0.1666667   0.4285714), wk =   0.0761905
        k(   41) = (   0.4000000   0.3333333   0.0000000), wk =   0.0380952
        k(   42) = (   0.4000000   0.3333333   0.1428571), wk =   0.0761905
        k(   43) = (   0.4000000   0.3333333   0.2857143), wk =   0.0761905
        k(   44) = (   0.4000000   0.3333333   0.4285714), wk =   0.0761905
        k(   45) = (   0.4000000  -0.5000000   0.0000000), wk =   0.0190476
        k(   46) = (   0.4000000  -0.5000000   0.1428571), wk =   0.0380952
        k(   47) = (   0.4000000  -0.5000000   0.2857143), wk =   0.0380952
        k(   48) = (   0.4000000  -0.5000000   0.4285714), wk =   0.0380952

     Largest allocated arrays     est. size (Mb)     dimensions
     Largest temporary arrays     est. size (Mb)     dimensions

     Initial potential from superposition of free atoms

     Starting from uniform charge
     Starting wfc are    0 randomized atomic wfcs

     Self-consistent Calculation

     iteration #  1     ecut=    40.00 Ry     beta=0.70
     CG style diagonalization
     c_bands:  4 eigenvalues not converged
     c_bands:  2 eigenvalues not converged
     c_bands:  1 eigenvalues not converged
     ethr =  1.00E-02,  avg # of iterations = 16.5

     total energy              =   -1701.55017395 Ry
     Harris-Foulkes estimate   =   -2610.76784824 Ry
     estimated scf accuracy    <    1120.96851170 Ry

[...]

     iteration #  4     ecut=    40.00 Ry     beta=0.70
     CG style diagonalization
     ethr =  1.00E-02,  avg # of iterations =  4.0

[...]

     End of self-consistent calculation

          k = 0.0000 0.0000 0.0000 (  2601 PWs)   bands (ev):

   -54.0344 -54.0344 -53.9720 -53.5828 -53.5828 -53.5828 -17.8867 -17.8867
   -17.7429 -16.3065 -16.3065 -16.3065 -15.8471 -15.8471 -15.8471 -15.7686
   -15.7686 -15.7686 -15.6546 -15.6546 -15.6546 -15.2282 -15.2282 -15.2282
     0.7718   0.8445  20.2071  20.2071  20.2071  20.3940  20.3940  20.3940
    24.4872  24.4872  24.5306  26.4311  26.4311  26.4311  27.8996  29.0054
    29.0054  29.0230  29.0230  29.0230  29.9738  29.9738  29.9738  30.2553
    30.6371  31.2768  31.2768  31.2768  32.3047  32.3047  32.4806  32.4806
    32.4806  32.5085  32.5085  32.5085  33.6995  33.6995  33.6995  37.0017
    37.0017  43.2066  43.2066  43.6143  43.6143  43.6143  43.9374  43.9374
    43.9374  43.9783  43.9783  43.9783  48.8763  49.1326  49.1326  49.1326
    51.1156  51.1156  51.1156  52.9628  52.9629  53.6304  54.4155  54.4155
    54.6379  54.6379  54.6380  57.2403  57.2404  57.2405  58.0337  58.0349

[...]

     the Fermi energy is    50.6741 ev

!    total energy              =   -2186.82587760 Ry
     Harris-Foulkes estimate   =   -2186.82589099 Ry
     estimated scf accuracy    <       0.00001522 Ry

     The total energy is the sum of the following terms:

     one-electron contribution =     -20.72526387 Ry
     hartree contribution      =     231.72656405 Ry
     xc contribution           =    -203.62932554 Ry
     ewald contribution        =   -2194.01853474 Ry
     smearing contrib. (-TS)   =      -0.17931751 Ry

     convergence has been achieved in   9 iterations

     Forces acting on atoms (Ry/au):

     atom    1 type  1   force =     0.00000000    0.00000000    0.00000000
     atom    2 type  1   force =     0.00000000    0.00000000    0.00000000
     atom    3 type  1   force =     0.00000000    0.00000000    0.00000000
     atom    4 type  1   force =     0.00000000    0.00000000    0.00000000
     atom    5 type  1   force =     0.00000000    0.00000000    0.00000000
     atom    6 type  1   force =     0.00000000    0.00000000    0.00000000
     atom    7 type  2   force =     0.00000000    0.00000000    0.00000000
     atom    8 type  2   force =     0.00000000    0.00000000    0.00000000

     Total force =     0.000000     Total SCF correction =     0.000000

     entering subroutine stress ...

          total   stress  (Ry/bohr**3)                   (kbar)     P= 5678.29
   0.03860022   0.00000000   0.00000000       5678.29      0.00      0.00
   0.00000000   0.03860022   0.00000000          0.00   5678.29      0.00
   0.00000000   0.00000000   0.03860022          0.00      0.00   5678.29

     BFGS Geometry Optimization

     number of scf cycles    =   1
     number of bfgs steps    =   0

     enthalpy new            =   -2186.8258776030 Ry

     new trust radius        =       0.5000000000 bohr
[...]
   0.00000000   0.00000000  -0.01283119          0.00      0.00  -1887.53

     number of scf cycles    =   3
     number of bfgs steps    =   2

     enthalpy old            =   -2190.8268798416 Ry
     enthalpy new            =   -2188.5100882003 Ry

     CASE: enthalpy_new > enthalpy_old

     new trust radius        =       0.1967161496 bohr

     trust_radius < trust_radius_min

     resetting bfgs history

     Message from routine bfgs:
     history already reset at previous step: stopping
     new conv_thr            =       0.0000010000 Ry

     new unit-cell volume =   1047.03631 a.u.^3 (   155.15477 Ang^3 )

[...]

ATOMIC_POSITIONS (crystal)
Cr       0.000000000   0.500000000   0.250000000
Cr       0.000000000   0.500000000   0.750000000
Cr       0.500000000   0.750000000   0.000000000
Cr       0.500000000   0.250000000   0.000000000
Cr       0.750000000   0.000000000   0.500000000
Cr       0.250000000   0.000000000   0.500000000
Si       0.500000000   0.500000000   0.500000000
Si       0.000000000   0.000000000   0.000000000

     Writing output data file Prototype-La-cP8-Cr3Si.save
     NEW-OLD atomic charge density approx. for the potential
     NEW k-points:
        k(    1) = (   0.0000000   0.0000000   0.0000000), wk =   0.0095238
        k(    2) = (   0.0000000   0.0000000   0.1200687), wk =   0.0190476
        k(    3) = (   0.0000000   0.0000000   0.2401374), wk =   0.0190476
        k(    4) = (   0.0000000   0.0000000   0.3602061), wk =   0.0190476
        k(    5) = (   0.0000000   0.1400802   0.0000000), wk =   0.0190476
        k(    6) = (   0.0000000   0.1400802   0.1200687), wk =   0.0380952
        k(    7) = (   0.0000000   0.1400802   0.2401374), wk =   0.0380952
        k(    8) = (   0.0000000   0.1400802   0.3602061), wk =   0.0380952
        k(    9) = (   0.0000000   0.2801603   0.0000000), wk =   0.0190476
        k(   10) = (   0.0000000   0.2801603   0.1200687), wk =   0.0380952
        k(   11) = (   0.0000000   0.2801603   0.2401374), wk =   0.0380952
        k(   12) = (   0.0000000   0.2801603   0.3602061), wk =   0.0380952
        k(   13) = (   0.0000000  -0.4202405   0.0000000), wk =   0.0095238
        k(   14) = (   0.0000000  -0.4202405   0.1200687), wk =   0.0190476
        k(   15) = (   0.0000000  -0.4202405   0.2401374), wk =   0.0190476
        k(   16) = (   0.0000000  -0.4202405   0.3602061), wk =   0.0190476
        k(   17) = (   0.1680962   0.0000000   0.0000000), wk =   0.0190476
        k(   18) = (   0.1680962   0.0000000   0.1200687), wk =   0.0380952
        k(   19) = (   0.1680962   0.0000000   0.2401374), wk =   0.0380952
        k(   20) = (   0.1680962   0.0000000   0.3602061), wk =   0.0380952
        k(   21) = (   0.1680962   0.1400802   0.0000000), wk =   0.0380952
        k(   22) = (   0.1680962   0.1400802   0.1200687), wk =   0.0761905
        k(   23) = (   0.1680962   0.1400802   0.2401374), wk =   0.0761905
        k(   24) = (   0.1680962   0.1400802   0.3602061), wk =   0.0761905
        k(   25) = (   0.1680962   0.2801603   0.0000000), wk =   0.0380952
        k(   26) = (   0.1680962   0.2801603   0.1200687), wk =   0.0761905
        k(   27) = (   0.1680962   0.2801603   0.2401374), wk =   0.0761905
        k(   28) = (   0.1680962   0.2801603   0.3602061), wk =   0.0761905
        k(   29) = (   0.1680962  -0.4202405   0.0000000), wk =   0.0190476
        k(   30) = (   0.1680962  -0.4202405   0.1200687), wk =   0.0380952
        k(   31) = (   0.1680962  -0.4202405   0.2401374), wk =   0.0380952
        k(   32) = (   0.1680962  -0.4202405   0.3602061), wk =   0.0380952
        k(   33) = (   0.3361924   0.0000000   0.0000000), wk =   0.0190476
        k(   34) = (   0.3361924   0.0000000   0.1200687), wk =   0.0380952
        k(   35) = (   0.3361924   0.0000000   0.2401374), wk =   0.0380952
        k(   36) = (   0.3361924   0.0000000   0.3602061), wk =   0.0380952
        k(   37) = (   0.3361924   0.1400802   0.0000000), wk =   0.0380952
        k(   38) = (   0.3361924   0.1400802   0.1200687), wk =   0.0761905
        k(   39) = (   0.3361924   0.1400802   0.2401374), wk =   0.0761905
        k(   40) = (   0.3361924   0.1400802   0.3602061), wk =   0.0761905
        k(   41) = (   0.3361924   0.2801603   0.0000000), wk =   0.0380952
        k(   42) = (   0.3361924   0.2801603   0.1200687), wk =   0.0761905
        k(   43) = (   0.3361924   0.2801603   0.2401374), wk =   0.0761905
        k(   44) = (   0.3361924   0.2801603   0.3602061), wk =   0.0761905
        k(   45) = (   0.3361924  -0.4202405   0.0000000), wk =   0.0190476
        k(   46) = (   0.3361924  -0.4202405   0.1200687), wk =   0.0380952
        k(   47) = (   0.3361924  -0.4202405   0.2401374), wk =   0.0380952
        k(   48) = (   0.3361924  -0.4202405   0.3602061), wk =   0.0380952

[...]

          total   stress  (Ry/bohr**3)                   (kbar)     P=-1118.50
  -0.00760338   0.00000000   0.00000000      -1118.50      0.00      0.00
   0.00000000  -0.00760338   0.00000000          0.00  -1118.50      0.00
   0.00000000   0.00000000  -0.00760338          0.00      0.00  -1118.50

     The maximum number of steps has been reached.

     End of BFGS Geometry Optimization
Begin final coordinates
     new unit-cell volume =   1047.03631 a.u.^3 (   155.15477 Ang^3 )

CELL_PARAMETERS (alat=  8.53457320)
   1.189794911   0.000000000   0.000000000
   0.000000000   1.189794911   0.000000000
   0.000000000   0.000000000   1.189794911

ATOMIC_POSITIONS (crystal)
Cr       0.000000000   0.500000000   0.250000000
Cr       0.000000000   0.500000000   0.750000000
Cr       0.500000000   0.750000000   0.000000000
Cr       0.500000000   0.250000000   0.000000000
Cr       0.750000000   0.000000000   0.500000000
Cr       0.250000000   0.000000000   0.500000000
Si       0.500000000   0.500000000   0.500000000
Si       0.000000000   0.000000000   0.000000000
End final coordinates

     A final scf calculation at the relaxed structure.
     The G-vectors are recalculated for the final unit cell
     Results may differ from those at the preceding step.

     bravais-lattice index     =            0
     lattice parameter (alat)  =       8.5346  a.u.
     unit-cell volume          =    1047.0363 (a.u.)^3
     number of atoms/cell      =            8
     number of atomic types    =            2
     number of electrons       =       160.00
     number of Kohn-Sham states=           96
     kinetic-energy cutoff     =      40.0000  Ry
     charge density cutoff     =     160.0000  Ry
     convergence threshold     =      1.0E-06
     mixing beta               =       0.7000
     number of iterations used =            8  plain     mixing
     Exchange-correlation      = SLA-PZ-NOGX-NOGC ( 1 1 0 0 0)
     EXX-fraction              =        0.00

     celldm(1)=   8.534573  celldm(2)=   0.000000  celldm(3)=   0.000000
     celldm(4)=   0.000000  celldm(5)=   0.000000  celldm(6)=   0.000000

     crystal axes: (cart. coord. in units of alat)
               a(1) = (   1.189795   0.000000   0.000000 )
               a(2) = (   0.000000   1.189795   0.000000 )
               a(3) = (   0.000000   0.000000   1.189795 )

     reciprocal axes: (cart. coord. in units 2 pi/alat)
               b(1) = (  0.840481  0.000000  0.000000 )
               b(2) = (  0.000000  0.840481  0.000000 )
               b(3) = (  0.000000  0.000000  0.840481 )

     PseudoPot. # 1 for Er read from file:
     /home/cwx6513/pp.La/Er.UPF
     MD5 check sum: e152ae21b84514339d8526f066caf99b
     Pseudo is Norm-conserving, Zval = 22.0
     Generated in analytical, separable form
     Using radial grid of 1267 points,  6 beta functions with:
                l(1) =   0
                l(2) =   0
                l(3) =   1
                l(4) =   1
                l(5) =   2
                l(6) =   3

     PseudoPot. # 2 for Nd read from file:
     /home/cwx6513/pp.La/Nd.UPF
     MD5 check sum: c66c5b6abe7b5840ced9b1e244e3bed6
     Pseudo is Norm-conserving, Zval = 14.0
     Generated in analytical, separable form
     Using radial grid of 1257 points,  6 beta functions with:
                l(1) =   0
                l(2) =   0
                l(3) =   1
                l(4) =   1
                l(5) =   2
                l(6) =   3

     atomic species   valence    mass     pseudopotential
        Cr            22.00    51.99610     Er( 1.00)
        Si            14.00    28.08550     Nd( 1.00)

     48 Sym. Ops., with inversion, found (24 have fractional translation)

   Cartesian axes

     site n.     atom                  positions (alat units)
         1           Cr  tau(   1) = (   0.0000000   0.5948975   0.2974487  )
         2           Cr  tau(   2) = (   0.0000000   0.5948975   0.8923462  )
         3           Cr  tau(   3) = (   0.5948975   0.8923462   0.0000000  )
         4           Cr  tau(   4) = (   0.5948975   0.2974487   0.0000000  )
         5           Cr  tau(   5) = (   0.8923462   0.0000000   0.5948975  )
         6           Cr  tau(   6) = (   0.2974487   0.0000000   0.5948975  )
         7           Si  tau(   7) = (   0.5948975   0.5948975   0.5948975  )
         8           Si  tau(   8) = (   0.0000000   0.0000000   0.0000000  )

     number of k points=    48  gaussian smearing, width (Ry)=  0.1000
                       cart. coord. in units 2pi/alat
        k(    1) = (   0.0000000   0.0000000   0.0000000), wk =   0.0095238
        k(    2) = (   0.0000000   0.0000000   0.1200687), wk =   0.0190476
        k(    3) = (   0.0000000   0.0000000   0.2401374), wk =   0.0190476
        k(    4) = (   0.0000000   0.0000000   0.3602061), wk =   0.0190476
        k(    5) = (   0.0000000   0.1400802   0.0000000), wk =   0.0190476
        k(    6) = (   0.0000000   0.1400802   0.1200687), wk =   0.0380952
        k(    7) = (   0.0000000   0.1400802   0.2401374), wk =   0.0380952
        k(    8) = (   0.0000000   0.1400802   0.3602061), wk =   0.0380952
        k(    9) = (   0.0000000   0.2801603   0.0000000), wk =   0.0190476
        k(   10) = (   0.0000000   0.2801603   0.1200687), wk =   0.0380952
        k(   11) = (   0.0000000   0.2801603   0.2401374), wk =   0.0380952
        k(   12) = (   0.0000000   0.2801603   0.3602061), wk =   0.0380952
        k(   13) = (   0.0000000  -0.4202405   0.0000000), wk =   0.0095238
        k(   14) = (   0.0000000  -0.4202405   0.1200687), wk =   0.0190476
        k(   15) = (   0.0000000  -0.4202405   0.2401374), wk =   0.0190476
        k(   16) = (   0.0000000  -0.4202405   0.3602061), wk =   0.0190476
        k(   17) = (   0.1680962   0.0000000   0.0000000), wk =   0.0190476
        k(   18) = (   0.1680962   0.0000000   0.1200687), wk =   0.0380952
        k(   19) = (   0.1680962   0.0000000   0.2401374), wk =   0.0380952
        k(   20) = (   0.1680962   0.0000000   0.3602061), wk =   0.0380952
        k(   21) = (   0.1680962   0.1400802   0.0000000), wk =   0.0380952
        k(   22) = (   0.1680962   0.1400802   0.1200687), wk =   0.0761905
        k(   23) = (   0.1680962   0.1400802   0.2401374), wk =   0.0761905
        k(   24) = (   0.1680962   0.1400802   0.3602061), wk =   0.0761905
        k(   25) = (   0.1680962   0.2801603   0.0000000), wk =   0.0380952
        k(   26) = (   0.1680962   0.2801603   0.1200687), wk =   0.0761905
        k(   27) = (   0.1680962   0.2801603   0.2401374), wk =   0.0761905
        k(   28) = (   0.1680962   0.2801603   0.3602061), wk =   0.0761905
        k(   29) = (   0.1680962  -0.4202405   0.0000000), wk =   0.0190476
        k(   30) = (   0.1680962  -0.4202405   0.1200687), wk =   0.0380952
        k(   31) = (   0.1680962  -0.4202405   0.2401374), wk =   0.0380952
        k(   32) = (   0.1680962  -0.4202405   0.3602061), wk =   0.0380952
        k(   33) = (   0.3361924   0.0000000   0.0000000), wk =   0.0190476
        k(   34) = (   0.3361924   0.0000000   0.1200687), wk =   0.0380952
        k(   35) = (   0.3361924   0.0000000   0.2401374), wk =   0.0380952
        k(   36) = (   0.3361924   0.0000000   0.3602061), wk =   0.0380952
        k(   37) = (   0.3361924   0.1400802   0.0000000), wk =   0.0380952
        k(   38) = (   0.3361924   0.1400802   0.1200687), wk =   0.0761905
        k(   39) = (   0.3361924   0.1400802   0.2401374), wk =   0.0761905
        k(   40) = (   0.3361924   0.1400802   0.3602061), wk =   0.0761905
        k(   41) = (   0.3361924   0.2801603   0.0000000), wk =   0.0380952
        k(   42) = (   0.3361924   0.2801603   0.1200687), wk =   0.0761905
        k(   43) = (   0.3361924   0.2801603   0.2401374), wk =   0.0761905
        k(   44) = (   0.3361924   0.2801603   0.3602061), wk =   0.0761905
        k(   45) = (   0.3361924  -0.4202405   0.0000000), wk =   0.0190476
        k(   46) = (   0.3361924  -0.4202405   0.1200687), wk =   0.0380952
        k(   47) = (   0.3361924  -0.4202405   0.2401374), wk =   0.0380952
        k(   48) = (   0.3361924  -0.4202405   0.3602061), wk =   0.0380952

     Largest allocated arrays     est. size (Mb)     dimensions
     Largest temporary arrays     est. size (Mb)     dimensions

     Initial potential from superposition of free atoms

     Starting from uniform charge
     Starting wfc are    0 randomized atomic wfcs

     Writing output data file Prototype-La-cP8-Cr3Si.save

     Self-consistent Calculation

[...]

     negative rho (up, down):  0.248E-06 0.000E+00

[...]

     iteration # 10     ecut=    40.00 Ry     beta=0.70
     CG style diagonalization
     c_bands:  1 eigenvalues not converged
     ethr =  1.30E-06,  avg # of iterations =  3.2

[...]

     total energy              =   -2195.64856263 Ry
     Harris-Foulkes estimate   =   -2195.64856791 Ry
     estimated scf accuracy    <       0.00001383 Ry

     iteration # 13     ecut=    40.00 Ry     beta=0.70
     CG style diagonalization
     ethr =  8.65E-09,  avg # of iterations =  3.3

     End of self-consistent calculation

[...]

          k = 0.3362-0.4202 0.3602 (  4490 PWs)   bands (ev):

   -73.0721 -73.0721 -73.0702 -73.0674 -73.0636 -73.0604 -35.2497 -35.2339
   -35.1863 -35.1862 -35.1309 -35.1100 -34.9844 -34.9842 -34.9757 -34.9741
   -34.9708 -34.9693 -34.9658 -34.9655 -34.9626 -34.9589 -34.9516 -34.9504
   -18.9816 -18.9816   2.3208   2.3217   2.3295   2.3296   2.3349   2.3356
    10.7043  10.8488  11.1503  11.1526  11.1861  11.1930  11.2075  11.2337
    11.3473  11.3656  11.4403  11.4723  11.4963  11.5016  11.5858  11.5888
    11.9113  11.9120  11.9607  11.9613  12.0015  12.0047  12.0620  12.1339
    12.2349  12.2481  12.2754  12.2878  12.2956  12.3049  18.4367  18.4526
    19.0988  19.1112  19.6162  19.6178  23.1190  23.1191  25.9543  25.9545
    26.0212  26.0221  27.2951  27.3385  27.4901  27.6263  27.6677  27.6789
    29.4755  29.6147  30.4112  30.4551  31.3800  31.8144  33.0138  33.1465
    33.4898  33.5945  33.8246  33.8927  34.5965  34.5992  35.5233  35.5383

     the Fermi energy is    28.8018 ev

!    total energy              =   -2195.64856508 Ry
     Harris-Foulkes estimate   =   -2195.64856519 Ry
     estimated scf accuracy    <       0.00000013 Ry

     The total energy is the sum of the following terms:

     one-electron contribution =    -522.61596161 Ry
     hartree contribution      =     366.09194622 Ry
     xc contribution           =    -194.86983254 Ry
     ewald contribution        =   -1844.03086098 Ry
     smearing contrib. (-TS)   =      -0.22385617 Ry

     convergence has been achieved in  13 iterations

     Forces acting on atoms (Ry/au):

     atom    1 type  1   force =     0.00000000    0.00000000    0.00000000
     atom    2 type  1   force =     0.00000000    0.00000000    0.00000000
     atom    3 type  1   force =     0.00000000    0.00000000    0.00000000
     atom    4 type  1   force =     0.00000000    0.00000000    0.00000000
     atom    5 type  1   force =     0.00000000    0.00000000    0.00000000
     atom    6 type  1   force =     0.00000000    0.00000000    0.00000000
     atom    7 type  2   force =     0.00000000    0.00000000    0.00000000
     atom    8 type  2   force =     0.00000000    0.00000000    0.00000000

     Total force =     0.000000     Total SCF correction =     0.000000

     entering subroutine stress ...

          total   stress  (Ry/bohr**3)                   (kbar)     P=  161.78
   0.00109977   0.00000000   0.00000000        161.78      0.00      0.00
   0.00000000   0.00109977   0.00000000          0.00    161.78      0.00
   0.00000000   0.00000000   0.00109977          0.00      0.00    161.78

     Writing output data file Prototype-La-cP8-Cr3Si.save

     General routines

     Parallel routines

   This run was terminated on:  23:18: 3  22Mar2018

   JOB DONE.