     Program PWSCF v.5.0.2 starts on 22Mar2018 at  0:38:15

     Current dimensions of program PWSCF are:
     Max number of different atomic species (ntypx) = 10
     Max number of k-points (npk) =  40000
     Max angular momentum in pseudopotentials (lmaxx) =  3
     Waiting for input...
     Reading input from standard input

     Subspace diagonalization in iterative solution of the eigenvalue problem:
     a serial algorithm will be used

     bravais-lattice index     =            0
     lattice parameter (alat)  =       8.5346  a.u.
     unit-cell volume          =     621.6493 (a.u.)^3
     number of atoms/cell      =            8
     number of atomic types    =            2
     number of electrons       =       102.00
     number of Kohn-Sham states=           61
     kinetic-energy cutoff     =      40.0000  Ry
     charge density cutoff     =     160.0000  Ry
     convergence threshold     =      1.0E-04
     mixing beta               =       0.7000
     number of iterations used =            8  plain     mixing
     Exchange-correlation      = SLA-PZ-NOGX-NOGC ( 1 1 0 0 0)
     EXX-fraction              =        0.00
     nstep                     =           50

     celldm(1)=   8.534573  celldm(2)=   0.000000  celldm(3)=   0.000000
     celldm(4)=   0.000000  celldm(5)=   0.000000  celldm(6)=   0.000000

     crystal axes: (cart. coord. in units of alat)
               a(1) = (   1.000000   0.000000   0.000000 )
               a(2) = (   0.000000   1.000000   0.000000 )
               a(3) = (   0.000000   0.000000   1.000000 )

     reciprocal axes: (cart. coord. in units 2 pi/alat)
               b(1) = (  1.000000  0.000000  0.000000 )
               b(2) = (  0.000000  1.000000  0.000000 )
               b(3) = (  0.000000  0.000000  1.000000 )

     PseudoPot. # 1 for Ce read from file:
     /home/jld5415/pp.La/Ce.UPF
     MD5 check sum: 44451aa79a44a00cf2bc029dc19922f6
     Pseudo is Norm-conserving, Zval = 12.0
     Generated in analytical, separable form
     Using radial grid of 1255 points,  6 beta functions with:
                l(1) =   0
                l(2) =   0
                l(3) =   1
                l(4) =   1
                l(5) =   2
                l(6) =   3

     PseudoPot. # 2 for Pm read from file:
     /home/jld5415/pp.La/Pm.UPF
     MD5 check sum: 0061344aafc48faba5d75831754de21b
     Pseudo is Norm-conserving, Zval = 15.0
     Generated in analytical, separable form
     Using radial grid of 1259 points,  6 beta functions with:
                l(1) =   0
                l(2) =   0
                l(3) =   1
                l(4) =   1
                l(5) =   2
                l(6) =   3

     atomic species   valence    mass     pseudopotential
        Cr            12.00    51.99610     Ce( 1.00)
        Si            15.00    28.08550     Pm( 1.00)

     48 Sym. Ops., with inversion, found (24 have fractional translation)

   Cartesian axes

     site n.     atom                  positions (alat units)
         1           Cr  tau(   1) = (   0.0000000   0.5000000   0.2500000  )
         2           Cr  tau(   2) = (   0.0000000   0.5000000   0.7500000  )
         3           Cr  tau(   3) = (   0.5000000   0.7500000   0.0000000  )
         4           Cr  tau(   4) = (   0.5000000   0.2500000   0.0000000  )
         5           Cr  tau(   5) = (   0.7500000   0.0000000   0.5000000  )
         6           Cr  tau(   6) = (   0.2500000   0.0000000   0.5000000  )
         7           Si  tau(   7) = (   0.5000000   0.5000000   0.5000000  )
         8           Si  tau(   8) = (   0.0000000   0.0000000   0.0000000  )

     number of k points=    48  gaussian smearing, width (Ry)=  0.1000
                       cart. coord. in units 2pi/alat
        k(    1) = (   0.0000000   0.0000000   0.0000000), wk =   0.0095238
        k(    2) = (   0.0000000   0.0000000   0.1428571), wk =   0.0190476
        k(    3) = (   0.0000000   0.0000000   0.2857143), wk =   0.0190476
        k(    4) = (   0.0000000   0.0000000   0.4285714), wk =   0.0190476
        k(    5) = (   0.0000000   0.1666667   0.0000000), wk =   0.0190476
        k(    6) = (   0.0000000   0.1666667   0.1428571), wk =   0.0380952
        k(    7) = (   0.0000000   0.1666667   0.2857143), wk =   0.0380952
        k(    8) = (   0.0000000   0.1666667   0.4285714), wk =   0.0380952
        k(    9) = (   0.0000000   0.3333333   0.0000000), wk =   0.0190476
        k(   10) = (   0.0000000   0.3333333   0.1428571), wk =   0.0380952
        k(   11) = (   0.0000000   0.3333333   0.2857143), wk =   0.0380952
        k(   12) = (   0.0000000   0.3333333   0.4285714), wk =   0.0380952
        k(   13) = (   0.0000000  -0.5000000   0.0000000), wk =   0.0095238
        k(   14) = (   0.0000000  -0.5000000   0.1428571), wk =   0.0190476
        k(   15) = (   0.0000000  -0.5000000   0.2857143), wk =   0.0190476
        k(   16) = (   0.0000000  -0.5000000   0.4285714), wk =   0.0190476
        k(   17) = (   0.2000000   0.0000000   0.0000000), wk =   0.0190476
        k(   18) = (   0.2000000   0.0000000   0.1428571), wk =   0.0380952
        k(   19) = (   0.2000000   0.0000000   0.2857143), wk =   0.0380952
        k(   20) = (   0.2000000   0.0000000   0.4285714), wk =   0.0380952
        k(   21) = (   0.2000000   0.1666667   0.0000000), wk =   0.0380952
        k(   22) = (   0.2000000   0.1666667   0.1428571), wk =   0.0761905
        k(   23) = (   0.2000000   0.1666667   0.2857143), wk =   0.0761905
        k(   24) = (   0.2000000   0.1666667   0.4285714), wk =   0.0761905
        k(   25) = (   0.2000000   0.3333333   0.0000000), wk =   0.0380952
        k(   26) = (   0.2000000   0.3333333   0.1428571), wk =   0.0761905
        k(   27) = (   0.2000000   0.3333333   0.2857143), wk =   0.0761905
        k(   28) = (   0.2000000   0.3333333   0.4285714), wk =   0.0761905
        k(   29) = (   0.2000000  -0.5000000   0.0000000), wk =   0.0190476
        k(   30) = (   0.2000000  -0.5000000   0.1428571), wk =   0.0380952
        k(   31) = (   0.2000000  -0.5000000   0.2857143), wk =   0.0380952
        k(   32) = (   0.2000000  -0.5000000   0.4285714), wk =   0.0380952
        k(   33) = (   0.4000000   0.0000000   0.0000000), wk =   0.0190476
        k(   34) = (   0.4000000   0.0000000   0.1428571), wk =   0.0380952
        k(   35) = (   0.4000000   0.0000000   0.2857143), wk =   0.0380952
        k(   36) = (   0.4000000   0.0000000   0.4285714), wk =   0.0380952
        k(   37) = (   0.4000000   0.1666667   0.0000000), wk =   0.0380952
        k(   38) = (   0.4000000   0.1666667   0.1428571), wk =   0.0761905
        k(   39) = (   0.4000000   0.1666667   0.2857143), wk =   0.0761905
        k(   40) = (   0.4000000   0.1666667   0.4285714), wk =   0.0761905
        k(   41) = (   0.4000000   0.3333333   0.0000000), wk =   0.0380952
        k(   42) = (   0.4000000   0.3333333   0.1428571), wk =   0.0761905
        k(   43) = (   0.4000000   0.3333333   0.2857143), wk =   0.0761905
        k(   44) = (   0.4000000   0.3333333   0.4285714), wk =   0.0761905
        k(   45) = (   0.4000000  -0.5000000   0.0000000), wk =   0.0190476
        k(   46) = (   0.4000000  -0.5000000   0.1428571), wk =   0.0380952
        k(   47) = (   0.4000000  -0.5000000   0.2857143), wk =   0.0380952
        k(   48) = (   0.4000000  -0.5000000   0.4285714), wk =   0.0380952

     Largest allocated arrays     est. size (Mb)     dimensions
     Largest temporary arrays     est. size (Mb)     dimensions

     Initial potential from superposition of free atoms

     Starting from uniform charge
     Starting wfc are    0 randomized atomic wfcs

     Self-consistent Calculation

     iteration #  1     ecut=    40.00 Ry     beta=0.70
     CG style diagonalization
     c_bands:  3 eigenvalues not converged
     c_bands:  2 eigenvalues not converged
     c_bands:  2 eigenvalues not converged
     c_bands:  2 eigenvalues not converged
     c_bands:  3 eigenvalues not converged
     c_bands:  2 eigenvalues not converged
     c_bands:  2 eigenvalues not converged
     c_bands:  1 eigenvalues not converged
     c_bands:  2 eigenvalues not converged
     c_bands:  2 eigenvalues not converged
     c_bands:  1 eigenvalues not converged
     c_bands:  2 eigenvalues not converged
     c_bands:  2 eigenvalues not converged
     c_bands:  1 eigenvalues not converged
     c_bands:  1 eigenvalues not converged
     c_bands:  1 eigenvalues not converged
     c_bands:  1 eigenvalues not converged
     c_bands:  3 eigenvalues not converged
     c_bands:  2 eigenvalues not converged
     c_bands:  1 eigenvalues not converged
     c_bands:  4 eigenvalues not converged
     c_bands:  3 eigenvalues not converged
     c_bands:  2 eigenvalues not converged
     c_bands:  3 eigenvalues not converged
     c_bands:  2 eigenvalues not converged
     c_bands:  2 eigenvalues not converged
     c_bands:  2 eigenvalues not converged
     c_bands:  2 eigenvalues not converged
     c_bands:  1 eigenvalues not converged
     c_bands:  1 eigenvalues not converged
     c_bands:  1 eigenvalues not converged
     ethr =  1.00E-02,  avg # of iterations = 11.9

     total energy              =    -655.22421881 Ry
     Harris-Foulkes estimate   =    -754.97560799 Ry
     estimated scf accuracy    <     128.81109446 Ry

[...]

     iteration #  3     ecut=    40.00 Ry     beta=0.70
     CG style diagonalization
     ethr =  1.00E-02,  avg # of iterations =  6.9

[...]

     End of self-consistent calculation

          k = 0.0000 0.0000 0.0000 (  2601 PWs)   bands (ev):

   -13.3591 -13.1712  -1.3914   0.3471   0.3471   3.4559   3.4559   3.4559
     8.7634   8.7634   8.7634   8.8265   8.8265   8.8265  12.3192  12.3192
    14.2132  17.3181  17.3181  17.3181  18.6020  18.6020  18.6020  21.3502
    21.3502  21.3502  21.9265  21.9265  21.9264  27.7141  27.7141  27.7141
    33.9548  33.9548  33.9548  34.2064  34.2064  34.2087  34.6707  37.6406
    37.6406  37.8639  37.8639  37.8639  37.9053  38.0028  38.0028  38.0028
    39.6227  39.6227  39.6685  39.6685  39.6685  43.8484  43.8991  43.8661
    43.8550  44.1586  44.1586  44.1936  45.7103

[...]

     the Fermi energy is    41.3520 ev

!    total energy              =    -717.08788028 Ry
     Harris-Foulkes estimate   =    -717.08790014 Ry
     estimated scf accuracy    <       0.00003723 Ry

     The total energy is the sum of the following terms:

     one-electron contribution =     241.93711547 Ry
     hartree contribution      =      24.74592042 Ry
     xc contribution           =    -100.66421915 Ry
     ewald contribution        =    -882.85879084 Ry
     smearing contrib. (-TS)   =      -0.24790618 Ry

     convergence has been achieved in   6 iterations

     Forces acting on atoms (Ry/au):

     atom    1 type  1   force =     0.00000000    0.00000000    0.00000000
     atom    2 type  1   force =     0.00000000    0.00000000    0.00000000
     atom    3 type  1   force =     0.00000000    0.00000000    0.00000000
     atom    4 type  1   force =     0.00000000    0.00000000    0.00000000
     atom    5 type  1   force =     0.00000000    0.00000000    0.00000000
[...]
        k(   44) = (   0.3635474   0.3029562   0.3895151), wk =   0.0761905
        k(   45) = (   0.3635474  -0.4544343   0.0000000), wk =   0.0190476
        k(   46) = (   0.3635474  -0.4544343   0.1298384), wk =   0.0380952
        k(   47) = (   0.3635474  -0.4544343   0.2596767), wk =   0.0380952
        k(   48) = (   0.3635474  -0.4544343   0.3895151), wk =   0.0380952

[...]

     enthalpy old            =    -717.0878802796 Ry
     enthalpy new            =    -720.9914006665 Ry

     CASE: enthalpy_new < enthalpy_old

     small trust_radius: resetting bfgs history

     new trust radius        =       1.3600425957 bohr
     new conv_thr            =       0.0000010000 Ry

[...]

     number of scf cycles    =   3
     number of bfgs steps    =   2

     enthalpy old            =    -720.9914006665 Ry
     enthalpy new            =    -720.0630882812 Ry

     CASE: enthalpy_new > enthalpy_old

     new trust radius        =       0.6477532324 bohr

     trust_radius < trust_radius_min

     resetting bfgs history

     Message from routine bfgs:
     history already reset at previous step: stopping
     new conv_thr            =       0.0000010000 Ry

     new unit-cell volume =   1037.67975 a.u.^3 (   153.76827 Ang^3 )

[...]

ATOMIC_POSITIONS (crystal)
Cr       0.000000000   0.500000000   0.250000000
Cr       0.000000000   0.500000000   0.750000000
Cr       0.500000000   0.750000000   0.000000000
Cr       0.500000000   0.250000000   0.000000000
Cr       0.750000000   0.000000000   0.500000000
Cr       0.250000000   0.000000000   0.500000000
Si       0.500000000   0.500000000   0.500000000
Si       0.000000000   0.000000000   0.000000000

     Writing output data file Prototype-La-cP8-Cr3Si.save
     NEW-OLD atomic charge density approx. for the potential
     NEW k-points:
        k(    1) = (   0.0000000   0.0000000   0.0000000), wk =   0.0095238
        k(    2) = (   0.0000000   0.0000000   0.1204285), wk =   0.0190476
        k(    3) = (   0.0000000   0.0000000   0.2408570), wk =   0.0190476
        k(    4) = (   0.0000000   0.0000000   0.3612855), wk =   0.0190476
        k(    5) = (   0.0000000   0.1404999   0.0000000), wk =   0.0190476
        k(    6) = (   0.0000000   0.1404999   0.1204285), wk =   0.0380952
        k(    7) = (   0.0000000   0.1404999   0.2408570), wk =   0.0380952
        k(    8) = (   0.0000000   0.1404999   0.3612855), wk =   0.0380952
        k(    9) = (   0.0000000   0.2809999   0.0000000), wk =   0.0190476
        k(   10) = (   0.0000000   0.2809999   0.1204285), wk =   0.0380952
        k(   11) = (   0.0000000   0.2809999   0.2408570), wk =   0.0380952
        k(   12) = (   0.0000000   0.2809999   0.3612855), wk =   0.0380952
        k(   13) = (   0.0000000  -0.4214998   0.0000000), wk =   0.0095238
        k(   14) = (   0.0000000  -0.4214998   0.1204285), wk =   0.0190476
        k(   15) = (   0.0000000  -0.4214998   0.2408570), wk =   0.0190476
        k(   16) = (   0.0000000  -0.4214998   0.3612855), wk =   0.0190476
        k(   17) = (   0.1685999   0.0000000   0.0000000), wk =   0.0190476
        k(   18) = (   0.1685999   0.0000000   0.1204285), wk =   0.0380952
        k(   19) = (   0.1685999   0.0000000   0.2408570), wk =   0.0380952
        k(   20) = (   0.1685999   0.0000000   0.3612855), wk =   0.0380952
        k(   21) = (   0.1685999   0.1404999   0.0000000), wk =   0.0380952
        k(   22) = (   0.1685999   0.1404999   0.1204285), wk =   0.0761905
        k(   23) = (   0.1685999   0.1404999   0.2408570), wk =   0.0761905
        k(   24) = (   0.1685999   0.1404999   0.3612855), wk =   0.0761905
        k(   25) = (   0.1685999   0.2809999   0.0000000), wk =   0.0380952
        k(   26) = (   0.1685999   0.2809999   0.1204285), wk =   0.0761905
        k(   27) = (   0.1685999   0.2809999   0.2408570), wk =   0.0761905
        k(   28) = (   0.1685999   0.2809999   0.3612855), wk =   0.0761905
        k(   29) = (   0.1685999  -0.4214998   0.0000000), wk =   0.0190476
        k(   30) = (   0.1685999  -0.4214998   0.1204285), wk =   0.0380952
        k(   31) = (   0.1685999  -0.4214998   0.2408570), wk =   0.0380952
        k(   32) = (   0.1685999  -0.4214998   0.3612855), wk =   0.0380952
        k(   33) = (   0.3371998   0.0000000   0.0000000), wk =   0.0190476
        k(   34) = (   0.3371998   0.0000000   0.1204285), wk =   0.0380952
        k(   35) = (   0.3371998   0.0000000   0.2408570), wk =   0.0380952
        k(   36) = (   0.3371998   0.0000000   0.3612855), wk =   0.0380952
        k(   37) = (   0.3371998   0.1404999   0.0000000), wk =   0.0380952
        k(   38) = (   0.3371998   0.1404999   0.1204285), wk =   0.0761905
        k(   39) = (   0.3371998   0.1404999   0.2408570), wk =   0.0761905
        k(   40) = (   0.3371998   0.1404999   0.3612855), wk =   0.0761905
        k(   41) = (   0.3371998   0.2809999   0.0000000), wk =   0.0380952
        k(   42) = (   0.3371998   0.2809999   0.1204285), wk =   0.0761905
        k(   43) = (   0.3371998   0.2809999   0.2408570), wk =   0.0761905
        k(   44) = (   0.3371998   0.2809999   0.3612855), wk =   0.0761905
        k(   45) = (   0.3371998  -0.4214998   0.0000000), wk =   0.0190476
        k(   46) = (   0.3371998  -0.4214998   0.1204285), wk =   0.0380952
        k(   47) = (   0.3371998  -0.4214998   0.2408570), wk =   0.0380952
        k(   48) = (   0.3371998  -0.4214998   0.3612855), wk =   0.0380952

[...]

     The maximum number of steps has been reached.

     End of BFGS Geometry Optimization
Begin final coordinates
     new unit-cell volume =   1037.67975 a.u.^3 (   153.76827 Ang^3 )

CELL_PARAMETERS (alat=  8.53457320)
   1.186240206   0.000000000   0.000000000
   0.000000000   1.186240206   0.000000000
   0.000000000   0.000000000   1.186240206

ATOMIC_POSITIONS (crystal)
Cr       0.000000000   0.500000000   0.250000000
Cr       0.000000000   0.500000000   0.750000000
Cr       0.500000000   0.750000000   0.000000000
Cr       0.500000000   0.250000000   0.000000000
Cr       0.750000000   0.000000000   0.500000000
Cr       0.250000000   0.000000000   0.500000000
Si       0.500000000   0.500000000   0.500000000
Si       0.000000000   0.000000000   0.000000000
End final coordinates

     A final scf calculation at the relaxed structure.
     The G-vectors are recalculated for the final unit cell
     Results may differ from those at the preceding step.

     bravais-lattice index     =            0
     lattice parameter (alat)  =       8.5346  a.u.
     unit-cell volume          =    1037.6798 (a.u.)^3
     number of atoms/cell      =            8
     number of atomic types    =            2
     number of electrons       =       102.00
     number of Kohn-Sham states=           61
     kinetic-energy cutoff     =      40.0000  Ry
     charge density cutoff     =     160.0000  Ry
     convergence threshold     =      1.0E-06
     mixing beta               =       0.7000
     number of iterations used =            8  plain     mixing
     Exchange-correlation      = SLA-PZ-NOGX-NOGC ( 1 1 0 0 0)
     EXX-fraction              =        0.00

     celldm(1)=   8.534573  celldm(2)=   0.000000  celldm(3)=   0.000000
     celldm(4)=   0.000000  celldm(5)=   0.000000  celldm(6)=   0.000000

     crystal axes: (cart. coord. in units of alat)
               a(1) = (   1.186240   0.000000   0.000000 )
               a(2) = (   0.000000   1.186240   0.000000 )
               a(3) = (   0.000000   0.000000   1.186240 )

     reciprocal axes: (cart. coord. in units 2 pi/alat)
               b(1) = (  0.843000  0.000000  0.000000 )
               b(2) = (  0.000000  0.843000  0.000000 )
               b(3) = (  0.000000  0.000000  0.843000 )

     PseudoPot. # 1 for Ce read from file:
     /home/jld5415/pp.La/Ce.UPF
     MD5 check sum: 44451aa79a44a00cf2bc029dc19922f6
     Pseudo is Norm-conserving, Zval = 12.0
     Generated in analytical, separable form
     Using radial grid of 1255 points,  6 beta functions with:
                l(1) =   0
                l(2) =   0
                l(3) =   1
                l(4) =   1
                l(5) =   2
                l(6) =   3

     PseudoPot. # 2 for Pm read from file:
     /home/jld5415/pp.La/Pm.UPF
     MD5 check sum: 0061344aafc48faba5d75831754de21b
     Pseudo is Norm-conserving, Zval = 15.0
     Generated in analytical, separable form
     Using radial grid of 1259 points,  6 beta functions with:
                l(1) =   0
                l(2) =   0
                l(3) =   1
                l(4) =   1
                l(5) =   2
                l(6) =   3

     atomic species   valence    mass     pseudopotential
        Cr            12.00    51.99610     Ce( 1.00)
        Si            15.00    28.08550     Pm( 1.00)

     48 Sym. Ops., with inversion, found (24 have fractional translation)

   Cartesian axes

     site n.     atom                  positions (alat units)
         1           Cr  tau(   1) = (   0.0000000   0.5931201   0.2965601  )
         2           Cr  tau(   2) = (   0.0000000   0.5931201   0.8896802  )
         3           Cr  tau(   3) = (   0.5931201   0.8896802   0.0000000  )
         4           Cr  tau(   4) = (   0.5931201   0.2965601   0.0000000  )
         5           Cr  tau(   5) = (   0.8896802   0.0000000   0.5931201  )
         6           Cr  tau(   6) = (   0.2965601   0.0000000   0.5931201  )
         7           Si  tau(   7) = (   0.5931201   0.5931201   0.5931201  )
         8           Si  tau(   8) = (   0.0000000   0.0000000   0.0000000  )

     number of k points=    48  gaussian smearing, width (Ry)=  0.1000
                       cart. coord. in units 2pi/alat
        k(    1) = (   0.0000000   0.0000000   0.0000000), wk =   0.0095238
        k(    2) = (   0.0000000   0.0000000   0.1204285), wk =   0.0190476
        k(    3) = (   0.0000000   0.0000000   0.2408570), wk =   0.0190476
        k(    4) = (   0.0000000   0.0000000   0.3612855), wk =   0.0190476
        k(    5) = (   0.0000000   0.1404999   0.0000000), wk =   0.0190476
        k(    6) = (   0.0000000   0.1404999   0.1204285), wk =   0.0380952
        k(    7) = (   0.0000000   0.1404999   0.2408570), wk =   0.0380952
        k(    8) = (   0.0000000   0.1404999   0.3612855), wk =   0.0380952
        k(    9) = (   0.0000000   0.2809999   0.0000000), wk =   0.0190476
        k(   10) = (   0.0000000   0.2809999   0.1204285), wk =   0.0380952
        k(   11) = (   0.0000000   0.2809999   0.2408570), wk =   0.0380952
        k(   12) = (   0.0000000   0.2809999   0.3612855), wk =   0.0380952
        k(   13) = (   0.0000000  -0.4214998   0.0000000), wk =   0.0095238
        k(   14) = (   0.0000000  -0.4214998   0.1204285), wk =   0.0190476
        k(   15) = (   0.0000000  -0.4214998   0.2408570), wk =   0.0190476
        k(   16) = (   0.0000000  -0.4214998   0.3612855), wk =   0.0190476
        k(   17) = (   0.1685999   0.0000000   0.0000000), wk =   0.0190476
        k(   18) = (   0.1685999   0.0000000   0.1204285), wk =   0.0380952
        k(   19) = (   0.1685999   0.0000000   0.2408570), wk =   0.0380952
        k(   20) = (   0.1685999   0.0000000   0.3612855), wk =   0.0380952
        k(   21) = (   0.1685999   0.1404999   0.0000000), wk =   0.0380952
        k(   22) = (   0.1685999   0.1404999   0.1204285), wk =   0.0761905
        k(   23) = (   0.1685999   0.1404999   0.2408570), wk =   0.0761905
        k(   24) = (   0.1685999   0.1404999   0.3612855), wk =   0.0761905
        k(   25) = (   0.1685999   0.2809999   0.0000000), wk =   0.0380952
        k(   26) = (   0.1685999   0.2809999   0.1204285), wk =   0.0761905
        k(   27) = (   0.1685999   0.2809999   0.2408570), wk =   0.0761905
        k(   28) = (   0.1685999   0.2809999   0.3612855), wk =   0.0761905
        k(   29) = (   0.1685999  -0.4214998   0.0000000), wk =   0.0190476
        k(   30) = (   0.1685999  -0.4214998   0.1204285), wk =   0.0380952
        k(   31) = (   0.1685999  -0.4214998   0.2408570), wk =   0.0380952
        k(   32) = (   0.1685999  -0.4214998   0.3612855), wk =   0.0380952
        k(   33) = (   0.3371998   0.0000000   0.0000000), wk =   0.0190476
        k(   34) = (   0.3371998   0.0000000   0.1204285), wk =   0.0380952
        k(   35) = (   0.3371998   0.0000000   0.2408570), wk =   0.0380952
        k(   36) = (   0.3371998   0.0000000   0.3612855), wk =   0.0380952
        k(   37) = (   0.3371998   0.1404999   0.0000000), wk =   0.0380952
        k(   38) = (   0.3371998   0.1404999   0.1204285), wk =   0.0761905
        k(   39) = (   0.3371998   0.1404999   0.2408570), wk =   0.0761905
        k(   40) = (   0.3371998   0.1404999   0.3612855), wk =   0.0761905
        k(   41) = (   0.3371998   0.2809999   0.0000000), wk =   0.0380952
        k(   42) = (   0.3371998   0.2809999   0.1204285), wk =   0.0761905
        k(   43) = (   0.3371998   0.2809999   0.2408570), wk =   0.0761905
        k(   44) = (   0.3371998   0.2809999   0.3612855), wk =   0.0761905
        k(   45) = (   0.3371998  -0.4214998   0.0000000), wk =   0.0190476
        k(   46) = (   0.3371998  -0.4214998   0.1204285), wk =   0.0380952
        k(   47) = (   0.3371998  -0.4214998   0.2408570), wk =   0.0380952
        k(   48) = (   0.3371998  -0.4214998   0.3612855), wk =   0.0380952

     Largest allocated arrays     est. size (Mb)     dimensions
     Largest temporary arrays     est. size (Mb)     dimensions

     Initial potential from superposition of free atoms

     Starting from uniform charge
     Starting wfc are    0 randomized atomic wfcs

     Writing output data file Prototype-La-cP8-Cr3Si.save

     Self-consistent Calculation

[...]

     negative rho (up, down):  0.148E-03 0.000E+00

[...]

     iteration # 17     ecut=    40.00 Ry     beta=0.70
     CG style diagonalization
     c_bands:  1 eigenvalues not converged
     ethr =  3.06E-07,  avg # of iterations =  3.8

[...]

     total energy              =    -722.85829789 Ry
     Harris-Foulkes estimate   =    -722.85830044 Ry
     estimated scf accuracy    <       0.00000593 Ry

     iteration # 25     ecut=    40.00 Ry     beta=0.70
     CG style diagonalization
     ethr =  5.82E-09,  avg # of iterations =  3.6

     End of self-consistent calculation

[...]

          k = 0.3372-0.4215 0.3613 (  4442 PWs)   bands (ev):

   -28.4160 -28.4160 -13.8612 -13.8197 -13.6636 -13.6622 -13.5146 -13.4670
    -5.2551  -5.2536  -5.2364  -5.2364  -5.2146  -5.2120   2.9226   3.0983
     3.2084   3.2444   3.6348   3.6476   4.0037   4.0876   4.4504   4.4966
     4.6603   4.6855   4.8806   4.8896   4.9531   4.9674   4.9746   5.0372
    19.7342  19.7691  19.9787  20.0085  20.2358  20.3826  20.5871  20.5993
    20.7009  20.7246  21.7947  21.8229  22.1058  22.1158  22.7079  22.8467
    23.5892  23.5970  24.5678  24.5765  25.2835  25.2980  25.9750  26.0100
    26.5186  26.9178  27.5479  27.5641  27.8914

     the Fermi energy is    24.0741 ev

!    total energy              =    -722.85829926 Ry
     Harris-Foulkes estimate   =    -722.85829988 Ry
     estimated scf accuracy    <       0.00000068 Ry

     The total energy is the sum of the following terms:

     one-electron contribution =      61.49412954 Ry
     hartree contribution      =      53.01495482 Ry
     xc contribution           =     -92.67873834 Ry
     ewald contribution        =    -744.24959303 Ry
     smearing contrib. (-TS)   =      -0.43905224 Ry

     convergence has been achieved in  25 iterations

     Forces acting on atoms (Ry/au):

     atom    1 type  1   force =     0.00000000    0.00000000    0.00000000
     atom    2 type  1   force =     0.00000000    0.00000000    0.00000000
     atom    3 type  1   force =     0.00000000    0.00000000    0.00000000
     atom    4 type  1   force =     0.00000000    0.00000000    0.00000000
     atom    5 type  1   force =     0.00000000    0.00000000    0.00000000
     atom    6 type  1   force =     0.00000000    0.00000000    0.00000000
     atom    7 type  2   force =     0.00000000    0.00000000    0.00000000
     atom    8 type  2   force =     0.00000000    0.00000000    0.00000000

     Total force =     0.000000     Total SCF correction =     0.000000

     entering subroutine stress ...

          total   stress  (Ry/bohr**3)                   (kbar)     P=  540.04
   0.00367112   0.00000000   0.00000000        540.04      0.00      0.00
   0.00000000   0.00367112   0.00000000          0.00    540.04      0.00
   0.00000000   0.00000000   0.00367112          0.00      0.00    540.04

     Writing output data file Prototype-La-cP8-Cr3Si.save

     General routines

     Parallel routines

   This run was terminated on:   0:59: 4  22Mar2018

   JOB DONE.