     Program PWSCF v.5.0.2 starts on 22Mar2018 at  0:38:17

     Current dimensions of program PWSCF are:
     Max number of different atomic species (ntypx) = 10
     Max number of k-points (npk) =  40000
     Max angular momentum in pseudopotentials (lmaxx) =  3
     Waiting for input...
     Reading input from standard input

     Subspace diagonalization in iterative solution of the eigenvalue problem:
     a serial algorithm will be used

     bravais-lattice index     =            0
     lattice parameter (alat)  =      13.3930  a.u.
     unit-cell volume          =    1134.0956 (a.u.)^3
     number of atoms/cell      =            4
     number of atomic types    =            2
     number of electrons       =        54.00
     number of Kohn-Sham states=           32
     kinetic-energy cutoff     =      40.0000  Ry
     charge density cutoff     =     160.0000  Ry
     convergence threshold     =      1.0E-04
     mixing beta               =       0.7000
     number of iterations used =            8  plain     mixing
     Exchange-correlation      = SLA-PZ-NOGX-NOGC ( 1 1 0 0 0)
     EXX-fraction              =        0.00
     nstep                     =           50

     celldm(1)=  13.392972  celldm(2)=   0.000000  celldm(3)=   0.000000
     celldm(4)=   0.000000  celldm(5)=   0.000000  celldm(6)=   0.000000

     crystal axes: (cart. coord. in units of alat)
               a(1) = (   1.000000   0.000000   0.000000 )
               a(2) = (  -0.776311   0.630350   0.000000 )
               a(3) = (   0.000000   0.000000   0.748922 )

     reciprocal axes: (cart. coord. in units 2 pi/alat)
               b(1) = (  1.000000  1.231554  0.000000 )
               b(2) = (  0.000000  1.586419  0.000000 )
               b(3) = (  0.000000  0.000000  1.335252 )

     PseudoPot. # 1 for Ce read from file:
     /home/jld5415/pp.La/Ce.UPF
     MD5 check sum: 44451aa79a44a00cf2bc029dc19922f6
     Pseudo is Norm-conserving, Zval = 12.0
     Generated in analytical, separable form
     Using radial grid of 1255 points,  6 beta functions with:
                l(1) =   0
                l(2) =   0
                l(3) =   1
                l(4) =   1
                l(5) =   2
                l(6) =   3

     PseudoPot. # 2 for Pm read from file:
     /home/jld5415/pp.La/Pm.UPF
     MD5 check sum: 0061344aafc48faba5d75831754de21b
     Pseudo is Norm-conserving, Zval = 15.0
     Generated in analytical, separable form
     Using radial grid of 1259 points,  6 beta functions with:
                l(1) =   0
                l(2) =   0
                l(3) =   1
                l(4) =   1
                l(5) =   2
                l(6) =   3

     atomic species   valence    mass     pseudopotential
        Tl            12.00   204.38300     Ce( 1.00)
        I             15.00   126.90400     Pm( 1.00)

      2 Sym. Ops., with inversion, found
          (note:  2 additional sym.ops. were found but ignored
           their fractional translations are incommensurate with FFT grid)

   Cartesian axes

     site n.     atom                  positions (alat units)
         1           Tl  tau(   1) = (  -0.0906317   0.3870269   0.5616917  )
         2           Tl  tau(   2) = (   0.3143210   0.2433234   0.1872306  )
         3           I   tau(   3) = (  -0.5408004   0.5467760   0.5616917  )
         4           I   tau(   4) = (   0.7644896   0.0835744   0.1872306  )

     number of k points=   106  gaussian smearing, width (Ry)=  0.1000

     Number of k-points >= 100: set verbosity='high' to print them.

     Largest allocated arrays     est. size (Mb)     dimensions
     Largest temporary arrays     est. size (Mb)     dimensions

     Initial potential from superposition of free atoms

     Starting from uniform charge
     Starting wfc are    0 randomized atomic wfcs

     Self-consistent Calculation

     iteration #  1     ecut=    40.00 Ry     beta=0.70
     CG style diagonalization
     c_bands:  1 eigenvalues not converged
     c_bands:  1 eigenvalues not converged
     ethr =  1.00E-02,  avg # of iterations = 12.5

     total energy              =    -357.87687708 Ry
     Harris-Foulkes estimate   =    -531.07598595 Ry
     estimated scf accuracy    <     225.61957447 Ry

[...]

     iteration #  3     ecut=    40.00 Ry     beta=0.70
     CG style diagonalization
     ethr =  1.00E-02,  avg # of iterations =  7.8

[...]

     End of self-consistent calculation

     Number of k-points >= 100: set verbosity='high' to print the bands.

     the Fermi energy is     9.1624 ev

!    total energy              =    -413.95954255 Ry
     Harris-Foulkes estimate   =    -413.95958757 Ry
     estimated scf accuracy    <       0.00004924 Ry

     The total energy is the sum of the following terms:

     one-electron contribution =    -119.09817988 Ry
     hartree contribution      =      72.90718688 Ry
     xc contribution           =     -47.64224241 Ry
     ewald contribution        =    -319.63806791 Ry
     smearing contrib. (-TS)   =      -0.48823922 Ry

     convergence has been achieved in  13 iterations

     Forces acting on atoms (Ry/au):

     atom    1 type  1   force =    -0.01642954    0.00579448    0.00024113
     atom    2 type  1   force =     0.01642954   -0.00579448   -0.00024113
     atom    3 type  2   force =    -0.00729703    0.00240368    0.00034909
     atom    4 type  2   force =     0.00729703   -0.00240368   -0.00034909

     Total force =     0.026934     Total SCF correction =     0.000000

     entering subroutine stress ...

          total   stress  (Ry/bohr**3)                   (kbar)     P= -211.41
  -0.00142996  -0.00001381   0.00000011       -210.35     -2.03      0.02
  -0.00001381  -0.00146419  -0.00000039         -2.03   -215.39     -0.06
   0.00000011  -0.00000039  -0.00141716          0.02     -0.06   -208.47

     BFGS Geometry Optimization

     number of scf cycles    =   1
     number of bfgs steps    =   0

     enthalpy new            =    -413.9595425520 Ry

     new trust radius        =       0.2465532182 bohr
     new conv_thr            =       0.0001000000 Ry

     new unit-cell volume =   1016.19808 a.u.^3 (   150.58502 Ang^3 )

CELL_PARAMETERS (alat= 13.39297219)
   0.964250969  -0.000345230   0.000002673
  -0.748776009   0.607544630  -0.000008251
   0.000002002  -0.000007338   0.722388585

ATOMIC_POSITIONS (crystal)
Tl       0.385319105   0.614673366   0.750024040
Tl       0.614680895   0.385326634   0.249975960
I        0.132260191   0.867700720   0.750034804
I        0.867739809   0.132299280   0.249965196

     Writing output data file Prototype-La-oS8-TlI.save
     NEW-OLD atomic charge density approx. for the potential
     NEW k-points: (use verbosity='high' to print them)

[...]

     enthalpy old            =    -413.9595425520 Ry
     enthalpy new            =    -414.1249865971 Ry

     CASE: enthalpy_new < enthalpy_old

     WARNING: bfgs curvature condition failed, Theta= 0.921
     small trust_radius: resetting bfgs history

[...]

     number of scf cycles    =   3
     number of bfgs steps    =   2

     enthalpy old            =    -414.1249865971 Ry
     enthalpy new            =    -414.2507775667 Ry

     CASE: enthalpy_new < enthalpy_old

     WARNING: bfgs curvature condition failed, Theta= 0.990
     Message from routine bfgs:
     history already reset at previous step: stopping
     small trust_radius: resetting bfgs history

     new trust radius        =       0.1909762418 bohr
     new conv_thr            =       0.0000171549 Ry

     new unit-cell volume =    839.41782 a.u.^3 (   124.38889 Ang^3 )

[...]

ATOMIC_POSITIONS (crystal)
Tl       0.384631291   0.615396289   0.750174019
Tl       0.615368709   0.384603711   0.249825981
I        0.130566026   0.869424013   0.750465771
I        0.869433974   0.130575987   0.249534229

     Writing output data file Prototype-La-oS8-TlI.save
     NEW-OLD atomic charge density approx. for the potential
     NEW k-points: (use verbosity='high' to print them)

[...]

     The maximum number of steps has been reached.

     End of BFGS Geometry Optimization
Begin final coordinates
     new unit-cell volume =    839.41782 a.u.^3 (   124.38889 Ang^3 )

CELL_PARAMETERS (alat= 13.39297219)
   0.905477840  -0.002086105   0.000003565
  -0.704247151   0.569134450  -0.000007864
   0.000002676  -0.000006003   0.679977342

ATOMIC_POSITIONS (crystal)
Tl       0.384631291   0.615396289   0.750174019
Tl       0.615368709   0.384603711   0.249825981
I        0.130566026   0.869424013   0.750465771
I        0.869433974   0.130575987   0.249534229
End final coordinates

     A final scf calculation at the relaxed structure.
     The G-vectors are recalculated for the final unit cell
     Results may differ from those at the preceding step.

     bravais-lattice index     =            0
     lattice parameter (alat)  =      13.3930  a.u.
     unit-cell volume          =     839.4178 (a.u.)^3
     number of atoms/cell      =            4
     number of atomic types    =            2
     number of electrons       =        54.00
     number of Kohn-Sham states=           32
     kinetic-energy cutoff     =      40.0000  Ry
     charge density cutoff     =     160.0000  Ry
     convergence threshold     =      1.7E-05
     mixing beta               =       0.7000
     number of iterations used =            8  plain     mixing
     Exchange-correlation      = SLA-PZ-NOGX-NOGC ( 1 1 0 0 0)
     EXX-fraction              =        0.00

     celldm(1)=  13.392972  celldm(2)=   0.000000  celldm(3)=   0.000000
     celldm(4)=   0.000000  celldm(5)=   0.000000  celldm(6)=   0.000000

     crystal axes: (cart. coord. in units of alat)
               a(1) = (   0.905478  -0.002086   0.000004 )
               a(2) = (  -0.704247   0.569134  -0.000008 )
               a(3) = (   0.000003  -0.000006   0.679977 )

     reciprocal axes: (cart. coord. in units 2 pi/alat)
               b(1) = (  1.107547  1.370479  0.000008 )
               b(2) = (  0.004060  1.762077  0.000016 )
               b(3) = ( -0.000006  0.000013  1.470637 )

     PseudoPot. # 1 for Ce read from file:
     /home/jld5415/pp.La/Ce.UPF
     MD5 check sum: 44451aa79a44a00cf2bc029dc19922f6
     Pseudo is Norm-conserving, Zval = 12.0
     Generated in analytical, separable form
     Using radial grid of 1255 points,  6 beta functions with:
                l(1) =   0
                l(2) =   0
                l(3) =   1
                l(4) =   1
                l(5) =   2
                l(6) =   3

     PseudoPot. # 2 for Pm read from file:
     /home/jld5415/pp.La/Pm.UPF
     MD5 check sum: 0061344aafc48faba5d75831754de21b
     Pseudo is Norm-conserving, Zval = 15.0
     Generated in analytical, separable form
     Using radial grid of 1259 points,  6 beta functions with:
                l(1) =   0
                l(2) =   0
                l(3) =   1
                l(4) =   1
                l(5) =   2
                l(6) =   3

     atomic species   valence    mass     pseudopotential
        Tl            12.00   204.38300     Ce( 1.00)
        I             15.00   126.90400     Pm( 1.00)

      2 Sym. Ops., with inversion, found
          (note:  2 additional sym.ops. were found but ignored
           their fractional translations are incommensurate with FFT grid)

   Cartesian axes

     site n.     atom                  positions (alat units)
         1           Tl  tau(   1) = (  -0.0851140   0.3494363   0.5100979  )
         2           Tl  tau(   2) = (   0.2863473   0.2176060   0.1698752  )
         3           I   tau(   3) = (  -0.4940627   0.4945423   0.5102933  )
         4           I   tau(   4) = (   0.6952961   0.0725001   0.1696797  )

     number of k points=   106  gaussian smearing, width (Ry)=  0.1000

     Number of k-points >= 100: set verbosity='high' to print them.

     Largest allocated arrays     est. size (Mb)     dimensions
     Largest temporary arrays     est. size (Mb)     dimensions

     Initial potential from superposition of free atoms

     Starting from uniform charge
     Starting wfc are    0 randomized atomic wfcs

     Writing output data file Prototype-La-oS8-TlI.save

     Self-consistent Calculation

[...]

     iteration #  5     ecut=    40.00 Ry     beta=0.70
     CG style diagonalization
     ethr =  5.00E-03,  avg # of iterations =  3.9

[...]

     total energy              =    -414.27614483 Ry
     Harris-Foulkes estimate   =    -414.27631395 Ry
     estimated scf accuracy    <       0.00050217 Ry

     iteration # 10     ecut=    40.00 Ry     beta=0.70
     CG style diagonalization
     c_bands:  1 eigenvalues not converged
     c_bands:  1 eigenvalues not converged
     c_bands:  1 eigenvalues not converged
     c_bands:  2 eigenvalues not converged
     c_bands:  1 eigenvalues not converged
     c_bands:  1 eigenvalues not converged
     c_bands:  1 eigenvalues not converged
     ethr =  7.92E-07,  avg # of iterations =  3.6

     End of self-consistent calculation

     Number of k-points >= 100: set verbosity='high' to print the bands.

     the Fermi energy is    13.6229 ev

!    total energy              =    -414.27621786 Ry
     Harris-Foulkes estimate   =    -414.27622843 Ry
     estimated scf accuracy    <       0.00001346 Ry

     The total energy is the sum of the following terms:

     one-electron contribution =     -69.59190702 Ry
     hartree contribution      =      57.55145526 Ry
     xc contribution           =     -48.52154628 Ry
     ewald contribution        =    -353.35873582 Ry
     smearing contrib. (-TS)   =      -0.35548400 Ry

     convergence has been achieved in  10 iterations

     Forces acting on atoms (Ry/au):

     atom    1 type  1   force =     0.00290612   -0.00121560    0.00429932
     atom    2 type  1   force =    -0.00290612    0.00121560   -0.00429932
     atom    3 type  2   force =    -0.04250422    0.01466345    0.00752537
     atom    4 type  2   force =     0.04250422   -0.01466345   -0.00752537

     Total force =     0.064910     Total SCF correction =     0.000000

     entering subroutine stress ...

          total   stress  (Ry/bohr**3)                   (kbar)     P= -181.83
  -0.00121248  -0.00006880  -0.00000009       -178.36    -10.12     -0.01
  -0.00006880  -0.00138353  -0.00000015        -10.12   -203.52     -0.02
  -0.00000009  -0.00000015  -0.00111221         -0.01     -0.02   -163.61

     Writing output data file Prototype-La-oS8-TlI.save

     General routines

     Parallel routines

   This run was terminated on:   1: 6:51  22Mar2018

   JOB DONE.