     Program PWSCF v.5.0.2 starts on 22Mar2018 at  0:38:15

     Current dimensions of program PWSCF are:
     Max number of different atomic species (ntypx) = 10
     Max number of k-points (npk) =  40000
     Max angular momentum in pseudopotentials (lmaxx) =  3
     Waiting for input...
     Reading input from standard input

     Subspace diagonalization in iterative solution of the eigenvalue problem:
     a serial algorithm will be used

     bravais-lattice index     =            0
     lattice parameter (alat)  =       9.9235  a.u.
     unit-cell volume          =    1361.0366 (a.u.)^3
     number of atoms/cell      =           12
     number of atomic types    =            2
     number of electrons       =       168.00
     number of Kohn-Sham states=          101
     kinetic-energy cutoff     =      40.0000  Ry
     charge density cutoff     =     160.0000  Ry
     convergence threshold     =      1.0E-04
     mixing beta               =       0.7000
     number of iterations used =            8  plain     mixing
     Exchange-correlation      = SLA-PZ-NOGX-NOGC ( 1 1 0 0 0)
     EXX-fraction              =        0.00
     nstep                     =           50

     celldm(1)=   9.923489  celldm(2)=   0.000000  celldm(3)=   0.000000
     celldm(4)=   0.000000  celldm(5)=   0.000000  celldm(6)=   0.000000

     crystal axes: (cart. coord. in units of alat)
               a(1) = (   1.000000   0.000000   0.000000 )
               a(2) = (  -0.500000   0.866025   0.000000 )
               a(3) = (   0.000000   0.000000   1.608222 )

     reciprocal axes: (cart. coord. in units 2 pi/alat)
               b(1) = (  1.000000  0.577350  0.000000 )
               b(2) = (  0.000000  1.154701  0.000000 )
               b(3) = (  0.000000  0.000000  0.621805 )

     PseudoPot. # 1 for Ce read from file:
     /home/jld5415/pp.La/Ce.UPF
     MD5 check sum: 44451aa79a44a00cf2bc029dc19922f6
     Pseudo is Norm-conserving, Zval = 12.0
     Generated in analytical, separable form
     Using radial grid of 1255 points,  6 beta functions with:
                l(1) =   0
                l(2) =   0
                l(3) =   1
                l(4) =   1
                l(5) =   2
                l(6) =   3

     PseudoPot. # 2 for Pm read from file:
     /home/jld5415/pp.La/Pm.UPF
     MD5 check sum: 0061344aafc48faba5d75831754de21b
     Pseudo is Norm-conserving, Zval = 15.0
     Generated in analytical, separable form
     Using radial grid of 1259 points,  6 beta functions with:
                l(1) =   0
                l(2) =   0
                l(3) =   1
                l(4) =   1
                l(5) =   2
                l(6) =   3

     atomic species   valence    mass     pseudopotential
        Mg            12.00    24.30500     Ce( 1.00)
        Zn            15.00    65.39000     Pm( 1.00)

     24 Sym. Ops., with inversion, found (12 have fractional translation)

   Cartesian axes

     site n.     atom                  positions (alat units)
         1           Mg  tau(   1) = (  -0.0000005   0.5773506   0.1003820  )
         2           Mg  tau(   2) = (   0.5000005   0.2886748   0.9044931  )
         3           Mg  tau(   3) = (   0.5000005   0.2886748   1.5078402  )
         4           Mg  tau(   4) = (  -0.0000005   0.5773506   0.7037291  )
         5           Zn  tau(   5) = (   0.0000000   0.0000000   0.0000000  )
         6           Zn  tau(   6) = (   0.0000000   0.0000000   0.8041111  )
         7           Zn  tau(   7) = (   0.0000000   0.2950739   1.2061667  )
         8           Zn  tau(   8) = (   0.7444585   0.1475370   0.4020556  )
         9           Zn  tau(   9) = (   0.2555415   0.1475370   0.4020556  )
        10           Zn  tau(  10) = (   0.2444585   0.7184884   1.2061667  )
        11           Zn  tau(  11) = (  -0.2444585   0.7184884   1.2061667  )
        12           Zn  tau(  12) = (   0.5000000   0.5709515   0.4020556  )

     number of k points=    12  gaussian smearing, width (Ry)=  0.1000
                       cart. coord. in units 2pi/alat
        k(    1) = (   0.0000000   0.0000000   0.0000000), wk =   0.0833333
        k(    2) = (   0.0000000   0.0000000   0.1554512), wk =   0.1666667
        k(    3) = (   0.0000000   0.0000000  -0.3109023), wk =   0.0833333
        k(    4) = (   0.0000000   0.3849002   0.0000000), wk =   0.1666667
        k(    5) = (   0.0000000   0.3849002   0.1554512), wk =   0.3333333
        k(    6) = (   0.0000000   0.3849002  -0.3109023), wk =   0.1666667
        k(    7) = (  -0.5000000  -0.2886751   0.0000000), wk =   0.0833333
        k(    8) = (  -0.5000000  -0.2886751   0.1554512), wk =   0.1666667
        k(    9) = (  -0.5000000  -0.2886751  -0.3109023), wk =   0.0833333
        k(   10) = (  -0.5000000   0.0962250   0.0000000), wk =   0.1666667
        k(   11) = (  -0.5000000   0.0962250   0.1554512), wk =   0.3333333
        k(   12) = (  -0.5000000   0.0962250  -0.3109023), wk =   0.1666667

     Largest allocated arrays     est. size (Mb)     dimensions
     Largest temporary arrays     est. size (Mb)     dimensions

     Initial potential from superposition of free atoms

     Starting from uniform charge
     Starting wfc are    0 randomized atomic wfcs

     Self-consistent Calculation

     iteration #  1     ecut=    40.00 Ry     beta=0.70
     CG style diagonalization
     ethr =  1.00E-02,  avg # of iterations = 17.1

     total energy              =   -1022.71461651 Ry
     Harris-Foulkes estimate   =   -1589.35894272 Ry
     estimated scf accuracy    <     693.64680055 Ry

[...]

     iteration #  3     ecut=    40.00 Ry     beta=0.70
     CG style diagonalization
     c_bands:  2 eigenvalues not converged
     c_bands:  1 eigenvalues not converged
     ethr =  1.00E-02,  avg # of iterations = 11.7

[...]

     End of self-consistent calculation

          k = 0.0000 0.0000 0.0000 (  5769 PWs)   bands (ev):

   -25.4356 -25.1614 -24.5721 -24.2589 -24.2517 -24.2517 -24.2487 -24.2486
    -9.3259  -9.2529  -8.9961  -8.8464  -5.1674  -4.4998  -3.7639  -2.8136
    -2.8136  -2.6378  -2.6378  -2.4843  -2.4843  -1.7848  -1.2339  -1.2339
    -1.2140  -1.2140  -1.0517   0.0089   0.0544   0.0547   0.0555   0.0555
     0.3652   0.3652   0.4700   0.4700   8.0288   8.0909   8.0909   8.1089
     8.2244   8.2244   9.1480   9.3211   9.3534   9.3534   9.3643   9.3643
    19.4011  20.3621  20.5075  21.5121  21.5121  22.1964  22.1964  22.6297
    22.6297  22.7250  22.9469  23.0075  23.0075  23.1496  23.3345  23.3346
    24.1260  24.6519  24.8906  24.8906  25.6404  25.6404  26.5868  26.7120
    26.7120  27.4891  27.4891  27.5842  27.8568  27.8568  27.9494  27.9494
    28.3685  28.3685  28.3928  28.4501  28.4501  28.7635  29.1186  29.1417
    29.1418  29.1723  29.4800  29.4800  30.0569  30.0569  30.7458  31.8878
    32.0493  32.0495  32.3399  32.3403  33.4673

[...]

          k =-0.5000-0.2887 0.0000 (  5800 PWs)   bands (ev):

[...]

     the Fermi energy is    28.5299 ev

!    total energy              =   -1346.85232278 Ry
     Harris-Foulkes estimate   =   -1346.85240903 Ry
     estimated scf accuracy    <       0.00009568 Ry

     The total energy is the sum of the following terms:

     one-electron contribution =      81.35384601 Ry
     hartree contribution      =     119.95791456 Ry
     xc contribution           =    -163.48328378 Ry
     ewald contribution        =   -1383.99627636 Ry
     smearing contrib. (-TS)   =      -0.68452322 Ry

     convergence has been achieved in  11 iterations

     Forces acting on atoms (Ry/au):

     atom    1 type  1   force =     0.00000000    0.00000000    0.02842430
     atom    2 type  1   force =     0.00000000    0.00000000    0.02842430
     atom    3 type  1   force =     0.00000000    0.00000000   -0.02842430
     atom    4 type  1   force =     0.00000000    0.00000000   -0.02842430
     atom    5 type  2   force =     0.00000000    0.00000000    0.00000000
     atom    6 type  2   force =     0.00000000    0.00000000    0.00000000
     atom    7 type  2   force =     0.00000000    0.02086524    0.00000000
     atom    8 type  2   force =    -0.01806982    0.01043262    0.00000000
     atom    9 type  2   force =     0.01806982    0.01043262    0.00000000
     atom   10 type  2   force =    -0.01806982   -0.01043262    0.00000000
     atom   11 type  2   force =     0.01806982   -0.01043262    0.00000000
     atom   12 type  2   force =     0.00000000   -0.02086524    0.00000000

     Total force =     0.076445     Total SCF correction =     0.000000

     entering subroutine stress ...

          total   stress  (Ry/bohr**3)                   (kbar)     P= 1090.63
   0.00743486   0.00000000   0.00000000       1093.71      0.00      0.00
   0.00000000   0.00743486   0.00000000          0.00   1093.71      0.00
   0.00000000   0.00000000   0.00737221          0.00      0.00   1084.49

     BFGS Geometry Optimization

     number of scf cycles    =   1
     number of bfgs steps    =   0

     enthalpy new            =   -1346.8523227844 Ry

     new trust radius        =       0.5000000000 bohr
     new conv_thr            =       0.0001000000 Ry

     new unit-cell volume =   1656.01587 a.u.^3 (   245.39623 Ang^3 )

CELL_PARAMETERS (alat=  9.92348860)
   1.067764947   0.000000000   0.000000000
  -0.533882474   0.924711570   0.000000000
   0.000000000   0.000000000   1.716285047

ATOMIC_POSITIONS (crystal)
Mg       0.333333000   0.666667000   0.063067339
Mg       0.666667000   0.333333000   0.563067339
Mg       0.666667000   0.333333000   0.936932661
Mg       0.333333000   0.666667000   0.436932661
Zn       0.000000000   0.000000000   0.000000000
Zn       0.000000000   0.000000000   0.500000000
Zn       0.170803579   0.341607158   0.750000000
Zn       0.829196421   0.170803579   0.250000000
Zn       0.341607158   0.170803579   0.250000000
Zn       0.658392842   0.829196421   0.750000000
Zn       0.170803579   0.829196421   0.750000000
Zn       0.829196421   0.658392842   0.250000000

     Writing output data file Prototype-La-hP12-MgZn2.save
     NEW-OLD atomic charge density approx. for the potential
     NEW k-points:
        k(    1) = (   0.0000000   0.0000000   0.0000000), wk =   0.0833333
        k(    2) = (   0.0000000   0.0000000   0.1456634), wk =   0.1666667
        k(    3) = (   0.0000000   0.0000000  -0.2913269), wk =   0.0833333
        k(    4) = (   0.0000000   0.3604728   0.0000000), wk =   0.1666667
        k(    5) = (   0.0000000   0.3604728   0.1456634), wk =   0.3333333
        k(    6) = (   0.0000000   0.3604728  -0.2913269), wk =   0.1666667
        k(    7) = (  -0.4682679  -0.2703546   0.0000000), wk =   0.0833333
        k(    8) = (  -0.4682679  -0.2703546   0.1456634), wk =   0.1666667
        k(    9) = (  -0.4682679  -0.2703546  -0.2913269), wk =   0.0833333
        k(   10) = (  -0.4682679   0.0901182   0.0000000), wk =   0.1666667
        k(   11) = (  -0.4682679   0.0901182   0.1456634), wk =   0.3333333
        k(   12) = (  -0.4682679   0.0901182  -0.2913269), wk =   0.1666667

[...]

     enthalpy old            =   -1346.8523227844 Ry
     enthalpy new            =   -1348.0006566400 Ry

     CASE: enthalpy_new < enthalpy_old

     small trust_radius: resetting bfgs history

[...]

     number of scf cycles    =   3
     number of bfgs steps    =   2

     enthalpy old            =   -1348.0006566400 Ry
     enthalpy new            =   -1348.0160234286 Ry

     CASE: enthalpy_new < enthalpy_old

     Message from routine bfgs:
     history already reset at previous step: stopping
     small trust_radius: resetting bfgs history

     new trust radius        =       0.1627190434 bohr
     new conv_thr            =       0.0000051385 Ry

     new unit-cell volume =   1693.42192 a.u.^3 (   250.93924 Ang^3 )

[...]

ATOMIC_POSITIONS (crystal)
Mg       0.333333000   0.666667000   0.064008959
Mg       0.666667000   0.333333000   0.564008959
Mg       0.666667000   0.333333000   0.935991041
Mg       0.333333000   0.666667000   0.435991041
Zn       0.000000000   0.000000000   0.000000000
Zn       0.000000000   0.000000000   0.500000000
Zn       0.171584427   0.343168854   0.750000000
Zn       0.828415573   0.171584427   0.250000000
Zn       0.343168854   0.171584427   0.250000000
Zn       0.656831146   0.828415573   0.750000000
Zn       0.171584427   0.828415573   0.750000000
Zn       0.828415573   0.656831146   0.250000000

     Writing output data file Prototype-La-hP12-MgZn2.save
     NEW-OLD atomic charge density approx. for the potential
     NEW k-points:
        k(    1) = (   0.0000000   0.0000000   0.0000000), wk =   0.0833333
        k(    2) = (   0.0000000   0.0000000   0.1445052), wk =   0.1666667
        k(    3) = (   0.0000000   0.0000000  -0.2890104), wk =   0.0833333
        k(    4) = (   0.0000000   0.3578950   0.0000000), wk =   0.1666667
        k(    5) = (   0.0000000   0.3578950   0.1445052), wk =   0.3333333
        k(    6) = (   0.0000000   0.3578950  -0.2890104), wk =   0.1666667
        k(    7) = (  -0.4649193  -0.2684213   0.0000000), wk =   0.0833333
        k(    8) = (  -0.4649193  -0.2684213   0.1445052), wk =   0.1666667
        k(    9) = (  -0.4649193  -0.2684213  -0.2890104), wk =   0.0833333
        k(   10) = (  -0.4649193   0.0894738   0.0000000), wk =   0.1666667
        k(   11) = (  -0.4649193   0.0894738   0.1445052), wk =   0.3333333
        k(   12) = (  -0.4649193   0.0894738  -0.2890104), wk =   0.1666667

[...]

     The maximum number of steps has been reached.

     End of BFGS Geometry Optimization
Begin final coordinates
     new unit-cell volume =   1693.42192 a.u.^3 (   250.93924 Ang^3 )

CELL_PARAMETERS (alat=  9.92348860)
   1.075455537   0.000000000   0.000000000
  -0.537727768   0.931371816   0.000000000
   0.000000000   0.000000000   1.730041421

ATOMIC_POSITIONS (crystal)
Mg       0.333333000   0.666667000   0.064008959
Mg       0.666667000   0.333333000   0.564008959
Mg       0.666667000   0.333333000   0.935991041
Mg       0.333333000   0.666667000   0.435991041
Zn       0.000000000   0.000000000   0.000000000
Zn       0.000000000   0.000000000   0.500000000
Zn       0.171584427   0.343168854   0.750000000
Zn       0.828415573   0.171584427   0.250000000
Zn       0.343168854   0.171584427   0.250000000
Zn       0.656831146   0.828415573   0.750000000
Zn       0.171584427   0.828415573   0.750000000
Zn       0.828415573   0.656831146   0.250000000
End final coordinates

     A final scf calculation at the relaxed structure.
     The G-vectors are recalculated for the final unit cell
     Results may differ from those at the preceding step.

     bravais-lattice index     =            0
     lattice parameter (alat)  =       9.9235  a.u.
     unit-cell volume          =    1693.4219 (a.u.)^3
     number of atoms/cell      =           12
     number of atomic types    =            2
     number of electrons       =       168.00
     number of Kohn-Sham states=          101
     kinetic-energy cutoff     =      40.0000  Ry
     charge density cutoff     =     160.0000  Ry
     convergence threshold     =      5.1E-06
     mixing beta               =       0.7000
     number of iterations used =            8  plain     mixing
     Exchange-correlation      = SLA-PZ-NOGX-NOGC ( 1 1 0 0 0)
     EXX-fraction              =        0.00

     celldm(1)=   9.923489  celldm(2)=   0.000000  celldm(3)=   0.000000
     celldm(4)=   0.000000  celldm(5)=   0.000000  celldm(6)=   0.000000

     crystal axes: (cart. coord. in units of alat)
               a(1) = (   1.075456   0.000000   0.000000 )
               a(2) = (  -0.537728   0.931372   0.000000 )
               a(3) = (   0.000000   0.000000   1.730041 )

     reciprocal axes: (cart. coord. in units 2 pi/alat)
               b(1) = (  0.929839  0.536843  0.000000 )
               b(2) = (  0.000000  1.073685  0.000000 )
               b(3) = (  0.000000  0.000000  0.578021 )

     PseudoPot. # 1 for Ce read from file:
     /home/jld5415/pp.La/Ce.UPF
     MD5 check sum: 44451aa79a44a00cf2bc029dc19922f6
     Pseudo is Norm-conserving, Zval = 12.0
     Generated in analytical, separable form
     Using radial grid of 1255 points,  6 beta functions with:
                l(1) =   0
                l(2) =   0
                l(3) =   1
                l(4) =   1
                l(5) =   2
                l(6) =   3

     PseudoPot. # 2 for Pm read from file:
     /home/jld5415/pp.La/Pm.UPF
     MD5 check sum: 0061344aafc48faba5d75831754de21b
     Pseudo is Norm-conserving, Zval = 15.0
     Generated in analytical, separable form
     Using radial grid of 1259 points,  6 beta functions with:
                l(1) =   0
                l(2) =   0
                l(3) =   1
                l(4) =   1
                l(5) =   2
                l(6) =   3

     atomic species   valence    mass     pseudopotential
        Mg            12.00    24.30500     Ce( 1.00)
        Zn            15.00    65.39000     Pm( 1.00)

     24 Sym. Ops., with inversion, found (12 have fractional translation)

   Cartesian axes

     site n.     atom                  positions (alat units)
         1           Mg  tau(   1) = (  -0.0000005   0.6209149   0.1107382  )
         2           Mg  tau(   2) = (   0.5377283   0.3104570   0.9757589  )
         3           Mg  tau(   3) = (   0.5377283   0.3104570   1.6193033  )
         4           Mg  tau(   4) = (  -0.0000005   0.6209149   0.7542826  )
         5           Zn  tau(   5) = (   0.0000000   0.0000000   0.0000000  )
         6           Zn  tau(   6) = (   0.0000000   0.0000000   0.8650207  )
         7           Zn  tau(   7) = (   0.0000000   0.3196178   1.2975311  )
         8           Zn  tau(   8) = (   0.7986584   0.1598089   0.4325104  )
         9           Zn  tau(   9) = (   0.2767971   0.1598089   0.4325104  )
        10           Zn  tau(  10) = (   0.2609306   0.7715629   1.2975311  )
        11           Zn  tau(  11) = (  -0.2609306   0.7715629   1.2975311  )
        12           Zn  tau(  12) = (   0.5377278   0.6117540   0.4325104  )

     number of k points=    12  gaussian smearing, width (Ry)=  0.1000
                       cart. coord. in units 2pi/alat
        k(    1) = (   0.0000000   0.0000000   0.0000000), wk =   0.0833333
        k(    2) = (   0.0000000   0.0000000   0.1445052), wk =   0.1666667
        k(    3) = (   0.0000000   0.0000000  -0.2890104), wk =   0.0833333
        k(    4) = (   0.0000000   0.3578950   0.0000000), wk =   0.1666667
        k(    5) = (   0.0000000   0.3578950   0.1445052), wk =   0.3333333
        k(    6) = (   0.0000000   0.3578950  -0.2890104), wk =   0.1666667
        k(    7) = (  -0.4649193  -0.2684213   0.0000000), wk =   0.0833333
        k(    8) = (  -0.4649193  -0.2684213   0.1445052), wk =   0.1666667
        k(    9) = (  -0.4649193  -0.2684213  -0.2890104), wk =   0.0833333
        k(   10) = (  -0.4649193   0.0894738   0.0000000), wk =   0.1666667
        k(   11) = (  -0.4649193   0.0894738   0.1445052), wk =   0.3333333
        k(   12) = (  -0.4649193   0.0894738  -0.2890104), wk =   0.1666667

     Largest allocated arrays     est. size (Mb)     dimensions
     Largest temporary arrays     est. size (Mb)     dimensions

     Initial potential from superposition of free atoms

     Starting from uniform charge
     Starting wfc are    0 randomized atomic wfcs

     Writing output data file Prototype-La-hP12-MgZn2.save

     Self-consistent Calculation

[...]

     iteration # 10     ecut=    40.00 Ry     beta=0.70
     CG style diagonalization
     c_bands:  1 eigenvalues not converged
     c_bands:  2 eigenvalues not converged
     ethr =  2.50E-06,  avg # of iterations =  5.0

[...]

     total energy              =   -1348.49948415 Ry
     Harris-Foulkes estimate   =   -1348.49968458 Ry
     estimated scf accuracy    <       0.00060063 Ry

     iteration # 12     ecut=    40.00 Ry     beta=0.70
     CG style diagonalization
     ethr =  3.58E-07,  avg # of iterations =  3.3

     End of self-consistent calculation

[...]

          k = 0.0000 0.3579-0.2890 (  7232 PWs)   bands (ev):

[...]

          k =-0.4649 0.0895-0.2890 (  7242 PWs)   bands (ev):

   -30.6130 -30.6130 -30.4709 -30.4709 -30.2471 -30.2471 -30.2290 -30.2290
   -15.5032 -15.5032 -15.4156 -15.4155  -8.5395  -8.5395  -8.0026  -8.0026
    -7.5879  -7.5879  -7.5514  -7.5514  -7.4287  -7.4287  -7.2752  -7.2752
    -6.9740  -6.9740  -6.7360  -6.7360  -6.5701  -6.5701  -6.4638  -6.4638
    -6.2166  -6.2166  -6.1578  -6.1578   2.2447   2.2447   2.2741   2.2741
     2.4688   2.4689   2.7456   2.7456   2.9626   2.9626   2.9725   2.9725
    16.7256  16.7256  17.3014  17.3014  17.6810  17.6810  17.9328  17.9328
    18.1624  18.1624  18.2270  18.2270  18.4359  18.4359  18.6517  18.6517
    18.8905  18.8905  19.2785  19.2785  19.5408  19.5408  20.0577  20.0577
    20.2719  20.2720  20.6665  20.6666  20.7793  20.7793  21.3385  21.3385
    21.6813  21.6813  21.9324  21.9324  22.3656  22.3656  22.5716  22.5716
    23.0252  23.0252  23.6996  23.6996  23.8535  23.8535  24.0607  24.0607
    24.5774  24.5776  24.9903  24.9907  25.2183

     the Fermi energy is    22.2566 ev

!    total energy              =   -1348.49958547 Ry
     Harris-Foulkes estimate   =   -1348.49958417 Ry
     estimated scf accuracy    <       0.00000373 Ry

     The total energy is the sum of the following terms:

     one-electron contribution =     -47.94602017 Ry
     hartree contribution      =     146.68976620 Ry
     xc contribution           =    -159.08007951 Ry
     ewald contribution        =   -1287.34524879 Ry
     smearing contrib. (-TS)   =      -0.81800321 Ry

     convergence has been achieved in  12 iterations

     Forces acting on atoms (Ry/au):

     atom    1 type  1   force =     0.00000000    0.00000000    0.00607920
     atom    2 type  1   force =     0.00000000    0.00000000    0.00607920
     atom    3 type  1   force =     0.00000000    0.00000000   -0.00607920
     atom    4 type  1   force =     0.00000000    0.00000000   -0.00607920
     atom    5 type  2   force =     0.00000000    0.00000000    0.00000000
     atom    6 type  2   force =     0.00000000    0.00000000    0.00000000
     atom    7 type  2   force =     0.00000000   -0.00176585    0.00000000
     atom    8 type  2   force =     0.00152927   -0.00088292    0.00000000
     atom    9 type  2   force =    -0.00152927   -0.00088292    0.00000000
     atom   10 type  2   force =     0.00152927    0.00088292    0.00000000
     atom   11 type  2   force =    -0.00152927    0.00088292    0.00000000
     atom   12 type  2   force =     0.00000000    0.00176585    0.00000000

     Total force =     0.012905     Total SCF correction =     0.000000

     entering subroutine stress ...

          total   stress  (Ry/bohr**3)                   (kbar)     P=  226.69
   0.00155159   0.00000000   0.00000000        228.25      0.00      0.00
   0.00000000   0.00155159   0.00000000          0.00    228.25      0.00
   0.00000000   0.00000000   0.00151989          0.00      0.00    223.58

     Writing output data file Prototype-La-hP12-MgZn2.save

     General routines

     Parallel routines

   This run was terminated on:   1: 5: 9  22Mar2018

   JOB DONE.