     Program PWSCF v.5.0.2 starts on 22Mar2018 at  0:38:17

     Current dimensions of program PWSCF are:
     Max number of different atomic species (ntypx) = 10
     Max number of k-points (npk) =  40000
     Max angular momentum in pseudopotentials (lmaxx) =  3
     Waiting for input...
     Reading input from standard input

     Subspace diagonalization in iterative solution of the eigenvalue problem:
     a serial algorithm will be used

     bravais-lattice index     =            0
     lattice parameter (alat)  =       8.8008  a.u.
     unit-cell volume          =    1116.9454 (a.u.)^3
     number of atoms/cell      =           16
     number of atomic types    =            2
     number of electrons       =       204.00
     number of Kohn-Sham states=          122
     kinetic-energy cutoff     =      40.0000  Ry
     charge density cutoff     =     160.0000  Ry
     convergence threshold     =      1.0E-04
     mixing beta               =       0.7000
     number of iterations used =            8  plain     mixing
     Exchange-correlation      = SLA-PZ-NOGX-NOGC ( 1 1 0 0 0)
     EXX-fraction              =        0.00
     nstep                     =           50

     celldm(1)=   8.800765  celldm(2)=   0.000000  celldm(3)=   0.000000
     celldm(4)=   0.000000  celldm(5)=   0.000000  celldm(6)=   0.000000

     crystal axes: (cart. coord. in units of alat)
               a(1) = (   1.000000   0.000000   0.000000 )
               a(2) = (   0.000000   1.083771   0.000000 )
               a(3) = (   0.000000   0.000000   1.511935 )

     reciprocal axes: (cart. coord. in units 2 pi/alat)
               b(1) = (  1.000000  0.000000  0.000000 )
               b(2) = (  0.000000  0.922704  0.000000 )
               b(3) = (  0.000000  0.000000  0.661404 )

     PseudoPot. # 1 for Ce read from file:
     /home/jld5415/pp.La/Ce.UPF
     MD5 check sum: 44451aa79a44a00cf2bc029dc19922f6
     Pseudo is Norm-conserving, Zval = 12.0
     Generated in analytical, separable form
     Using radial grid of 1255 points,  6 beta functions with:
                l(1) =   0
                l(2) =   0
                l(3) =   1
                l(4) =   1
                l(5) =   2
                l(6) =   3

     PseudoPot. # 2 for Pm read from file:
     /home/jld5415/pp.La/Pm.UPF
     MD5 check sum: 0061344aafc48faba5d75831754de21b
     Pseudo is Norm-conserving, Zval = 15.0
     Generated in analytical, separable form
     Using radial grid of 1259 points,  6 beta functions with:
                l(1) =   0
                l(2) =   0
                l(3) =   1
                l(4) =   1
                l(5) =   2
                l(6) =   3

     atomic species   valence    mass     pseudopotential
        Fe            12.00    55.84500     Ce( 1.00)
        C             15.00    12.01070     Pm( 1.00)

      8 Sym. Ops., with inversion, found ( 6 have fractional translation)

   Cartesian axes

     site n.     atom                  positions (alat units)
         1           Fe  tau(   1) = (   0.3472940   0.1827628   1.3947267  )
         2           Fe  tau(   2) = (   0.1527060   0.7246484   0.8731757  )
         3           Fe  tau(   3) = (   0.8472940   0.3591227   0.6387592  )
         4           Fe  tau(   4) = (   0.3396640   0.4879235   0.3779837  )
         5           Fe  tau(   5) = (   0.1527060   0.7246484   1.3947267  )
         6           Fe  tau(   6) = (   0.3472940   0.1827628   0.8731757  )
         7           Fe  tau(   7) = (   0.1603360   1.0298091   0.3779837  )
         8           Fe  tau(   8) = (   0.6527060   0.9010083   0.6387592  )
         9           Fe  tau(   9) = (   0.8472940   0.3591227   0.1172082  )
        10           Fe  tau(  10) = (   0.6603360   0.5958476   1.1339512  )
        11           Fe  tau(  11) = (   0.6527060   0.9010083   0.1172082  )
        12           Fe  tau(  12) = (   0.8396640   0.0539620   1.1339512  )
        13           C   tau(  13) = (   0.0000000   0.0000000   0.0000000  )
        14           C   tau(  14) = (   0.5000000   0.5418856   0.0000000  )
        15           C   tau(  15) = (   0.5000000   0.5418856   0.7559674  )
        16           C   tau(  16) = (   0.0000000   0.0000000   0.7559674  )

     number of k points=    12  gaussian smearing, width (Ry)=  0.1000
                       cart. coord. in units 2pi/alat
        k(    1) = (   0.0000000   0.0000000   0.0000000), wk =   0.0833333
        k(    2) = (   0.0000000   0.0000000   0.1653510), wk =   0.1666667
        k(    3) = (   0.0000000   0.0000000  -0.3307021), wk =   0.0833333
        k(    4) = (   0.0000000   0.3075680   0.0000000), wk =   0.1666667
        k(    5) = (   0.0000000   0.3075680   0.1653510), wk =   0.3333333
        k(    6) = (   0.0000000   0.3075680  -0.3307021), wk =   0.1666667
        k(    7) = (  -0.5000000   0.0000000   0.0000000), wk =   0.0833333
        k(    8) = (  -0.5000000   0.0000000   0.1653510), wk =   0.1666667
        k(    9) = (  -0.5000000   0.0000000  -0.3307021), wk =   0.0833333
        k(   10) = (  -0.5000000   0.3075680   0.0000000), wk =   0.1666667
        k(   11) = (  -0.5000000   0.3075680   0.1653510), wk =   0.3333333
        k(   12) = (  -0.5000000   0.3075680  -0.3307021), wk =   0.1666667

     Largest allocated arrays     est. size (Mb)     dimensions
     Largest temporary arrays     est. size (Mb)     dimensions

     Initial potential from superposition of free atoms

     Starting from uniform charge
     Starting wfc are    0 randomized atomic wfcs

     Self-consistent Calculation

     iteration #  1     ecut=    40.00 Ry     beta=0.70
     CG style diagonalization
     ethr =  1.00E-02,  avg # of iterations = 17.3

     total energy              =    -865.13048124 Ry
     Harris-Foulkes estimate   =   -1711.79179794 Ry
     estimated scf accuracy    <    1017.09267157 Ry

     iteration #  2     ecut=    40.00 Ry     beta=0.70
     CG style diagonalization
     c_bands:  4 eigenvalues not converged
     c_bands:  2 eigenvalues not converged
     c_bands:  2 eigenvalues not converged
     c_bands:  4 eigenvalues not converged
     c_bands:  3 eigenvalues not converged
     c_bands:  2 eigenvalues not converged
     ethr =  1.00E-02,  avg # of iterations = 14.5

[...]

     End of self-consistent calculation

          k = 0.0000 0.0000 0.0000 (  4785 PWs)   bands (ev):

   -16.3162 -16.0846 -15.7136 -15.4915  -1.1761  -1.1739  -0.7909  -0.7594
    -0.6736  -0.1265   3.2704   3.4515   3.6236   3.6939   3.7103   4.1471
     4.1587   4.1811   4.3658   5.0494   5.6072   5.7003  12.9493  12.9668
    13.8525  14.6796  15.3860  15.4402  16.2308  16.8651  16.8703  17.2873
    17.9800  18.3961  18.5440  18.7235  20.9440  21.0096  22.1286  22.3715
    22.7555  22.7742  22.8262  23.0594  23.1003  23.4300  23.9086  24.0096
    24.7710  24.8902  25.3533  25.3664  25.5157  25.7847  25.8619  25.9671
    26.2695  26.3821  28.6869  29.1244  29.2037  29.2486  29.9984  30.7370
    31.5874  31.5932  31.6120  31.9437  33.0600  33.4622  33.6952  34.7142
    35.8623  36.5889  36.6111  37.0356  37.5396  38.3906  38.7619  39.2081
    39.3825  39.9077  40.0983  40.8503  40.9809  41.0417  42.3481  42.9270
    43.1002  43.3437  43.3847  43.4496  43.4724  43.4795  43.8905  43.9877
    44.3606  44.4205  44.5605  44.6513  44.8737  45.1463  45.3358  45.6924
    45.7443  45.8448  46.5029  46.5131  46.7724  47.0666  47.2536  47.3934
    47.8355  47.9687  47.9949  48.1377  48.8895  49.0917  49.1857  49.2479
    49.6467  49.6549

[...]

          k =-0.5000 0.0000 0.0000 (  4798 PWs)   bands (ev):

[...]

     the Fermi energy is    45.5515 ev

!    total energy              =   -1412.16487207 Ry
     Harris-Foulkes estimate   =   -1412.16488434 Ry
     estimated scf accuracy    <       0.00001506 Ry

     The total energy is the sum of the following terms:

     one-electron contribution =     386.32720592 Ry
     hartree contribution      =     122.89467434 Ry
     xc contribution           =    -211.22285350 Ry
     ewald contribution        =   -1709.60801762 Ry
     smearing contrib. (-TS)   =      -0.55588122 Ry

     convergence has been achieved in  10 iterations

     Forces acting on atoms (Ry/au):

     atom    1 type  1   force =     0.90582522   -0.92007340   -1.31869324
     atom    2 type  1   force =    -0.90582522   -0.92007340    1.31869324
     atom    3 type  1   force =     0.90582522    0.92007340   -1.31869324
     atom    4 type  1   force =    -1.53078901   -0.57554089    0.00000000
     atom    5 type  1   force =    -0.90582522   -0.92007340   -1.31869324
     atom    6 type  1   force =     0.90582522   -0.92007340    1.31869324
     atom    7 type  1   force =     1.53078901   -0.57554089    0.00000000
     atom    8 type  1   force =    -0.90582522    0.92007340   -1.31869324
     atom    9 type  1   force =     0.90582522    0.92007340    1.31869324
     atom   10 type  1   force =     1.53078901    0.57554089    0.00000000
     atom   11 type  1   force =    -0.90582522    0.92007340    1.31869324
     atom   12 type  1   force =    -1.53078901    0.57554089    0.00000000
     atom   13 type  2   force =     0.00000000    0.00000000    0.00000000
     atom   14 type  2   force =     0.00000000    0.00000000    0.00000000
     atom   15 type  2   force =     0.00000000    0.00000000    0.00000000
     atom   16 type  2   force =     0.00000000    0.00000000    0.00000000

     Total force =     6.160057     Total SCF correction =     0.000000

     entering subroutine stress ...

          total   stress  (Ry/bohr**3)                   (kbar)     P=11006.15
   0.07528171   0.00000000   0.00000000      11074.32      0.00      0.00
   0.00000000   0.07517540   0.00000000          0.00  11058.68      0.00
   0.00000000   0.00000000   0.07399777          0.00      0.00  10885.45

     BFGS Geometry Optimization

     number of scf cycles    =   1
     number of bfgs steps    =   0

     enthalpy new            =   -1412.1648720704 Ry

     new trust radius        =       0.5000000000 bohr
     new conv_thr            =       0.0001000000 Ry

     new unit-cell volume =   1385.03613 a.u.^3 (   205.24118 Ang^3 )

CELL_PARAMETERS (alat=  8.80076499)
   1.074803866   0.000000000   0.000000000
   0.000000000   1.164726936   0.000000000
   0.000000000   0.000000000   1.623104540

ATOMIC_POSITIONS (crystal)
Fe       0.351384897   0.164801939   0.918539010
Fe       0.148615103   0.664801939   0.581460990
Fe       0.851384897   0.335198061   0.418539010
Fe       0.332750635   0.447810649   0.250000000
Fe       0.148615103   0.664801939   0.918539010
Fe       0.351384897   0.164801939   0.581460990
Fe       0.167249365   0.947810649   0.250000000
Fe       0.648615103   0.835198061   0.418539010
Fe       0.851384897   0.335198061   0.081460990
Fe       0.667249365   0.552189351   0.750000000
Fe       0.648615103   0.835198061   0.081460990
Fe       0.832750635   0.052189351   0.750000000
C        0.000000000   0.000000000   0.000000000
C        0.500000000   0.500000000   0.000000000
C        0.500000000   0.500000000   0.500000000
C        0.000000000   0.000000000   0.500000000

     Writing output data file Prototype-La-oP16-Fe3C.save
     NEW-OLD atomic charge density approx. for the potential
     NEW k-points:
        k(    1) = (   0.0000000   0.0000000   0.0000000), wk =   0.0833333
        k(    2) = (   0.0000000   0.0000000   0.1540258), wk =   0.1666667
        k(    3) = (   0.0000000   0.0000000  -0.3080516), wk =   0.0833333
        k(    4) = (   0.0000000   0.2861901   0.0000000), wk =   0.1666667
        k(    5) = (   0.0000000   0.2861901   0.1540258), wk =   0.3333333
        k(    6) = (   0.0000000   0.2861901  -0.3080516), wk =   0.1666667
        k(    7) = (  -0.4652012   0.0000000   0.0000000), wk =   0.0833333
        k(    8) = (  -0.4652012   0.0000000   0.1540258), wk =   0.1666667
        k(    9) = (  -0.4652012   0.0000000  -0.3080516), wk =   0.0833333
        k(   10) = (  -0.4652012   0.2861901   0.0000000), wk =   0.1666667
        k(   11) = (  -0.4652012   0.2861901   0.1540258), wk =   0.3333333
        k(   12) = (  -0.4652012   0.2861901  -0.3080516), wk =   0.1666667

[...]

          total   stress  (Ry/bohr**3)                   (kbar)     P= 5374.70
   0.03681675   0.00000000   0.00000000       5415.93      0.00      0.00
   0.00000000   0.03612853   0.00000000          0.00   5314.69      0.00
   0.00000000   0.00000000   0.03666419          0.00      0.00   5393.49

[...]

     enthalpy old            =   -1412.1648720704 Ry
     enthalpy new            =   -1427.6860480241 Ry

     CASE: enthalpy_new < enthalpy_old

     small trust_radius: resetting bfgs history

     new trust radius        =       6.8508747264 bohr
     new conv_thr            =       0.0001000000 Ry

[...]

     number of scf cycles    =   3
     number of bfgs steps    =   2

     enthalpy old            =   -1427.6860480241 Ry
     enthalpy new            =   -1407.1692583974 Ry

     CASE: enthalpy_new > enthalpy_old

     new trust radius        =       4.1561527436 bohr

     trust_radius < trust_radius_min

     resetting bfgs history

     Message from routine bfgs:
     history already reset at previous step: stopping
     new conv_thr            =       0.0001000000 Ry

     new unit-cell volume =   1594.30563 a.u.^3 (   236.25172 Ang^3 )

[...]

ATOMIC_POSITIONS (crystal)
Fe       0.352869211   0.163366619   0.917118240
Fe       0.147130789   0.663366619   0.582881760
Fe       0.852869211   0.336633381   0.417118240
Fe       0.330229411   0.446868114   0.250000000
Fe       0.147130789   0.663366619   0.917118240
Fe       0.352869211   0.163366619   0.582881760
Fe       0.169770589   0.946868114   0.250000000
Fe       0.647130789   0.836633381   0.417118240
Fe       0.852869211   0.336633381   0.082881760
Fe       0.669770589   0.553131886   0.750000000
Fe       0.647130789   0.836633381   0.082881760
Fe       0.830229411   0.053131886   0.750000000
C        0.000000000   0.000000000   0.000000000
C        0.500000000   0.500000000   0.000000000
C        0.500000000   0.500000000   0.500000000
C        0.000000000   0.000000000   0.500000000

     Writing output data file Prototype-La-oP16-Fe3C.save
     NEW-OLD atomic charge density approx. for the potential
     NEW k-points:
        k(    1) = (   0.0000000   0.0000000   0.0000000), wk =   0.0833333
        k(    2) = (   0.0000000   0.0000000   0.1469226), wk =   0.1666667
        k(    3) = (   0.0000000   0.0000000  -0.2938452), wk =   0.0833333
        k(    4) = (   0.0000000   0.2733490   0.0000000), wk =   0.1666667
        k(    5) = (   0.0000000   0.2733490   0.1469226), wk =   0.3333333
        k(    6) = (   0.0000000   0.2733490  -0.2938452), wk =   0.1666667
        k(    7) = (  -0.4435805   0.0000000   0.0000000), wk =   0.0833333
        k(    8) = (  -0.4435805   0.0000000   0.1469226), wk =   0.1666667
        k(    9) = (  -0.4435805   0.0000000  -0.2938452), wk =   0.0833333
        k(   10) = (  -0.4435805   0.2733490   0.0000000), wk =   0.1666667
        k(   11) = (  -0.4435805   0.2733490   0.1469226), wk =   0.3333333
        k(   12) = (  -0.4435805   0.2733490  -0.2938452), wk =   0.1666667

[...]

     The maximum number of steps has been reached.

     End of BFGS Geometry Optimization
Begin final coordinates
     new unit-cell volume =   1594.30563 a.u.^3 (   236.25172 Ang^3 )

CELL_PARAMETERS (alat=  8.80076499)
   1.127191244   0.000000000   0.000000000
   0.000000000   1.219442313   0.000000000
   0.000000000   0.000000000   1.701576353

ATOMIC_POSITIONS (crystal)
Fe       0.352869211   0.163366619   0.917118240
Fe       0.147130789   0.663366619   0.582881760
Fe       0.852869211   0.336633381   0.417118240
Fe       0.330229411   0.446868114   0.250000000
Fe       0.147130789   0.663366619   0.917118240
Fe       0.352869211   0.163366619   0.582881760
Fe       0.169770589   0.946868114   0.250000000
Fe       0.647130789   0.836633381   0.417118240
Fe       0.852869211   0.336633381   0.082881760
Fe       0.669770589   0.553131886   0.750000000
Fe       0.647130789   0.836633381   0.082881760
Fe       0.830229411   0.053131886   0.750000000
C        0.000000000   0.000000000   0.000000000
C        0.500000000   0.500000000   0.000000000
C        0.500000000   0.500000000   0.500000000
C        0.000000000   0.000000000   0.500000000
End final coordinates

     A final scf calculation at the relaxed structure.
     The G-vectors are recalculated for the final unit cell
     Results may differ from those at the preceding step.

     bravais-lattice index     =            0
     lattice parameter (alat)  =       8.8008  a.u.
     unit-cell volume          =    1594.3056 (a.u.)^3
     number of atoms/cell      =           16
     number of atomic types    =            2
     number of electrons       =       204.00
     number of Kohn-Sham states=          122
     kinetic-energy cutoff     =      40.0000  Ry
     charge density cutoff     =     160.0000  Ry
     convergence threshold     =      1.0E-04
     mixing beta               =       0.7000
     number of iterations used =            8  plain     mixing
     Exchange-correlation      = SLA-PZ-NOGX-NOGC ( 1 1 0 0 0)
     EXX-fraction              =        0.00

     celldm(1)=   8.800765  celldm(2)=   0.000000  celldm(3)=   0.000000
     celldm(4)=   0.000000  celldm(5)=   0.000000  celldm(6)=   0.000000

     crystal axes: (cart. coord. in units of alat)
               a(1) = (   1.127191   0.000000   0.000000 )
               a(2) = (   0.000000   1.219442   0.000000 )
               a(3) = (   0.000000   0.000000   1.701576 )

     reciprocal axes: (cart. coord. in units 2 pi/alat)
               b(1) = (  0.887161  0.000000  0.000000 )
               b(2) = (  0.000000  0.820047  0.000000 )
               b(3) = (  0.000000  0.000000  0.587690 )

     PseudoPot. # 1 for Ce read from file:
     /home/jld5415/pp.La/Ce.UPF
     MD5 check sum: 44451aa79a44a00cf2bc029dc19922f6
     Pseudo is Norm-conserving, Zval = 12.0
     Generated in analytical, separable form
     Using radial grid of 1255 points,  6 beta functions with:
                l(1) =   0
                l(2) =   0
                l(3) =   1
                l(4) =   1
                l(5) =   2
                l(6) =   3

     PseudoPot. # 2 for Pm read from file:
     /home/jld5415/pp.La/Pm.UPF
     MD5 check sum: 0061344aafc48faba5d75831754de21b
     Pseudo is Norm-conserving, Zval = 15.0
     Generated in analytical, separable form
     Using radial grid of 1259 points,  6 beta functions with:
                l(1) =   0
                l(2) =   0
                l(3) =   1
                l(4) =   1
                l(5) =   2
                l(6) =   3

     atomic species   valence    mass     pseudopotential
        Fe            12.00    55.84500     Ce( 1.00)
        C             15.00    12.01070     Pm( 1.00)

      8 Sym. Ops., with inversion, found ( 6 have fractional translation)

   Cartesian axes

     site n.     atom                  positions (alat units)
         1           Fe  tau(   1) = (   0.3977511   0.1992162   1.5605467  )
         2           Fe  tau(   2) = (   0.1658445   0.8089373   0.9918178  )
         3           Fe  tau(   3) = (   0.9613467   0.4105050   0.7097585  )
         4           Fe  tau(   4) = (   0.3722317   0.5449299   0.4253941  )
         5           Fe  tau(   5) = (   0.1658445   0.8089373   1.5605467  )
         6           Fe  tau(   6) = (   0.3977511   0.1992162   0.9918178  )
         7           Fe  tau(   7) = (   0.1913639   1.1546510   0.4253941  )
         8           Fe  tau(   8) = (   0.7294402   1.0202261   0.7097585  )
         9           Fe  tau(   9) = (   0.9613467   0.4105050   0.1410296  )
        10           Fe  tau(  10) = (   0.7549595   0.6745124   1.2761823  )
        11           Fe  tau(  11) = (   0.7294402   1.0202261   0.1410296  )
        12           Fe  tau(  12) = (   0.9358273   0.0647913   1.2761823  )
        13           C   tau(  13) = (   0.0000000   0.0000000   0.0000000  )
        14           C   tau(  14) = (   0.5635956   0.6097212   0.0000000  )
        15           C   tau(  15) = (   0.5635956   0.6097212   0.8507882  )
        16           C   tau(  16) = (   0.0000000   0.0000000   0.8507882  )

     number of k points=    12  gaussian smearing, width (Ry)=  0.1000
                       cart. coord. in units 2pi/alat
        k(    1) = (   0.0000000   0.0000000   0.0000000), wk =   0.0833333
        k(    2) = (   0.0000000   0.0000000   0.1469226), wk =   0.1666667
        k(    3) = (   0.0000000   0.0000000  -0.2938452), wk =   0.0833333
        k(    4) = (   0.0000000   0.2733490   0.0000000), wk =   0.1666667
        k(    5) = (   0.0000000   0.2733490   0.1469226), wk =   0.3333333
        k(    6) = (   0.0000000   0.2733490  -0.2938452), wk =   0.1666667
        k(    7) = (  -0.4435805   0.0000000   0.0000000), wk =   0.0833333
        k(    8) = (  -0.4435805   0.0000000   0.1469226), wk =   0.1666667
        k(    9) = (  -0.4435805   0.0000000  -0.2938452), wk =   0.0833333
        k(   10) = (  -0.4435805   0.2733490   0.0000000), wk =   0.1666667
        k(   11) = (  -0.4435805   0.2733490   0.1469226), wk =   0.3333333
        k(   12) = (  -0.4435805   0.2733490  -0.2938452), wk =   0.1666667

     Largest allocated arrays     est. size (Mb)     dimensions
     Largest temporary arrays     est. size (Mb)     dimensions

     Initial potential from superposition of free atoms

     Starting from uniform charge
     Starting wfc are    0 randomized atomic wfcs

     Writing output data file Prototype-La-oP16-Fe3C.save

     Self-consistent Calculation

[...]

     iteration #  6     ecut=    40.00 Ry     beta=0.70
     CG style diagonalization
     ethr =  3.90E-03,  avg # of iterations =  4.0

[...]

     total energy              =   -1434.99193632 Ry
     Harris-Foulkes estimate   =   -1434.99296252 Ry
     estimated scf accuracy    <       0.00207657 Ry

     iteration # 10     ecut=    40.00 Ry     beta=0.70
     CG style diagonalization
     c_bands:  1 eigenvalues not converged
     c_bands:  1 eigenvalues not converged
     c_bands:  1 eigenvalues not converged
     ethr =  1.02E-06,  avg # of iterations =  4.6

     End of self-consistent calculation

[...]

          k = 0.0000 0.2733-0.2938 (  6788 PWs)   bands (ev):

[...]

          k =-0.4436 0.2733-0.2938 (  6828 PWs)   bands (ev):

   -24.3399 -24.3399 -24.3398 -24.3398  -8.9377  -8.9377  -8.9305  -8.9305
    -7.8376  -7.8376  -7.6555  -7.6555  -6.8852  -6.8852  -6.8722  -6.8722
    -3.0563  -3.0563  -3.0389  -3.0389  -1.3006  -1.3006  -1.2918  -1.2918
     0.0988   0.0988   0.1012   0.1012   8.5200   8.5200   8.7261   8.7261
     9.0234   9.0234   9.1923   9.1923   9.7552   9.7552  10.0077  10.0077
    10.5868  10.5868  10.8617  10.8617  11.2917  11.2917  11.8037  11.8037
    11.9359  11.9359  12.2869  12.2869  12.7873  12.7873  12.8078  12.8078
    13.3433  13.3433  13.3762  13.3762  13.8492  13.8492  13.9873  13.9873
    22.4018  22.4018  22.5524  22.5524  23.3454  23.3454  23.8960  23.8960
    24.5311  24.5311  24.7836  24.7836  26.9333  26.9333  27.4463  27.4463
    27.8432  27.8431  28.4653  28.4653  28.6060  28.6060  29.0289  29.0289
    29.5171  29.5171  29.8689  29.8689  30.3396  30.3396  30.4305  30.4305
    30.8797  30.8797  31.0681  31.0681  32.1804  32.1805  32.2124  32.2124
    32.6403  32.6403  33.1956  33.1956  33.2171  33.2171  34.1854  34.1853
    34.3675  34.3676  34.4858  34.4856  34.9735  34.9735  35.3317  35.3315
    35.7388  35.7386

     the Fermi energy is    31.9410 ev

!    total energy              =   -1434.99272224 Ry
     Harris-Foulkes estimate   =   -1434.99276588 Ry
     estimated scf accuracy    <       0.00005336 Ry

     The total energy is the sum of the following terms:

     one-electron contribution =     145.70809527 Ry
     hartree contribution      =     147.70810107 Ry
     xc contribution           =    -196.74669964 Ry
     ewald contribution        =   -1530.99113564 Ry
     smearing contrib. (-TS)   =      -0.67108331 Ry

     convergence has been achieved in  10 iterations

     Forces acting on atoms (Ry/au):

     atom    1 type  1   force =     0.33289504   -0.35862396   -0.47150780
     atom    2 type  1   force =    -0.33289504   -0.35862396    0.47150780
     atom    3 type  1   force =     0.33289504    0.35862396   -0.47150780
     atom    4 type  1   force =    -0.56973801   -0.23299946    0.00000000
     atom    5 type  1   force =    -0.33289504   -0.35862396   -0.47150780
     atom    6 type  1   force =     0.33289504   -0.35862396    0.47150780
     atom    7 type  1   force =     0.56973801   -0.23299946    0.00000000
     atom    8 type  1   force =    -0.33289504    0.35862396   -0.47150780
     atom    9 type  1   force =     0.33289504    0.35862396    0.47150780
     atom   10 type  1   force =     0.56973801    0.23299946    0.00000000
     atom   11 type  1   force =    -0.33289504    0.35862396    0.47150780
     atom   12 type  1   force =    -0.56973801    0.23299946    0.00000000
     atom   13 type  2   force =     0.00000000    0.00000000    0.00000000
     atom   14 type  2   force =     0.00000000    0.00000000    0.00000000
     atom   15 type  2   force =     0.00000000    0.00000000    0.00000000
     atom   16 type  2   force =     0.00000000    0.00000000    0.00000000

     Total force =     2.282446     Total SCF correction =     0.000000

     entering subroutine stress ...

          total   stress  (Ry/bohr**3)                   (kbar)     P= 3270.00
   0.02239148   0.00000000   0.00000000       3293.90      0.00      0.00
   0.00000000   0.02188811   0.00000000          0.00   3219.85      0.00
   0.00000000   0.00000000   0.02240735          0.00      0.00   3296.23

     Writing output data file Prototype-La-oP16-Fe3C.save

     General routines

     Parallel routines

   This run was terminated on:   1:16:20  22Mar2018

   JOB DONE.