     Program PWSCF v.5.0.2 starts on 22Mar2018 at 18:45:36

     Current dimensions of program PWSCF are:
     Max number of different atomic species (ntypx) = 10
     Max number of k-points (npk) =  40000
     Max angular momentum in pseudopotentials (lmaxx) =  3
     Waiting for input...
     Reading input from standard input

     Subspace diagonalization in iterative solution of the eigenvalue problem:
     a serial algorithm will be used

     bravais-lattice index     =            0
     lattice parameter (alat)  =       8.5346  a.u.
     unit-cell volume          =     621.6493 (a.u.)^3
     number of atoms/cell      =            8
     number of atomic types    =            2
     number of electrons       =       122.00
     number of Kohn-Sham states=           73
     kinetic-energy cutoff     =      40.0000  Ry
     charge density cutoff     =     160.0000  Ry
     convergence threshold     =      1.0E-04
     mixing beta               =       0.7000
     number of iterations used =            8  plain     mixing
     Exchange-correlation      = SLA-PZ-NOGX-NOGC ( 1 1 0 0 0)
     EXX-fraction              =        0.00
     nstep                     =           50

     celldm(1)=   8.534573  celldm(2)=   0.000000  celldm(3)=   0.000000
     celldm(4)=   0.000000  celldm(5)=   0.000000  celldm(6)=   0.000000

     crystal axes: (cart. coord. in units of alat)
               a(1) = (   1.000000   0.000000   0.000000 )
               a(2) = (   0.000000   1.000000   0.000000 )
               a(3) = (   0.000000   0.000000   1.000000 )

     reciprocal axes: (cart. coord. in units 2 pi/alat)
               b(1) = (  1.000000  0.000000  0.000000 )
               b(2) = (  0.000000  1.000000  0.000000 )
               b(3) = (  0.000000  0.000000  1.000000 )

     PseudoPot. # 1 for Sm read from file:
     /home/cwx6513/pp.La/Sm.UPF
     MD5 check sum: 5079e8b144a06bfcdbc14fb02b96ab09
     Pseudo is Norm-conserving, Zval = 16.0
     Generated in analytical, separable form
     Using radial grid of 1259 points,  6 beta functions with:
                l(1) =   0
                l(2) =   0
                l(3) =   1
                l(4) =   1
                l(5) =   2
                l(6) =   3

     PseudoPot. # 2 for Pr read from file:
     /home/cwx6513/pp.La/Pr.UPF
     MD5 check sum: 70e2b4b153859e92c8c91247dfc63203
     Pseudo is Norm-conserving, Zval = 13.0
     Generated in analytical, separable form
     Using radial grid of 1255 points,  6 beta functions with:
                l(1) =   0
                l(2) =   0
                l(3) =   1
                l(4) =   1
                l(5) =   2
                l(6) =   3

     atomic species   valence    mass     pseudopotential
        Cr            16.00    51.99610     Sm( 1.00)
        Si            13.00    28.08550     Pr( 1.00)

     48 Sym. Ops., with inversion, found (24 have fractional translation)

   Cartesian axes

     site n.     atom                  positions (alat units)
         1           Cr  tau(   1) = (   0.0000000   0.5000000   0.2500000  )
         2           Cr  tau(   2) = (   0.0000000   0.5000000   0.7500000  )
         3           Cr  tau(   3) = (   0.5000000   0.7500000   0.0000000  )
         4           Cr  tau(   4) = (   0.5000000   0.2500000   0.0000000  )
         5           Cr  tau(   5) = (   0.7500000   0.0000000   0.5000000  )
         6           Cr  tau(   6) = (   0.2500000   0.0000000   0.5000000  )
         7           Si  tau(   7) = (   0.5000000   0.5000000   0.5000000  )
         8           Si  tau(   8) = (   0.0000000   0.0000000   0.0000000  )

     number of k points=    48  gaussian smearing, width (Ry)=  0.1000
                       cart. coord. in units 2pi/alat
        k(    1) = (   0.0000000   0.0000000   0.0000000), wk =   0.0095238
        k(    2) = (   0.0000000   0.0000000   0.1428571), wk =   0.0190476
        k(    3) = (   0.0000000   0.0000000   0.2857143), wk =   0.0190476
        k(    4) = (   0.0000000   0.0000000   0.4285714), wk =   0.0190476
        k(    5) = (   0.0000000   0.1666667   0.0000000), wk =   0.0190476
        k(    6) = (   0.0000000   0.1666667   0.1428571), wk =   0.0380952
        k(    7) = (   0.0000000   0.1666667   0.2857143), wk =   0.0380952
        k(    8) = (   0.0000000   0.1666667   0.4285714), wk =   0.0380952
        k(    9) = (   0.0000000   0.3333333   0.0000000), wk =   0.0190476
        k(   10) = (   0.0000000   0.3333333   0.1428571), wk =   0.0380952
        k(   11) = (   0.0000000   0.3333333   0.2857143), wk =   0.0380952
        k(   12) = (   0.0000000   0.3333333   0.4285714), wk =   0.0380952
        k(   13) = (   0.0000000  -0.5000000   0.0000000), wk =   0.0095238
        k(   14) = (   0.0000000  -0.5000000   0.1428571), wk =   0.0190476
        k(   15) = (   0.0000000  -0.5000000   0.2857143), wk =   0.0190476
        k(   16) = (   0.0000000  -0.5000000   0.4285714), wk =   0.0190476
        k(   17) = (   0.2000000   0.0000000   0.0000000), wk =   0.0190476
        k(   18) = (   0.2000000   0.0000000   0.1428571), wk =   0.0380952
        k(   19) = (   0.2000000   0.0000000   0.2857143), wk =   0.0380952
        k(   20) = (   0.2000000   0.0000000   0.4285714), wk =   0.0380952
        k(   21) = (   0.2000000   0.1666667   0.0000000), wk =   0.0380952
        k(   22) = (   0.2000000   0.1666667   0.1428571), wk =   0.0761905
        k(   23) = (   0.2000000   0.1666667   0.2857143), wk =   0.0761905
        k(   24) = (   0.2000000   0.1666667   0.4285714), wk =   0.0761905
        k(   25) = (   0.2000000   0.3333333   0.0000000), wk =   0.0380952
        k(   26) = (   0.2000000   0.3333333   0.1428571), wk =   0.0761905
        k(   27) = (   0.2000000   0.3333333   0.2857143), wk =   0.0761905
        k(   28) = (   0.2000000   0.3333333   0.4285714), wk =   0.0761905
        k(   29) = (   0.2000000  -0.5000000   0.0000000), wk =   0.0190476
        k(   30) = (   0.2000000  -0.5000000   0.1428571), wk =   0.0380952
        k(   31) = (   0.2000000  -0.5000000   0.2857143), wk =   0.0380952
        k(   32) = (   0.2000000  -0.5000000   0.4285714), wk =   0.0380952
        k(   33) = (   0.4000000   0.0000000   0.0000000), wk =   0.0190476
        k(   34) = (   0.4000000   0.0000000   0.1428571), wk =   0.0380952
        k(   35) = (   0.4000000   0.0000000   0.2857143), wk =   0.0380952
        k(   36) = (   0.4000000   0.0000000   0.4285714), wk =   0.0380952
        k(   37) = (   0.4000000   0.1666667   0.0000000), wk =   0.0380952
        k(   38) = (   0.4000000   0.1666667   0.1428571), wk =   0.0761905
        k(   39) = (   0.4000000   0.1666667   0.2857143), wk =   0.0761905
        k(   40) = (   0.4000000   0.1666667   0.4285714), wk =   0.0761905
        k(   41) = (   0.4000000   0.3333333   0.0000000), wk =   0.0380952
        k(   42) = (   0.4000000   0.3333333   0.1428571), wk =   0.0761905
        k(   43) = (   0.4000000   0.3333333   0.2857143), wk =   0.0761905
        k(   44) = (   0.4000000   0.3333333   0.4285714), wk =   0.0761905
        k(   45) = (   0.4000000  -0.5000000   0.0000000), wk =   0.0190476
        k(   46) = (   0.4000000  -0.5000000   0.1428571), wk =   0.0380952
        k(   47) = (   0.4000000  -0.5000000   0.2857143), wk =   0.0380952
        k(   48) = (   0.4000000  -0.5000000   0.4285714), wk =   0.0380952

     Largest allocated arrays     est. size (Mb)     dimensions
     Largest temporary arrays     est. size (Mb)     dimensions

     Initial potential from superposition of free atoms
     Check: negative starting charge=   -0.000293

     starting charge   25.98109, renormalised to  122.00000

     negative rho (up, down):  0.138E-02 0.000E+00
     Starting wfc are   40 randomized atomic wfcs

     Self-consistent Calculation

     iteration #  1     ecut=    40.00 Ry     beta=0.70
     CG style diagonalization
     c_bands:  1 eigenvalues not converged
     c_bands:  2 eigenvalues not converged
     c_bands:  1 eigenvalues not converged
     c_bands:  2 eigenvalues not converged
     c_bands:  2 eigenvalues not converged
     c_bands:  1 eigenvalues not converged
     c_bands:  1 eigenvalues not converged
     c_bands:  1 eigenvalues not converged
     c_bands:  2 eigenvalues not converged
     c_bands:  3 eigenvalues not converged
     c_bands:  1 eigenvalues not converged
     c_bands:  1 eigenvalues not converged
     c_bands:  1 eigenvalues not converged
     c_bands:  2 eigenvalues not converged
     c_bands:  1 eigenvalues not converged
     c_bands:  2 eigenvalues not converged
     c_bands:  3 eigenvalues not converged
     c_bands:  2 eigenvalues not converged
     c_bands:  4 eigenvalues not converged
     c_bands:  2 eigenvalues not converged
     c_bands:  1 eigenvalues not converged
     c_bands:  2 eigenvalues not converged
     c_bands:  1 eigenvalues not converged
     c_bands:  2 eigenvalues not converged
     c_bands:  1 eigenvalues not converged
     c_bands:  2 eigenvalues not converged
     c_bands:  1 eigenvalues not converged
     c_bands:  1 eigenvalues not converged
     c_bands:  1 eigenvalues not converged
     c_bands:  2 eigenvalues not converged
     c_bands:  1 eigenvalues not converged
     c_bands:  1 eigenvalues not converged
     c_bands:  1 eigenvalues not converged
     c_bands:  2 eigenvalues not converged
     c_bands:  1 eigenvalues not converged
     c_bands:  1 eigenvalues not converged
     c_bands:  1 eigenvalues not converged
     c_bands:  1 eigenvalues not converged
     ethr =  1.00E-02,  avg # of iterations = 24.4

     negative rho (up, down):  0.406E-03 0.000E+00

     total energy              =    -941.98954581 Ry
     Harris-Foulkes estimate   =   -2645.18820875 Ry
     estimated scf accuracy    <    2006.13346939 Ry

[...]

     iteration #  3     ecut=    40.00 Ry     beta=0.70
     CG style diagonalization
     ethr =  1.00E-02,  avg # of iterations =  4.6

[...]

     End of self-consistent calculation

          k = 0.0000 0.0000 0.0000 (  2601 PWs)   bands (ev):

   -17.2462 -16.4210 -16.4210 -14.8290 -14.8290 -14.8290  -1.1930  -0.5043
     3.8256   3.8256   5.2941   6.3389   6.3389   6.3389   8.8364   8.8364
     8.8364   8.8574   8.8574   8.8574   9.7620   9.7620   9.7620  12.4637
    12.4637  12.4637  18.8848  18.8848  18.8848  19.2723  19.2723  19.2723
    32.4518  32.4518  32.4518  32.6188  32.6188  32.7131  33.4529  35.4400
    35.4400  35.4400  36.1751  36.1751  36.9389  38.0260  38.0260  38.0260
    38.1094  40.2596  40.2596  40.4593  40.4593  40.4593  41.1228  41.1228
    41.1228  42.8276  42.8276  42.8276  42.9418  42.9418  42.9418  44.3731
    44.3731  44.6389  44.6389  45.5843  45.5843  45.5843  49.8362  49.8363
    49.8365

[...]

     the Fermi energy is    43.7125 ev

!    total energy              =   -1089.93386460 Ry
     Harris-Foulkes estimate   =   -1089.93386488 Ry
     estimated scf accuracy    <       0.00000038 Ry

     The total energy is the sum of the following terms:

     one-electron contribution =     248.03641546 Ry
     hartree contribution      =      54.29564020 Ry
     xc contribution           =    -130.91039856 Ry
[...]
  -0.00734720   0.00000000   0.00000000      -1080.81      0.00      0.00
   0.00000000  -0.00734720   0.00000000          0.00  -1080.81      0.00
   0.00000000   0.00000000  -0.00734720          0.00      0.00  -1080.81

     number of scf cycles    =   3
     number of bfgs steps    =   2

     enthalpy old            =   -1093.5989045591 Ry
     enthalpy new            =   -1092.1623277488 Ry

     CASE: enthalpy_new > enthalpy_old

     new trust radius        =       0.3804824330 bohr

     trust_radius < trust_radius_min

     resetting bfgs history

     Message from routine bfgs:
     history already reset at previous step: stopping
     new conv_thr            =       0.0000010000 Ry

     new unit-cell volume =   1043.24061 a.u.^3 (   154.59231 Ang^3 )

[...]

ATOMIC_POSITIONS (crystal)
Cr       0.000000000   0.500000000   0.250000000
Cr       0.000000000   0.500000000   0.750000000
Cr       0.500000000   0.750000000   0.000000000
Cr       0.500000000   0.250000000   0.000000000
Cr       0.750000000   0.000000000   0.500000000
Cr       0.250000000   0.000000000   0.500000000
Si       0.500000000   0.500000000   0.500000000
Si       0.000000000   0.000000000   0.000000000

     Writing output data file Prototype-La-cP8-Cr3Si.save
     Check: negative starting charge=   -0.013458
     NEW-OLD atomic charge density approx. for the potential
     NEW k-points:
        k(    1) = (   0.0000000   0.0000000   0.0000000), wk =   0.0095238
        k(    2) = (   0.0000000   0.0000000   0.1202142), wk =   0.0190476
        k(    3) = (   0.0000000   0.0000000   0.2404283), wk =   0.0190476
        k(    4) = (   0.0000000   0.0000000   0.3606425), wk =   0.0190476
        k(    5) = (   0.0000000   0.1402498   0.0000000), wk =   0.0190476
        k(    6) = (   0.0000000   0.1402498   0.1202142), wk =   0.0380952
        k(    7) = (   0.0000000   0.1402498   0.2404283), wk =   0.0380952
        k(    8) = (   0.0000000   0.1402498   0.3606425), wk =   0.0380952
        k(    9) = (   0.0000000   0.2804997   0.0000000), wk =   0.0190476
        k(   10) = (   0.0000000   0.2804997   0.1202142), wk =   0.0380952
        k(   11) = (   0.0000000   0.2804997   0.2404283), wk =   0.0380952
        k(   12) = (   0.0000000   0.2804997   0.3606425), wk =   0.0380952
        k(   13) = (   0.0000000  -0.4207495   0.0000000), wk =   0.0095238
        k(   14) = (   0.0000000  -0.4207495   0.1202142), wk =   0.0190476
        k(   15) = (   0.0000000  -0.4207495   0.2404283), wk =   0.0190476
        k(   16) = (   0.0000000  -0.4207495   0.3606425), wk =   0.0190476
        k(   17) = (   0.1682998   0.0000000   0.0000000), wk =   0.0190476
        k(   18) = (   0.1682998   0.0000000   0.1202142), wk =   0.0380952
        k(   19) = (   0.1682998   0.0000000   0.2404283), wk =   0.0380952
        k(   20) = (   0.1682998   0.0000000   0.3606425), wk =   0.0380952
        k(   21) = (   0.1682998   0.1402498   0.0000000), wk =   0.0380952
        k(   22) = (   0.1682998   0.1402498   0.1202142), wk =   0.0761905
        k(   23) = (   0.1682998   0.1402498   0.2404283), wk =   0.0761905
        k(   24) = (   0.1682998   0.1402498   0.3606425), wk =   0.0761905
        k(   25) = (   0.1682998   0.2804997   0.0000000), wk =   0.0380952
        k(   26) = (   0.1682998   0.2804997   0.1202142), wk =   0.0761905
        k(   27) = (   0.1682998   0.2804997   0.2404283), wk =   0.0761905
        k(   28) = (   0.1682998   0.2804997   0.3606425), wk =   0.0761905
        k(   29) = (   0.1682998  -0.4207495   0.0000000), wk =   0.0190476
        k(   30) = (   0.1682998  -0.4207495   0.1202142), wk =   0.0380952
        k(   31) = (   0.1682998  -0.4207495   0.2404283), wk =   0.0380952
        k(   32) = (   0.1682998  -0.4207495   0.3606425), wk =   0.0380952
        k(   33) = (   0.3365996   0.0000000   0.0000000), wk =   0.0190476
        k(   34) = (   0.3365996   0.0000000   0.1202142), wk =   0.0380952
        k(   35) = (   0.3365996   0.0000000   0.2404283), wk =   0.0380952
        k(   36) = (   0.3365996   0.0000000   0.3606425), wk =   0.0380952
        k(   37) = (   0.3365996   0.1402498   0.0000000), wk =   0.0380952
        k(   38) = (   0.3365996   0.1402498   0.1202142), wk =   0.0761905
        k(   39) = (   0.3365996   0.1402498   0.2404283), wk =   0.0761905
        k(   40) = (   0.3365996   0.1402498   0.3606425), wk =   0.0761905
        k(   41) = (   0.3365996   0.2804997   0.0000000), wk =   0.0380952
        k(   42) = (   0.3365996   0.2804997   0.1202142), wk =   0.0761905
        k(   43) = (   0.3365996   0.2804997   0.2404283), wk =   0.0761905
        k(   44) = (   0.3365996   0.2804997   0.3606425), wk =   0.0761905
        k(   45) = (   0.3365996  -0.4207495   0.0000000), wk =   0.0190476
        k(   46) = (   0.3365996  -0.4207495   0.1202142), wk =   0.0380952
        k(   47) = (   0.3365996  -0.4207495   0.2404283), wk =   0.0380952
        k(   48) = (   0.3365996  -0.4207495   0.3606425), wk =   0.0380952
     Check: negative starting charge=   -0.007426

     negative rho (up, down):  0.665E+00 0.000E+00
     extrapolated charge  114.30107, renormalised to  122.00000

[...]

     The maximum number of steps has been reached.

     End of BFGS Geometry Optimization
Begin final coordinates
     new unit-cell volume =   1043.24061 a.u.^3 (   154.59231 Ang^3 )

CELL_PARAMETERS (alat=  8.53457320)
   1.188355428   0.000000000   0.000000000
   0.000000000   1.188355428   0.000000000
   0.000000000   0.000000000   1.188355428

ATOMIC_POSITIONS (crystal)
Cr       0.000000000   0.500000000   0.250000000
Cr       0.000000000   0.500000000   0.750000000
Cr       0.500000000   0.750000000   0.000000000
Cr       0.500000000   0.250000000   0.000000000
Cr       0.750000000   0.000000000   0.500000000
Cr       0.250000000   0.000000000   0.500000000
Si       0.500000000   0.500000000   0.500000000
Si       0.000000000   0.000000000   0.000000000
End final coordinates

     A final scf calculation at the relaxed structure.
     The G-vectors are recalculated for the final unit cell
     Results may differ from those at the preceding step.

     bravais-lattice index     =            0
     lattice parameter (alat)  =       8.5346  a.u.
     unit-cell volume          =    1043.2406 (a.u.)^3
     number of atoms/cell      =            8
     number of atomic types    =            2
     number of electrons       =       122.00
     number of Kohn-Sham states=           73
     kinetic-energy cutoff     =      40.0000  Ry
     charge density cutoff     =     160.0000  Ry
     convergence threshold     =      1.0E-06
     mixing beta               =       0.7000
     number of iterations used =            8  plain     mixing
     Exchange-correlation      = SLA-PZ-NOGX-NOGC ( 1 1 0 0 0)
     EXX-fraction              =        0.00

     celldm(1)=   8.534573  celldm(2)=   0.000000  celldm(3)=   0.000000
     celldm(4)=   0.000000  celldm(5)=   0.000000  celldm(6)=   0.000000

     crystal axes: (cart. coord. in units of alat)
               a(1) = (   1.188355   0.000000   0.000000 )
               a(2) = (   0.000000   1.188355   0.000000 )
               a(3) = (   0.000000   0.000000   1.188355 )

     reciprocal axes: (cart. coord. in units 2 pi/alat)
               b(1) = (  0.841499  0.000000  0.000000 )
               b(2) = (  0.000000  0.841499  0.000000 )
               b(3) = (  0.000000  0.000000  0.841499 )

     PseudoPot. # 1 for Sm read from file:
     /home/cwx6513/pp.La/Sm.UPF
     MD5 check sum: 5079e8b144a06bfcdbc14fb02b96ab09
     Pseudo is Norm-conserving, Zval = 16.0
     Generated in analytical, separable form
     Using radial grid of 1259 points,  6 beta functions with:
                l(1) =   0
                l(2) =   0
                l(3) =   1
                l(4) =   1
                l(5) =   2
                l(6) =   3

     PseudoPot. # 2 for Pr read from file:
     /home/cwx6513/pp.La/Pr.UPF
     MD5 check sum: 70e2b4b153859e92c8c91247dfc63203
     Pseudo is Norm-conserving, Zval = 13.0
     Generated in analytical, separable form
     Using radial grid of 1255 points,  6 beta functions with:
                l(1) =   0
                l(2) =   0
                l(3) =   1
                l(4) =   1
                l(5) =   2
                l(6) =   3

     atomic species   valence    mass     pseudopotential
        Cr            16.00    51.99610     Sm( 1.00)
        Si            13.00    28.08550     Pr( 1.00)

     48 Sym. Ops., with inversion, found (24 have fractional translation)

   Cartesian axes

     site n.     atom                  positions (alat units)
         1           Cr  tau(   1) = (   0.0000000   0.5941777   0.2970889  )
         2           Cr  tau(   2) = (   0.0000000   0.5941777   0.8912666  )
         3           Cr  tau(   3) = (   0.5941777   0.8912666   0.0000000  )
         4           Cr  tau(   4) = (   0.5941777   0.2970889   0.0000000  )
         5           Cr  tau(   5) = (   0.8912666   0.0000000   0.5941777  )
         6           Cr  tau(   6) = (   0.2970889   0.0000000   0.5941777  )
         7           Si  tau(   7) = (   0.5941777   0.5941777   0.5941777  )
         8           Si  tau(   8) = (   0.0000000   0.0000000   0.0000000  )

     number of k points=    48  gaussian smearing, width (Ry)=  0.1000
                       cart. coord. in units 2pi/alat
        k(    1) = (   0.0000000   0.0000000   0.0000000), wk =   0.0095238
        k(    2) = (   0.0000000   0.0000000   0.1202142), wk =   0.0190476
        k(    3) = (   0.0000000   0.0000000   0.2404283), wk =   0.0190476
        k(    4) = (   0.0000000   0.0000000   0.3606425), wk =   0.0190476
        k(    5) = (   0.0000000   0.1402498   0.0000000), wk =   0.0190476
        k(    6) = (   0.0000000   0.1402498   0.1202142), wk =   0.0380952
        k(    7) = (   0.0000000   0.1402498   0.2404283), wk =   0.0380952
        k(    8) = (   0.0000000   0.1402498   0.3606425), wk =   0.0380952
        k(    9) = (   0.0000000   0.2804997   0.0000000), wk =   0.0190476
        k(   10) = (   0.0000000   0.2804997   0.1202142), wk =   0.0380952
        k(   11) = (   0.0000000   0.2804997   0.2404283), wk =   0.0380952
        k(   12) = (   0.0000000   0.2804997   0.3606425), wk =   0.0380952
        k(   13) = (   0.0000000  -0.4207495   0.0000000), wk =   0.0095238
        k(   14) = (   0.0000000  -0.4207495   0.1202142), wk =   0.0190476
        k(   15) = (   0.0000000  -0.4207495   0.2404283), wk =   0.0190476
        k(   16) = (   0.0000000  -0.4207495   0.3606425), wk =   0.0190476
        k(   17) = (   0.1682998   0.0000000   0.0000000), wk =   0.0190476
        k(   18) = (   0.1682998   0.0000000   0.1202142), wk =   0.0380952
        k(   19) = (   0.1682998   0.0000000   0.2404283), wk =   0.0380952
        k(   20) = (   0.1682998   0.0000000   0.3606425), wk =   0.0380952
        k(   21) = (   0.1682998   0.1402498   0.0000000), wk =   0.0380952
        k(   22) = (   0.1682998   0.1402498   0.1202142), wk =   0.0761905
        k(   23) = (   0.1682998   0.1402498   0.2404283), wk =   0.0761905
        k(   24) = (   0.1682998   0.1402498   0.3606425), wk =   0.0761905
        k(   25) = (   0.1682998   0.2804997   0.0000000), wk =   0.0380952
        k(   26) = (   0.1682998   0.2804997   0.1202142), wk =   0.0761905
        k(   27) = (   0.1682998   0.2804997   0.2404283), wk =   0.0761905
        k(   28) = (   0.1682998   0.2804997   0.3606425), wk =   0.0761905
        k(   29) = (   0.1682998  -0.4207495   0.0000000), wk =   0.0190476
        k(   30) = (   0.1682998  -0.4207495   0.1202142), wk =   0.0380952
        k(   31) = (   0.1682998  -0.4207495   0.2404283), wk =   0.0380952
        k(   32) = (   0.1682998  -0.4207495   0.3606425), wk =   0.0380952
        k(   33) = (   0.3365996   0.0000000   0.0000000), wk =   0.0190476
        k(   34) = (   0.3365996   0.0000000   0.1202142), wk =   0.0380952
        k(   35) = (   0.3365996   0.0000000   0.2404283), wk =   0.0380952
        k(   36) = (   0.3365996   0.0000000   0.3606425), wk =   0.0380952
        k(   37) = (   0.3365996   0.1402498   0.0000000), wk =   0.0380952
        k(   38) = (   0.3365996   0.1402498   0.1202142), wk =   0.0761905
        k(   39) = (   0.3365996   0.1402498   0.2404283), wk =   0.0761905
        k(   40) = (   0.3365996   0.1402498   0.3606425), wk =   0.0761905
        k(   41) = (   0.3365996   0.2804997   0.0000000), wk =   0.0380952
        k(   42) = (   0.3365996   0.2804997   0.1202142), wk =   0.0761905
        k(   43) = (   0.3365996   0.2804997   0.2404283), wk =   0.0761905
        k(   44) = (   0.3365996   0.2804997   0.3606425), wk =   0.0761905
        k(   45) = (   0.3365996  -0.4207495   0.0000000), wk =   0.0190476
        k(   46) = (   0.3365996  -0.4207495   0.1202142), wk =   0.0380952
        k(   47) = (   0.3365996  -0.4207495   0.2404283), wk =   0.0380952
        k(   48) = (   0.3365996  -0.4207495   0.3606425), wk =   0.0380952

     Largest allocated arrays     est. size (Mb)     dimensions
     Largest temporary arrays     est. size (Mb)     dimensions

     Initial potential from superposition of free atoms
     Check: negative starting charge=   -0.000606

     starting charge   25.98109, renormalised to  122.00000

     negative rho (up, down):  0.284E-02 0.000E+00
     Starting wfc are   40 randomized atomic wfcs

     Writing output data file Prototype-La-cP8-Cr3Si.save

     Self-consistent Calculation

[...]

     negative rho (up, down):  0.998E-06 0.000E+00

[...]

     iteration # 11     ecut=    40.00 Ry     beta=0.70
     CG style diagonalization
     c_bands:  1 eigenvalues not converged
     ethr =  6.40E-08,  avg # of iterations =  4.3

     total energy              =   -1095.43488377 Ry
     Harris-Foulkes estimate   =   -1095.43489350 Ry
     estimated scf accuracy    <       0.00002305 Ry

     iteration # 12     ecut=    40.00 Ry     beta=0.70
     CG style diagonalization
     ethr =  1.89E-08,  avg # of iterations =  3.6

     End of self-consistent calculation

[...]

          k = 0.3366-0.4207 0.3606 (  4470 PWs)   bands (ev):

   -33.1711 -33.1577 -33.1196 -33.1193 -33.0821 -33.0681 -18.6269 -18.6269
    -8.9466  -8.8517  -8.6112  -8.6098  -8.4736  -8.4736  -8.4135  -8.3664
    -8.2404  -8.2224  -8.1827  -8.1713  -8.1189  -8.1018  -8.0921  -8.0857
    -8.0776  -8.0752   1.3576   1.3610   1.3699   1.3704   1.3736   1.3740
    18.8666  18.8845  19.0213  19.0866  19.2142  19.2162  19.8559  19.8606
    19.9532  19.9599  20.1962  20.2112  20.3288  20.3376  20.6248  20.7272
    21.3215  21.3251  21.5968  21.7817  22.3306  22.3628  22.9338  23.0298
    23.1227  23.1645  23.6015  23.6022  23.9506  24.1276  25.4979  25.5012
    25.9828  26.0192  26.2348  26.3054  27.2934  27.5080  27.6399  27.7175
    27.9420

     the Fermi energy is    24.3864 ev

!    total energy              =   -1095.43488859 Ry
     Harris-Foulkes estimate   =   -1095.43488878 Ry
     estimated scf accuracy    <       0.00000023 Ry

     The total energy is the sum of the following terms:

     one-electron contribution =     -17.58871342 Ry
     hartree contribution      =     105.99151117 Ry
     xc contribution           =    -122.10638881 Ry
     ewald contribution        =   -1061.18289756 Ry
     smearing contrib. (-TS)   =      -0.54839997 Ry

     convergence has been achieved in  12 iterations

     Forces acting on atoms (Ry/au):

     atom    1 type  1   force =     0.00000000    0.00000000    0.00000000
     atom    2 type  1   force =     0.00000000    0.00000000    0.00000000
     atom    3 type  1   force =     0.00000000    0.00000000    0.00000000
     atom    4 type  1   force =     0.00000000    0.00000000    0.00000000
     atom    5 type  1   force =     0.00000000    0.00000000    0.00000000
     atom    6 type  1   force =     0.00000000    0.00000000    0.00000000
     atom    7 type  2   force =     0.00000000    0.00000000    0.00000000
     atom    8 type  2   force =     0.00000000    0.00000000    0.00000000

     Total force =     0.000000     Total SCF correction =     0.000000

     entering subroutine stress ...

          total   stress  (Ry/bohr**3)                   (kbar)     P=  191.98
   0.00130502   0.00000000   0.00000000        191.98      0.00      0.00
   0.00000000   0.00130502   0.00000000          0.00    191.98      0.00
   0.00000000   0.00000000   0.00130502          0.00      0.00    191.98

     Writing output data file Prototype-La-cP8-Cr3Si.save

     General routines

     Parallel routines

   This run was terminated on:  19:11:34  22Mar2018

   JOB DONE.