     Program PWSCF v.5.0.2 starts on 23Mar2018 at  1: 1:27

     Current dimensions of program PWSCF are:
     Max number of different atomic species (ntypx) = 10
     Max number of k-points (npk) =  40000
     Max angular momentum in pseudopotentials (lmaxx) =  3
     Waiting for input...
     Reading input from standard input

     Subspace diagonalization in iterative solution of the eigenvalue problem:
     a serial algorithm will be used

     bravais-lattice index     =            0
     lattice parameter (alat)  =      12.0168  a.u.
     unit-cell volume          =    1187.3413 (a.u.)^3
     number of atoms/cell      =            8
     number of atomic types    =            2
     number of electrons       =       172.00
     number of Kohn-Sham states=          103
     kinetic-energy cutoff     =      40.0000  Ry
     charge density cutoff     =     160.0000  Ry
     convergence threshold     =      1.0E-04
     mixing beta               =       0.7000
     number of iterations used =            8  plain     mixing
     Exchange-correlation      = SLA-PZ-NOGX-NOGC ( 1 1 0 0 0)
     EXX-fraction              =        0.00
     nstep                     =           50

     celldm(1)=  12.016801  celldm(2)=   0.000000  celldm(3)=   0.000000
     celldm(4)=   0.000000  celldm(5)=   0.000000  celldm(6)=   0.000000

     crystal axes: (cart. coord. in units of alat)
               a(1) = (   1.000000   0.000000   0.000000 )
               a(2) = (  -0.500000   0.866025   0.000000 )
               a(3) = (   0.000000   0.000000   0.790093 )

     reciprocal axes: (cart. coord. in units 2 pi/alat)
               b(1) = (  1.000000  0.577350  0.000000 )
               b(2) = (  0.000000  1.154701  0.000000 )
               b(3) = (  0.000000  0.000000  1.265674 )

     PseudoPot. # 1 for Ho read from file:
     /home/cwx6513/pp.La/Ho.UPF
     MD5 check sum: f307ee11bce99f5b724fa279e3790763
     Pseudo is Norm-conserving, Zval = 21.0
     Generated in analytical, separable form
     Using radial grid of 1265 points,  6 beta functions with:
                l(1) =   0
                l(2) =   0
                l(3) =   1
                l(4) =   1
                l(5) =   2
                l(6) =   3

     PseudoPot. # 2 for Tm read from file:
     /home/cwx6513/pp.La/Tm.UPF
     MD5 check sum: 245516e0878b5372ceeb9443ded2c4e1
     Pseudo is Norm-conserving, Zval = 23.0
     Generated in analytical, separable form
     Using radial grid of 1269 points,  6 beta functions with:
                l(1) =   0
                l(2) =   0
                l(3) =   1
                l(4) =   1
                l(5) =   2
                l(6) =   3

     atomic species   valence    mass     pseudopotential
        Mg            21.00    24.30500     Ho( 1.00)
        Cd            23.00   112.41100     Tm( 1.00)

     24 Sym. Ops., with inversion, found (12 have fractional translation)

   Cartesian axes

     site n.     atom                  positions (alat units)
         1           Mg  tau(   1) = (   0.2478935   0.7204716   0.1975233  )
         2           Mg  tau(   2) = (   0.7478935   0.1455538   0.5925699  )
         3           Mg  tau(   3) = (   0.2521065   0.1455538   0.5925699  )
         4           Mg  tau(   4) = (  -0.2478935   0.7204716   0.1975233  )
         5           Mg  tau(   5) = (   0.0000000   0.2911075   0.1975233  )
         6           Mg  tau(   6) = (   0.5000000   0.5749179   0.5925699  )
         7           Cd  tau(   7) = (   0.5000005   0.2886748   0.1975233  )
         8           Cd  tau(   8) = (  -0.0000005   0.5773506   0.5925699  )

     number of k points=    64  gaussian smearing, width (Ry)=  0.1000
                       cart. coord. in units 2pi/alat
        k(    1) = (   0.0000000   0.0000000   0.0000000), wk =   0.0095238
        k(    2) = (   0.0000000   0.0000000   0.1808105), wk =   0.0190476
        k(    3) = (   0.0000000   0.0000000   0.3616210), wk =   0.0190476
        k(    4) = (   0.0000000   0.0000000   0.5424315), wk =   0.0190476
        k(    5) = (   0.0000000   0.1924501   0.0000000), wk =   0.0190476
        k(    6) = (   0.0000000   0.1924501   0.1808105), wk =   0.0380952
        k(    7) = (   0.0000000   0.1924501   0.3616210), wk =   0.0380952
        k(    8) = (   0.0000000   0.1924501   0.5424315), wk =   0.0380952
        k(    9) = (   0.0000000   0.3849002   0.0000000), wk =   0.0190476
        k(   10) = (   0.0000000   0.3849002   0.1808105), wk =   0.0380952
        k(   11) = (   0.0000000   0.3849002   0.3616210), wk =   0.0380952
        k(   12) = (   0.0000000   0.3849002   0.5424315), wk =   0.0380952
        k(   13) = (   0.0000000  -0.5773503   0.0000000), wk =   0.0095238
        k(   14) = (   0.0000000  -0.5773503   0.1808105), wk =   0.0190476
        k(   15) = (   0.0000000  -0.5773503   0.3616210), wk =   0.0190476
        k(   16) = (   0.0000000  -0.5773503   0.5424315), wk =   0.0190476
        k(   17) = (   0.2000000   0.1154701   0.0000000), wk =   0.0190476
        k(   18) = (   0.2000000   0.1154701   0.1808105), wk =   0.0380952
        k(   19) = (   0.2000000   0.1154701   0.3616210), wk =   0.0380952
        k(   20) = (   0.2000000   0.1154701   0.5424315), wk =   0.0380952
        k(   21) = (   0.2000000   0.3079201   0.0000000), wk =   0.0190476
        k(   22) = (   0.2000000   0.3079201   0.1808105), wk =   0.0380952
        k(   23) = (   0.2000000   0.3079201   0.3616210), wk =   0.0380952
        k(   24) = (   0.2000000   0.3079201   0.5424315), wk =   0.0380952
        k(   25) = (   0.2000000   0.5003702   0.0000000), wk =   0.0190476
        k(   26) = (   0.2000000   0.5003702   0.1808105), wk =   0.0380952
        k(   27) = (   0.2000000   0.5003702   0.3616210), wk =   0.0380952
        k(   28) = (   0.2000000   0.5003702   0.5424315), wk =   0.0380952
        k(   29) = (   0.2000000  -0.4618802   0.0000000), wk =   0.0190476
        k(   30) = (   0.2000000  -0.4618802   0.1808105), wk =   0.0380952
        k(   31) = (   0.2000000  -0.4618802   0.3616210), wk =   0.0380952
        k(   32) = (   0.2000000  -0.4618802   0.5424315), wk =   0.0380952
        k(   33) = (   0.2000000  -0.2694301   0.0000000), wk =   0.0190476
        k(   34) = (   0.2000000  -0.2694301   0.1808105), wk =   0.0380952
        k(   35) = (   0.2000000  -0.2694301   0.3616210), wk =   0.0380952
        k(   36) = (   0.2000000  -0.2694301   0.5424315), wk =   0.0380952
        k(   37) = (   0.2000000  -0.0769800   0.0000000), wk =   0.0190476
        k(   38) = (   0.2000000  -0.0769800   0.1808105), wk =   0.0380952
        k(   39) = (   0.2000000  -0.0769800   0.3616210), wk =   0.0380952
        k(   40) = (   0.2000000  -0.0769800   0.5424315), wk =   0.0380952
        k(   41) = (   0.4000000   0.2309401   0.0000000), wk =   0.0190476
        k(   42) = (   0.4000000   0.2309401   0.1808105), wk =   0.0380952
        k(   43) = (   0.4000000   0.2309401   0.3616210), wk =   0.0380952
        k(   44) = (   0.4000000   0.2309401   0.5424315), wk =   0.0380952
        k(   45) = (   0.4000000   0.4233902   0.0000000), wk =   0.0190476
        k(   46) = (   0.4000000   0.4233902   0.1808105), wk =   0.0380952
        k(   47) = (   0.4000000   0.4233902   0.3616210), wk =   0.0380952
        k(   48) = (   0.4000000   0.4233902   0.5424315), wk =   0.0380952
        k(   49) = (   0.4000000   0.6158403   0.0000000), wk =   0.0190476
        k(   50) = (   0.4000000   0.6158403   0.1808105), wk =   0.0380952
        k(   51) = (   0.4000000   0.6158403   0.3616210), wk =   0.0380952
        k(   52) = (   0.4000000   0.6158403   0.5424315), wk =   0.0380952
        k(   53) = (   0.4000000  -0.3464102   0.0000000), wk =   0.0190476
        k(   54) = (   0.4000000  -0.3464102   0.1808105), wk =   0.0380952
        k(   55) = (   0.4000000  -0.3464102   0.3616210), wk =   0.0380952
        k(   56) = (   0.4000000  -0.3464102   0.5424315), wk =   0.0380952
        k(   57) = (   0.4000000  -0.1539601   0.0000000), wk =   0.0190476
        k(   58) = (   0.4000000  -0.1539601   0.1808105), wk =   0.0380952
        k(   59) = (   0.4000000  -0.1539601   0.3616210), wk =   0.0380952
        k(   60) = (   0.4000000  -0.1539601   0.5424315), wk =   0.0380952
        k(   61) = (   0.4000000   0.0384900   0.0000000), wk =   0.0190476
        k(   62) = (   0.4000000   0.0384900   0.1808105), wk =   0.0380952
        k(   63) = (   0.4000000   0.0384900   0.3616210), wk =   0.0380952
        k(   64) = (   0.4000000   0.0384900   0.5424315), wk =   0.0380952

     Largest allocated arrays     est. size (Mb)     dimensions
     Largest temporary arrays     est. size (Mb)     dimensions

     Initial potential from superposition of free atoms

     Starting from uniform charge
     Starting wfc are    0 randomized atomic wfcs

     Self-consistent Calculation

     iteration #  1     ecut=    40.00 Ry     beta=0.70
     CG style diagonalization
     c_bands:  5 eigenvalues not converged
     c_bands:  2 eigenvalues not converged
     c_bands:  3 eigenvalues not converged
     c_bands:  3 eigenvalues not converged
     c_bands:  4 eigenvalues not converged
     c_bands:  3 eigenvalues not converged
     c_bands:  1 eigenvalues not converged
     c_bands:  2 eigenvalues not converged
     c_bands:  2 eigenvalues not converged
     c_bands:  4 eigenvalues not converged
     c_bands:  2 eigenvalues not converged
     c_bands:  4 eigenvalues not converged
     c_bands:  3 eigenvalues not converged
     c_bands:  4 eigenvalues not converged
     c_bands:  3 eigenvalues not converged
     c_bands:  1 eigenvalues not converged
     c_bands:  3 eigenvalues not converged
     c_bands:  2 eigenvalues not converged
     c_bands:  1 eigenvalues not converged
     c_bands:  1 eigenvalues not converged
     c_bands:  2 eigenvalues not converged
     c_bands:  4 eigenvalues not converged
     c_bands:  3 eigenvalues not converged
     c_bands:  4 eigenvalues not converged
     c_bands:  4 eigenvalues not converged
     c_bands:  2 eigenvalues not converged
     c_bands:  3 eigenvalues not converged
     c_bands:  2 eigenvalues not converged
     c_bands:  3 eigenvalues not converged
     c_bands:  2 eigenvalues not converged
     c_bands:  3 eigenvalues not converged
     c_bands:  2 eigenvalues not converged
     c_bands:  1 eigenvalues not converged
     c_bands:  1 eigenvalues not converged
     c_bands:  2 eigenvalues not converged
     c_bands:  3 eigenvalues not converged
     c_bands:  1 eigenvalues not converged
     c_bands:  1 eigenvalues not converged
     c_bands:  4 eigenvalues not converged
     c_bands:  4 eigenvalues not converged
     c_bands:  1 eigenvalues not converged
     c_bands:  4 eigenvalues not converged
     c_bands:  1 eigenvalues not converged
     c_bands:  4 eigenvalues not converged
     c_bands:  2 eigenvalues not converged
     c_bands:  2 eigenvalues not converged
     c_bands:  2 eigenvalues not converged
     c_bands:  3 eigenvalues not converged
     c_bands:  3 eigenvalues not converged
     c_bands:  2 eigenvalues not converged
[...]
        k(   16) = (   0.0000000  -0.5969562   0.5536008), wk =   0.0190476
        k(   17) = (   0.2067917   0.1193912   0.0000000), wk =   0.0190476
        k(   18) = (   0.2067917   0.1193912   0.1845336), wk =   0.0380952
        k(   19) = (   0.2067917   0.1193912   0.3690672), wk =   0.0380952
        k(   20) = (   0.2067917   0.1193912   0.5536008), wk =   0.0380952
        k(   21) = (   0.2067917   0.3183766   0.0000000), wk =   0.0190476
        k(   22) = (   0.2067917   0.3183766   0.1845336), wk =   0.0380952
        k(   23) = (   0.2067917   0.3183766   0.3690672), wk =   0.0380952
        k(   24) = (   0.2067917   0.3183766   0.5536008), wk =   0.0380952
        k(   25) = (   0.2067917   0.5173620   0.0000000), wk =   0.0190476
        k(   26) = (   0.2067917   0.5173620   0.1845336), wk =   0.0380952
        k(   27) = (   0.2067917   0.5173620   0.3690672), wk =   0.0380952
        k(   28) = (   0.2067917   0.5173620   0.5536008), wk =   0.0380952
        k(   29) = (   0.2067917  -0.4775649   0.0000000), wk =   0.0190476
        k(   30) = (   0.2067917  -0.4775649   0.1845336), wk =   0.0380952
        k(   31) = (   0.2067917  -0.4775649   0.3690672), wk =   0.0380952
        k(   32) = (   0.2067917  -0.4775649   0.5536008), wk =   0.0380952
        k(   33) = (   0.2067917  -0.2785795   0.0000000), wk =   0.0190476
        k(   34) = (   0.2067917  -0.2785795   0.1845336), wk =   0.0380952
        k(   35) = (   0.2067917  -0.2785795   0.3690672), wk =   0.0380952
        k(   36) = (   0.2067917  -0.2785795   0.5536008), wk =   0.0380952
        k(   37) = (   0.2067917  -0.0795942   0.0000000), wk =   0.0190476
        k(   38) = (   0.2067917  -0.0795942   0.1845336), wk =   0.0380952
        k(   39) = (   0.2067917  -0.0795942   0.3690672), wk =   0.0380952
        k(   40) = (   0.2067917  -0.0795942   0.5536008), wk =   0.0380952
        k(   41) = (   0.4135834   0.2387825   0.0000000), wk =   0.0190476
        k(   42) = (   0.4135834   0.2387825   0.1845336), wk =   0.0380952
        k(   43) = (   0.4135834   0.2387825   0.3690672), wk =   0.0380952
        k(   44) = (   0.4135834   0.2387825   0.5536008), wk =   0.0380952
        k(   45) = (   0.4135834   0.4377679   0.0000000), wk =   0.0190476
        k(   46) = (   0.4135834   0.4377679   0.1845336), wk =   0.0380952
        k(   47) = (   0.4135834   0.4377679   0.3690672), wk =   0.0380952
        k(   48) = (   0.4135834   0.4377679   0.5536008), wk =   0.0380952
        k(   49) = (   0.4135834   0.6367533   0.0000000), wk =   0.0190476
        k(   50) = (   0.4135834   0.6367533   0.1845336), wk =   0.0380952
        k(   51) = (   0.4135834   0.6367533   0.3690672), wk =   0.0380952
        k(   52) = (   0.4135834   0.6367533   0.5536008), wk =   0.0380952
        k(   53) = (   0.4135834  -0.3581737   0.0000000), wk =   0.0190476
        k(   54) = (   0.4135834  -0.3581737   0.1845336), wk =   0.0380952
        k(   55) = (   0.4135834  -0.3581737   0.3690672), wk =   0.0380952
        k(   56) = (   0.4135834  -0.3581737   0.5536008), wk =   0.0380952
        k(   57) = (   0.4135834  -0.1591883   0.0000000), wk =   0.0190476
        k(   58) = (   0.4135834  -0.1591883   0.1845336), wk =   0.0380952
        k(   59) = (   0.4135834  -0.1591883   0.3690672), wk =   0.0380952
        k(   60) = (   0.4135834  -0.1591883   0.5536008), wk =   0.0380952
        k(   61) = (   0.4135834   0.0397971   0.0000000), wk =   0.0190476
        k(   62) = (   0.4135834   0.0397971   0.1845336), wk =   0.0380952
        k(   63) = (   0.4135834   0.0397971   0.3690672), wk =   0.0380952
        k(   64) = (   0.4135834   0.0397971   0.5536008), wk =   0.0380952

[...]

     Threshold (ethr) on eigenvalues was too large:
     Diagonalizing with lowered threshold

     CG style diagonalization
     ethr =  4.02E-09,  avg # of iterations =  3.6

[...]

     The maximum number of steps has been reached.

     End of BFGS Geometry Optimization
Begin final coordinates
     new unit-cell volume =   1088.22228 a.u.^3 (   161.25790 Ang^3 )

CELL_PARAMETERS (alat= 12.01680127)
   0.967156873   0.000000000   0.000000000
  -0.483578437   0.837582422   0.000000000
   0.000000000   0.000000000   0.774152461

ATOMIC_POSITIONS (crystal)
Mg       0.666507287   0.833253643   0.250000000
Mg       0.833253643   0.166746357   0.750000000
Mg       0.333492713   0.166746357   0.750000000
Mg       0.166746357   0.833253643   0.250000000
Mg       0.166746357   0.333492713   0.250000000
Mg       0.833253643   0.666507287   0.750000000
Cd       0.666667000   0.333333000   0.250000000
Cd       0.333333000   0.666667000   0.750000000
End final coordinates

     A final scf calculation at the relaxed structure.
     The G-vectors are recalculated for the final unit cell
     Results may differ from those at the preceding step.

     bravais-lattice index     =            0
     lattice parameter (alat)  =      12.0168  a.u.
     unit-cell volume          =    1088.2223 (a.u.)^3
     number of atoms/cell      =            8
     number of atomic types    =            2
     number of electrons       =       172.00
     number of Kohn-Sham states=          103
     kinetic-energy cutoff     =      40.0000  Ry
     charge density cutoff     =     160.0000  Ry
     convergence threshold     =      1.0E-04
     mixing beta               =       0.7000
     number of iterations used =            8  plain     mixing
     Exchange-correlation      = SLA-PZ-NOGX-NOGC ( 1 1 0 0 0)
     EXX-fraction              =        0.00

     celldm(1)=  12.016801  celldm(2)=   0.000000  celldm(3)=   0.000000
     celldm(4)=   0.000000  celldm(5)=   0.000000  celldm(6)=   0.000000

     crystal axes: (cart. coord. in units of alat)
               a(1) = (   0.967157   0.000000   0.000000 )
               a(2) = (  -0.483578   0.837582   0.000000 )
               a(3) = (   0.000000   0.000000   0.774152 )

     reciprocal axes: (cart. coord. in units 2 pi/alat)
               b(1) = (  1.033958  0.596956  0.000000 )
               b(2) = (  0.000000  1.193912  0.000000 )
               b(3) = (  0.000000  0.000000  1.291735 )

     PseudoPot. # 1 for Ho read from file:
     /home/cwx6513/pp.La/Ho.UPF
     MD5 check sum: f307ee11bce99f5b724fa279e3790763
     Pseudo is Norm-conserving, Zval = 21.0
     Generated in analytical, separable form
     Using radial grid of 1265 points,  6 beta functions with:
                l(1) =   0
                l(2) =   0
                l(3) =   1
                l(4) =   1
                l(5) =   2
                l(6) =   3

     PseudoPot. # 2 for Tm read from file:
     /home/cwx6513/pp.La/Tm.UPF
     MD5 check sum: 245516e0878b5372ceeb9443ded2c4e1
     Pseudo is Norm-conserving, Zval = 23.0
     Generated in analytical, separable form
     Using radial grid of 1269 points,  6 beta functions with:
                l(1) =   0
                l(2) =   0
                l(3) =   1
                l(4) =   1
                l(5) =   2
                l(6) =   3

     atomic species   valence    mass     pseudopotential
        Mg            21.00    24.30500     Ho( 1.00)
        Cd            23.00   112.41100     Tm( 1.00)

     24 Sym. Ops., with inversion, found (12 have fractional translation)

   Cartesian axes

     site n.     atom                  positions (alat units)
         1           Mg  tau(   1) = (   0.2416736   0.6979186   0.1935381  )
         2           Mg  tau(   2) = (   0.7252520   0.1396638   0.5806143  )
         3           Mg  tau(   3) = (   0.2419048   0.1396638   0.5806143  )
         4           Mg  tau(   4) = (  -0.2416736   0.6979186   0.1935381  )
         5           Mg  tau(   5) = (   0.0000000   0.2793276   0.1935381  )
         6           Mg  tau(   6) = (   0.4835784   0.5582548   0.5806143  )
         7           Cd  tau(   7) = (   0.4835789   0.2791939   0.1935381  )
         8           Cd  tau(   8) = (  -0.0000005   0.5583886   0.5806143  )

     number of k points=    64  gaussian smearing, width (Ry)=  0.1000
                       cart. coord. in units 2pi/alat
        k(    1) = (   0.0000000   0.0000000   0.0000000), wk =   0.0095238
        k(    2) = (   0.0000000   0.0000000   0.1845336), wk =   0.0190476
        k(    3) = (   0.0000000   0.0000000   0.3690672), wk =   0.0190476
        k(    4) = (   0.0000000   0.0000000   0.5536008), wk =   0.0190476
        k(    5) = (   0.0000000   0.1989854   0.0000000), wk =   0.0190476
        k(    6) = (   0.0000000   0.1989854   0.1845336), wk =   0.0380952
        k(    7) = (   0.0000000   0.1989854   0.3690672), wk =   0.0380952
        k(    8) = (   0.0000000   0.1989854   0.5536008), wk =   0.0380952
        k(    9) = (   0.0000000   0.3979708   0.0000000), wk =   0.0190476
        k(   10) = (   0.0000000   0.3979708   0.1845336), wk =   0.0380952
        k(   11) = (   0.0000000   0.3979708   0.3690672), wk =   0.0380952
        k(   12) = (   0.0000000   0.3979708   0.5536008), wk =   0.0380952
        k(   13) = (   0.0000000  -0.5969562   0.0000000), wk =   0.0095238
        k(   14) = (   0.0000000  -0.5969562   0.1845336), wk =   0.0190476
        k(   15) = (   0.0000000  -0.5969562   0.3690672), wk =   0.0190476
        k(   16) = (   0.0000000  -0.5969562   0.5536008), wk =   0.0190476
        k(   17) = (   0.2067917   0.1193912   0.0000000), wk =   0.0190476
        k(   18) = (   0.2067917   0.1193912   0.1845336), wk =   0.0380952
        k(   19) = (   0.2067917   0.1193912   0.3690672), wk =   0.0380952
        k(   20) = (   0.2067917   0.1193912   0.5536008), wk =   0.0380952
        k(   21) = (   0.2067917   0.3183766   0.0000000), wk =   0.0190476
        k(   22) = (   0.2067917   0.3183766   0.1845336), wk =   0.0380952
        k(   23) = (   0.2067917   0.3183766   0.3690672), wk =   0.0380952
        k(   24) = (   0.2067917   0.3183766   0.5536008), wk =   0.0380952
        k(   25) = (   0.2067917   0.5173620   0.0000000), wk =   0.0190476
        k(   26) = (   0.2067917   0.5173620   0.1845336), wk =   0.0380952
        k(   27) = (   0.2067917   0.5173620   0.3690672), wk =   0.0380952
        k(   28) = (   0.2067917   0.5173620   0.5536008), wk =   0.0380952
        k(   29) = (   0.2067917  -0.4775649   0.0000000), wk =   0.0190476
        k(   30) = (   0.2067917  -0.4775649   0.1845336), wk =   0.0380952
        k(   31) = (   0.2067917  -0.4775649   0.3690672), wk =   0.0380952
        k(   32) = (   0.2067917  -0.4775649   0.5536008), wk =   0.0380952
        k(   33) = (   0.2067917  -0.2785795   0.0000000), wk =   0.0190476
        k(   34) = (   0.2067917  -0.2785795   0.1845336), wk =   0.0380952
        k(   35) = (   0.2067917  -0.2785795   0.3690672), wk =   0.0380952
        k(   36) = (   0.2067917  -0.2785795   0.5536008), wk =   0.0380952
        k(   37) = (   0.2067917  -0.0795942   0.0000000), wk =   0.0190476
        k(   38) = (   0.2067917  -0.0795942   0.1845336), wk =   0.0380952
        k(   39) = (   0.2067917  -0.0795942   0.3690672), wk =   0.0380952
        k(   40) = (   0.2067917  -0.0795942   0.5536008), wk =   0.0380952
        k(   41) = (   0.4135834   0.2387825   0.0000000), wk =   0.0190476
        k(   42) = (   0.4135834   0.2387825   0.1845336), wk =   0.0380952
        k(   43) = (   0.4135834   0.2387825   0.3690672), wk =   0.0380952
        k(   44) = (   0.4135834   0.2387825   0.5536008), wk =   0.0380952
        k(   45) = (   0.4135834   0.4377679   0.0000000), wk =   0.0190476
        k(   46) = (   0.4135834   0.4377679   0.1845336), wk =   0.0380952
        k(   47) = (   0.4135834   0.4377679   0.3690672), wk =   0.0380952
        k(   48) = (   0.4135834   0.4377679   0.5536008), wk =   0.0380952
        k(   49) = (   0.4135834   0.6367533   0.0000000), wk =   0.0190476
        k(   50) = (   0.4135834   0.6367533   0.1845336), wk =   0.0380952
        k(   51) = (   0.4135834   0.6367533   0.3690672), wk =   0.0380952
        k(   52) = (   0.4135834   0.6367533   0.5536008), wk =   0.0380952
        k(   53) = (   0.4135834  -0.3581737   0.0000000), wk =   0.0190476
        k(   54) = (   0.4135834  -0.3581737   0.1845336), wk =   0.0380952
        k(   55) = (   0.4135834  -0.3581737   0.3690672), wk =   0.0380952
        k(   56) = (   0.4135834  -0.3581737   0.5536008), wk =   0.0380952
        k(   57) = (   0.4135834  -0.1591883   0.0000000), wk =   0.0190476
        k(   58) = (   0.4135834  -0.1591883   0.1845336), wk =   0.0380952
        k(   59) = (   0.4135834  -0.1591883   0.3690672), wk =   0.0380952
        k(   60) = (   0.4135834  -0.1591883   0.5536008), wk =   0.0380952
        k(   61) = (   0.4135834   0.0397971   0.0000000), wk =   0.0190476
        k(   62) = (   0.4135834   0.0397971   0.1845336), wk =   0.0380952
        k(   63) = (   0.4135834   0.0397971   0.3690672), wk =   0.0380952
        k(   64) = (   0.4135834   0.0397971   0.5536008), wk =   0.0380952

     Largest allocated arrays     est. size (Mb)     dimensions
     Largest temporary arrays     est. size (Mb)     dimensions

     Initial potential from superposition of free atoms

     Starting from uniform charge
     Starting wfc are    0 randomized atomic wfcs

     Writing output data file Prototype-La-hP8-Mg3Cd.save

     Self-consistent Calculation

[...]

     iteration #  7     ecut=    40.00 Ry     beta=0.70
     CG style diagonalization
     ethr =  6.07E-04,  avg # of iterations =  3.6

[...]

     total energy              =   -2495.38124585 Ry
     Harris-Foulkes estimate   =   -2495.38143288 Ry
     estimated scf accuracy    <       0.00034214 Ry

     iteration # 11     ecut=    40.00 Ry     beta=0.70
     CG style diagonalization
     c_bands:  1 eigenvalues not converged
     ethr =  1.99E-07,  avg # of iterations =  3.5

     End of self-consistent calculation

[...]

          k = 0.4136 0.0398 0.5536 (  4639 PWs)   bands (ev):

   -83.5070 -83.5022 -64.1186 -64.1157 -64.1105 -64.1067 -64.0999 -64.0961
   -42.1821 -42.1813 -42.1804 -42.1778 -42.1737 -42.1718 -28.3895 -28.3801
   -28.3727 -28.3709 -28.3541 -28.3442 -28.3109 -28.2947 -28.2773 -28.2729
   -28.2631 -28.2507 -28.2325 -28.2290 -28.2245 -28.2201 -28.2135 -28.2092
     6.7272   6.7306   6.7365   6.7421   6.7493   6.7521   6.7802   6.7818
     6.7985   6.8029  13.5542  13.7248  14.2081  14.2416  14.4559  14.5091
    14.5393  14.5823  14.6014  14.6644  14.8883  14.9974  15.0193  15.0457
    15.3164  15.3584  15.4258  15.6209  15.6766  15.8262  15.8498  15.8688
    16.0604  16.0942  16.1452  16.1537  16.5115  16.5578  16.7418  16.7951
    16.9753  17.6640  19.1117  19.6346  20.2992  20.9682  23.0237  23.6463
    24.6675  25.3721  27.3008  27.9155  28.3806  28.8018  29.1406  29.8028
    30.8361  31.3274  31.9676  32.3772  32.7829  32.9607  33.0126  33.1749
    33.7043  33.8417  34.0386  34.2810  34.3530  34.5333  34.5734

     the Fermi energy is    28.6214 ev

!    total energy              =   -2495.38131506 Ry
     Harris-Foulkes estimate   =   -2495.38133108 Ry
     estimated scf accuracy    <       0.00001739 Ry

     The total energy is the sum of the following terms:

     one-electron contribution =    -617.30933621 Ry
     hartree contribution      =     416.32848671 Ry
     xc contribution           =    -215.97474739 Ry
     ewald contribution        =   -2078.20444454 Ry
     smearing contrib. (-TS)   =      -0.22127362 Ry

     convergence has been achieved in  11 iterations

     Forces acting on atoms (Ry/au):

     atom    1 type  1   force =     0.00464859    0.00268387    0.00000000
     atom    2 type  1   force =     0.00464859   -0.00268387    0.00000000
     atom    3 type  1   force =    -0.00464859   -0.00268387    0.00000000
     atom    4 type  1   force =    -0.00464859    0.00268387    0.00000000
     atom    5 type  1   force =     0.00000000   -0.00536773    0.00000000
     atom    6 type  1   force =     0.00000000    0.00536773    0.00000000
     atom    7 type  2   force =     0.00000000    0.00000000    0.00000000
     atom    8 type  2   force =     0.00000000    0.00000000    0.00000000

     Total force =     0.013148     Total SCF correction =     0.000000

     entering subroutine stress ...

          total   stress  (Ry/bohr**3)                   (kbar)     P=   82.37
   0.00040222   0.00000000   0.00000000         59.17      0.00      0.00
   0.00000000   0.00040222   0.00000000          0.00     59.17      0.00
   0.00000000   0.00000000   0.00087537          0.00      0.00    128.77

     Writing output data file Prototype-La-hP8-Mg3Cd.save

     General routines

     Parallel routines

   This run was terminated on:   2: 2:53  23Mar2018

   JOB DONE.