     Program PWSCF v.5.0.2 starts on 23Mar2018 at  1: 1:27

     Current dimensions of program PWSCF are:
     Max number of different atomic species (ntypx) = 10
     Max number of k-points (npk) =  40000
     Max angular momentum in pseudopotentials (lmaxx) =  3
     Waiting for input...
     Reading input from standard input

     Subspace diagonalization in iterative solution of the eigenvalue problem:
     a serial algorithm will be used

     bravais-lattice index     =            0
     lattice parameter (alat)  =       9.9235  a.u.
     unit-cell volume          =    1361.0366 (a.u.)^3
     number of atoms/cell      =           12
     number of atomic types    =            2
     number of electrons       =       268.00
     number of Kohn-Sham states=          161
     kinetic-energy cutoff     =      40.0000  Ry
     charge density cutoff     =     160.0000  Ry
     convergence threshold     =      1.0E-04
     mixing beta               =       0.7000
     number of iterations used =            8  plain     mixing
     Exchange-correlation      = SLA-PZ-NOGX-NOGC ( 1 1 0 0 0)
     EXX-fraction              =        0.00
     nstep                     =           50

     celldm(1)=   9.923489  celldm(2)=   0.000000  celldm(3)=   0.000000
     celldm(4)=   0.000000  celldm(5)=   0.000000  celldm(6)=   0.000000

     crystal axes: (cart. coord. in units of alat)
               a(1) = (   1.000000   0.000000   0.000000 )
               a(2) = (  -0.500000   0.866025   0.000000 )
               a(3) = (   0.000000   0.000000   1.608222 )

     reciprocal axes: (cart. coord. in units 2 pi/alat)
               b(1) = (  1.000000  0.577350  0.000000 )
               b(2) = (  0.000000  1.154701  0.000000 )
               b(3) = (  0.000000  0.000000  0.621805 )

     PseudoPot. # 1 for Ho read from file:
     /home/cwx6513/pp.La/Ho.UPF
     MD5 check sum: f307ee11bce99f5b724fa279e3790763
     Pseudo is Norm-conserving, Zval = 21.0
     Generated in analytical, separable form
     Using radial grid of 1265 points,  6 beta functions with:
                l(1) =   0
                l(2) =   0
                l(3) =   1
                l(4) =   1
                l(5) =   2
                l(6) =   3

     PseudoPot. # 2 for Tm read from file:
     /home/cwx6513/pp.La/Tm.UPF
     MD5 check sum: 245516e0878b5372ceeb9443ded2c4e1
     Pseudo is Norm-conserving, Zval = 23.0
     Generated in analytical, separable form
     Using radial grid of 1269 points,  6 beta functions with:
                l(1) =   0
                l(2) =   0
                l(3) =   1
                l(4) =   1
                l(5) =   2
                l(6) =   3

     atomic species   valence    mass     pseudopotential
        Mg            21.00    24.30500     Ho( 1.00)
        Zn            23.00    65.39000     Tm( 1.00)

     24 Sym. Ops., with inversion, found (12 have fractional translation)

   Cartesian axes

     site n.     atom                  positions (alat units)
         1           Mg  tau(   1) = (  -0.0000005   0.5773506   0.1003820  )
         2           Mg  tau(   2) = (   0.5000005   0.2886748   0.9044931  )
         3           Mg  tau(   3) = (   0.5000005   0.2886748   1.5078402  )
         4           Mg  tau(   4) = (  -0.0000005   0.5773506   0.7037291  )
         5           Zn  tau(   5) = (   0.0000000   0.0000000   0.0000000  )
         6           Zn  tau(   6) = (   0.0000000   0.0000000   0.8041111  )
         7           Zn  tau(   7) = (   0.0000000   0.2950739   1.2061667  )
         8           Zn  tau(   8) = (   0.7444585   0.1475370   0.4020556  )
         9           Zn  tau(   9) = (   0.2555415   0.1475370   0.4020556  )
        10           Zn  tau(  10) = (   0.2444585   0.7184884   1.2061667  )
        11           Zn  tau(  11) = (  -0.2444585   0.7184884   1.2061667  )
        12           Zn  tau(  12) = (   0.5000000   0.5709515   0.4020556  )

     number of k points=    12  gaussian smearing, width (Ry)=  0.1000
                       cart. coord. in units 2pi/alat
        k(    1) = (   0.0000000   0.0000000   0.0000000), wk =   0.0833333
        k(    2) = (   0.0000000   0.0000000   0.1554512), wk =   0.1666667
        k(    3) = (   0.0000000   0.0000000  -0.3109023), wk =   0.0833333
        k(    4) = (   0.0000000   0.3849002   0.0000000), wk =   0.1666667
        k(    5) = (   0.0000000   0.3849002   0.1554512), wk =   0.3333333
        k(    6) = (   0.0000000   0.3849002  -0.3109023), wk =   0.1666667
        k(    7) = (  -0.5000000  -0.2886751   0.0000000), wk =   0.0833333
        k(    8) = (  -0.5000000  -0.2886751   0.1554512), wk =   0.1666667
        k(    9) = (  -0.5000000  -0.2886751  -0.3109023), wk =   0.0833333
        k(   10) = (  -0.5000000   0.0962250   0.0000000), wk =   0.1666667
        k(   11) = (  -0.5000000   0.0962250   0.1554512), wk =   0.3333333
        k(   12) = (  -0.5000000   0.0962250  -0.3109023), wk =   0.1666667

     Largest allocated arrays     est. size (Mb)     dimensions
     Largest temporary arrays     est. size (Mb)     dimensions

     Initial potential from superposition of free atoms

     Starting from uniform charge
     Starting wfc are    0 randomized atomic wfcs

     Self-consistent Calculation

     iteration #  1     ecut=    40.00 Ry     beta=0.70
     CG style diagonalization
     ethr =  1.00E-02,  avg # of iterations = 21.3

     total energy              =   -3082.53862365 Ry
     Harris-Foulkes estimate   =   -5211.85626289 Ry
     estimated scf accuracy    <    2583.83481841 Ry

[...]

     iteration #  3     ecut=    40.00 Ry     beta=0.70
     CG style diagonalization
     c_bands:  2 eigenvalues not converged
     c_bands:  2 eigenvalues not converged
     c_bands:  2 eigenvalues not converged
     c_bands:  1 eigenvalues not converged
     c_bands:  1 eigenvalues not converged
     c_bands:  1 eigenvalues not converged
     c_bands:  1 eigenvalues not converged
     ethr =  1.00E-02,  avg # of iterations = 12.8

[...]

     End of self-consistent calculation

          k = 0.0000 0.0000 0.0000 (  5769 PWs)   bands (ev):

   -76.8563 -76.8520 -76.8034 -76.7735 -76.7734 -76.7575 -76.7574 -76.7314
   -56.5793 -56.5745 -56.5666 -56.5510 -36.2882 -36.1476 -35.9995 -35.7643
   -35.7563 -35.7563 -35.7276 -35.7276 -35.6839 -35.6838 -35.5660 -35.5278
   -35.5278 -35.5099 -35.5098 -35.4061 -35.4017 -35.4017 -35.3637 -35.3637
   -35.3591 -35.3591 -35.3156 -35.3005 -20.8414 -20.8271 -20.8248 -20.8248
   -20.8026 -20.8026 -20.7738 -20.7499 -20.7499 -20.7464 -20.7425 -20.7425
     9.6425  10.0759  10.3452  11.0081  11.0082  11.1336  11.1337  11.3364
    11.3365  11.4545  11.6741  11.6741  12.2385  12.5131  12.5847  12.5848
    12.6707  12.6708  13.0700  13.2609  13.2609  13.5852  13.5852  13.6414
    13.7697  13.7698  13.8420  13.8420  13.8538  13.8731  13.9730  13.9730
    14.0673  14.0674  14.6171  14.6172  14.8924  14.8925  15.3091  15.3115
    16.5500  18.3709  20.2236  21.7089  21.7350  21.7351  21.9771  21.9771
    22.0703  22.0703  22.2782  22.3255  22.3255  22.4697  22.4698  22.5948
    22.8797  22.8797  23.3529  23.3529  23.4534  23.4534  23.5455  25.0882
    25.3761  27.7997  27.7998  28.0462  28.1051  28.1052  29.7642  29.7643
    30.1600  30.2567  30.2924  30.2925  30.6933  30.6934  30.9797  31.3379
    31.7787  33.3179  33.3180  35.1636  36.2700  36.2702  36.6343  36.7133
    36.7133  37.1045  37.4555  37.5172  37.5173  38.1416  38.1417  38.3413
    38.3413  38.5330  38.5672  39.8493  40.0159  40.0159  40.1009  40.3774
    41.2332  41.2730  41.2753  41.2753  42.0567  42.5565  42.5567  42.8632
    42.8633

[...]

          k =-0.5000-0.2887 0.0000 (  5800 PWs)   bands (ev):

[...]

     the Fermi energy is    36.3041 ev

!    total energy              =   -4107.23204328 Ry
     Harris-Foulkes estimate   =   -4107.23211111 Ry
     estimated scf accuracy    <       0.00007312 Ry

     The total energy is the sum of the following terms:

     one-electron contribution =    -890.31514171 Ry
     hartree contribution      =     658.22526155 Ry
     xc contribution           =    -348.62478348 Ry
     ewald contribution        =   -3526.08509383 Ry
     smearing contrib. (-TS)   =      -0.43228582 Ry

     convergence has been achieved in  10 iterations

     Forces acting on atoms (Ry/au):

     atom    1 type  1   force =     0.00000000    0.00000000    0.00017029
     atom    2 type  1   force =     0.00000000    0.00000000    0.00017029
     atom    3 type  1   force =     0.00000000    0.00000000   -0.00017029
     atom    4 type  1   force =     0.00000000    0.00000000   -0.00017029
     atom    5 type  2   force =     0.00000000    0.00000000    0.00000000
     atom    6 type  2   force =     0.00000000    0.00000000    0.00000000
     atom    7 type  2   force =     0.00000000    0.13550161    0.00000000
     atom    8 type  2   force =    -0.11734784    0.06775080    0.00000000
     atom    9 type  2   force =     0.11734784    0.06775080    0.00000000
     atom   10 type  2   force =    -0.11734784   -0.06775080    0.00000000
     atom   11 type  2   force =     0.11734784   -0.06775080    0.00000000
     atom   12 type  2   force =     0.00000000   -0.13550161    0.00000000

     Total force =     0.331910     Total SCF correction =     0.000000

     entering subroutine stress ...

          total   stress  (Ry/bohr**3)                   (kbar)     P= 1320.17
   0.00901183   0.00000000   0.00000000       1325.69      0.00      0.00
   0.00000000   0.00901183   0.00000000          0.00   1325.69      0.00
   0.00000000   0.00000000   0.00889942          0.00      0.00   1309.15

     BFGS Geometry Optimization

     number of scf cycles    =   1
     number of bfgs steps    =   0

     enthalpy new            =   -4107.2320432785 Ry

     new trust radius        =       0.5000000000 bohr
     new conv_thr            =       0.0001000000 Ry

     new unit-cell volume =   1655.59025 a.u.^3 (   245.33316 Ang^3 )

CELL_PARAMETERS (alat=  9.92348860)
   1.067764947   0.000000000   0.000000000
  -0.533882474   0.924711570   0.000000000
   0.000000000   0.000000000   1.715843930

ATOMIC_POSITIONS (crystal)
Mg       0.333333000   0.666667000   0.062421209
Mg       0.666667000   0.333333000   0.562421209
Mg       0.666667000   0.333333000   0.937578791
Mg       0.333333000   0.666667000   0.437578791
Zn       0.000000000   0.000000000   0.000000000
Zn       0.000000000   0.000000000   0.500000000
Zn       0.172732218   0.345464436   0.750000000
Zn       0.827267782   0.172732218   0.250000000
Zn       0.345464436   0.172732218   0.250000000
Zn       0.654535564   0.827267782   0.750000000
Zn       0.172732218   0.827267782   0.750000000
Zn       0.827267782   0.654535564   0.250000000

     Writing output data file Prototype-La-hP12-MgZn2.save
     NEW-OLD atomic charge density approx. for the potential
     NEW k-points:
        k(    1) = (   0.0000000   0.0000000   0.0000000), wk =   0.0833333
        k(    2) = (   0.0000000   0.0000000   0.1457009), wk =   0.1666667
        k(    3) = (   0.0000000   0.0000000  -0.2914018), wk =   0.0833333
        k(    4) = (   0.0000000   0.3604728   0.0000000), wk =   0.1666667
        k(    5) = (   0.0000000   0.3604728   0.1457009), wk =   0.3333333
        k(    6) = (   0.0000000   0.3604728  -0.2914018), wk =   0.1666667
        k(    7) = (  -0.4682679  -0.2703546   0.0000000), wk =   0.0833333
        k(    8) = (  -0.4682679  -0.2703546   0.1457009), wk =   0.1666667
        k(    9) = (  -0.4682679  -0.2703546  -0.2914018), wk =   0.0833333
        k(   10) = (  -0.4682679   0.0901182   0.0000000), wk =   0.1666667
        k(   11) = (  -0.4682679   0.0901182   0.1457009), wk =   0.3333333
        k(   12) = (  -0.4682679   0.0901182  -0.2914018), wk =   0.1666667

[...]

     enthalpy old            =   -4107.2320432785 Ry
     enthalpy new            =   -4108.0715862743 Ry

     CASE: enthalpy_new < enthalpy_old

     small trust_radius: resetting bfgs history

     new trust radius        =       0.4655562904 bohr
     new conv_thr            =       0.0000081691 Ry

[...]

     number of scf cycles    =   3
     number of bfgs steps    =   2

     enthalpy old            =   -4108.0715862743 Ry
     enthalpy new            =   -4107.6314377657 Ry

     CASE: enthalpy_new > enthalpy_old

     new trust radius        =       0.1255039712 bohr

     trust_radius < trust_radius_min

     resetting bfgs history

     Message from routine bfgs:
     history already reset at previous step: stopping
     new conv_thr            =       0.0000081691 Ry

     new unit-cell volume =   1398.21338 a.u.^3 (   207.19384 Ang^3 )

[...]

ATOMIC_POSITIONS (crystal)
Mg       0.333333000   0.666667000   0.061881451
Mg       0.666667000   0.333333000   0.561881451
Mg       0.666667000   0.333333000   0.938118549
Mg       0.333333000   0.666667000   0.438118549
Zn       0.000000000   0.000000000   0.000000000
Zn       0.000000000   0.000000000   0.500000000
Zn       0.172248808   0.344497617   0.750000000
Zn       0.827751192   0.172248808   0.250000000
Zn       0.344497617   0.172248808   0.250000000
Zn       0.655502383   0.827751192   0.750000000
Zn       0.172248808   0.827751192   0.750000000
Zn       0.827751192   0.655502383   0.250000000

     Writing output data file Prototype-La-hP12-MgZn2.save
     NEW-OLD atomic charge density approx. for the potential
     NEW k-points:
        k(    1) = (   0.0000000   0.0000000   0.0000000), wk =   0.0833333
        k(    2) = (   0.0000000   0.0000000   0.1549476), wk =   0.1666667
        k(    3) = (   0.0000000   0.0000000  -0.3098951), wk =   0.0833333
        k(    4) = (   0.0000000   0.3803653   0.0000000), wk =   0.1666667
        k(    5) = (   0.0000000   0.3803653   0.1549476), wk =   0.3333333
        k(    6) = (   0.0000000   0.3803653  -0.3098951), wk =   0.1666667
        k(    7) = (  -0.4941090  -0.2852740   0.0000000), wk =   0.0833333
        k(    8) = (  -0.4941090  -0.2852740   0.1549476), wk =   0.1666667
        k(    9) = (  -0.4941090  -0.2852740  -0.3098951), wk =   0.0833333
        k(   10) = (  -0.4941090   0.0950913   0.0000000), wk =   0.1666667
        k(   11) = (  -0.4941090   0.0950913   0.1549476), wk =   0.3333333
        k(   12) = (  -0.4941090   0.0950913  -0.3098951), wk =   0.1666667

[...]

     The maximum number of steps has been reached.

     End of BFGS Geometry Optimization
Begin final coordinates
     new unit-cell volume =   1398.21338 a.u.^3 (   207.19384 Ang^3 )

CELL_PARAMETERS (alat=  9.92348860)
   1.011922402   0.000000000   0.000000000
  -0.505961201   0.876350507   0.000000000
   0.000000000   0.000000000   1.613449124

ATOMIC_POSITIONS (crystal)
Mg       0.333333000   0.666667000   0.061881451
Mg       0.666667000   0.333333000   0.561881451
Mg       0.666667000   0.333333000   0.938118549
Mg       0.333333000   0.666667000   0.438118549
Zn       0.000000000   0.000000000   0.000000000
Zn       0.000000000   0.000000000   0.500000000
Zn       0.172248808   0.344497617   0.750000000
Zn       0.827751192   0.172248808   0.250000000
Zn       0.344497617   0.172248808   0.250000000
Zn       0.655502383   0.827751192   0.750000000
Zn       0.172248808   0.827751192   0.750000000
Zn       0.827751192   0.655502383   0.250000000
End final coordinates

     A final scf calculation at the relaxed structure.
     The G-vectors are recalculated for the final unit cell
     Results may differ from those at the preceding step.

     bravais-lattice index     =            0
     lattice parameter (alat)  =       9.9235  a.u.
     unit-cell volume          =    1398.2134 (a.u.)^3
     number of atoms/cell      =           12
     number of atomic types    =            2
     number of electrons       =       268.00
     number of Kohn-Sham states=          161
     kinetic-energy cutoff     =      40.0000  Ry
     charge density cutoff     =     160.0000  Ry
     convergence threshold     =      8.2E-06
     mixing beta               =       0.7000
     number of iterations used =            8  plain     mixing
     Exchange-correlation      = SLA-PZ-NOGX-NOGC ( 1 1 0 0 0)
     EXX-fraction              =        0.00

     celldm(1)=   9.923489  celldm(2)=   0.000000  celldm(3)=   0.000000
     celldm(4)=   0.000000  celldm(5)=   0.000000  celldm(6)=   0.000000

     crystal axes: (cart. coord. in units of alat)
               a(1) = (   1.011922   0.000000   0.000000 )
               a(2) = (  -0.505961   0.876351   0.000000 )
               a(3) = (   0.000000   0.000000   1.613449 )

     reciprocal axes: (cart. coord. in units 2 pi/alat)
               b(1) = (  0.988218  0.570548  0.000000 )
               b(2) = (  0.000000  1.141096  0.000000 )
               b(3) = (  0.000000  0.000000  0.619790 )

     PseudoPot. # 1 for Ho read from file:
     /home/cwx6513/pp.La/Ho.UPF
     MD5 check sum: f307ee11bce99f5b724fa279e3790763
     Pseudo is Norm-conserving, Zval = 21.0
     Generated in analytical, separable form
     Using radial grid of 1265 points,  6 beta functions with:
                l(1) =   0
                l(2) =   0
                l(3) =   1
                l(4) =   1
                l(5) =   2
                l(6) =   3

     PseudoPot. # 2 for Tm read from file:
     /home/cwx6513/pp.La/Tm.UPF
     MD5 check sum: 245516e0878b5372ceeb9443ded2c4e1
     Pseudo is Norm-conserving, Zval = 23.0
     Generated in analytical, separable form
     Using radial grid of 1269 points,  6 beta functions with:
                l(1) =   0
                l(2) =   0
                l(3) =   1
                l(4) =   1
                l(5) =   2
                l(6) =   3

     atomic species   valence    mass     pseudopotential
        Mg            21.00    24.30500     Ho( 1.00)
        Zn            23.00    65.39000     Tm( 1.00)

     24 Sym. Ops., with inversion, found (12 have fractional translation)

   Cartesian axes

     site n.     atom                  positions (alat units)
         1           Mg  tau(   1) = (  -0.0000005   0.5842340   0.0998426  )
         2           Mg  tau(   2) = (   0.5059617   0.2921165   0.9065671  )
         3           Mg  tau(   3) = (   0.5059617   0.2921165   1.5136066  )
         4           Mg  tau(   4) = (  -0.0000005   0.5842340   0.7068820  )
         5           Zn  tau(   5) = (   0.0000000   0.0000000   0.0000000  )
         6           Zn  tau(   6) = (   0.0000000   0.0000000   0.8067246  )
         7           Zn  tau(   7) = (   0.0000000   0.3019007   1.2100868  )
         8           Zn  tau(   8) = (   0.7504688   0.1509503   0.4033623  )
         9           Zn  tau(   9) = (   0.2614536   0.1509503   0.4033623  )
        10           Zn  tau(  10) = (   0.2445076   0.7254002   1.2100868  )
        11           Zn  tau(  11) = (  -0.2445076   0.7254002   1.2100868  )
        12           Zn  tau(  12) = (   0.5059612   0.5744498   0.4033623  )

     number of k points=    12  gaussian smearing, width (Ry)=  0.1000
                       cart. coord. in units 2pi/alat
        k(    1) = (   0.0000000   0.0000000   0.0000000), wk =   0.0833333
        k(    2) = (   0.0000000   0.0000000   0.1549476), wk =   0.1666667
        k(    3) = (   0.0000000   0.0000000  -0.3098951), wk =   0.0833333
        k(    4) = (   0.0000000   0.3803653   0.0000000), wk =   0.1666667
        k(    5) = (   0.0000000   0.3803653   0.1549476), wk =   0.3333333
        k(    6) = (   0.0000000   0.3803653  -0.3098951), wk =   0.1666667
        k(    7) = (  -0.4941090  -0.2852740   0.0000000), wk =   0.0833333
        k(    8) = (  -0.4941090  -0.2852740   0.1549476), wk =   0.1666667
        k(    9) = (  -0.4941090  -0.2852740  -0.3098951), wk =   0.0833333
        k(   10) = (  -0.4941090   0.0950913   0.0000000), wk =   0.1666667
        k(   11) = (  -0.4941090   0.0950913   0.1549476), wk =   0.3333333
        k(   12) = (  -0.4941090   0.0950913  -0.3098951), wk =   0.1666667

     Largest allocated arrays     est. size (Mb)     dimensions
     Largest temporary arrays     est. size (Mb)     dimensions

     Initial potential from superposition of free atoms

     Starting from uniform charge
     Starting wfc are    0 randomized atomic wfcs

     Writing output data file Prototype-La-hP12-MgZn2.save

     Self-consistent Calculation

[...]

     iteration #  8     ecut=    40.00 Ry     beta=0.70
     CG style diagonalization
     c_bands:  1 eigenvalues not converged
     c_bands:  1 eigenvalues not converged
     c_bands:  1 eigenvalues not converged
     ethr =  1.60E-05,  avg # of iterations =  3.9

[...]

     total energy              =   -4107.90679490 Ry
     Harris-Foulkes estimate   =   -4107.90682889 Ry
     estimated scf accuracy    <       0.00006357 Ry

     iteration # 11     ecut=    40.00 Ry     beta=0.70
     CG style diagonalization
     ethr =  2.37E-08,  avg # of iterations =  3.8

     End of self-consistent calculation

[...]

          k = 0.0000 0.3804-0.3099 (  5962 PWs)   bands (ev):

[...]

          k =-0.4941 0.0951-0.3099 (  5986 PWs)   bands (ev):

   -77.7709 -77.7708 -77.7604 -77.7604 -77.7410 -77.7410 -77.7325 -77.7325
   -57.5375 -57.5375 -57.5321 -57.5321 -36.9701 -36.9701 -36.8459 -36.8459
   -36.6599 -36.6599 -36.6153 -36.6153 -36.5565 -36.5565 -36.5384 -36.5384
   -36.4549 -36.4549 -36.4081 -36.4081 -36.3752 -36.3752 -36.3590 -36.3589
   -36.3419 -36.3419 -36.3287 -36.3287 -21.7794 -21.7792 -21.7680 -21.7680
   -21.7554 -21.7554 -21.7300 -21.7298 -21.7118 -21.7117 -21.7006 -21.7006
     9.9178   9.9179  10.3851  10.3851  10.5877  10.5877  10.7562  10.7562
    10.8507  10.8507  11.3881  11.3882  11.5311  11.5311  11.7303  11.7303
    11.9231  11.9231  11.9944  11.9944  12.2204  12.2204  12.3166  12.3166
    12.4873  12.4873  12.7178  12.7178  12.8044  12.8044  12.9852  12.9852
    13.0192  13.0192  13.0724  13.0724  13.2669  13.2669  13.7265  13.7265
    17.6549  17.6549  19.2196  19.2197  20.9731  20.9731  21.2045  21.2045
    21.3537  21.3538  21.4771  21.4771  21.6181  21.6181  21.8683  21.8684
    22.1160  22.1160  22.2624  22.2625  22.3920  22.3921  22.8092  22.8092
    23.5847  23.5847  24.8809  24.8810  27.2630  27.2630  27.8078  27.8078
    29.2891  29.2892  30.4126  30.4126  32.5939  32.5939  33.0749  33.0749
    33.8539  33.8539  34.8894  34.8895  35.3322  35.3322  35.6996  35.6996
    36.4871  36.4871  36.6629  36.6629  37.1674  37.1675  37.5240  37.5240
    38.1625  38.1625  38.5589  38.5590  38.7460  38.7461  39.6767  39.6768
    40.2353  40.2354  40.4766  40.4768  41.0246  41.0247  41.4923  41.4927
    41.9527

     the Fermi energy is    35.2500 ev

!    total energy              =   -4107.90680974 Ry
     Harris-Foulkes estimate   =   -4107.90681381 Ry
     estimated scf accuracy    <       0.00000498 Ry

     The total energy is the sum of the following terms:

     one-electron contribution =    -933.93545798 Ry
     hartree contribution      =     670.59810956 Ry
     xc contribution           =    -348.02249713 Ry
     ewald contribution        =   -3496.12209351 Ry
     smearing contrib. (-TS)   =      -0.42487068 Ry

     convergence has been achieved in  11 iterations

     Forces acting on atoms (Ry/au):

     atom    1 type  1   force =     0.00000000    0.00000000    0.03617542
     atom    2 type  1   force =     0.00000000    0.00000000    0.03617542
     atom    3 type  1   force =     0.00000000    0.00000000   -0.03617542
     atom    4 type  1   force =     0.00000000    0.00000000   -0.03617542
     atom    5 type  2   force =     0.00000000    0.00000000    0.00000000
     atom    6 type  2   force =     0.00000000    0.00000000    0.00000000
     atom    7 type  2   force =     0.00000000    0.01876987    0.00000000
     atom    8 type  2   force =    -0.01625518    0.00938493    0.00000000
     atom    9 type  2   force =     0.01625518    0.00938493    0.00000000
     atom   10 type  2   force =    -0.01625518   -0.00938493    0.00000000
     atom   11 type  2   force =     0.01625518   -0.00938493    0.00000000
     atom   12 type  2   force =     0.00000000   -0.01876987    0.00000000

     Total force =     0.085723     Total SCF correction =     0.000000

     entering subroutine stress ...

          total   stress  (Ry/bohr**3)                   (kbar)     P= 1120.50
   0.00767112   0.00000000   0.00000000       1128.46      0.00      0.00
   0.00000000   0.00767112   0.00000000          0.00   1128.46      0.00
   0.00000000   0.00000000   0.00750876          0.00      0.00   1104.58

     Writing output data file Prototype-La-hP12-MgZn2.save

     General routines

     Parallel routines

   This run was terminated on:   1:30: 5  23Mar2018

   JOB DONE.