     Program PWSCF v.5.0.2 starts on 22Mar2018 at 17:32:50

     Current dimensions of program PWSCF are:
     Max number of different atomic species (ntypx) = 10
     Max number of k-points (npk) =  40000
     Max angular momentum in pseudopotentials (lmaxx) =  3
     Waiting for input...
     Reading input from standard input

     Subspace diagonalization in iterative solution of the eigenvalue problem:
     a serial algorithm will be used

     bravais-lattice index     =            0
     lattice parameter (alat)  =       8.5346  a.u.
     unit-cell volume          =     621.6493 (a.u.)^3
     number of atoms/cell      =            8
     number of atomic types    =            2
     number of electrons       =       118.00
     number of Kohn-Sham states=           71
     kinetic-energy cutoff     =      40.0000  Ry
     charge density cutoff     =     160.0000  Ry
     convergence threshold     =      1.0E-04
     mixing beta               =       0.7000
     number of iterations used =            8  plain     mixing
     Exchange-correlation      = SLA-PZ-NOGX-NOGC ( 1 1 0 0 0)
     EXX-fraction              =        0.00
     nstep                     =           50

     celldm(1)=   8.534573  celldm(2)=   0.000000  celldm(3)=   0.000000
     celldm(4)=   0.000000  celldm(5)=   0.000000  celldm(6)=   0.000000

     crystal axes: (cart. coord. in units of alat)
               a(1) = (   1.000000   0.000000   0.000000 )
               a(2) = (   0.000000   1.000000   0.000000 )
               a(3) = (   0.000000   0.000000   1.000000 )

     reciprocal axes: (cart. coord. in units 2 pi/alat)
               b(1) = (  1.000000  0.000000  0.000000 )
               b(2) = (  0.000000  1.000000  0.000000 )
               b(3) = (  0.000000  0.000000  1.000000 )

     PseudoPot. # 1 for Nd read from file:
     /home/cwx6513/pp.La/Nd.UPF
     MD5 check sum: c66c5b6abe7b5840ced9b1e244e3bed6
     Pseudo is Norm-conserving, Zval = 14.0
     Generated in analytical, separable form
     Using radial grid of 1257 points,  6 beta functions with:
                l(1) =   0
                l(2) =   0
                l(3) =   1
                l(4) =   1
                l(5) =   2
                l(6) =   3

     PseudoPot. # 2 for Eu read from file:
     /home/cwx6513/pp.La/Eu.UPF
     MD5 check sum: 5efdbbfc50c6a10138933a6429836ad2
     Pseudo is Norm-conserving, Zval = 17.0
     Generated in analytical, separable form
     Using radial grid of 1261 points,  6 beta functions with:
                l(1) =   0
                l(2) =   0
                l(3) =   1
                l(4) =   1
                l(5) =   2
                l(6) =   3

     atomic species   valence    mass     pseudopotential
        Cr            14.00    51.99610     Nd( 1.00)
        Si            17.00    28.08550     Eu( 1.00)

     48 Sym. Ops., with inversion, found (24 have fractional translation)

   Cartesian axes

     site n.     atom                  positions (alat units)
         1           Cr  tau(   1) = (   0.0000000   0.5000000   0.2500000  )
         2           Cr  tau(   2) = (   0.0000000   0.5000000   0.7500000  )
         3           Cr  tau(   3) = (   0.5000000   0.7500000   0.0000000  )
         4           Cr  tau(   4) = (   0.5000000   0.2500000   0.0000000  )
         5           Cr  tau(   5) = (   0.7500000   0.0000000   0.5000000  )
         6           Cr  tau(   6) = (   0.2500000   0.0000000   0.5000000  )
         7           Si  tau(   7) = (   0.5000000   0.5000000   0.5000000  )
         8           Si  tau(   8) = (   0.0000000   0.0000000   0.0000000  )

     number of k points=    48  gaussian smearing, width (Ry)=  0.1000
                       cart. coord. in units 2pi/alat
        k(    1) = (   0.0000000   0.0000000   0.0000000), wk =   0.0095238
        k(    2) = (   0.0000000   0.0000000   0.1428571), wk =   0.0190476
        k(    3) = (   0.0000000   0.0000000   0.2857143), wk =   0.0190476
        k(    4) = (   0.0000000   0.0000000   0.4285714), wk =   0.0190476
        k(    5) = (   0.0000000   0.1666667   0.0000000), wk =   0.0190476
        k(    6) = (   0.0000000   0.1666667   0.1428571), wk =   0.0380952
        k(    7) = (   0.0000000   0.1666667   0.2857143), wk =   0.0380952
        k(    8) = (   0.0000000   0.1666667   0.4285714), wk =   0.0380952
        k(    9) = (   0.0000000   0.3333333   0.0000000), wk =   0.0190476
        k(   10) = (   0.0000000   0.3333333   0.1428571), wk =   0.0380952
        k(   11) = (   0.0000000   0.3333333   0.2857143), wk =   0.0380952
        k(   12) = (   0.0000000   0.3333333   0.4285714), wk =   0.0380952
        k(   13) = (   0.0000000  -0.5000000   0.0000000), wk =   0.0095238
        k(   14) = (   0.0000000  -0.5000000   0.1428571), wk =   0.0190476
        k(   15) = (   0.0000000  -0.5000000   0.2857143), wk =   0.0190476
        k(   16) = (   0.0000000  -0.5000000   0.4285714), wk =   0.0190476
        k(   17) = (   0.2000000   0.0000000   0.0000000), wk =   0.0190476
        k(   18) = (   0.2000000   0.0000000   0.1428571), wk =   0.0380952
        k(   19) = (   0.2000000   0.0000000   0.2857143), wk =   0.0380952
        k(   20) = (   0.2000000   0.0000000   0.4285714), wk =   0.0380952
        k(   21) = (   0.2000000   0.1666667   0.0000000), wk =   0.0380952
        k(   22) = (   0.2000000   0.1666667   0.1428571), wk =   0.0761905
        k(   23) = (   0.2000000   0.1666667   0.2857143), wk =   0.0761905
        k(   24) = (   0.2000000   0.1666667   0.4285714), wk =   0.0761905
        k(   25) = (   0.2000000   0.3333333   0.0000000), wk =   0.0380952
        k(   26) = (   0.2000000   0.3333333   0.1428571), wk =   0.0761905
        k(   27) = (   0.2000000   0.3333333   0.2857143), wk =   0.0761905
        k(   28) = (   0.2000000   0.3333333   0.4285714), wk =   0.0761905
        k(   29) = (   0.2000000  -0.5000000   0.0000000), wk =   0.0190476
        k(   30) = (   0.2000000  -0.5000000   0.1428571), wk =   0.0380952
        k(   31) = (   0.2000000  -0.5000000   0.2857143), wk =   0.0380952
        k(   32) = (   0.2000000  -0.5000000   0.4285714), wk =   0.0380952
        k(   33) = (   0.4000000   0.0000000   0.0000000), wk =   0.0190476
        k(   34) = (   0.4000000   0.0000000   0.1428571), wk =   0.0380952
        k(   35) = (   0.4000000   0.0000000   0.2857143), wk =   0.0380952
        k(   36) = (   0.4000000   0.0000000   0.4285714), wk =   0.0380952
        k(   37) = (   0.4000000   0.1666667   0.0000000), wk =   0.0380952
        k(   38) = (   0.4000000   0.1666667   0.1428571), wk =   0.0761905
        k(   39) = (   0.4000000   0.1666667   0.2857143), wk =   0.0761905
        k(   40) = (   0.4000000   0.1666667   0.4285714), wk =   0.0761905
        k(   41) = (   0.4000000   0.3333333   0.0000000), wk =   0.0380952
        k(   42) = (   0.4000000   0.3333333   0.1428571), wk =   0.0761905
        k(   43) = (   0.4000000   0.3333333   0.2857143), wk =   0.0761905
        k(   44) = (   0.4000000   0.3333333   0.4285714), wk =   0.0761905
        k(   45) = (   0.4000000  -0.5000000   0.0000000), wk =   0.0190476
        k(   46) = (   0.4000000  -0.5000000   0.1428571), wk =   0.0380952
        k(   47) = (   0.4000000  -0.5000000   0.2857143), wk =   0.0380952
        k(   48) = (   0.4000000  -0.5000000   0.4285714), wk =   0.0380952

     Largest allocated arrays     est. size (Mb)     dimensions
     Largest temporary arrays     est. size (Mb)     dimensions

     Initial potential from superposition of free atoms

     Starting from uniform charge
     Starting wfc are    0 randomized atomic wfcs

     Self-consistent Calculation

     iteration #  1     ecut=    40.00 Ry     beta=0.70
     CG style diagonalization
     c_bands:  1 eigenvalues not converged
     c_bands:  2 eigenvalues not converged
     c_bands:  2 eigenvalues not converged
     c_bands:  1 eigenvalues not converged
     c_bands:  5 eigenvalues not converged
     c_bands:  3 eigenvalues not converged
     c_bands:  1 eigenvalues not converged
     c_bands:  1 eigenvalues not converged
     c_bands:  2 eigenvalues not converged
     c_bands:  5 eigenvalues not converged
     c_bands:  2 eigenvalues not converged
     c_bands:  5 eigenvalues not converged
     c_bands:  5 eigenvalues not converged
     ethr =  1.00E-02,  avg # of iterations = 13.8

     total energy              =    -794.81414979 Ry
     Harris-Foulkes estimate   =   -1081.89843648 Ry
     estimated scf accuracy    <     356.89050047 Ry

[...]

     iteration #  4     ecut=    40.00 Ry     beta=0.70
     CG style diagonalization
     ethr =  1.00E-02,  avg # of iterations =  3.6

[...]

     End of self-consistent calculation

          k = 0.0000 0.0000 0.0000 (  2601 PWs)   bands (ev):

   -22.1135 -22.0655  -8.1155  -6.9355  -6.9355  -4.5628  -4.5628  -4.5628
     4.1179   4.1179   4.1179   4.2535   4.2535   4.2535   9.1695   9.1695
    10.4672  13.3512  13.3512  13.3512  15.1209  15.1209  15.1209  16.7107
    16.7107  16.7107  16.7607  16.7607  16.7607  21.0534  21.0534  21.0534
    33.3441  33.3441  33.3441  33.3666  33.3666  33.8166  34.7487  35.9496
    35.9496  35.9496  36.3822  36.5836  36.5836  36.7780  36.7780  36.7780
    37.9452  37.9452  37.9452  37.9979  37.9979  39.4279  42.6051  42.6051
    42.6051  42.9456  42.9456  43.6994  43.6994  43.6994  44.6082  44.6082
    44.6082  47.9075  47.9090  48.3631  48.3611  48.3634  49.5275

[...]

     the Fermi energy is    43.5138 ev

!    total energy              =   -1007.17202522 Ry
     Harris-Foulkes estimate   =   -1007.17204797 Ry
     estimated scf accuracy    <       0.00003077 Ry

     The total energy is the sum of the following terms:

     one-electron contribution =     250.94151689 Ry
     hartree contribution      =      46.73242885 Ry
     xc contribution           =    -124.54179383 Ry
     ewald contribution        =   -1179.99133184 Ry
     smearing contrib. (-TS)   =      -0.31284530 Ry

     convergence has been achieved in   8 iterations

     Forces acting on atoms (Ry/au):

     atom    1 type  1   force =     0.00000000    0.00000000    0.00000000
     atom    2 type  1   force =     0.00000000    0.00000000    0.00000000
     atom    3 type  1   force =     0.00000000    0.00000000    0.00000000
     atom    4 type  1   force =     0.00000000    0.00000000    0.00000000
     atom    5 type  1   force =     0.00000000    0.00000000    0.00000000
     atom    6 type  1   force =     0.00000000    0.00000000    0.00000000
     atom    7 type  2   force =     0.00000000    0.00000000    0.00000000
     atom    8 type  2   force =     0.00000000    0.00000000    0.00000000

     Total force =     0.000000     Total SCF correction =     0.000000

     entering subroutine stress ...

          total   stress  (Ry/bohr**3)                   (kbar)     P= 4775.89
   0.03246584   0.00000000   0.00000000       4775.89      0.00      0.00
   0.00000000   0.03246584   0.00000000          0.00   4775.89      0.00
   0.00000000   0.00000000   0.03246584          0.00      0.00   4775.89

     BFGS Geometry Optimization

[...]
        k(   48) = (   0.3635474  -0.4544343   0.3895151), wk =   0.0380952

[...]

     enthalpy old            =   -1007.1720252208 Ry
     enthalpy new            =   -1010.7633340658 Ry

     CASE: enthalpy_new < enthalpy_old

     small trust_radius: resetting bfgs history

     new trust radius        =       0.9646762695 bohr
     new conv_thr            =       0.0000010000 Ry

[...]

          total   stress  (Ry/bohr**3)                   (kbar)     P=-1201.00
  -0.00816424   0.00000000   0.00000000      -1201.00      0.00      0.00
   0.00000000  -0.00816424   0.00000000          0.00  -1201.00      0.00
   0.00000000   0.00000000  -0.00816424          0.00      0.00  -1201.00

     number of scf cycles    =   3
     number of bfgs steps    =   2

     enthalpy old            =   -1010.7633340658 Ry
     enthalpy new            =   -1009.1697525888 Ry

     CASE: enthalpy_new > enthalpy_old

     new trust radius        =       0.3318025148 bohr

     trust_radius < trust_radius_min

     resetting bfgs history

     Message from routine bfgs:
     history already reset at previous step: stopping
     new conv_thr            =       0.0000010000 Ry

     new unit-cell volume =   1044.23579 a.u.^3 (   154.73978 Ang^3 )

[...]

ATOMIC_POSITIONS (crystal)
Cr       0.000000000   0.500000000   0.250000000
Cr       0.000000000   0.500000000   0.750000000
Cr       0.500000000   0.750000000   0.000000000
Cr       0.500000000   0.250000000   0.000000000
Cr       0.750000000   0.000000000   0.500000000
Cr       0.250000000   0.000000000   0.500000000
Si       0.500000000   0.500000000   0.500000000
Si       0.000000000   0.000000000   0.000000000

     Writing output data file Prototype-La-cP8-Cr3Si.save
     NEW-OLD atomic charge density approx. for the potential
     NEW k-points:
        k(    1) = (   0.0000000   0.0000000   0.0000000), wk =   0.0095238
        k(    2) = (   0.0000000   0.0000000   0.1201760), wk =   0.0190476
        k(    3) = (   0.0000000   0.0000000   0.2403519), wk =   0.0190476
        k(    4) = (   0.0000000   0.0000000   0.3605279), wk =   0.0190476
        k(    5) = (   0.0000000   0.1402053   0.0000000), wk =   0.0190476
        k(    6) = (   0.0000000   0.1402053   0.1201760), wk =   0.0380952
        k(    7) = (   0.0000000   0.1402053   0.2403519), wk =   0.0380952
        k(    8) = (   0.0000000   0.1402053   0.3605279), wk =   0.0380952
        k(    9) = (   0.0000000   0.2804106   0.0000000), wk =   0.0190476
        k(   10) = (   0.0000000   0.2804106   0.1201760), wk =   0.0380952
        k(   11) = (   0.0000000   0.2804106   0.2403519), wk =   0.0380952
        k(   12) = (   0.0000000   0.2804106   0.3605279), wk =   0.0380952
        k(   13) = (   0.0000000  -0.4206158   0.0000000), wk =   0.0095238
        k(   14) = (   0.0000000  -0.4206158   0.1201760), wk =   0.0190476
        k(   15) = (   0.0000000  -0.4206158   0.2403519), wk =   0.0190476
        k(   16) = (   0.0000000  -0.4206158   0.3605279), wk =   0.0190476
        k(   17) = (   0.1682463   0.0000000   0.0000000), wk =   0.0190476
        k(   18) = (   0.1682463   0.0000000   0.1201760), wk =   0.0380952
        k(   19) = (   0.1682463   0.0000000   0.2403519), wk =   0.0380952
        k(   20) = (   0.1682463   0.0000000   0.3605279), wk =   0.0380952
        k(   21) = (   0.1682463   0.1402053   0.0000000), wk =   0.0380952
        k(   22) = (   0.1682463   0.1402053   0.1201760), wk =   0.0761905
        k(   23) = (   0.1682463   0.1402053   0.2403519), wk =   0.0761905
        k(   24) = (   0.1682463   0.1402053   0.3605279), wk =   0.0761905
        k(   25) = (   0.1682463   0.2804106   0.0000000), wk =   0.0380952
        k(   26) = (   0.1682463   0.2804106   0.1201760), wk =   0.0761905
        k(   27) = (   0.1682463   0.2804106   0.2403519), wk =   0.0761905
        k(   28) = (   0.1682463   0.2804106   0.3605279), wk =   0.0761905
        k(   29) = (   0.1682463  -0.4206158   0.0000000), wk =   0.0190476
        k(   30) = (   0.1682463  -0.4206158   0.1201760), wk =   0.0380952
        k(   31) = (   0.1682463  -0.4206158   0.2403519), wk =   0.0380952
        k(   32) = (   0.1682463  -0.4206158   0.3605279), wk =   0.0380952
        k(   33) = (   0.3364927   0.0000000   0.0000000), wk =   0.0190476
        k(   34) = (   0.3364927   0.0000000   0.1201760), wk =   0.0380952
        k(   35) = (   0.3364927   0.0000000   0.2403519), wk =   0.0380952
        k(   36) = (   0.3364927   0.0000000   0.3605279), wk =   0.0380952
        k(   37) = (   0.3364927   0.1402053   0.0000000), wk =   0.0380952
        k(   38) = (   0.3364927   0.1402053   0.1201760), wk =   0.0761905
        k(   39) = (   0.3364927   0.1402053   0.2403519), wk =   0.0761905
        k(   40) = (   0.3364927   0.1402053   0.3605279), wk =   0.0761905
        k(   41) = (   0.3364927   0.2804106   0.0000000), wk =   0.0380952
        k(   42) = (   0.3364927   0.2804106   0.1201760), wk =   0.0761905
        k(   43) = (   0.3364927   0.2804106   0.2403519), wk =   0.0761905
        k(   44) = (   0.3364927   0.2804106   0.3605279), wk =   0.0761905
        k(   45) = (   0.3364927  -0.4206158   0.0000000), wk =   0.0190476
        k(   46) = (   0.3364927  -0.4206158   0.1201760), wk =   0.0380952
        k(   47) = (   0.3364927  -0.4206158   0.2403519), wk =   0.0380952
        k(   48) = (   0.3364927  -0.4206158   0.3605279), wk =   0.0380952

[...]

     The maximum number of steps has been reached.

     End of BFGS Geometry Optimization
Begin final coordinates
     new unit-cell volume =   1044.23579 a.u.^3 (   154.73978 Ang^3 )

CELL_PARAMETERS (alat=  8.53457320)
   1.188733177   0.000000000   0.000000000
   0.000000000   1.188733177   0.000000000
   0.000000000   0.000000000   1.188733177

ATOMIC_POSITIONS (crystal)
Cr       0.000000000   0.500000000   0.250000000
Cr       0.000000000   0.500000000   0.750000000
Cr       0.500000000   0.750000000   0.000000000
Cr       0.500000000   0.250000000   0.000000000
Cr       0.750000000   0.000000000   0.500000000
Cr       0.250000000   0.000000000   0.500000000
Si       0.500000000   0.500000000   0.500000000
Si       0.000000000   0.000000000   0.000000000
End final coordinates

     A final scf calculation at the relaxed structure.
     The G-vectors are recalculated for the final unit cell
     Results may differ from those at the preceding step.

     bravais-lattice index     =            0
     lattice parameter (alat)  =       8.5346  a.u.
     unit-cell volume          =    1044.2358 (a.u.)^3
     number of atoms/cell      =            8
     number of atomic types    =            2
     number of electrons       =       118.00
     number of Kohn-Sham states=           71
     kinetic-energy cutoff     =      40.0000  Ry
     charge density cutoff     =     160.0000  Ry
     convergence threshold     =      1.0E-06
     mixing beta               =       0.7000
     number of iterations used =            8  plain     mixing
     Exchange-correlation      = SLA-PZ-NOGX-NOGC ( 1 1 0 0 0)
     EXX-fraction              =        0.00

     celldm(1)=   8.534573  celldm(2)=   0.000000  celldm(3)=   0.000000
     celldm(4)=   0.000000  celldm(5)=   0.000000  celldm(6)=   0.000000

     crystal axes: (cart. coord. in units of alat)
               a(1) = (   1.188733   0.000000   0.000000 )
               a(2) = (   0.000000   1.188733   0.000000 )
               a(3) = (   0.000000   0.000000   1.188733 )

     reciprocal axes: (cart. coord. in units 2 pi/alat)
               b(1) = (  0.841232  0.000000  0.000000 )
               b(2) = (  0.000000  0.841232  0.000000 )
               b(3) = (  0.000000  0.000000  0.841232 )

     PseudoPot. # 1 for Nd read from file:
     /home/cwx6513/pp.La/Nd.UPF
     MD5 check sum: c66c5b6abe7b5840ced9b1e244e3bed6
     Pseudo is Norm-conserving, Zval = 14.0
     Generated in analytical, separable form
     Using radial grid of 1257 points,  6 beta functions with:
                l(1) =   0
                l(2) =   0
                l(3) =   1
                l(4) =   1
                l(5) =   2
                l(6) =   3

     PseudoPot. # 2 for Eu read from file:
     /home/cwx6513/pp.La/Eu.UPF
     MD5 check sum: 5efdbbfc50c6a10138933a6429836ad2
     Pseudo is Norm-conserving, Zval = 17.0
     Generated in analytical, separable form
     Using radial grid of 1261 points,  6 beta functions with:
                l(1) =   0
                l(2) =   0
                l(3) =   1
                l(4) =   1
                l(5) =   2
                l(6) =   3

     atomic species   valence    mass     pseudopotential
        Cr            14.00    51.99610     Nd( 1.00)
        Si            17.00    28.08550     Eu( 1.00)

     48 Sym. Ops., with inversion, found (24 have fractional translation)

   Cartesian axes

     site n.     atom                  positions (alat units)
         1           Cr  tau(   1) = (   0.0000000   0.5943666   0.2971833  )
         2           Cr  tau(   2) = (   0.0000000   0.5943666   0.8915499  )
         3           Cr  tau(   3) = (   0.5943666   0.8915499   0.0000000  )
         4           Cr  tau(   4) = (   0.5943666   0.2971833   0.0000000  )
         5           Cr  tau(   5) = (   0.8915499   0.0000000   0.5943666  )
         6           Cr  tau(   6) = (   0.2971833   0.0000000   0.5943666  )
         7           Si  tau(   7) = (   0.5943666   0.5943666   0.5943666  )
         8           Si  tau(   8) = (   0.0000000   0.0000000   0.0000000  )

     number of k points=    48  gaussian smearing, width (Ry)=  0.1000
                       cart. coord. in units 2pi/alat
        k(    1) = (   0.0000000   0.0000000   0.0000000), wk =   0.0095238
        k(    2) = (   0.0000000   0.0000000   0.1201760), wk =   0.0190476
        k(    3) = (   0.0000000   0.0000000   0.2403519), wk =   0.0190476
        k(    4) = (   0.0000000   0.0000000   0.3605279), wk =   0.0190476
        k(    5) = (   0.0000000   0.1402053   0.0000000), wk =   0.0190476
        k(    6) = (   0.0000000   0.1402053   0.1201760), wk =   0.0380952
        k(    7) = (   0.0000000   0.1402053   0.2403519), wk =   0.0380952
        k(    8) = (   0.0000000   0.1402053   0.3605279), wk =   0.0380952
        k(    9) = (   0.0000000   0.2804106   0.0000000), wk =   0.0190476
        k(   10) = (   0.0000000   0.2804106   0.1201760), wk =   0.0380952
        k(   11) = (   0.0000000   0.2804106   0.2403519), wk =   0.0380952
        k(   12) = (   0.0000000   0.2804106   0.3605279), wk =   0.0380952
        k(   13) = (   0.0000000  -0.4206158   0.0000000), wk =   0.0095238
        k(   14) = (   0.0000000  -0.4206158   0.1201760), wk =   0.0190476
        k(   15) = (   0.0000000  -0.4206158   0.2403519), wk =   0.0190476
        k(   16) = (   0.0000000  -0.4206158   0.3605279), wk =   0.0190476
        k(   17) = (   0.1682463   0.0000000   0.0000000), wk =   0.0190476
        k(   18) = (   0.1682463   0.0000000   0.1201760), wk =   0.0380952
        k(   19) = (   0.1682463   0.0000000   0.2403519), wk =   0.0380952
        k(   20) = (   0.1682463   0.0000000   0.3605279), wk =   0.0380952
        k(   21) = (   0.1682463   0.1402053   0.0000000), wk =   0.0380952
        k(   22) = (   0.1682463   0.1402053   0.1201760), wk =   0.0761905
        k(   23) = (   0.1682463   0.1402053   0.2403519), wk =   0.0761905
        k(   24) = (   0.1682463   0.1402053   0.3605279), wk =   0.0761905
        k(   25) = (   0.1682463   0.2804106   0.0000000), wk =   0.0380952
        k(   26) = (   0.1682463   0.2804106   0.1201760), wk =   0.0761905
        k(   27) = (   0.1682463   0.2804106   0.2403519), wk =   0.0761905
        k(   28) = (   0.1682463   0.2804106   0.3605279), wk =   0.0761905
        k(   29) = (   0.1682463  -0.4206158   0.0000000), wk =   0.0190476
        k(   30) = (   0.1682463  -0.4206158   0.1201760), wk =   0.0380952
        k(   31) = (   0.1682463  -0.4206158   0.2403519), wk =   0.0380952
        k(   32) = (   0.1682463  -0.4206158   0.3605279), wk =   0.0380952
        k(   33) = (   0.3364927   0.0000000   0.0000000), wk =   0.0190476
        k(   34) = (   0.3364927   0.0000000   0.1201760), wk =   0.0380952
        k(   35) = (   0.3364927   0.0000000   0.2403519), wk =   0.0380952
        k(   36) = (   0.3364927   0.0000000   0.3605279), wk =   0.0380952
        k(   37) = (   0.3364927   0.1402053   0.0000000), wk =   0.0380952
        k(   38) = (   0.3364927   0.1402053   0.1201760), wk =   0.0761905
        k(   39) = (   0.3364927   0.1402053   0.2403519), wk =   0.0761905
        k(   40) = (   0.3364927   0.1402053   0.3605279), wk =   0.0761905
        k(   41) = (   0.3364927   0.2804106   0.0000000), wk =   0.0380952
        k(   42) = (   0.3364927   0.2804106   0.1201760), wk =   0.0761905
        k(   43) = (   0.3364927   0.2804106   0.2403519), wk =   0.0761905
        k(   44) = (   0.3364927   0.2804106   0.3605279), wk =   0.0761905
        k(   45) = (   0.3364927  -0.4206158   0.0000000), wk =   0.0190476
        k(   46) = (   0.3364927  -0.4206158   0.1201760), wk =   0.0380952
        k(   47) = (   0.3364927  -0.4206158   0.2403519), wk =   0.0380952
        k(   48) = (   0.3364927  -0.4206158   0.3605279), wk =   0.0380952

     Largest allocated arrays     est. size (Mb)     dimensions
     Largest temporary arrays     est. size (Mb)     dimensions

     Initial potential from superposition of free atoms

     Starting from uniform charge
     Starting wfc are    0 randomized atomic wfcs

     Writing output data file Prototype-La-cP8-Cr3Si.save

     Self-consistent Calculation

[...]

     iteration # 11     ecut=    40.00 Ry     beta=0.70
     CG style diagonalization
     c_bands:  1 eigenvalues not converged
     ethr =  2.02E-07,  avg # of iterations =  4.4

     total energy              =   -1012.82264558 Ry
     Harris-Foulkes estimate   =   -1012.82270958 Ry
     estimated scf accuracy    <       0.00017140 Ry

     iteration # 12     ecut=    40.00 Ry     beta=0.70
     CG style diagonalization
     ethr =  1.45E-07,  avg # of iterations =  3.4

     End of self-consistent calculation

[...]

          k = 0.3365-0.4206 0.3605 (  4478 PWs)   bands (ev):

   -38.6954 -38.6954 -23.5890 -23.5651 -23.4905 -23.4900 -23.4182 -23.3926
   -11.4939 -11.4932 -11.4875 -11.4873 -11.4828 -11.4824  -2.7774  -2.6375
    -2.3671  -2.3582  -2.2671  -2.2619  -2.0124  -1.9526  -1.7527  -1.7240
    -1.6380  -1.6265  -1.5234  -1.5145  -1.4934  -1.4793  -1.4751  -1.4366
    18.8487  18.8774  19.0421  19.0599  19.2070  19.2572  19.4728  19.4845
    19.5540  19.5680  20.5835  20.5873  21.1220  21.1299  21.6642  21.7398
    21.8479  21.8654  22.8343  22.9445  23.3792  23.4071  23.9566  23.9871
    24.1039  24.2771  25.0568  25.1058  25.4972  25.6325  25.7917  25.8862
    26.2281  26.3380  26.4344  26.7157  26.7200  26.8850  27.1097

     the Fermi energy is    24.4871 ev

!    total energy              =   -1012.82267916 Ry
     Harris-Foulkes estimate   =   -1012.82267963 Ry
     estimated scf accuracy    <       0.00000053 Ry

     The total energy is the sum of the following terms:

     one-electron contribution =       3.64671498 Ry
     hartree contribution      =      92.33564662 Ry
     xc contribution           =    -115.67763335 Ry
     ewald contribution        =    -992.64608321 Ry
     smearing contrib. (-TS)   =      -0.48132420 Ry

     convergence has been achieved in  12 iterations

     Forces acting on atoms (Ry/au):

     atom    1 type  1   force =     0.00000000    0.00000000    0.00000000
     atom    2 type  1   force =     0.00000000    0.00000000    0.00000000
     atom    3 type  1   force =     0.00000000    0.00000000    0.00000000
     atom    4 type  1   force =     0.00000000    0.00000000    0.00000000
     atom    5 type  1   force =     0.00000000    0.00000000    0.00000000
     atom    6 type  1   force =     0.00000000    0.00000000    0.00000000
     atom    7 type  2   force =     0.00000000    0.00000000    0.00000000
     atom    8 type  2   force =     0.00000000    0.00000000    0.00000000

     Total force =     0.000000     Total SCF correction =     0.000000

     entering subroutine stress ...

          total   stress  (Ry/bohr**3)                   (kbar)     P=  174.89
   0.00118886   0.00000000   0.00000000        174.89      0.00      0.00
   0.00000000   0.00118886   0.00000000          0.00    174.89      0.00
   0.00000000   0.00000000   0.00118886          0.00      0.00    174.89

     Writing output data file Prototype-La-cP8-Cr3Si.save

     General routines

     Parallel routines

   This run was terminated on:  17:52:54  22Mar2018

   JOB DONE.