     Program PWSCF v.5.0.2 starts on 22Mar2018 at 17:32:51

     Current dimensions of program PWSCF are:
     Max number of different atomic species (ntypx) = 10
     Max number of k-points (npk) =  40000
     Max angular momentum in pseudopotentials (lmaxx) =  3
     Waiting for input...
     Reading input from standard input

     Subspace diagonalization in iterative solution of the eigenvalue problem:
     a serial algorithm will be used

     bravais-lattice index     =            0
     lattice parameter (alat)  =       9.9235  a.u.
     unit-cell volume          =    1361.0366 (a.u.)^3
     number of atoms/cell      =           12
     number of atomic types    =            2
     number of electrons       =       192.00
     number of Kohn-Sham states=          115
     kinetic-energy cutoff     =      40.0000  Ry
     charge density cutoff     =     160.0000  Ry
     convergence threshold     =      1.0E-04
     mixing beta               =       0.7000
     number of iterations used =            8  plain     mixing
     Exchange-correlation      = SLA-PZ-NOGX-NOGC ( 1 1 0 0 0)
     EXX-fraction              =        0.00
     nstep                     =           50

     celldm(1)=   9.923489  celldm(2)=   0.000000  celldm(3)=   0.000000
     celldm(4)=   0.000000  celldm(5)=   0.000000  celldm(6)=   0.000000

     crystal axes: (cart. coord. in units of alat)
               a(1) = (   1.000000   0.000000   0.000000 )
               a(2) = (  -0.500000   0.866025   0.000000 )
               a(3) = (   0.000000   0.000000   1.608222 )

     reciprocal axes: (cart. coord. in units 2 pi/alat)
               b(1) = (  1.000000  0.577350  0.000000 )
               b(2) = (  0.000000  1.154701  0.000000 )
               b(3) = (  0.000000  0.000000  0.621805 )

     PseudoPot. # 1 for Nd read from file:
     /home/cwx6513/pp.La/Nd.UPF
     MD5 check sum: c66c5b6abe7b5840ced9b1e244e3bed6
     Pseudo is Norm-conserving, Zval = 14.0
     Generated in analytical, separable form
     Using radial grid of 1257 points,  6 beta functions with:
                l(1) =   0
                l(2) =   0
                l(3) =   1
                l(4) =   1
                l(5) =   2
                l(6) =   3

     PseudoPot. # 2 for Eu read from file:
     /home/cwx6513/pp.La/Eu.UPF
     MD5 check sum: 5efdbbfc50c6a10138933a6429836ad2
     Pseudo is Norm-conserving, Zval = 17.0
     Generated in analytical, separable form
     Using radial grid of 1261 points,  6 beta functions with:
                l(1) =   0
                l(2) =   0
                l(3) =   1
                l(4) =   1
                l(5) =   2
                l(6) =   3

     atomic species   valence    mass     pseudopotential
        Mg            14.00    24.30500     Nd( 1.00)
        Zn            17.00    65.39000     Eu( 1.00)

     24 Sym. Ops., with inversion, found (12 have fractional translation)

   Cartesian axes

     site n.     atom                  positions (alat units)
         1           Mg  tau(   1) = (  -0.0000005   0.5773506   0.1003820  )
         2           Mg  tau(   2) = (   0.5000005   0.2886748   0.9044931  )
         3           Mg  tau(   3) = (   0.5000005   0.2886748   1.5078402  )
         4           Mg  tau(   4) = (  -0.0000005   0.5773506   0.7037291  )
         5           Zn  tau(   5) = (   0.0000000   0.0000000   0.0000000  )
         6           Zn  tau(   6) = (   0.0000000   0.0000000   0.8041111  )
         7           Zn  tau(   7) = (   0.0000000   0.2950739   1.2061667  )
         8           Zn  tau(   8) = (   0.7444585   0.1475370   0.4020556  )
         9           Zn  tau(   9) = (   0.2555415   0.1475370   0.4020556  )
        10           Zn  tau(  10) = (   0.2444585   0.7184884   1.2061667  )
        11           Zn  tau(  11) = (  -0.2444585   0.7184884   1.2061667  )
        12           Zn  tau(  12) = (   0.5000000   0.5709515   0.4020556  )

     number of k points=    12  gaussian smearing, width (Ry)=  0.1000
                       cart. coord. in units 2pi/alat
        k(    1) = (   0.0000000   0.0000000   0.0000000), wk =   0.0833333
        k(    2) = (   0.0000000   0.0000000   0.1554512), wk =   0.1666667
        k(    3) = (   0.0000000   0.0000000  -0.3109023), wk =   0.0833333
        k(    4) = (   0.0000000   0.3849002   0.0000000), wk =   0.1666667
        k(    5) = (   0.0000000   0.3849002   0.1554512), wk =   0.3333333
        k(    6) = (   0.0000000   0.3849002  -0.3109023), wk =   0.1666667
        k(    7) = (  -0.5000000  -0.2886751   0.0000000), wk =   0.0833333
        k(    8) = (  -0.5000000  -0.2886751   0.1554512), wk =   0.1666667
        k(    9) = (  -0.5000000  -0.2886751  -0.3109023), wk =   0.0833333
        k(   10) = (  -0.5000000   0.0962250   0.0000000), wk =   0.1666667
        k(   11) = (  -0.5000000   0.0962250   0.1554512), wk =   0.3333333
        k(   12) = (  -0.5000000   0.0962250  -0.3109023), wk =   0.1666667

     Largest allocated arrays     est. size (Mb)     dimensions
     Largest temporary arrays     est. size (Mb)     dimensions

     Initial potential from superposition of free atoms

     Starting from uniform charge
     Starting wfc are    0 randomized atomic wfcs

     Self-consistent Calculation

     iteration #  1     ecut=    40.00 Ry     beta=0.70
     CG style diagonalization
     ethr =  1.00E-02,  avg # of iterations = 17.8

     total energy              =   -1307.06204147 Ry
     Harris-Foulkes estimate   =   -2217.07755511 Ry
     estimated scf accuracy    <    1108.97287978 Ry

[...]

     iteration #  3     ecut=    40.00 Ry     beta=0.70
     CG style diagonalization
     c_bands:  1 eigenvalues not converged
     c_bands:  1 eigenvalues not converged
     c_bands:  1 eigenvalues not converged
     c_bands:  2 eigenvalues not converged
     c_bands:  2 eigenvalues not converged
     c_bands:  1 eigenvalues not converged
     ethr =  1.00E-02,  avg # of iterations = 12.2

[...]

     End of self-consistent calculation

          k = 0.0000 0.0000 0.0000 (  5769 PWs)   bands (ev):

   -35.1990 -35.0232 -34.8177 -34.6283 -34.5537 -34.5536 -34.5522 -34.5522
   -19.1545 -19.1086 -19.0158 -18.9591 -10.1435  -9.6648  -9.1515  -8.4462
    -8.4462  -8.3188  -8.3188  -8.2575  -8.2574  -7.8218  -7.5363  -7.4851
    -7.4850  -7.4371  -7.4371  -6.7052  -6.6887  -6.6887  -6.6487  -6.6405
    -6.5122  -6.5122  -6.4316  -6.4316   2.2357   2.2529   2.2672   2.2672
     2.2735   2.2735   2.7893   2.8459   2.8459   2.8543   2.8677   2.8677
    18.5973  19.4381  19.6056  20.6413  20.6413  21.2451  21.2451  21.2836
    21.4532  21.4802  21.4802  21.9421  21.9531  21.9531  22.5247  22.5247
    22.6436  23.4745  23.7639  23.7639  23.9232  23.9232  24.7001  25.1388
    25.1388  25.6952  26.2237  26.2237  26.2972  26.2973  26.4203  26.4203
    26.7411  26.7411  26.8560  26.8560  26.9546  26.9649  27.0577  27.3571
    27.4410  27.4410  27.5799  27.5800  27.8131  27.8131  28.5671  29.3797
    29.7739  29.7740  29.9575  29.9575  30.7819  30.7819  31.2307  31.2307
    31.8098  31.9784  31.9784  32.1810  32.1810  32.4864  32.5011  33.2418
    33.5941  35.2734  35.8957

[...]

          k =-0.5000-0.2887 0.0000 (  5800 PWs)   bands (ev):

[...]

     the Fermi energy is    29.0141 ev

!    total energy              =   -1841.82239600 Ry
     Harris-Foulkes estimate   =   -1841.82239610 Ry
     estimated scf accuracy    <       0.00000556 Ry

     The total energy is the sum of the following terms:

     one-electron contribution =     -26.83842725 Ry
     hartree contribution      =     194.69558415 Ry
     xc contribution           =    -201.36107798 Ry
     ewald contribution        =   -1807.67608712 Ry
     smearing contrib. (-TS)   =      -0.64238781 Ry

     convergence has been achieved in  11 iterations

     Forces acting on atoms (Ry/au):

     atom    1 type  1   force =     0.00000000    0.00000000    0.02575791
     atom    2 type  1   force =     0.00000000    0.00000000    0.02575791
     atom    3 type  1   force =     0.00000000    0.00000000   -0.02575791
     atom    4 type  1   force =     0.00000000    0.00000000   -0.02575791
     atom    5 type  2   force =     0.00000000    0.00000000    0.00000000
     atom    6 type  2   force =     0.00000000    0.00000000    0.00000000
     atom    7 type  2   force =     0.00000000    0.03502931    0.00000000
     atom    8 type  2   force =    -0.03033628    0.01751466    0.00000000
     atom    9 type  2   force =     0.03033628    0.01751466    0.00000000
     atom   10 type  2   force =    -0.03033628   -0.01751466    0.00000000
     atom   11 type  2   force =     0.03033628   -0.01751466    0.00000000
     atom   12 type  2   force =     0.00000000   -0.03502931    0.00000000

     Total force =     0.100081     Total SCF correction =     0.000000

     entering subroutine stress ...

          total   stress  (Ry/bohr**3)                   (kbar)     P=  645.52
   0.00438890   0.00000000   0.00000000        645.63      0.00      0.00
   0.00000000   0.00438890   0.00000000          0.00    645.63      0.00
   0.00000000   0.00000000   0.00438660          0.00      0.00    645.29

     BFGS Geometry Optimization

     number of scf cycles    =   1
     number of bfgs steps    =   0

     enthalpy new            =   -1841.8223960049 Ry

     new trust radius        =       0.5000000000 bohr
     new conv_thr            =       0.0001000000 Ry

     new unit-cell volume =   1656.84668 a.u.^3 (   245.51934 Ang^3 )

CELL_PARAMETERS (alat=  9.92348860)
   1.067764947   0.000000000   0.000000000
  -0.533882474   0.924711570   0.000000000
   0.000000000   0.000000000   1.717146090

ATOMIC_POSITIONS (crystal)
Mg       0.333333000   0.666667000   0.063414803
Mg       0.666667000   0.333333000   0.563414803
Mg       0.666667000   0.333333000   0.936585197
Mg       0.333333000   0.666667000   0.436585197
Zn       0.000000000   0.000000000   0.000000000
Zn       0.000000000   0.000000000   0.500000000
Zn       0.171619681   0.343239361   0.750000000
Zn       0.828380319   0.171619681   0.250000000
Zn       0.343239361   0.171619681   0.250000000
Zn       0.656760639   0.828380319   0.750000000
Zn       0.171619681   0.828380319   0.750000000
Zn       0.828380319   0.656760639   0.250000000

     Writing output data file Prototype-La-hP12-MgZn2.save
     NEW-OLD atomic charge density approx. for the potential
     NEW k-points:
        k(    1) = (   0.0000000   0.0000000   0.0000000), wk =   0.0833333
        k(    2) = (   0.0000000   0.0000000   0.1455904), wk =   0.1666667
        k(    3) = (   0.0000000   0.0000000  -0.2911808), wk =   0.0833333
        k(    4) = (   0.0000000   0.3604728   0.0000000), wk =   0.1666667
        k(    5) = (   0.0000000   0.3604728   0.1455904), wk =   0.3333333
        k(    6) = (   0.0000000   0.3604728  -0.2911808), wk =   0.1666667
        k(    7) = (  -0.4682679  -0.2703546   0.0000000), wk =   0.0833333
        k(    8) = (  -0.4682679  -0.2703546   0.1455904), wk =   0.1666667
        k(    9) = (  -0.4682679  -0.2703546  -0.2911808), wk =   0.0833333
        k(   10) = (  -0.4682679   0.0901182   0.0000000), wk =   0.1666667
        k(   11) = (  -0.4682679   0.0901182   0.1455904), wk =   0.3333333
        k(   12) = (  -0.4682679   0.0901182  -0.2911808), wk =   0.1666667

[...]

     enthalpy old            =   -1841.8223960048 Ry
     enthalpy new            =   -1841.9586214736 Ry

     CASE: enthalpy_new < enthalpy_old

     small trust_radius: resetting bfgs history

     new trust radius        =       0.5226802292 bohr
     new conv_thr            =       0.0000114099 Ry

[...]

     number of scf cycles    =   3
     number of bfgs steps    =   2

     enthalpy old            =   -1841.9586214736 Ry
     enthalpy new            =   -1841.8170724096 Ry

     CASE: enthalpy_new > enthalpy_old

     new trust radius        =       0.2153836009 bohr

     trust_radius < trust_radius_min

     resetting bfgs history

     Message from routine bfgs:
     history already reset at previous step: stopping
     new conv_thr            =       0.0000114099 Ry

     new unit-cell volume =   1362.27192 a.u.^3 (   201.86787 Ang^3 )

[...]

ATOMIC_POSITIONS (crystal)
Mg       0.333333000   0.666667000   0.064122758
Mg       0.666667000   0.333333000   0.564122758
Mg       0.666667000   0.333333000   0.935877242
Mg       0.333333000   0.666667000   0.435877242
Zn       0.000000000   0.000000000   0.000000000
Zn       0.000000000   0.000000000   0.500000000
Zn       0.171751892   0.343503784   0.750000000
Zn       0.828248108   0.171751892   0.250000000
Zn       0.343503784   0.171751892   0.250000000
Zn       0.656496216   0.828248108   0.750000000
Zn       0.171751892   0.828248108   0.750000000
Zn       0.828248108   0.656496216   0.250000000

     Writing output data file Prototype-La-hP12-MgZn2.save
     NEW-OLD atomic charge density approx. for the potential
     NEW k-points:
        k(    1) = (   0.0000000   0.0000000   0.0000000), wk =   0.0833333
        k(    2) = (   0.0000000   0.0000000   0.1554550), wk =   0.1666667
        k(    3) = (   0.0000000   0.0000000  -0.3109100), wk =   0.0833333
        k(    4) = (   0.0000000   0.3847208   0.0000000), wk =   0.1666667
        k(    5) = (   0.0000000   0.3847208   0.1554550), wk =   0.3333333
        k(    6) = (   0.0000000   0.3847208  -0.3109100), wk =   0.1666667
        k(    7) = (  -0.4997670  -0.2885406   0.0000000), wk =   0.0833333
        k(    8) = (  -0.4997670  -0.2885406   0.1554550), wk =   0.1666667
        k(    9) = (  -0.4997670  -0.2885406  -0.3109100), wk =   0.0833333
        k(   10) = (  -0.4997670   0.0961802   0.0000000), wk =   0.1666667
        k(   11) = (  -0.4997670   0.0961802   0.1554550), wk =   0.3333333
        k(   12) = (  -0.4997670   0.0961802  -0.3109100), wk =   0.1666667

[...]

     The maximum number of steps has been reached.

     End of BFGS Geometry Optimization
Begin final coordinates
     new unit-cell volume =   1362.27192 a.u.^3 (   201.86787 Ang^3 )

CELL_PARAMETERS (alat=  9.92348860)
   1.000466152   0.000000000   0.000000000
  -0.500233076   0.866429103   0.000000000
   0.000000000   0.000000000   1.608182188

ATOMIC_POSITIONS (crystal)
Mg       0.333333000   0.666667000   0.064122758
Mg       0.666667000   0.333333000   0.564122758
Mg       0.666667000   0.333333000   0.935877242
Mg       0.333333000   0.666667000   0.435877242
Zn       0.000000000   0.000000000   0.000000000
Zn       0.000000000   0.000000000   0.500000000
Zn       0.171751892   0.343503784   0.750000000
Zn       0.828248108   0.171751892   0.250000000
Zn       0.343503784   0.171751892   0.250000000
Zn       0.656496216   0.828248108   0.750000000
Zn       0.171751892   0.828248108   0.750000000
Zn       0.828248108   0.656496216   0.250000000
End final coordinates

     A final scf calculation at the relaxed structure.
     The G-vectors are recalculated for the final unit cell
     Results may differ from those at the preceding step.

     bravais-lattice index     =            0
     lattice parameter (alat)  =       9.9235  a.u.
     unit-cell volume          =    1362.2719 (a.u.)^3
     number of atoms/cell      =           12
     number of atomic types    =            2
     number of electrons       =       192.00
     number of Kohn-Sham states=          115
     kinetic-energy cutoff     =      40.0000  Ry
     charge density cutoff     =     160.0000  Ry
     convergence threshold     =      1.1E-05
     mixing beta               =       0.7000
     number of iterations used =            8  plain     mixing
     Exchange-correlation      = SLA-PZ-NOGX-NOGC ( 1 1 0 0 0)
     EXX-fraction              =        0.00

     celldm(1)=   9.923489  celldm(2)=   0.000000  celldm(3)=   0.000000
     celldm(4)=   0.000000  celldm(5)=   0.000000  celldm(6)=   0.000000

     crystal axes: (cart. coord. in units of alat)
               a(1) = (   1.000466   0.000000   0.000000 )
               a(2) = (  -0.500233   0.866429   0.000000 )
               a(3) = (   0.000000   0.000000   1.608182 )

     reciprocal axes: (cart. coord. in units 2 pi/alat)
               b(1) = (  0.999534  0.577081  0.000000 )
               b(2) = (  0.000000  1.154163  0.000000 )
               b(3) = (  0.000000  0.000000  0.621820 )

     PseudoPot. # 1 for Nd read from file:
     /home/cwx6513/pp.La/Nd.UPF
     MD5 check sum: c66c5b6abe7b5840ced9b1e244e3bed6
     Pseudo is Norm-conserving, Zval = 14.0
     Generated in analytical, separable form
     Using radial grid of 1257 points,  6 beta functions with:
                l(1) =   0
                l(2) =   0
                l(3) =   1
                l(4) =   1
                l(5) =   2
                l(6) =   3

     PseudoPot. # 2 for Eu read from file:
     /home/cwx6513/pp.La/Eu.UPF
     MD5 check sum: 5efdbbfc50c6a10138933a6429836ad2
     Pseudo is Norm-conserving, Zval = 17.0
     Generated in analytical, separable form
     Using radial grid of 1261 points,  6 beta functions with:
                l(1) =   0
                l(2) =   0
                l(3) =   1
                l(4) =   1
                l(5) =   2
                l(6) =   3

     atomic species   valence    mass     pseudopotential
        Mg            14.00    24.30500     Nd( 1.00)
        Zn            17.00    65.39000     Eu( 1.00)

     24 Sym. Ops., with inversion, found (12 have fractional translation)

   Cartesian axes

     site n.     atom                  positions (alat units)
         1           Mg  tau(   1) = (  -0.0000005   0.5776197   0.1031211  )
         2           Mg  tau(   2) = (   0.5002336   0.2888094   0.9072122  )
         3           Mg  tau(   3) = (   0.5002336   0.2888094   1.5050611  )
         4           Mg  tau(   4) = (  -0.0000005   0.5776197   0.7009700  )
         5           Zn  tau(   5) = (   0.0000000   0.0000000   0.0000000  )
         6           Zn  tau(   6) = (   0.0000000   0.0000000   0.8040911  )
         7           Zn  tau(   7) = (   0.0000000   0.2976217   1.2061366  )
         8           Zn  tau(   8) = (   0.7427182   0.1488108   0.4020455  )
         9           Zn  tau(   9) = (   0.2577479   0.1488108   0.4020455  )
        10           Zn  tau(  10) = (   0.2424851   0.7176183   1.2061366  )
        11           Zn  tau(  11) = (  -0.2424851   0.7176183   1.2061366  )
        12           Zn  tau(  12) = (   0.5002331   0.5688074   0.4020455  )

     number of k points=    12  gaussian smearing, width (Ry)=  0.1000
                       cart. coord. in units 2pi/alat
        k(    1) = (   0.0000000   0.0000000   0.0000000), wk =   0.0833333
        k(    2) = (   0.0000000   0.0000000   0.1554550), wk =   0.1666667
        k(    3) = (   0.0000000   0.0000000  -0.3109100), wk =   0.0833333
        k(    4) = (   0.0000000   0.3847208   0.0000000), wk =   0.1666667
        k(    5) = (   0.0000000   0.3847208   0.1554550), wk =   0.3333333
        k(    6) = (   0.0000000   0.3847208  -0.3109100), wk =   0.1666667
        k(    7) = (  -0.4997670  -0.2885406   0.0000000), wk =   0.0833333
        k(    8) = (  -0.4997670  -0.2885406   0.1554550), wk =   0.1666667
        k(    9) = (  -0.4997670  -0.2885406  -0.3109100), wk =   0.0833333
        k(   10) = (  -0.4997670   0.0961802   0.0000000), wk =   0.1666667
        k(   11) = (  -0.4997670   0.0961802   0.1554550), wk =   0.3333333
        k(   12) = (  -0.4997670   0.0961802  -0.3109100), wk =   0.1666667

     Largest allocated arrays     est. size (Mb)     dimensions
     Largest temporary arrays     est. size (Mb)     dimensions

     Initial potential from superposition of free atoms

     Starting from uniform charge
     Starting wfc are    0 randomized atomic wfcs

     Writing output data file Prototype-La-hP12-MgZn2.save

     Self-consistent Calculation

[...]

     iteration # 12     ecut=    40.00 Ry     beta=0.70
     CG style diagonalization
     c_bands:  1 eigenvalues not converged
     ethr =  1.10E-07,  avg # of iterations =  3.6

     total energy              =   -1841.83253583 Ry
     Harris-Foulkes estimate   =   -1841.83256297 Ry
     estimated scf accuracy    <       0.00009232 Ry

     iteration # 13     ecut=    40.00 Ry     beta=0.70
     CG style diagonalization
     ethr =  4.81E-08,  avg # of iterations =  3.1

     End of self-consistent calculation

[...]

          k = 0.0000 0.3847-0.3109 (  5820 PWs)   bands (ev):

[...]

          k =-0.4998 0.0962-0.3109 (  5830 PWs)   bands (ev):

   -35.0231 -35.0230 -34.8611 -34.8610 -34.6010 -34.6010 -34.5900 -34.5900
   -19.1349 -19.1348 -19.0548 -19.0547  -9.3548  -9.3548  -8.7384  -8.7384
    -8.1951  -8.1951  -8.1613  -8.1613  -8.0175  -8.0175  -7.8356  -7.8356
    -7.4992  -7.4992  -7.2393  -7.2393  -7.0528  -7.0528  -6.9294  -6.9294
    -6.7237  -6.7237  -6.6441  -6.6441   2.1852   2.1852   2.2074   2.2075
     2.3906   2.3907   2.6446   2.6447   2.8468   2.8468   2.8660   2.8661
    20.3702  20.3702  21.0903  21.0903  21.6123  21.6123  21.7805  21.7805
    22.0314  22.0314  22.1961  22.1961  22.5002  22.5003  22.7295  22.7295
    23.0140  23.0140  23.4354  23.4354  23.7726  23.7727  24.3258  24.3258
    24.5553  24.5553  24.9856  24.9856  25.1787  25.1787  25.7540  25.7540
    26.0573  26.0573  26.3530  26.3530  26.7281  26.7281  27.1186  27.1186
    27.6330  27.6330  28.2270  28.2270  28.3700  28.3700  28.6082  28.6082
    29.1421  29.1421  29.6014  29.6014  29.8498  29.8498  30.2506  30.2507
    30.9171  30.9171  31.3418  31.3419  31.6035  31.6035  31.9239  31.9240
    33.2140  33.2141  34.7570

     the Fermi energy is    28.9874 ev

!    total energy              =   -1841.83254561 Ry
     Harris-Foulkes estimate   =   -1841.83254715 Ry
     estimated scf accuracy    <       0.00000167 Ry

     The total energy is the sum of the following terms:

     one-electron contribution =     -25.90165009 Ry
     hartree contribution      =     194.02973260 Ry
     xc contribution           =    -201.33407259 Ry
     ewald contribution        =   -1807.98348066 Ry
     smearing contrib. (-TS)   =      -0.64307488 Ry

     convergence has been achieved in  13 iterations

     Forces acting on atoms (Ry/au):

     atom    1 type  1   force =     0.00000000    0.00000000    0.01609982
     atom    2 type  1   force =     0.00000000    0.00000000    0.01609982
     atom    3 type  1   force =     0.00000000    0.00000000   -0.01609982
     atom    4 type  1   force =     0.00000000    0.00000000   -0.01609982
     atom    5 type  2   force =     0.00000000    0.00000000    0.00000000
     atom    6 type  2   force =     0.00000000    0.00000000    0.00000000
     atom    7 type  2   force =     0.00000000   -0.02512179    0.00000000
     atom    8 type  2   force =     0.02175611   -0.01256090    0.00000000
     atom    9 type  2   force =    -0.02175611   -0.01256090    0.00000000
     atom   10 type  2   force =     0.02175611    0.01256090    0.00000000
     atom   11 type  2   force =    -0.02175611    0.01256090    0.00000000
     atom   12 type  2   force =     0.00000000    0.02512179    0.00000000

     Total force =     0.069451     Total SCF correction =     0.000000

     entering subroutine stress ...

          total   stress  (Ry/bohr**3)                   (kbar)     P=  640.37
   0.00442058   0.00000000   0.00000000        650.29      0.00      0.00
   0.00000000   0.00442058   0.00000000          0.00    650.29      0.00
   0.00000000   0.00000000   0.00421826          0.00      0.00    620.53

     Writing output data file Prototype-La-hP12-MgZn2.save

     General routines

     Parallel routines

   This run was terminated on:  17:57:41  22Mar2018

   JOB DONE.