     Program PWSCF v.5.0.2 starts on 21Mar2018 at 22:59: 8

     Current dimensions of program PWSCF are:
     Max number of different atomic species (ntypx) = 10
     Max number of k-points (npk) =  40000
     Max angular momentum in pseudopotentials (lmaxx) =  3
     Waiting for input...
     Reading input from standard input

     bravais-lattice index     =            0
     lattice parameter (alat)  =       7.6546  a.u.
     unit-cell volume          =     624.6137 (a.u.)^3
     number of atoms/cell      =            2
     number of atomic types    =            1
     number of electrons       =        34.00
     number of Kohn-Sham states=           21
     kinetic-energy cutoff     =      40.0000  Ry
     charge density cutoff     =     160.0000  Ry
     convergence threshold     =      1.0E-04
     mixing beta               =       0.7000
     number of iterations used =            8  plain     mixing
     Exchange-correlation      = SLA-PZ-NOGX-NOGC ( 1 1 0 0 0)
     EXX-fraction              =        0.00
     nstep                     =           50

     celldm(1)=   7.654631  celldm(2)=   0.000000  celldm(3)=   0.000000
     celldm(4)=   0.000000  celldm(5)=   0.000000  celldm(6)=   0.000000

     crystal axes: (cart. coord. in units of alat)
               a(1) = (   1.000000   0.000000   0.000000 )
               a(2) = (  -0.500000   0.866025   0.000000 )
               a(3) = (   0.000000   0.000000   1.608082 )

     reciprocal axes: (cart. coord. in units 2 pi/alat)
               b(1) = (  1.000000  0.577350  0.000000 )
               b(2) = (  0.000000  1.154701  0.000000 )
               b(3) = (  0.000000  0.000000  0.621859 )

     PseudoPot. # 1 for Eu read from file:
     /home/cwx6513/pp.La/Eu.UPF
     MD5 check sum: 5efdbbfc50c6a10138933a6429836ad2
     Pseudo is Norm-conserving, Zval = 17.0
     Generated in analytical, separable form
     Using radial grid of 1261 points,  6 beta functions with:
                l(1) =   0
                l(2) =   0
                l(3) =   1
                l(4) =   1
                l(5) =   2
                l(6) =   3

     atomic species   valence    mass     pseudopotential
        Eu            17.00   151.96400     Eu( 1.00)

     24 Sym. Ops., with inversion, found (12 have fractional translation)

   Cartesian axes

     site n.     atom                  positions (alat units)
         1           Eu  tau(   1) = (  -0.0000005   0.5773506   0.4020204  )
         2           Eu  tau(   2) = (   0.5000005   0.2886748   1.2060613  )

     number of k points=    64  gaussian smearing, width (Ry)=  0.1000
                       cart. coord. in units 2pi/alat
        k(    1) = (   0.0000000   0.0000000   0.0000000), wk =   0.0095238
        k(    2) = (   0.0000000   0.0000000   0.0888370), wk =   0.0190476
        k(    3) = (   0.0000000   0.0000000   0.1776740), wk =   0.0190476
        k(    4) = (   0.0000000   0.0000000   0.2665110), wk =   0.0190476
        k(    5) = (   0.0000000   0.1924501   0.0000000), wk =   0.0190476
        k(    6) = (   0.0000000   0.1924501   0.0888370), wk =   0.0380952
        k(    7) = (   0.0000000   0.1924501   0.1776740), wk =   0.0380952
        k(    8) = (   0.0000000   0.1924501   0.2665110), wk =   0.0380952
        k(    9) = (   0.0000000   0.3849002   0.0000000), wk =   0.0190476
        k(   10) = (   0.0000000   0.3849002   0.0888370), wk =   0.0380952
        k(   11) = (   0.0000000   0.3849002   0.1776740), wk =   0.0380952
        k(   12) = (   0.0000000   0.3849002   0.2665110), wk =   0.0380952
        k(   13) = (   0.0000000  -0.5773503   0.0000000), wk =   0.0095238
        k(   14) = (   0.0000000  -0.5773503   0.0888370), wk =   0.0190476
        k(   15) = (   0.0000000  -0.5773503   0.1776740), wk =   0.0190476
        k(   16) = (   0.0000000  -0.5773503   0.2665110), wk =   0.0190476
        k(   17) = (   0.2000000   0.1154701   0.0000000), wk =   0.0190476
        k(   18) = (   0.2000000   0.1154701   0.0888370), wk =   0.0380952
        k(   19) = (   0.2000000   0.1154701   0.1776740), wk =   0.0380952
        k(   20) = (   0.2000000   0.1154701   0.2665110), wk =   0.0380952
        k(   21) = (   0.2000000   0.3079201   0.0000000), wk =   0.0190476
        k(   22) = (   0.2000000   0.3079201   0.0888370), wk =   0.0380952
        k(   23) = (   0.2000000   0.3079201   0.1776740), wk =   0.0380952
        k(   24) = (   0.2000000   0.3079201   0.2665110), wk =   0.0380952
        k(   25) = (   0.2000000   0.5003702   0.0000000), wk =   0.0190476
        k(   26) = (   0.2000000   0.5003702   0.0888370), wk =   0.0380952
        k(   27) = (   0.2000000   0.5003702   0.1776740), wk =   0.0380952
        k(   28) = (   0.2000000   0.5003702   0.2665110), wk =   0.0380952
        k(   29) = (   0.2000000  -0.4618802   0.0000000), wk =   0.0190476
        k(   30) = (   0.2000000  -0.4618802   0.0888370), wk =   0.0380952
        k(   31) = (   0.2000000  -0.4618802   0.1776740), wk =   0.0380952
        k(   32) = (   0.2000000  -0.4618802   0.2665110), wk =   0.0380952
        k(   33) = (   0.2000000  -0.2694301   0.0000000), wk =   0.0190476
        k(   34) = (   0.2000000  -0.2694301   0.0888370), wk =   0.0380952
        k(   35) = (   0.2000000  -0.2694301   0.1776740), wk =   0.0380952
        k(   36) = (   0.2000000  -0.2694301   0.2665110), wk =   0.0380952
        k(   37) = (   0.2000000  -0.0769800   0.0000000), wk =   0.0190476
        k(   38) = (   0.2000000  -0.0769800   0.0888370), wk =   0.0380952
        k(   39) = (   0.2000000  -0.0769800   0.1776740), wk =   0.0380952
        k(   40) = (   0.2000000  -0.0769800   0.2665110), wk =   0.0380952
        k(   41) = (   0.4000000   0.2309401   0.0000000), wk =   0.0190476
        k(   42) = (   0.4000000   0.2309401   0.0888370), wk =   0.0380952
        k(   43) = (   0.4000000   0.2309401   0.1776740), wk =   0.0380952
        k(   44) = (   0.4000000   0.2309401   0.2665110), wk =   0.0380952
        k(   45) = (   0.4000000   0.4233902   0.0000000), wk =   0.0190476
        k(   46) = (   0.4000000   0.4233902   0.0888370), wk =   0.0380952
        k(   47) = (   0.4000000   0.4233902   0.1776740), wk =   0.0380952
        k(   48) = (   0.4000000   0.4233902   0.2665110), wk =   0.0380952
        k(   49) = (   0.4000000   0.6158403   0.0000000), wk =   0.0190476
        k(   50) = (   0.4000000   0.6158403   0.0888370), wk =   0.0380952
        k(   51) = (   0.4000000   0.6158403   0.1776740), wk =   0.0380952
        k(   52) = (   0.4000000   0.6158403   0.2665110), wk =   0.0380952
        k(   53) = (   0.4000000  -0.3464102   0.0000000), wk =   0.0190476
        k(   54) = (   0.4000000  -0.3464102   0.0888370), wk =   0.0380952
        k(   55) = (   0.4000000  -0.3464102   0.1776740), wk =   0.0380952
        k(   56) = (   0.4000000  -0.3464102   0.2665110), wk =   0.0380952
        k(   57) = (   0.4000000  -0.1539601   0.0000000), wk =   0.0190476
        k(   58) = (   0.4000000  -0.1539601   0.0888370), wk =   0.0380952
        k(   59) = (   0.4000000  -0.1539601   0.1776740), wk =   0.0380952
        k(   60) = (   0.4000000  -0.1539601   0.2665110), wk =   0.0380952
        k(   61) = (   0.4000000   0.0384900   0.0000000), wk =   0.0190476
        k(   62) = (   0.4000000   0.0384900   0.0888370), wk =   0.0380952
        k(   63) = (   0.4000000   0.0384900   0.1776740), wk =   0.0380952
        k(   64) = (   0.4000000   0.0384900   0.2665110), wk =   0.0380952

     Largest allocated arrays     est. size (Mb)     dimensions
     Largest temporary arrays     est. size (Mb)     dimensions

     Initial potential from superposition of free atoms

     Starting from uniform charge
     Starting wfc are    0 randomized atomic wfcs

     Self-consistent Calculation

     iteration #  1     ecut=    40.00 Ry     beta=0.70
     CG style diagonalization
     ethr =  1.00E-02,  avg # of iterations = 11.1

     total energy              =    -323.76927892 Ry
     Harris-Foulkes estimate   =    -461.98745204 Ry
     estimated scf accuracy    <     180.55478685 Ry

[...]

     negative rho (up, down):  0.143E-02 0.000E+00

[...]

     End of self-consistent calculation

          k = 0.0000 0.0000 0.0000 (  2707 PWs)   bands (ev):

   -55.0176 -55.0160 -27.6699 -27.6398 -27.6398 -27.6301 -27.6301 -27.6178
     3.8433   4.5700   5.4056   5.4295   5.4295   5.5518   5.5518   5.6997
     5.6998   6.2976   6.2976   8.4620   9.3556

[...]

     the Fermi energy is     6.7124 ev

!    total energy              =    -349.87353383 Ry
     Harris-Foulkes estimate   =    -349.87358661 Ry
     estimated scf accuracy    <       0.00006583 Ry

     The total energy is the sum of the following terms:

     one-electron contribution =    -149.56959705 Ry
     hartree contribution      =      81.35256891 Ry
     xc contribution           =     -35.28179857 Ry
     ewald contribution        =    -246.04010084 Ry
     smearing contrib. (-TS)   =      -0.33460628 Ry

     convergence has been achieved in   9 iterations

     Forces acting on atoms (Ry/au):

     atom    1 type  1   force =     0.00000000    0.00000000    0.00000000
     atom    2 type  1   force =     0.00000000    0.00000000    0.00000000

     Total force =     0.000000     Total SCF correction =     0.000000

     entering subroutine stress ...

          total   stress  (Ry/bohr**3)                   (kbar)     P= -290.72
  -0.00196699   0.00000000   0.00000000       -289.35      0.00      0.00
   0.00000000  -0.00196699   0.00000000          0.00   -289.35      0.00
   0.00000000   0.00000000  -0.00199487          0.00      0.00   -293.46

     BFGS Geometry Optimization

     number of scf cycles    =   1
     number of bfgs steps    =   0

     enthalpy new            =    -349.8735338330 Ry

     new trust radius        =       0.2492819097 bohr
     new conv_thr            =       0.0001000000 Ry

     new unit-cell volume =    536.53126 a.u.^3 (    79.50573 Ang^3 )

CELL_PARAMETERS (alat=  7.65463088)
   0.950825141   0.000000000   0.000000000
  -0.475412571   0.823438727   0.000000000
   0.000000000   0.000000000   1.527883794

ATOMIC_POSITIONS (crystal)
Eu       0.333333000   0.666667000   0.250000000
Eu       0.666667000   0.333333000   0.750000000

     Writing output data file Element-Eu.q.save
     NEW-OLD atomic charge density approx. for the potential
     NEW k-points:
        k(    1) = (   0.0000000   0.0000000   0.0000000), wk =   0.0095238
        k(    2) = (   0.0000000   0.0000000   0.0935000), wk =   0.0190476
        k(    3) = (   0.0000000   0.0000000   0.1870000), wk =   0.0190476
        k(    4) = (   0.0000000   0.0000000   0.2805000), wk =   0.0190476
        k(    5) = (   0.0000000   0.2024032   0.0000000), wk =   0.0190476
        k(    6) = (   0.0000000   0.2024032   0.0935000), wk =   0.0380952
        k(    7) = (   0.0000000   0.2024032   0.1870000), wk =   0.0380952
        k(    8) = (   0.0000000   0.2024032   0.2805000), wk =   0.0380952
        k(    9) = (   0.0000000   0.4048065   0.0000000), wk =   0.0190476
[...]
     c_bands:  4 eigenvalues not converged
     c_bands:  3 eigenvalues not converged
     c_bands:  4 eigenvalues not converged
     c_bands:  4 eigenvalues not converged
     c_bands:  1 eigenvalues not converged
     ethr =  1.00E-06,  avg # of iterations = 12.1

[...]

     enthalpy old            =    -349.8735338330 Ry
     enthalpy new            =    -350.0519373521 Ry

     CASE: enthalpy_new < enthalpy_old

     WARNING: bfgs curvature condition failed, Theta= 0.872
     small trust_radius: resetting bfgs history

[...]

     number of scf cycles    =   3
     number of bfgs steps    =   2

     enthalpy old            =    -350.0519373521 Ry
     enthalpy new            =    -350.2056917043 Ry

     CASE: enthalpy_new < enthalpy_old

     WARNING: bfgs curvature condition failed, Theta= 0.879
     Message from routine bfgs:
     history already reset at previous step: stopping
     small trust_radius: resetting bfgs history

     new trust radius        =       0.2192607754 bohr
     new conv_thr            =       0.0000010000 Ry

     new unit-cell volume =    393.39639 a.u.^3 (    58.29533 Ang^3 )

[...]

ATOMIC_POSITIONS (crystal)
Eu       0.333333000   0.666667000   0.250000000
Eu       0.666667000   0.333333000   0.750000000

     Writing output data file Element-Eu.q.save
     NEW-OLD atomic charge density approx. for the potential
     NEW k-points:
        k(    1) = (   0.0000000   0.0000000   0.0000000), wk =   0.0095238
        k(    2) = (   0.0000000   0.0000000   0.1038167), wk =   0.0190476
        k(    3) = (   0.0000000   0.0000000   0.2076334), wk =   0.0190476
        k(    4) = (   0.0000000   0.0000000   0.3114501), wk =   0.0190476
        k(    5) = (   0.0000000   0.2243221   0.0000000), wk =   0.0190476
        k(    6) = (   0.0000000   0.2243221   0.1038167), wk =   0.0380952
        k(    7) = (   0.0000000   0.2243221   0.2076334), wk =   0.0380952
        k(    8) = (   0.0000000   0.2243221   0.3114501), wk =   0.0380952
        k(    9) = (   0.0000000   0.4486441   0.0000000), wk =   0.0190476
        k(   10) = (   0.0000000   0.4486441   0.1038167), wk =   0.0380952
        k(   11) = (   0.0000000   0.4486441   0.2076334), wk =   0.0380952
        k(   12) = (   0.0000000   0.4486441   0.3114501), wk =   0.0380952
        k(   13) = (   0.0000000  -0.6729662   0.0000000), wk =   0.0095238
        k(   14) = (   0.0000000  -0.6729662   0.1038167), wk =   0.0190476
        k(   15) = (   0.0000000  -0.6729662   0.2076334), wk =   0.0190476
        k(   16) = (   0.0000000  -0.6729662   0.3114501), wk =   0.0190476
        k(   17) = (   0.2331223   0.1345932   0.0000000), wk =   0.0190476
        k(   18) = (   0.2331223   0.1345932   0.1038167), wk =   0.0380952
        k(   19) = (   0.2331223   0.1345932   0.2076334), wk =   0.0380952
        k(   20) = (   0.2331223   0.1345932   0.3114501), wk =   0.0380952
        k(   21) = (   0.2331223   0.3589153   0.0000000), wk =   0.0190476
        k(   22) = (   0.2331223   0.3589153   0.1038167), wk =   0.0380952
        k(   23) = (   0.2331223   0.3589153   0.2076334), wk =   0.0380952
        k(   24) = (   0.2331223   0.3589153   0.3114501), wk =   0.0380952
        k(   25) = (   0.2331223   0.5832374   0.0000000), wk =   0.0190476
        k(   26) = (   0.2331223   0.5832374   0.1038167), wk =   0.0380952
        k(   27) = (   0.2331223   0.5832374   0.2076334), wk =   0.0380952
        k(   28) = (   0.2331223   0.5832374   0.3114501), wk =   0.0380952
        k(   29) = (   0.2331223  -0.5383730   0.0000000), wk =   0.0190476
        k(   30) = (   0.2331223  -0.5383730   0.1038167), wk =   0.0380952
        k(   31) = (   0.2331223  -0.5383730   0.2076334), wk =   0.0380952
        k(   32) = (   0.2331223  -0.5383730   0.3114501), wk =   0.0380952
        k(   33) = (   0.2331223  -0.3140509   0.0000000), wk =   0.0190476
        k(   34) = (   0.2331223  -0.3140509   0.1038167), wk =   0.0380952
        k(   35) = (   0.2331223  -0.3140509   0.2076334), wk =   0.0380952
        k(   36) = (   0.2331223  -0.3140509   0.3114501), wk =   0.0380952
        k(   37) = (   0.2331223  -0.0897288   0.0000000), wk =   0.0190476
        k(   38) = (   0.2331223  -0.0897288   0.1038167), wk =   0.0380952
        k(   39) = (   0.2331223  -0.0897288   0.2076334), wk =   0.0380952
        k(   40) = (   0.2331223  -0.0897288   0.3114501), wk =   0.0380952
        k(   41) = (   0.4662447   0.2691865   0.0000000), wk =   0.0190476
        k(   42) = (   0.4662447   0.2691865   0.1038167), wk =   0.0380952
        k(   43) = (   0.4662447   0.2691865   0.2076334), wk =   0.0380952
        k(   44) = (   0.4662447   0.2691865   0.3114501), wk =   0.0380952
        k(   45) = (   0.4662447   0.4935086   0.0000000), wk =   0.0190476
        k(   46) = (   0.4662447   0.4935086   0.1038167), wk =   0.0380952
        k(   47) = (   0.4662447   0.4935086   0.2076334), wk =   0.0380952
        k(   48) = (   0.4662447   0.4935086   0.3114501), wk =   0.0380952
        k(   49) = (   0.4662447   0.7178306   0.0000000), wk =   0.0190476
        k(   50) = (   0.4662447   0.7178306   0.1038167), wk =   0.0380952
        k(   51) = (   0.4662447   0.7178306   0.2076334), wk =   0.0380952
        k(   52) = (   0.4662447   0.7178306   0.3114501), wk =   0.0380952
        k(   53) = (   0.4662447  -0.4037797   0.0000000), wk =   0.0190476
        k(   54) = (   0.4662447  -0.4037797   0.1038167), wk =   0.0380952
        k(   55) = (   0.4662447  -0.4037797   0.2076334), wk =   0.0380952
        k(   56) = (   0.4662447  -0.4037797   0.3114501), wk =   0.0380952
        k(   57) = (   0.4662447  -0.1794577   0.0000000), wk =   0.0190476
        k(   58) = (   0.4662447  -0.1794577   0.1038167), wk =   0.0380952
        k(   59) = (   0.4662447  -0.1794577   0.2076334), wk =   0.0380952
        k(   60) = (   0.4662447  -0.1794577   0.3114501), wk =   0.0380952
        k(   61) = (   0.4662447   0.0448644   0.0000000), wk =   0.0190476
        k(   62) = (   0.4662447   0.0448644   0.1038167), wk =   0.0380952
        k(   63) = (   0.4662447   0.0448644   0.2076334), wk =   0.0380952
        k(   64) = (   0.4662447   0.0448644   0.3114501), wk =   0.0380952

[...]

     The maximum number of steps has been reached.

     End of BFGS Geometry Optimization
Begin final coordinates
     new unit-cell volume =    393.39639 a.u.^3 (    58.29533 Ang^3 )

CELL_PARAMETERS (alat=  7.65463088)
   0.857918663   0.000000000   0.000000000
  -0.428959332   0.742979357   0.000000000
   0.000000000   0.000000000   1.376051684

ATOMIC_POSITIONS (crystal)
Eu       0.333333000   0.666667000   0.250000000
Eu       0.666667000   0.333333000   0.750000000
End final coordinates

     A final scf calculation at the relaxed structure.
     The G-vectors are recalculated for the final unit cell
     Results may differ from those at the preceding step.

     bravais-lattice index     =            0
     lattice parameter (alat)  =       7.6546  a.u.
     unit-cell volume          =     393.3964 (a.u.)^3
     number of atoms/cell      =            2
     number of atomic types    =            1
     number of electrons       =        34.00
     number of Kohn-Sham states=           21
     kinetic-energy cutoff     =      40.0000  Ry
     charge density cutoff     =     160.0000  Ry
     convergence threshold     =      1.0E-06
     mixing beta               =       0.7000
     number of iterations used =            8  plain     mixing
     Exchange-correlation      = SLA-PZ-NOGX-NOGC ( 1 1 0 0 0)
     EXX-fraction              =        0.00

     celldm(1)=   7.654631  celldm(2)=   0.000000  celldm(3)=   0.000000
     celldm(4)=   0.000000  celldm(5)=   0.000000  celldm(6)=   0.000000

     crystal axes: (cart. coord. in units of alat)
               a(1) = (   0.857919   0.000000   0.000000 )
               a(2) = (  -0.428959   0.742979   0.000000 )
               a(3) = (   0.000000   0.000000   1.376052 )

     reciprocal axes: (cart. coord. in units 2 pi/alat)
               b(1) = (  1.165612  0.672966  0.000000 )
               b(2) = (  0.000000  1.345932  0.000000 )
               b(3) = (  0.000000  0.000000  0.726717 )

     PseudoPot. # 1 for Eu read from file:
     /home/cwx6513/pp.La/Eu.UPF
     MD5 check sum: 5efdbbfc50c6a10138933a6429836ad2
     Pseudo is Norm-conserving, Zval = 17.0
     Generated in analytical, separable form
     Using radial grid of 1261 points,  6 beta functions with:
                l(1) =   0
                l(2) =   0
                l(3) =   1
                l(4) =   1
                l(5) =   2
                l(6) =   3

     atomic species   valence    mass     pseudopotential
        Eu            17.00   151.96400     Eu( 1.00)

     24 Sym. Ops., with inversion, found (12 have fractional translation)

   Cartesian axes

     site n.     atom                  positions (alat units)
         1           Eu  tau(   1) = (  -0.0000004   0.4953198   0.3440129  )
         2           Eu  tau(   2) = (   0.4289598   0.2476595   1.0320388  )

     number of k points=    64  gaussian smearing, width (Ry)=  0.1000
                       cart. coord. in units 2pi/alat
        k(    1) = (   0.0000000   0.0000000   0.0000000), wk =   0.0095238
        k(    2) = (   0.0000000   0.0000000   0.1038167), wk =   0.0190476
        k(    3) = (   0.0000000   0.0000000   0.2076334), wk =   0.0190476
        k(    4) = (   0.0000000   0.0000000   0.3114501), wk =   0.0190476
        k(    5) = (   0.0000000   0.2243221   0.0000000), wk =   0.0190476
        k(    6) = (   0.0000000   0.2243221   0.1038167), wk =   0.0380952
        k(    7) = (   0.0000000   0.2243221   0.2076334), wk =   0.0380952
        k(    8) = (   0.0000000   0.2243221   0.3114501), wk =   0.0380952
        k(    9) = (   0.0000000   0.4486441   0.0000000), wk =   0.0190476
        k(   10) = (   0.0000000   0.4486441   0.1038167), wk =   0.0380952
        k(   11) = (   0.0000000   0.4486441   0.2076334), wk =   0.0380952
        k(   12) = (   0.0000000   0.4486441   0.3114501), wk =   0.0380952
        k(   13) = (   0.0000000  -0.6729662   0.0000000), wk =   0.0095238
        k(   14) = (   0.0000000  -0.6729662   0.1038167), wk =   0.0190476
        k(   15) = (   0.0000000  -0.6729662   0.2076334), wk =   0.0190476
        k(   16) = (   0.0000000  -0.6729662   0.3114501), wk =   0.0190476
        k(   17) = (   0.2331223   0.1345932   0.0000000), wk =   0.0190476
        k(   18) = (   0.2331223   0.1345932   0.1038167), wk =   0.0380952
        k(   19) = (   0.2331223   0.1345932   0.2076334), wk =   0.0380952
        k(   20) = (   0.2331223   0.1345932   0.3114501), wk =   0.0380952
        k(   21) = (   0.2331223   0.3589153   0.0000000), wk =   0.0190476
        k(   22) = (   0.2331223   0.3589153   0.1038167), wk =   0.0380952
        k(   23) = (   0.2331223   0.3589153   0.2076334), wk =   0.0380952
        k(   24) = (   0.2331223   0.3589153   0.3114501), wk =   0.0380952
        k(   25) = (   0.2331223   0.5832374   0.0000000), wk =   0.0190476
        k(   26) = (   0.2331223   0.5832374   0.1038167), wk =   0.0380952
        k(   27) = (   0.2331223   0.5832374   0.2076334), wk =   0.0380952
        k(   28) = (   0.2331223   0.5832374   0.3114501), wk =   0.0380952
        k(   29) = (   0.2331223  -0.5383730   0.0000000), wk =   0.0190476
        k(   30) = (   0.2331223  -0.5383730   0.1038167), wk =   0.0380952
        k(   31) = (   0.2331223  -0.5383730   0.2076334), wk =   0.0380952
        k(   32) = (   0.2331223  -0.5383730   0.3114501), wk =   0.0380952
        k(   33) = (   0.2331223  -0.3140509   0.0000000), wk =   0.0190476
        k(   34) = (   0.2331223  -0.3140509   0.1038167), wk =   0.0380952
        k(   35) = (   0.2331223  -0.3140509   0.2076334), wk =   0.0380952
        k(   36) = (   0.2331223  -0.3140509   0.3114501), wk =   0.0380952
        k(   37) = (   0.2331223  -0.0897288   0.0000000), wk =   0.0190476
        k(   38) = (   0.2331223  -0.0897288   0.1038167), wk =   0.0380952
        k(   39) = (   0.2331223  -0.0897288   0.2076334), wk =   0.0380952
        k(   40) = (   0.2331223  -0.0897288   0.3114501), wk =   0.0380952
        k(   41) = (   0.4662447   0.2691865   0.0000000), wk =   0.0190476
        k(   42) = (   0.4662447   0.2691865   0.1038167), wk =   0.0380952
        k(   43) = (   0.4662447   0.2691865   0.2076334), wk =   0.0380952
        k(   44) = (   0.4662447   0.2691865   0.3114501), wk =   0.0380952
        k(   45) = (   0.4662447   0.4935086   0.0000000), wk =   0.0190476
        k(   46) = (   0.4662447   0.4935086   0.1038167), wk =   0.0380952
        k(   47) = (   0.4662447   0.4935086   0.2076334), wk =   0.0380952
        k(   48) = (   0.4662447   0.4935086   0.3114501), wk =   0.0380952
        k(   49) = (   0.4662447   0.7178306   0.0000000), wk =   0.0190476
        k(   50) = (   0.4662447   0.7178306   0.1038167), wk =   0.0380952
        k(   51) = (   0.4662447   0.7178306   0.2076334), wk =   0.0380952
        k(   52) = (   0.4662447   0.7178306   0.3114501), wk =   0.0380952
        k(   53) = (   0.4662447  -0.4037797   0.0000000), wk =   0.0190476
        k(   54) = (   0.4662447  -0.4037797   0.1038167), wk =   0.0380952
        k(   55) = (   0.4662447  -0.4037797   0.2076334), wk =   0.0380952
        k(   56) = (   0.4662447  -0.4037797   0.3114501), wk =   0.0380952
        k(   57) = (   0.4662447  -0.1794577   0.0000000), wk =   0.0190476
        k(   58) = (   0.4662447  -0.1794577   0.1038167), wk =   0.0380952
        k(   59) = (   0.4662447  -0.1794577   0.2076334), wk =   0.0380952
        k(   60) = (   0.4662447  -0.1794577   0.3114501), wk =   0.0380952
        k(   61) = (   0.4662447   0.0448644   0.0000000), wk =   0.0190476
        k(   62) = (   0.4662447   0.0448644   0.1038167), wk =   0.0380952
        k(   63) = (   0.4662447   0.0448644   0.2076334), wk =   0.0380952
        k(   64) = (   0.4662447   0.0448644   0.3114501), wk =   0.0380952

     Largest allocated arrays     est. size (Mb)     dimensions
     Largest temporary arrays     est. size (Mb)     dimensions

     Initial potential from superposition of free atoms

     Starting from uniform charge
     Starting wfc are    0 randomized atomic wfcs

     Writing output data file Element-Eu.q.save

     Self-consistent Calculation

[...]

     negative rho (up, down):  0.133E+00 0.000E+00

[...]

     iteration #  7     ecut=    40.00 Ry     beta=0.70
     CG style diagonalization
     c_bands:  1 eigenvalues not converged
     c_bands:  1 eigenvalues not converged
     c_bands:  1 eigenvalues not converged
     c_bands:  1 eigenvalues not converged
     ethr =  1.57E-06,  avg # of iterations =  5.1

[...]

     total energy              =    -350.18752001 Ry
     Harris-Foulkes estimate   =    -350.18751979 Ry
     estimated scf accuracy    <       0.00000428 Ry

     iteration # 12     ecut=    40.00 Ry     beta=0.70
     CG style diagonalization
     ethr =  1.26E-08,  avg # of iterations =  3.5

     End of self-consistent calculation

[...]

          k = 0.4662 0.0449 0.3115 (  1680 PWs)   bands (ev):

   -48.2968 -48.2936 -21.0000 -20.9831 -20.8851 -20.8779 -20.8499 -20.8360
    10.5813  10.6958  11.2492  11.5319  11.8701  12.0534  12.3688  12.7561
    13.8962  14.0597  14.8870  15.7173  21.8918

     the Fermi energy is    13.8777 ev

!    total energy              =    -350.18751822 Ry
     Harris-Foulkes estimate   =    -350.18752075 Ry
     estimated scf accuracy    <       0.00000039 Ry

     The total energy is the sum of the following terms:

     one-electron contribution =     -84.47070550 Ry
     hartree contribution      =      57.09037045 Ry
     xc contribution           =     -35.54435356 Ry
     ewald contribution        =    -287.03004174 Ry
     smearing contrib. (-TS)   =      -0.23278788 Ry

     convergence has been achieved in  12 iterations

     Forces acting on atoms (Ry/au):

     atom    1 type  1   force =     0.00000000    0.00000000    0.00000000
     atom    2 type  1   force =     0.00000000    0.00000000    0.00000000

     Total force =     0.000000     Total SCF correction =     0.000000

     entering subroutine stress ...

          total   stress  (Ry/bohr**3)                   (kbar)     P= -527.21
  -0.00357327   0.00000000   0.00000000       -525.65      0.00      0.00
   0.00000000  -0.00357327   0.00000000          0.00   -525.65      0.00
   0.00000000   0.00000000  -0.00360517          0.00      0.00   -530.34

     Writing output data file Element-Eu.q.save

     General routines

     Parallel routines

   This run was terminated on:  23: 0:42  21Mar2018

   JOB DONE.