     Program PWSCF v.5.0.2 starts on 22Mar2018 at 16:18:54

     Current dimensions of program PWSCF are:
     Max number of different atomic species (ntypx) = 10
     Max number of k-points (npk) =  40000
     Max angular momentum in pseudopotentials (lmaxx) =  3
     Waiting for input...
     Reading input from standard input

     Subspace diagonalization in iterative solution of the eigenvalue problem:
     a serial algorithm will be used

     bravais-lattice index     =            0
     lattice parameter (alat)  =       9.9235  a.u.
     unit-cell volume          =    1361.0366 (a.u.)^3
     number of atoms/cell      =           12
     number of atomic types    =            2
     number of electrons       =       220.00
     number of Kohn-Sham states=          132
     kinetic-energy cutoff     =      40.0000  Ry
     charge density cutoff     =     160.0000  Ry
     convergence threshold     =      1.0E-04
     mixing beta               =       0.7000
     number of iterations used =            8  plain     mixing
     Exchange-correlation      = SLA-PZ-NOGX-NOGC ( 1 1 0 0 0)
     EXX-fraction              =        0.00
     nstep                     =           50

     celldm(1)=   9.923489  celldm(2)=   0.000000  celldm(3)=   0.000000
     celldm(4)=   0.000000  celldm(5)=   0.000000  celldm(6)=   0.000000

     crystal axes: (cart. coord. in units of alat)
               a(1) = (   1.000000   0.000000   0.000000 )
               a(2) = (  -0.500000   0.866025   0.000000 )
               a(3) = (   0.000000   0.000000   1.608222 )

     reciprocal axes: (cart. coord. in units 2 pi/alat)
               b(1) = (  1.000000  0.577350  0.000000 )
               b(2) = (  0.000000  1.154701  0.000000 )
               b(3) = (  0.000000  0.000000  0.621805 )

     PseudoPot. # 1 for Pr read from file:
     /home/cwx6513/pp.La/Pr.UPF
     MD5 check sum: 70e2b4b153859e92c8c91247dfc63203
     Pseudo is Norm-conserving, Zval = 13.0
     Generated in analytical, separable form
     Using radial grid of 1255 points,  6 beta functions with:
                l(1) =   0
                l(2) =   0
                l(3) =   1
                l(4) =   1
                l(5) =   2
                l(6) =   3

     PseudoPot. # 2 for Ho read from file:
     /home/cwx6513/pp.La/Ho.UPF
     MD5 check sum: f307ee11bce99f5b724fa279e3790763
     Pseudo is Norm-conserving, Zval = 21.0
     Generated in analytical, separable form
     Using radial grid of 1265 points,  6 beta functions with:
                l(1) =   0
                l(2) =   0
                l(3) =   1
                l(4) =   1
                l(5) =   2
                l(6) =   3

     atomic species   valence    mass     pseudopotential
        Mg            13.00    24.30500     Pr( 1.00)
        Zn            21.00    65.39000     Ho( 1.00)

     24 Sym. Ops., with inversion, found (12 have fractional translation)

   Cartesian axes

     site n.     atom                  positions (alat units)
         1           Mg  tau(   1) = (  -0.0000005   0.5773506   0.1003820  )
         2           Mg  tau(   2) = (   0.5000005   0.2886748   0.9044931  )
         3           Mg  tau(   3) = (   0.5000005   0.2886748   1.5078402  )
         4           Mg  tau(   4) = (  -0.0000005   0.5773506   0.7037291  )
         5           Zn  tau(   5) = (   0.0000000   0.0000000   0.0000000  )
         6           Zn  tau(   6) = (   0.0000000   0.0000000   0.8041111  )
         7           Zn  tau(   7) = (   0.0000000   0.2950739   1.2061667  )
         8           Zn  tau(   8) = (   0.7444585   0.1475370   0.4020556  )
         9           Zn  tau(   9) = (   0.2555415   0.1475370   0.4020556  )
        10           Zn  tau(  10) = (   0.2444585   0.7184884   1.2061667  )
        11           Zn  tau(  11) = (  -0.2444585   0.7184884   1.2061667  )
        12           Zn  tau(  12) = (   0.5000000   0.5709515   0.4020556  )

     number of k points=    12  gaussian smearing, width (Ry)=  0.1000
                       cart. coord. in units 2pi/alat
        k(    1) = (   0.0000000   0.0000000   0.0000000), wk =   0.0833333
        k(    2) = (   0.0000000   0.0000000   0.1554512), wk =   0.1666667
        k(    3) = (   0.0000000   0.0000000  -0.3109023), wk =   0.0833333
        k(    4) = (   0.0000000   0.3849002   0.0000000), wk =   0.1666667
        k(    5) = (   0.0000000   0.3849002   0.1554512), wk =   0.3333333
        k(    6) = (   0.0000000   0.3849002  -0.3109023), wk =   0.1666667
        k(    7) = (  -0.5000000  -0.2886751   0.0000000), wk =   0.0833333
        k(    8) = (  -0.5000000  -0.2886751   0.1554512), wk =   0.1666667
        k(    9) = (  -0.5000000  -0.2886751  -0.3109023), wk =   0.0833333
        k(   10) = (  -0.5000000   0.0962250   0.0000000), wk =   0.1666667
        k(   11) = (  -0.5000000   0.0962250   0.1554512), wk =   0.3333333
        k(   12) = (  -0.5000000   0.0962250  -0.3109023), wk =   0.1666667

     Largest allocated arrays     est. size (Mb)     dimensions
     Largest temporary arrays     est. size (Mb)     dimensions

     Initial potential from superposition of free atoms
     Check: negative starting charge=   -0.002087

     starting charge   51.96217, renormalised to  220.00000

     negative rho (up, down):  0.884E-02 0.000E+00
     Starting wfc are   80 randomized atomic wfcs

     Self-consistent Calculation

     iteration #  1     ecut=    40.00 Ry     beta=0.70
     CG style diagonalization
     c_bands:  1 eigenvalues not converged
     c_bands:  5 eigenvalues not converged
     c_bands:  2 eigenvalues not converged
     c_bands:  3 eigenvalues not converged
     c_bands:  1 eigenvalues not converged
     c_bands:  5 eigenvalues not converged
     c_bands:  1 eigenvalues not converged
     c_bands:  4 eigenvalues not converged
     c_bands:  5 eigenvalues not converged
     c_bands:  5 eigenvalues not converged
     c_bands:  5 eigenvalues not converged
     ethr =  1.00E-02,  avg # of iterations = 36.6

     negative rho (up, down):  0.263E-02 0.000E+00

     total energy              =   -2038.88044039 Ry
     Harris-Foulkes estimate   =   -7454.93136384 Ry
     estimated scf accuracy    <    6313.66244173 Ry

[...]

     iteration #  3     ecut=    40.00 Ry     beta=0.70
     CG style diagonalization
     ethr =  1.00E-02,  avg # of iterations = 18.3

[...]

     End of self-consistent calculation

          k = 0.0000 0.0000 0.0000 (  5769 PWs)   bands (ev):

   -61.7850 -61.7544 -61.7165 -61.6491 -61.6491 -61.6449 -61.6406 -61.6406
   -27.1113 -26.9057 -26.5917 -26.2472 -26.2472 -26.2047 -26.2047 -26.1400
   -26.0869 -26.0869 -25.9316 -25.8133 -25.8133 -25.8027 -25.8027 -25.6393
   -25.6393 -25.6176 -25.5865 -25.5865 -25.5320 -25.5319 -25.5182 -25.5025
   -10.7599 -10.6618 -10.5199 -10.4257   8.5015   8.5403   8.5721   8.5722
     8.5734   8.5734   9.3838   9.4080   9.4239   9.4239   9.4939   9.4939
    12.5790  13.2277  13.8357  14.6908  14.6908  14.9554  14.9554  15.3913
    15.4104  15.4105  15.7525  15.7525  16.6409  16.8106  16.9580  16.9580
    17.4710  17.4711  17.8492  18.2623  18.2624  18.4209  18.4209  18.4398
    18.7290  18.9887  19.0158  19.0158  19.0263  19.0263  19.0499  19.0808
    19.0808  19.0848  19.0848  20.2094  20.2094  20.7187  20.7188  21.0589
    21.4138  21.4151  22.7911  25.4114  26.1386  26.9406  26.9406  26.9981
    26.9981  27.3817  27.5954  27.5954  28.2211  28.2211  29.7651  29.7651
    29.8446  29.8446  31.2448  31.4290  33.1099  33.8301  33.8301  34.2497
    34.2497  34.4947  34.4947  34.9192  34.9293  34.9293  34.9709  35.0291
    35.0292  36.1467  36.4422  36.8039  36.8459  37.1215  37.1215  37.1964
    38.0973  38.0978  38.4470  38.4947

[...]

          k =-0.5000-0.2887 0.0000 (  5800 PWs)   bands (ev):

[...]

     the Fermi energy is    32.6734 ev

!    total energy              =   -2717.04643093 Ry
     Harris-Foulkes estimate   =   -2717.04651003 Ry
     estimated scf accuracy    <       0.00008932 Ry

     The total energy is the sum of the following terms:

     one-electron contribution =    -522.96260975 Ry
     hartree contribution      =     450.19154163 Ry
     xc contribution           =    -258.33553604 Ry
     ewald contribution        =   -2385.59826146 Ry
     smearing contrib. (-TS)   =      -0.34156531 Ry

     convergence has been achieved in  11 iterations

     Forces acting on atoms (Ry/au):

     atom    1 type  1   force =     0.00000000    0.00000000    0.03433377
     atom    2 type  1   force =     0.00000000    0.00000000    0.03433377
     atom    3 type  1   force =     0.00000000    0.00000000   -0.03433377
     atom    4 type  1   force =     0.00000000    0.00000000   -0.03433377
     atom    5 type  2   force =     0.00000000    0.00000000    0.00000000
     atom    6 type  2   force =     0.00000000    0.00000000    0.00000000
     atom    7 type  2   force =     0.00000000    0.09910508    0.00000000
     atom    8 type  2   force =    -0.08582752    0.04955254    0.00000000
     atom    9 type  2   force =     0.08582752    0.04955254    0.00000000
     atom   10 type  2   force =    -0.08582752   -0.04955254    0.00000000
     atom   11 type  2   force =     0.08582752   -0.04955254    0.00000000
     atom   12 type  2   force =     0.00000000   -0.09910508    0.00000000

     Total force =     0.252282     Total SCF correction =     0.002821

     entering subroutine stress ...

          total   stress  (Ry/bohr**3)                   (kbar)     P= 1049.36
   0.00705720   0.00000000   0.00000000       1038.15      0.00      0.00
   0.00000000   0.00705720   0.00000000          0.00   1038.15      0.00
   0.00000000   0.00000000   0.00728575          0.00      0.00   1071.77

     BFGS Geometry Optimization

     number of scf cycles    =   1
     number of bfgs steps    =   0

     enthalpy new            =   -2717.0464309314 Ry

     new trust radius        =       0.5000000000 bohr
     new conv_thr            =       0.0001000000 Ry

     new unit-cell volume =   1650.31120 a.u.^3 (   244.55089 Ang^3 )

CELL_PARAMETERS (alat=  9.92348860)
   1.065639193   0.000000000   0.000000000
  -0.532819597   0.922870613   0.000000000
   0.000000000   0.000000000   1.717203317

ATOMIC_POSITIONS (crystal)
Mg       0.333333000   0.666667000   0.063218390
Mg       0.666667000   0.333333000   0.563218390
Mg       0.666667000   0.333333000   0.936781610
Mg       0.333333000   0.666667000   0.436781610
Zn       0.000000000   0.000000000   0.000000000
Zn       0.000000000   0.000000000   0.500000000
Zn       0.172506170   0.345012340   0.750000000
Zn       0.827493830   0.172506170   0.250000000
Zn       0.345012340   0.172506170   0.250000000
Zn       0.654987660   0.827493830   0.750000000
Zn       0.172506170   0.827493830   0.750000000
Zn       0.827493830   0.654987660   0.250000000

     Writing output data file Prototype-La-hP12-MgZn2.save
     Check: negative starting charge=   -0.002087
     NEW-OLD atomic charge density approx. for the potential
     NEW k-points:
        k(    1) = (   0.0000000   0.0000000   0.0000000), wk =   0.0833333
        k(    2) = (   0.0000000   0.0000000   0.1455856), wk =   0.1666667
        k(    3) = (   0.0000000   0.0000000  -0.2911711), wk =   0.0833333
        k(    4) = (   0.0000000   0.3611918   0.0000000), wk =   0.1666667
        k(    5) = (   0.0000000   0.3611918   0.1455856), wk =   0.3333333
        k(    6) = (   0.0000000   0.3611918  -0.2911711), wk =   0.1666667
        k(    7) = (  -0.4692020  -0.2708939   0.0000000), wk =   0.0833333
        k(    8) = (  -0.4692020  -0.2708939   0.1455856), wk =   0.1666667
        k(    9) = (  -0.4692020  -0.2708939  -0.2911711), wk =   0.0833333
        k(   10) = (  -0.4692020   0.0902980   0.0000000), wk =   0.1666667
        k(   11) = (  -0.4692020   0.0902980   0.1455856), wk =   0.3333333
        k(   12) = (  -0.4692020   0.0902980  -0.2911711), wk =   0.1666667
     Check: negative starting charge=   -0.006873

     negative rho (up, down):  0.459E-02 0.000E+00
     extrapolated charge  229.10818, renormalised to  220.00000

[...]

     enthalpy old            =   -2717.0464309314 Ry
     enthalpy new            =   -2717.7638842695 Ry

     CASE: enthalpy_new < enthalpy_old

     small trust_radius: resetting bfgs history

     new trust radius        =       0.2260019495 bohr
     new conv_thr            =       0.0000189012 Ry

[...]

     Writing output data file Prototype-La-hP12-MgZn2.save
     Check: negative starting charge=   -0.006873
     NEW-OLD atomic charge density approx. for the potential
     NEW k-points:
        k(    1) = (   0.0000000   0.0000000   0.0000000), wk =   0.0833333
        k(    2) = (   0.0000000   0.0000000   0.1497511), wk =   0.1666667
        k(    3) = (   0.0000000   0.0000000  -0.2995022), wk =   0.0833333
        k(    4) = (   0.0000000   0.3710142   0.0000000), wk =   0.1666667
        k(    5) = (   0.0000000   0.3710142   0.1497511), wk =   0.3333333
        k(    6) = (   0.0000000   0.3710142  -0.2995022), wk =   0.1666667
        k(    7) = (  -0.4819616  -0.2782607   0.0000000), wk =   0.0833333
        k(    8) = (  -0.4819616  -0.2782607   0.1497511), wk =   0.1666667
        k(    9) = (  -0.4819616  -0.2782607  -0.2995022), wk =   0.0833333
        k(   10) = (  -0.4819616   0.0927536   0.0000000), wk =   0.1666667
        k(   11) = (  -0.4819616   0.0927536   0.1497511), wk =   0.3333333
        k(   12) = (  -0.4819616   0.0927536  -0.2995022), wk =   0.1666667
     Check: negative starting charge=   -0.004216

     negative rho (up, down):  0.752E-01 0.000E+00
     extrapolated charge  215.56671, renormalised to  220.00000

[...]

     number of scf cycles    =   3
     number of bfgs steps    =   2

     enthalpy old            =   -2717.7638842696 Ry
     enthalpy new            =   -2717.7330303571 Ry

     CASE: enthalpy_new > enthalpy_old

     new trust radius        =       0.0920505591 bohr

     trust_radius < trust_radius_min

     resetting bfgs history

     Message from routine bfgs:
     history already reset at previous step: stopping
     new conv_thr            =       0.0000189012 Ry

     new unit-cell volume =   1517.09368 a.u.^3 (   224.81009 Ang^3 )

[...]

ATOMIC_POSITIONS (crystal)
Mg       0.333333000   0.666667000   0.064391956
Mg       0.666667000   0.333333000   0.564391956
Mg       0.666667000   0.333333000   0.935608044
Mg       0.333333000   0.666667000   0.435608044
Zn       0.000000000   0.000000000   0.000000000
Zn       0.000000000   0.000000000   0.500000000
Zn       0.173002600   0.346005201   0.750000000
Zn       0.826997400   0.173002600   0.250000000
Zn       0.346005201   0.173002600   0.250000000
Zn       0.653994799   0.826997400   0.750000000
Zn       0.173002600   0.826997400   0.750000000
Zn       0.826997400   0.653994799   0.250000000

     Writing output data file Prototype-La-hP12-MgZn2.save
     Check: negative starting charge=   -0.004216
     NEW-OLD atomic charge density approx. for the potential
     NEW k-points:
        k(    1) = (   0.0000000   0.0000000   0.0000000), wk =   0.0833333
        k(    2) = (   0.0000000   0.0000000   0.1498616), wk =   0.1666667
        k(    3) = (   0.0000000   0.0000000  -0.2997232), wk =   0.0833333
        k(    4) = (   0.0000000   0.3713031   0.0000000), wk =   0.1666667
        k(    5) = (   0.0000000   0.3713031   0.1498616), wk =   0.3333333
        k(    6) = (   0.0000000   0.3713031  -0.2997232), wk =   0.1666667
        k(    7) = (  -0.4823369  -0.2784773   0.0000000), wk =   0.0833333
        k(    8) = (  -0.4823369  -0.2784773   0.1498616), wk =   0.1666667
        k(    9) = (  -0.4823369  -0.2784773  -0.2997232), wk =   0.0833333
        k(   10) = (  -0.4823369   0.0928258   0.0000000), wk =   0.1666667
        k(   11) = (  -0.4823369   0.0928258   0.1498616), wk =   0.3333333
        k(   12) = (  -0.4823369   0.0928258  -0.2997232), wk =   0.1666667
     Check: negative starting charge=   -0.004126
     extrapolated charge  219.88063, renormalised to  220.00000

[...]

     The maximum number of steps has been reached.

     End of BFGS Geometry Optimization
Begin final coordinates
     new unit-cell volume =   1517.09368 a.u.^3 (   224.81009 Ang^3 )

CELL_PARAMETERS (alat=  9.92348860)
   1.036619835   0.000000000   0.000000000
  -0.518309917   0.897739111   0.000000000
   0.000000000   0.000000000   1.668205745

ATOMIC_POSITIONS (crystal)
Mg       0.333333000   0.666667000   0.064391956
Mg       0.666667000   0.333333000   0.564391956
Mg       0.666667000   0.333333000   0.935608044
Mg       0.333333000   0.666667000   0.435608044
Zn       0.000000000   0.000000000   0.000000000
Zn       0.000000000   0.000000000   0.500000000
Zn       0.173002600   0.346005201   0.750000000
Zn       0.826997400   0.173002600   0.250000000
Zn       0.346005201   0.173002600   0.250000000
Zn       0.653994799   0.826997400   0.750000000
Zn       0.173002600   0.826997400   0.750000000
Zn       0.826997400   0.653994799   0.250000000
End final coordinates

     A final scf calculation at the relaxed structure.
     The G-vectors are recalculated for the final unit cell
     Results may differ from those at the preceding step.

     bravais-lattice index     =            0
     lattice parameter (alat)  =       9.9235  a.u.
     unit-cell volume          =    1517.0937 (a.u.)^3
     number of atoms/cell      =           12
     number of atomic types    =            2
     number of electrons       =       220.00
     number of Kohn-Sham states=          132
     kinetic-energy cutoff     =      40.0000  Ry
     charge density cutoff     =     160.0000  Ry
     convergence threshold     =      1.9E-05
     mixing beta               =       0.7000
     number of iterations used =            8  plain     mixing
     Exchange-correlation      = SLA-PZ-NOGX-NOGC ( 1 1 0 0 0)
     EXX-fraction              =        0.00

     celldm(1)=   9.923489  celldm(2)=   0.000000  celldm(3)=   0.000000
     celldm(4)=   0.000000  celldm(5)=   0.000000  celldm(6)=   0.000000

     crystal axes: (cart. coord. in units of alat)
               a(1) = (   1.036620   0.000000   0.000000 )
               a(2) = (  -0.518310   0.897739   0.000000 )
               a(3) = (   0.000000   0.000000   1.668206 )

     reciprocal axes: (cart. coord. in units 2 pi/alat)
               b(1) = (  0.964674  0.556955  0.000000 )
               b(2) = (  0.000000  1.113909  0.000000 )
               b(3) = (  0.000000  0.000000  0.599446 )

     PseudoPot. # 1 for Pr read from file:
     /home/cwx6513/pp.La/Pr.UPF
     MD5 check sum: 70e2b4b153859e92c8c91247dfc63203
     Pseudo is Norm-conserving, Zval = 13.0
     Generated in analytical, separable form
     Using radial grid of 1255 points,  6 beta functions with:
                l(1) =   0
                l(2) =   0
                l(3) =   1
                l(4) =   1
                l(5) =   2
                l(6) =   3

     PseudoPot. # 2 for Ho read from file:
     /home/cwx6513/pp.La/Ho.UPF
     MD5 check sum: f307ee11bce99f5b724fa279e3790763
     Pseudo is Norm-conserving, Zval = 21.0
     Generated in analytical, separable form
     Using radial grid of 1265 points,  6 beta functions with:
                l(1) =   0
                l(2) =   0
                l(3) =   1
                l(4) =   1
                l(5) =   2
                l(6) =   3

     atomic species   valence    mass     pseudopotential
        Mg            13.00    24.30500     Pr( 1.00)
        Zn            21.00    65.39000     Ho( 1.00)

     24 Sym. Ops., with inversion, found (12 have fractional translation)

   Cartesian axes

     site n.     atom                  positions (alat units)
         1           Mg  tau(   1) = (  -0.0000005   0.5984930   0.1074190  )
         2           Mg  tau(   2) = (   0.5183104   0.2992461   0.9415219  )
         3           Mg  tau(   3) = (   0.5183104   0.2992461   1.5607867  )
         4           Mg  tau(   4) = (  -0.0000005   0.5984930   0.7266838  )
         5           Zn  tau(   5) = (   0.0000000   0.0000000   0.0000000  )
         6           Zn  tau(   6) = (   0.0000000   0.0000000   0.8341029  )
         7           Zn  tau(   7) = (   0.0000000   0.3106224   1.2511543  )
         8           Zn  tau(   8) = (   0.7676129   0.1553112   0.4170514  )
         9           Zn  tau(   9) = (   0.2690069   0.1553112   0.4170514  )
        10           Zn  tau(  10) = (   0.2493030   0.7424279   1.2511543  )
        11           Zn  tau(  11) = (  -0.2493030   0.7424279   1.2511543  )
        12           Zn  tau(  12) = (   0.5183099   0.5871167   0.4170514  )

     number of k points=    12  gaussian smearing, width (Ry)=  0.1000
                       cart. coord. in units 2pi/alat
        k(    1) = (   0.0000000   0.0000000   0.0000000), wk =   0.0833333
        k(    2) = (   0.0000000   0.0000000   0.1498616), wk =   0.1666667
        k(    3) = (   0.0000000   0.0000000  -0.2997232), wk =   0.0833333
        k(    4) = (   0.0000000   0.3713031   0.0000000), wk =   0.1666667
        k(    5) = (   0.0000000   0.3713031   0.1498616), wk =   0.3333333
        k(    6) = (   0.0000000   0.3713031  -0.2997232), wk =   0.1666667
        k(    7) = (  -0.4823369  -0.2784773   0.0000000), wk =   0.0833333
        k(    8) = (  -0.4823369  -0.2784773   0.1498616), wk =   0.1666667
        k(    9) = (  -0.4823369  -0.2784773  -0.2997232), wk =   0.0833333
        k(   10) = (  -0.4823369   0.0928258   0.0000000), wk =   0.1666667
        k(   11) = (  -0.4823369   0.0928258   0.1498616), wk =   0.3333333
        k(   12) = (  -0.4823369   0.0928258  -0.2997232), wk =   0.1666667

     Largest allocated arrays     est. size (Mb)     dimensions
     Largest temporary arrays     est. size (Mb)     dimensions

     Initial potential from superposition of free atoms
     Check: negative starting charge=   -0.001077

     starting charge   51.96217, renormalised to  220.00000

     negative rho (up, down):  0.456E-02 0.000E+00
     Starting wfc are   80 randomized atomic wfcs

     Writing output data file Prototype-La-hP12-MgZn2.save

     Self-consistent Calculation

[...]

     negative rho (up, down):  0.341E-04 0.000E+00

[...]

     iteration # 11     ecut=    40.00 Ry     beta=0.70
     CG style diagonalization
     c_bands:  2 eigenvalues not converged
     c_bands:  1 eigenvalues not converged
     c_bands:  1 eigenvalues not converged
     ethr =  8.69E-07,  avg # of iterations =  3.8

     total energy              =   -2718.57509663 Ry
     Harris-Foulkes estimate   =   -2718.57520204 Ry
     estimated scf accuracy    <       0.00019112 Ry

     iteration # 12     ecut=    40.00 Ry     beta=0.70
     CG style diagonalization
     ethr =  8.69E-08,  avg # of iterations =  3.9

     End of self-consistent calculation

[...]

          k = 0.0000 0.3713-0.2997 (  6514 PWs)   bands (ev):

[...]

          k =-0.4823 0.0928-0.2997 (  6478 PWs)   bands (ev):

   -64.8038 -64.8038 -64.7799 -64.7799 -64.7522 -64.7522 -64.7328 -64.7328
   -29.5742 -29.5742 -29.3786 -29.3786 -29.1455 -29.1455 -29.1002 -29.1002
   -29.0069 -29.0069 -28.9778 -28.9778 -28.8983 -28.8983 -28.8446 -28.8446
   -28.7732 -28.7732 -28.7416 -28.7416 -28.7348 -28.7348 -28.7236 -28.7236
   -14.4112 -14.4111 -14.3314 -14.3313   5.0420   5.0421   5.0731   5.0731
     5.2786   5.2786   5.5995   5.5995   5.8267   5.8267   5.8469   5.8469
    11.7793  11.7793  12.5451  12.5452  12.8150  12.8150  13.0952  13.0952
    13.1628  13.1628  13.7807  13.7807  13.9023  13.9023  14.1681  14.1681
    14.4670  14.4670  14.5502  14.5502  14.8210  14.8210  14.9730  14.9730
    15.1790  15.1790  15.5677  15.5677  15.6415  15.6415  15.8957  15.8957
    15.9529  15.9529  16.0330  16.0330  16.2860  16.2860  16.9605  16.9605
    17.8312  17.8312  19.6262  19.6263  22.3502  22.3502  22.9271  22.9271
    24.9819  24.9819  25.6828  25.6828  26.1389  26.1389  26.5010  26.5011
    26.7673  26.7673  27.6928  27.6928  28.6759  28.6759  29.2780  29.2780
    29.7106  29.7106  29.8187  29.8188  31.0338  31.0338  31.1962  31.1962
    31.7531  31.7531  33.0731  33.0732  33.3877  33.3878  34.1190  34.1192
    34.5343  34.5344  34.9110  34.9112

     the Fermi energy is    28.9059 ev

!    total energy              =   -2718.57516376 Ry
     Harris-Foulkes estimate   =   -2718.57516914 Ry
     estimated scf accuracy    <       0.00000617 Ry

     The total energy is the sum of the following terms:

     one-electron contribution =    -640.56476963 Ry
     hartree contribution      =     482.05464870 Ry
     xc contribution           =    -256.16944605 Ry
     ewald contribution        =   -2303.51407054 Ry
     smearing contrib. (-TS)   =      -0.38152624 Ry

     convergence has been achieved in  12 iterations

     Forces acting on atoms (Ry/au):

     atom    1 type  1   force =     0.00000000    0.00000000    0.01707805
     atom    2 type  1   force =     0.00000000    0.00000000    0.01707805
     atom    3 type  1   force =     0.00000000    0.00000000   -0.01707805
     atom    4 type  1   force =     0.00000000    0.00000000   -0.01707805
     atom    5 type  2   force =     0.00000000    0.00000000    0.00000000
     atom    6 type  2   force =     0.00000000    0.00000000    0.00000000
     atom    7 type  2   force =     0.00000000   -0.01594142    0.00000000
     atom    8 type  2   force =     0.01380567   -0.00797071    0.00000000
     atom    9 type  2   force =    -0.01380567   -0.00797071    0.00000000
     atom   10 type  2   force =     0.01380567    0.00797071    0.00000000
     atom   11 type  2   force =    -0.01380567    0.00797071    0.00000000
     atom   12 type  2   force =     0.00000000    0.01594142    0.00000000

     Total force =     0.051879     Total SCF correction =     0.003362

     entering subroutine stress ...

          total   stress  (Ry/bohr**3)                   (kbar)     P=  442.00
   0.00304985   0.00000000   0.00000000        448.65      0.00      0.00
   0.00000000   0.00304985   0.00000000          0.00    448.65      0.00
   0.00000000   0.00000000   0.00291418          0.00      0.00    428.69

     Writing output data file Prototype-La-hP12-MgZn2.save

     General routines

     Parallel routines

   This run was terminated on:  16:54:19  22Mar2018

   JOB DONE.