     Program PWSCF v.5.0.2 starts on 22Mar2018 at 16:18:54

     Current dimensions of program PWSCF are:
     Max number of different atomic species (ntypx) = 10
     Max number of k-points (npk) =  40000
     Max angular momentum in pseudopotentials (lmaxx) =  3
     Waiting for input...
     Reading input from standard input

     Subspace diagonalization in iterative solution of the eigenvalue problem:
     a serial algorithm will be used

     bravais-lattice index     =            0
     lattice parameter (alat)  =       8.5346  a.u.
     unit-cell volume          =     621.6493 (a.u.)^3
     number of atoms/cell      =            8
     number of atomic types    =            2
     number of electrons       =       120.00
     number of Kohn-Sham states=           72
     kinetic-energy cutoff     =      40.0000  Ry
     charge density cutoff     =     160.0000  Ry
     convergence threshold     =      1.0E-04
     mixing beta               =       0.7000
     number of iterations used =            8  plain     mixing
     Exchange-correlation      = SLA-PZ-NOGX-NOGC ( 1 1 0 0 0)
     EXX-fraction              =        0.00
     nstep                     =           50

     celldm(1)=   8.534573  celldm(2)=   0.000000  celldm(3)=   0.000000
     celldm(4)=   0.000000  celldm(5)=   0.000000  celldm(6)=   0.000000

     crystal axes: (cart. coord. in units of alat)
               a(1) = (   1.000000   0.000000   0.000000 )
               a(2) = (   0.000000   1.000000   0.000000 )
               a(3) = (   0.000000   0.000000   1.000000 )

     reciprocal axes: (cart. coord. in units 2 pi/alat)
               b(1) = (  1.000000  0.000000  0.000000 )
               b(2) = (  0.000000  1.000000  0.000000 )
               b(3) = (  0.000000  0.000000  1.000000 )

     PseudoPot. # 1 for Pr read from file:
     /home/cwx6513/pp.La/Pr.UPF
     MD5 check sum: 70e2b4b153859e92c8c91247dfc63203
     Pseudo is Norm-conserving, Zval = 13.0
     Generated in analytical, separable form
     Using radial grid of 1255 points,  6 beta functions with:
                l(1) =   0
                l(2) =   0
                l(3) =   1
                l(4) =   1
                l(5) =   2
                l(6) =   3

     PseudoPot. # 2 for Ho read from file:
     /home/cwx6513/pp.La/Ho.UPF
     MD5 check sum: f307ee11bce99f5b724fa279e3790763
     Pseudo is Norm-conserving, Zval = 21.0
     Generated in analytical, separable form
     Using radial grid of 1265 points,  6 beta functions with:
                l(1) =   0
                l(2) =   0
                l(3) =   1
                l(4) =   1
                l(5) =   2
                l(6) =   3

     atomic species   valence    mass     pseudopotential
        Cr            13.00    51.99610     Pr( 1.00)
        Si            21.00    28.08550     Ho( 1.00)

     48 Sym. Ops., with inversion, found (24 have fractional translation)

   Cartesian axes

     site n.     atom                  positions (alat units)
         1           Cr  tau(   1) = (   0.0000000   0.5000000   0.2500000  )
         2           Cr  tau(   2) = (   0.0000000   0.5000000   0.7500000  )
         3           Cr  tau(   3) = (   0.5000000   0.7500000   0.0000000  )
         4           Cr  tau(   4) = (   0.5000000   0.2500000   0.0000000  )
         5           Cr  tau(   5) = (   0.7500000   0.0000000   0.5000000  )
         6           Cr  tau(   6) = (   0.2500000   0.0000000   0.5000000  )
         7           Si  tau(   7) = (   0.5000000   0.5000000   0.5000000  )
         8           Si  tau(   8) = (   0.0000000   0.0000000   0.0000000  )

     number of k points=    48  gaussian smearing, width (Ry)=  0.1000
                       cart. coord. in units 2pi/alat
        k(    1) = (   0.0000000   0.0000000   0.0000000), wk =   0.0095238
        k(    2) = (   0.0000000   0.0000000   0.1428571), wk =   0.0190476
        k(    3) = (   0.0000000   0.0000000   0.2857143), wk =   0.0190476
        k(    4) = (   0.0000000   0.0000000   0.4285714), wk =   0.0190476
        k(    5) = (   0.0000000   0.1666667   0.0000000), wk =   0.0190476
        k(    6) = (   0.0000000   0.1666667   0.1428571), wk =   0.0380952
        k(    7) = (   0.0000000   0.1666667   0.2857143), wk =   0.0380952
        k(    8) = (   0.0000000   0.1666667   0.4285714), wk =   0.0380952
        k(    9) = (   0.0000000   0.3333333   0.0000000), wk =   0.0190476
        k(   10) = (   0.0000000   0.3333333   0.1428571), wk =   0.0380952
        k(   11) = (   0.0000000   0.3333333   0.2857143), wk =   0.0380952
        k(   12) = (   0.0000000   0.3333333   0.4285714), wk =   0.0380952
        k(   13) = (   0.0000000  -0.5000000   0.0000000), wk =   0.0095238
        k(   14) = (   0.0000000  -0.5000000   0.1428571), wk =   0.0190476
        k(   15) = (   0.0000000  -0.5000000   0.2857143), wk =   0.0190476
        k(   16) = (   0.0000000  -0.5000000   0.4285714), wk =   0.0190476
        k(   17) = (   0.2000000   0.0000000   0.0000000), wk =   0.0190476
        k(   18) = (   0.2000000   0.0000000   0.1428571), wk =   0.0380952
        k(   19) = (   0.2000000   0.0000000   0.2857143), wk =   0.0380952
        k(   20) = (   0.2000000   0.0000000   0.4285714), wk =   0.0380952
        k(   21) = (   0.2000000   0.1666667   0.0000000), wk =   0.0380952
        k(   22) = (   0.2000000   0.1666667   0.1428571), wk =   0.0761905
        k(   23) = (   0.2000000   0.1666667   0.2857143), wk =   0.0761905
        k(   24) = (   0.2000000   0.1666667   0.4285714), wk =   0.0761905
        k(   25) = (   0.2000000   0.3333333   0.0000000), wk =   0.0380952
        k(   26) = (   0.2000000   0.3333333   0.1428571), wk =   0.0761905
        k(   27) = (   0.2000000   0.3333333   0.2857143), wk =   0.0761905
        k(   28) = (   0.2000000   0.3333333   0.4285714), wk =   0.0761905
        k(   29) = (   0.2000000  -0.5000000   0.0000000), wk =   0.0190476
        k(   30) = (   0.2000000  -0.5000000   0.1428571), wk =   0.0380952
        k(   31) = (   0.2000000  -0.5000000   0.2857143), wk =   0.0380952
        k(   32) = (   0.2000000  -0.5000000   0.4285714), wk =   0.0380952
        k(   33) = (   0.4000000   0.0000000   0.0000000), wk =   0.0190476
        k(   34) = (   0.4000000   0.0000000   0.1428571), wk =   0.0380952
        k(   35) = (   0.4000000   0.0000000   0.2857143), wk =   0.0380952
        k(   36) = (   0.4000000   0.0000000   0.4285714), wk =   0.0380952
        k(   37) = (   0.4000000   0.1666667   0.0000000), wk =   0.0380952
        k(   38) = (   0.4000000   0.1666667   0.1428571), wk =   0.0761905
        k(   39) = (   0.4000000   0.1666667   0.2857143), wk =   0.0761905
        k(   40) = (   0.4000000   0.1666667   0.4285714), wk =   0.0761905
        k(   41) = (   0.4000000   0.3333333   0.0000000), wk =   0.0380952
        k(   42) = (   0.4000000   0.3333333   0.1428571), wk =   0.0761905
        k(   43) = (   0.4000000   0.3333333   0.2857143), wk =   0.0761905
        k(   44) = (   0.4000000   0.3333333   0.4285714), wk =   0.0761905
        k(   45) = (   0.4000000  -0.5000000   0.0000000), wk =   0.0190476
        k(   46) = (   0.4000000  -0.5000000   0.1428571), wk =   0.0380952
        k(   47) = (   0.4000000  -0.5000000   0.2857143), wk =   0.0380952
        k(   48) = (   0.4000000  -0.5000000   0.4285714), wk =   0.0380952

     Largest allocated arrays     est. size (Mb)     dimensions
     Largest temporary arrays     est. size (Mb)     dimensions

     Initial potential from superposition of free atoms

     starting charge   77.94326, renormalised to  120.00000
     Starting wfc are  120 randomized atomic wfcs

     Self-consistent Calculation

     iteration #  1     ecut=    40.00 Ry     beta=0.70
     CG style diagonalization
     c_bands:  5 eigenvalues not converged
     c_bands:  5 eigenvalues not converged
     c_bands:  5 eigenvalues not converged
     c_bands:  1 eigenvalues not converged
     c_bands:  2 eigenvalues not converged
     c_bands:  2 eigenvalues not converged
     c_bands:  5 eigenvalues not converged
     c_bands:  3 eigenvalues not converged
     c_bands:  5 eigenvalues not converged
     c_bands:  5 eigenvalues not converged
     c_bands:  5 eigenvalues not converged
     c_bands:  4 eigenvalues not converged
     c_bands:  2 eigenvalues not converged
     c_bands:  1 eigenvalues not converged
     c_bands:  4 eigenvalues not converged
     c_bands:  1 eigenvalues not converged
     ethr =  1.00E-02,  avg # of iterations = 15.9

     total energy              =     198.45385661 Ry
     Harris-Foulkes estimate   =   -1942.89541195 Ry
     estimated scf accuracy    <    2529.15393358 Ry

     iteration #  2     ecut=    40.00 Ry     beta=0.70
     CG style diagonalization
     ethr =  1.00E-02,  avg # of iterations = 20.1

[...]

     End of self-consistent calculation

          k = 0.0000 0.0000 0.0000 (  2601 PWs)   bands (ev):

   -50.7072 -50.6725 -15.2472 -15.2472 -15.2472 -15.1962 -15.1962 -15.1962
    -3.6827  -1.8983  -1.8983   1.1549   1.1549   1.1549  12.1121  12.1121
    13.4198  15.4483  15.4483  15.4483  17.9340  17.9340  17.9340  19.8832
    19.8832  19.8832  20.1770  20.1770  20.1770  25.7616  25.7616  25.7616
    27.5501  27.5501  28.4262  28.4262  29.0911  29.0911  29.0911  29.8209
    29.8209  29.8209  32.8700  33.2191  33.8588  33.8588  33.8588  35.6463
    37.5859  37.5859  37.5859  39.4540  39.4540  40.3004  42.1189  42.1189
    42.1189  42.3293  42.3293  44.9475  44.9475  44.9475  45.3849  45.3849
    45.3849  47.8449  49.1354  49.1356  50.1330  50.1333  50.1576  50.1587

[...]

     the Fermi energy is    43.8949 ev

!    total energy              =   -1137.66520262 Ry
     Harris-Foulkes estimate   =   -1137.66522449 Ry
     estimated scf accuracy    <       0.00002328 Ry

     The total energy is the sum of the following terms:

     one-electron contribution =     147.55224695 Ry
     hartree contribution      =      94.80198322 Ry
     xc contribution           =    -131.28971278 Ry
     ewald contribution        =   -1248.48265100 Ry
     smearing contrib. (-TS)   =      -0.24706901 Ry

     convergence has been achieved in  12 iterations

     Forces acting on atoms (Ry/au):

     atom    1 type  1   force =     0.00000000    0.00000000    0.00000000
     atom    2 type  1   force =     0.00000000    0.00000000    0.00000000
     atom    3 type  1   force =     0.00000000    0.00000000    0.00000000
     atom    4 type  1   force =     0.00000000    0.00000000    0.00000000
     atom    5 type  1   force =     0.00000000    0.00000000    0.00000000
     atom    6 type  1   force =     0.00000000    0.00000000    0.00000000
     atom    7 type  2   force =     0.00000000    0.00000000    0.00000000
     atom    8 type  2   force =     0.00000000    0.00000000    0.00000000

     Total force =     0.000000     Total SCF correction =     0.000000

     entering subroutine stress ...

          total   stress  (Ry/bohr**3)                   (kbar)     P= 5057.22
   0.03437831   0.00000000   0.00000000       5057.22      0.00      0.00
[...]
  -0.00881982   0.00000000   0.00000000      -1297.44      0.00      0.00
   0.00000000  -0.00881982   0.00000000          0.00  -1297.44      0.00
   0.00000000   0.00000000  -0.00881982          0.00      0.00  -1297.44

     number of scf cycles    =   3
     number of bfgs steps    =   2

     enthalpy old            =   -1141.6159245756 Ry
     enthalpy new            =   -1139.5660915409 Ry

     CASE: enthalpy_new > enthalpy_old

     new trust radius        =       0.4369495241 bohr

     trust_radius < trust_radius_min

     resetting bfgs history

     Message from routine bfgs:
     history already reset at previous step: stopping
     new conv_thr            =       0.0000010000 Ry

     new unit-cell volume =   1040.52850 a.u.^3 (   154.19041 Ang^3 )

[...]

ATOMIC_POSITIONS (crystal)
Cr       0.000000000   0.500000000   0.250000000
Cr       0.000000000   0.500000000   0.750000000
Cr       0.500000000   0.750000000   0.000000000
Cr       0.500000000   0.250000000   0.000000000
Cr       0.750000000   0.000000000   0.500000000
Cr       0.250000000   0.000000000   0.500000000
Si       0.500000000   0.500000000   0.500000000
Si       0.000000000   0.000000000   0.000000000

     Writing output data file Prototype-La-cP8-Cr3Si.save
     Check: negative starting charge=   -0.044673
     NEW-OLD atomic charge density approx. for the potential
     NEW k-points:
        k(    1) = (   0.0000000   0.0000000   0.0000000), wk =   0.0095238
        k(    2) = (   0.0000000   0.0000000   0.1203185), wk =   0.0190476
        k(    3) = (   0.0000000   0.0000000   0.2406370), wk =   0.0190476
        k(    4) = (   0.0000000   0.0000000   0.3609555), wk =   0.0190476
        k(    5) = (   0.0000000   0.1403716   0.0000000), wk =   0.0190476
        k(    6) = (   0.0000000   0.1403716   0.1203185), wk =   0.0380952
        k(    7) = (   0.0000000   0.1403716   0.2406370), wk =   0.0380952
        k(    8) = (   0.0000000   0.1403716   0.3609555), wk =   0.0380952
        k(    9) = (   0.0000000   0.2807432   0.0000000), wk =   0.0190476
        k(   10) = (   0.0000000   0.2807432   0.1203185), wk =   0.0380952
        k(   11) = (   0.0000000   0.2807432   0.2406370), wk =   0.0380952
        k(   12) = (   0.0000000   0.2807432   0.3609555), wk =   0.0380952
        k(   13) = (   0.0000000  -0.4211148   0.0000000), wk =   0.0095238
        k(   14) = (   0.0000000  -0.4211148   0.1203185), wk =   0.0190476
        k(   15) = (   0.0000000  -0.4211148   0.2406370), wk =   0.0190476
        k(   16) = (   0.0000000  -0.4211148   0.3609555), wk =   0.0190476
        k(   17) = (   0.1684459   0.0000000   0.0000000), wk =   0.0190476
        k(   18) = (   0.1684459   0.0000000   0.1203185), wk =   0.0380952
        k(   19) = (   0.1684459   0.0000000   0.2406370), wk =   0.0380952
        k(   20) = (   0.1684459   0.0000000   0.3609555), wk =   0.0380952
        k(   21) = (   0.1684459   0.1403716   0.0000000), wk =   0.0380952
        k(   22) = (   0.1684459   0.1403716   0.1203185), wk =   0.0761905
        k(   23) = (   0.1684459   0.1403716   0.2406370), wk =   0.0761905
        k(   24) = (   0.1684459   0.1403716   0.3609555), wk =   0.0761905
        k(   25) = (   0.1684459   0.2807432   0.0000000), wk =   0.0380952
        k(   26) = (   0.1684459   0.2807432   0.1203185), wk =   0.0761905
        k(   27) = (   0.1684459   0.2807432   0.2406370), wk =   0.0761905
        k(   28) = (   0.1684459   0.2807432   0.3609555), wk =   0.0761905
        k(   29) = (   0.1684459  -0.4211148   0.0000000), wk =   0.0190476
        k(   30) = (   0.1684459  -0.4211148   0.1203185), wk =   0.0380952
        k(   31) = (   0.1684459  -0.4211148   0.2406370), wk =   0.0380952
        k(   32) = (   0.1684459  -0.4211148   0.3609555), wk =   0.0380952
        k(   33) = (   0.3368918   0.0000000   0.0000000), wk =   0.0190476
        k(   34) = (   0.3368918   0.0000000   0.1203185), wk =   0.0380952
        k(   35) = (   0.3368918   0.0000000   0.2406370), wk =   0.0380952
        k(   36) = (   0.3368918   0.0000000   0.3609555), wk =   0.0380952
        k(   37) = (   0.3368918   0.1403716   0.0000000), wk =   0.0380952
        k(   38) = (   0.3368918   0.1403716   0.1203185), wk =   0.0761905
        k(   39) = (   0.3368918   0.1403716   0.2406370), wk =   0.0761905
        k(   40) = (   0.3368918   0.1403716   0.3609555), wk =   0.0761905
        k(   41) = (   0.3368918   0.2807432   0.0000000), wk =   0.0380952
        k(   42) = (   0.3368918   0.2807432   0.1203185), wk =   0.0761905
        k(   43) = (   0.3368918   0.2807432   0.2406370), wk =   0.0761905
        k(   44) = (   0.3368918   0.2807432   0.3609555), wk =   0.0761905
        k(   45) = (   0.3368918  -0.4211148   0.0000000), wk =   0.0190476
        k(   46) = (   0.3368918  -0.4211148   0.1203185), wk =   0.0380952
        k(   47) = (   0.3368918  -0.4211148   0.2406370), wk =   0.0380952
        k(   48) = (   0.3368918  -0.4211148   0.3609555), wk =   0.0380952
     Check: negative starting charge=   -0.020912

     negative rho (up, down):  0.349E+01 0.000E+00
     extrapolated charge   89.22726, renormalised to  120.00000

[...]

     The maximum number of steps has been reached.

     End of BFGS Geometry Optimization
Begin final coordinates
     new unit-cell volume =   1040.52850 a.u.^3 (   154.19041 Ang^3 )

CELL_PARAMETERS (alat=  8.53457320)
   1.187324745   0.000000000   0.000000000
   0.000000000   1.187324745   0.000000000
   0.000000000   0.000000000   1.187324745

ATOMIC_POSITIONS (crystal)
Cr       0.000000000   0.500000000   0.250000000
Cr       0.000000000   0.500000000   0.750000000
Cr       0.500000000   0.750000000   0.000000000
Cr       0.500000000   0.250000000   0.000000000
Cr       0.750000000   0.000000000   0.500000000
Cr       0.250000000   0.000000000   0.500000000
Si       0.500000000   0.500000000   0.500000000
Si       0.000000000   0.000000000   0.000000000
End final coordinates

     A final scf calculation at the relaxed structure.
     The G-vectors are recalculated for the final unit cell
     Results may differ from those at the preceding step.

     bravais-lattice index     =            0
     lattice parameter (alat)  =       8.5346  a.u.
     unit-cell volume          =    1040.5285 (a.u.)^3
     number of atoms/cell      =            8
     number of atomic types    =            2
     number of electrons       =       120.00
     number of Kohn-Sham states=           72
     kinetic-energy cutoff     =      40.0000  Ry
     charge density cutoff     =     160.0000  Ry
     convergence threshold     =      1.0E-06
     mixing beta               =       0.7000
     number of iterations used =            8  plain     mixing
     Exchange-correlation      = SLA-PZ-NOGX-NOGC ( 1 1 0 0 0)
     EXX-fraction              =        0.00

     celldm(1)=   8.534573  celldm(2)=   0.000000  celldm(3)=   0.000000
     celldm(4)=   0.000000  celldm(5)=   0.000000  celldm(6)=   0.000000

     crystal axes: (cart. coord. in units of alat)
               a(1) = (   1.187325   0.000000   0.000000 )
               a(2) = (   0.000000   1.187325   0.000000 )
               a(3) = (   0.000000   0.000000   1.187325 )

     reciprocal axes: (cart. coord. in units 2 pi/alat)
               b(1) = (  0.842230  0.000000  0.000000 )
               b(2) = (  0.000000  0.842230  0.000000 )
               b(3) = (  0.000000  0.000000  0.842230 )

     PseudoPot. # 1 for Pr read from file:
     /home/cwx6513/pp.La/Pr.UPF
     MD5 check sum: 70e2b4b153859e92c8c91247dfc63203
     Pseudo is Norm-conserving, Zval = 13.0
     Generated in analytical, separable form
     Using radial grid of 1255 points,  6 beta functions with:
                l(1) =   0
                l(2) =   0
                l(3) =   1
                l(4) =   1
                l(5) =   2
                l(6) =   3

     PseudoPot. # 2 for Ho read from file:
     /home/cwx6513/pp.La/Ho.UPF
     MD5 check sum: f307ee11bce99f5b724fa279e3790763
     Pseudo is Norm-conserving, Zval = 21.0
     Generated in analytical, separable form
     Using radial grid of 1265 points,  6 beta functions with:
                l(1) =   0
                l(2) =   0
                l(3) =   1
                l(4) =   1
                l(5) =   2
                l(6) =   3

     atomic species   valence    mass     pseudopotential
        Cr            13.00    51.99610     Pr( 1.00)
        Si            21.00    28.08550     Ho( 1.00)

     48 Sym. Ops., with inversion, found (24 have fractional translation)

   Cartesian axes

     site n.     atom                  positions (alat units)
         1           Cr  tau(   1) = (   0.0000000   0.5936624   0.2968312  )
         2           Cr  tau(   2) = (   0.0000000   0.5936624   0.8904936  )
         3           Cr  tau(   3) = (   0.5936624   0.8904936   0.0000000  )
         4           Cr  tau(   4) = (   0.5936624   0.2968312   0.0000000  )
         5           Cr  tau(   5) = (   0.8904936   0.0000000   0.5936624  )
         6           Cr  tau(   6) = (   0.2968312   0.0000000   0.5936624  )
         7           Si  tau(   7) = (   0.5936624   0.5936624   0.5936624  )
         8           Si  tau(   8) = (   0.0000000   0.0000000   0.0000000  )

     number of k points=    48  gaussian smearing, width (Ry)=  0.1000
                       cart. coord. in units 2pi/alat
        k(    1) = (   0.0000000   0.0000000   0.0000000), wk =   0.0095238
        k(    2) = (   0.0000000   0.0000000   0.1203185), wk =   0.0190476
        k(    3) = (   0.0000000   0.0000000   0.2406370), wk =   0.0190476
        k(    4) = (   0.0000000   0.0000000   0.3609555), wk =   0.0190476
        k(    5) = (   0.0000000   0.1403716   0.0000000), wk =   0.0190476
        k(    6) = (   0.0000000   0.1403716   0.1203185), wk =   0.0380952
        k(    7) = (   0.0000000   0.1403716   0.2406370), wk =   0.0380952
        k(    8) = (   0.0000000   0.1403716   0.3609555), wk =   0.0380952
        k(    9) = (   0.0000000   0.2807432   0.0000000), wk =   0.0190476
        k(   10) = (   0.0000000   0.2807432   0.1203185), wk =   0.0380952
        k(   11) = (   0.0000000   0.2807432   0.2406370), wk =   0.0380952
        k(   12) = (   0.0000000   0.2807432   0.3609555), wk =   0.0380952
        k(   13) = (   0.0000000  -0.4211148   0.0000000), wk =   0.0095238
        k(   14) = (   0.0000000  -0.4211148   0.1203185), wk =   0.0190476
        k(   15) = (   0.0000000  -0.4211148   0.2406370), wk =   0.0190476
        k(   16) = (   0.0000000  -0.4211148   0.3609555), wk =   0.0190476
        k(   17) = (   0.1684459   0.0000000   0.0000000), wk =   0.0190476
        k(   18) = (   0.1684459   0.0000000   0.1203185), wk =   0.0380952
        k(   19) = (   0.1684459   0.0000000   0.2406370), wk =   0.0380952
        k(   20) = (   0.1684459   0.0000000   0.3609555), wk =   0.0380952
        k(   21) = (   0.1684459   0.1403716   0.0000000), wk =   0.0380952
        k(   22) = (   0.1684459   0.1403716   0.1203185), wk =   0.0761905
        k(   23) = (   0.1684459   0.1403716   0.2406370), wk =   0.0761905
        k(   24) = (   0.1684459   0.1403716   0.3609555), wk =   0.0761905
        k(   25) = (   0.1684459   0.2807432   0.0000000), wk =   0.0380952
        k(   26) = (   0.1684459   0.2807432   0.1203185), wk =   0.0761905
        k(   27) = (   0.1684459   0.2807432   0.2406370), wk =   0.0761905
        k(   28) = (   0.1684459   0.2807432   0.3609555), wk =   0.0761905
        k(   29) = (   0.1684459  -0.4211148   0.0000000), wk =   0.0190476
        k(   30) = (   0.1684459  -0.4211148   0.1203185), wk =   0.0380952
        k(   31) = (   0.1684459  -0.4211148   0.2406370), wk =   0.0380952
        k(   32) = (   0.1684459  -0.4211148   0.3609555), wk =   0.0380952
        k(   33) = (   0.3368918   0.0000000   0.0000000), wk =   0.0190476
        k(   34) = (   0.3368918   0.0000000   0.1203185), wk =   0.0380952
        k(   35) = (   0.3368918   0.0000000   0.2406370), wk =   0.0380952
        k(   36) = (   0.3368918   0.0000000   0.3609555), wk =   0.0380952
        k(   37) = (   0.3368918   0.1403716   0.0000000), wk =   0.0380952
        k(   38) = (   0.3368918   0.1403716   0.1203185), wk =   0.0761905
        k(   39) = (   0.3368918   0.1403716   0.2406370), wk =   0.0761905
        k(   40) = (   0.3368918   0.1403716   0.3609555), wk =   0.0761905
        k(   41) = (   0.3368918   0.2807432   0.0000000), wk =   0.0380952
        k(   42) = (   0.3368918   0.2807432   0.1203185), wk =   0.0761905
        k(   43) = (   0.3368918   0.2807432   0.2406370), wk =   0.0761905
        k(   44) = (   0.3368918   0.2807432   0.3609555), wk =   0.0761905
        k(   45) = (   0.3368918  -0.4211148   0.0000000), wk =   0.0190476
        k(   46) = (   0.3368918  -0.4211148   0.1203185), wk =   0.0380952
        k(   47) = (   0.3368918  -0.4211148   0.2406370), wk =   0.0380952
        k(   48) = (   0.3368918  -0.4211148   0.3609555), wk =   0.0380952

     Largest allocated arrays     est. size (Mb)     dimensions
     Largest temporary arrays     est. size (Mb)     dimensions

     Initial potential from superposition of free atoms
     Check: negative starting charge=   -0.001087

     starting charge   77.94326, renormalised to  120.00000

     negative rho (up, down):  0.167E-02 0.000E+00
     Starting wfc are  120 randomized atomic wfcs

     Writing output data file Prototype-La-cP8-Cr3Si.save

     Self-consistent Calculation

[...]

     negative rho (up, down):  0.264E-03 0.000E+00

[...]

     iteration # 12     ecut=    40.00 Ry     beta=0.70
     CG style diagonalization
     c_bands:  1 eigenvalues not converged
     ethr =  2.11E-06,  avg # of iterations =  3.4

[...]

     total energy              =   -1144.38841658 Ry
     Harris-Foulkes estimate   =   -1144.38843513 Ry
     estimated scf accuracy    <       0.00003356 Ry

     iteration # 14     ecut=    40.00 Ry     beta=0.70
     CG style diagonalization
     ethr =  2.80E-08,  avg # of iterations =  3.7

     End of self-consistent calculation

[...]

          k = 0.3369-0.4211 0.3610 (  4458 PWs)   bands (ev):

   -66.6528 -66.6527 -30.8234 -30.8234 -30.8173 -30.8173 -30.8127 -30.8126
   -17.8317 -17.7997 -17.6943 -17.6928 -17.5918 -17.5564   1.0179   1.1872
     1.3497   1.3610   1.6274   1.6319   1.9442   2.0185   2.3458   2.3806
     2.4913   2.5111   2.6510   2.6595   2.7210   2.7299   2.7330   2.7901
    12.8835  12.8872  12.9168  12.9206  12.9642  12.9904  13.0068  13.0080
    13.0168  13.0204  18.9120  18.9122  21.3545  21.4018  21.8187  21.8420
    21.9327  21.9738  23.1206  23.1208  23.3478  23.3768  23.4181  23.4991
    24.8543  24.8766  25.1739  25.1839  25.3188  25.6009  26.0290  26.0501
    26.8288  26.9163  27.7775  27.8398  27.8959  27.9300  28.1996  28.2562

     the Fermi energy is    25.1433 ev

!    total energy              =   -1144.38842639 Ry
     Harris-Foulkes estimate   =   -1144.38842665 Ry
     estimated scf accuracy    <       0.00000037 Ry

     The total energy is the sum of the following terms:

     one-electron contribution =    -121.59755366 Ry
     hartree contribution      =     152.07235954 Ry
     xc contribution           =    -122.96269670 Ry
     ewald contribution        =   -1051.50899612 Ry
     smearing contrib. (-TS)   =      -0.39153946 Ry

     convergence has been achieved in  14 iterations

     Forces acting on atoms (Ry/au):

     atom    1 type  1   force =     0.00000000    0.00000000    0.00000000
     atom    2 type  1   force =     0.00000000    0.00000000    0.00000000
     atom    3 type  1   force =     0.00000000    0.00000000    0.00000000
     atom    4 type  1   force =     0.00000000    0.00000000    0.00000000
     atom    5 type  1   force =     0.00000000    0.00000000    0.00000000
     atom    6 type  1   force =     0.00000000    0.00000000    0.00000000
     atom    7 type  2   force =     0.00000000    0.00000000    0.00000000
     atom    8 type  2   force =     0.00000000    0.00000000    0.00000000

     Total force =     0.000000     Total SCF correction =     0.000000

     entering subroutine stress ...

          total   stress  (Ry/bohr**3)                   (kbar)     P=  394.28
   0.00268024   0.00000000   0.00000000        394.28      0.00      0.00
   0.00000000   0.00268024   0.00000000          0.00    394.28      0.00
   0.00000000   0.00000000   0.00268024          0.00      0.00    394.28

     Writing output data file Prototype-La-cP8-Cr3Si.save

     General routines

     Parallel routines

   This run was terminated on:  16:45:12  22Mar2018

   JOB DONE.