     Program PWSCF v.5.0.2 starts on 22Mar2018 at 12:15:32

     Current dimensions of program PWSCF are:
     Max number of different atomic species (ntypx) = 10
     Max number of k-points (npk) =  40000
     Max angular momentum in pseudopotentials (lmaxx) =  3
     Waiting for input...
     Reading input from standard input

     Subspace diagonalization in iterative solution of the eigenvalue problem:
     a serial algorithm will be used

     bravais-lattice index     =            0
     lattice parameter (alat)  =       8.8008  a.u.
     unit-cell volume          =    1116.9454 (a.u.)^3
     number of atoms/cell      =           16
     number of atomic types    =            2
     number of electrons       =       380.00
     number of Kohn-Sham states=          228
     kinetic-energy cutoff     =      40.0000  Ry
     charge density cutoff     =     160.0000  Ry
     convergence threshold     =      1.0E-04
     mixing beta               =       0.7000
     number of iterations used =            8  plain     mixing
     Exchange-correlation      = SLA-PZ-NOGX-NOGC ( 1 1 0 0 0)
     EXX-fraction              =        0.00
     nstep                     =           50

     celldm(1)=   8.800765  celldm(2)=   0.000000  celldm(3)=   0.000000
     celldm(4)=   0.000000  celldm(5)=   0.000000  celldm(6)=   0.000000

     crystal axes: (cart. coord. in units of alat)
               a(1) = (   1.000000   0.000000   0.000000 )
               a(2) = (   0.000000   1.083771   0.000000 )
               a(3) = (   0.000000   0.000000   1.511935 )

     reciprocal axes: (cart. coord. in units 2 pi/alat)
               b(1) = (  1.000000  0.000000  0.000000 )
               b(2) = (  0.000000  0.922704  0.000000 )
               b(3) = (  0.000000  0.000000  0.661404 )

     PseudoPot. # 1 for Yb read from file:
     /home/jld5415/pp.La/Yb.UPF
     MD5 check sum: 3e859b81cc28c53ec6aa3a2e888efcdf
     Pseudo is Norm-conserving, Zval = 24.0
     Generated in analytical, separable form
     Using radial grid of 1269 points,  6 beta functions with:
                l(1) =   0
                l(2) =   0
                l(3) =   1
                l(4) =   1
                l(5) =   2
                l(6) =   3

     PseudoPot. # 2 for Tm read from file:
     /home/jld5415/pp.La/Tm.UPF
     MD5 check sum: 245516e0878b5372ceeb9443ded2c4e1
     Pseudo is Norm-conserving, Zval = 23.0
     Generated in analytical, separable form
     Using radial grid of 1269 points,  6 beta functions with:
                l(1) =   0
                l(2) =   0
                l(3) =   1
                l(4) =   1
                l(5) =   2
                l(6) =   3

     atomic species   valence    mass     pseudopotential
        Fe            24.00    55.84500     Yb( 1.00)
        C             23.00    12.01070     Tm( 1.00)

      8 Sym. Ops., with inversion, found ( 6 have fractional translation)

   Cartesian axes

     site n.     atom                  positions (alat units)
         1           Fe  tau(   1) = (   0.3472940   0.1827628   1.3947267  )
         2           Fe  tau(   2) = (   0.1527060   0.7246484   0.8731757  )
         3           Fe  tau(   3) = (   0.8472940   0.3591227   0.6387592  )
         4           Fe  tau(   4) = (   0.3396640   0.4879235   0.3779837  )
         5           Fe  tau(   5) = (   0.1527060   0.7246484   1.3947267  )
         6           Fe  tau(   6) = (   0.3472940   0.1827628   0.8731757  )
         7           Fe  tau(   7) = (   0.1603360   1.0298091   0.3779837  )
         8           Fe  tau(   8) = (   0.6527060   0.9010083   0.6387592  )
         9           Fe  tau(   9) = (   0.8472940   0.3591227   0.1172082  )
        10           Fe  tau(  10) = (   0.6603360   0.5958476   1.1339512  )
        11           Fe  tau(  11) = (   0.6527060   0.9010083   0.1172082  )
        12           Fe  tau(  12) = (   0.8396640   0.0539620   1.1339512  )
        13           C   tau(  13) = (   0.0000000   0.0000000   0.0000000  )
        14           C   tau(  14) = (   0.5000000   0.5418856   0.0000000  )
        15           C   tau(  15) = (   0.5000000   0.5418856   0.7559674  )
        16           C   tau(  16) = (   0.0000000   0.0000000   0.7559674  )

     number of k points=    12  gaussian smearing, width (Ry)=  0.1000
                       cart. coord. in units 2pi/alat
        k(    1) = (   0.0000000   0.0000000   0.0000000), wk =   0.0833333
        k(    2) = (   0.0000000   0.0000000   0.1653510), wk =   0.1666667
        k(    3) = (   0.0000000   0.0000000  -0.3307021), wk =   0.0833333
        k(    4) = (   0.0000000   0.3075680   0.0000000), wk =   0.1666667
        k(    5) = (   0.0000000   0.3075680   0.1653510), wk =   0.3333333
        k(    6) = (   0.0000000   0.3075680  -0.3307021), wk =   0.1666667
        k(    7) = (  -0.5000000   0.0000000   0.0000000), wk =   0.0833333
        k(    8) = (  -0.5000000   0.0000000   0.1653510), wk =   0.1666667
        k(    9) = (  -0.5000000   0.0000000  -0.3307021), wk =   0.0833333
        k(   10) = (  -0.5000000   0.3075680   0.0000000), wk =   0.1666667
        k(   11) = (  -0.5000000   0.3075680   0.1653510), wk =   0.3333333
        k(   12) = (  -0.5000000   0.3075680  -0.3307021), wk =   0.1666667

     Largest allocated arrays     est. size (Mb)     dimensions
     Largest temporary arrays     est. size (Mb)     dimensions

     Initial potential from superposition of free atoms

     Starting from uniform charge
     Starting wfc are    0 randomized atomic wfcs

     Self-consistent Calculation

     iteration #  1     ecut=    40.00 Ry     beta=0.70
     CG style diagonalization
     ethr =  1.00E-02,  avg # of iterations = 23.5

     total energy              =   -5443.42942458 Ry
     Harris-Foulkes estimate   =   -7875.93652000 Ry
     estimated scf accuracy    <    2941.51370515 Ry

     iteration #  2     ecut=    40.00 Ry     beta=0.70
     CG style diagonalization
     c_bands:  1 eigenvalues not converged
     c_bands:  2 eigenvalues not converged
     c_bands:  4 eigenvalues not converged
     c_bands:  1 eigenvalues not converged
     c_bands:  1 eigenvalues not converged
     c_bands:  1 eigenvalues not converged
     ethr =  1.00E-02,  avg # of iterations = 11.5

[...]

     End of self-consistent calculation

          k = 0.0000 0.0000 0.0000 (  4785 PWs)   bands (ev):

   -67.1750 -67.1369 -67.0896 -67.0711 -67.0483 -67.0313 -67.0217 -67.0202
   -66.8500 -66.8299 -66.8298 -66.8259 -58.1946 -58.0732 -58.0341 -57.9304
   -28.2868 -28.2600 -28.2006 -28.1843 -27.8300 -27.7925 -27.3396 -27.3289
   -27.2177 -27.1706 -27.0254 -26.9257 -26.2714 -26.2116 -26.0946 -26.0433
   -26.0158 -25.9302 -25.9247 -25.8552 -25.7965 -25.7596 -25.7466 -25.6905
   -25.5958 -25.5318 -25.5241 -25.5035 -25.4743 -25.4656 -25.3565 -25.3469
   -25.3129 -25.3017 -25.1525 -25.1482 -17.7839 -17.7330 -17.6756 -17.6630
   -17.5705 -17.5474 -16.7724 -16.7496 -16.7204 -16.6787 -16.6530 -16.6434
    21.2336  21.2897  21.6385  22.4939  22.5073  22.6825  22.8006  23.2452
    24.1596  24.5067  24.7637  24.8532  25.3703  26.4465  26.6515  26.8733
    26.9520  27.1489  27.7151  27.8853  28.0683  28.3083  28.4341  28.4811
    28.7269  28.7297  28.7488  29.0449  29.2079  29.4600  29.4894  29.5804
    29.6009  29.7060  29.7307  29.7980  29.8625  30.1991  30.2380  30.2488
    30.2823  30.4671  30.4989  30.5047  30.6708  30.8414  30.9241  31.2890
    31.4046  31.9208  31.9219  31.9370  31.9727  32.0716  32.1885  32.4722
    32.4895  32.6136  32.6174  32.7530  32.8029  32.9991  33.2178  33.3801
    33.5301  33.7368  34.0065  34.0398  34.9307  35.5693  35.5831  35.5979
    36.7296  37.6244  37.7269  37.7568  37.8734  38.0058  38.2264  38.4873
    38.8846  39.0858  39.7225  41.5529  42.1306  43.9581  45.2415  45.5193
    46.4235  46.4808  46.4946  47.6118  47.9796  48.8761  49.5503  49.9785
    50.1205  51.0609  52.3321  52.4492  52.6765  52.7026  53.3004  53.4925
    54.1625  54.2730  54.3257  54.4540  55.8132  55.9782  56.8471  57.2870
    57.4559  57.6532  57.7136  57.7694  58.1767  58.3436  58.7593  58.7871
    59.0400  59.5219  59.5634  59.6368  60.0317  60.1188  60.3557  60.5049
    60.7059  60.7806  60.9353  61.1996  61.2772  61.4818  61.5508  61.9027
    62.1326  62.1986  62.9357  62.9489  63.0412  63.1851  63.5105  63.9319
    64.5048  64.6284  64.9560  65.0283  65.3558  65.4866  66.1080  66.4201
    66.6194  67.0472  67.0741  67.1810  67.3166  67.5109  67.5385  67.7367
    68.2958  68.3002  68.4017  68.4584

[...]

          k =-0.5000 0.0000 0.0000 (  4798 PWs)   bands (ev):

[...]

     the Fermi energy is    60.3618 ev

!    total energy              =   -6328.79406199 Ry
     Harris-Foulkes estimate   =   -6328.79406781 Ry
     estimated scf accuracy    <       0.00000713 Ry

     The total energy is the sum of the following terms:

     one-electron contribution =    -703.45110498 Ry
     hartree contribution      =     898.39965876 Ry
     xc contribution           =    -536.95503873 Ry
     ewald contribution        =   -5986.16086051 Ry
     smearing contrib. (-TS)   =      -0.62671652 Ry

     convergence has been achieved in  10 iterations

     Forces acting on atoms (Ry/au):

     atom    1 type  1   force =     1.09668436   -1.18525650   -1.55677656
     atom    2 type  1   force =    -1.09668436   -1.18525650    1.55677656
     atom    3 type  1   force =     1.09668436    1.18525650   -1.55677656
     atom    4 type  1   force =    -1.91499756   -0.73488932    0.00000000
     atom    5 type  1   force =    -1.09668436   -1.18525650   -1.55677656
     atom    6 type  1   force =     1.09668436   -1.18525650    1.55677656
     atom    7 type  1   force =     1.91499756   -0.73488932    0.00000000
     atom    8 type  1   force =    -1.09668436    1.18525650   -1.55677656
     atom    9 type  1   force =     1.09668436    1.18525650    1.55677656
     atom   10 type  1   force =     1.91499756    0.73488932    0.00000000
     atom   11 type  1   force =    -1.09668436    1.18525650    1.55677656
     atom   12 type  1   force =    -1.91499756    0.73488932    0.00000000
     atom   13 type  2   force =     0.00000000    0.00000000    0.00000000
     atom   14 type  2   force =     0.00000000    0.00000000    0.00000000
     atom   15 type  2   force =     0.00000000    0.00000000    0.00000000
     atom   16 type  2   force =     0.00000000    0.00000000    0.00000000

     Total force =     7.554994     Total SCF correction =     0.000000

     entering subroutine stress ...

          total   stress  (Ry/bohr**3)                   (kbar)     P=12609.36
   0.08634767   0.00000000   0.00000000      12702.18      0.00      0.00
   0.00000000   0.08585728   0.00000000          0.00  12630.04      0.00
   0.00000000   0.00000000   0.08494524          0.00      0.00  12495.87

     BFGS Geometry Optimization

     number of scf cycles    =   1
     number of bfgs steps    =   0

     enthalpy new            =   -6328.7940619905 Ry

     new trust radius        =       0.5000000000 bohr
     new conv_thr            =       0.0001000000 Ry

[...]
Fe       0.148387881   0.664329864   0.918423791
Fe       0.351612119   0.164329864   0.581576209
Fe       0.167876171   0.947539086   0.250000000
Fe       0.648387881   0.835670136   0.418423791
Fe       0.851612119   0.335670136   0.081576209
Fe       0.667876171   0.552460914   0.750000000
Fe       0.648387881   0.835670136   0.081576209
Fe       0.832123829   0.052460914   0.750000000
C        0.000000000   0.000000000   0.000000000
C        0.500000000   0.500000000   0.000000000
C        0.500000000   0.500000000   0.500000000
C        0.000000000   0.000000000   0.500000000

     Writing output data file Prototype-La-oP16-Fe3C.save
     NEW-OLD atomic charge density approx. for the potential
     NEW k-points:
        k(    1) = (   0.0000000   0.0000000   0.0000000), wk =   0.0833333
        k(    2) = (   0.0000000   0.0000000   0.1540171), wk =   0.1666667
        k(    3) = (   0.0000000   0.0000000  -0.3080342), wk =   0.0833333
        k(    4) = (   0.0000000   0.2862751   0.0000000), wk =   0.1666667
        k(    5) = (   0.0000000   0.2862751   0.1540171), wk =   0.3333333
        k(    6) = (   0.0000000   0.2862751  -0.3080342), wk =   0.1666667
        k(    7) = (  -0.4652012   0.0000000   0.0000000), wk =   0.0833333
        k(    8) = (  -0.4652012   0.0000000   0.1540171), wk =   0.1666667
        k(    9) = (  -0.4652012   0.0000000  -0.3080342), wk =   0.0833333
        k(   10) = (  -0.4652012   0.2862751   0.0000000), wk =   0.1666667
        k(   11) = (  -0.4652012   0.2862751   0.1540171), wk =   0.3333333
        k(   12) = (  -0.4652012   0.2862751  -0.3080342), wk =   0.1666667

[...]

          total   stress  (Ry/bohr**3)                   (kbar)     P= 5761.69
   0.03905802   0.00000000   0.00000000       5745.63      0.00      0.00
   0.00000000   0.03871585   0.00000000          0.00   5695.30      0.00
   0.00000000   0.00000000   0.03972760          0.00      0.00   5844.13

[...]

     enthalpy old            =   -6328.7940619905 Ry
     enthalpy new            =   -6346.4291752255 Ry

     CASE: enthalpy_new < enthalpy_old

     small trust_radius: resetting bfgs history

     new trust radius        =       7.3916389474 bohr
     new conv_thr            =       0.0001000000 Ry

[...]

          total   stress  (Ry/bohr**3)                   (kbar)     P=-9195.55
  -0.06225325   0.00000000   0.00000000      -9157.77      0.00      0.00
   0.00000000  -0.06244654   0.00000000          0.00  -9186.20      0.00
   0.00000000   0.00000000  -0.06283042          0.00      0.00  -9242.67

     number of scf cycles    =   3
     number of bfgs steps    =   2

     enthalpy old            =   -6346.4291752255 Ry
     enthalpy new            =   -5856.7842998559 Ry

     CASE: enthalpy_new > enthalpy_old

     new trust radius        =       1.3932039735 bohr

     trust_radius < trust_radius_min

     resetting bfgs history

     Message from routine bfgs:
     history already reset at previous step: stopping
     new conv_thr            =       0.0001000000 Ry

     new unit-cell volume =   1588.16270 a.u.^3 (   235.34143 Ang^3 )

[...]

ATOMIC_POSITIONS (crystal)
Fe       0.353381125   0.162581735   0.916871843
Fe       0.146618875   0.662581735   0.583128157
Fe       0.853381125   0.337418265   0.416871843
Fe       0.329131103   0.446309791   0.250000000
Fe       0.146618875   0.662581735   0.916871843
Fe       0.353381125   0.162581735   0.583128157
Fe       0.170868897   0.946309791   0.250000000
Fe       0.646618875   0.837418265   0.416871843
Fe       0.853381125   0.337418265   0.083128157
Fe       0.670868897   0.553690209   0.750000000
Fe       0.646618875   0.837418265   0.083128157
Fe       0.829131103   0.053690209   0.750000000
C        0.000000000   0.000000000   0.000000000
C        0.500000000   0.500000000   0.000000000
C        0.500000000   0.500000000   0.500000000
C        0.000000000   0.000000000   0.500000000

     Writing output data file Prototype-La-oP16-Fe3C.save
     NEW-OLD atomic charge density approx. for the potential
     NEW k-points:
        k(    1) = (   0.0000000   0.0000000   0.0000000), wk =   0.0833333
        k(    2) = (   0.0000000   0.0000000   0.1469497), wk =   0.1666667
        k(    3) = (   0.0000000   0.0000000  -0.2938993), wk =   0.0833333
        k(    4) = (   0.0000000   0.2737675   0.0000000), wk =   0.1666667
        k(    5) = (   0.0000000   0.2737675   0.1469497), wk =   0.3333333
        k(    6) = (   0.0000000   0.2737675  -0.2938993), wk =   0.1666667
        k(    7) = (  -0.4445336   0.0000000   0.0000000), wk =   0.0833333
        k(    8) = (  -0.4445336   0.0000000   0.1469497), wk =   0.1666667
        k(    9) = (  -0.4445336   0.0000000  -0.2938993), wk =   0.0833333
        k(   10) = (  -0.4445336   0.2737675   0.0000000), wk =   0.1666667
        k(   11) = (  -0.4445336   0.2737675   0.1469497), wk =   0.3333333
        k(   12) = (  -0.4445336   0.2737675  -0.2938993), wk =   0.1666667

[...]

     The maximum number of steps has been reached.

     End of BFGS Geometry Optimization
Begin final coordinates
     new unit-cell volume =   1588.16270 a.u.^3 (   235.34143 Ang^3 )

CELL_PARAMETERS (alat=  8.80076499)
   1.124774334   0.000000000   0.000000000
   0.000000000   1.217578387   0.000000000
   0.000000000   0.000000000   1.701262741

ATOMIC_POSITIONS (crystal)
Fe       0.353381125   0.162581735   0.916871843
Fe       0.146618875   0.662581735   0.583128157
Fe       0.853381125   0.337418265   0.416871843
Fe       0.329131103   0.446309791   0.250000000
Fe       0.146618875   0.662581735   0.916871843
Fe       0.353381125   0.162581735   0.583128157
Fe       0.170868897   0.946309791   0.250000000
Fe       0.646618875   0.837418265   0.416871843
Fe       0.853381125   0.337418265   0.083128157
Fe       0.670868897   0.553690209   0.750000000
Fe       0.646618875   0.837418265   0.083128157
Fe       0.829131103   0.053690209   0.750000000
C        0.000000000   0.000000000   0.000000000
C        0.500000000   0.500000000   0.000000000
C        0.500000000   0.500000000   0.500000000
C        0.000000000   0.000000000   0.500000000
End final coordinates

     A final scf calculation at the relaxed structure.
     The G-vectors are recalculated for the final unit cell
     Results may differ from those at the preceding step.

     bravais-lattice index     =            0
     lattice parameter (alat)  =       8.8008  a.u.
     unit-cell volume          =    1588.1627 (a.u.)^3
     number of atoms/cell      =           16
     number of atomic types    =            2
     number of electrons       =       380.00
     number of Kohn-Sham states=          228
     kinetic-energy cutoff     =      40.0000  Ry
     charge density cutoff     =     160.0000  Ry
     convergence threshold     =      1.0E-04
     mixing beta               =       0.7000
     number of iterations used =            8  plain     mixing
     Exchange-correlation      = SLA-PZ-NOGX-NOGC ( 1 1 0 0 0)
     EXX-fraction              =        0.00

     celldm(1)=   8.800765  celldm(2)=   0.000000  celldm(3)=   0.000000
     celldm(4)=   0.000000  celldm(5)=   0.000000  celldm(6)=   0.000000

     crystal axes: (cart. coord. in units of alat)
               a(1) = (   1.124774   0.000000   0.000000 )
               a(2) = (   0.000000   1.217578   0.000000 )
               a(3) = (   0.000000   0.000000   1.701263 )

     reciprocal axes: (cart. coord. in units 2 pi/alat)
               b(1) = (  0.889067  0.000000  0.000000 )
               b(2) = (  0.000000  0.821302  0.000000 )
               b(3) = (  0.000000  0.000000  0.587799 )

     PseudoPot. # 1 for Yb read from file:
     /home/jld5415/pp.La/Yb.UPF
     MD5 check sum: 3e859b81cc28c53ec6aa3a2e888efcdf
     Pseudo is Norm-conserving, Zval = 24.0
     Generated in analytical, separable form
     Using radial grid of 1269 points,  6 beta functions with:
                l(1) =   0
                l(2) =   0
                l(3) =   1
                l(4) =   1
                l(5) =   2
                l(6) =   3

     PseudoPot. # 2 for Tm read from file:
     /home/jld5415/pp.La/Tm.UPF
     MD5 check sum: 245516e0878b5372ceeb9443ded2c4e1
     Pseudo is Norm-conserving, Zval = 23.0
     Generated in analytical, separable form
     Using radial grid of 1269 points,  6 beta functions with:
                l(1) =   0
                l(2) =   0
                l(3) =   1
                l(4) =   1
                l(5) =   2
                l(6) =   3

     atomic species   valence    mass     pseudopotential
        Fe            24.00    55.84500     Yb( 1.00)
        C             23.00    12.01070     Tm( 1.00)

      8 Sym. Ops., with inversion, found ( 6 have fractional translation)

   Cartesian axes

     site n.     atom                  positions (alat units)
         1           Fe  tau(   1) = (   0.3974740   0.1979560   1.5598399  )
         2           Fe  tau(   2) = (   0.1649131   0.8067452   0.9920542  )
         3           Fe  tau(   3) = (   0.9598612   0.4108332   0.7092085  )
         4           Fe  tau(   4) = (   0.3701982   0.5434172   0.4253157  )
         5           Fe  tau(   5) = (   0.1649131   0.8067452   1.5598399  )
         6           Fe  tau(   6) = (   0.3974740   0.1979560   0.9920542  )
         7           Fe  tau(   7) = (   0.1921889   1.1522063   0.4253157  )
         8           Fe  tau(   8) = (   0.7273003   1.0196224   0.7092085  )
         9           Fe  tau(   9) = (   0.9598612   0.4108332   0.1414228  )
        10           Fe  tau(  10) = (   0.7545761   0.6741612   1.2759471  )
        11           Fe  tau(  11) = (   0.7273003   1.0196224   0.1414228  )
        12           Fe  tau(  12) = (   0.9325854   0.0653720   1.2759471  )
        13           C   tau(  13) = (   0.0000000   0.0000000   0.0000000  )
        14           C   tau(  14) = (   0.5623872   0.6087892   0.0000000  )
        15           C   tau(  15) = (   0.5623872   0.6087892   0.8506314  )
        16           C   tau(  16) = (   0.0000000   0.0000000   0.8506314  )

     number of k points=    12  gaussian smearing, width (Ry)=  0.1000
                       cart. coord. in units 2pi/alat
        k(    1) = (   0.0000000   0.0000000   0.0000000), wk =   0.0833333
        k(    2) = (   0.0000000   0.0000000   0.1469497), wk =   0.1666667
        k(    3) = (   0.0000000   0.0000000  -0.2938993), wk =   0.0833333
        k(    4) = (   0.0000000   0.2737675   0.0000000), wk =   0.1666667
        k(    5) = (   0.0000000   0.2737675   0.1469497), wk =   0.3333333
        k(    6) = (   0.0000000   0.2737675  -0.2938993), wk =   0.1666667
        k(    7) = (  -0.4445336   0.0000000   0.0000000), wk =   0.0833333
        k(    8) = (  -0.4445336   0.0000000   0.1469497), wk =   0.1666667
        k(    9) = (  -0.4445336   0.0000000  -0.2938993), wk =   0.0833333
        k(   10) = (  -0.4445336   0.2737675   0.0000000), wk =   0.1666667
        k(   11) = (  -0.4445336   0.2737675   0.1469497), wk =   0.3333333
        k(   12) = (  -0.4445336   0.2737675  -0.2938993), wk =   0.1666667

     Largest allocated arrays     est. size (Mb)     dimensions
     Largest temporary arrays     est. size (Mb)     dimensions

     Initial potential from superposition of free atoms

     Starting from uniform charge
     Starting wfc are    0 randomized atomic wfcs

     Writing output data file Prototype-La-oP16-Fe3C.save

     Self-consistent Calculation

[...]

     iteration #  9     ecut=    40.00 Ry     beta=0.70
     CG style diagonalization
     c_bands:  1 eigenvalues not converged
     c_bands:  1 eigenvalues not converged
     ethr =  1.45E-06,  avg # of iterations =  3.8

     total energy              =   -6361.39790694 Ry
     Harris-Foulkes estimate   =   -6361.39817534 Ry
     estimated scf accuracy    <       0.00049899 Ry

     iteration # 10     ecut=    40.00 Ry     beta=0.70
     CG style diagonalization
     ethr =  1.31E-07,  avg # of iterations =  3.8

     End of self-consistent calculation

[...]

          k = 0.0000 0.2738-0.2939 (  6764 PWs)   bands (ev):

[...]

          k =-0.4445 0.2738-0.2939 (  6804 PWs)   bands (ev):

   -83.0955 -83.0955 -83.0921 -83.0921 -83.0752 -83.0752 -83.0660 -83.0660
   -82.8436 -82.8436 -82.8276 -82.8276 -72.7559 -72.7559 -72.7541 -72.7541
   -42.5544 -42.5544 -42.5532 -42.5532 -42.4773 -42.4773 -42.4736 -42.4736
   -42.2554 -42.2554 -42.2519 -42.2519 -41.9535 -41.9535 -41.9462 -41.9462
   -41.8904 -41.8904 -41.8813 -41.8813 -41.7587 -41.7587 -41.7540 -41.7540
   -41.6752 -41.6752 -41.6689 -41.6689 -41.6479 -41.6479 -41.6466 -41.6466
   -41.4484 -41.4484 -41.4359 -41.4359 -31.9763 -31.9763 -31.9756 -31.9756
   -31.8673 -31.8673 -31.8654 -31.8654 -31.8113 -31.8113 -31.8111 -31.8111
    10.9551  10.9551  10.9628  10.9628  11.3291  11.3291  11.3443  11.3443
    12.6486  12.6486  12.6727  12.6727  13.0071  13.0071  13.1037  13.1037
    13.5682  13.5682  13.5700  13.5700  14.0957  14.0957  14.1460  14.1460
    14.6273  14.6273  14.6489  14.6489  14.9277  14.9277  15.0319  15.0319
    15.1167  15.1167  15.2206  15.2206  15.3654  15.3654  15.3888  15.3888
    15.4597  15.4597  15.6176  15.6176  15.8336  15.8336  15.8870  15.8870
    16.0207  16.0207  16.0351  16.0351  16.2214  16.2214  16.2958  16.2958
    16.5511  16.5511  16.6038  16.6038  17.4452  17.4452  17.5034  17.5034
    18.0773  18.0773  18.1121  18.1121  18.4490  18.4490  18.5243  18.5243
    19.3450  19.3450  19.4854  19.4854  19.6254  19.6254  19.6598  19.6598
    22.7839  22.7839  22.8093  22.8093  25.5467  25.5467  25.5611  25.5611
    29.5537  29.5537  29.7975  29.7975  31.8980  31.8980  32.1295  32.1295
    33.4843  33.4843  33.6485  33.6485  36.3574  36.3574  36.5884  36.5884
    37.9553  37.9553  38.2843  38.2843  39.4008  39.4008  39.4192  39.4192
    40.2005  40.2005  40.2231  40.2231  41.0196  41.0196  41.0250  41.0250
    42.1917  42.1917  42.4918  42.4918  42.7492  42.7492  43.0677  43.0677
    43.5888  43.5888  43.6656  43.6656  44.8132  44.8132  44.8268  44.8268
    45.8344  45.8344  46.2091  46.2091  46.2347  46.2347  46.5148  46.5148
    46.8716  46.8716  47.0012  47.0012  47.3519  47.3519  47.6292  47.6293
    47.7459  47.7459  47.8180  47.8180  48.1360  48.1361  48.6776  48.6777
    48.8891  48.8891  49.0142  49.0143

     the Fermi energy is    43.2352 ev

!    total energy              =   -6361.39802645 Ry
     Harris-Foulkes estimate   =   -6361.39806161 Ry
     estimated scf accuracy    <       0.00004113 Ry

     The total energy is the sum of the following terms:

     one-electron contribution =   -1588.68325599 Ry
     hartree contribution      =    1110.11656211 Ry
     xc contribution           =    -518.39064594 Ry
     ewald contribution        =   -5363.79658990 Ry
     smearing contrib. (-TS)   =      -0.64409673 Ry

     convergence has been achieved in  10 iterations

     Forces acting on atoms (Ry/au):

     atom    1 type  1   force =     0.51406615   -0.54945906   -0.65148117
     atom    2 type  1   force =    -0.51406615   -0.54945906    0.65148117
     atom    3 type  1   force =     0.51406615    0.54945906   -0.65148117
     atom    4 type  1   force =    -0.84066896   -0.40152444    0.00000000
     atom    5 type  1   force =    -0.51406615   -0.54945906   -0.65148117
     atom    6 type  1   force =     0.51406615   -0.54945906    0.65148117
     atom    7 type  1   force =     0.84066896   -0.40152444    0.00000000
     atom    8 type  1   force =    -0.51406615    0.54945906   -0.65148117
     atom    9 type  1   force =     0.51406615    0.54945906    0.65148117
     atom   10 type  1   force =     0.84066896    0.40152444    0.00000000
     atom   11 type  1   force =    -0.51406615    0.54945906    0.65148117
     atom   12 type  1   force =    -0.84066896    0.40152444    0.00000000
     atom   13 type  2   force =     0.00000000    0.00000000    0.00000000
     atom   14 type  2   force =     0.00000000    0.00000000    0.00000000
     atom   15 type  2   force =     0.00000000    0.00000000    0.00000000
     atom   16 type  2   force =     0.00000000    0.00000000    0.00000000

     Total force =     3.375879     Total SCF correction =     0.000000

     entering subroutine stress ...

          total   stress  (Ry/bohr**3)                   (kbar)     P= 4090.53
   0.02748174   0.00000000   0.00000000       4042.70      0.00      0.00
   0.00000000   0.02751842   0.00000000          0.00   4048.10      0.00
   0.00000000   0.00000000   0.02842044          0.00      0.00   4180.79

     Writing output data file Prototype-La-oP16-Fe3C.save

     General routines

     Parallel routines

   This run was terminated on:  13:28:25  22Mar2018

   JOB DONE.