     Program PWSCF v.5.0.2 starts on 22Mar2018 at 22:44:11

     Current dimensions of program PWSCF are:
     Max number of different atomic species (ntypx) = 10
     Max number of k-points (npk) =  40000
     Max angular momentum in pseudopotentials (lmaxx) =  3
     Waiting for input...
     Reading input from standard input

     Subspace diagonalization in iterative solution of the eigenvalue problem:
     a serial algorithm will be used

     bravais-lattice index     =            0
     lattice parameter (alat)  =       7.0151  a.u.
     unit-cell volume          =     862.2778 (a.u.)^3
     number of atoms/cell      =           12
     number of atomic types    =            2
     number of electrons       =       248.00
     number of Kohn-Sham states=          149
     kinetic-energy cutoff     =      40.0000  Ry
     charge density cutoff     =     160.0000  Ry
     convergence threshold     =      1.0E-04
     mixing beta               =       0.7000
     number of iterations used =            8  plain     mixing
     Exchange-correlation      = SLA-PZ-NOGX-NOGC ( 1 1 0 0 0)
     EXX-fraction              =        0.00
     nstep                     =           50

     celldm(1)=   7.015105  celldm(2)=   0.000000  celldm(3)=   0.000000
     celldm(4)=   0.000000  celldm(5)=   0.000000  celldm(6)=   0.000000

     crystal axes: (cart. coord. in units of alat)
               a(1) = (   1.000000   0.000000   0.000000 )
               a(2) = (   0.000000   1.315963   0.000000 )
               a(3) = (   0.000000   0.000000   1.898020 )

     reciprocal axes: (cart. coord. in units 2 pi/alat)
               b(1) = (  1.000000  0.000000  0.000000 )
               b(2) = (  0.000000  0.759900  0.000000 )
               b(3) = (  0.000000  0.000000  0.526865 )

     PseudoPot. # 1 for Er read from file:
     /home/cwx6513/pp.La/Er.UPF
     MD5 check sum: e152ae21b84514339d8526f066caf99b
     Pseudo is Norm-conserving, Zval = 22.0
     Generated in analytical, separable form
     Using radial grid of 1267 points,  6 beta functions with:
                l(1) =   0
                l(2) =   0
                l(3) =   1
                l(4) =   1
                l(5) =   2
                l(6) =   3

     PseudoPot. # 2 for Gd read from file:
     /home/cwx6513/pp.La/Gd.UPF
     MD5 check sum: 09a8be538722f05520810cb6aac0efd2
     Pseudo is Norm-conserving, Zval = 18.0
     Generated in analytical, separable form
     Using radial grid of 1263 points,  6 beta functions with:
                l(1) =   0
                l(2) =   0
                l(3) =   1
                l(4) =   1
                l(5) =   2
                l(6) =   3

     atomic species   valence    mass     pseudopotential
        Co            22.00    58.93320     Er( 1.00)
        Si            18.00    28.08550     Gd( 1.00)

      8 Sym. Ops., with inversion, found ( 6 have fractional translation)

   Cartesian axes

     site n.     atom                  positions (alat units)
         1           Co  tau(   1) = (   0.7500000   1.0875135   0.8270358  )
         2           Co  tau(   2) = (   0.2500000   0.2284499   1.0709846  )
         3           Co  tau(   3) = (   0.7500000   0.4295318   0.1219744  )
         4           Co  tau(   4) = (   0.2500000   0.8864316   1.7760460  )
         5           Co  tau(   5) = (   0.2500000   0.7067855   0.5358966  )
         6           Co  tau(   6) = (   0.7500000   0.6091779   1.3621238  )
         7           Co  tau(   7) = (   0.2500000   0.0488038   0.4131136  )
         8           Co  tau(   8) = (   0.7500000   1.2671596   1.4849068  )
         9           Si  tau(   9) = (   0.2500000   0.2669484   1.6960710  )
        10           Si  tau(  10) = (   0.7500000   1.0490149   0.2019494  )
        11           Si  tau(  11) = (   0.2500000   0.9249301   1.1509596  )
        12           Si  tau(  12) = (   0.7500000   0.3910333   0.7470608  )

     number of k points=    12  gaussian smearing, width (Ry)=  0.1000
                       cart. coord. in units 2pi/alat
        k(    1) = (   0.0000000   0.0000000   0.0000000), wk =   0.0833333
        k(    2) = (   0.0000000   0.0000000   0.1317162), wk =   0.1666667
        k(    3) = (   0.0000000   0.0000000  -0.2634324), wk =   0.0833333
        k(    4) = (   0.0000000   0.2532999   0.0000000), wk =   0.1666667
        k(    5) = (   0.0000000   0.2532999   0.1317162), wk =   0.3333333
        k(    6) = (   0.0000000   0.2532999  -0.2634324), wk =   0.1666667
        k(    7) = (  -0.5000000   0.0000000   0.0000000), wk =   0.0833333
        k(    8) = (  -0.5000000   0.0000000   0.1317162), wk =   0.1666667
        k(    9) = (  -0.5000000   0.0000000  -0.2634324), wk =   0.0833333
        k(   10) = (  -0.5000000   0.2532999   0.0000000), wk =   0.1666667
        k(   11) = (  -0.5000000   0.2532999   0.1317162), wk =   0.3333333
        k(   12) = (  -0.5000000   0.2532999  -0.2634324), wk =   0.1666667

     Largest allocated arrays     est. size (Mb)     dimensions
     Largest temporary arrays     est. size (Mb)     dimensions

     Initial potential from superposition of free atoms

     Starting from uniform charge
     Starting wfc are    0 randomized atomic wfcs

     Self-consistent Calculation

     iteration #  1     ecut=    40.00 Ry     beta=0.70
     CG style diagonalization
     ethr =  1.00E-02,  avg # of iterations = 17.3

     total energy              =   -2876.48541064 Ry
     Harris-Foulkes estimate   =   -3887.05263813 Ry
     estimated scf accuracy    <    1267.92620854 Ry

     iteration #  2     ecut=    40.00 Ry     beta=0.70
     CG style diagonalization
     c_bands:  4 eigenvalues not converged
     c_bands:  2 eigenvalues not converged
     c_bands:  5 eigenvalues not converged
     c_bands:  2 eigenvalues not converged
     c_bands:  4 eigenvalues not converged
     c_bands:  3 eigenvalues not converged
     c_bands:  1 eigenvalues not converged
     ethr =  1.00E-02,  avg # of iterations = 13.8

[...]

     End of self-consistent calculation

          k = 0.0000 0.0000 0.0000 (  3675 PWs)   bands (ev):

   -49.3631 -49.3134 -49.2650 -49.2563 -49.2473 -49.1989 -49.1685 -49.1540
   -18.7829 -18.7791 -18.7189 -18.7063 -12.2812 -12.1830 -12.1208 -12.0679
   -11.9454 -11.9224 -11.8139 -11.7589 -11.7559 -11.6840 -11.6024 -11.5660
   -11.5613 -11.5112 -11.4803 -11.4520 -11.4484 -11.3636 -11.3295 -11.3242
   -11.2811 -11.1532 -11.0845 -11.0272   9.0203   9.1911   9.2579   9.2814
     9.2948   9.3025   9.3510   9.4334   9.6540   9.8196   9.8467  10.0336
    29.8782  30.1996  30.3062  30.3179  30.4280  30.5579  30.7016  30.9934
    31.4389  31.4500  31.7129  32.1295  32.2084  32.6972  32.6987  33.2260
    33.3349  33.3995  33.4448  33.5599  33.6832  33.8619  33.8748  34.1081
    34.2341  34.3127  34.6325  34.6710  34.8679  35.1373  35.2586  35.2957
    35.4643  35.6368  35.7641  36.1118  36.7816  36.9473  36.9842  37.0259
    37.5185  38.6362  38.8591  39.6142  41.6403  42.4824  42.5532  42.9742
    43.0599  43.5621  43.7687  44.6487  44.6997  45.0400  45.2108  45.7206
    45.8052  45.9078  46.8977  47.0811  47.1732  47.1836  47.3071  47.4822
    48.1142  50.7949  51.3747  51.4845  51.6187  52.3686  53.4686  55.1792
    55.5990  56.0069  56.4541  56.6662  56.8479  57.3187  57.6080  57.7725
    57.8233  57.9062  57.9476  58.3360  58.4590  58.6646  59.1197  59.2339
    59.2980  59.3957  59.5314  59.8772  60.0159  60.1183  60.2321  60.2893
    60.6937  60.8077  60.9765  62.1111  62.6507

[...]

          k =-0.5000 0.0000 0.0000 (  3722 PWs)   bands (ev):

[...]

     the Fermi energy is    56.3870 ev

!    total energy              =   -3421.54965937 Ry
     Harris-Foulkes estimate   =   -3421.54966668 Ry
     estimated scf accuracy    <       0.00000720 Ry

     The total energy is the sum of the following terms:

     one-electron contribution =     169.52630176 Ry
     hartree contribution      =     301.14010711 Ry
     xc contribution           =    -320.52299234 Ry
     ewald contribution        =   -3571.29841071 Ry
     smearing contrib. (-TS)   =      -0.39466519 Ry

     convergence has been achieved in  10 iterations

     Forces acting on atoms (Ry/au):

     atom    1 type  1   force =     0.00000000   -0.11931583   -0.09381361
     atom    2 type  1   force =     0.00000000    0.11931583    0.09381361
     atom    3 type  1   force =     0.00000000   -0.11931583    0.09381361
     atom    4 type  1   force =     0.00000000    0.11931583   -0.09381361
     atom    5 type  1   force =     0.00000000    0.12970761   -0.11857853
     atom    6 type  1   force =     0.00000000   -0.12970761    0.11857853
     atom    7 type  1   force =     0.00000000    0.12970761    0.11857853
     atom    8 type  1   force =     0.00000000   -0.12970761   -0.11857853
     atom    9 type  2   force =     0.00000000   -0.22458463    0.02498306
     atom   10 type  2   force =     0.00000000    0.22458463   -0.02498306
     atom   11 type  2   force =     0.00000000   -0.22458463   -0.02498306
     atom   12 type  2   force =     0.00000000    0.22458463    0.02498306

     Total force =     0.648027     Total SCF correction =     0.000000

     entering subroutine stress ...

          total   stress  (Ry/bohr**3)                   (kbar)     P= 7454.35
   0.05284906   0.00000000   0.00000000       7774.36      0.00      0.00
   0.00000000   0.04855421   0.00000000          0.00   7142.57      0.00
   0.00000000   0.00000000   0.05061776          0.00      0.00   7446.13

     BFGS Geometry Optimization

     number of scf cycles    =   1
     number of bfgs steps    =   0

     enthalpy new            =   -3421.5496593676 Ry

     new trust radius        =       0.5000000000 bohr
     new conv_thr            =       0.0001000000 Ry

     new unit-cell volume =   1091.14283 a.u.^3 (   161.69068 Ang^3 )

CELL_PARAMETERS (alat=  7.01510508)
   1.085136619   0.000000000   0.000000000
   0.000000000   1.418895227   0.000000000
   0.000000000   0.000000000   2.052789016

ATOMIC_POSITIONS (crystal)
Co       0.750000000   0.825568165   0.435281985
Co       0.250000000   0.174431835   0.564718015
Co       0.750000000   0.325568165   0.064718015
Co       0.250000000   0.674431835   0.935281985
Co       0.250000000   0.537991371   0.281771135
Co       0.750000000   0.462008629   0.718228865
Co       0.250000000   0.037991371   0.218228865
Co       0.750000000   0.962008629   0.781771135
Si       0.250000000   0.201286379   0.893720906
Si       0.750000000   0.798713621   0.106279094
Si       0.250000000   0.701286379   0.606279094
Si       0.750000000   0.298713621   0.393720906

     Writing output data file Prototype-La-oP12-Co2Si.save
     NEW-OLD atomic charge density approx. for the potential
     NEW k-points:
        k(    1) = (   0.0000000   0.0000000   0.0000000), wk =   0.0833333
        k(    2) = (   0.0000000   0.0000000   0.1217855), wk =   0.1666667
        k(    3) = (   0.0000000   0.0000000  -0.2435711), wk =   0.0833333
        k(    4) = (   0.0000000   0.2349246   0.0000000), wk =   0.1666667
        k(    5) = (   0.0000000   0.2349246   0.1217855), wk =   0.3333333
        k(    6) = (   0.0000000   0.2349246  -0.2435711), wk =   0.1666667
        k(    7) = (  -0.4607715   0.0000000   0.0000000), wk =   0.0833333
        k(    8) = (  -0.4607715   0.0000000   0.1217855), wk =   0.1666667
        k(    9) = (  -0.4607715   0.0000000  -0.2435711), wk =   0.0833333
        k(   10) = (  -0.4607715   0.2349246   0.0000000), wk =   0.1666667
        k(   11) = (  -0.4607715   0.2349246   0.1217855), wk =   0.3333333
        k(   12) = (  -0.4607715   0.2349246  -0.2435711), wk =   0.1666667

[...]

     enthalpy old            =   -3421.5496593676 Ry
     enthalpy new            =   -3428.7448185019 Ry

     CASE: enthalpy_new < enthalpy_old

     small trust_radius: resetting bfgs history

     new trust radius        =       2.7810071730 bohr
     new conv_thr            =       0.0001000000 Ry

[...]

          total   stress  (Ry/bohr**3)                   (kbar)     P=-3499.16
  -0.02506655   0.00000000   0.00000000      -3687.42      0.00      0.00
   0.00000000  -0.02279718   0.00000000          0.00  -3353.58      0.00
   0.00000000   0.00000000  -0.02349667          0.00      0.00  -3456.48

     number of scf cycles    =   3
     number of bfgs steps    =   2

     enthalpy old            =   -3428.7448185019 Ry
     enthalpy new            =   -3402.3413106412 Ry

     CASE: enthalpy_new > enthalpy_old

     new trust radius        =       0.7256936442 bohr

     trust_radius < trust_radius_min

     resetting bfgs history

     Message from routine bfgs:
     history already reset at previous step: stopping
     new conv_thr            =       0.0001000000 Ry

     new unit-cell volume =   1300.70743 a.u.^3 (   192.74495 Ang^3 )

[...]

ATOMIC_POSITIONS (crystal)
Co       0.750000000   0.824917527   0.435102592
Co       0.250000000   0.175082473   0.564897408
Co       0.750000000   0.324917527   0.064897408
Co       0.250000000   0.675082473   0.935102592
Co       0.250000000   0.538638181   0.281605335
Co       0.750000000   0.461361819   0.718394665
Co       0.250000000   0.038638181   0.218394665
Co       0.750000000   0.961361819   0.781605335
Si       0.250000000   0.199941616   0.894140715
Si       0.750000000   0.800058384   0.105859285
Si       0.250000000   0.699941616   0.605859285
Si       0.750000000   0.300058384   0.394140715

     Writing output data file Prototype-La-oP12-Co2Si.save
     NEW-OLD atomic charge density approx. for the potential
     NEW k-points:
        k(    1) = (   0.0000000   0.0000000   0.0000000), wk =   0.0833333
        k(    2) = (   0.0000000   0.0000000   0.1149675), wk =   0.1666667
        k(    3) = (   0.0000000   0.0000000  -0.2299349), wk =   0.0833333
        k(    4) = (   0.0000000   0.2222839   0.0000000), wk =   0.1666667
        k(    5) = (   0.0000000   0.2222839   0.1149675), wk =   0.3333333
        k(    6) = (   0.0000000   0.2222839  -0.2299349), wk =   0.1666667
        k(    7) = (  -0.4327417   0.0000000   0.0000000), wk =   0.0833333
        k(    8) = (  -0.4327417   0.0000000   0.1149675), wk =   0.1666667
        k(    9) = (  -0.4327417   0.0000000  -0.2299349), wk =   0.0833333
        k(   10) = (  -0.4327417   0.2222839   0.0000000), wk =   0.1666667
        k(   11) = (  -0.4327417   0.2222839   0.1149675), wk =   0.3333333
        k(   12) = (  -0.4327417   0.2222839  -0.2299349), wk =   0.1666667

[...]

     The maximum number of steps has been reached.

     End of BFGS Geometry Optimization
Begin final coordinates
     new unit-cell volume =   1300.70743 a.u.^3 (   192.74495 Ang^3 )

CELL_PARAMETERS (alat=  7.01510508)
   1.155423611   0.000000000   0.000000000
   0.000000000   1.499584075   0.000000000
   0.000000000   0.000000000   2.174528086

ATOMIC_POSITIONS (crystal)
Co       0.750000000   0.824917527   0.435102592
Co       0.250000000   0.175082473   0.564897408
Co       0.750000000   0.324917527   0.064897408
Co       0.250000000   0.675082473   0.935102592
Co       0.250000000   0.538638181   0.281605335
Co       0.750000000   0.461361819   0.718394665
Co       0.250000000   0.038638181   0.218394665
Co       0.750000000   0.961361819   0.781605335
Si       0.250000000   0.199941616   0.894140715
Si       0.750000000   0.800058384   0.105859285
Si       0.250000000   0.699941616   0.605859285
Si       0.750000000   0.300058384   0.394140715
End final coordinates

     A final scf calculation at the relaxed structure.
     The G-vectors are recalculated for the final unit cell
     Results may differ from those at the preceding step.

     bravais-lattice index     =            0
     lattice parameter (alat)  =       7.0151  a.u.
     unit-cell volume          =    1300.7074 (a.u.)^3
     number of atoms/cell      =           12
     number of atomic types    =            2
     number of electrons       =       248.00
     number of Kohn-Sham states=          149
     kinetic-energy cutoff     =      40.0000  Ry
     charge density cutoff     =     160.0000  Ry
     convergence threshold     =      1.0E-04
     mixing beta               =       0.7000
     number of iterations used =            8  plain     mixing
     Exchange-correlation      = SLA-PZ-NOGX-NOGC ( 1 1 0 0 0)
     EXX-fraction              =        0.00

     celldm(1)=   7.015105  celldm(2)=   0.000000  celldm(3)=   0.000000
     celldm(4)=   0.000000  celldm(5)=   0.000000  celldm(6)=   0.000000

     crystal axes: (cart. coord. in units of alat)
               a(1) = (   1.155424   0.000000   0.000000 )
               a(2) = (   0.000000   1.499584   0.000000 )
               a(3) = (   0.000000   0.000000   2.174528 )

     reciprocal axes: (cart. coord. in units 2 pi/alat)
               b(1) = (  0.865483  0.000000  0.000000 )
               b(2) = (  0.000000  0.666852  0.000000 )
               b(3) = (  0.000000  0.000000  0.459870 )

     PseudoPot. # 1 for Er read from file:
     /home/cwx6513/pp.La/Er.UPF
     MD5 check sum: e152ae21b84514339d8526f066caf99b
     Pseudo is Norm-conserving, Zval = 22.0
     Generated in analytical, separable form
     Using radial grid of 1267 points,  6 beta functions with:
                l(1) =   0
                l(2) =   0
                l(3) =   1
                l(4) =   1
                l(5) =   2
                l(6) =   3

     PseudoPot. # 2 for Gd read from file:
     /home/cwx6513/pp.La/Gd.UPF
     MD5 check sum: 09a8be538722f05520810cb6aac0efd2
     Pseudo is Norm-conserving, Zval = 18.0
     Generated in analytical, separable form
     Using radial grid of 1263 points,  6 beta functions with:
                l(1) =   0
                l(2) =   0
                l(3) =   1
                l(4) =   1
                l(5) =   2
                l(6) =   3

     atomic species   valence    mass     pseudopotential
        Co            22.00    58.93320     Er( 1.00)
        Si            18.00    28.08550     Gd( 1.00)

      8 Sym. Ops., with inversion, found ( 6 have fractional translation)

   Cartesian axes

     site n.     atom                  positions (alat units)
         1           Co  tau(   1) = (   0.8665677   1.2370332   0.9461428  )
         2           Co  tau(   2) = (   0.2888559   0.2625509   1.2283853  )
         3           Co  tau(   3) = (   0.8665677   0.4872411   0.1411212  )
         4           Co  tau(   4) = (   0.2888559   1.0123429   2.0334068  )
         5           Co  tau(   5) = (   0.2888559   0.8077332   0.6123587  )
         6           Co  tau(   6) = (   0.8665677   0.6918508   1.5621694  )
         7           Co  tau(   7) = (   0.2888559   0.0579412   0.4749053  )
         8           Co  tau(   8) = (   0.8665677   1.4416429   1.6996228  )
         9           Si  tau(   9) = (   0.2888559   0.2998293   1.9443341  )
        10           Si  tau(  10) = (   0.8665677   1.1997548   0.2301940  )
        11           Si  tau(  11) = (   0.2888559   1.0496213   1.3174580  )
        12           Si  tau(  12) = (   0.8665677   0.4499628   0.8570701  )

     number of k points=    12  gaussian smearing, width (Ry)=  0.1000
                       cart. coord. in units 2pi/alat
        k(    1) = (   0.0000000   0.0000000   0.0000000), wk =   0.0833333
        k(    2) = (   0.0000000   0.0000000   0.1149675), wk =   0.1666667
        k(    3) = (   0.0000000   0.0000000  -0.2299349), wk =   0.0833333
        k(    4) = (   0.0000000   0.2222839   0.0000000), wk =   0.1666667
        k(    5) = (   0.0000000   0.2222839   0.1149675), wk =   0.3333333
        k(    6) = (   0.0000000   0.2222839  -0.2299349), wk =   0.1666667
        k(    7) = (  -0.4327417   0.0000000   0.0000000), wk =   0.0833333
        k(    8) = (  -0.4327417   0.0000000   0.1149675), wk =   0.1666667
        k(    9) = (  -0.4327417   0.0000000  -0.2299349), wk =   0.0833333
        k(   10) = (  -0.4327417   0.2222839   0.0000000), wk =   0.1666667
        k(   11) = (  -0.4327417   0.2222839   0.1149675), wk =   0.3333333
        k(   12) = (  -0.4327417   0.2222839  -0.2299349), wk =   0.1666667

     Largest allocated arrays     est. size (Mb)     dimensions
     Largest temporary arrays     est. size (Mb)     dimensions

     Initial potential from superposition of free atoms

     Starting from uniform charge
     Starting wfc are    0 randomized atomic wfcs

     Writing output data file Prototype-La-oP12-Co2Si.save

     Self-consistent Calculation

[...]

     iteration # 10     ecut=    40.00 Ry     beta=0.70
     CG style diagonalization
     c_bands:  1 eigenvalues not converged
     ethr =  2.30E-07,  avg # of iterations =  3.8

     total energy              =   -3436.02580347 Ry
     Harris-Foulkes estimate   =   -3436.02586210 Ry
     estimated scf accuracy    <       0.00010565 Ry

     iteration # 11     ecut=    40.00 Ry     beta=0.70
     CG style diagonalization
     ethr =  4.26E-08,  avg # of iterations =  3.6

     End of self-consistent calculation

[...]

          k = 0.0000 0.2223-0.2299 (  5546 PWs)   bands (ev):

[...]

          k =-0.4327 0.2223-0.2299 (  5556 PWs)   bands (ev):

   -66.6990 -66.6990 -66.6903 -66.6903 -66.6695 -66.6695 -66.6564 -66.6564
   -34.9519 -34.9519 -34.9495 -34.9495 -28.8358 -28.8358 -28.7838 -28.7838
   -28.7710 -28.7710 -28.7587 -28.7587 -28.7551 -28.7551 -28.7220 -28.7220
   -28.6975 -28.6975 -28.6940 -28.6940 -28.6601 -28.6601 -28.6575 -28.6575
   -28.6450 -28.6450 -28.6378 -28.6378  -6.3486  -6.3486  -6.3361  -6.3361
    -6.2600  -6.2600  -6.2540  -6.2540  -6.0766  -6.0766  -6.0659  -6.0659
    16.4317  16.4317  16.7385  16.7385  16.8484  16.8484  16.9433  16.9433
    16.9758  16.9758  17.0967  17.0967  17.1720  17.1720  17.4548  17.4548
    17.5043  17.5043  17.6043  17.6043  17.6290  17.6290  17.8862  17.8862
    17.9400  17.9400  18.0076  18.0076  18.0824  18.0824  18.1348  18.1348
    18.3396  18.3396  18.6049  18.6049  18.6953  18.6953  18.9840  18.9840
    22.9482  22.9482  23.2688  23.2688  24.7138  24.7138  25.2332  25.2332
    27.1508  27.1508  27.3056  27.3056  27.5237  27.5237  28.0233  28.0233
    28.5314  28.5314  28.6059  28.6059  28.8517  28.8517  28.9584  28.9584
    30.4532  30.4532  30.6736  30.6736  31.5091  31.5091  33.6154  33.6154
    34.6651  34.6651  35.3766  35.3766  36.3422  36.3422  37.4298  37.4298
    39.3255  39.3256  39.7545  39.7545  40.6652  40.6652  40.8371  40.8372
    41.0882  41.0883  41.2453  41.2454  41.8735  41.8736  42.1841  42.1842
    42.6165  42.6165  43.1050  43.1055  43.2263

     the Fermi energy is    36.1530 ev

!    total energy              =   -3436.02583115 Ry
     Harris-Foulkes estimate   =   -3436.02583266 Ry
     estimated scf accuracy    <       0.00000208 Ry

     The total energy is the sum of the following terms:

     one-electron contribution =    -475.22085521 Ry
     hartree contribution      =     463.02687401 Ry
     xc contribution           =    -308.75984881 Ry
     ewald contribution        =   -3114.74598380 Ry
     smearing contrib. (-TS)   =      -0.32601734 Ry

     convergence has been achieved in  11 iterations

     Forces acting on atoms (Ry/au):

     atom    1 type  1   force =     0.00000000   -0.03103958   -0.01928902
     atom    2 type  1   force =     0.00000000    0.03103958    0.01928902
     atom    3 type  1   force =     0.00000000   -0.03103958    0.01928902
     atom    4 type  1   force =     0.00000000    0.03103958   -0.01928902
     atom    5 type  1   force =     0.00000000    0.03597574   -0.00608873
     atom    6 type  1   force =     0.00000000   -0.03597574    0.00608873
     atom    7 type  1   force =     0.00000000    0.03597574    0.00608873
     atom    8 type  1   force =     0.00000000   -0.03597574   -0.00608873
     atom    9 type  2   force =     0.00000000   -0.06775957    0.03344729
     atom   10 type  2   force =     0.00000000    0.06775957   -0.03344729
     atom   11 type  2   force =     0.00000000   -0.06775957   -0.03344729
     atom   12 type  2   force =     0.00000000    0.06775957    0.03344729

     Total force =     0.183051     Total SCF correction =     0.000000

     entering subroutine stress ...

          total   stress  (Ry/bohr**3)                   (kbar)     P= 1191.79
   0.00859284   0.00000000   0.00000000       1264.05      0.00      0.00
   0.00000000   0.00780423   0.00000000          0.00   1148.04      0.00
   0.00000000   0.00000000   0.00790778          0.00      0.00   1163.27

     Writing output data file Prototype-La-oP12-Co2Si.save

     General routines

     Parallel routines

   This run was terminated on:  23: 3:33  22Mar2018

   JOB DONE.