     Program PWSCF v.5.0.2 starts on 22Mar2018 at 22:44:10

     Current dimensions of program PWSCF are:
     Max number of different atomic species (ntypx) = 10
     Max number of k-points (npk) =  40000
     Max angular momentum in pseudopotentials (lmaxx) =  3
     Waiting for input...
     Reading input from standard input

     Subspace diagonalization in iterative solution of the eigenvalue problem:
     a serial algorithm will be used

     bravais-lattice index     =            0
     lattice parameter (alat)  =       8.5346  a.u.
     unit-cell volume          =     621.6493 (a.u.)^3
     number of atoms/cell      =            8
     number of atomic types    =            2
     number of electrons       =       168.00
     number of Kohn-Sham states=          101
     kinetic-energy cutoff     =      40.0000  Ry
     charge density cutoff     =     160.0000  Ry
     convergence threshold     =      1.0E-04
     mixing beta               =       0.7000
     number of iterations used =            8  plain     mixing
     Exchange-correlation      = SLA-PZ-NOGX-NOGC ( 1 1 0 0 0)
     EXX-fraction              =        0.00
     nstep                     =           50

     celldm(1)=   8.534573  celldm(2)=   0.000000  celldm(3)=   0.000000
     celldm(4)=   0.000000  celldm(5)=   0.000000  celldm(6)=   0.000000

     crystal axes: (cart. coord. in units of alat)
               a(1) = (   1.000000   0.000000   0.000000 )
               a(2) = (   0.000000   1.000000   0.000000 )
               a(3) = (   0.000000   0.000000   1.000000 )

     reciprocal axes: (cart. coord. in units 2 pi/alat)
               b(1) = (  1.000000  0.000000  0.000000 )
               b(2) = (  0.000000  1.000000  0.000000 )
               b(3) = (  0.000000  0.000000  1.000000 )

     PseudoPot. # 1 for Er read from file:
     /home/cwx6513/pp.La/Er.UPF
     MD5 check sum: e152ae21b84514339d8526f066caf99b
     Pseudo is Norm-conserving, Zval = 22.0
     Generated in analytical, separable form
     Using radial grid of 1267 points,  6 beta functions with:
                l(1) =   0
                l(2) =   0
                l(3) =   1
                l(4) =   1
                l(5) =   2
                l(6) =   3

     PseudoPot. # 2 for Gd read from file:
     /home/cwx6513/pp.La/Gd.UPF
     MD5 check sum: 09a8be538722f05520810cb6aac0efd2
     Pseudo is Norm-conserving, Zval = 18.0
     Generated in analytical, separable form
     Using radial grid of 1263 points,  6 beta functions with:
                l(1) =   0
                l(2) =   0
                l(3) =   1
                l(4) =   1
                l(5) =   2
                l(6) =   3

     atomic species   valence    mass     pseudopotential
        Cr            22.00    51.99610     Er( 1.00)
        Si            18.00    28.08550     Gd( 1.00)

     48 Sym. Ops., with inversion, found (24 have fractional translation)

   Cartesian axes

     site n.     atom                  positions (alat units)
         1           Cr  tau(   1) = (   0.0000000   0.5000000   0.2500000  )
         2           Cr  tau(   2) = (   0.0000000   0.5000000   0.7500000  )
         3           Cr  tau(   3) = (   0.5000000   0.7500000   0.0000000  )
         4           Cr  tau(   4) = (   0.5000000   0.2500000   0.0000000  )
         5           Cr  tau(   5) = (   0.7500000   0.0000000   0.5000000  )
         6           Cr  tau(   6) = (   0.2500000   0.0000000   0.5000000  )
         7           Si  tau(   7) = (   0.5000000   0.5000000   0.5000000  )
         8           Si  tau(   8) = (   0.0000000   0.0000000   0.0000000  )

     number of k points=    48  gaussian smearing, width (Ry)=  0.1000
                       cart. coord. in units 2pi/alat
        k(    1) = (   0.0000000   0.0000000   0.0000000), wk =   0.0095238
        k(    2) = (   0.0000000   0.0000000   0.1428571), wk =   0.0190476
        k(    3) = (   0.0000000   0.0000000   0.2857143), wk =   0.0190476
        k(    4) = (   0.0000000   0.0000000   0.4285714), wk =   0.0190476
        k(    5) = (   0.0000000   0.1666667   0.0000000), wk =   0.0190476
        k(    6) = (   0.0000000   0.1666667   0.1428571), wk =   0.0380952
        k(    7) = (   0.0000000   0.1666667   0.2857143), wk =   0.0380952
        k(    8) = (   0.0000000   0.1666667   0.4285714), wk =   0.0380952
        k(    9) = (   0.0000000   0.3333333   0.0000000), wk =   0.0190476
        k(   10) = (   0.0000000   0.3333333   0.1428571), wk =   0.0380952
        k(   11) = (   0.0000000   0.3333333   0.2857143), wk =   0.0380952
        k(   12) = (   0.0000000   0.3333333   0.4285714), wk =   0.0380952
        k(   13) = (   0.0000000  -0.5000000   0.0000000), wk =   0.0095238
        k(   14) = (   0.0000000  -0.5000000   0.1428571), wk =   0.0190476
        k(   15) = (   0.0000000  -0.5000000   0.2857143), wk =   0.0190476
        k(   16) = (   0.0000000  -0.5000000   0.4285714), wk =   0.0190476
        k(   17) = (   0.2000000   0.0000000   0.0000000), wk =   0.0190476
        k(   18) = (   0.2000000   0.0000000   0.1428571), wk =   0.0380952
        k(   19) = (   0.2000000   0.0000000   0.2857143), wk =   0.0380952
        k(   20) = (   0.2000000   0.0000000   0.4285714), wk =   0.0380952
        k(   21) = (   0.2000000   0.1666667   0.0000000), wk =   0.0380952
        k(   22) = (   0.2000000   0.1666667   0.1428571), wk =   0.0761905
        k(   23) = (   0.2000000   0.1666667   0.2857143), wk =   0.0761905
        k(   24) = (   0.2000000   0.1666667   0.4285714), wk =   0.0761905
        k(   25) = (   0.2000000   0.3333333   0.0000000), wk =   0.0380952
        k(   26) = (   0.2000000   0.3333333   0.1428571), wk =   0.0761905
        k(   27) = (   0.2000000   0.3333333   0.2857143), wk =   0.0761905
        k(   28) = (   0.2000000   0.3333333   0.4285714), wk =   0.0761905
        k(   29) = (   0.2000000  -0.5000000   0.0000000), wk =   0.0190476
        k(   30) = (   0.2000000  -0.5000000   0.1428571), wk =   0.0380952
        k(   31) = (   0.2000000  -0.5000000   0.2857143), wk =   0.0380952
        k(   32) = (   0.2000000  -0.5000000   0.4285714), wk =   0.0380952
        k(   33) = (   0.4000000   0.0000000   0.0000000), wk =   0.0190476
        k(   34) = (   0.4000000   0.0000000   0.1428571), wk =   0.0380952
        k(   35) = (   0.4000000   0.0000000   0.2857143), wk =   0.0380952
        k(   36) = (   0.4000000   0.0000000   0.4285714), wk =   0.0380952
        k(   37) = (   0.4000000   0.1666667   0.0000000), wk =   0.0380952
        k(   38) = (   0.4000000   0.1666667   0.1428571), wk =   0.0761905
        k(   39) = (   0.4000000   0.1666667   0.2857143), wk =   0.0761905
        k(   40) = (   0.4000000   0.1666667   0.4285714), wk =   0.0761905
        k(   41) = (   0.4000000   0.3333333   0.0000000), wk =   0.0380952
        k(   42) = (   0.4000000   0.3333333   0.1428571), wk =   0.0761905
        k(   43) = (   0.4000000   0.3333333   0.2857143), wk =   0.0761905
        k(   44) = (   0.4000000   0.3333333   0.4285714), wk =   0.0761905
        k(   45) = (   0.4000000  -0.5000000   0.0000000), wk =   0.0190476
        k(   46) = (   0.4000000  -0.5000000   0.1428571), wk =   0.0380952
        k(   47) = (   0.4000000  -0.5000000   0.2857143), wk =   0.0380952
        k(   48) = (   0.4000000  -0.5000000   0.4285714), wk =   0.0380952

     Largest allocated arrays     est. size (Mb)     dimensions
     Largest temporary arrays     est. size (Mb)     dimensions

     Initial potential from superposition of free atoms

     Starting from uniform charge
     Starting wfc are    0 randomized atomic wfcs

     Self-consistent Calculation

     iteration #  1     ecut=    40.00 Ry     beta=0.70
     CG style diagonalization
     c_bands:  4 eigenvalues not converged
     c_bands:  3 eigenvalues not converged
     c_bands:  2 eigenvalues not converged
     c_bands:  1 eigenvalues not converged
     c_bands:  5 eigenvalues not converged
     c_bands:  4 eigenvalues not converged
     c_bands:  2 eigenvalues not converged
     c_bands:  4 eigenvalues not converged
     c_bands:  3 eigenvalues not converged
     c_bands:  2 eigenvalues not converged
     c_bands:  5 eigenvalues not converged
     c_bands:  2 eigenvalues not converged
     c_bands:  3 eigenvalues not converged
     c_bands:  4 eigenvalues not converged
     c_bands:  2 eigenvalues not converged
     c_bands:  1 eigenvalues not converged
     c_bands:  1 eigenvalues not converged
     c_bands:  1 eigenvalues not converged
     c_bands:  3 eigenvalues not converged
     c_bands:  3 eigenvalues not converged
     c_bands:  1 eigenvalues not converged
     c_bands:  2 eigenvalues not converged
     c_bands:  1 eigenvalues not converged
     c_bands:  2 eigenvalues not converged
     c_bands:  3 eigenvalues not converged
     c_bands:  2 eigenvalues not converged
     c_bands:  2 eigenvalues not converged
     c_bands:  2 eigenvalues not converged
     c_bands:  1 eigenvalues not converged
     c_bands:  5 eigenvalues not converged
     c_bands:  3 eigenvalues not converged
     ethr =  1.00E-02,  avg # of iterations = 13.3

     total energy              =   -2026.84669782 Ry
     Harris-Foulkes estimate   =   -2740.61806546 Ry
     estimated scf accuracy    <     893.67560183 Ry

[...]

     iteration #  4     ecut=    40.00 Ry     beta=0.70
     CG style diagonalization
     ethr =  1.00E-02,  avg # of iterations =  4.4

[...]

     End of self-consistent calculation

          k = 0.0000 0.0000 0.0000 (  2601 PWs)   bands (ev):

   -52.9325 -52.9325 -52.8710 -52.4811 -52.4811 -52.4811 -21.5005 -21.4535
   -16.7769 -16.7769 -16.5719 -15.2227 -15.2227 -15.2227 -14.7595 -14.7595
   -14.7595 -14.6786 -14.6786 -14.6786 -14.5637 -14.5637 -14.5637 -14.1180
   -14.1180 -14.1180   6.8430   6.8430   6.8430   6.8646   6.8646   6.8646
    25.5396  25.5396  25.6305  26.9423  26.9423  26.9423  28.9432  29.3039
    29.3039  29.3039  29.9114  29.9114  29.9371  29.9371  29.9371  29.9579
    30.0875  32.1484  32.1484  32.1484  33.3745  33.3745  33.4329  33.4329
    33.4329  33.4433  33.4433  33.4433  33.9984  33.9984  33.9984  36.2205
    36.2205  40.5356  40.5356  40.5356  40.7583  40.7583  41.3899  41.3899
    41.3899  42.8423  42.8423  42.8423  47.6741  48.8962  48.8962  50.0998
    50.0998  50.0998  51.6655  51.9637  51.9637  51.9637  53.1323  53.1323
    55.2666  55.2666  55.2666  55.2796  55.2796  55.2796  55.5176  55.5176
    55.5176  56.1003  56.6729  56.6730  56.6730

[...]

     the Fermi energy is    52.6443 ev

!    total energy              =   -2368.11389970 Ry
     Harris-Foulkes estimate   =   -2368.11395839 Ry
     estimated scf accuracy    <       0.00005487 Ry

     The total energy is the sum of the following terms:

     one-electron contribution =       6.29270229 Ry
     hartree contribution      =     233.78224998 Ry
     xc contribution           =    -217.15638513 Ry
     ewald contribution        =   -2390.75738172 Ry
     smearing contrib. (-TS)   =      -0.27508512 Ry

     convergence has been achieved in   9 iterations

     Forces acting on atoms (Ry/au):

[...]
   0.00000000   0.00000000  -0.01342387          0.00      0.00  -1974.72

     number of scf cycles    =   3
     number of bfgs steps    =   2

     enthalpy old            =   -2372.2381958799 Ry
     enthalpy new            =   -2369.6218953508 Ry

     CASE: enthalpy_new > enthalpy_old

     new trust radius        =       0.2037228119 bohr

     trust_radius < trust_radius_min

     resetting bfgs history

     Message from routine bfgs:
     history already reset at previous step: stopping
     new conv_thr            =       0.0000010000 Ry

     new unit-cell volume =   1046.33993 a.u.^3 (   155.05158 Ang^3 )

[...]

ATOMIC_POSITIONS (crystal)
Cr       0.000000000   0.500000000   0.250000000
Cr       0.000000000   0.500000000   0.750000000
Cr       0.500000000   0.750000000   0.000000000
Cr       0.500000000   0.250000000   0.000000000
Cr       0.750000000   0.000000000   0.500000000
Cr       0.250000000   0.000000000   0.500000000
Si       0.500000000   0.500000000   0.500000000
Si       0.000000000   0.000000000   0.000000000

     Writing output data file Prototype-La-cP8-Cr3Si.save
     NEW-OLD atomic charge density approx. for the potential
     NEW k-points:
        k(    1) = (   0.0000000   0.0000000   0.0000000), wk =   0.0095238
        k(    2) = (   0.0000000   0.0000000   0.1200953), wk =   0.0190476
        k(    3) = (   0.0000000   0.0000000   0.2401907), wk =   0.0190476
        k(    4) = (   0.0000000   0.0000000   0.3602860), wk =   0.0190476
        k(    5) = (   0.0000000   0.1401112   0.0000000), wk =   0.0190476
        k(    6) = (   0.0000000   0.1401112   0.1200953), wk =   0.0380952
        k(    7) = (   0.0000000   0.1401112   0.2401907), wk =   0.0380952
        k(    8) = (   0.0000000   0.1401112   0.3602860), wk =   0.0380952
        k(    9) = (   0.0000000   0.2802225   0.0000000), wk =   0.0190476
        k(   10) = (   0.0000000   0.2802225   0.1200953), wk =   0.0380952
        k(   11) = (   0.0000000   0.2802225   0.2401907), wk =   0.0380952
        k(   12) = (   0.0000000   0.2802225   0.3602860), wk =   0.0380952
        k(   13) = (   0.0000000  -0.4203337   0.0000000), wk =   0.0095238
        k(   14) = (   0.0000000  -0.4203337   0.1200953), wk =   0.0190476
        k(   15) = (   0.0000000  -0.4203337   0.2401907), wk =   0.0190476
        k(   16) = (   0.0000000  -0.4203337   0.3602860), wk =   0.0190476
        k(   17) = (   0.1681335   0.0000000   0.0000000), wk =   0.0190476
        k(   18) = (   0.1681335   0.0000000   0.1200953), wk =   0.0380952
        k(   19) = (   0.1681335   0.0000000   0.2401907), wk =   0.0380952
        k(   20) = (   0.1681335   0.0000000   0.3602860), wk =   0.0380952
        k(   21) = (   0.1681335   0.1401112   0.0000000), wk =   0.0380952
        k(   22) = (   0.1681335   0.1401112   0.1200953), wk =   0.0761905
        k(   23) = (   0.1681335   0.1401112   0.2401907), wk =   0.0761905
        k(   24) = (   0.1681335   0.1401112   0.3602860), wk =   0.0761905
        k(   25) = (   0.1681335   0.2802225   0.0000000), wk =   0.0380952
        k(   26) = (   0.1681335   0.2802225   0.1200953), wk =   0.0761905
        k(   27) = (   0.1681335   0.2802225   0.2401907), wk =   0.0761905
        k(   28) = (   0.1681335   0.2802225   0.3602860), wk =   0.0761905
        k(   29) = (   0.1681335  -0.4203337   0.0000000), wk =   0.0190476
        k(   30) = (   0.1681335  -0.4203337   0.1200953), wk =   0.0380952
        k(   31) = (   0.1681335  -0.4203337   0.2401907), wk =   0.0380952
        k(   32) = (   0.1681335  -0.4203337   0.3602860), wk =   0.0380952
        k(   33) = (   0.3362670   0.0000000   0.0000000), wk =   0.0190476
        k(   34) = (   0.3362670   0.0000000   0.1200953), wk =   0.0380952
        k(   35) = (   0.3362670   0.0000000   0.2401907), wk =   0.0380952
        k(   36) = (   0.3362670   0.0000000   0.3602860), wk =   0.0380952
        k(   37) = (   0.3362670   0.1401112   0.0000000), wk =   0.0380952
        k(   38) = (   0.3362670   0.1401112   0.1200953), wk =   0.0761905
        k(   39) = (   0.3362670   0.1401112   0.2401907), wk =   0.0761905
        k(   40) = (   0.3362670   0.1401112   0.3602860), wk =   0.0761905
        k(   41) = (   0.3362670   0.2802225   0.0000000), wk =   0.0380952
        k(   42) = (   0.3362670   0.2802225   0.1200953), wk =   0.0761905
        k(   43) = (   0.3362670   0.2802225   0.2401907), wk =   0.0761905
        k(   44) = (   0.3362670   0.2802225   0.3602860), wk =   0.0761905
        k(   45) = (   0.3362670  -0.4203337   0.0000000), wk =   0.0190476
        k(   46) = (   0.3362670  -0.4203337   0.1200953), wk =   0.0380952
        k(   47) = (   0.3362670  -0.4203337   0.2401907), wk =   0.0380952
        k(   48) = (   0.3362670  -0.4203337   0.3602860), wk =   0.0380952

[...]

          total   stress  (Ry/bohr**3)                   (kbar)     P=-1132.10
  -0.00769589   0.00000000   0.00000000      -1132.10      0.00      0.00
   0.00000000  -0.00769589   0.00000000          0.00  -1132.10      0.00
   0.00000000   0.00000000  -0.00769589          0.00      0.00  -1132.10

     The maximum number of steps has been reached.

     End of BFGS Geometry Optimization
Begin final coordinates
     new unit-cell volume =   1046.33993 a.u.^3 (   155.05158 Ang^3 )

CELL_PARAMETERS (alat=  8.53457320)
   1.189531078   0.000000000   0.000000000
   0.000000000   1.189531078   0.000000000
   0.000000000   0.000000000   1.189531078

ATOMIC_POSITIONS (crystal)
Cr       0.000000000   0.500000000   0.250000000
Cr       0.000000000   0.500000000   0.750000000
Cr       0.500000000   0.750000000   0.000000000
Cr       0.500000000   0.250000000   0.000000000
Cr       0.750000000   0.000000000   0.500000000
Cr       0.250000000   0.000000000   0.500000000
Si       0.500000000   0.500000000   0.500000000
Si       0.000000000   0.000000000   0.000000000
End final coordinates

     A final scf calculation at the relaxed structure.
     The G-vectors are recalculated for the final unit cell
     Results may differ from those at the preceding step.

     bravais-lattice index     =            0
     lattice parameter (alat)  =       8.5346  a.u.
     unit-cell volume          =    1046.3399 (a.u.)^3
     number of atoms/cell      =            8
     number of atomic types    =            2
     number of electrons       =       168.00
     number of Kohn-Sham states=          101
     kinetic-energy cutoff     =      40.0000  Ry
     charge density cutoff     =     160.0000  Ry
     convergence threshold     =      1.0E-06
     mixing beta               =       0.7000
     number of iterations used =            8  plain     mixing
     Exchange-correlation      = SLA-PZ-NOGX-NOGC ( 1 1 0 0 0)
     EXX-fraction              =        0.00

     celldm(1)=   8.534573  celldm(2)=   0.000000  celldm(3)=   0.000000
     celldm(4)=   0.000000  celldm(5)=   0.000000  celldm(6)=   0.000000

     crystal axes: (cart. coord. in units of alat)
               a(1) = (   1.189531   0.000000   0.000000 )
               a(2) = (   0.000000   1.189531   0.000000 )
               a(3) = (   0.000000   0.000000   1.189531 )

     reciprocal axes: (cart. coord. in units 2 pi/alat)
               b(1) = (  0.840667  0.000000  0.000000 )
               b(2) = (  0.000000  0.840667  0.000000 )
               b(3) = (  0.000000  0.000000  0.840667 )

     PseudoPot. # 1 for Er read from file:
     /home/cwx6513/pp.La/Er.UPF
     MD5 check sum: e152ae21b84514339d8526f066caf99b
     Pseudo is Norm-conserving, Zval = 22.0
     Generated in analytical, separable form
     Using radial grid of 1267 points,  6 beta functions with:
                l(1) =   0
                l(2) =   0
                l(3) =   1
                l(4) =   1
                l(5) =   2
                l(6) =   3

     PseudoPot. # 2 for Gd read from file:
     /home/cwx6513/pp.La/Gd.UPF
     MD5 check sum: 09a8be538722f05520810cb6aac0efd2
     Pseudo is Norm-conserving, Zval = 18.0
     Generated in analytical, separable form
     Using radial grid of 1263 points,  6 beta functions with:
                l(1) =   0
                l(2) =   0
                l(3) =   1
                l(4) =   1
                l(5) =   2
                l(6) =   3

     atomic species   valence    mass     pseudopotential
        Cr            22.00    51.99610     Er( 1.00)
        Si            18.00    28.08550     Gd( 1.00)

     48 Sym. Ops., with inversion, found (24 have fractional translation)

   Cartesian axes

     site n.     atom                  positions (alat units)
         1           Cr  tau(   1) = (   0.0000000   0.5947655   0.2973828  )
         2           Cr  tau(   2) = (   0.0000000   0.5947655   0.8921483  )
         3           Cr  tau(   3) = (   0.5947655   0.8921483   0.0000000  )
         4           Cr  tau(   4) = (   0.5947655   0.2973828   0.0000000  )
         5           Cr  tau(   5) = (   0.8921483   0.0000000   0.5947655  )
         6           Cr  tau(   6) = (   0.2973828   0.0000000   0.5947655  )
         7           Si  tau(   7) = (   0.5947655   0.5947655   0.5947655  )
         8           Si  tau(   8) = (   0.0000000   0.0000000   0.0000000  )

     number of k points=    48  gaussian smearing, width (Ry)=  0.1000
                       cart. coord. in units 2pi/alat
        k(    1) = (   0.0000000   0.0000000   0.0000000), wk =   0.0095238
        k(    2) = (   0.0000000   0.0000000   0.1200953), wk =   0.0190476
        k(    3) = (   0.0000000   0.0000000   0.2401907), wk =   0.0190476
        k(    4) = (   0.0000000   0.0000000   0.3602860), wk =   0.0190476
        k(    5) = (   0.0000000   0.1401112   0.0000000), wk =   0.0190476
        k(    6) = (   0.0000000   0.1401112   0.1200953), wk =   0.0380952
        k(    7) = (   0.0000000   0.1401112   0.2401907), wk =   0.0380952
        k(    8) = (   0.0000000   0.1401112   0.3602860), wk =   0.0380952
        k(    9) = (   0.0000000   0.2802225   0.0000000), wk =   0.0190476
        k(   10) = (   0.0000000   0.2802225   0.1200953), wk =   0.0380952
        k(   11) = (   0.0000000   0.2802225   0.2401907), wk =   0.0380952
        k(   12) = (   0.0000000   0.2802225   0.3602860), wk =   0.0380952
        k(   13) = (   0.0000000  -0.4203337   0.0000000), wk =   0.0095238
        k(   14) = (   0.0000000  -0.4203337   0.1200953), wk =   0.0190476
        k(   15) = (   0.0000000  -0.4203337   0.2401907), wk =   0.0190476
        k(   16) = (   0.0000000  -0.4203337   0.3602860), wk =   0.0190476
        k(   17) = (   0.1681335   0.0000000   0.0000000), wk =   0.0190476
        k(   18) = (   0.1681335   0.0000000   0.1200953), wk =   0.0380952
        k(   19) = (   0.1681335   0.0000000   0.2401907), wk =   0.0380952
        k(   20) = (   0.1681335   0.0000000   0.3602860), wk =   0.0380952
        k(   21) = (   0.1681335   0.1401112   0.0000000), wk =   0.0380952
        k(   22) = (   0.1681335   0.1401112   0.1200953), wk =   0.0761905
        k(   23) = (   0.1681335   0.1401112   0.2401907), wk =   0.0761905
        k(   24) = (   0.1681335   0.1401112   0.3602860), wk =   0.0761905
        k(   25) = (   0.1681335   0.2802225   0.0000000), wk =   0.0380952
        k(   26) = (   0.1681335   0.2802225   0.1200953), wk =   0.0761905
        k(   27) = (   0.1681335   0.2802225   0.2401907), wk =   0.0761905
        k(   28) = (   0.1681335   0.2802225   0.3602860), wk =   0.0761905
        k(   29) = (   0.1681335  -0.4203337   0.0000000), wk =   0.0190476
        k(   30) = (   0.1681335  -0.4203337   0.1200953), wk =   0.0380952
        k(   31) = (   0.1681335  -0.4203337   0.2401907), wk =   0.0380952
        k(   32) = (   0.1681335  -0.4203337   0.3602860), wk =   0.0380952
        k(   33) = (   0.3362670   0.0000000   0.0000000), wk =   0.0190476
        k(   34) = (   0.3362670   0.0000000   0.1200953), wk =   0.0380952
        k(   35) = (   0.3362670   0.0000000   0.2401907), wk =   0.0380952
        k(   36) = (   0.3362670   0.0000000   0.3602860), wk =   0.0380952
        k(   37) = (   0.3362670   0.1401112   0.0000000), wk =   0.0380952
        k(   38) = (   0.3362670   0.1401112   0.1200953), wk =   0.0761905
        k(   39) = (   0.3362670   0.1401112   0.2401907), wk =   0.0761905
        k(   40) = (   0.3362670   0.1401112   0.3602860), wk =   0.0761905
        k(   41) = (   0.3362670   0.2802225   0.0000000), wk =   0.0380952
        k(   42) = (   0.3362670   0.2802225   0.1200953), wk =   0.0761905
        k(   43) = (   0.3362670   0.2802225   0.2401907), wk =   0.0761905
        k(   44) = (   0.3362670   0.2802225   0.3602860), wk =   0.0761905
        k(   45) = (   0.3362670  -0.4203337   0.0000000), wk =   0.0190476
        k(   46) = (   0.3362670  -0.4203337   0.1200953), wk =   0.0380952
        k(   47) = (   0.3362670  -0.4203337   0.2401907), wk =   0.0380952
        k(   48) = (   0.3362670  -0.4203337   0.3602860), wk =   0.0380952

     Largest allocated arrays     est. size (Mb)     dimensions
     Largest temporary arrays     est. size (Mb)     dimensions

     Initial potential from superposition of free atoms

     Starting from uniform charge
     Starting wfc are    0 randomized atomic wfcs

     Writing output data file Prototype-La-cP8-Cr3Si.save

     Self-consistent Calculation

[...]

     iteration #  9     ecut=    40.00 Ry     beta=0.70
     CG style diagonalization
     c_bands:  1 eigenvalues not converged
     ethr =  8.29E-07,  avg # of iterations =  3.4

[...]

     total energy              =   -2377.44795851 Ry
     Harris-Foulkes estimate   =   -2377.44796136 Ry
     estimated scf accuracy    <       0.00000437 Ry

     iteration # 11     ecut=    40.00 Ry     beta=0.70
     CG style diagonalization
     ethr =  2.60E-09,  avg # of iterations =  4.8

     End of self-consistent calculation

[...]

          k = 0.3363-0.4203 0.3603 (  4488 PWs)   bands (ev):

   -72.6984 -72.6983 -72.6945 -72.6931 -72.6880 -72.6862 -40.2573 -40.2572
   -34.8677 -34.8524 -34.8045 -34.8044 -34.7470 -34.7283 -34.6196 -34.6194
   -34.6130 -34.6112 -34.6081 -34.6038 -34.6026 -34.6026 -34.6000 -34.5950
   -34.5883 -34.5877 -11.3558 -11.3558 -11.3541 -11.3539 -11.3520 -11.3519
    11.0680  11.2106  11.4868  11.4900  11.5345  11.5350  11.5487  11.5653
    11.6837  11.7005  11.7750  11.7992  11.8446  11.8508  11.9261  11.9317
    12.1822  12.1824  12.2740  12.2855  12.2963  12.3193  12.3950  12.4667
    12.5594  12.5838  12.6226  12.6356  12.6528  12.6569  18.1884  18.2012
    18.8762  18.8837  19.3860  19.3915  22.2708  22.2710  23.3693  23.3719
    23.3875  23.3904  24.1271  24.1871  24.3801  24.4001  24.5721  24.6001
    29.4935  29.7464  30.5110  30.5745  31.5370  31.9415  32.6397  32.7331
    32.9850  33.0483  33.3045  33.3489  33.5815  33.6481  34.2794  34.3332
    34.4141  34.4192  35.0319  35.0404  35.4867

     the Fermi energy is    29.6089 ev

!    total energy              =   -2377.44796271 Ry
     Harris-Foulkes estimate   =   -2377.44796314 Ry
     estimated scf accuracy    <       0.00000054 Ry

     The total energy is the sum of the following terms:

     one-electron contribution =    -542.47699300 Ry
     hartree contribution      =     383.74037557 Ry
     xc contribution           =    -208.66100062 Ry
     ewald contribution        =   -2009.83179558 Ry
     smearing contrib. (-TS)   =      -0.21854907 Ry

     convergence has been achieved in  11 iterations

     Forces acting on atoms (Ry/au):

     atom    1 type  1   force =     0.00000000    0.00000000    0.00000000
     atom    2 type  1   force =     0.00000000    0.00000000    0.00000000
     atom    3 type  1   force =     0.00000000    0.00000000    0.00000000
     atom    4 type  1   force =     0.00000000    0.00000000    0.00000000
     atom    5 type  1   force =     0.00000000    0.00000000    0.00000000
     atom    6 type  1   force =     0.00000000    0.00000000    0.00000000
     atom    7 type  2   force =     0.00000000    0.00000000    0.00000000
     atom    8 type  2   force =     0.00000000    0.00000000    0.00000000

     Total force =     0.000000     Total SCF correction =     0.000000

     entering subroutine stress ...

          total   stress  (Ry/bohr**3)                   (kbar)     P=  199.99
   0.00135952   0.00000000   0.00000000        199.99      0.00      0.00
   0.00000000   0.00135952   0.00000000          0.00    199.99      0.00
   0.00000000   0.00000000   0.00135952          0.00      0.00    199.99

     Writing output data file Prototype-La-cP8-Cr3Si.save

     General routines

     Parallel routines

   This run was terminated on:  23:22:30  22Mar2018

   JOB DONE.