     Program PWSCF v.5.0.2 starts on 21Mar2018 at 22:59: 7

     Current dimensions of program PWSCF are:
     Max number of different atomic species (ntypx) = 10
     Max number of k-points (npk) =  40000
     Max angular momentum in pseudopotentials (lmaxx) =  3
     Waiting for input...
     Reading input from standard input

     bravais-lattice index     =            0
     lattice parameter (alat)  =      16.6588  a.u.
     unit-cell volume          =     639.2266 (a.u.)^3
     number of atoms/cell      =            3
     number of atomic types    =            1
     number of electrons       =        60.00
     number of Kohn-Sham states=           36
     kinetic-energy cutoff     =      40.0000  Ry
     charge density cutoff     =     160.0000  Ry
     convergence threshold     =      1.0E-04
     mixing beta               =       0.7000
     number of iterations used =            8  plain     mixing
     Exchange-correlation      = SLA-PZ-NOGX-NOGC ( 1 1 0 0 0)
     EXX-fraction              =        0.00
     nstep                     =           50

     celldm(1)=  16.658777  celldm(2)=   0.000000  celldm(3)=   0.000000
     celldm(4)=   0.000000  celldm(5)=   0.000000  celldm(6)=   0.000000

     crystal axes: (cart. coord. in units of alat)
               a(1) = (   1.000000   0.000000   0.000000 )
               a(2) = (   0.917891   0.396832   0.000000 )
               a(3) = (   0.917891   0.189921   0.348433 )

     reciprocal axes: (cart. coord. in units 2 pi/alat)
               b(1) = (  1.000000 -2.313049 -1.373562 )
               b(2) = (  0.000000  2.519959 -1.373562 )
               b(3) = (  0.000000  0.000000  2.869994 )

     PseudoPot. # 1 for Dy read from file:
     /home/cwx6513/pp.La/Dy.UPF
     MD5 check sum: 9597327bec62616a94a14d07f3fd9936
     Pseudo is Norm-conserving, Zval = 20.0
     Generated in analytical, separable form
     Using radial grid of 1265 points,  6 beta functions with:
                l(1) =   0
                l(2) =   0
                l(3) =   1
                l(4) =   1
                l(5) =   2
                l(6) =   3

     atomic species   valence    mass     pseudopotential
        Dy            20.00   162.50000     Dy( 1.00)

      2 Sym. Ops., with inversion, found

   Cartesian axes

     site n.     atom                  positions (alat units)
         1           Dy  tau(   1) = (   0.0000000   0.0000000   0.0000000  )
         2           Dy  tau(   2) = (   0.6296884   0.1302891   0.0773698  )
         3           Dy  tau(   3) = (   2.2060943   0.4564641   0.2710629  )

     number of k points=   362  gaussian smearing, width (Ry)=  0.1000

     Number of k-points >= 100: set verbosity='high' to print them.

     Largest allocated arrays     est. size (Mb)     dimensions
     Largest temporary arrays     est. size (Mb)     dimensions

     Initial potential from superposition of free atoms

     Starting from uniform charge
     Starting wfc are    0 randomized atomic wfcs

     Self-consistent Calculation

     iteration #  1     ecut=    40.00 Ry     beta=0.70
     CG style diagonalization
     c_bands:  4 eigenvalues not converged
     c_bands:  4 eigenvalues not converged
     c_bands:  5 eigenvalues not converged
     c_bands:  3 eigenvalues not converged
     c_bands:  5 eigenvalues not converged
     c_bands:  5 eigenvalues not converged
     c_bands:  5 eigenvalues not converged
     c_bands:  5 eigenvalues not converged
     c_bands:  5 eigenvalues not converged
     c_bands:  5 eigenvalues not converged
     c_bands:  3 eigenvalues not converged
     c_bands:  5 eigenvalues not converged
     c_bands:  5 eigenvalues not converged
     c_bands:  4 eigenvalues not converged
     c_bands:  2 eigenvalues not converged
     c_bands:  4 eigenvalues not converged
     c_bands:  5 eigenvalues not converged
     c_bands:  5 eigenvalues not converged
     c_bands:  5 eigenvalues not converged
     c_bands:  5 eigenvalues not converged
     c_bands:  5 eigenvalues not converged
     c_bands:  5 eigenvalues not converged
     c_bands:  4 eigenvalues not converged
     c_bands:  5 eigenvalues not converged
     c_bands:  3 eigenvalues not converged
     c_bands:  2 eigenvalues not converged
     c_bands:  3 eigenvalues not converged
     c_bands:  4 eigenvalues not converged
     c_bands:  3 eigenvalues not converged
     c_bands:  5 eigenvalues not converged
     c_bands:  5 eigenvalues not converged
     c_bands:  4 eigenvalues not converged
     c_bands:  5 eigenvalues not converged
     c_bands:  4 eigenvalues not converged
     c_bands:  4 eigenvalues not converged
     c_bands:  3 eigenvalues not converged
     c_bands:  5 eigenvalues not converged
     c_bands:  4 eigenvalues not converged
     c_bands:  3 eigenvalues not converged
     c_bands:  2 eigenvalues not converged
     c_bands:  4 eigenvalues not converged
     c_bands:  4 eigenvalues not converged
     c_bands:  5 eigenvalues not converged
     c_bands:  5 eigenvalues not converged
     c_bands:  5 eigenvalues not converged
     c_bands:  5 eigenvalues not converged
     c_bands:  5 eigenvalues not converged
     c_bands:  5 eigenvalues not converged
     c_bands:  4 eigenvalues not converged
     c_bands:  5 eigenvalues not converged
     c_bands:  4 eigenvalues not converged
     c_bands:  5 eigenvalues not converged
     c_bands:  3 eigenvalues not converged
     c_bands:  3 eigenvalues not converged
     c_bands:  4 eigenvalues not converged
     c_bands:  3 eigenvalues not converged
     c_bands:  4 eigenvalues not converged
     c_bands:  5 eigenvalues not converged
     c_bands:  5 eigenvalues not converged
     c_bands:  4 eigenvalues not converged
     c_bands:  5 eigenvalues not converged
     c_bands:  3 eigenvalues not converged
     c_bands:  5 eigenvalues not converged
     c_bands:  5 eigenvalues not converged
     c_bands:  5 eigenvalues not converged
     c_bands:  5 eigenvalues not converged
     c_bands:  5 eigenvalues not converged
     ethr =  1.00E-02,  avg # of iterations = 15.5

     total energy              =    -702.43233759 Ry
     Harris-Foulkes estimate   =   -1022.26126457 Ry
     estimated scf accuracy    <     408.05891689 Ry

[...]

     iteration #  3     ecut=    40.00 Ry     beta=0.70
     CG style diagonalization
     ethr =  1.00E-02,  avg # of iterations =  5.6

[...]

     End of self-consistent calculation

     Number of k-points >= 100: set verbosity='high' to print the bands.

     the Fermi energy is    14.5138 ev

!    total energy              =    -781.87016945 Ry
     Harris-Foulkes estimate   =    -781.87019829 Ry
     estimated scf accuracy    <       0.00003190 Ry

     The total energy is the sum of the following terms:

     one-electron contribution =    -300.33460440 Ry
     hartree contribution      =     169.64300659 Ry
     xc contribution           =     -70.86164061 Ry
     ewald contribution        =    -580.23109909 Ry
     smearing contrib. (-TS)   =      -0.08583194 Ry

     convergence has been achieved in  11 iterations

     Forces acting on atoms (Ry/au):

     atom    1 type  1   force =     0.00000000    0.00000000    0.00000000
     atom    2 type  1   force =     0.03726879    0.00766218    0.00451953
     atom    3 type  1   force =    -0.03726879   -0.00766218   -0.00451953

     Total force =     0.054187     Total SCF correction =     0.000000

     entering subroutine stress ...

          total   stress  (Ry/bohr**3)                   (kbar)     P= -430.46
  -0.00291167   0.00000443   0.00000288       -428.32      0.65      0.42
   0.00000443  -0.00293388   0.00000068          0.65   -431.59      0.10
   0.00000288   0.00000068  -0.00293300          0.42      0.10   -431.46

     BFGS Geometry Optimization

     number of scf cycles    =   1
     number of bfgs steps    =   0

     enthalpy new            =    -781.8701694498 Ry

     new trust radius        =       0.3708855354 bohr
     new conv_thr            =       0.0001000000 Ry

     new unit-cell volume =    508.95198 a.u.^3 (    75.41890 Ang^3 )

CELL_PARAMETERS (alat= 16.65877721)
   0.927208293   0.000110817   0.000071941
   0.851120429   0.367827156   0.000072782
   0.851122566   0.176098840   0.322953226

ATOMIC_POSITIONS (crystal)
Dy       0.000000000   0.000000000   0.000000000
Dy       0.222851656   0.222837404   0.222829630
Dy       0.777148344   0.777162596   0.777170370

     Writing output data file Element-Dy.q.save
     NEW-OLD atomic charge density approx. for the potential
     NEW k-points: (use verbosity='high' to print them)

[...]

     enthalpy old            =    -781.8701694498 Ry
     enthalpy new            =    -782.1362564154 Ry

     CASE: enthalpy_new < enthalpy_old

     small trust_radius: resetting bfgs history

[...]

     number of scf cycles    =   3
     number of bfgs steps    =   2

     enthalpy old            =    -782.1362564154 Ry
     enthalpy new            =    -782.1519137192 Ry

     CASE: enthalpy_new < enthalpy_old

     Message from routine bfgs:
     history already reset at previous step: stopping
     small trust_radius: resetting bfgs history

     new trust radius        =       0.0493010952 bohr
     new conv_thr            =       0.0000479231 Ry

     new unit-cell volume =    475.53088 a.u.^3 (    70.46641 Ang^3 )

[...]

ATOMIC_POSITIONS (crystal)
Dy       0.000000000   0.000000000   0.000000000
Dy       0.222309677   0.222291042   0.222324551
Dy       0.777690323   0.777708958   0.777675449

     Writing output data file Element-Dy.q.save
     NEW-OLD atomic charge density approx. for the potential
     NEW k-points: (use verbosity='high' to print them)

[...]

     The maximum number of steps has been reached.

     End of BFGS Geometry Optimization
Begin final coordinates
     new unit-cell volume =    475.53088 a.u.^3 (    70.46641 Ang^3 )

CELL_PARAMETERS (alat= 16.65877721)
   0.908175732   0.000643935   0.000390594
   0.833862154   0.359755560   0.000401077
   0.833865024   0.172522412   0.315724199

ATOMIC_POSITIONS (crystal)
Dy       0.000000000   0.000000000   0.000000000
Dy       0.222309677   0.222291042   0.222324551
Dy       0.777690323   0.777708958   0.777675449
End final coordinates

     A final scf calculation at the relaxed structure.
     The G-vectors are recalculated for the final unit cell
     Results may differ from those at the preceding step.

     bravais-lattice index     =            0
     lattice parameter (alat)  =      16.6588  a.u.
     unit-cell volume          =     475.5309 (a.u.)^3
     number of atoms/cell      =            3
     number of atomic types    =            1
     number of electrons       =        60.00
     number of Kohn-Sham states=           36
     kinetic-energy cutoff     =      40.0000  Ry
     charge density cutoff     =     160.0000  Ry
     convergence threshold     =      4.8E-05
     mixing beta               =       0.7000
     number of iterations used =            8  plain     mixing
     Exchange-correlation      = SLA-PZ-NOGX-NOGC ( 1 1 0 0 0)
     EXX-fraction              =        0.00

     celldm(1)=  16.658777  celldm(2)=   0.000000  celldm(3)=   0.000000
     celldm(4)=   0.000000  celldm(5)=   0.000000  celldm(6)=   0.000000

     crystal axes: (cart. coord. in units of alat)
               a(1) = (   0.908176   0.000644   0.000391 )
               a(2) = (   0.833862   0.359756   0.000401 )
               a(3) = (   0.833865   0.172522   0.315724 )

     reciprocal axes: (cart. coord. in units 2 pi/alat)
               b(1) = (  1.103574 -2.556235 -1.517856 )
               b(2) = ( -0.001321  2.784420 -1.518012 )
               b(3) = ( -0.001364 -0.000375  3.171128 )

     PseudoPot. # 1 for Dy read from file:
     /home/cwx6513/pp.La/Dy.UPF
     MD5 check sum: 9597327bec62616a94a14d07f3fd9936
     Pseudo is Norm-conserving, Zval = 20.0
     Generated in analytical, separable form
     Using radial grid of 1265 points,  6 beta functions with:
                l(1) =   0
                l(2) =   0
                l(3) =   1
                l(4) =   1
                l(5) =   2
                l(6) =   3

     atomic species   valence    mass     pseudopotential
        Dy            20.00   162.50000     Dy( 1.00)

      2 Sym. Ops., with inversion, found

   Cartesian axes

     site n.     atom                  positions (alat units)
         1           Dy  tau(   1) = (   0.0000000   0.0000000   0.0000000  )
         2           Dy  tau(   2) = (   0.5726450   0.1184696   0.0703692  )
         3           Dy  tau(   3) = (   2.0032579   0.4144523   0.2461466  )

     number of k points=   362  gaussian smearing, width (Ry)=  0.1000

     Number of k-points >= 100: set verbosity='high' to print them.

     Largest allocated arrays     est. size (Mb)     dimensions
     Largest temporary arrays     est. size (Mb)     dimensions

     Initial potential from superposition of free atoms

     Starting from uniform charge
     Starting wfc are    0 randomized atomic wfcs

     Writing output data file Element-Dy.q.save

     Self-consistent Calculation

[...]

     iteration # 10     ecut=    40.00 Ry     beta=0.70
     CG style diagonalization
     c_bands:  1 eigenvalues not converged
     c_bands:  1 eigenvalues not converged
     c_bands:  1 eigenvalues not converged
     c_bands:  1 eigenvalues not converged
     c_bands:  1 eigenvalues not converged
     c_bands:  1 eigenvalues not converged
     c_bands:  1 eigenvalues not converged
     c_bands:  1 eigenvalues not converged
     c_bands:  1 eigenvalues not converged
     c_bands:  1 eigenvalues not converged
     c_bands:  1 eigenvalues not converged
     ethr =  2.24E-06,  avg # of iterations =  4.1

[...]

     total energy              =    -781.80709291 Ry
     Harris-Foulkes estimate   =    -781.80710864 Ry
     estimated scf accuracy    <       0.00004927 Ry

     iteration # 12     ecut=    40.00 Ry     beta=0.70
     CG style diagonalization
     ethr =  8.21E-08,  avg # of iterations =  3.1

     End of self-consistent calculation

     Number of k-points >= 100: set verbosity='high' to print the bands.

     the Fermi energy is    21.6607 ev

!    total energy              =    -781.80709140 Ry
     Harris-Foulkes estimate   =    -781.80709960 Ry
     estimated scf accuracy    <       0.00000913 Ry

     The total energy is the sum of the following terms:

     one-electron contribution =    -206.03777521 Ry
     hartree contribution      =     136.13887128 Ry
     xc contribution           =     -71.46036161 Ry
     ewald contribution        =    -640.37885850 Ry
     smearing contrib. (-TS)   =      -0.06896736 Ry

     convergence has been achieved in  12 iterations

     Forces acting on atoms (Ry/au):

     atom    1 type  1   force =     0.00000000    0.00000000    0.00000000
     atom    2 type  1   force =    -0.01800665   -0.00370757   -0.00227336
     atom    3 type  1   force =     0.01800665    0.00370757    0.00227336

     Total force =     0.026197     Total SCF correction =     0.000000

     entering subroutine stress ...

          total   stress  (Ry/bohr**3)                   (kbar)     P= -307.64
  -0.00204870   0.00001387   0.00000813       -301.37      2.04      1.20
   0.00001387  -0.00211133   0.00000201          2.04   -310.59      0.30
   0.00000813   0.00000201  -0.00211383          1.20      0.30   -310.96

     Writing output data file Element-Dy.q.save

     General routines

     Parallel routines

   This run was terminated on:   0:10:49  22Mar2018

   JOB DONE.