     Program PWSCF v.5.0.2 starts on 22Mar2018 at 21:13:26

     Current dimensions of program PWSCF are:
     Max number of different atomic species (ntypx) = 10
     Max number of k-points (npk) =  40000
     Max angular momentum in pseudopotentials (lmaxx) =  3
     Waiting for input...
     Reading input from standard input

     Subspace diagonalization in iterative solution of the eigenvalue problem:
     a serial algorithm will be used

     bravais-lattice index     =            0
     lattice parameter (alat)  =       8.5346  a.u.
     unit-cell volume          =     621.6493 (a.u.)^3
     number of atoms/cell      =            8
     number of atomic types    =            2
     number of electrons       =       144.00
     number of Kohn-Sham states=           86
     kinetic-energy cutoff     =      40.0000  Ry
     charge density cutoff     =     160.0000  Ry
     convergence threshold     =      1.0E-04
     mixing beta               =       0.7000
     number of iterations used =            8  plain     mixing
     Exchange-correlation      = SLA-PZ-NOGX-NOGC ( 1 1 0 0 0)
     EXX-fraction              =        0.00
     nstep                     =           50

     celldm(1)=   8.534573  celldm(2)=   0.000000  celldm(3)=   0.000000
     celldm(4)=   0.000000  celldm(5)=   0.000000  celldm(6)=   0.000000

     crystal axes: (cart. coord. in units of alat)
               a(1) = (   1.000000   0.000000   0.000000 )
               a(2) = (   0.000000   1.000000   0.000000 )
               a(3) = (   0.000000   0.000000   1.000000 )

     reciprocal axes: (cart. coord. in units 2 pi/alat)
               b(1) = (  1.000000  0.000000  0.000000 )
               b(2) = (  0.000000  1.000000  0.000000 )
               b(3) = (  0.000000  0.000000  1.000000 )

     PseudoPot. # 1 for Eu read from file:
     /home/cwx6513/pp.La/Eu.UPF
     MD5 check sum: 5efdbbfc50c6a10138933a6429836ad2
     Pseudo is Norm-conserving, Zval = 17.0
     Generated in analytical, separable form
     Using radial grid of 1261 points,  6 beta functions with:
                l(1) =   0
                l(2) =   0
                l(3) =   1
                l(4) =   1
                l(5) =   2
                l(6) =   3

     PseudoPot. # 2 for Ho read from file:
     /home/cwx6513/pp.La/Ho.UPF
     MD5 check sum: f307ee11bce99f5b724fa279e3790763
     Pseudo is Norm-conserving, Zval = 21.0
     Generated in analytical, separable form
     Using radial grid of 1265 points,  6 beta functions with:
                l(1) =   0
                l(2) =   0
                l(3) =   1
                l(4) =   1
                l(5) =   2
                l(6) =   3

     atomic species   valence    mass     pseudopotential
        Cr            17.00    51.99610     Eu( 1.00)
        Si            21.00    28.08550     Ho( 1.00)

     48 Sym. Ops., with inversion, found (24 have fractional translation)

   Cartesian axes

     site n.     atom                  positions (alat units)
         1           Cr  tau(   1) = (   0.0000000   0.5000000   0.2500000  )
         2           Cr  tau(   2) = (   0.0000000   0.5000000   0.7500000  )
         3           Cr  tau(   3) = (   0.5000000   0.7500000   0.0000000  )
         4           Cr  tau(   4) = (   0.5000000   0.2500000   0.0000000  )
         5           Cr  tau(   5) = (   0.7500000   0.0000000   0.5000000  )
         6           Cr  tau(   6) = (   0.2500000   0.0000000   0.5000000  )
         7           Si  tau(   7) = (   0.5000000   0.5000000   0.5000000  )
         8           Si  tau(   8) = (   0.0000000   0.0000000   0.0000000  )

     number of k points=    48  gaussian smearing, width (Ry)=  0.1000
                       cart. coord. in units 2pi/alat
        k(    1) = (   0.0000000   0.0000000   0.0000000), wk =   0.0095238
        k(    2) = (   0.0000000   0.0000000   0.1428571), wk =   0.0190476
        k(    3) = (   0.0000000   0.0000000   0.2857143), wk =   0.0190476
        k(    4) = (   0.0000000   0.0000000   0.4285714), wk =   0.0190476
        k(    5) = (   0.0000000   0.1666667   0.0000000), wk =   0.0190476
        k(    6) = (   0.0000000   0.1666667   0.1428571), wk =   0.0380952
        k(    7) = (   0.0000000   0.1666667   0.2857143), wk =   0.0380952
        k(    8) = (   0.0000000   0.1666667   0.4285714), wk =   0.0380952
        k(    9) = (   0.0000000   0.3333333   0.0000000), wk =   0.0190476
        k(   10) = (   0.0000000   0.3333333   0.1428571), wk =   0.0380952
        k(   11) = (   0.0000000   0.3333333   0.2857143), wk =   0.0380952
        k(   12) = (   0.0000000   0.3333333   0.4285714), wk =   0.0380952
        k(   13) = (   0.0000000  -0.5000000   0.0000000), wk =   0.0095238
        k(   14) = (   0.0000000  -0.5000000   0.1428571), wk =   0.0190476
        k(   15) = (   0.0000000  -0.5000000   0.2857143), wk =   0.0190476
        k(   16) = (   0.0000000  -0.5000000   0.4285714), wk =   0.0190476
        k(   17) = (   0.2000000   0.0000000   0.0000000), wk =   0.0190476
        k(   18) = (   0.2000000   0.0000000   0.1428571), wk =   0.0380952
        k(   19) = (   0.2000000   0.0000000   0.2857143), wk =   0.0380952
        k(   20) = (   0.2000000   0.0000000   0.4285714), wk =   0.0380952
        k(   21) = (   0.2000000   0.1666667   0.0000000), wk =   0.0380952
        k(   22) = (   0.2000000   0.1666667   0.1428571), wk =   0.0761905
        k(   23) = (   0.2000000   0.1666667   0.2857143), wk =   0.0761905
        k(   24) = (   0.2000000   0.1666667   0.4285714), wk =   0.0761905
        k(   25) = (   0.2000000   0.3333333   0.0000000), wk =   0.0380952
        k(   26) = (   0.2000000   0.3333333   0.1428571), wk =   0.0761905
        k(   27) = (   0.2000000   0.3333333   0.2857143), wk =   0.0761905
        k(   28) = (   0.2000000   0.3333333   0.4285714), wk =   0.0761905
        k(   29) = (   0.2000000  -0.5000000   0.0000000), wk =   0.0190476
        k(   30) = (   0.2000000  -0.5000000   0.1428571), wk =   0.0380952
        k(   31) = (   0.2000000  -0.5000000   0.2857143), wk =   0.0380952
        k(   32) = (   0.2000000  -0.5000000   0.4285714), wk =   0.0380952
        k(   33) = (   0.4000000   0.0000000   0.0000000), wk =   0.0190476
        k(   34) = (   0.4000000   0.0000000   0.1428571), wk =   0.0380952
        k(   35) = (   0.4000000   0.0000000   0.2857143), wk =   0.0380952
        k(   36) = (   0.4000000   0.0000000   0.4285714), wk =   0.0380952
        k(   37) = (   0.4000000   0.1666667   0.0000000), wk =   0.0380952
        k(   38) = (   0.4000000   0.1666667   0.1428571), wk =   0.0761905
        k(   39) = (   0.4000000   0.1666667   0.2857143), wk =   0.0761905
        k(   40) = (   0.4000000   0.1666667   0.4285714), wk =   0.0761905
        k(   41) = (   0.4000000   0.3333333   0.0000000), wk =   0.0380952
        k(   42) = (   0.4000000   0.3333333   0.1428571), wk =   0.0761905
        k(   43) = (   0.4000000   0.3333333   0.2857143), wk =   0.0761905
        k(   44) = (   0.4000000   0.3333333   0.4285714), wk =   0.0761905
        k(   45) = (   0.4000000  -0.5000000   0.0000000), wk =   0.0190476
        k(   46) = (   0.4000000  -0.5000000   0.1428571), wk =   0.0380952
        k(   47) = (   0.4000000  -0.5000000   0.2857143), wk =   0.0380952
        k(   48) = (   0.4000000  -0.5000000   0.4285714), wk =   0.0380952

     Largest allocated arrays     est. size (Mb)     dimensions
     Largest temporary arrays     est. size (Mb)     dimensions

     Initial potential from superposition of free atoms

     Starting from uniform charge
     Starting wfc are    0 randomized atomic wfcs

     Self-consistent Calculation

     iteration #  1     ecut=    40.00 Ry     beta=0.70
     CG style diagonalization
     c_bands:  2 eigenvalues not converged
     c_bands:  1 eigenvalues not converged
     c_bands:  1 eigenvalues not converged
     c_bands:  1 eigenvalues not converged
     c_bands:  1 eigenvalues not converged
     c_bands:  1 eigenvalues not converged
     c_bands:  1 eigenvalues not converged
     c_bands:  1 eigenvalues not converged
     c_bands:  1 eigenvalues not converged
     c_bands:  1 eigenvalues not converged
     c_bands:  2 eigenvalues not converged
     c_bands:  1 eigenvalues not converged
     c_bands:  2 eigenvalues not converged
     c_bands:  1 eigenvalues not converged
     c_bands:  1 eigenvalues not converged
     c_bands:  1 eigenvalues not converged
     c_bands:  2 eigenvalues not converged
     c_bands:  1 eigenvalues not converged
     c_bands:  1 eigenvalues not converged
     ethr =  1.00E-02,  avg # of iterations = 12.0

     total energy              =   -1265.69632642 Ry
     Harris-Foulkes estimate   =   -1843.83338445 Ry
     estimated scf accuracy    <     709.75573065 Ry

[...]

     iteration #  4     ecut=    40.00 Ry     beta=0.70
     CG style diagonalization
     ethr =  1.00E-02,  avg # of iterations =  3.5

[...]

     End of self-consistent calculation

          k = 0.0000 0.0000 0.0000 (  2601 PWs)   bands (ev):

   -47.9678 -47.9342 -19.9697 -19.4599 -19.4599 -18.2205 -18.2205 -18.2205
   -12.4597 -12.4597 -12.4597 -12.4433 -12.4433 -12.4433   3.6546   3.6546
     4.3335   6.4837   6.4837   6.4837   8.0448   8.0448   8.0448   8.4140
     8.4140   8.4140   8.7539   8.7539   8.7539  11.1062  11.1062  11.1062
    29.2815  29.2815  30.3897  30.3897  30.3897  30.4483  30.4483  30.7308
    30.7308  30.7308  31.8026  32.8802  32.8802  32.8802  33.2084  34.8939
    35.0254  35.4481  35.4481  35.5844  35.5844  35.5844  39.5354  39.5354
    39.5354  39.8852  39.8852  41.2629  41.2629  41.2629  42.0052  42.0052
    42.0052  45.0760  45.0760  46.0125  46.0125  46.0125  46.8622  46.8622
    46.8622  48.6667  50.7004  50.7004  50.7004  51.0348  51.0348  51.0348
    52.8533  52.8534  53.8337  53.8339  53.8340  54.4013

[...]

     the Fermi energy is    46.3294 ev

!    total energy              =   -1631.91685868 Ry
     Harris-Foulkes estimate   =   -1631.91685925 Ry
     estimated scf accuracy    <       0.00000078 Ry

     The total energy is the sum of the following terms:

     one-electron contribution =     174.12048788 Ry
     hartree contribution      =     122.88581295 Ry
     xc contribution           =    -170.07574735 Ry
     ewald contribution        =   -1758.61101414 Ry
     smearing contrib. (-TS)   =      -0.23639802 Ry

     convergence has been achieved in   9 iterations

     Forces acting on atoms (Ry/au):

     atom    1 type  1   force =     0.00000000    0.00000000    0.00000000
     atom    2 type  1   force =     0.00000000    0.00000000    0.00000000
     atom    3 type  1   force =     0.00000000    0.00000000    0.00000000
     atom    4 type  1   force =     0.00000000    0.00000000    0.00000000
     atom    5 type  1   force =     0.00000000    0.00000000    0.00000000
     atom    6 type  1   force =     0.00000000    0.00000000    0.00000000
     atom    7 type  2   force =     0.00000000    0.00000000    0.00000000
     atom    8 type  2   force =     0.00000000    0.00000000    0.00000000

     Total force =     0.000000     Total SCF correction =     0.000000

[...]
        k(   47) = (   0.3635474  -0.4544343   0.2596767), wk =   0.0380952
        k(   48) = (   0.3635474  -0.4544343   0.3895151), wk =   0.0380952

[...]

     enthalpy old            =   -1631.9168586814 Ry
     enthalpy new            =   -1634.9965140719 Ry

     CASE: enthalpy_new < enthalpy_old

     small trust_radius: resetting bfgs history

     new trust radius        =       0.4083726100 bohr
     new conv_thr            =       0.0000010000 Ry

[...]

     number of scf cycles    =   3
     number of bfgs steps    =   2

     enthalpy old            =   -1634.9965140719 Ry
     enthalpy new            =   -1634.4847689758 Ry

     CASE: enthalpy_new > enthalpy_old

     new trust radius        =       0.1044589387 bohr

     trust_radius < trust_radius_min

     resetting bfgs history

     Message from routine bfgs:
     history already reset at previous step: stopping
     new conv_thr            =       0.0000010000 Ry

     new unit-cell volume =   1003.75587 a.u.^3 (   148.74127 Ang^3 )

[...]

ATOMIC_POSITIONS (crystal)
Cr       0.000000000   0.500000000   0.250000000
Cr       0.000000000   0.500000000   0.750000000
Cr       0.500000000   0.750000000   0.000000000
Cr       0.500000000   0.250000000   0.000000000
Cr       0.750000000   0.000000000   0.500000000
Cr       0.250000000   0.000000000   0.500000000
Si       0.500000000   0.500000000   0.500000000
Si       0.000000000   0.000000000   0.000000000

     Writing output data file Prototype-La-cP8-Cr3Si.save
     NEW-OLD atomic charge density approx. for the potential
     NEW k-points:
        k(    1) = (   0.0000000   0.0000000   0.0000000), wk =   0.0095238
        k(    2) = (   0.0000000   0.0000000   0.1217702), wk =   0.0190476
        k(    3) = (   0.0000000   0.0000000   0.2435404), wk =   0.0190476
        k(    4) = (   0.0000000   0.0000000   0.3653106), wk =   0.0190476
        k(    5) = (   0.0000000   0.1420652   0.0000000), wk =   0.0190476
        k(    6) = (   0.0000000   0.1420652   0.1217702), wk =   0.0380952
        k(    7) = (   0.0000000   0.1420652   0.2435404), wk =   0.0380952
        k(    8) = (   0.0000000   0.1420652   0.3653106), wk =   0.0380952
        k(    9) = (   0.0000000   0.2841305   0.0000000), wk =   0.0190476
        k(   10) = (   0.0000000   0.2841305   0.1217702), wk =   0.0380952
        k(   11) = (   0.0000000   0.2841305   0.2435404), wk =   0.0380952
        k(   12) = (   0.0000000   0.2841305   0.3653106), wk =   0.0380952
        k(   13) = (   0.0000000  -0.4261957   0.0000000), wk =   0.0095238
        k(   14) = (   0.0000000  -0.4261957   0.1217702), wk =   0.0190476
        k(   15) = (   0.0000000  -0.4261957   0.2435404), wk =   0.0190476
        k(   16) = (   0.0000000  -0.4261957   0.3653106), wk =   0.0190476
        k(   17) = (   0.1704783   0.0000000   0.0000000), wk =   0.0190476
        k(   18) = (   0.1704783   0.0000000   0.1217702), wk =   0.0380952
        k(   19) = (   0.1704783   0.0000000   0.2435404), wk =   0.0380952
        k(   20) = (   0.1704783   0.0000000   0.3653106), wk =   0.0380952
        k(   21) = (   0.1704783   0.1420652   0.0000000), wk =   0.0380952
        k(   22) = (   0.1704783   0.1420652   0.1217702), wk =   0.0761905
        k(   23) = (   0.1704783   0.1420652   0.2435404), wk =   0.0761905
        k(   24) = (   0.1704783   0.1420652   0.3653106), wk =   0.0761905
        k(   25) = (   0.1704783   0.2841305   0.0000000), wk =   0.0380952
        k(   26) = (   0.1704783   0.2841305   0.1217702), wk =   0.0761905
        k(   27) = (   0.1704783   0.2841305   0.2435404), wk =   0.0761905
        k(   28) = (   0.1704783   0.2841305   0.3653106), wk =   0.0761905
        k(   29) = (   0.1704783  -0.4261957   0.0000000), wk =   0.0190476
        k(   30) = (   0.1704783  -0.4261957   0.1217702), wk =   0.0380952
        k(   31) = (   0.1704783  -0.4261957   0.2435404), wk =   0.0380952
        k(   32) = (   0.1704783  -0.4261957   0.3653106), wk =   0.0380952
        k(   33) = (   0.3409566   0.0000000   0.0000000), wk =   0.0190476
        k(   34) = (   0.3409566   0.0000000   0.1217702), wk =   0.0380952
        k(   35) = (   0.3409566   0.0000000   0.2435404), wk =   0.0380952
        k(   36) = (   0.3409566   0.0000000   0.3653106), wk =   0.0380952
        k(   37) = (   0.3409566   0.1420652   0.0000000), wk =   0.0380952
        k(   38) = (   0.3409566   0.1420652   0.1217702), wk =   0.0761905
        k(   39) = (   0.3409566   0.1420652   0.2435404), wk =   0.0761905
        k(   40) = (   0.3409566   0.1420652   0.3653106), wk =   0.0761905
        k(   41) = (   0.3409566   0.2841305   0.0000000), wk =   0.0380952
        k(   42) = (   0.3409566   0.2841305   0.1217702), wk =   0.0761905
        k(   43) = (   0.3409566   0.2841305   0.2435404), wk =   0.0761905
        k(   44) = (   0.3409566   0.2841305   0.3653106), wk =   0.0761905
        k(   45) = (   0.3409566  -0.4261957   0.0000000), wk =   0.0190476
        k(   46) = (   0.3409566  -0.4261957   0.1217702), wk =   0.0380952
        k(   47) = (   0.3409566  -0.4261957   0.2435404), wk =   0.0380952
        k(   48) = (   0.3409566  -0.4261957   0.3653106), wk =   0.0380952

[...]

     The maximum number of steps has been reached.

     End of BFGS Geometry Optimization
Begin final coordinates
     new unit-cell volume =   1003.75587 a.u.^3 (   148.74127 Ang^3 )

CELL_PARAMETERS (alat=  8.53457320)
   1.173169847   0.000000000   0.000000000
   0.000000000   1.173169847   0.000000000
   0.000000000   0.000000000   1.173169847

ATOMIC_POSITIONS (crystal)
Cr       0.000000000   0.500000000   0.250000000
Cr       0.000000000   0.500000000   0.750000000
Cr       0.500000000   0.750000000   0.000000000
Cr       0.500000000   0.250000000   0.000000000
Cr       0.750000000   0.000000000   0.500000000
Cr       0.250000000   0.000000000   0.500000000
Si       0.500000000   0.500000000   0.500000000
Si       0.000000000   0.000000000   0.000000000
End final coordinates

     A final scf calculation at the relaxed structure.
     The G-vectors are recalculated for the final unit cell
     Results may differ from those at the preceding step.

     bravais-lattice index     =            0
     lattice parameter (alat)  =       8.5346  a.u.
     unit-cell volume          =    1003.7559 (a.u.)^3
     number of atoms/cell      =            8
     number of atomic types    =            2
     number of electrons       =       144.00
     number of Kohn-Sham states=           86
     kinetic-energy cutoff     =      40.0000  Ry
     charge density cutoff     =     160.0000  Ry
     convergence threshold     =      1.0E-06
     mixing beta               =       0.7000
     number of iterations used =            8  plain     mixing
     Exchange-correlation      = SLA-PZ-NOGX-NOGC ( 1 1 0 0 0)
     EXX-fraction              =        0.00

     celldm(1)=   8.534573  celldm(2)=   0.000000  celldm(3)=   0.000000
     celldm(4)=   0.000000  celldm(5)=   0.000000  celldm(6)=   0.000000

     crystal axes: (cart. coord. in units of alat)
               a(1) = (   1.173170   0.000000   0.000000 )
               a(2) = (   0.000000   1.173170   0.000000 )
               a(3) = (   0.000000   0.000000   1.173170 )

     reciprocal axes: (cart. coord. in units 2 pi/alat)
               b(1) = (  0.852391  0.000000  0.000000 )
               b(2) = (  0.000000  0.852391  0.000000 )
               b(3) = (  0.000000  0.000000  0.852391 )

     PseudoPot. # 1 for Eu read from file:
     /home/cwx6513/pp.La/Eu.UPF
     MD5 check sum: 5efdbbfc50c6a10138933a6429836ad2
     Pseudo is Norm-conserving, Zval = 17.0
     Generated in analytical, separable form
     Using radial grid of 1261 points,  6 beta functions with:
                l(1) =   0
                l(2) =   0
                l(3) =   1
                l(4) =   1
                l(5) =   2
                l(6) =   3

     PseudoPot. # 2 for Ho read from file:
     /home/cwx6513/pp.La/Ho.UPF
     MD5 check sum: f307ee11bce99f5b724fa279e3790763
     Pseudo is Norm-conserving, Zval = 21.0
     Generated in analytical, separable form
     Using radial grid of 1265 points,  6 beta functions with:
                l(1) =   0
                l(2) =   0
                l(3) =   1
                l(4) =   1
                l(5) =   2
                l(6) =   3

     atomic species   valence    mass     pseudopotential
        Cr            17.00    51.99610     Eu( 1.00)
        Si            21.00    28.08550     Ho( 1.00)

     48 Sym. Ops., with inversion, found (24 have fractional translation)

   Cartesian axes

     site n.     atom                  positions (alat units)
         1           Cr  tau(   1) = (   0.0000000   0.5865849   0.2932925  )
         2           Cr  tau(   2) = (   0.0000000   0.5865849   0.8798774  )
         3           Cr  tau(   3) = (   0.5865849   0.8798774   0.0000000  )
         4           Cr  tau(   4) = (   0.5865849   0.2932925   0.0000000  )
         5           Cr  tau(   5) = (   0.8798774   0.0000000   0.5865849  )
         6           Cr  tau(   6) = (   0.2932925   0.0000000   0.5865849  )
         7           Si  tau(   7) = (   0.5865849   0.5865849   0.5865849  )
         8           Si  tau(   8) = (   0.0000000   0.0000000   0.0000000  )

     number of k points=    48  gaussian smearing, width (Ry)=  0.1000
                       cart. coord. in units 2pi/alat
        k(    1) = (   0.0000000   0.0000000   0.0000000), wk =   0.0095238
        k(    2) = (   0.0000000   0.0000000   0.1217702), wk =   0.0190476
        k(    3) = (   0.0000000   0.0000000   0.2435404), wk =   0.0190476
        k(    4) = (   0.0000000   0.0000000   0.3653106), wk =   0.0190476
        k(    5) = (   0.0000000   0.1420652   0.0000000), wk =   0.0190476
        k(    6) = (   0.0000000   0.1420652   0.1217702), wk =   0.0380952
        k(    7) = (   0.0000000   0.1420652   0.2435404), wk =   0.0380952
        k(    8) = (   0.0000000   0.1420652   0.3653106), wk =   0.0380952
        k(    9) = (   0.0000000   0.2841305   0.0000000), wk =   0.0190476
        k(   10) = (   0.0000000   0.2841305   0.1217702), wk =   0.0380952
        k(   11) = (   0.0000000   0.2841305   0.2435404), wk =   0.0380952
        k(   12) = (   0.0000000   0.2841305   0.3653106), wk =   0.0380952
        k(   13) = (   0.0000000  -0.4261957   0.0000000), wk =   0.0095238
        k(   14) = (   0.0000000  -0.4261957   0.1217702), wk =   0.0190476
        k(   15) = (   0.0000000  -0.4261957   0.2435404), wk =   0.0190476
        k(   16) = (   0.0000000  -0.4261957   0.3653106), wk =   0.0190476
        k(   17) = (   0.1704783   0.0000000   0.0000000), wk =   0.0190476
        k(   18) = (   0.1704783   0.0000000   0.1217702), wk =   0.0380952
        k(   19) = (   0.1704783   0.0000000   0.2435404), wk =   0.0380952
        k(   20) = (   0.1704783   0.0000000   0.3653106), wk =   0.0380952
        k(   21) = (   0.1704783   0.1420652   0.0000000), wk =   0.0380952
        k(   22) = (   0.1704783   0.1420652   0.1217702), wk =   0.0761905
        k(   23) = (   0.1704783   0.1420652   0.2435404), wk =   0.0761905
        k(   24) = (   0.1704783   0.1420652   0.3653106), wk =   0.0761905
        k(   25) = (   0.1704783   0.2841305   0.0000000), wk =   0.0380952
        k(   26) = (   0.1704783   0.2841305   0.1217702), wk =   0.0761905
        k(   27) = (   0.1704783   0.2841305   0.2435404), wk =   0.0761905
        k(   28) = (   0.1704783   0.2841305   0.3653106), wk =   0.0761905
        k(   29) = (   0.1704783  -0.4261957   0.0000000), wk =   0.0190476
        k(   30) = (   0.1704783  -0.4261957   0.1217702), wk =   0.0380952
        k(   31) = (   0.1704783  -0.4261957   0.2435404), wk =   0.0380952
        k(   32) = (   0.1704783  -0.4261957   0.3653106), wk =   0.0380952
        k(   33) = (   0.3409566   0.0000000   0.0000000), wk =   0.0190476
        k(   34) = (   0.3409566   0.0000000   0.1217702), wk =   0.0380952
        k(   35) = (   0.3409566   0.0000000   0.2435404), wk =   0.0380952
        k(   36) = (   0.3409566   0.0000000   0.3653106), wk =   0.0380952
        k(   37) = (   0.3409566   0.1420652   0.0000000), wk =   0.0380952
        k(   38) = (   0.3409566   0.1420652   0.1217702), wk =   0.0761905
        k(   39) = (   0.3409566   0.1420652   0.2435404), wk =   0.0761905
        k(   40) = (   0.3409566   0.1420652   0.3653106), wk =   0.0761905
        k(   41) = (   0.3409566   0.2841305   0.0000000), wk =   0.0380952
        k(   42) = (   0.3409566   0.2841305   0.1217702), wk =   0.0761905
        k(   43) = (   0.3409566   0.2841305   0.2435404), wk =   0.0761905
        k(   44) = (   0.3409566   0.2841305   0.3653106), wk =   0.0761905
        k(   45) = (   0.3409566  -0.4261957   0.0000000), wk =   0.0190476
        k(   46) = (   0.3409566  -0.4261957   0.1217702), wk =   0.0380952
        k(   47) = (   0.3409566  -0.4261957   0.2435404), wk =   0.0380952
        k(   48) = (   0.3409566  -0.4261957   0.3653106), wk =   0.0380952

     Largest allocated arrays     est. size (Mb)     dimensions
     Largest temporary arrays     est. size (Mb)     dimensions

     Initial potential from superposition of free atoms

     Starting from uniform charge
     Starting wfc are    0 randomized atomic wfcs

     Writing output data file Prototype-La-cP8-Cr3Si.save

     Self-consistent Calculation

[...]

     negative rho (up, down):  0.761E-06 0.000E+00

[...]

     iteration # 10     ecut=    40.00 Ry     beta=0.70
     CG style diagonalization
     c_bands:  1 eigenvalues not converged
     ethr =  2.45E-07,  avg # of iterations =  3.6

     total energy              =   -1637.85103213 Ry
     Harris-Foulkes estimate   =   -1637.85107843 Ry
     estimated scf accuracy    <       0.00008380 Ry

     iteration # 11     ecut=    40.00 Ry     beta=0.70
     CG style diagonalization
     ethr =  5.82E-08,  avg # of iterations =  3.6

     End of self-consistent calculation

[...]

          k = 0.3410-0.4262 0.3653 (  4292 PWs)   bands (ev):

   -65.1342 -65.1342 -36.5136 -36.5026 -36.4718 -36.4717 -36.4413 -36.4300
   -29.2924 -29.2923 -29.2875 -29.2873 -29.2795 -29.2795  -9.8545  -9.7671
    -9.5454  -9.5434  -9.4417  -9.4411  -9.3517  -9.2991  -9.2119  -9.1884
    -9.1551  -9.1387  -9.0941  -9.0904  -9.0722  -9.0703  -9.0628  -9.0622
    14.3151  14.3184  14.3366  14.3462  14.3496  14.3575  14.3816  14.3818
    14.4012  14.4023  18.8258  18.8260  20.7972  20.8945  21.1609  21.2162
    21.3457  21.3512  21.6782  21.7202  21.8716  21.9547  22.0378  22.0543
    22.4725  22.6271  23.1285  23.2148  23.3322  23.4709  23.5366  23.5570
    24.0263  24.1240  24.8441  24.9633  25.0795  25.1472  25.1497  25.2269
    25.9273  25.9595  26.6166  26.8039  27.0005  27.2942  27.9527  28.0296
    33.3962  33.3975  35.2085  35.4234  35.9605  36.0532

     the Fermi energy is    26.4836 ev

!    total energy              =   -1637.85104793 Ry
     Harris-Foulkes estimate   =   -1637.85104824 Ry
     estimated scf accuracy    <       0.00000041 Ry

     The total energy is the sum of the following terms:

     one-electron contribution =    -184.41289053 Ry
     hartree contribution      =     207.99152153 Ry
     xc contribution           =    -161.96188798 Ry
     ewald contribution        =   -1499.02507171 Ry
     smearing contrib. (-TS)   =      -0.44271924 Ry

     convergence has been achieved in  11 iterations

     Forces acting on atoms (Ry/au):

     atom    1 type  1   force =     0.00000000    0.00000000    0.00000000
     atom    2 type  1   force =     0.00000000    0.00000000    0.00000000
     atom    3 type  1   force =     0.00000000    0.00000000    0.00000000
     atom    4 type  1   force =     0.00000000    0.00000000    0.00000000
     atom    5 type  1   force =     0.00000000    0.00000000    0.00000000
     atom    6 type  1   force =     0.00000000    0.00000000    0.00000000
     atom    7 type  2   force =     0.00000000    0.00000000    0.00000000
     atom    8 type  2   force =     0.00000000    0.00000000    0.00000000

     Total force =     0.000000     Total SCF correction =     0.000000

     entering subroutine stress ...

          total   stress  (Ry/bohr**3)                   (kbar)     P=    3.72
   0.00002529   0.00000000   0.00000000          3.72      0.00      0.00
   0.00000000   0.00002529   0.00000000          0.00      3.72      0.00
   0.00000000   0.00000000   0.00002529          0.00      0.00      3.72

     Writing output data file Prototype-La-cP8-Cr3Si.save

     General routines

     Parallel routines

   This run was terminated on:  21:32:43  22Mar2018

   JOB DONE.