     Program PWSCF v.5.0.2 starts on 22Mar2018 at 16:18:48

     Current dimensions of program PWSCF are:
     Max number of different atomic species (ntypx) = 10
     Max number of k-points (npk) =  40000
     Max angular momentum in pseudopotentials (lmaxx) =  3
     Waiting for input...
     Reading input from standard input

     Subspace diagonalization in iterative solution of the eigenvalue problem:
     a serial algorithm will be used

     bravais-lattice index     =            0
     lattice parameter (alat)  =       8.5346  a.u.
     unit-cell volume          =     621.6493 (a.u.)^3
     number of atoms/cell      =            8
     number of atomic types    =            2
     number of electrons       =       112.00
     number of Kohn-Sham states=           67
     kinetic-energy cutoff     =      40.0000  Ry
     charge density cutoff     =     160.0000  Ry
     convergence threshold     =      1.0E-04
     mixing beta               =       0.7000
     number of iterations used =            8  plain     mixing
     Exchange-correlation      = SLA-PZ-NOGX-NOGC ( 1 1 0 0 0)
     EXX-fraction              =        0.00
     nstep                     =           50

     celldm(1)=   8.534573  celldm(2)=   0.000000  celldm(3)=   0.000000
     celldm(4)=   0.000000  celldm(5)=   0.000000  celldm(6)=   0.000000

     crystal axes: (cart. coord. in units of alat)
               a(1) = (   1.000000   0.000000   0.000000 )
               a(2) = (   0.000000   1.000000   0.000000 )
               a(3) = (   0.000000   0.000000   1.000000 )

     reciprocal axes: (cart. coord. in units 2 pi/alat)
               b(1) = (  1.000000  0.000000  0.000000 )
               b(2) = (  0.000000  1.000000  0.000000 )
               b(3) = (  0.000000  0.000000  1.000000 )

     PseudoPot. # 1 for Pr read from file:
     /home/cwx6513/pp.La/Pr.UPF
     MD5 check sum: 70e2b4b153859e92c8c91247dfc63203
     Pseudo is Norm-conserving, Zval = 13.0
     Generated in analytical, separable form
     Using radial grid of 1255 points,  6 beta functions with:
                l(1) =   0
                l(2) =   0
                l(3) =   1
                l(4) =   1
                l(5) =   2
                l(6) =   3

     PseudoPot. # 2 for Eu read from file:
     /home/cwx6513/pp.La/Eu.UPF
     MD5 check sum: 5efdbbfc50c6a10138933a6429836ad2
     Pseudo is Norm-conserving, Zval = 17.0
     Generated in analytical, separable form
     Using radial grid of 1261 points,  6 beta functions with:
                l(1) =   0
                l(2) =   0
                l(3) =   1
                l(4) =   1
                l(5) =   2
                l(6) =   3

     atomic species   valence    mass     pseudopotential
        Cr            13.00    51.99610     Pr( 1.00)
        Si            17.00    28.08550     Eu( 1.00)

     48 Sym. Ops., with inversion, found (24 have fractional translation)

   Cartesian axes

     site n.     atom                  positions (alat units)
         1           Cr  tau(   1) = (   0.0000000   0.5000000   0.2500000  )
         2           Cr  tau(   2) = (   0.0000000   0.5000000   0.7500000  )
         3           Cr  tau(   3) = (   0.5000000   0.7500000   0.0000000  )
         4           Cr  tau(   4) = (   0.5000000   0.2500000   0.0000000  )
         5           Cr  tau(   5) = (   0.7500000   0.0000000   0.5000000  )
         6           Cr  tau(   6) = (   0.2500000   0.0000000   0.5000000  )
         7           Si  tau(   7) = (   0.5000000   0.5000000   0.5000000  )
         8           Si  tau(   8) = (   0.0000000   0.0000000   0.0000000  )

     number of k points=    48  gaussian smearing, width (Ry)=  0.1000
                       cart. coord. in units 2pi/alat
        k(    1) = (   0.0000000   0.0000000   0.0000000), wk =   0.0095238
        k(    2) = (   0.0000000   0.0000000   0.1428571), wk =   0.0190476
        k(    3) = (   0.0000000   0.0000000   0.2857143), wk =   0.0190476
        k(    4) = (   0.0000000   0.0000000   0.4285714), wk =   0.0190476
        k(    5) = (   0.0000000   0.1666667   0.0000000), wk =   0.0190476
        k(    6) = (   0.0000000   0.1666667   0.1428571), wk =   0.0380952
        k(    7) = (   0.0000000   0.1666667   0.2857143), wk =   0.0380952
        k(    8) = (   0.0000000   0.1666667   0.4285714), wk =   0.0380952
        k(    9) = (   0.0000000   0.3333333   0.0000000), wk =   0.0190476
        k(   10) = (   0.0000000   0.3333333   0.1428571), wk =   0.0380952
        k(   11) = (   0.0000000   0.3333333   0.2857143), wk =   0.0380952
        k(   12) = (   0.0000000   0.3333333   0.4285714), wk =   0.0380952
        k(   13) = (   0.0000000  -0.5000000   0.0000000), wk =   0.0095238
        k(   14) = (   0.0000000  -0.5000000   0.1428571), wk =   0.0190476
        k(   15) = (   0.0000000  -0.5000000   0.2857143), wk =   0.0190476
        k(   16) = (   0.0000000  -0.5000000   0.4285714), wk =   0.0190476
        k(   17) = (   0.2000000   0.0000000   0.0000000), wk =   0.0190476
        k(   18) = (   0.2000000   0.0000000   0.1428571), wk =   0.0380952
        k(   19) = (   0.2000000   0.0000000   0.2857143), wk =   0.0380952
        k(   20) = (   0.2000000   0.0000000   0.4285714), wk =   0.0380952
        k(   21) = (   0.2000000   0.1666667   0.0000000), wk =   0.0380952
        k(   22) = (   0.2000000   0.1666667   0.1428571), wk =   0.0761905
        k(   23) = (   0.2000000   0.1666667   0.2857143), wk =   0.0761905
        k(   24) = (   0.2000000   0.1666667   0.4285714), wk =   0.0761905
        k(   25) = (   0.2000000   0.3333333   0.0000000), wk =   0.0380952
        k(   26) = (   0.2000000   0.3333333   0.1428571), wk =   0.0761905
        k(   27) = (   0.2000000   0.3333333   0.2857143), wk =   0.0761905
        k(   28) = (   0.2000000   0.3333333   0.4285714), wk =   0.0761905
        k(   29) = (   0.2000000  -0.5000000   0.0000000), wk =   0.0190476
        k(   30) = (   0.2000000  -0.5000000   0.1428571), wk =   0.0380952
        k(   31) = (   0.2000000  -0.5000000   0.2857143), wk =   0.0380952
        k(   32) = (   0.2000000  -0.5000000   0.4285714), wk =   0.0380952
        k(   33) = (   0.4000000   0.0000000   0.0000000), wk =   0.0190476
        k(   34) = (   0.4000000   0.0000000   0.1428571), wk =   0.0380952
        k(   35) = (   0.4000000   0.0000000   0.2857143), wk =   0.0380952
        k(   36) = (   0.4000000   0.0000000   0.4285714), wk =   0.0380952
        k(   37) = (   0.4000000   0.1666667   0.0000000), wk =   0.0380952
        k(   38) = (   0.4000000   0.1666667   0.1428571), wk =   0.0761905
        k(   39) = (   0.4000000   0.1666667   0.2857143), wk =   0.0761905
        k(   40) = (   0.4000000   0.1666667   0.4285714), wk =   0.0761905
        k(   41) = (   0.4000000   0.3333333   0.0000000), wk =   0.0380952
        k(   42) = (   0.4000000   0.3333333   0.1428571), wk =   0.0761905
        k(   43) = (   0.4000000   0.3333333   0.2857143), wk =   0.0761905
        k(   44) = (   0.4000000   0.3333333   0.4285714), wk =   0.0761905
        k(   45) = (   0.4000000  -0.5000000   0.0000000), wk =   0.0190476
        k(   46) = (   0.4000000  -0.5000000   0.1428571), wk =   0.0380952
        k(   47) = (   0.4000000  -0.5000000   0.2857143), wk =   0.0380952
        k(   48) = (   0.4000000  -0.5000000   0.4285714), wk =   0.0380952

     Largest allocated arrays     est. size (Mb)     dimensions
     Largest temporary arrays     est. size (Mb)     dimensions

     Initial potential from superposition of free atoms

     starting charge   77.94326, renormalised to  112.00000
     Starting wfc are  120 randomized atomic wfcs

     Self-consistent Calculation

     iteration #  1     ecut=    40.00 Ry     beta=0.70
     CG style diagonalization
     c_bands:  4 eigenvalues not converged
     c_bands:  3 eigenvalues not converged
     c_bands:  1 eigenvalues not converged
     c_bands:  1 eigenvalues not converged
     c_bands:  1 eigenvalues not converged
     c_bands:  3 eigenvalues not converged
     c_bands:  1 eigenvalues not converged
     c_bands:  1 eigenvalues not converged
     c_bands:  2 eigenvalues not converged
     c_bands:  3 eigenvalues not converged
     c_bands:  3 eigenvalues not converged
     c_bands:  1 eigenvalues not converged
     c_bands:  2 eigenvalues not converged
     c_bands:  2 eigenvalues not converged
     c_bands:  1 eigenvalues not converged
     c_bands:  2 eigenvalues not converged
     c_bands:  1 eigenvalues not converged
     c_bands:  5 eigenvalues not converged
     c_bands:  2 eigenvalues not converged
     c_bands:  1 eigenvalues not converged
     c_bands:  2 eigenvalues not converged
     c_bands:  1 eigenvalues not converged
     c_bands:  1 eigenvalues not converged
     c_bands:  1 eigenvalues not converged
     c_bands:  4 eigenvalues not converged
     c_bands:  1 eigenvalues not converged
     c_bands:  2 eigenvalues not converged
     c_bands:  1 eigenvalues not converged
     c_bands:  1 eigenvalues not converged
     c_bands:  4 eigenvalues not converged
     c_bands:  1 eigenvalues not converged
     c_bands:  2 eigenvalues not converged
     c_bands:  3 eigenvalues not converged
     c_bands:  1 eigenvalues not converged
     c_bands:  1 eigenvalues not converged
     c_bands:  1 eigenvalues not converged
     c_bands:  3 eigenvalues not converged
     c_bands:  2 eigenvalues not converged
     c_bands:  2 eigenvalues not converged
     c_bands:  2 eigenvalues not converged
     ethr =  1.00E-02,  avg # of iterations = 13.0

     total energy              =     -92.76536805 Ry
     Harris-Foulkes estimate   =   -1362.91079008 Ry
     estimated scf accuracy    <    1516.67123706 Ry

[...]

     iteration #  4     ecut=    40.00 Ry     beta=0.70
     CG style diagonalization
     ethr =  1.00E-02,  avg # of iterations =  3.6

[...]

     End of self-consistent calculation

          k = 0.0000 0.0000 0.0000 (  2601 PWs)   bands (ev):

   -23.0078 -22.9712  -4.6722  -3.0806  -3.0806  -0.4032  -0.4032  -0.4032
     3.3969   3.3969   3.3969   3.5974   3.5974   3.5974  11.0717  11.0717
    12.5753  15.1367  15.1367  15.1367  17.2574  17.2574  17.2574  19.3605
    19.3605  19.3605  19.4132  19.4132  19.4132  24.6600  24.6600  24.6600
    33.3032  33.3032  33.6239  33.6239  33.6239  34.1563  34.7571  36.0868
    36.0868  36.3105  36.3105  36.3105  36.3281  36.3281  36.3281  36.4488
    38.5110  38.5110  38.5110  38.8781  38.8781  41.2913  42.8519  42.8519
    42.8519  43.2361  43.2361  44.2514  44.2514  44.2514  45.4256  45.4256
    45.4256  48.4768  49.0949

[...]

     the Fermi energy is    42.8166 ev

!    total energy              =    -901.95133715 Ry
     Harris-Foulkes estimate   =    -901.95140870 Ry
     estimated scf accuracy    <       0.00007905 Ry

     The total energy is the sum of the following terms:

     one-electron contribution =     238.89596843 Ry
     hartree contribution      =      42.35474993 Ry
     xc contribution           =    -115.78825743 Ry
     ewald contribution        =   -1067.10333238 Ry
     smearing contrib. (-TS)   =      -0.31046570 Ry

[...]

[...]

          total   stress  (Ry/bohr**3)                   (kbar)     P=-1111.16
  -0.00755350   0.00000000   0.00000000      -1111.16      0.00      0.00
   0.00000000  -0.00755350   0.00000000          0.00  -1111.16      0.00
   0.00000000   0.00000000  -0.00755350          0.00      0.00  -1111.16

     number of scf cycles    =   3
     number of bfgs steps    =   2

     enthalpy old            =    -905.6172964385 Ry
     enthalpy new            =    -904.1052089009 Ry

     CASE: enthalpy_new > enthalpy_old

     new trust radius        =       0.4233076013 bohr

     trust_radius < trust_radius_min

     resetting bfgs history

     Message from routine bfgs:
     history already reset at previous step: stopping
     new conv_thr            =       0.0000010000 Ry

     new unit-cell volume =   1041.93653 a.u.^3 (   154.39906 Ang^3 )

[...]

ATOMIC_POSITIONS (crystal)
Cr       0.000000000   0.500000000   0.250000000
Cr       0.000000000   0.500000000   0.750000000
Cr       0.500000000   0.750000000   0.000000000
Cr       0.500000000   0.250000000   0.000000000
Cr       0.750000000   0.000000000   0.500000000
Cr       0.250000000   0.000000000   0.500000000
Si       0.500000000   0.500000000   0.500000000
Si       0.000000000   0.000000000   0.000000000

     Writing output data file Prototype-La-cP8-Cr3Si.save
     Check: negative starting charge=   -0.041961
     NEW-OLD atomic charge density approx. for the potential
     NEW k-points:
        k(    1) = (   0.0000000   0.0000000   0.0000000), wk =   0.0095238
        k(    2) = (   0.0000000   0.0000000   0.1202643), wk =   0.0190476
        k(    3) = (   0.0000000   0.0000000   0.2405286), wk =   0.0190476
        k(    4) = (   0.0000000   0.0000000   0.3607929), wk =   0.0190476
        k(    5) = (   0.0000000   0.1403083   0.0000000), wk =   0.0190476
        k(    6) = (   0.0000000   0.1403083   0.1202643), wk =   0.0380952
        k(    7) = (   0.0000000   0.1403083   0.2405286), wk =   0.0380952
        k(    8) = (   0.0000000   0.1403083   0.3607929), wk =   0.0380952
        k(    9) = (   0.0000000   0.2806167   0.0000000), wk =   0.0190476
        k(   10) = (   0.0000000   0.2806167   0.1202643), wk =   0.0380952
        k(   11) = (   0.0000000   0.2806167   0.2405286), wk =   0.0380952
        k(   12) = (   0.0000000   0.2806167   0.3607929), wk =   0.0380952
        k(   13) = (   0.0000000  -0.4209250   0.0000000), wk =   0.0095238
        k(   14) = (   0.0000000  -0.4209250   0.1202643), wk =   0.0190476
        k(   15) = (   0.0000000  -0.4209250   0.2405286), wk =   0.0190476
        k(   16) = (   0.0000000  -0.4209250   0.3607929), wk =   0.0190476
        k(   17) = (   0.1683700   0.0000000   0.0000000), wk =   0.0190476
        k(   18) = (   0.1683700   0.0000000   0.1202643), wk =   0.0380952
        k(   19) = (   0.1683700   0.0000000   0.2405286), wk =   0.0380952
        k(   20) = (   0.1683700   0.0000000   0.3607929), wk =   0.0380952
        k(   21) = (   0.1683700   0.1403083   0.0000000), wk =   0.0380952
        k(   22) = (   0.1683700   0.1403083   0.1202643), wk =   0.0761905
        k(   23) = (   0.1683700   0.1403083   0.2405286), wk =   0.0761905
        k(   24) = (   0.1683700   0.1403083   0.3607929), wk =   0.0761905
        k(   25) = (   0.1683700   0.2806167   0.0000000), wk =   0.0380952
        k(   26) = (   0.1683700   0.2806167   0.1202643), wk =   0.0761905
        k(   27) = (   0.1683700   0.2806167   0.2405286), wk =   0.0761905
        k(   28) = (   0.1683700   0.2806167   0.3607929), wk =   0.0761905
        k(   29) = (   0.1683700  -0.4209250   0.0000000), wk =   0.0190476
        k(   30) = (   0.1683700  -0.4209250   0.1202643), wk =   0.0380952
        k(   31) = (   0.1683700  -0.4209250   0.2405286), wk =   0.0380952
        k(   32) = (   0.1683700  -0.4209250   0.3607929), wk =   0.0380952
        k(   33) = (   0.3367400   0.0000000   0.0000000), wk =   0.0190476
        k(   34) = (   0.3367400   0.0000000   0.1202643), wk =   0.0380952
        k(   35) = (   0.3367400   0.0000000   0.2405286), wk =   0.0380952
        k(   36) = (   0.3367400   0.0000000   0.3607929), wk =   0.0380952
        k(   37) = (   0.3367400   0.1403083   0.0000000), wk =   0.0380952
        k(   38) = (   0.3367400   0.1403083   0.1202643), wk =   0.0761905
        k(   39) = (   0.3367400   0.1403083   0.2405286), wk =   0.0761905
        k(   40) = (   0.3367400   0.1403083   0.3607929), wk =   0.0761905
        k(   41) = (   0.3367400   0.2806167   0.0000000), wk =   0.0380952
        k(   42) = (   0.3367400   0.2806167   0.1202643), wk =   0.0761905
        k(   43) = (   0.3367400   0.2806167   0.2405286), wk =   0.0761905
        k(   44) = (   0.3367400   0.2806167   0.3607929), wk =   0.0761905
        k(   45) = (   0.3367400  -0.4209250   0.0000000), wk =   0.0190476
        k(   46) = (   0.3367400  -0.4209250   0.1202643), wk =   0.0380952
        k(   47) = (   0.3367400  -0.4209250   0.2405286), wk =   0.0380952
        k(   48) = (   0.3367400  -0.4209250   0.3607929), wk =   0.0380952
     Check: negative starting charge=   -0.020998

     negative rho (up, down):  0.262E+01 0.000E+00
     extrapolated charge   85.29498, renormalised to  112.00000

[...]

     The maximum number of steps has been reached.

     End of BFGS Geometry Optimization
Begin final coordinates
     new unit-cell volume =   1041.93653 a.u.^3 (   154.39906 Ang^3 )

CELL_PARAMETERS (alat=  8.53457320)
   1.187860060   0.000000000   0.000000000
   0.000000000   1.187860060   0.000000000
   0.000000000   0.000000000   1.187860060

ATOMIC_POSITIONS (crystal)
Cr       0.000000000   0.500000000   0.250000000
Cr       0.000000000   0.500000000   0.750000000
Cr       0.500000000   0.750000000   0.000000000
Cr       0.500000000   0.250000000   0.000000000
Cr       0.750000000   0.000000000   0.500000000
Cr       0.250000000   0.000000000   0.500000000
Si       0.500000000   0.500000000   0.500000000
Si       0.000000000   0.000000000   0.000000000
End final coordinates

     A final scf calculation at the relaxed structure.
     The G-vectors are recalculated for the final unit cell
     Results may differ from those at the preceding step.

     bravais-lattice index     =            0
     lattice parameter (alat)  =       8.5346  a.u.
     unit-cell volume          =    1041.9365 (a.u.)^3
     number of atoms/cell      =            8
     number of atomic types    =            2
     number of electrons       =       112.00
     number of Kohn-Sham states=           67
     kinetic-energy cutoff     =      40.0000  Ry
     charge density cutoff     =     160.0000  Ry
     convergence threshold     =      1.0E-06
     mixing beta               =       0.7000
     number of iterations used =            8  plain     mixing
     Exchange-correlation      = SLA-PZ-NOGX-NOGC ( 1 1 0 0 0)
     EXX-fraction              =        0.00

     celldm(1)=   8.534573  celldm(2)=   0.000000  celldm(3)=   0.000000
     celldm(4)=   0.000000  celldm(5)=   0.000000  celldm(6)=   0.000000

     crystal axes: (cart. coord. in units of alat)
               a(1) = (   1.187860   0.000000   0.000000 )
               a(2) = (   0.000000   1.187860   0.000000 )
               a(3) = (   0.000000   0.000000   1.187860 )

     reciprocal axes: (cart. coord. in units 2 pi/alat)
               b(1) = (  0.841850  0.000000  0.000000 )
               b(2) = (  0.000000  0.841850  0.000000 )
               b(3) = (  0.000000  0.000000  0.841850 )

     PseudoPot. # 1 for Pr read from file:
     /home/cwx6513/pp.La/Pr.UPF
     MD5 check sum: 70e2b4b153859e92c8c91247dfc63203
     Pseudo is Norm-conserving, Zval = 13.0
     Generated in analytical, separable form
     Using radial grid of 1255 points,  6 beta functions with:
                l(1) =   0
                l(2) =   0
                l(3) =   1
                l(4) =   1
                l(5) =   2
                l(6) =   3

     PseudoPot. # 2 for Eu read from file:
     /home/cwx6513/pp.La/Eu.UPF
     MD5 check sum: 5efdbbfc50c6a10138933a6429836ad2
     Pseudo is Norm-conserving, Zval = 17.0
     Generated in analytical, separable form
     Using radial grid of 1261 points,  6 beta functions with:
                l(1) =   0
                l(2) =   0
                l(3) =   1
                l(4) =   1
                l(5) =   2
                l(6) =   3

     atomic species   valence    mass     pseudopotential
        Cr            13.00    51.99610     Pr( 1.00)
        Si            17.00    28.08550     Eu( 1.00)

     48 Sym. Ops., with inversion, found (24 have fractional translation)

   Cartesian axes

     site n.     atom                  positions (alat units)
         1           Cr  tau(   1) = (   0.0000000   0.5939300   0.2969650  )
         2           Cr  tau(   2) = (   0.0000000   0.5939300   0.8908950  )
         3           Cr  tau(   3) = (   0.5939300   0.8908950   0.0000000  )
         4           Cr  tau(   4) = (   0.5939300   0.2969650   0.0000000  )
         5           Cr  tau(   5) = (   0.8908950   0.0000000   0.5939300  )
         6           Cr  tau(   6) = (   0.2969650   0.0000000   0.5939300  )
         7           Si  tau(   7) = (   0.5939300   0.5939300   0.5939300  )
         8           Si  tau(   8) = (   0.0000000   0.0000000   0.0000000  )

     number of k points=    48  gaussian smearing, width (Ry)=  0.1000
                       cart. coord. in units 2pi/alat
        k(    1) = (   0.0000000   0.0000000   0.0000000), wk =   0.0095238
        k(    2) = (   0.0000000   0.0000000   0.1202643), wk =   0.0190476
        k(    3) = (   0.0000000   0.0000000   0.2405286), wk =   0.0190476
        k(    4) = (   0.0000000   0.0000000   0.3607929), wk =   0.0190476
        k(    5) = (   0.0000000   0.1403083   0.0000000), wk =   0.0190476
        k(    6) = (   0.0000000   0.1403083   0.1202643), wk =   0.0380952
        k(    7) = (   0.0000000   0.1403083   0.2405286), wk =   0.0380952
        k(    8) = (   0.0000000   0.1403083   0.3607929), wk =   0.0380952
        k(    9) = (   0.0000000   0.2806167   0.0000000), wk =   0.0190476
        k(   10) = (   0.0000000   0.2806167   0.1202643), wk =   0.0380952
        k(   11) = (   0.0000000   0.2806167   0.2405286), wk =   0.0380952
        k(   12) = (   0.0000000   0.2806167   0.3607929), wk =   0.0380952
        k(   13) = (   0.0000000  -0.4209250   0.0000000), wk =   0.0095238
        k(   14) = (   0.0000000  -0.4209250   0.1202643), wk =   0.0190476
        k(   15) = (   0.0000000  -0.4209250   0.2405286), wk =   0.0190476
        k(   16) = (   0.0000000  -0.4209250   0.3607929), wk =   0.0190476
        k(   17) = (   0.1683700   0.0000000   0.0000000), wk =   0.0190476
        k(   18) = (   0.1683700   0.0000000   0.1202643), wk =   0.0380952
        k(   19) = (   0.1683700   0.0000000   0.2405286), wk =   0.0380952
        k(   20) = (   0.1683700   0.0000000   0.3607929), wk =   0.0380952
        k(   21) = (   0.1683700   0.1403083   0.0000000), wk =   0.0380952
        k(   22) = (   0.1683700   0.1403083   0.1202643), wk =   0.0761905
        k(   23) = (   0.1683700   0.1403083   0.2405286), wk =   0.0761905
        k(   24) = (   0.1683700   0.1403083   0.3607929), wk =   0.0761905
        k(   25) = (   0.1683700   0.2806167   0.0000000), wk =   0.0380952
        k(   26) = (   0.1683700   0.2806167   0.1202643), wk =   0.0761905
        k(   27) = (   0.1683700   0.2806167   0.2405286), wk =   0.0761905
        k(   28) = (   0.1683700   0.2806167   0.3607929), wk =   0.0761905
        k(   29) = (   0.1683700  -0.4209250   0.0000000), wk =   0.0190476
        k(   30) = (   0.1683700  -0.4209250   0.1202643), wk =   0.0380952
        k(   31) = (   0.1683700  -0.4209250   0.2405286), wk =   0.0380952
        k(   32) = (   0.1683700  -0.4209250   0.3607929), wk =   0.0380952
        k(   33) = (   0.3367400   0.0000000   0.0000000), wk =   0.0190476
        k(   34) = (   0.3367400   0.0000000   0.1202643), wk =   0.0380952
        k(   35) = (   0.3367400   0.0000000   0.2405286), wk =   0.0380952
        k(   36) = (   0.3367400   0.0000000   0.3607929), wk =   0.0380952
        k(   37) = (   0.3367400   0.1403083   0.0000000), wk =   0.0380952
        k(   38) = (   0.3367400   0.1403083   0.1202643), wk =   0.0761905
        k(   39) = (   0.3367400   0.1403083   0.2405286), wk =   0.0761905
        k(   40) = (   0.3367400   0.1403083   0.3607929), wk =   0.0761905
        k(   41) = (   0.3367400   0.2806167   0.0000000), wk =   0.0380952
        k(   42) = (   0.3367400   0.2806167   0.1202643), wk =   0.0761905
        k(   43) = (   0.3367400   0.2806167   0.2405286), wk =   0.0761905
        k(   44) = (   0.3367400   0.2806167   0.3607929), wk =   0.0761905
        k(   45) = (   0.3367400  -0.4209250   0.0000000), wk =   0.0190476
        k(   46) = (   0.3367400  -0.4209250   0.1202643), wk =   0.0380952
        k(   47) = (   0.3367400  -0.4209250   0.2405286), wk =   0.0380952
        k(   48) = (   0.3367400  -0.4209250   0.3607929), wk =   0.0380952

     Largest allocated arrays     est. size (Mb)     dimensions
     Largest temporary arrays     est. size (Mb)     dimensions

     Initial potential from superposition of free atoms
     Check: negative starting charge=   -0.001116

     starting charge   77.94326, renormalised to  112.00000

     negative rho (up, down):  0.160E-02 0.000E+00
     Starting wfc are  120 randomized atomic wfcs

     Writing output data file Prototype-La-cP8-Cr3Si.save

     Self-consistent Calculation

[...]

     negative rho (up, down):  0.515E-04 0.000E+00

[...]

     iteration # 18     ecut=    40.00 Ry     beta=0.70
     CG style diagonalization
     c_bands:  1 eigenvalues not converged
     ethr =  2.55E-06,  avg # of iterations =  3.1

[...]

     total energy              =    -907.78988029 Ry
     Harris-Foulkes estimate   =    -907.78988245 Ry
     estimated scf accuracy    <       0.00000583 Ry

     iteration # 24     ecut=    40.00 Ry     beta=0.70
     CG style diagonalization
     ethr =  2.60E-09,  avg # of iterations =  3.5

     End of self-consistent calculation

[...]

          k = 0.3367-0.4209 0.3608 (  4464 PWs)   bands (ev):

   -38.8903 -38.8903 -18.7369 -18.7048 -18.5971 -18.5962 -18.4935 -18.4583
   -11.7041 -11.7037 -11.6941 -11.6940 -11.6879 -11.6871   0.2236   0.3918
     0.6102   0.6210   0.8297   0.8358   1.1382   1.2099   1.5084   1.5444
     1.6640   1.6782   1.8246   1.8336   1.8704   1.8858   1.8923   1.9460
    18.9341  18.9648  19.1377  19.1419  19.3034  19.3840  19.5397  19.5511
    19.6181  19.6356  21.0260  21.0313  21.5501  21.5547  22.1173  22.2292
    22.4198  22.4368  23.5577  23.5815  24.0942  24.1147  24.5956  24.6032
    25.0566  25.3958  26.0231  26.1621  26.2803  26.4565  26.7170  26.7460
    27.1048  27.1518  27.7213

     the Fermi energy is    24.3542 ev

!    total energy              =    -907.78988132 Ry
     Harris-Foulkes estimate   =    -907.78988134 Ry
     estimated scf accuracy    <       0.00000002 Ry

     The total energy is the sum of the following terms:

     one-electron contribution =      16.07238972 Ry
     hartree contribution      =      82.29555468 Ry
     xc contribution           =    -107.32229972 Ry
     ewald contribution        =    -898.34094761 Ry
     smearing contrib. (-TS)   =      -0.49457839 Ry

     convergence has been achieved in  24 iterations

     Forces acting on atoms (Ry/au):

     atom    1 type  1   force =     0.00000000    0.00000000    0.00000000
     atom    2 type  1   force =     0.00000000    0.00000000    0.00000000
     atom    3 type  1   force =     0.00000000    0.00000000    0.00000000
     atom    4 type  1   force =     0.00000000    0.00000000    0.00000000
     atom    5 type  1   force =     0.00000000    0.00000000    0.00000000
     atom    6 type  1   force =     0.00000000    0.00000000    0.00000000
     atom    7 type  2   force =     0.00000000    0.00000000    0.00000000
     atom    8 type  2   force =     0.00000000    0.00000000    0.00000000

     Total force =     0.000000     Total SCF correction =     0.000000

     entering subroutine stress ...

          total   stress  (Ry/bohr**3)                   (kbar)     P=  344.94
   0.00234488   0.00000000   0.00000000        344.94      0.00      0.00
   0.00000000   0.00234488   0.00000000          0.00    344.94      0.00
   0.00000000   0.00000000   0.00234488          0.00      0.00    344.94

     Writing output data file Prototype-La-cP8-Cr3Si.save

     General routines

     Parallel routines

   This run was terminated on:  16:51:35  22Mar2018

   JOB DONE.