     Program PWSCF v.5.0.2 starts on 22Mar2018 at 16:18:47

     Current dimensions of program PWSCF are:
     Max number of different atomic species (ntypx) = 10
     Max number of k-points (npk) =  40000
     Max angular momentum in pseudopotentials (lmaxx) =  3
     Waiting for input...
     Reading input from standard input

     Subspace diagonalization in iterative solution of the eigenvalue problem:
     a serial algorithm will be used

     bravais-lattice index     =            0
     lattice parameter (alat)  =       9.9235  a.u.
     unit-cell volume          =    1361.0366 (a.u.)^3
     number of atoms/cell      =           12
     number of atomic types    =            2
     number of electrons       =       188.00
     number of Kohn-Sham states=          113
     kinetic-energy cutoff     =      40.0000  Ry
     charge density cutoff     =     160.0000  Ry
     convergence threshold     =      1.0E-04
     mixing beta               =       0.7000
     number of iterations used =            8  plain     mixing
     Exchange-correlation      = SLA-PZ-NOGX-NOGC ( 1 1 0 0 0)
     EXX-fraction              =        0.00
     nstep                     =           50

     celldm(1)=   9.923489  celldm(2)=   0.000000  celldm(3)=   0.000000
     celldm(4)=   0.000000  celldm(5)=   0.000000  celldm(6)=   0.000000

     crystal axes: (cart. coord. in units of alat)
               a(1) = (   1.000000   0.000000   0.000000 )
               a(2) = (  -0.500000   0.866025   0.000000 )
               a(3) = (   0.000000   0.000000   1.608222 )

     reciprocal axes: (cart. coord. in units 2 pi/alat)
               b(1) = (  1.000000  0.577350  0.000000 )
               b(2) = (  0.000000  1.154701  0.000000 )
               b(3) = (  0.000000  0.000000  0.621805 )

     PseudoPot. # 1 for Pr read from file:
     /home/cwx6513/pp.La/Pr.UPF
     MD5 check sum: 70e2b4b153859e92c8c91247dfc63203
     Pseudo is Norm-conserving, Zval = 13.0
     Generated in analytical, separable form
     Using radial grid of 1255 points,  6 beta functions with:
                l(1) =   0
                l(2) =   0
                l(3) =   1
                l(4) =   1
                l(5) =   2
                l(6) =   3

     PseudoPot. # 2 for Eu read from file:
     /home/cwx6513/pp.La/Eu.UPF
     MD5 check sum: 5efdbbfc50c6a10138933a6429836ad2
     Pseudo is Norm-conserving, Zval = 17.0
     Generated in analytical, separable form
     Using radial grid of 1261 points,  6 beta functions with:
                l(1) =   0
                l(2) =   0
                l(3) =   1
                l(4) =   1
                l(5) =   2
                l(6) =   3

     atomic species   valence    mass     pseudopotential
        Mg            13.00    24.30500     Pr( 1.00)
        Zn            17.00    65.39000     Eu( 1.00)

     24 Sym. Ops., with inversion, found (12 have fractional translation)

   Cartesian axes

     site n.     atom                  positions (alat units)
         1           Mg  tau(   1) = (  -0.0000005   0.5773506   0.1003820  )
         2           Mg  tau(   2) = (   0.5000005   0.2886748   0.9044931  )
         3           Mg  tau(   3) = (   0.5000005   0.2886748   1.5078402  )
         4           Mg  tau(   4) = (  -0.0000005   0.5773506   0.7037291  )
         5           Zn  tau(   5) = (   0.0000000   0.0000000   0.0000000  )
         6           Zn  tau(   6) = (   0.0000000   0.0000000   0.8041111  )
         7           Zn  tau(   7) = (   0.0000000   0.2950739   1.2061667  )
         8           Zn  tau(   8) = (   0.7444585   0.1475370   0.4020556  )
         9           Zn  tau(   9) = (   0.2555415   0.1475370   0.4020556  )
        10           Zn  tau(  10) = (   0.2444585   0.7184884   1.2061667  )
        11           Zn  tau(  11) = (  -0.2444585   0.7184884   1.2061667  )
        12           Zn  tau(  12) = (   0.5000000   0.5709515   0.4020556  )

     number of k points=    12  gaussian smearing, width (Ry)=  0.1000
                       cart. coord. in units 2pi/alat
        k(    1) = (   0.0000000   0.0000000   0.0000000), wk =   0.0833333
        k(    2) = (   0.0000000   0.0000000   0.1554512), wk =   0.1666667
        k(    3) = (   0.0000000   0.0000000  -0.3109023), wk =   0.0833333
        k(    4) = (   0.0000000   0.3849002   0.0000000), wk =   0.1666667
        k(    5) = (   0.0000000   0.3849002   0.1554512), wk =   0.3333333
        k(    6) = (   0.0000000   0.3849002  -0.3109023), wk =   0.1666667
        k(    7) = (  -0.5000000  -0.2886751   0.0000000), wk =   0.0833333
        k(    8) = (  -0.5000000  -0.2886751   0.1554512), wk =   0.1666667
        k(    9) = (  -0.5000000  -0.2886751  -0.3109023), wk =   0.0833333
        k(   10) = (  -0.5000000   0.0962250   0.0000000), wk =   0.1666667
        k(   11) = (  -0.5000000   0.0962250   0.1554512), wk =   0.3333333
        k(   12) = (  -0.5000000   0.0962250  -0.3109023), wk =   0.1666667

     Largest allocated arrays     est. size (Mb)     dimensions
     Largest temporary arrays     est. size (Mb)     dimensions

     Initial potential from superposition of free atoms
     Check: negative starting charge=   -0.002087

     starting charge   51.96217, renormalised to  188.00000

     negative rho (up, down):  0.755E-02 0.000E+00
     Starting wfc are   80 randomized atomic wfcs

     Self-consistent Calculation

     iteration #  1     ecut=    40.00 Ry     beta=0.70
     CG style diagonalization
     c_bands:  5 eigenvalues not converged
     c_bands:  5 eigenvalues not converged
     c_bands:  5 eigenvalues not converged
     ethr =  1.00E-02,  avg # of iterations = 30.3

     negative rho (up, down):  0.224E-02 0.000E+00

     total energy              =   -1110.96175232 Ry
     Harris-Foulkes estimate   =   -4897.55243018 Ry
     estimated scf accuracy    <    4421.70127751 Ry

[...]

     iteration #  5     ecut=    40.00 Ry     beta=0.70
     CG style diagonalization
     ethr =  1.00E-02,  avg # of iterations =  4.5

[...]

     End of self-consistent calculation

          k = 0.0000 0.0000 0.0000 (  5769 PWs)   bands (ev):

   -35.2427 -35.0595 -34.8748 -34.6779 -34.5888 -34.5888 -34.5874 -34.5874
   -14.3420 -14.2821 -14.1269 -14.0359 -10.1866  -9.7048  -9.2092  -8.5022
    -8.5022  -8.3712  -8.3712  -8.3245  -8.3245  -7.8537  -7.5891  -7.5561
    -7.5561  -7.4903  -7.4903  -6.7564  -6.7486  -6.7485  -6.7014  -6.6933
    -6.5517  -6.5517  -6.4712  -6.4712   5.2851   5.3056   5.3240   5.3241
     5.3356   5.3356   6.0696   6.1328   6.1329   6.1329   6.1722   6.1722
    18.5405  19.3871  19.5924  20.5619  20.5619  21.1581  21.1581  21.4789
    21.5064  21.5065  21.5465  21.9000  21.9000  22.0375  22.5398  22.5399
    22.7947  23.6776  23.8722  23.8722  23.9818  23.9818  25.0094  25.2047
    25.2047  25.6769  26.3864  26.3864  26.4582  26.4583  26.7938  26.7939
    26.8331  26.9103  26.9103  27.1484  27.2195  27.2195  27.2408  27.5665
    27.7773  27.7773  27.8859  27.8859  28.0121  28.0121  29.1879  29.9448
    30.2149  30.2149  30.2427  30.2427  30.9217  30.9217  31.6837  31.6837
    32.4258  32.4408  32.7541  33.1079  33.1080  33.1383  33.1384  33.4531
    33.8052

[...]

          k =-0.5000-0.2887 0.0000 (  5800 PWs)   bands (ev):

[...]

     the Fermi energy is    28.9527 ev

!    total energy              =   -1771.87882014 Ry
     Harris-Foulkes estimate   =   -1771.87891174 Ry
     estimated scf accuracy    <       0.00009517 Ry

     The total energy is the sum of the following terms:

     one-electron contribution =     -39.52739504 Ry
     hartree contribution      =     197.66632563 Ry
     xc contribution           =    -195.82247140 Ry
     ewald contribution        =   -1733.57604782 Ry
     smearing contrib. (-TS)   =      -0.61923151 Ry

     convergence has been achieved in  13 iterations

     Forces acting on atoms (Ry/au):

     atom    1 type  1   force =     0.00000000    0.00000000    0.02662223
     atom    2 type  1   force =     0.00000000    0.00000000    0.02662223
     atom    3 type  1   force =     0.00000000    0.00000000   -0.02662223
     atom    4 type  1   force =     0.00000000    0.00000000   -0.02662223
     atom    5 type  2   force =     0.00000000    0.00000000    0.00000000
     atom    6 type  2   force =     0.00000000    0.00000000    0.00000000
     atom    7 type  2   force =     0.00000000   -0.00254889    0.00000000
     atom    8 type  2   force =     0.00220740   -0.00127445    0.00000000
     atom    9 type  2   force =    -0.00220740   -0.00127445    0.00000000
     atom   10 type  2   force =     0.00220740    0.00127445    0.00000000
     atom   11 type  2   force =    -0.00220740    0.00127445    0.00000000
     atom   12 type  2   force =     0.00000000    0.00254889    0.00000000

     Total force =     0.053609     Total SCF correction =     0.006880
     SCF correction compared to forces is large: reduce conv_thr to get better values

     entering subroutine stress ...

          total   stress  (Ry/bohr**3)                   (kbar)     P=  760.31
   0.00520183   0.00000000   0.00000000        765.22      0.00      0.00
   0.00000000   0.00520183   0.00000000          0.00    765.22      0.00
   0.00000000   0.00000000   0.00510187          0.00      0.00    750.51

     BFGS Geometry Optimization

     number of scf cycles    =   1
     number of bfgs steps    =   0

     enthalpy new            =   -1771.8788201373 Ry

     new trust radius        =       0.5000000000 bohr
     new conv_thr            =       0.0001000000 Ry

     new unit-cell volume =   1654.88112 a.u.^3 (   245.22808 Ang^3 )

CELL_PARAMETERS (alat=  9.92348860)
   1.067764947   0.000000000   0.000000000
  -0.533882474   0.924711570   0.000000000
   0.000000000   0.000000000   1.715109000

ATOMIC_POSITIONS (crystal)
Mg       0.333333000   0.666667000   0.063287246
Mg       0.666667000   0.333333000   0.563287246
Mg       0.666667000   0.333333000   0.936712754
Mg       0.333333000   0.666667000   0.436712754
Zn       0.000000000   0.000000000   0.000000000
Zn       0.000000000   0.000000000   0.500000000
Zn       0.170283726   0.340567451   0.750000000
Zn       0.829716274   0.170283726   0.250000000
Zn       0.340567451   0.170283726   0.250000000
Zn       0.659432549   0.829716274   0.750000000
Zn       0.170283726   0.829716274   0.750000000
Zn       0.829716274   0.659432549   0.250000000

     Writing output data file Prototype-La-hP12-MgZn2.save
     Check: negative starting charge=   -0.002087
     NEW-OLD atomic charge density approx. for the potential
     NEW k-points:
        k(    1) = (   0.0000000   0.0000000   0.0000000), wk =   0.0833333
        k(    2) = (   0.0000000   0.0000000   0.1457633), wk =   0.1666667
        k(    3) = (   0.0000000   0.0000000  -0.2915267), wk =   0.0833333
        k(    4) = (   0.0000000   0.3604728   0.0000000), wk =   0.1666667
        k(    5) = (   0.0000000   0.3604728   0.1457633), wk =   0.3333333
        k(    6) = (   0.0000000   0.3604728  -0.2915267), wk =   0.1666667
        k(    7) = (  -0.4682679  -0.2703546   0.0000000), wk =   0.0833333
        k(    8) = (  -0.4682679  -0.2703546   0.1457633), wk =   0.1666667
        k(    9) = (  -0.4682679  -0.2703546  -0.2915267), wk =   0.0833333
        k(   10) = (  -0.4682679   0.0901182   0.0000000), wk =   0.1666667
        k(   11) = (  -0.4682679   0.0901182   0.1457633), wk =   0.3333333
        k(   12) = (  -0.4682679   0.0901182  -0.2915267), wk =   0.1666667
     Check: negative starting charge=   -0.006950

     negative rho (up, down):  0.463E-02 0.000E+00
     extrapolated charge  197.22652, renormalised to  188.00000

[...]

     Total force =     0.064658     Total SCF correction =     0.003079

[...]

     enthalpy old            =   -1771.8788201373 Ry
     enthalpy new            =   -1772.2212692471 Ry

     CASE: enthalpy_new < enthalpy_old

     small trust_radius: resetting bfgs history

     new trust radius        =       0.3977767148 bohr
     new conv_thr            =       0.0000244801 Ry

[...]

     Writing output data file Prototype-La-hP12-MgZn2.save
     Check: negative starting charge=   -0.006950
     NEW-OLD atomic charge density approx. for the potential
     NEW k-points:
        k(    1) = (   0.0000000   0.0000000   0.0000000), wk =   0.0833333
        k(    2) = (   0.0000000   0.0000000   0.1529076), wk =   0.1666667
        k(    3) = (   0.0000000   0.0000000  -0.3058151), wk =   0.0833333
        k(    4) = (   0.0000000   0.3790024   0.0000000), wk =   0.1666667
        k(    5) = (   0.0000000   0.3790024   0.1529076), wk =   0.3333333
        k(    6) = (   0.0000000   0.3790024  -0.3058151), wk =   0.1666667
        k(    7) = (  -0.4923386  -0.2842518   0.0000000), wk =   0.0833333
        k(    8) = (  -0.4923386  -0.2842518   0.1529076), wk =   0.1666667
        k(    9) = (  -0.4923386  -0.2842518  -0.3058151), wk =   0.0833333
        k(   10) = (  -0.4923386   0.0947506   0.0000000), wk =   0.1666667
        k(   11) = (  -0.4923386   0.0947506   0.1529076), wk =   0.3333333
        k(   12) = (  -0.4923386   0.0947506  -0.3058151), wk =   0.1666667
     Check: negative starting charge=   -0.002870

     negative rho (up, down):  0.387E+00 0.000E+00
     extrapolated charge  179.70523, renormalised to  188.00000

[...]

     number of scf cycles    =   3
     number of bfgs steps    =   2

     enthalpy old            =   -1772.2212692471 Ry
     enthalpy new            =   -1772.1494297720 Ry

     CASE: enthalpy_new > enthalpy_old

     new trust radius        =       0.1682072361 bohr

     trust_radius < trust_radius_min

     resetting bfgs history

     Message from routine bfgs:
     history already reset at previous step: stopping
     new conv_thr            =       0.0000244801 Ry

     new unit-cell volume =   1416.14982 a.u.^3 (   209.85175 Ang^3 )

[...]

ATOMIC_POSITIONS (crystal)
Mg       0.333333000   0.666667000   0.064069168
Mg       0.666667000   0.333333000   0.564069168
Mg       0.666667000   0.333333000   0.935930832
Mg       0.333333000   0.666667000   0.435930832
Zn       0.000000000   0.000000000   0.000000000
Zn       0.000000000   0.000000000   0.500000000
Zn       0.171758247   0.343516493   0.750000000
Zn       0.828241753   0.171758247   0.250000000
Zn       0.343516493   0.171758247   0.250000000
Zn       0.656483507   0.828241753   0.750000000
Zn       0.171758247   0.828241753   0.750000000
Zn       0.828241753   0.656483507   0.250000000

     Writing output data file Prototype-La-hP12-MgZn2.save
     Check: negative starting charge=   -0.002870
     NEW-OLD atomic charge density approx. for the potential
     NEW k-points:
        k(    1) = (   0.0000000   0.0000000   0.0000000), wk =   0.0833333
        k(    2) = (   0.0000000   0.0000000   0.1533118), wk =   0.1666667
        k(    3) = (   0.0000000   0.0000000  -0.3066237), wk =   0.0833333
        k(    4) = (   0.0000000   0.3799597   0.0000000), wk =   0.1666667
        k(    5) = (   0.0000000   0.3799597   0.1533118), wk =   0.3333333
        k(    6) = (   0.0000000   0.3799597  -0.3066237), wk =   0.1666667
        k(    7) = (  -0.4935822  -0.2849698   0.0000000), wk =   0.0833333
        k(    8) = (  -0.4935822  -0.2849698   0.1533118), wk =   0.1666667
        k(    9) = (  -0.4935822  -0.2849698  -0.3066237), wk =   0.0833333
        k(   10) = (  -0.4935822   0.0949899   0.0000000), wk =   0.1666667
        k(   11) = (  -0.4935822   0.0949899   0.1533118), wk =   0.3333333
        k(   12) = (  -0.4935822   0.0949899  -0.3066237), wk =   0.1666667
     Check: negative starting charge=   -0.002676
     extrapolated charge  187.59910, renormalised to  188.00000

[...]

     The maximum number of steps has been reached.

     End of BFGS Geometry Optimization
Begin final coordinates
     new unit-cell volume =   1416.14982 a.u.^3 (   209.85175 Ang^3 )

CELL_PARAMETERS (alat=  9.92348860)
   1.013002570   0.000000000   0.000000000
  -0.506501285   0.877285960   0.000000000
   0.000000000   0.000000000   1.630663498

ATOMIC_POSITIONS (crystal)
Mg       0.333333000   0.666667000   0.064069168
Mg       0.666667000   0.333333000   0.564069168
Mg       0.666667000   0.333333000   0.935930832
Mg       0.333333000   0.666667000   0.435930832
Zn       0.000000000   0.000000000   0.000000000
Zn       0.000000000   0.000000000   0.500000000
Zn       0.171758247   0.343516493   0.750000000
Zn       0.828241753   0.171758247   0.250000000
Zn       0.343516493   0.171758247   0.250000000
Zn       0.656483507   0.828241753   0.750000000
Zn       0.171758247   0.828241753   0.750000000
Zn       0.828241753   0.656483507   0.250000000
End final coordinates

     A final scf calculation at the relaxed structure.
     The G-vectors are recalculated for the final unit cell
     Results may differ from those at the preceding step.

     bravais-lattice index     =            0
     lattice parameter (alat)  =       9.9235  a.u.
     unit-cell volume          =    1416.1498 (a.u.)^3
     number of atoms/cell      =           12
     number of atomic types    =            2
     number of electrons       =       188.00
     number of Kohn-Sham states=          113
     kinetic-energy cutoff     =      40.0000  Ry
     charge density cutoff     =     160.0000  Ry
     convergence threshold     =      2.4E-05
     mixing beta               =       0.7000
     number of iterations used =            8  plain     mixing
     Exchange-correlation      = SLA-PZ-NOGX-NOGC ( 1 1 0 0 0)
     EXX-fraction              =        0.00

     celldm(1)=   9.923489  celldm(2)=   0.000000  celldm(3)=   0.000000
     celldm(4)=   0.000000  celldm(5)=   0.000000  celldm(6)=   0.000000

     crystal axes: (cart. coord. in units of alat)
               a(1) = (   1.013003   0.000000   0.000000 )
               a(2) = (  -0.506501   0.877286   0.000000 )
               a(3) = (   0.000000   0.000000   1.630663 )

     reciprocal axes: (cart. coord. in units 2 pi/alat)
               b(1) = (  0.987164  0.569940  0.000000 )
               b(2) = (  0.000000  1.139879  0.000000 )
               b(3) = (  0.000000  0.000000  0.613247 )

     PseudoPot. # 1 for Pr read from file:
     /home/cwx6513/pp.La/Pr.UPF
     MD5 check sum: 70e2b4b153859e92c8c91247dfc63203
     Pseudo is Norm-conserving, Zval = 13.0
     Generated in analytical, separable form
     Using radial grid of 1255 points,  6 beta functions with:
                l(1) =   0
                l(2) =   0
                l(3) =   1
                l(4) =   1
                l(5) =   2
                l(6) =   3

     PseudoPot. # 2 for Eu read from file:
     /home/cwx6513/pp.La/Eu.UPF
     MD5 check sum: 5efdbbfc50c6a10138933a6429836ad2
     Pseudo is Norm-conserving, Zval = 17.0
     Generated in analytical, separable form
     Using radial grid of 1261 points,  6 beta functions with:
                l(1) =   0
                l(2) =   0
                l(3) =   1
                l(4) =   1
                l(5) =   2
                l(6) =   3

     atomic species   valence    mass     pseudopotential
        Mg            13.00    24.30500     Pr( 1.00)
        Zn            17.00    65.39000     Eu( 1.00)

     24 Sym. Ops., with inversion, found (12 have fractional translation)

   Cartesian axes

     site n.     atom                  positions (alat units)
         1           Mg  tau(   1) = (  -0.0000005   0.5848576   0.1044753  )
         2           Mg  tau(   2) = (   0.5065018   0.2924284   0.9198070  )
         3           Mg  tau(   3) = (   0.5065018   0.2924284   1.5261882  )
         4           Mg  tau(   4) = (  -0.0000005   0.5848576   0.7108565  )
         5           Zn  tau(   5) = (   0.0000000   0.0000000   0.0000000  )
         6           Zn  tau(   6) = (   0.0000000   0.0000000   0.8153317  )
         7           Zn  tau(   7) = (   0.0000000   0.3013622   1.2229976  )
         8           Zn  tau(   8) = (   0.7520153   0.1506811   0.4076659  )
         9           Zn  tau(   9) = (   0.2609873   0.1506811   0.4076659  )
        10           Zn  tau(  10) = (   0.2455140   0.7266049   1.2229976  )
        11           Zn  tau(  11) = (  -0.2455140   0.7266049   1.2229976  )
        12           Zn  tau(  12) = (   0.5065013   0.5759238   0.4076659  )

     number of k points=    12  gaussian smearing, width (Ry)=  0.1000
                       cart. coord. in units 2pi/alat
        k(    1) = (   0.0000000   0.0000000   0.0000000), wk =   0.0833333
        k(    2) = (   0.0000000   0.0000000   0.1533118), wk =   0.1666667
        k(    3) = (   0.0000000   0.0000000  -0.3066237), wk =   0.0833333
        k(    4) = (   0.0000000   0.3799597   0.0000000), wk =   0.1666667
        k(    5) = (   0.0000000   0.3799597   0.1533118), wk =   0.3333333
        k(    6) = (   0.0000000   0.3799597  -0.3066237), wk =   0.1666667
        k(    7) = (  -0.4935822  -0.2849698   0.0000000), wk =   0.0833333
        k(    8) = (  -0.4935822  -0.2849698   0.1533118), wk =   0.1666667
        k(    9) = (  -0.4935822  -0.2849698  -0.3066237), wk =   0.0833333
        k(   10) = (  -0.4935822   0.0949899   0.0000000), wk =   0.1666667
        k(   11) = (  -0.4935822   0.0949899   0.1533118), wk =   0.3333333
        k(   12) = (  -0.4935822   0.0949899  -0.3066237), wk =   0.1666667

     Largest allocated arrays     est. size (Mb)     dimensions
     Largest temporary arrays     est. size (Mb)     dimensions

     Initial potential from superposition of free atoms
     Check: negative starting charge=   -0.001073

     starting charge   51.96217, renormalised to  188.00000

     negative rho (up, down):  0.388E-02 0.000E+00
     Starting wfc are   80 randomized atomic wfcs

     Writing output data file Prototype-La-hP12-MgZn2.save

     Self-consistent Calculation

[...]

     negative rho (up, down):  0.698E-04 0.000E+00

[...]

     iteration # 12     ecut=    40.00 Ry     beta=0.70
     CG style diagonalization
     c_bands:  2 eigenvalues not converged
     c_bands:  1 eigenvalues not converged
     ethr =  4.06E-06,  avg # of iterations =  3.4

     total energy              =   -1772.26500709 Ry
     Harris-Foulkes estimate   =   -1772.26506217 Ry
     estimated scf accuracy    <       0.00014784 Ry

     iteration # 13     ecut=    40.00 Ry     beta=0.70
     CG style diagonalization
     ethr =  7.86E-08,  avg # of iterations =  4.7

     End of self-consistent calculation

[...]

          k = 0.0000 0.3800-0.3066 (  6042 PWs)   bands (ev):

[...]

          k =-0.4936 0.0950-0.3066 (  6062 PWs)   bands (ev):

   -36.1579 -36.1579 -36.0181 -36.0181 -35.7947 -35.7947 -35.7782 -35.7782
   -15.5887 -15.5886 -15.4782 -15.4781 -10.3285 -10.3285  -9.7766  -9.7766
    -9.2856  -9.2856  -9.2549  -9.2549  -9.1259  -9.1259  -8.9650  -8.9650
    -8.6549  -8.6549  -8.4300  -8.4300  -8.2627  -8.2627  -8.1574  -8.1574
    -7.9645  -7.9645  -7.8881  -7.8881   4.0232   4.0232   4.0495   4.0495
     4.2803   4.2803   4.6101   4.6101   4.8657   4.8658   4.8840   4.8840
    19.4414  19.4414  20.1692  20.1692  20.6823  20.6823  20.7976  20.7976
    21.0529  21.0530  21.2389  21.2389  21.5454  21.5454  21.7642  21.7642
    22.0656  22.0656  22.4552  22.4552  22.7983  22.7983  23.3316  23.3316
    23.5299  23.5299  23.8956  23.8957  24.1756  24.1756  24.7897  24.7897
    24.9532  24.9532  25.2449  25.2449  25.6205  25.6205  26.0848  26.0848
    26.5856  26.5856  27.4052  27.4052  27.5093  27.5093  27.6612  27.6612
    28.1929  28.1929  28.6774  28.6774  29.0230  29.0230  29.5333  29.5333
    30.2259  30.2260  30.6232  30.6233  31.0317  31.0323  31.2728  31.2730
    32.4262

     the Fermi energy is    27.6545 ev

!    total energy              =   -1772.26510174 Ry
     Harris-Foulkes estimate   =   -1772.26511506 Ry
     estimated scf accuracy    <       0.00001610 Ry

     The total energy is the sum of the following terms:

     one-electron contribution =     -68.74923638 Ry
     hartree contribution      =     203.76581182 Ry
     xc contribution           =    -194.94238250 Ry
     ewald contribution        =   -1711.69436103 Ry
     smearing contrib. (-TS)   =      -0.64493365 Ry

     convergence has been achieved in  13 iterations

     Forces acting on atoms (Ry/au):

     atom    1 type  1   force =     0.00000000    0.00000000    0.01683220
     atom    2 type  1   force =     0.00000000    0.00000000    0.01683220
     atom    3 type  1   force =     0.00000000    0.00000000   -0.01683220
     atom    4 type  1   force =     0.00000000    0.00000000   -0.01683220
     atom    5 type  2   force =     0.00000000    0.00000000    0.00000000
     atom    6 type  2   force =     0.00000000    0.00000000    0.00000000
     atom    7 type  2   force =     0.00000000   -0.03620872    0.00000000
     atom    8 type  2   force =     0.03135767   -0.01810436    0.00000000
     atom    9 type  2   force =    -0.03135767   -0.01810436    0.00000000
     atom   10 type  2   force =     0.03135767    0.01810436    0.00000000
     atom   11 type  2   force =    -0.03135767    0.01810436    0.00000000
     atom   12 type  2   force =     0.00000000    0.03620872    0.00000000

     Total force =     0.094867     Total SCF correction =     0.002482

     entering subroutine stress ...

          total   stress  (Ry/bohr**3)                   (kbar)     P=  541.78
   0.00377466   0.00000000   0.00000000        555.27      0.00      0.00
   0.00000000   0.00377466   0.00000000          0.00    555.27      0.00
   0.00000000   0.00000000   0.00349961          0.00      0.00    514.81

     Writing output data file Prototype-La-hP12-MgZn2.save

     General routines

     Parallel routines

   This run was terminated on:  17: 3:27  22Mar2018

   JOB DONE.