     Program PWSCF v.5.0.2 starts on 22Mar2018 at 16:18:49

     Current dimensions of program PWSCF are:
     Max number of different atomic species (ntypx) = 10
     Max number of k-points (npk) =  40000
     Max angular momentum in pseudopotentials (lmaxx) =  3
     Waiting for input...
     Reading input from standard input

     Subspace diagonalization in iterative solution of the eigenvalue problem:
     a serial algorithm will be used

     bravais-lattice index     =            0
     lattice parameter (alat)  =      12.0168  a.u.
     unit-cell volume          =    1187.3413 (a.u.)^3
     number of atoms/cell      =            8
     number of atomic types    =            2
     number of electrons       =       112.00
     number of Kohn-Sham states=           67
     kinetic-energy cutoff     =      40.0000  Ry
     charge density cutoff     =     160.0000  Ry
     convergence threshold     =      1.0E-04
     mixing beta               =       0.7000
     number of iterations used =            8  plain     mixing
     Exchange-correlation      = SLA-PZ-NOGX-NOGC ( 1 1 0 0 0)
     EXX-fraction              =        0.00
     nstep                     =           50

     celldm(1)=  12.016801  celldm(2)=   0.000000  celldm(3)=   0.000000
     celldm(4)=   0.000000  celldm(5)=   0.000000  celldm(6)=   0.000000

     crystal axes: (cart. coord. in units of alat)
               a(1) = (   1.000000   0.000000   0.000000 )
               a(2) = (  -0.500000   0.866025   0.000000 )
               a(3) = (   0.000000   0.000000   0.790093 )

     reciprocal axes: (cart. coord. in units 2 pi/alat)
               b(1) = (  1.000000  0.577350  0.000000 )
               b(2) = (  0.000000  1.154701  0.000000 )
               b(3) = (  0.000000  0.000000  1.265674 )

     PseudoPot. # 1 for Pr read from file:
     /home/cwx6513/pp.La/Pr.UPF
     MD5 check sum: 70e2b4b153859e92c8c91247dfc63203
     Pseudo is Norm-conserving, Zval = 13.0
     Generated in analytical, separable form
     Using radial grid of 1255 points,  6 beta functions with:
                l(1) =   0
                l(2) =   0
                l(3) =   1
                l(4) =   1
                l(5) =   2
                l(6) =   3

     PseudoPot. # 2 for Eu read from file:
     /home/cwx6513/pp.La/Eu.UPF
     MD5 check sum: 5efdbbfc50c6a10138933a6429836ad2
     Pseudo is Norm-conserving, Zval = 17.0
     Generated in analytical, separable form
     Using radial grid of 1261 points,  6 beta functions with:
                l(1) =   0
                l(2) =   0
                l(3) =   1
                l(4) =   1
                l(5) =   2
                l(6) =   3

     atomic species   valence    mass     pseudopotential
        Mg            13.00    24.30500     Pr( 1.00)
        Cd            17.00   112.41100     Eu( 1.00)

     24 Sym. Ops., with inversion, found (12 have fractional translation)

   Cartesian axes

     site n.     atom                  positions (alat units)
         1           Mg  tau(   1) = (   0.2478935   0.7204716   0.1975233  )
         2           Mg  tau(   2) = (   0.7478935   0.1455538   0.5925699  )
         3           Mg  tau(   3) = (   0.2521065   0.1455538   0.5925699  )
         4           Mg  tau(   4) = (  -0.2478935   0.7204716   0.1975233  )
         5           Mg  tau(   5) = (   0.0000000   0.2911075   0.1975233  )
         6           Mg  tau(   6) = (   0.5000000   0.5749179   0.5925699  )
         7           Cd  tau(   7) = (   0.5000005   0.2886748   0.1975233  )
         8           Cd  tau(   8) = (  -0.0000005   0.5773506   0.5925699  )

     number of k points=    64  gaussian smearing, width (Ry)=  0.1000
                       cart. coord. in units 2pi/alat
        k(    1) = (   0.0000000   0.0000000   0.0000000), wk =   0.0095238
        k(    2) = (   0.0000000   0.0000000   0.1808105), wk =   0.0190476
        k(    3) = (   0.0000000   0.0000000   0.3616210), wk =   0.0190476
        k(    4) = (   0.0000000   0.0000000   0.5424315), wk =   0.0190476
        k(    5) = (   0.0000000   0.1924501   0.0000000), wk =   0.0190476
        k(    6) = (   0.0000000   0.1924501   0.1808105), wk =   0.0380952
        k(    7) = (   0.0000000   0.1924501   0.3616210), wk =   0.0380952
        k(    8) = (   0.0000000   0.1924501   0.5424315), wk =   0.0380952
        k(    9) = (   0.0000000   0.3849002   0.0000000), wk =   0.0190476
        k(   10) = (   0.0000000   0.3849002   0.1808105), wk =   0.0380952
        k(   11) = (   0.0000000   0.3849002   0.3616210), wk =   0.0380952
        k(   12) = (   0.0000000   0.3849002   0.5424315), wk =   0.0380952
        k(   13) = (   0.0000000  -0.5773503   0.0000000), wk =   0.0095238
        k(   14) = (   0.0000000  -0.5773503   0.1808105), wk =   0.0190476
        k(   15) = (   0.0000000  -0.5773503   0.3616210), wk =   0.0190476
        k(   16) = (   0.0000000  -0.5773503   0.5424315), wk =   0.0190476
        k(   17) = (   0.2000000   0.1154701   0.0000000), wk =   0.0190476
        k(   18) = (   0.2000000   0.1154701   0.1808105), wk =   0.0380952
        k(   19) = (   0.2000000   0.1154701   0.3616210), wk =   0.0380952
        k(   20) = (   0.2000000   0.1154701   0.5424315), wk =   0.0380952
        k(   21) = (   0.2000000   0.3079201   0.0000000), wk =   0.0190476
        k(   22) = (   0.2000000   0.3079201   0.1808105), wk =   0.0380952
        k(   23) = (   0.2000000   0.3079201   0.3616210), wk =   0.0380952
        k(   24) = (   0.2000000   0.3079201   0.5424315), wk =   0.0380952
        k(   25) = (   0.2000000   0.5003702   0.0000000), wk =   0.0190476
        k(   26) = (   0.2000000   0.5003702   0.1808105), wk =   0.0380952
        k(   27) = (   0.2000000   0.5003702   0.3616210), wk =   0.0380952
        k(   28) = (   0.2000000   0.5003702   0.5424315), wk =   0.0380952
        k(   29) = (   0.2000000  -0.4618802   0.0000000), wk =   0.0190476
        k(   30) = (   0.2000000  -0.4618802   0.1808105), wk =   0.0380952
        k(   31) = (   0.2000000  -0.4618802   0.3616210), wk =   0.0380952
        k(   32) = (   0.2000000  -0.4618802   0.5424315), wk =   0.0380952
        k(   33) = (   0.2000000  -0.2694301   0.0000000), wk =   0.0190476
        k(   34) = (   0.2000000  -0.2694301   0.1808105), wk =   0.0380952
        k(   35) = (   0.2000000  -0.2694301   0.3616210), wk =   0.0380952
        k(   36) = (   0.2000000  -0.2694301   0.5424315), wk =   0.0380952
        k(   37) = (   0.2000000  -0.0769800   0.0000000), wk =   0.0190476
        k(   38) = (   0.2000000  -0.0769800   0.1808105), wk =   0.0380952
        k(   39) = (   0.2000000  -0.0769800   0.3616210), wk =   0.0380952
        k(   40) = (   0.2000000  -0.0769800   0.5424315), wk =   0.0380952
        k(   41) = (   0.4000000   0.2309401   0.0000000), wk =   0.0190476
        k(   42) = (   0.4000000   0.2309401   0.1808105), wk =   0.0380952
        k(   43) = (   0.4000000   0.2309401   0.3616210), wk =   0.0380952
        k(   44) = (   0.4000000   0.2309401   0.5424315), wk =   0.0380952
        k(   45) = (   0.4000000   0.4233902   0.0000000), wk =   0.0190476
        k(   46) = (   0.4000000   0.4233902   0.1808105), wk =   0.0380952
        k(   47) = (   0.4000000   0.4233902   0.3616210), wk =   0.0380952
        k(   48) = (   0.4000000   0.4233902   0.5424315), wk =   0.0380952
        k(   49) = (   0.4000000   0.6158403   0.0000000), wk =   0.0190476
        k(   50) = (   0.4000000   0.6158403   0.1808105), wk =   0.0380952
        k(   51) = (   0.4000000   0.6158403   0.3616210), wk =   0.0380952
        k(   52) = (   0.4000000   0.6158403   0.5424315), wk =   0.0380952
        k(   53) = (   0.4000000  -0.3464102   0.0000000), wk =   0.0190476
        k(   54) = (   0.4000000  -0.3464102   0.1808105), wk =   0.0380952
        k(   55) = (   0.4000000  -0.3464102   0.3616210), wk =   0.0380952
        k(   56) = (   0.4000000  -0.3464102   0.5424315), wk =   0.0380952
        k(   57) = (   0.4000000  -0.1539601   0.0000000), wk =   0.0190476
        k(   58) = (   0.4000000  -0.1539601   0.1808105), wk =   0.0380952
        k(   59) = (   0.4000000  -0.1539601   0.3616210), wk =   0.0380952
        k(   60) = (   0.4000000  -0.1539601   0.5424315), wk =   0.0380952
        k(   61) = (   0.4000000   0.0384900   0.0000000), wk =   0.0190476
        k(   62) = (   0.4000000   0.0384900   0.1808105), wk =   0.0380952
        k(   63) = (   0.4000000   0.0384900   0.3616210), wk =   0.0380952
        k(   64) = (   0.4000000   0.0384900   0.5424315), wk =   0.0380952

     Largest allocated arrays     est. size (Mb)     dimensions
     Largest temporary arrays     est. size (Mb)     dimensions

     Initial potential from superposition of free atoms
     Check: negative starting charge=   -0.002192

     starting charge   77.94326, renormalised to  112.00000

     negative rho (up, down):  0.315E-02 0.000E+00
     Starting wfc are  120 randomized atomic wfcs

     Self-consistent Calculation

     iteration #  1     ecut=    40.00 Ry     beta=0.70
     CG style diagonalization
     ethr =  1.00E-02,  avg # of iterations = 17.8

     negative rho (up, down):  0.932E-03 0.000E+00

     total energy              =     397.46366356 Ry
     Harris-Foulkes estimate   =   -1642.40915817 Ry
     estimated scf accuracy    <    2405.50399822 Ry

[...]

     iteration #  3     ecut=    40.00 Ry     beta=0.70
     CG style diagonalization
     c_bands:  1 eigenvalues not converged
     c_bands:  1 eigenvalues not converged
     c_bands:  1 eigenvalues not converged
     c_bands:  1 eigenvalues not converged
     c_bands:  1 eigenvalues not converged
     c_bands:  1 eigenvalues not converged
     c_bands:  1 eigenvalues not converged
     c_bands:  2 eigenvalues not converged
     c_bands:  1 eigenvalues not converged
     c_bands:  1 eigenvalues not converged
     c_bands:  1 eigenvalues not converged
     c_bands:  1 eigenvalues not converged
     c_bands:  1 eigenvalues not converged
     c_bands:  1 eigenvalues not converged
     c_bands:  2 eigenvalues not converged
     c_bands:  1 eigenvalues not converged
     c_bands:  1 eigenvalues not converged
     c_bands:  1 eigenvalues not converged
     c_bands:  1 eigenvalues not converged
     c_bands:  1 eigenvalues not converged
     c_bands:  1 eigenvalues not converged
     c_bands:  1 eigenvalues not converged
     c_bands:  1 eigenvalues not converged
     c_bands:  1 eigenvalues not converged
     c_bands:  1 eigenvalues not converged
     c_bands:  1 eigenvalues not converged
     c_bands:  1 eigenvalues not converged
     ethr =  1.00E-02,  avg # of iterations = 10.5

[...]

     End of self-consistent calculation

          k = 0.0000 0.0000 0.0000 (  5047 PWs)   bands (ev):

   -41.8781 -41.8771 -22.3198 -21.9886 -21.9885 -21.9362 -21.7997 -21.7997
   -14.6636 -14.6485 -14.5976 -14.5976 -14.5908 -14.5908  -3.2460  -3.0322
    -2.7376  -2.4469  -2.4469  -2.3659  -2.3658  -2.3151  -2.3151  -1.8087
    -1.4316  -1.4315  -1.1411  -1.1410  -1.0937  -1.0937  -1.0812  -1.0606
    15.4105  15.6140  15.6140  15.7789  15.8437  16.3380  16.3381  16.7355
[...]
        k(   14) = (   0.0000000  -0.5801566   0.1801462), wk =   0.0190476
        k(   15) = (   0.0000000  -0.5801566   0.3602924), wk =   0.0190476
        k(   16) = (   0.0000000  -0.5801566   0.5404386), wk =   0.0190476
        k(   17) = (   0.2009721   0.1160313   0.0000000), wk =   0.0190476
        k(   18) = (   0.2009721   0.1160313   0.1801462), wk =   0.0380952
        k(   19) = (   0.2009721   0.1160313   0.3602924), wk =   0.0380952
        k(   20) = (   0.2009721   0.1160313   0.5404386), wk =   0.0380952
        k(   21) = (   0.2009721   0.3094169   0.0000000), wk =   0.0190476
        k(   22) = (   0.2009721   0.3094169   0.1801462), wk =   0.0380952
        k(   23) = (   0.2009721   0.3094169   0.3602924), wk =   0.0380952
        k(   24) = (   0.2009721   0.3094169   0.5404386), wk =   0.0380952
        k(   25) = (   0.2009721   0.5028024   0.0000000), wk =   0.0190476
        k(   26) = (   0.2009721   0.5028024   0.1801462), wk =   0.0380952
        k(   27) = (   0.2009721   0.5028024   0.3602924), wk =   0.0380952
        k(   28) = (   0.2009721   0.5028024   0.5404386), wk =   0.0380952
        k(   29) = (   0.2009721  -0.4641253   0.0000000), wk =   0.0190476
        k(   30) = (   0.2009721  -0.4641253   0.1801462), wk =   0.0380952
        k(   31) = (   0.2009721  -0.4641253   0.3602924), wk =   0.0380952
        k(   32) = (   0.2009721  -0.4641253   0.5404386), wk =   0.0380952
        k(   33) = (   0.2009721  -0.2707397   0.0000000), wk =   0.0190476
        k(   34) = (   0.2009721  -0.2707397   0.1801462), wk =   0.0380952
        k(   35) = (   0.2009721  -0.2707397   0.3602924), wk =   0.0380952
        k(   36) = (   0.2009721  -0.2707397   0.5404386), wk =   0.0380952
        k(   37) = (   0.2009721  -0.0773542   0.0000000), wk =   0.0190476
        k(   38) = (   0.2009721  -0.0773542   0.1801462), wk =   0.0380952
        k(   39) = (   0.2009721  -0.0773542   0.3602924), wk =   0.0380952
        k(   40) = (   0.2009721  -0.0773542   0.5404386), wk =   0.0380952
        k(   41) = (   0.4019443   0.2320626   0.0000000), wk =   0.0190476
        k(   42) = (   0.4019443   0.2320626   0.1801462), wk =   0.0380952
        k(   43) = (   0.4019443   0.2320626   0.3602924), wk =   0.0380952
        k(   44) = (   0.4019443   0.2320626   0.5404386), wk =   0.0380952
        k(   45) = (   0.4019443   0.4254482   0.0000000), wk =   0.0190476
        k(   46) = (   0.4019443   0.4254482   0.1801462), wk =   0.0380952
        k(   47) = (   0.4019443   0.4254482   0.3602924), wk =   0.0380952
        k(   48) = (   0.4019443   0.4254482   0.5404386), wk =   0.0380952
        k(   49) = (   0.4019443   0.6188337   0.0000000), wk =   0.0190476
        k(   50) = (   0.4019443   0.6188337   0.1801462), wk =   0.0380952
        k(   51) = (   0.4019443   0.6188337   0.3602924), wk =   0.0380952
        k(   52) = (   0.4019443   0.6188337   0.5404386), wk =   0.0380952
        k(   53) = (   0.4019443  -0.3480940   0.0000000), wk =   0.0190476
        k(   54) = (   0.4019443  -0.3480940   0.1801462), wk =   0.0380952
        k(   55) = (   0.4019443  -0.3480940   0.3602924), wk =   0.0380952
        k(   56) = (   0.4019443  -0.3480940   0.5404386), wk =   0.0380952
        k(   57) = (   0.4019443  -0.1547084   0.0000000), wk =   0.0190476
        k(   58) = (   0.4019443  -0.1547084   0.1801462), wk =   0.0380952
        k(   59) = (   0.4019443  -0.1547084   0.3602924), wk =   0.0380952
        k(   60) = (   0.4019443  -0.1547084   0.5404386), wk =   0.0380952
        k(   61) = (   0.4019443   0.0386771   0.0000000), wk =   0.0190476
        k(   62) = (   0.4019443   0.0386771   0.1801462), wk =   0.0380952
        k(   63) = (   0.4019443   0.0386771   0.3602924), wk =   0.0380952
        k(   64) = (   0.4019443   0.0386771   0.5404386), wk =   0.0380952
     Check: negative starting charge=   -0.002103
     extrapolated charge  111.90175, renormalised to  112.00000

[...]

     The maximum number of steps has been reached.

     End of BFGS Geometry Optimization
Begin final coordinates
     new unit-cell volume =   1180.21847 a.u.^3 (   174.89033 Ang^3 )

CELL_PARAMETERS (alat= 12.01680127)
   0.995162812   0.000000000   0.000000000
  -0.497581406   0.861836276   0.000000000
   0.000000000   0.000000000   0.793006712

ATOMIC_POSITIONS (crystal)
Mg       0.664025720   0.832012860   0.250000000
Mg       0.832012860   0.167987140   0.750000000
Mg       0.335974280   0.167987140   0.750000000
Mg       0.167987140   0.832012860   0.250000000
Mg       0.167987140   0.335974280   0.250000000
Mg       0.832012860   0.664025720   0.750000000
Cd       0.666667000   0.333333000   0.250000000
Cd       0.333333000   0.666667000   0.750000000
End final coordinates

     A final scf calculation at the relaxed structure.
     The G-vectors are recalculated for the final unit cell
     Results may differ from those at the preceding step.

     bravais-lattice index     =            0
     lattice parameter (alat)  =      12.0168  a.u.
     unit-cell volume          =    1180.2185 (a.u.)^3
     number of atoms/cell      =            8
     number of atomic types    =            2
     number of electrons       =       112.00
     number of Kohn-Sham states=           67
     kinetic-energy cutoff     =      40.0000  Ry
     charge density cutoff     =     160.0000  Ry
     convergence threshold     =      1.0E-06
     mixing beta               =       0.7000
     number of iterations used =            8  plain     mixing
     Exchange-correlation      = SLA-PZ-NOGX-NOGC ( 1 1 0 0 0)
     EXX-fraction              =        0.00

     celldm(1)=  12.016801  celldm(2)=   0.000000  celldm(3)=   0.000000
     celldm(4)=   0.000000  celldm(5)=   0.000000  celldm(6)=   0.000000

     crystal axes: (cart. coord. in units of alat)
               a(1) = (   0.995163   0.000000   0.000000 )
               a(2) = (  -0.497581   0.861836   0.000000 )
               a(3) = (   0.000000   0.000000   0.793007 )

     reciprocal axes: (cart. coord. in units 2 pi/alat)
               b(1) = (  1.004861  0.580157  0.000000 )
               b(2) = (  0.000000  1.160313  0.000000 )
               b(3) = (  0.000000  0.000000  1.261023 )

     PseudoPot. # 1 for Pr read from file:
     /home/cwx6513/pp.La/Pr.UPF
     MD5 check sum: 70e2b4b153859e92c8c91247dfc63203
     Pseudo is Norm-conserving, Zval = 13.0
     Generated in analytical, separable form
     Using radial grid of 1255 points,  6 beta functions with:
                l(1) =   0
                l(2) =   0
                l(3) =   1
                l(4) =   1
                l(5) =   2
                l(6) =   3

     PseudoPot. # 2 for Eu read from file:
     /home/cwx6513/pp.La/Eu.UPF
     MD5 check sum: 5efdbbfc50c6a10138933a6429836ad2
     Pseudo is Norm-conserving, Zval = 17.0
     Generated in analytical, separable form
     Using radial grid of 1261 points,  6 beta functions with:
                l(1) =   0
                l(2) =   0
                l(3) =   1
                l(4) =   1
                l(5) =   2
                l(6) =   3

     atomic species   valence    mass     pseudopotential
        Mg            13.00    24.30500     Pr( 1.00)
        Cd            17.00   112.41100     Eu( 1.00)

     24 Sym. Ops., with inversion, found (12 have fractional translation)

   Cartesian axes

     site n.     atom                  positions (alat units)
         1           Mg  tau(   1) = (   0.2468196   0.7170589   0.1982517  )
         2           Mg  tau(   2) = (   0.7444010   0.1447774   0.5947550  )
         3           Mg  tau(   3) = (   0.2507618   0.1447774   0.5947550  )
         4           Mg  tau(   4) = (  -0.2468196   0.7170589   0.1982517  )
         5           Mg  tau(   5) = (   0.0000000   0.2895548   0.1982517  )
         6           Mg  tau(   6) = (   0.4975814   0.5722815   0.5947550  )
         7           Cd  tau(   7) = (   0.4975819   0.2872785   0.1982517  )
         8           Cd  tau(   8) = (  -0.0000005   0.5745578   0.5947550  )

     number of k points=    64  gaussian smearing, width (Ry)=  0.1000
                       cart. coord. in units 2pi/alat
        k(    1) = (   0.0000000   0.0000000   0.0000000), wk =   0.0095238
        k(    2) = (   0.0000000   0.0000000   0.1801462), wk =   0.0190476
        k(    3) = (   0.0000000   0.0000000   0.3602924), wk =   0.0190476
        k(    4) = (   0.0000000   0.0000000   0.5404386), wk =   0.0190476
        k(    5) = (   0.0000000   0.1933855   0.0000000), wk =   0.0190476
        k(    6) = (   0.0000000   0.1933855   0.1801462), wk =   0.0380952
        k(    7) = (   0.0000000   0.1933855   0.3602924), wk =   0.0380952
        k(    8) = (   0.0000000   0.1933855   0.5404386), wk =   0.0380952
        k(    9) = (   0.0000000   0.3867711   0.0000000), wk =   0.0190476
        k(   10) = (   0.0000000   0.3867711   0.1801462), wk =   0.0380952
        k(   11) = (   0.0000000   0.3867711   0.3602924), wk =   0.0380952
        k(   12) = (   0.0000000   0.3867711   0.5404386), wk =   0.0380952
        k(   13) = (   0.0000000  -0.5801566   0.0000000), wk =   0.0095238
        k(   14) = (   0.0000000  -0.5801566   0.1801462), wk =   0.0190476
        k(   15) = (   0.0000000  -0.5801566   0.3602924), wk =   0.0190476
        k(   16) = (   0.0000000  -0.5801566   0.5404386), wk =   0.0190476
        k(   17) = (   0.2009721   0.1160313   0.0000000), wk =   0.0190476
        k(   18) = (   0.2009721   0.1160313   0.1801462), wk =   0.0380952
        k(   19) = (   0.2009721   0.1160313   0.3602924), wk =   0.0380952
        k(   20) = (   0.2009721   0.1160313   0.5404386), wk =   0.0380952
        k(   21) = (   0.2009721   0.3094169   0.0000000), wk =   0.0190476
        k(   22) = (   0.2009721   0.3094169   0.1801462), wk =   0.0380952
        k(   23) = (   0.2009721   0.3094169   0.3602924), wk =   0.0380952
        k(   24) = (   0.2009721   0.3094169   0.5404386), wk =   0.0380952
        k(   25) = (   0.2009721   0.5028024   0.0000000), wk =   0.0190476
        k(   26) = (   0.2009721   0.5028024   0.1801462), wk =   0.0380952
        k(   27) = (   0.2009721   0.5028024   0.3602924), wk =   0.0380952
        k(   28) = (   0.2009721   0.5028024   0.5404386), wk =   0.0380952
        k(   29) = (   0.2009721  -0.4641253   0.0000000), wk =   0.0190476
        k(   30) = (   0.2009721  -0.4641253   0.1801462), wk =   0.0380952
        k(   31) = (   0.2009721  -0.4641253   0.3602924), wk =   0.0380952
        k(   32) = (   0.2009721  -0.4641253   0.5404386), wk =   0.0380952
        k(   33) = (   0.2009721  -0.2707397   0.0000000), wk =   0.0190476
        k(   34) = (   0.2009721  -0.2707397   0.1801462), wk =   0.0380952
        k(   35) = (   0.2009721  -0.2707397   0.3602924), wk =   0.0380952
        k(   36) = (   0.2009721  -0.2707397   0.5404386), wk =   0.0380952
        k(   37) = (   0.2009721  -0.0773542   0.0000000), wk =   0.0190476
        k(   38) = (   0.2009721  -0.0773542   0.1801462), wk =   0.0380952
        k(   39) = (   0.2009721  -0.0773542   0.3602924), wk =   0.0380952
        k(   40) = (   0.2009721  -0.0773542   0.5404386), wk =   0.0380952
        k(   41) = (   0.4019443   0.2320626   0.0000000), wk =   0.0190476
        k(   42) = (   0.4019443   0.2320626   0.1801462), wk =   0.0380952
        k(   43) = (   0.4019443   0.2320626   0.3602924), wk =   0.0380952
        k(   44) = (   0.4019443   0.2320626   0.5404386), wk =   0.0380952
        k(   45) = (   0.4019443   0.4254482   0.0000000), wk =   0.0190476
        k(   46) = (   0.4019443   0.4254482   0.1801462), wk =   0.0380952
        k(   47) = (   0.4019443   0.4254482   0.3602924), wk =   0.0380952
        k(   48) = (   0.4019443   0.4254482   0.5404386), wk =   0.0380952
        k(   49) = (   0.4019443   0.6188337   0.0000000), wk =   0.0190476
        k(   50) = (   0.4019443   0.6188337   0.1801462), wk =   0.0380952
        k(   51) = (   0.4019443   0.6188337   0.3602924), wk =   0.0380952
        k(   52) = (   0.4019443   0.6188337   0.5404386), wk =   0.0380952
        k(   53) = (   0.4019443  -0.3480940   0.0000000), wk =   0.0190476
        k(   54) = (   0.4019443  -0.3480940   0.1801462), wk =   0.0380952
        k(   55) = (   0.4019443  -0.3480940   0.3602924), wk =   0.0380952
        k(   56) = (   0.4019443  -0.3480940   0.5404386), wk =   0.0380952
        k(   57) = (   0.4019443  -0.1547084   0.0000000), wk =   0.0190476
        k(   58) = (   0.4019443  -0.1547084   0.1801462), wk =   0.0380952
        k(   59) = (   0.4019443  -0.1547084   0.3602924), wk =   0.0380952
        k(   60) = (   0.4019443  -0.1547084   0.5404386), wk =   0.0380952
        k(   61) = (   0.4019443   0.0386771   0.0000000), wk =   0.0190476
        k(   62) = (   0.4019443   0.0386771   0.1801462), wk =   0.0380952
        k(   63) = (   0.4019443   0.0386771   0.3602924), wk =   0.0380952
        k(   64) = (   0.4019443   0.0386771   0.5404386), wk =   0.0380952

     Largest allocated arrays     est. size (Mb)     dimensions
     Largest temporary arrays     est. size (Mb)     dimensions

     Initial potential from superposition of free atoms
     Check: negative starting charge=   -0.002231

     starting charge   77.94326, renormalised to  112.00000

     negative rho (up, down):  0.321E-02 0.000E+00
     Starting wfc are  120 randomized atomic wfcs

     Writing output data file Prototype-La-hP8-Mg3Cd.save

     Self-consistent Calculation

[...]

     negative rho (up, down):  0.159E-03 0.000E+00

[...]

     iteration # 16     ecut=    40.00 Ry     beta=0.70
     CG style diagonalization
     ethr =  7.94E-09,  avg # of iterations =  3.7

     total energy              =    -908.08724402 Ry
     Harris-Foulkes estimate   =    -908.08724525 Ry
     estimated scf accuracy    <       0.00000373 Ry

     iteration # 17     ecut=    40.00 Ry     beta=0.70
     CG style diagonalization
     c_bands:  1 eigenvalues not converged
     ethr =  3.33E-09,  avg # of iterations =  3.3

     End of self-consistent calculation

[...]

          k = 0.4019 0.0387 0.5404 (  5036 PWs)   bands (ev):

   -41.7263 -41.7258 -21.9784 -21.9098 -21.8270 -21.7841 -21.7525 -21.7255
   -14.4862 -14.4848 -14.4578 -14.4554 -14.4534 -14.4502  -2.7819  -2.7500
    -2.6482  -2.6197  -2.4351  -2.3866  -1.9450  -1.8411  -1.6551  -1.6420
    -1.4691  -1.3560  -1.2636  -1.2293  -1.1533  -1.0641  -1.0080  -0.9850
    16.3796  16.4341  16.5493  16.7396  16.8019  16.9491  17.1473  17.2554
    17.3598  17.4266  17.6629  17.9755  18.2837  18.5719  18.6746  18.9570
    19.3446  19.5594  20.0051  20.1604  20.2743  20.4505  20.8262  21.0238
    21.0745  21.1434  21.3002  21.7024  22.1337  22.2606  22.3575  22.8148
    23.4556  24.0504  24.3135

     the Fermi energy is    21.0041 ev

!    total energy              =    -908.08724434 Ry
     Harris-Foulkes estimate   =    -908.08724464 Ry
     estimated scf accuracy    <       0.00000039 Ry

     The total energy is the sum of the following terms:

     one-electron contribution =     -32.02207101 Ry
     hartree contribution      =      93.25607347 Ry
     xc contribution           =    -105.81862968 Ry
     ewald contribution        =    -862.90872259 Ry
     smearing contrib. (-TS)   =      -0.59389453 Ry

     convergence has been achieved in  17 iterations

     Forces acting on atoms (Ry/au):

     atom    1 type  1   force =     0.00040724    0.00023512    0.00000000
     atom    2 type  1   force =     0.00040724   -0.00023512    0.00000000
     atom    3 type  1   force =    -0.00040724   -0.00023512    0.00000000
     atom    4 type  1   force =    -0.00040724    0.00023512    0.00000000
     atom    5 type  1   force =     0.00000000   -0.00047023    0.00000000
     atom    6 type  1   force =     0.00000000    0.00047023    0.00000000
     atom    7 type  2   force =     0.00000000    0.00000000    0.00000000
     atom    8 type  2   force =     0.00000000    0.00000000    0.00000000

     Total force =     0.001152     Total SCF correction =     0.002226
     SCF correction compared to forces is large: reduce conv_thr to get better values

     entering subroutine stress ...

          total   stress  (Ry/bohr**3)                   (kbar)     P=   -2.00
  -0.00004544   0.00000000   0.00000000         -6.68      0.00      0.00
   0.00000000  -0.00004544   0.00000000          0.00     -6.68      0.00
   0.00000000   0.00000000   0.00005010          0.00      0.00      7.37

     Writing output data file Prototype-La-hP8-Mg3Cd.save

     General routines

     Parallel routines

   This run was terminated on:  17:33:16  22Mar2018

   JOB DONE.