     Program PWSCF v.5.0.2 starts on 22Mar2018 at 16:18:50

     Current dimensions of program PWSCF are:
     Max number of different atomic species (ntypx) = 10
     Max number of k-points (npk) =  40000
     Max angular momentum in pseudopotentials (lmaxx) =  3
     Waiting for input...
     Reading input from standard input

     Subspace diagonalization in iterative solution of the eigenvalue problem:
     a serial algorithm will be used

     bravais-lattice index     =            0
     lattice parameter (alat)  =       7.0151  a.u.
     unit-cell volume          =     862.2778 (a.u.)^3
     number of atoms/cell      =           12
     number of atomic types    =            2
     number of electrons       =       172.00
     number of Kohn-Sham states=          103
     kinetic-energy cutoff     =      40.0000  Ry
     charge density cutoff     =     160.0000  Ry
     convergence threshold     =      1.0E-04
     mixing beta               =       0.7000
     number of iterations used =            8  plain     mixing
     Exchange-correlation      = SLA-PZ-NOGX-NOGC ( 1 1 0 0 0)
     EXX-fraction              =        0.00
     nstep                     =           50

     celldm(1)=   7.015105  celldm(2)=   0.000000  celldm(3)=   0.000000
     celldm(4)=   0.000000  celldm(5)=   0.000000  celldm(6)=   0.000000

     crystal axes: (cart. coord. in units of alat)
               a(1) = (   1.000000   0.000000   0.000000 )
               a(2) = (   0.000000   1.315963   0.000000 )
               a(3) = (   0.000000   0.000000   1.898020 )

     reciprocal axes: (cart. coord. in units 2 pi/alat)
               b(1) = (  1.000000  0.000000  0.000000 )
               b(2) = (  0.000000  0.759900  0.000000 )
               b(3) = (  0.000000  0.000000  0.526865 )

     PseudoPot. # 1 for Pr read from file:
     /home/cwx6513/pp.La/Pr.UPF
     MD5 check sum: 70e2b4b153859e92c8c91247dfc63203
     Pseudo is Norm-conserving, Zval = 13.0
     Generated in analytical, separable form
     Using radial grid of 1255 points,  6 beta functions with:
                l(1) =   0
                l(2) =   0
                l(3) =   1
                l(4) =   1
                l(5) =   2
                l(6) =   3

     PseudoPot. # 2 for Eu read from file:
     /home/cwx6513/pp.La/Eu.UPF
     MD5 check sum: 5efdbbfc50c6a10138933a6429836ad2
     Pseudo is Norm-conserving, Zval = 17.0
     Generated in analytical, separable form
     Using radial grid of 1261 points,  6 beta functions with:
                l(1) =   0
                l(2) =   0
                l(3) =   1
                l(4) =   1
                l(5) =   2
                l(6) =   3

     atomic species   valence    mass     pseudopotential
        Co            13.00    58.93320     Pr( 1.00)
        Si            17.00    28.08550     Eu( 1.00)

      8 Sym. Ops., with inversion, found ( 6 have fractional translation)

   Cartesian axes

     site n.     atom                  positions (alat units)
         1           Co  tau(   1) = (   0.7500000   1.0875135   0.8270358  )
         2           Co  tau(   2) = (   0.2500000   0.2284499   1.0709846  )
         3           Co  tau(   3) = (   0.7500000   0.4295318   0.1219744  )
         4           Co  tau(   4) = (   0.2500000   0.8864316   1.7760460  )
         5           Co  tau(   5) = (   0.2500000   0.7067855   0.5358966  )
         6           Co  tau(   6) = (   0.7500000   0.6091779   1.3621238  )
         7           Co  tau(   7) = (   0.2500000   0.0488038   0.4131136  )
         8           Co  tau(   8) = (   0.7500000   1.2671596   1.4849068  )
         9           Si  tau(   9) = (   0.2500000   0.2669484   1.6960710  )
        10           Si  tau(  10) = (   0.7500000   1.0490149   0.2019494  )
        11           Si  tau(  11) = (   0.2500000   0.9249301   1.1509596  )
        12           Si  tau(  12) = (   0.7500000   0.3910333   0.7470608  )

     number of k points=    12  gaussian smearing, width (Ry)=  0.1000
                       cart. coord. in units 2pi/alat
        k(    1) = (   0.0000000   0.0000000   0.0000000), wk =   0.0833333
        k(    2) = (   0.0000000   0.0000000   0.1317162), wk =   0.1666667
        k(    3) = (   0.0000000   0.0000000  -0.2634324), wk =   0.0833333
        k(    4) = (   0.0000000   0.2532999   0.0000000), wk =   0.1666667
        k(    5) = (   0.0000000   0.2532999   0.1317162), wk =   0.3333333
        k(    6) = (   0.0000000   0.2532999  -0.2634324), wk =   0.1666667
        k(    7) = (  -0.5000000   0.0000000   0.0000000), wk =   0.0833333
        k(    8) = (  -0.5000000   0.0000000   0.1317162), wk =   0.1666667
        k(    9) = (  -0.5000000   0.0000000  -0.2634324), wk =   0.0833333
        k(   10) = (  -0.5000000   0.2532999   0.0000000), wk =   0.1666667
        k(   11) = (  -0.5000000   0.2532999   0.1317162), wk =   0.3333333
        k(   12) = (  -0.5000000   0.2532999  -0.2634324), wk =   0.1666667

     Largest allocated arrays     est. size (Mb)     dimensions
     Largest temporary arrays     est. size (Mb)     dimensions

     Initial potential from superposition of free atoms

     starting charge  103.92434, renormalised to  172.00000
     Starting wfc are  160 randomized atomic wfcs

     Self-consistent Calculation

     iteration #  1     ecut=    40.00 Ry     beta=0.70
     CG style diagonalization
     c_bands:  5 eigenvalues not converged
     c_bands:  5 eigenvalues not converged
     ethr =  1.00E-02,  avg # of iterations = 16.6

     total energy              =    -278.28035603 Ry
     Harris-Foulkes estimate   =   -2254.75856256 Ry
     estimated scf accuracy    <    2377.83827144 Ry

[...]

     iteration #  4     ecut=    40.00 Ry     beta=0.70
     CG style diagonalization
     ethr =  1.00E-02,  avg # of iterations =  4.2

[...]

     End of self-consistent calculation

          k = 0.0000 0.0000 0.0000 (  3675 PWs)   bands (ev):

   -20.1228 -20.0123 -19.9760 -19.9260  -0.3570  -0.2374  -0.0660   1.6789
     1.8350   1.9070   2.1396   2.2346   5.2396   5.6568   5.8031   5.8142
     5.9762   6.4556   6.5690   6.7259   6.7487   7.0505   7.5606   7.7986
    16.4656  17.0007  17.5775  18.0615  18.8845  19.0882  19.3741  19.6647
    20.3615  20.3927  20.5705  20.9465  20.9648  21.3690  21.9296  22.2625
    22.3793  22.6119  22.9277  23.5204  24.9126  25.0452  25.3494  25.9126
    32.6259  33.1029  33.8986  34.3728  34.5092  34.5472  34.9411  34.9601
    35.7193  36.4599  36.6149  37.1795  37.4473  37.8245  39.1506  39.5307
    39.6313  39.9414  40.9232  40.9969  41.4768  42.0191  42.1013  42.2867
    42.5679  42.7836  43.5946  43.6222  43.9275  44.3486  44.7950  44.9164
    45.3273  45.7873  45.8804  45.8872  46.6560  46.7326  47.6151  47.6369
    47.7331  47.8326  48.4747  48.8850  49.1105  50.1709  50.1971  50.2302
    50.5004  50.8615  51.7076  52.5627  52.7340  52.8715  53.0026

[...]

          k =-0.5000 0.0000 0.0000 (  3722 PWs)   bands (ev):

[...]

     the Fermi energy is    46.6357 ev

!    total energy              =   -1432.14524693 Ry
     Harris-Foulkes estimate   =   -1432.14526211 Ry
     estimated scf accuracy    <       0.00001736 Ry

     The total energy is the sum of the following terms:

     one-electron contribution =     405.82230933 Ry
     hartree contribution      =      66.93763015 Ry
     xc contribution           =    -182.73872838 Ry
     ewald contribution        =   -1721.73485317 Ry
     smearing contrib. (-TS)   =      -0.43160487 Ry

     convergence has been achieved in  11 iterations

     Forces acting on atoms (Ry/au):

     atom    1 type  1   force =     0.00000000   -0.04848476   -0.11867432
     atom    2 type  1   force =     0.00000000    0.04848476    0.11867432
     atom    3 type  1   force =     0.00000000   -0.04848476    0.11867432
     atom    4 type  1   force =     0.00000000    0.04848476   -0.11867432
     atom    5 type  1   force =     0.00000000    0.13874585   -0.24226323
     atom    6 type  1   force =     0.00000000   -0.13874585    0.24226323
     atom    7 type  1   force =     0.00000000    0.13874585    0.24226323
     atom    8 type  1   force =     0.00000000   -0.13874585   -0.24226323
     atom    9 type  2   force =     0.00000000   -0.14629445   -0.05792706
     atom   10 type  2   force =     0.00000000    0.14629445    0.05792706
     atom   11 type  2   force =     0.00000000   -0.14629445    0.05792706
     atom   12 type  2   force =     0.00000000    0.14629445   -0.05792706

     Total force =     0.690315     Total SCF correction =     0.010273

     entering subroutine stress ...

          total   stress  (Ry/bohr**3)                   (kbar)     P= 6349.85
   0.04567709   0.00000000   0.00000000       6719.33      0.00      0.00
   0.00000000   0.04046874   0.00000000          0.00   5953.16      0.00
   0.00000000   0.00000000   0.04335033          0.00      0.00   6377.05

     BFGS Geometry Optimization

     number of scf cycles    =   1
     number of bfgs steps    =   0

     enthalpy new            =   -1432.1452469277 Ry

     new trust radius        =       0.5000000000 bohr
     new conv_thr            =       0.0001000000 Ry

     new unit-cell volume =   1087.57345 a.u.^3 (   161.16176 Ang^3 )

CELL_PARAMETERS (alat=  7.01510508)
   1.085136619   0.000000000   0.000000000
   0.000000000   1.415225013   0.000000000
   0.000000000   0.000000000   2.051380103

ATOMIC_POSITIONS (crystal)
Co       0.750000000   0.826009434   0.435071493
Co       0.250000000   0.173990566   0.564928507
Co       0.750000000   0.326009434   0.064928507
Co       0.250000000   0.673990566   0.935071493
Co       0.250000000   0.538206521   0.280988467
Co       0.750000000   0.461793479   0.719011533
Co       0.250000000   0.038206521   0.219011533
Co       0.750000000   0.961793479   0.780988467
Si       0.250000000   0.201672516   0.893275642
Si       0.750000000   0.798327484   0.106724358
Si       0.250000000   0.701672516   0.606724358
Si       0.750000000   0.298327484   0.393275642

     Writing output data file Prototype-La-oP12-Co2Si.save
     NEW-OLD atomic charge density approx. for the potential
     NEW k-points:
        k(    1) = (   0.0000000   0.0000000   0.0000000), wk =   0.0833333
        k(    2) = (   0.0000000   0.0000000   0.1218692), wk =   0.1666667
        k(    3) = (   0.0000000   0.0000000  -0.2437383), wk =   0.0833333
        k(    4) = (   0.0000000   0.2355338   0.0000000), wk =   0.1666667
        k(    5) = (   0.0000000   0.2355338   0.1218692), wk =   0.3333333
        k(    6) = (   0.0000000   0.2355338  -0.2437383), wk =   0.1666667
        k(    7) = (  -0.4607715   0.0000000   0.0000000), wk =   0.0833333
        k(    8) = (  -0.4607715   0.0000000   0.1218692), wk =   0.1666667
        k(    9) = (  -0.4607715   0.0000000  -0.2437383), wk =   0.0833333
        k(   10) = (  -0.4607715   0.2355338   0.0000000), wk =   0.1666667
        k(   11) = (  -0.4607715   0.2355338   0.1218692), wk =   0.3333333
        k(   12) = (  -0.4607715   0.2355338  -0.2437383), wk =   0.1666667
     Check: negative starting charge=   -0.011133

     negative rho (up, down):  0.116E-01 0.000E+00
     extrapolated charge  193.52838, renormalised to  172.00000

[...]

     negative rho (up, down):  0.245E-02 0.000E+00

[...]

     enthalpy old            =   -1432.1452469277 Ry
     enthalpy new            =   -1438.4203009711 Ry

     CASE: enthalpy_new < enthalpy_old

     small trust_radius: resetting bfgs history

     new trust radius        =       2.7676382687 bohr
     new conv_thr            =       0.0001000000 Ry

[...]

     Writing output data file Prototype-La-oP12-Co2Si.save
     Check: negative starting charge=   -0.011133
     NEW-OLD atomic charge density approx. for the potential
     NEW k-points:
        k(    1) = (   0.0000000   0.0000000   0.0000000), wk =   0.0833333
        k(    2) = (   0.0000000   0.0000000   0.0872725), wk =   0.1666667
        k(    3) = (   0.0000000   0.0000000  -0.1745449), wk =   0.0833333
        k(    4) = (   0.0000000   0.1717169   0.0000000), wk =   0.1666667
        k(    5) = (   0.0000000   0.1717169   0.0872725), wk =   0.3333333
        k(    6) = (   0.0000000   0.1717169  -0.1745449), wk =   0.1666667
        k(    7) = (  -0.3245752   0.0000000   0.0000000), wk =   0.0833333
        k(    8) = (  -0.3245752   0.0000000   0.0872725), wk =   0.1666667
        k(    9) = (  -0.3245752   0.0000000  -0.1745449), wk =   0.0833333
        k(   10) = (  -0.3245752   0.1717169   0.0000000), wk =   0.1666667
        k(   11) = (  -0.3245752   0.1717169   0.0872725), wk =   0.3333333
        k(   12) = (  -0.3245752   0.1717169  -0.1745449), wk =   0.1666667
     Check: negative starting charge=   -0.041040

[...]

     Total force =     0.046055     Total SCF correction =     0.009275
     SCF correction compared to forces is large: reduce conv_thr to get better values

[...]

          total   stress  (Ry/bohr**3)                   (kbar)     P=-1249.22
  -0.00872087   0.00000000   0.00000000      -1282.88      0.00      0.00
   0.00000000  -0.00827465   0.00000000          0.00  -1217.24      0.00
   0.00000000   0.00000000  -0.00848054          0.00      0.00  -1247.53

     number of scf cycles    =   3
     number of bfgs steps    =   2

     enthalpy old            =   -1438.4203009711 Ry
     enthalpy new            =   -1429.1259962914 Ry

     CASE: enthalpy_new > enthalpy_old

     new trust radius        =       1.1084678056 bohr

     trust_radius < trust_radius_min

     resetting bfgs history

     Message from routine bfgs:
     history already reset at previous step: stopping
     new conv_thr            =       0.0001000000 Ry

     new unit-cell volume =   1293.91474 a.u.^3 (   191.73838 Ang^3 )

[...]

ATOMIC_POSITIONS (crystal)
Co       0.750000000   0.825598496   0.434651707
Co       0.250000000   0.174401504   0.565348293
Co       0.750000000   0.325598496   0.065348293
Co       0.250000000   0.674401504   0.934651707
Co       0.250000000   0.538879644   0.280025847
Co       0.750000000   0.461120356   0.719974153
Co       0.250000000   0.038879644   0.219974153
Co       0.750000000   0.961120356   0.780025847
Si       0.250000000   0.200477566   0.893188232
Si       0.750000000   0.799522434   0.106811768
Si       0.250000000   0.700477566   0.606811768
Si       0.750000000   0.299522434   0.393188232

     Writing output data file Prototype-La-oP12-Co2Si.save
     Check: negative starting charge=   -0.041040
     NEW-OLD atomic charge density approx. for the potential
     NEW k-points:
        k(    1) = (   0.0000000   0.0000000   0.0000000), wk =   0.0833333
        k(    2) = (   0.0000000   0.0000000   0.1150080), wk =   0.1666667
        k(    3) = (   0.0000000   0.0000000  -0.2300161), wk =   0.0833333
        k(    4) = (   0.0000000   0.2234749   0.0000000), wk =   0.1666667
        k(    5) = (   0.0000000   0.2234749   0.1150080), wk =   0.3333333
        k(    6) = (   0.0000000   0.2234749  -0.2300161), wk =   0.1666667
        k(    7) = (  -0.4325424   0.0000000   0.0000000), wk =   0.0833333
        k(    8) = (  -0.4325424   0.0000000   0.1150080), wk =   0.1666667
        k(    9) = (  -0.4325424   0.0000000  -0.2300161), wk =   0.0833333
        k(   10) = (  -0.4325424   0.2234749   0.0000000), wk =   0.1666667
        k(   11) = (  -0.4325424   0.2234749   0.1150080), wk =   0.3333333
        k(   12) = (  -0.4325424   0.2234749  -0.2300161), wk =   0.1666667
     Check: negative starting charge=   -0.023992

     negative rho (up, down):  0.517E+02 0.000E+00
     extrapolated charge   38.40590, renormalised to  172.00000

[...]

     Total force =     0.215819     Total SCF correction =     0.023830
     SCF correction compared to forces is large: reduce conv_thr to get better values

[...]

     The maximum number of steps has been reached.

     End of BFGS Geometry Optimization
Begin final coordinates
     new unit-cell volume =   1293.91474 a.u.^3 (   191.73838 Ang^3 )

CELL_PARAMETERS (alat=  7.01510508)
   1.155955959   0.000000000   0.000000000
   0.000000000   1.491591934   0.000000000
   0.000000000   0.000000000   2.173761056

ATOMIC_POSITIONS (crystal)
Co       0.750000000   0.825598496   0.434651707
Co       0.250000000   0.174401504   0.565348293
Co       0.750000000   0.325598496   0.065348293
Co       0.250000000   0.674401504   0.934651707
Co       0.250000000   0.538879644   0.280025847
Co       0.750000000   0.461120356   0.719974153
Co       0.250000000   0.038879644   0.219974153
Co       0.750000000   0.961120356   0.780025847
Si       0.250000000   0.200477566   0.893188232
Si       0.750000000   0.799522434   0.106811768
Si       0.250000000   0.700477566   0.606811768
Si       0.750000000   0.299522434   0.393188232
End final coordinates

     A final scf calculation at the relaxed structure.
     The G-vectors are recalculated for the final unit cell
     Results may differ from those at the preceding step.

     bravais-lattice index     =            0
     lattice parameter (alat)  =       7.0151  a.u.
     unit-cell volume          =    1293.9147 (a.u.)^3
     number of atoms/cell      =           12
     number of atomic types    =            2
     number of electrons       =       172.00
     number of Kohn-Sham states=          103
     kinetic-energy cutoff     =      40.0000  Ry
     charge density cutoff     =     160.0000  Ry
     convergence threshold     =      1.0E-04
     mixing beta               =       0.7000
     number of iterations used =            8  plain     mixing
     Exchange-correlation      = SLA-PZ-NOGX-NOGC ( 1 1 0 0 0)
     EXX-fraction              =        0.00

     celldm(1)=   7.015105  celldm(2)=   0.000000  celldm(3)=   0.000000
     celldm(4)=   0.000000  celldm(5)=   0.000000  celldm(6)=   0.000000

     crystal axes: (cart. coord. in units of alat)
               a(1) = (   1.155956   0.000000   0.000000 )
               a(2) = (   0.000000   1.491592   0.000000 )
               a(3) = (   0.000000   0.000000   2.173761 )

     reciprocal axes: (cart. coord. in units 2 pi/alat)
               b(1) = (  0.865085  0.000000  0.000000 )
               b(2) = (  0.000000  0.670425  0.000000 )
               b(3) = (  0.000000  0.000000  0.460032 )

     PseudoPot. # 1 for Pr read from file:
     /home/cwx6513/pp.La/Pr.UPF
     MD5 check sum: 70e2b4b153859e92c8c91247dfc63203
     Pseudo is Norm-conserving, Zval = 13.0
     Generated in analytical, separable form
     Using radial grid of 1255 points,  6 beta functions with:
                l(1) =   0
                l(2) =   0
                l(3) =   1
                l(4) =   1
                l(5) =   2
                l(6) =   3

     PseudoPot. # 2 for Eu read from file:
     /home/cwx6513/pp.La/Eu.UPF
     MD5 check sum: 5efdbbfc50c6a10138933a6429836ad2
     Pseudo is Norm-conserving, Zval = 17.0
     Generated in analytical, separable form
     Using radial grid of 1261 points,  6 beta functions with:
                l(1) =   0
                l(2) =   0
                l(3) =   1
                l(4) =   1
                l(5) =   2
                l(6) =   3

     atomic species   valence    mass     pseudopotential
        Co            13.00    58.93320     Pr( 1.00)
        Si            17.00    28.08550     Eu( 1.00)

      8 Sym. Ops., with inversion, found ( 6 have fractional translation)

   Cartesian axes

     site n.     atom                  positions (alat units)
         1           Co  tau(   1) = (   0.8669670   1.2314561   0.9448290  )
         2           Co  tau(   2) = (   0.2889890   0.2601359   1.2289321  )
         3           Co  tau(   3) = (   0.8669670   0.4856601   0.1420516  )
         4           Co  tau(   4) = (   0.2889890   1.0059318   2.0317095  )
         5           Co  tau(   5) = (   0.2889890   0.8037885   0.6087093  )
         6           Co  tau(   6) = (   0.8669670   0.6878034   1.5650518  )
         7           Co  tau(   7) = (   0.2889890   0.0579926   0.4781712  )
         8           Co  tau(   8) = (   0.8669670   1.4335994   1.6955898  )
         9           Si  tau(   9) = (   0.2889890   0.2990307   1.9415778  )
        10           Si  tau(  10) = (   0.8669670   1.1925612   0.2321833  )
        11           Si  tau(  11) = (   0.2889890   1.0448267   1.3190638  )
        12           Si  tau(  12) = (   0.8669670   0.4467652   0.8546973  )

     number of k points=    12  gaussian smearing, width (Ry)=  0.1000
                       cart. coord. in units 2pi/alat
        k(    1) = (   0.0000000   0.0000000   0.0000000), wk =   0.0833333
        k(    2) = (   0.0000000   0.0000000   0.1150080), wk =   0.1666667
        k(    3) = (   0.0000000   0.0000000  -0.2300161), wk =   0.0833333
        k(    4) = (   0.0000000   0.2234749   0.0000000), wk =   0.1666667
        k(    5) = (   0.0000000   0.2234749   0.1150080), wk =   0.3333333
        k(    6) = (   0.0000000   0.2234749  -0.2300161), wk =   0.1666667
        k(    7) = (  -0.4325424   0.0000000   0.0000000), wk =   0.0833333
        k(    8) = (  -0.4325424   0.0000000   0.1150080), wk =   0.1666667
        k(    9) = (  -0.4325424   0.0000000  -0.2300161), wk =   0.0833333
        k(   10) = (  -0.4325424   0.2234749   0.0000000), wk =   0.1666667
        k(   11) = (  -0.4325424   0.2234749   0.1150080), wk =   0.3333333
        k(   12) = (  -0.4325424   0.2234749  -0.2300161), wk =   0.1666667

     Largest allocated arrays     est. size (Mb)     dimensions
     Largest temporary arrays     est. size (Mb)     dimensions

     Initial potential from superposition of free atoms
     Check: negative starting charge=   -0.000924

     starting charge  103.92434, renormalised to  172.00000

     negative rho (up, down):  0.153E-02 0.000E+00
     Starting wfc are  160 randomized atomic wfcs

     Writing output data file Prototype-La-oP12-Co2Si.save

     Self-consistent Calculation

[...]

     negative rho (up, down):  0.482E-04 0.000E+00

[...]

     iteration # 11     ecut=    40.00 Ry     beta=0.70
     CG style diagonalization
     ethr =  1.81E-05,  avg # of iterations =  3.8

[...]

     total energy              =   -1442.25450353 Ry
     Harris-Foulkes estimate   =   -1442.25475369 Ry
     estimated scf accuracy    <       0.00061697 Ry

     iteration # 13     ecut=    40.00 Ry     beta=0.70
     CG style diagonalization
     c_bands:  1 eigenvalues not converged
     c_bands:  1 eigenvalues not converged
     c_bands:  1 eigenvalues not converged
     ethr =  3.59E-07,  avg # of iterations =  4.8

     End of self-consistent calculation

[...]

          k = 0.0000 0.2235-0.2300 (  5510 PWs)   bands (ev):

[...]

          k =-0.4325 0.2235-0.2300 (  5536 PWs)   bands (ev):

   -33.7450 -33.7450 -33.7410 -33.7410 -13.1955 -13.1955 -13.0729 -13.0729
   -12.7597 -12.7597 -12.5596 -12.5596  -6.9181  -6.9181  -6.8957  -6.8957
    -6.7936  -6.7936  -6.7036  -6.7036  -6.6126  -6.6126  -6.5611  -6.5611
     5.2394   5.2394   5.6307   5.6307   5.8748   5.8748   6.0528   6.0528
     6.1797   6.1797   6.8821   6.8821   7.2824   7.2824   7.5735   7.5735
     7.8179   7.8179   7.8378   7.8378   8.1187   8.1187   8.2420   8.2420
    22.8752  22.8752  23.3265  23.3265  23.5594  23.5594  23.9932  23.9932
    24.2338  24.2338  24.4806  24.4806  24.7316  24.7316  24.9288  24.9288
    25.6950  25.6950  25.7551  25.7551  26.8874  26.8874  27.0277  27.0277
    27.3530  27.3530  27.6972  27.6972  27.8128  27.8128  28.3793  28.3793
    28.5349  28.5349  29.4529  29.4529  29.6391  29.6391  30.3133  30.3133
    30.5697  30.5697  31.2529  31.2529  31.4351  31.4351  31.9387  31.9387
    32.1948  32.1948  32.6949  32.6950  33.5324  33.5324  34.6148

     the Fermi energy is    30.2666 ev

!    total energy              =   -1442.25481602 Ry
     Harris-Foulkes estimate   =   -1442.25485366 Ry
     estimated scf accuracy    <       0.00004339 Ry

     The total energy is the sum of the following terms:

     one-electron contribution =     120.70376589 Ry
     hartree contribution      =     113.51657801 Ry
     xc contribution           =    -171.33515554 Ry
     ewald contribution        =   -1504.54679292 Ry
     smearing contrib. (-TS)   =      -0.59321145 Ry

     convergence has been achieved in  13 iterations

     Forces acting on atoms (Ry/au):

     atom    1 type  1   force =     0.00000000   -0.02534387   -0.02622907
     atom    2 type  1   force =     0.00000000    0.02534387    0.02622907
     atom    3 type  1   force =     0.00000000   -0.02534387    0.02622907
     atom    4 type  1   force =     0.00000000    0.02534387   -0.02622907
     atom    5 type  1   force =     0.00000000    0.02738320   -0.07190208
     atom    6 type  1   force =     0.00000000   -0.02738320    0.07190208
     atom    7 type  1   force =     0.00000000    0.02738320    0.07190208
     atom    8 type  1   force =     0.00000000   -0.02738320   -0.07190208
     atom    9 type  2   force =     0.00000000   -0.06797203    0.01018896
     atom   10 type  2   force =     0.00000000    0.06797203   -0.01018896
     atom   11 type  2   force =     0.00000000   -0.06797203   -0.01018896
     atom   12 type  2   force =     0.00000000    0.06797203    0.01018896

     Total force =     0.218852     Total SCF correction =     0.012313

     entering subroutine stress ...

          total   stress  (Ry/bohr**3)                   (kbar)     P= 1168.27
   0.00844113   0.00000000   0.00000000       1241.73      0.00      0.00
   0.00000000   0.00750315   0.00000000          0.00   1103.75      0.00
   0.00000000   0.00000000   0.00788092          0.00      0.00   1159.32

     Writing output data file Prototype-La-oP12-Co2Si.save

     General routines

     Parallel routines

   This run was terminated on:  16:42: 5  22Mar2018

   JOB DONE.