     Program PWSCF v.5.0.2 starts on 22Mar2018 at 22:45:47

     Current dimensions of program PWSCF are:
     Max number of different atomic species (ntypx) = 10
     Max number of k-points (npk) =  40000
     Max angular momentum in pseudopotentials (lmaxx) =  3
     Waiting for input...
     Reading input from standard input

     Subspace diagonalization in iterative solution of the eigenvalue problem:
     a serial algorithm will be used

     bravais-lattice index     =            0
     lattice parameter (alat)  =       7.0151  a.u.
     unit-cell volume          =     862.2778 (a.u.)^3
     number of atoms/cell      =           12
     number of atomic types    =            2
     number of electrons       =       252.00
     number of Kohn-Sham states=          151
     kinetic-energy cutoff     =      40.0000  Ry
     charge density cutoff     =     160.0000  Ry
     convergence threshold     =      1.0E-04
     mixing beta               =       0.7000
     number of iterations used =            8  plain     mixing
     Exchange-correlation      = SLA-PZ-NOGX-NOGC ( 1 1 0 0 0)
     EXX-fraction              =        0.00
     nstep                     =           50

     celldm(1)=   7.015105  celldm(2)=   0.000000  celldm(3)=   0.000000
     celldm(4)=   0.000000  celldm(5)=   0.000000  celldm(6)=   0.000000

     crystal axes: (cart. coord. in units of alat)
               a(1) = (   1.000000   0.000000   0.000000 )
               a(2) = (   0.000000   1.315963   0.000000 )
               a(3) = (   0.000000   0.000000   1.898020 )

     reciprocal axes: (cart. coord. in units 2 pi/alat)
               b(1) = (  1.000000  0.000000  0.000000 )
               b(2) = (  0.000000  0.759900  0.000000 )
               b(3) = (  0.000000  0.000000  0.526865 )

     PseudoPot. # 1 for Er read from file:
     /home/cwx6513/pp.La/Er.UPF
     MD5 check sum: e152ae21b84514339d8526f066caf99b
     Pseudo is Norm-conserving, Zval = 22.0
     Generated in analytical, separable form
     Using radial grid of 1267 points,  6 beta functions with:
                l(1) =   0
                l(2) =   0
                l(3) =   1
                l(4) =   1
                l(5) =   2
                l(6) =   3

     PseudoPot. # 2 for Tb read from file:
     /home/cwx6513/pp.La/Tb.UPF
     MD5 check sum: 3d6088a3f0cf7fd2e110c43f7f8e95c2
     Pseudo is Norm-conserving, Zval = 19.0
     Generated in analytical, separable form
     Using radial grid of 1263 points,  6 beta functions with:
                l(1) =   0
                l(2) =   0
                l(3) =   1
                l(4) =   1
                l(5) =   2
                l(6) =   3

     atomic species   valence    mass     pseudopotential
        Co            22.00    58.93320     Er( 1.00)
        Si            19.00    28.08550     Tb( 1.00)

      8 Sym. Ops., with inversion, found ( 6 have fractional translation)

   Cartesian axes

     site n.     atom                  positions (alat units)
         1           Co  tau(   1) = (   0.7500000   1.0875135   0.8270358  )
         2           Co  tau(   2) = (   0.2500000   0.2284499   1.0709846  )
         3           Co  tau(   3) = (   0.7500000   0.4295318   0.1219744  )
         4           Co  tau(   4) = (   0.2500000   0.8864316   1.7760460  )
         5           Co  tau(   5) = (   0.2500000   0.7067855   0.5358966  )
         6           Co  tau(   6) = (   0.7500000   0.6091779   1.3621238  )
         7           Co  tau(   7) = (   0.2500000   0.0488038   0.4131136  )
         8           Co  tau(   8) = (   0.7500000   1.2671596   1.4849068  )
         9           Si  tau(   9) = (   0.2500000   0.2669484   1.6960710  )
        10           Si  tau(  10) = (   0.7500000   1.0490149   0.2019494  )
        11           Si  tau(  11) = (   0.2500000   0.9249301   1.1509596  )
        12           Si  tau(  12) = (   0.7500000   0.3910333   0.7470608  )

     number of k points=    12  gaussian smearing, width (Ry)=  0.1000
                       cart. coord. in units 2pi/alat
        k(    1) = (   0.0000000   0.0000000   0.0000000), wk =   0.0833333
        k(    2) = (   0.0000000   0.0000000   0.1317162), wk =   0.1666667
        k(    3) = (   0.0000000   0.0000000  -0.2634324), wk =   0.0833333
        k(    4) = (   0.0000000   0.2532999   0.0000000), wk =   0.1666667
        k(    5) = (   0.0000000   0.2532999   0.1317162), wk =   0.3333333
        k(    6) = (   0.0000000   0.2532999  -0.2634324), wk =   0.1666667
        k(    7) = (  -0.5000000   0.0000000   0.0000000), wk =   0.0833333
        k(    8) = (  -0.5000000   0.0000000   0.1317162), wk =   0.1666667
        k(    9) = (  -0.5000000   0.0000000  -0.2634324), wk =   0.0833333
        k(   10) = (  -0.5000000   0.2532999   0.0000000), wk =   0.1666667
        k(   11) = (  -0.5000000   0.2532999   0.1317162), wk =   0.3333333
        k(   12) = (  -0.5000000   0.2532999  -0.2634324), wk =   0.1666667

     Largest allocated arrays     est. size (Mb)     dimensions
     Largest temporary arrays     est. size (Mb)     dimensions

     Initial potential from superposition of free atoms

     Starting from uniform charge
     Starting wfc are    0 randomized atomic wfcs

     Self-consistent Calculation

     iteration #  1     ecut=    40.00 Ry     beta=0.70
     CG style diagonalization
     ethr =  1.00E-02,  avg # of iterations = 11.7

     total energy              =   -3222.88447707 Ry
     Harris-Foulkes estimate   =   -3984.59116122 Ry
     estimated scf accuracy    <     978.14539431 Ry

     iteration #  2     ecut=    40.00 Ry     beta=0.70
     CG style diagonalization
     c_bands:  1 eigenvalues not converged
     ethr =  1.00E-02,  avg # of iterations =  9.4

[...]

     End of self-consistent calculation

          k = 0.0000 0.0000 0.0000 (  3675 PWs)   bands (ev):

   -48.8792 -48.8094 -48.7911 -48.7878 -48.7762 -48.7092 -48.6624 -48.6529
   -25.6812 -25.6761 -25.6583 -25.6576 -11.8420 -11.7275 -11.6642 -11.5997
   -11.4808 -11.4437 -11.3609 -11.3575 -11.3190 -11.2329 -11.1246 -11.1137
   -11.0782 -11.0433 -11.0228 -11.0023 -10.9728 -10.8880 -10.8620 -10.8511
   -10.8026 -10.6746 -10.5780 -10.5268   4.9361   5.0736   5.1266   5.1433
     5.1548   5.1756   5.1906   5.2730   5.5011   5.6053   5.6319   5.7658
    30.1452  30.4653  30.6007  30.6100  30.7010  30.7875  31.0329  31.2438
    31.5965  31.6879  31.9143  32.3845  32.3953  32.8440  32.9651  33.2476
    33.4032  33.5064  33.5913  33.7235  33.9580  34.1080  34.2633  34.2977
    34.3652  34.5942  35.0007  35.0526  35.2471  35.3076  35.4664  35.5498
    35.7090  35.8446  35.9781  36.2942  37.0486  37.1764  37.2182  37.4039
    37.9470  38.3721  38.6295  39.4512  40.7352  41.5413  41.7718  42.0202
    42.1646  42.2814  42.3628  43.4683  43.5574  43.7125  43.9790  44.2942
    44.4702  45.2383  45.5000  45.5673  45.5701  45.7429  45.9615  46.3169
    47.8245  50.0826  50.4845  50.4949  51.1394  52.2185  52.9003  55.2879
    55.5159  56.1090  56.1458  56.2858  56.6269  57.0293  57.3283  57.6547
    57.7752  57.7871  57.9186  58.1852  58.2093  58.3894  58.6003  59.1954
    59.2164  59.2164  59.2234  59.5503  59.6869  59.7416  59.9326  60.2251
    60.5038  60.7240  61.1464  61.8629  62.1888  62.7701  62.8606

[...]

          k =-0.5000 0.0000 0.0000 (  3722 PWs)   bands (ev):

[...]

     the Fermi energy is    56.8849 ev

!    total energy              =   -3532.23951048 Ry
     Harris-Foulkes estimate   =   -3532.23951769 Ry
     estimated scf accuracy    <       0.00000668 Ry

     The total energy is the sum of the following terms:

     one-electron contribution =     164.17064299 Ry
     hartree contribution      =     311.11942561 Ry
     xc contribution           =    -328.09424356 Ry
     ewald contribution        =   -3678.98270032 Ry
     smearing contrib. (-TS)   =      -0.45263520 Ry

     convergence has been achieved in  10 iterations

     Forces acting on atoms (Ry/au):

     atom    1 type  1   force =     0.00000000   -0.10501163   -0.08938551
     atom    2 type  1   force =     0.00000000    0.10501163    0.08938551
     atom    3 type  1   force =     0.00000000   -0.10501163    0.08938551
     atom    4 type  1   force =     0.00000000    0.10501163   -0.08938551
     atom    5 type  1   force =     0.00000000    0.11949324   -0.12594237
     atom    6 type  1   force =     0.00000000   -0.11949324    0.12594237
     atom    7 type  1   force =     0.00000000    0.11949324    0.12594237
     atom    8 type  1   force =     0.00000000   -0.11949324   -0.12594237
     atom    9 type  2   force =     0.00000000   -0.22342277    0.04705588
     atom   10 type  2   force =     0.00000000    0.22342277   -0.04705588
     atom   11 type  2   force =     0.00000000   -0.22342277   -0.04705588
     atom   12 type  2   force =     0.00000000    0.22342277    0.04705588

     Total force =     0.636520     Total SCF correction =     0.000000

     entering subroutine stress ...

          total   stress  (Ry/bohr**3)                   (kbar)     P= 7418.40
   0.05274945   0.00000000   0.00000000       7759.71      0.00      0.00
   0.00000000   0.04841688   0.00000000          0.00   7122.37      0.00
   0.00000000   0.00000000   0.05012142          0.00      0.00   7373.11

     BFGS Geometry Optimization

     number of scf cycles    =   1
     number of bfgs steps    =   0

     enthalpy new            =   -3532.2395104836 Ry

     new trust radius        =       0.5000000000 bohr
     new conv_thr            =       0.0001000000 Ry

     new unit-cell volume =   1090.41523 a.u.^3 (   161.58286 Ang^3 )

CELL_PARAMETERS (alat=  7.01510508)
   1.085136619   0.000000000   0.000000000
   0.000000000   1.418797946   0.000000000
   0.000000000   0.000000000   2.051560818

ATOMIC_POSITIONS (crystal)
Co       0.750000000   0.825666625   0.435302598
Co       0.250000000   0.174333375   0.564697402
Co       0.750000000   0.325666625   0.064697402
Co       0.250000000   0.674333375   0.935302598
Co       0.250000000   0.537921649   0.281734346
Co       0.750000000   0.462078351   0.718265654
Co       0.250000000   0.037921649   0.218265654
Co       0.750000000   0.962078351   0.781734346
Si       0.250000000   0.201291544   0.893828159
Si       0.750000000   0.798708456   0.106171841
Si       0.250000000   0.701291544   0.606171841
Si       0.750000000   0.298708456   0.393828159

     Writing output data file Prototype-La-oP12-Co2Si.save
     NEW-OLD atomic charge density approx. for the potential
     NEW k-points:
        k(    1) = (   0.0000000   0.0000000   0.0000000), wk =   0.0833333
        k(    2) = (   0.0000000   0.0000000   0.1218584), wk =   0.1666667
        k(    3) = (   0.0000000   0.0000000  -0.2437169), wk =   0.0833333
        k(    4) = (   0.0000000   0.2349407   0.0000000), wk =   0.1666667
        k(    5) = (   0.0000000   0.2349407   0.1218584), wk =   0.3333333
        k(    6) = (   0.0000000   0.2349407  -0.2437169), wk =   0.1666667
        k(    7) = (  -0.4607715   0.0000000   0.0000000), wk =   0.0833333
        k(    8) = (  -0.4607715   0.0000000   0.1218584), wk =   0.1666667
        k(    9) = (  -0.4607715   0.0000000  -0.2437169), wk =   0.0833333
        k(   10) = (  -0.4607715   0.2349407   0.0000000), wk =   0.1666667
        k(   11) = (  -0.4607715   0.2349407   0.1218584), wk =   0.3333333
        k(   12) = (  -0.4607715   0.2349407  -0.2437169), wk =   0.1666667

[...]

     enthalpy old            =   -3532.2395104853 Ry
     enthalpy new            =   -3539.4153559244 Ry

     CASE: enthalpy_new < enthalpy_old

     small trust_radius: resetting bfgs history

     new trust radius        =       2.8603274764 bohr
     new conv_thr            =       0.0001000000 Ry

[...]

          total   stress  (Ry/bohr**3)                   (kbar)     P=-3613.07
  -0.02654590   0.00000000   0.00000000      -3905.04      0.00      0.00
   0.00000000  -0.02312715   0.00000000          0.00  -3402.12      0.00
   0.00000000   0.00000000  -0.02401051          0.00      0.00  -3532.07

     number of scf cycles    =   3
     number of bfgs steps    =   2

     enthalpy old            =   -3539.4153559244 Ry
     enthalpy new            =   -3512.0220350984 Ry

     CASE: enthalpy_new > enthalpy_old

     new trust radius        =       0.7230608863 bohr

     trust_radius < trust_radius_min

     resetting bfgs history

     Message from routine bfgs:
     history already reset at previous step: stopping
     new conv_thr            =       0.0001000000 Ry

     new unit-cell volume =   1291.71521 a.u.^3 (   191.41244 Ang^3 )

[...]

ATOMIC_POSITIONS (crystal)
Co       0.750000000   0.825218943   0.435211617
Co       0.250000000   0.174781057   0.564788383
Co       0.750000000   0.325218943   0.064788383
Co       0.250000000   0.674781057   0.935211617
Co       0.250000000   0.538441863   0.281421379
Co       0.750000000   0.461558137   0.718578621
Co       0.250000000   0.038441863   0.218578621
Co       0.750000000   0.961558137   0.781421379
Si       0.250000000   0.200146130   0.894296372
Si       0.750000000   0.799853870   0.105703628
Si       0.250000000   0.700146130   0.605703628
Si       0.750000000   0.299853870   0.394296372

     Writing output data file Prototype-La-oP12-Co2Si.save
     NEW-OLD atomic charge density approx. for the potential
     NEW k-points:
        k(    1) = (   0.0000000   0.0000000   0.0000000), wk =   0.0833333
        k(    2) = (   0.0000000   0.0000000   0.1153775), wk =   0.1666667
        k(    3) = (   0.0000000   0.0000000  -0.2307550), wk =   0.0833333
        k(    4) = (   0.0000000   0.2231693   0.0000000), wk =   0.1666667
        k(    5) = (   0.0000000   0.2231693   0.1153775), wk =   0.3333333
        k(    6) = (   0.0000000   0.2231693  -0.2307550), wk =   0.1666667
        k(    7) = (  -0.4324828   0.0000000   0.0000000), wk =   0.0833333
        k(    8) = (  -0.4324828   0.0000000   0.1153775), wk =   0.1666667
        k(    9) = (  -0.4324828   0.0000000  -0.2307550), wk =   0.0833333
        k(   10) = (  -0.4324828   0.2231693   0.0000000), wk =   0.1666667
        k(   11) = (  -0.4324828   0.2231693   0.1153775), wk =   0.3333333
        k(   12) = (  -0.4324828   0.2231693  -0.2307550), wk =   0.1666667

[...]

     The maximum number of steps has been reached.

     End of BFGS Geometry Optimization
Begin final coordinates
     new unit-cell volume =   1291.71521 a.u.^3 (   191.41244 Ang^3 )

CELL_PARAMETERS (alat=  7.01510508)
   1.156115357   0.000000000   0.000000000
   0.000000000   1.493634027   0.000000000
   0.000000000   0.000000000   2.166800171

ATOMIC_POSITIONS (crystal)
Co       0.750000000   0.825218943   0.435211617
Co       0.250000000   0.174781057   0.564788383
Co       0.750000000   0.325218943   0.064788383
Co       0.250000000   0.674781057   0.935211617
Co       0.250000000   0.538441863   0.281421379
Co       0.750000000   0.461558137   0.718578621
Co       0.250000000   0.038441863   0.218578621
Co       0.750000000   0.961558137   0.781421379
Si       0.250000000   0.200146130   0.894296372
Si       0.750000000   0.799853870   0.105703628
Si       0.250000000   0.700146130   0.605703628
Si       0.750000000   0.299853870   0.394296372
End final coordinates

     A final scf calculation at the relaxed structure.
     The G-vectors are recalculated for the final unit cell
     Results may differ from those at the preceding step.

     bravais-lattice index     =            0
     lattice parameter (alat)  =       7.0151  a.u.
     unit-cell volume          =    1291.7152 (a.u.)^3
     number of atoms/cell      =           12
     number of atomic types    =            2
     number of electrons       =       252.00
     number of Kohn-Sham states=          151
     kinetic-energy cutoff     =      40.0000  Ry
     charge density cutoff     =     160.0000  Ry
     convergence threshold     =      1.0E-04
     mixing beta               =       0.7000
     number of iterations used =            8  plain     mixing
     Exchange-correlation      = SLA-PZ-NOGX-NOGC ( 1 1 0 0 0)
     EXX-fraction              =        0.00

     celldm(1)=   7.015105  celldm(2)=   0.000000  celldm(3)=   0.000000
     celldm(4)=   0.000000  celldm(5)=   0.000000  celldm(6)=   0.000000

     crystal axes: (cart. coord. in units of alat)
               a(1) = (   1.156115   0.000000   0.000000 )
               a(2) = (   0.000000   1.493634   0.000000 )
               a(3) = (   0.000000   0.000000   2.166800 )

     reciprocal axes: (cart. coord. in units 2 pi/alat)
               b(1) = (  0.864966  0.000000  0.000000 )
               b(2) = (  0.000000  0.669508  0.000000 )
               b(3) = (  0.000000  0.000000  0.461510 )

     PseudoPot. # 1 for Er read from file:
     /home/cwx6513/pp.La/Er.UPF
     MD5 check sum: e152ae21b84514339d8526f066caf99b
     Pseudo is Norm-conserving, Zval = 22.0
     Generated in analytical, separable form
     Using radial grid of 1267 points,  6 beta functions with:
                l(1) =   0
                l(2) =   0
                l(3) =   1
                l(4) =   1
                l(5) =   2
                l(6) =   3

     PseudoPot. # 2 for Tb read from file:
     /home/cwx6513/pp.La/Tb.UPF
     MD5 check sum: 3d6088a3f0cf7fd2e110c43f7f8e95c2
     Pseudo is Norm-conserving, Zval = 19.0
     Generated in analytical, separable form
     Using radial grid of 1263 points,  6 beta functions with:
                l(1) =   0
                l(2) =   0
                l(3) =   1
                l(4) =   1
                l(5) =   2
                l(6) =   3

     atomic species   valence    mass     pseudopotential
        Co            22.00    58.93320     Er( 1.00)
        Si            19.00    28.08550     Tb( 1.00)

      8 Sym. Ops., with inversion, found ( 6 have fractional translation)

   Cartesian axes

     site n.     atom                  positions (alat units)
         1           Co  tau(   1) = (   0.8670865   1.2325751   0.9430166  )
         2           Co  tau(   2) = (   0.2890288   0.2610589   1.2237836  )
         3           Co  tau(   3) = (   0.8670865   0.4857581   0.1403835  )
         4           Co  tau(   4) = (   0.2890288   1.0078759   2.0264167  )
         5           Co  tau(   5) = (   0.2890288   0.8042351   0.6097839  )
         6           Co  tau(   6) = (   0.8670865   0.6893989   1.5570163  )
         7           Co  tau(   7) = (   0.2890288   0.0574181   0.4736162  )
         8           Co  tau(   8) = (   0.8670865   1.4362160   1.6931840  )
         9           Si  tau(   9) = (   0.2890288   0.2989451   1.9377615  )
        10           Si  tau(  10) = (   0.8670865   1.1946890   0.2290386  )
        11           Si  tau(  11) = (   0.2890288   1.0457621   1.3124387  )
        12           Si  tau(  12) = (   0.8670865   0.4478719   0.8543614  )

     number of k points=    12  gaussian smearing, width (Ry)=  0.1000
                       cart. coord. in units 2pi/alat
        k(    1) = (   0.0000000   0.0000000   0.0000000), wk =   0.0833333
        k(    2) = (   0.0000000   0.0000000   0.1153775), wk =   0.1666667
        k(    3) = (   0.0000000   0.0000000  -0.2307550), wk =   0.0833333
        k(    4) = (   0.0000000   0.2231693   0.0000000), wk =   0.1666667
        k(    5) = (   0.0000000   0.2231693   0.1153775), wk =   0.3333333
        k(    6) = (   0.0000000   0.2231693  -0.2307550), wk =   0.1666667
        k(    7) = (  -0.4324828   0.0000000   0.0000000), wk =   0.0833333
        k(    8) = (  -0.4324828   0.0000000   0.1153775), wk =   0.1666667
        k(    9) = (  -0.4324828   0.0000000  -0.2307550), wk =   0.0833333
        k(   10) = (  -0.4324828   0.2231693   0.0000000), wk =   0.1666667
        k(   11) = (  -0.4324828   0.2231693   0.1153775), wk =   0.3333333
        k(   12) = (  -0.4324828   0.2231693  -0.2307550), wk =   0.1666667

     Largest allocated arrays     est. size (Mb)     dimensions
     Largest temporary arrays     est. size (Mb)     dimensions

     Initial potential from superposition of free atoms

     Starting from uniform charge
     Starting wfc are    0 randomized atomic wfcs

     Writing output data file Prototype-La-oP12-Co2Si.save

     Self-consistent Calculation

[...]

     iteration #  9     ecut=    40.00 Ry     beta=0.70
     CG style diagonalization
     c_bands:  1 eigenvalues not converged
     ethr =  1.10E-06,  avg # of iterations =  4.6

     total energy              =   -3547.31415572 Ry
     Harris-Foulkes estimate   =   -3547.31439141 Ry
     estimated scf accuracy    <       0.00041824 Ry

     iteration # 10     ecut=    40.00 Ry     beta=0.70
     CG style diagonalization
     ethr =  1.66E-07,  avg # of iterations =  3.7

     End of self-consistent calculation

[...]

          k = 0.0000 0.2232-0.2308 (  5502 PWs)   bands (ev):

[...]

          k =-0.4325 0.2232-0.2308 (  5532 PWs)   bands (ev):

   -66.0759 -66.0759 -66.0677 -66.0677 -66.0098 -66.0098 -66.0030 -66.0030
   -41.6432 -41.6432 -41.6425 -41.6425 -28.2099 -28.2099 -28.1792 -28.1792
   -28.1573 -28.1573 -28.1525 -28.1525 -28.1347 -28.1347 -28.0966 -28.0966
   -28.0764 -28.0764 -28.0572 -28.0572 -28.0369 -28.0369 -28.0277 -28.0277
   -27.9985 -27.9985 -27.9748 -27.9748 -10.3192 -10.3192 -10.3116 -10.3116
   -10.2536 -10.2536 -10.2475 -10.2475 -10.1063 -10.1063 -10.1014 -10.1014
    16.9595  16.9595  17.2352  17.2352  17.3616  17.3616  17.4510  17.4510
    17.5089  17.5089  17.6535  17.6535  17.6635  17.6635  17.9695  17.9695
    18.0524  18.0524  18.1126  18.1126  18.1162  18.1162  18.4491  18.4491
    18.4492  18.4492  18.5507  18.5507  18.6368  18.6368  18.6791  18.6791
    18.9063  18.9063  19.1763  19.1763  19.2620  19.2620  19.6081  19.6081
    23.0483  23.0483  23.1817  23.1817  24.7442  24.7442  25.0352  25.0352
    26.3494  26.3494  26.3638  26.3638  26.6434  26.6434  27.0387  27.0387
    27.3754  27.3754  27.3947  27.3947  27.6395  27.6395  27.7485  27.7485
    29.5770  29.5770  29.6553  29.6553  30.9210  30.9210  33.3273  33.3274
    34.4010  34.4010  34.9148  34.9148  36.2912  36.2912  37.2655  37.2655
    39.5025  39.5025  40.0541  40.0541  40.8450  40.8450  40.9703  40.9703
    41.3514  41.3514  41.3579  41.3579  42.1375  42.1375  42.3481  42.3482
    42.6676  42.6676  43.0059  43.0061  43.1635  43.1637  43.5482

     the Fermi energy is    36.8717 ev

!    total energy              =   -3547.31423373 Ry
     Harris-Foulkes estimate   =   -3547.31429839 Ry
     estimated scf accuracy    <       0.00007560 Ry

     The total energy is the sum of the following terms:

     one-electron contribution =    -491.94753998 Ry
     hartree contribution      =     477.74534261 Ry
     xc contribution           =    -316.60681551 Ry
     ewald contribution        =   -3216.18982811 Ry
     smearing contrib. (-TS)   =      -0.31539274 Ry

     convergence has been achieved in  10 iterations

     Forces acting on atoms (Ry/au):

     atom    1 type  1   force =     0.00000000   -0.02262238    0.01063489
     atom    2 type  1   force =     0.00000000    0.02262238   -0.01063489
     atom    3 type  1   force =     0.00000000   -0.02262238   -0.01063489
     atom    4 type  1   force =     0.00000000    0.02262238    0.01063489
     atom    5 type  1   force =     0.00000000    0.02828363   -0.01679883
     atom    6 type  1   force =     0.00000000   -0.02828363    0.01679883
     atom    7 type  1   force =     0.00000000    0.02828363    0.01679883
     atom    8 type  1   force =     0.00000000   -0.02828363   -0.01679883
     atom    9 type  2   force =     0.00000000   -0.05867267    0.06357360
     atom   10 type  2   force =     0.00000000    0.05867267   -0.06357360
     atom   11 type  2   force =     0.00000000   -0.05867267   -0.06357360
     atom   12 type  2   force =     0.00000000    0.05867267    0.06357360

     Total force =     0.191741     Total SCF correction =     0.000000

     entering subroutine stress ...

          total   stress  (Ry/bohr**3)                   (kbar)     P= 1265.59
   0.00947054   0.00000000   0.00000000       1393.16      0.00      0.00
   0.00000000   0.00804758   0.00000000          0.00   1183.84      0.00
   0.00000000   0.00000000   0.00829183          0.00      0.00   1219.77

     Writing output data file Prototype-La-oP12-Co2Si.save

     General routines

     Parallel routines

   This run was terminated on:  23:15: 5  22Mar2018

   JOB DONE.