     Program PWSCF v.5.0.2 starts on 22Mar2018 at 22:45:46

     Current dimensions of program PWSCF are:
     Max number of different atomic species (ntypx) = 10
     Max number of k-points (npk) =  40000
     Max angular momentum in pseudopotentials (lmaxx) =  3
     Waiting for input...
     Reading input from standard input

     Subspace diagonalization in iterative solution of the eigenvalue problem:
     a serial algorithm will be used

     bravais-lattice index     =            0
     lattice parameter (alat)  =       9.9235  a.u.
     unit-cell volume          =    1361.0366 (a.u.)^3
     number of atoms/cell      =           12
     number of atomic types    =            2
     number of electrons       =       240.00
     number of Kohn-Sham states=          144
     kinetic-energy cutoff     =      40.0000  Ry
     charge density cutoff     =     160.0000  Ry
     convergence threshold     =      1.0E-04
     mixing beta               =       0.7000
     number of iterations used =            8  plain     mixing
     Exchange-correlation      = SLA-PZ-NOGX-NOGC ( 1 1 0 0 0)
     EXX-fraction              =        0.00
     nstep                     =           50

     celldm(1)=   9.923489  celldm(2)=   0.000000  celldm(3)=   0.000000
     celldm(4)=   0.000000  celldm(5)=   0.000000  celldm(6)=   0.000000

     crystal axes: (cart. coord. in units of alat)
               a(1) = (   1.000000   0.000000   0.000000 )
               a(2) = (  -0.500000   0.866025   0.000000 )
               a(3) = (   0.000000   0.000000   1.608222 )

     reciprocal axes: (cart. coord. in units 2 pi/alat)
               b(1) = (  1.000000  0.577350  0.000000 )
               b(2) = (  0.000000  1.154701  0.000000 )
               b(3) = (  0.000000  0.000000  0.621805 )

     PseudoPot. # 1 for Er read from file:
     /home/cwx6513/pp.La/Er.UPF
     MD5 check sum: e152ae21b84514339d8526f066caf99b
     Pseudo is Norm-conserving, Zval = 22.0
     Generated in analytical, separable form
     Using radial grid of 1267 points,  6 beta functions with:
                l(1) =   0
                l(2) =   0
                l(3) =   1
                l(4) =   1
                l(5) =   2
                l(6) =   3

     PseudoPot. # 2 for Tb read from file:
     /home/cwx6513/pp.La/Tb.UPF
     MD5 check sum: 3d6088a3f0cf7fd2e110c43f7f8e95c2
     Pseudo is Norm-conserving, Zval = 19.0
     Generated in analytical, separable form
     Using radial grid of 1263 points,  6 beta functions with:
                l(1) =   0
                l(2) =   0
                l(3) =   1
                l(4) =   1
                l(5) =   2
                l(6) =   3

     atomic species   valence    mass     pseudopotential
        Mg            22.00    24.30500     Er( 1.00)
        Zn            19.00    65.39000     Tb( 1.00)

     24 Sym. Ops., with inversion, found (12 have fractional translation)

   Cartesian axes

     site n.     atom                  positions (alat units)
         1           Mg  tau(   1) = (  -0.0000005   0.5773506   0.1003820  )
         2           Mg  tau(   2) = (   0.5000005   0.2886748   0.9044931  )
         3           Mg  tau(   3) = (   0.5000005   0.2886748   1.5078402  )
         4           Mg  tau(   4) = (  -0.0000005   0.5773506   0.7037291  )
         5           Zn  tau(   5) = (   0.0000000   0.0000000   0.0000000  )
         6           Zn  tau(   6) = (   0.0000000   0.0000000   0.8041111  )
         7           Zn  tau(   7) = (   0.0000000   0.2950739   1.2061667  )
         8           Zn  tau(   8) = (   0.7444585   0.1475370   0.4020556  )
         9           Zn  tau(   9) = (   0.2555415   0.1475370   0.4020556  )
        10           Zn  tau(  10) = (   0.2444585   0.7184884   1.2061667  )
        11           Zn  tau(  11) = (  -0.2444585   0.7184884   1.2061667  )
        12           Zn  tau(  12) = (   0.5000000   0.5709515   0.4020556  )

     number of k points=    12  gaussian smearing, width (Ry)=  0.1000
                       cart. coord. in units 2pi/alat
        k(    1) = (   0.0000000   0.0000000   0.0000000), wk =   0.0833333
        k(    2) = (   0.0000000   0.0000000   0.1554512), wk =   0.1666667
        k(    3) = (   0.0000000   0.0000000  -0.3109023), wk =   0.0833333
        k(    4) = (   0.0000000   0.3849002   0.0000000), wk =   0.1666667
        k(    5) = (   0.0000000   0.3849002   0.1554512), wk =   0.3333333
        k(    6) = (   0.0000000   0.3849002  -0.3109023), wk =   0.1666667
        k(    7) = (  -0.5000000  -0.2886751   0.0000000), wk =   0.0833333
        k(    8) = (  -0.5000000  -0.2886751   0.1554512), wk =   0.1666667
        k(    9) = (  -0.5000000  -0.2886751  -0.3109023), wk =   0.0833333
        k(   10) = (  -0.5000000   0.0962250   0.0000000), wk =   0.1666667
        k(   11) = (  -0.5000000   0.0962250   0.1554512), wk =   0.3333333
        k(   12) = (  -0.5000000   0.0962250  -0.3109023), wk =   0.1666667

     Largest allocated arrays     est. size (Mb)     dimensions
     Largest temporary arrays     est. size (Mb)     dimensions

     Initial potential from superposition of free atoms

     Starting from uniform charge
     Starting wfc are    0 randomized atomic wfcs

     Self-consistent Calculation

     iteration #  1     ecut=    40.00 Ry     beta=0.70
     CG style diagonalization
     ethr =  1.00E-02,  avg # of iterations = 17.6

     total energy              =   -2840.02603915 Ry
     Harris-Foulkes estimate   =   -3784.64283484 Ry
     estimated scf accuracy    <    1207.84692690 Ry

[...]

     iteration #  3     ecut=    40.00 Ry     beta=0.70
     CG style diagonalization
     c_bands:  1 eigenvalues not converged
     ethr =  1.00E-02,  avg # of iterations =  8.1

[...]

     End of self-consistent calculation

          k = 0.0000 0.0000 0.0000 (  5769 PWs)   bands (ev):

   -69.3288 -69.3184 -69.3121 -69.2813 -44.5967 -44.5537 -44.3174 -44.3174
   -44.3139 -44.3139 -44.2709 -44.2093 -31.3248 -31.3108 -31.3108 -31.3094
   -31.2889 -31.2889 -31.2742 -31.2553 -31.2553 -31.2479 -31.2466 -31.2466
   -14.5421 -14.2512 -13.7634 -13.4156 -13.4156 -13.3552 -13.3552 -13.2246
   -13.2245 -13.0355 -12.7975 -12.7974 -12.7195 -12.6907 -12.6906 -12.3182
   -12.3018 -12.2426 -12.2425 -12.2293 -12.2293 -12.2146 -12.1442 -12.1441
    15.0051  15.0051  15.0348  15.0867  15.0938  15.0938  15.2132  15.2132
    15.3001  15.3001  15.5918  15.6078  15.6078  15.6979  15.7137  15.7137
    15.7903  15.7903  15.8084  15.8084  18.2623  18.8628  19.3616  19.5923
    20.6073  21.0634  21.0634  21.1644  21.1644  21.4201  21.4201  21.4348
    21.4721  21.9927  22.2041  22.2041  23.3327  23.3328  23.3410  23.3410
    24.0413  24.0414  24.5031  24.8794  25.2513  25.2514  26.0502  26.2067
    26.4181  26.6135  26.6135  26.6226  26.6226  26.7441  26.7442  26.7764
    26.7765  27.8906  28.3511  28.3512  28.8208  28.8208  28.9014  30.3471
    30.3521  30.4534  30.5807  30.5808  30.7062  30.7814  30.7814  32.4817
    32.4819  32.7973  33.0761  33.7118  33.7120  33.8867  34.5359  36.1735
    36.1735  36.9900  37.4315  37.4316  37.8171  38.1477  38.1478  38.1775
    38.9818  38.9819  38.9901  38.9902  39.5350  39.7112  40.1055  40.1057

[...]

          k =-0.5000-0.2887 0.0000 (  5800 PWs)   bands (ev):

[...]

     the Fermi energy is    32.6993 ev

!    total energy              =   -3150.05551288 Ry
     Harris-Foulkes estimate   =   -3150.05552453 Ry
     estimated scf accuracy    <       0.00001277 Ry

     The total energy is the sum of the following terms:

     one-electron contribution =    -427.68847919 Ry
     hartree contribution      =     426.85183998 Ry
     xc contribution           =    -291.73689836 Ry
     ewald contribution        =   -2857.28431256 Ry
     smearing contrib. (-TS)   =      -0.19766274 Ry

     convergence has been achieved in  12 iterations

     Forces acting on atoms (Ry/au):

     atom    1 type  1   force =     0.00000000    0.00000000   -0.00531513
     atom    2 type  1   force =     0.00000000    0.00000000   -0.00531513
     atom    3 type  1   force =     0.00000000    0.00000000    0.00531513
     atom    4 type  1   force =     0.00000000    0.00000000    0.00531513
     atom    5 type  2   force =     0.00000000    0.00000000    0.00000000
     atom    6 type  2   force =     0.00000000    0.00000000    0.00000000
     atom    7 type  2   force =     0.00000000    0.05077965    0.00000000
     atom    8 type  2   force =    -0.04397647    0.02538983    0.00000000
     atom    9 type  2   force =     0.04397647    0.02538983    0.00000000
     atom   10 type  2   force =    -0.04397647   -0.02538983    0.00000000
     atom   11 type  2   force =     0.04397647   -0.02538983    0.00000000
     atom   12 type  2   force =     0.00000000   -0.05077965    0.00000000

     Total force =     0.124838     Total SCF correction =     0.000000

     entering subroutine stress ...

          total   stress  (Ry/bohr**3)                   (kbar)     P=  653.89
   0.00446575   0.00000000   0.00000000        656.93      0.00      0.00
   0.00000000   0.00446575   0.00000000          0.00    656.93      0.00
   0.00000000   0.00000000   0.00440376          0.00      0.00    647.82

     BFGS Geometry Optimization

     number of scf cycles    =   1
     number of bfgs steps    =   0

     enthalpy new            =   -3150.0555128811 Ry

     new trust radius        =       0.5000000000 bohr
     new conv_thr            =       0.0001000000 Ry

     new unit-cell volume =   1655.44225 a.u.^3 (   245.31123 Ang^3 )

CELL_PARAMETERS (alat=  9.92348860)
   1.067764947   0.000000000   0.000000000
  -0.533882474   0.924711570   0.000000000
   0.000000000   0.000000000   1.715690552

ATOMIC_POSITIONS (crystal)
Mg       0.333333000   0.666667000   0.062215850
Mg       0.666667000   0.333333000   0.562215850
Mg       0.666667000   0.333333000   0.937784150
Mg       0.333333000   0.666667000   0.437784150
Zn       0.000000000   0.000000000   0.000000000
Zn       0.000000000   0.000000000   0.500000000
Zn       0.172154228   0.344308455   0.750000000
Zn       0.827845772   0.172154228   0.250000000
Zn       0.344308455   0.172154228   0.250000000
Zn       0.655691545   0.827845772   0.750000000
Zn       0.172154228   0.827845772   0.750000000
Zn       0.827845772   0.655691545   0.250000000

     Writing output data file Prototype-La-hP12-MgZn2.save
     NEW-OLD atomic charge density approx. for the potential
     NEW k-points:
        k(    1) = (   0.0000000   0.0000000   0.0000000), wk =   0.0833333
        k(    2) = (   0.0000000   0.0000000   0.1457139), wk =   0.1666667
        k(    3) = (   0.0000000   0.0000000  -0.2914278), wk =   0.0833333
        k(    4) = (   0.0000000   0.3604728   0.0000000), wk =   0.1666667
        k(    5) = (   0.0000000   0.3604728   0.1457139), wk =   0.3333333
        k(    6) = (   0.0000000   0.3604728  -0.2914278), wk =   0.1666667
        k(    7) = (  -0.4682679  -0.2703546   0.0000000), wk =   0.0833333
        k(    8) = (  -0.4682679  -0.2703546   0.1457139), wk =   0.1666667
        k(    9) = (  -0.4682679  -0.2703546  -0.2914278), wk =   0.0833333
        k(   10) = (  -0.4682679   0.0901182   0.0000000), wk =   0.1666667
        k(   11) = (  -0.4682679   0.0901182   0.1457139), wk =   0.3333333
        k(   12) = (  -0.4682679   0.0901182  -0.2914278), wk =   0.1666667

[...]

     enthalpy old            =   -3150.0555128811 Ry
     enthalpy new            =   -3149.9192608409 Ry

     CASE: enthalpy_new > enthalpy_old

     new trust radius        =       0.2325370021 bohr

     trust_radius < trust_radius_min

     resetting bfgs history

     new conv_thr            =       0.0001000000 Ry

[...]

     number of scf cycles    =   3
     number of bfgs steps    =   1

     enthalpy old            =   -3150.0555128811 Ry
     enthalpy new            =   -3149.9609058209 Ry

     CASE: enthalpy_new > enthalpy_old

     new trust radius        =       0.2313907537 bohr

     trust_radius < trust_radius_min

     resetting bfgs history

     Message from routine bfgs:
     history already reset at previous step: stopping
     new conv_thr            =       0.0001000000 Ry

     new unit-cell volume =   1645.60075 a.u.^3 (   243.85287 Ang^3 )

[...]

ATOMIC_POSITIONS (crystal)
Mg       0.333333000   0.666667000   0.062233963
Mg       0.666667000   0.333333000   0.562233963
Mg       0.666667000   0.333333000   0.937766037
Mg       0.333333000   0.666667000   0.437766037
Zn       0.000000000   0.000000000   0.000000000
Zn       0.000000000   0.000000000   0.500000000
Zn       0.171990409   0.343980818   0.750000000
Zn       0.828009591   0.171990409   0.250000000
Zn       0.343980818   0.171990409   0.250000000
Zn       0.656019182   0.828009591   0.750000000
Zn       0.171990409   0.828009591   0.750000000
Zn       0.828009591   0.656019182   0.250000000

     Writing output data file Prototype-La-hP12-MgZn2.save
     NEW-OLD atomic charge density approx. for the potential
     NEW k-points:
        k(    1) = (   0.0000000   0.0000000   0.0000000), wk =   0.0833333
        k(    2) = (   0.0000000   0.0000000   0.1460127), wk =   0.1666667
        k(    3) = (   0.0000000   0.0000000  -0.2920255), wk =   0.0833333
        k(    4) = (   0.0000000   0.3611789   0.0000000), wk =   0.1666667
        k(    5) = (   0.0000000   0.3611789   0.1460127), wk =   0.3333333
        k(    6) = (   0.0000000   0.3611789  -0.2920255), wk =   0.1666667
        k(    7) = (  -0.4691852  -0.2708842   0.0000000), wk =   0.0833333
        k(    8) = (  -0.4691852  -0.2708842   0.1460127), wk =   0.1666667
        k(    9) = (  -0.4691852  -0.2708842  -0.2920255), wk =   0.0833333
        k(   10) = (  -0.4691852   0.0902947   0.0000000), wk =   0.1666667
        k(   11) = (  -0.4691852   0.0902947   0.1460127), wk =   0.3333333
        k(   12) = (  -0.4691852   0.0902947  -0.2920255), wk =   0.1666667

[...]

     Threshold (ethr) on eigenvalues was too large:
     Diagonalizing with lowered threshold

     CG style diagonalization
     ethr =  6.01E-08,  avg # of iterations =  3.0

[...]

     The maximum number of steps has been reached.

     End of BFGS Geometry Optimization
Begin final coordinates
     new unit-cell volume =   1645.60075 a.u.^3 (   243.85287 Ang^3 )

CELL_PARAMETERS (alat=  9.92348860)
   1.065677288   0.000000000   0.000000000
  -0.532838644   0.922903604   0.000000000
   0.000000000   0.000000000   1.712179525

ATOMIC_POSITIONS (crystal)
Mg       0.333333000   0.666667000   0.062233963
Mg       0.666667000   0.333333000   0.562233963
Mg       0.666667000   0.333333000   0.937766037
Mg       0.333333000   0.666667000   0.437766037
Zn       0.000000000   0.000000000   0.000000000
Zn       0.000000000   0.000000000   0.500000000
Zn       0.171990409   0.343980818   0.750000000
Zn       0.828009591   0.171990409   0.250000000
Zn       0.343980818   0.171990409   0.250000000
Zn       0.656019182   0.828009591   0.750000000
Zn       0.171990409   0.828009591   0.750000000
Zn       0.828009591   0.656019182   0.250000000
End final coordinates

     A final scf calculation at the relaxed structure.
     The G-vectors are recalculated for the final unit cell
     Results may differ from those at the preceding step.

     bravais-lattice index     =            0
     lattice parameter (alat)  =       9.9235  a.u.
     unit-cell volume          =    1645.6008 (a.u.)^3
     number of atoms/cell      =           12
     number of atomic types    =            2
     number of electrons       =       240.00
     number of Kohn-Sham states=          144
     kinetic-energy cutoff     =      40.0000  Ry
     charge density cutoff     =     160.0000  Ry
     convergence threshold     =      1.0E-04
     mixing beta               =       0.7000
     number of iterations used =            8  plain     mixing
     Exchange-correlation      = SLA-PZ-NOGX-NOGC ( 1 1 0 0 0)
     EXX-fraction              =        0.00

     celldm(1)=   9.923489  celldm(2)=   0.000000  celldm(3)=   0.000000
     celldm(4)=   0.000000  celldm(5)=   0.000000  celldm(6)=   0.000000

     crystal axes: (cart. coord. in units of alat)
               a(1) = (   1.065677   0.000000   0.000000 )
               a(2) = (  -0.532839   0.922904   0.000000 )
               a(3) = (   0.000000   0.000000   1.712180 )

     reciprocal axes: (cart. coord. in units 2 pi/alat)
               b(1) = (  0.938370  0.541768  0.000000 )
               b(2) = (  0.000000  1.083537  0.000000 )
               b(3) = (  0.000000  0.000000  0.584051 )

     PseudoPot. # 1 for Er read from file:
     /home/cwx6513/pp.La/Er.UPF
     MD5 check sum: e152ae21b84514339d8526f066caf99b
     Pseudo is Norm-conserving, Zval = 22.0
     Generated in analytical, separable form
     Using radial grid of 1267 points,  6 beta functions with:
                l(1) =   0
                l(2) =   0
                l(3) =   1
                l(4) =   1
                l(5) =   2
                l(6) =   3

     PseudoPot. # 2 for Tb read from file:
     /home/cwx6513/pp.La/Tb.UPF
     MD5 check sum: 3d6088a3f0cf7fd2e110c43f7f8e95c2
     Pseudo is Norm-conserving, Zval = 19.0
     Generated in analytical, separable form
     Using radial grid of 1263 points,  6 beta functions with:
                l(1) =   0
                l(2) =   0
                l(3) =   1
                l(4) =   1
                l(5) =   2
                l(6) =   3

     atomic species   valence    mass     pseudopotential
        Mg            22.00    24.30500     Er( 1.00)
        Zn            19.00    65.39000     Tb( 1.00)

     24 Sym. Ops., with inversion, found (12 have fractional translation)

   Cartesian axes

     site n.     atom                  positions (alat units)
         1           Mg  tau(   1) = (  -0.0000005   0.6152694   0.1065557  )
         2           Mg  tau(   2) = (   0.5328392   0.3076342   0.9626455  )
         3           Mg  tau(   3) = (   0.5328392   0.3076342   1.6056238  )
         4           Mg  tau(   4) = (  -0.0000005   0.6152694   0.7495340  )
         5           Zn  tau(   5) = (   0.0000000   0.0000000   0.0000000  )
         6           Zn  tau(   6) = (   0.0000000   0.0000000   0.8560898  )
         7           Zn  tau(   7) = (   0.0000000   0.3174611   1.2841346  )
         8           Zn  tau(   8) = (   0.7907479   0.1587306   0.4280449  )
         9           Zn  tau(   9) = (   0.2749294   0.1587306   0.4280449  )
        10           Zn  tau(  10) = (   0.2579092   0.7641730   1.2841346  )
        11           Zn  tau(  11) = (  -0.2579092   0.7641730   1.2841346  )
        12           Zn  tau(  12) = (   0.5328386   0.6054425   0.4280449  )

     number of k points=    12  gaussian smearing, width (Ry)=  0.1000
                       cart. coord. in units 2pi/alat
        k(    1) = (   0.0000000   0.0000000   0.0000000), wk =   0.0833333
        k(    2) = (   0.0000000   0.0000000   0.1460127), wk =   0.1666667
        k(    3) = (   0.0000000   0.0000000  -0.2920255), wk =   0.0833333
        k(    4) = (   0.0000000   0.3611789   0.0000000), wk =   0.1666667
        k(    5) = (   0.0000000   0.3611789   0.1460127), wk =   0.3333333
        k(    6) = (   0.0000000   0.3611789  -0.2920255), wk =   0.1666667
        k(    7) = (  -0.4691852  -0.2708842   0.0000000), wk =   0.0833333
        k(    8) = (  -0.4691852  -0.2708842   0.1460127), wk =   0.1666667
        k(    9) = (  -0.4691852  -0.2708842  -0.2920255), wk =   0.0833333
        k(   10) = (  -0.4691852   0.0902947   0.0000000), wk =   0.1666667
        k(   11) = (  -0.4691852   0.0902947   0.1460127), wk =   0.3333333
        k(   12) = (  -0.4691852   0.0902947  -0.2920255), wk =   0.1666667

     Largest allocated arrays     est. size (Mb)     dimensions
     Largest temporary arrays     est. size (Mb)     dimensions

     Initial potential from superposition of free atoms

     Starting from uniform charge
     Starting wfc are    0 randomized atomic wfcs

     Writing output data file Prototype-La-hP12-MgZn2.save

     Self-consistent Calculation

[...]

     iteration # 11     ecut=    40.00 Ry     beta=0.70
     CG style diagonalization
     c_bands:  1 eigenvalues not converged
     c_bands:  1 eigenvalues not converged
     c_bands:  1 eigenvalues not converged
     ethr =  1.66E-06,  avg # of iterations =  3.7

     total energy              =   -3152.15874985 Ry
     Harris-Foulkes estimate   =   -3152.15879870 Ry
     estimated scf accuracy    <       0.00011255 Ry

     iteration # 12     ecut=    40.00 Ry     beta=0.70
     CG style diagonalization
     ethr =  4.69E-08,  avg # of iterations =  4.4

     End of self-consistent calculation

[...]

          k = 0.0000 0.3612-0.2920 (  7020 PWs)   bands (ev):

[...]

          k =-0.4692 0.0903-0.2920 (  7038 PWs)   bands (ev):

   -75.4760 -75.4760 -75.4710 -75.4710 -50.0476 -50.0476 -50.0020 -50.0020
   -49.9615 -49.9615 -49.8484 -49.8484 -37.4040 -37.4039 -37.4000 -37.4000
   -37.3923 -37.3922 -37.3888 -37.3888 -37.3867 -37.3867 -37.3832 -37.3832
   -18.9642 -18.9642 -18.7341 -18.7341 -18.5535 -18.5535 -18.5111 -18.5111
   -18.4845 -18.4845 -18.4473 -18.4473 -18.3112 -18.3112 -18.2251 -18.2251
   -18.1441 -18.1441 -18.0881 -18.0881 -18.0354 -18.0354 -18.0106 -18.0105
     9.3205   9.3205   9.3314   9.3314   9.4036   9.4036   9.4840   9.4840
     9.5152   9.5153   9.6294   9.6294   9.6650   9.6650   9.7104   9.7104
     9.8230   9.8230   9.8577   9.8577  15.5337  15.5337  16.0594  16.0594
    16.3452  16.3452  17.0422  17.0422  17.2451  17.2451  17.4596  17.4597
    17.6418  17.6418  18.0431  18.0431  18.2619  18.2619  18.3577  18.3577
    18.6028  18.6028  19.0816  19.0816  19.1856  19.1856  19.5242  19.5242
    19.7563  19.7563  19.9249  19.9249  20.2107  20.2107  20.4941  20.4941
    20.7939  20.7939  20.8989  20.8989  21.2111  21.2111  21.8741  21.8741
    22.4024  22.4024  23.6523  23.6523  24.4769  24.4769  25.2080  25.2080
    26.2751  26.2752  27.5178  27.5179  29.3702  29.3702  29.7190  29.7190
    30.1805  30.1805  30.7639  30.7639  31.4050  31.4050  32.3503  32.3504
    32.5405  32.5405  32.9951  32.9951  33.2988  33.2988  33.8345  33.8346

     the Fermi energy is    25.8509 ev

!    total energy              =   -3152.15880709 Ry
     Harris-Foulkes estimate   =   -3152.15881712 Ry
     estimated scf accuracy    <       0.00001115 Ry

     The total energy is the sum of the following terms:

     one-electron contribution =    -684.46961818 Ry
     hartree contribution      =     503.52572293 Ry
     xc contribution           =    -288.35084015 Ry
     ewald contribution        =   -2682.63216009 Ry
     smearing contrib. (-TS)   =      -0.23191160 Ry

     convergence has been achieved in  12 iterations

     Forces acting on atoms (Ry/au):

     atom    1 type  1   force =     0.00000000    0.00000000    0.01039287
     atom    2 type  1   force =     0.00000000    0.00000000    0.01039287
     atom    3 type  1   force =     0.00000000    0.00000000   -0.01039287
     atom    4 type  1   force =     0.00000000    0.00000000   -0.01039287
     atom    5 type  2   force =     0.00000000    0.00000000    0.00000000
     atom    6 type  2   force =     0.00000000    0.00000000    0.00000000
     atom    7 type  2   force =     0.00000000   -0.03202004    0.00000000
     atom    8 type  2   force =     0.02773017   -0.01601002    0.00000000
     atom    9 type  2   force =    -0.02773017   -0.01601002    0.00000000
     atom   10 type  2   force =     0.02773017    0.01601002    0.00000000
     atom   11 type  2   force =    -0.02773017    0.01601002    0.00000000
     atom   12 type  2   force =     0.00000000    0.03202004    0.00000000

     Total force =     0.081140     Total SCF correction =     0.000000

     entering subroutine stress ...

          total   stress  (Ry/bohr**3)                   (kbar)     P= -179.29
  -0.00116671   0.00000000   0.00000000       -171.63      0.00      0.00
   0.00000000  -0.00116671   0.00000000          0.00   -171.63      0.00
   0.00000000   0.00000000  -0.00132292          0.00      0.00   -194.61

     Writing output data file Prototype-La-hP12-MgZn2.save

     General routines

     Parallel routines

   This run was terminated on:  23:11:17  22Mar2018

   JOB DONE.