     Program PWSCF v.5.0.2 starts on 22Mar2018 at 12: 7:47

     Current dimensions of program PWSCF are:
     Max number of different atomic species (ntypx) = 10
     Max number of k-points (npk) =  40000
     Max angular momentum in pseudopotentials (lmaxx) =  3
     Waiting for input...
     Reading input from standard input

     Subspace diagonalization in iterative solution of the eigenvalue problem:
     a serial algorithm will be used

     bravais-lattice index     =            0
     lattice parameter (alat)  =       7.0151  a.u.
     unit-cell volume          =     862.2778 (a.u.)^3
     number of atoms/cell      =           12
     number of atomic types    =            2
     number of electrons       =       280.00
     number of Kohn-Sham states=          168
     kinetic-energy cutoff     =      40.0000  Ry
     charge density cutoff     =     160.0000  Ry
     convergence threshold     =      1.0E-04
     mixing beta               =       0.7000
     number of iterations used =            8  plain     mixing
     Exchange-correlation      = SLA-PZ-NOGX-NOGC ( 1 1 0 0 0)
     EXX-fraction              =        0.00
     nstep                     =           50

     celldm(1)=   7.015105  celldm(2)=   0.000000  celldm(3)=   0.000000
     celldm(4)=   0.000000  celldm(5)=   0.000000  celldm(6)=   0.000000

     crystal axes: (cart. coord. in units of alat)
               a(1) = (   1.000000   0.000000   0.000000 )
               a(2) = (   0.000000   1.315963   0.000000 )
               a(3) = (   0.000000   0.000000   1.898020 )

     reciprocal axes: (cart. coord. in units 2 pi/alat)
               b(1) = (  1.000000  0.000000  0.000000 )
               b(2) = (  0.000000  0.759900  0.000000 )
               b(3) = (  0.000000  0.000000  0.526865 )

     PseudoPot. # 1 for Yb read from file:
     /home/jld5415/pp.La/Yb.UPF
     MD5 check sum: 3e859b81cc28c53ec6aa3a2e888efcdf
     Pseudo is Norm-conserving, Zval = 24.0
     Generated in analytical, separable form
     Using radial grid of 1269 points,  6 beta functions with:
                l(1) =   0
                l(2) =   0
                l(3) =   1
                l(4) =   1
                l(5) =   2
                l(6) =   3

     PseudoPot. # 2 for Er read from file:
     /home/jld5415/pp.La/Er.UPF
     MD5 check sum: e152ae21b84514339d8526f066caf99b
     Pseudo is Norm-conserving, Zval = 22.0
     Generated in analytical, separable form
     Using radial grid of 1267 points,  6 beta functions with:
                l(1) =   0
                l(2) =   0
                l(3) =   1
                l(4) =   1
                l(5) =   2
                l(6) =   3

     atomic species   valence    mass     pseudopotential
        Co            24.00    58.93320     Yb( 1.00)
        Si            22.00    28.08550     Er( 1.00)

      8 Sym. Ops., with inversion, found ( 6 have fractional translation)

   Cartesian axes

     site n.     atom                  positions (alat units)
         1           Co  tau(   1) = (   0.7500000   1.0875135   0.8270358  )
         2           Co  tau(   2) = (   0.2500000   0.2284499   1.0709846  )
         3           Co  tau(   3) = (   0.7500000   0.4295318   0.1219744  )
         4           Co  tau(   4) = (   0.2500000   0.8864316   1.7760460  )
         5           Co  tau(   5) = (   0.2500000   0.7067855   0.5358966  )
         6           Co  tau(   6) = (   0.7500000   0.6091779   1.3621238  )
         7           Co  tau(   7) = (   0.2500000   0.0488038   0.4131136  )
         8           Co  tau(   8) = (   0.7500000   1.2671596   1.4849068  )
         9           Si  tau(   9) = (   0.2500000   0.2669484   1.6960710  )
        10           Si  tau(  10) = (   0.7500000   1.0490149   0.2019494  )
        11           Si  tau(  11) = (   0.2500000   0.9249301   1.1509596  )
        12           Si  tau(  12) = (   0.7500000   0.3910333   0.7470608  )

     number of k points=    12  gaussian smearing, width (Ry)=  0.1000
                       cart. coord. in units 2pi/alat
        k(    1) = (   0.0000000   0.0000000   0.0000000), wk =   0.0833333
        k(    2) = (   0.0000000   0.0000000   0.1317162), wk =   0.1666667
        k(    3) = (   0.0000000   0.0000000  -0.2634324), wk =   0.0833333
        k(    4) = (   0.0000000   0.2532999   0.0000000), wk =   0.1666667
        k(    5) = (   0.0000000   0.2532999   0.1317162), wk =   0.3333333
        k(    6) = (   0.0000000   0.2532999  -0.2634324), wk =   0.1666667
        k(    7) = (  -0.5000000   0.0000000   0.0000000), wk =   0.0833333
        k(    8) = (  -0.5000000   0.0000000   0.1317162), wk =   0.1666667
        k(    9) = (  -0.5000000   0.0000000  -0.2634324), wk =   0.0833333
        k(   10) = (  -0.5000000   0.2532999   0.0000000), wk =   0.1666667
        k(   11) = (  -0.5000000   0.2532999   0.1317162), wk =   0.3333333
        k(   12) = (  -0.5000000   0.2532999  -0.2634324), wk =   0.1666667

     Largest allocated arrays     est. size (Mb)     dimensions
     Largest temporary arrays     est. size (Mb)     dimensions

     Initial potential from superposition of free atoms

     Starting from uniform charge
     Starting wfc are    0 randomized atomic wfcs

     Self-consistent Calculation

     iteration #  1     ecut=    40.00 Ry     beta=0.70
     CG style diagonalization
     ethr =  1.00E-02,  avg # of iterations = 16.9

     total energy              =   -4090.44234910 Ry
     Harris-Foulkes estimate   =   -5282.01439801 Ry
     estimated scf accuracy    <    1505.03412579 Ry

     iteration #  2     ecut=    40.00 Ry     beta=0.70
     CG style diagonalization
     c_bands:  1 eigenvalues not converged
     c_bands:  1 eigenvalues not converged
     ethr =  1.00E-02,  avg # of iterations =  9.8

[...]

     End of self-consistent calculation

          k = 0.0000 0.0000 0.0000 (  3675 PWs)   bands (ev):

   -67.4852 -67.4803 -67.4690 -67.4296 -67.1860 -67.1342 -67.0911 -67.0837
   -46.1749 -46.1637 -46.1579 -46.1454 -26.6951 -26.6938 -26.6849 -26.6496
   -26.6329 -26.6134 -26.5652 -26.5640 -26.5267 -26.5074 -26.4653 -26.4170
   -26.3753 -26.3501 -26.2347 -26.2337 -26.2263 -26.2135 -26.1339 -26.1206
   -26.1098 -26.0641 -25.9488 -25.9349  -8.7964  -8.7473  -8.7414  -8.7290
    -8.7263  -8.7224  -8.7215  -8.7066  -8.4247  -8.3897  -8.3775  -8.3210
    27.2486  27.2814  27.3323  27.3999  27.4714  27.6637  27.7836  27.8209
    28.0826  28.1302  28.1719  28.5214  28.5613  28.7545  28.9996  29.3491
    29.3959  29.4655  29.5799  29.6399  29.8177  29.8795  29.9295  30.0297
    30.2364  30.4937  30.4949  30.7358  30.7443  30.7905  30.8770  31.0105
    31.0271  31.2278  31.3169  31.8487  32.1037  32.2269  32.2938  32.3910
    32.5690  34.2430  34.6351  35.3345  35.5914  36.4586  36.6897  36.7525
    36.9918  37.0205  37.0634  37.6484  37.7667  37.7861  38.0488  38.1010
    38.2413  38.9995  39.0165  39.0249  39.0722  39.0866  39.6101  42.2514
    44.1850  44.3725  44.9711  45.5809  47.0739  47.8970  48.9131  51.3580
    51.8585  52.3713  52.5161  52.9912  53.0736  53.4059  54.3147  54.3543
    55.2062  55.2245  55.2893  55.4053  55.9601  56.3858  56.5139  56.6197
    57.1469  57.4059  57.4422  57.7803  57.9725  58.1578  58.3946  58.7798
    59.0595  59.1043  59.3270  60.6153  61.0543  61.1334  61.2209  61.7567
    62.4098  62.4824  62.5862  62.6359  62.6628  63.0701  63.3266  64.2269
    64.3752  64.5184  65.2051  65.3465  66.1709  66.1891  66.2236  66.2764

[...]

          k =-0.5000 0.0000 0.0000 (  3722 PWs)   bands (ev):

[...]

     the Fermi energy is    58.6761 ev

!    total energy              =   -4570.39050782 Ry
     Harris-Foulkes estimate   =   -4570.39058054 Ry
     estimated scf accuracy    <       0.00008621 Ry

     The total energy is the sum of the following terms:

     one-electron contribution =    -116.11454550 Ry
     hartree contribution      =     465.74971546 Ry
     xc contribution           =    -385.98220517 Ry
     ewald contribution        =   -4533.52171443 Ry
     smearing contrib. (-TS)   =      -0.52175818 Ry

     convergence has been achieved in   9 iterations

     Forces acting on atoms (Ry/au):

     atom    1 type  1   force =     0.00000000   -0.03302013   -0.11552263
     atom    2 type  1   force =     0.00000000    0.03302013    0.11552263
     atom    3 type  1   force =     0.00000000   -0.03302013    0.11552263
     atom    4 type  1   force =     0.00000000    0.03302013   -0.11552263
     atom    5 type  1   force =     0.00000000    0.10860104   -0.27709960
     atom    6 type  1   force =     0.00000000   -0.10860104    0.27709960
     atom    7 type  1   force =     0.00000000    0.10860104    0.27709960
     atom    8 type  1   force =     0.00000000   -0.10860104   -0.27709960
     atom    9 type  2   force =     0.00000000   -0.24408484    0.00848772
     atom   10 type  2   force =     0.00000000    0.24408484   -0.00848772
     atom   11 type  2   force =     0.00000000   -0.24408484   -0.00848772
     atom   12 type  2   force =     0.00000000    0.24408484    0.00848772

     Total force =     0.806632     Total SCF correction =     0.000000

     entering subroutine stress ...

          total   stress  (Ry/bohr**3)                   (kbar)     P= 7952.64
   0.05780565   0.00000000   0.00000000       8503.50      0.00      0.00
   0.00000000   0.05096170   0.00000000          0.00   7496.72      0.00
   0.00000000   0.00000000   0.05341549          0.00      0.00   7857.69

     BFGS Geometry Optimization

     number of scf cycles    =   1
     number of bfgs steps    =   0

     enthalpy new            =   -4570.3905078217 Ry

     new trust radius        =       0.5000000000 bohr
     new conv_thr            =       0.0001000000 Ry

     new unit-cell volume =   1085.05552 a.u.^3 (   160.78864 Ang^3 )

CELL_PARAMETERS (alat=  7.01510508)
   1.085136619   0.000000000   0.000000000
   0.000000000   1.414735388   0.000000000
   0.000000000   0.000000000   2.047339108

ATOMIC_POSITIONS (crystal)
Co       0.750000000   0.826190279   0.435224862
Co       0.250000000   0.173809721   0.564775138
Co       0.750000000   0.326190279   0.064775138
Co       0.250000000   0.673809721   0.935224862
Co       0.250000000   0.537779046   0.281118953
Co       0.750000000   0.462220954   0.718881047
Co       0.250000000   0.037779046   0.218881047
Co       0.750000000   0.962220954   0.781118953
Si       0.250000000   0.201296353   0.893637555
Si       0.750000000   0.798703647   0.106362445
Si       0.250000000   0.701296353   0.606362445
Si       0.750000000   0.298703647   0.393637555

     Writing output data file Prototype-La-oP12-Co2Si.save
     NEW-OLD atomic charge density approx. for the potential
     NEW k-points:
        k(    1) = (   0.0000000   0.0000000   0.0000000), wk =   0.0833333
        k(    2) = (   0.0000000   0.0000000   0.1221097), wk =   0.1666667
        k(    3) = (   0.0000000   0.0000000  -0.2442194), wk =   0.0833333
        k(    4) = (   0.0000000   0.2356153   0.0000000), wk =   0.1666667
        k(    5) = (   0.0000000   0.2356153   0.1221097), wk =   0.3333333
        k(    6) = (   0.0000000   0.2356153  -0.2442194), wk =   0.1666667
        k(    7) = (  -0.4607715   0.0000000   0.0000000), wk =   0.0833333
        k(    8) = (  -0.4607715   0.0000000   0.1221097), wk =   0.1666667
        k(    9) = (  -0.4607715   0.0000000  -0.2442194), wk =   0.0833333
        k(   10) = (  -0.4607715   0.2356153   0.0000000), wk =   0.1666667
        k(   11) = (  -0.4607715   0.2356153   0.1221097), wk =   0.3333333
        k(   12) = (  -0.4607715   0.2356153  -0.2442194), wk =   0.1666667

[...]

     enthalpy old            =   -4570.3905078217 Ry
     enthalpy new            =   -4578.1495952843 Ry

     CASE: enthalpy_new < enthalpy_old

     small trust_radius: resetting bfgs history

     new trust radius        =       3.1806830093 bohr
     new conv_thr            =       0.0001000000 Ry

[...]

          total   stress  (Ry/bohr**3)                   (kbar)     P=-7553.32
  -0.05265737   0.00000000   0.00000000      -7746.17      0.00      0.00
   0.00000000  -0.04982485   0.00000000          0.00  -7329.49      0.00
   0.00000000   0.00000000  -0.05155704          0.00      0.00  -7584.30

     number of scf cycles    =   3
     number of bfgs steps    =   2

     enthalpy old            =   -4578.1495952843 Ry
     enthalpy new            =   -4506.1891824219 Ry

     CASE: enthalpy_new > enthalpy_old

     new trust radius        =       0.5657561250 bohr

     trust_radius < trust_radius_min

     resetting bfgs history

     Message from routine bfgs:
     history already reset at previous step: stopping
     new conv_thr            =       0.0001000000 Ry

     new unit-cell volume =   1297.87505 a.u.^3 (   192.32524 Ang^3 )

[...]

ATOMIC_POSITIONS (crystal)
Co       0.750000000   0.825992599   0.435159694
Co       0.250000000   0.174007401   0.564840306
Co       0.750000000   0.325992599   0.064840306
Co       0.250000000   0.674007401   0.935159694
Co       0.250000000   0.538347932   0.280013848
Co       0.750000000   0.461652068   0.719986152
Co       0.250000000   0.038347932   0.219986152
Co       0.750000000   0.961652068   0.780013848
Si       0.250000000   0.199909147   0.893932677
Si       0.750000000   0.800090853   0.106067323
Si       0.250000000   0.699909147   0.606067323
Si       0.750000000   0.300090853   0.393932677

     Writing output data file Prototype-La-oP12-Co2Si.save
     NEW-OLD atomic charge density approx. for the potential
     NEW k-points:
        k(    1) = (   0.0000000   0.0000000   0.0000000), wk =   0.0833333
        k(    2) = (   0.0000000   0.0000000   0.1149080), wk =   0.1666667
        k(    3) = (   0.0000000   0.0000000  -0.2298161), wk =   0.0833333
        k(    4) = (   0.0000000   0.2223725   0.0000000), wk =   0.1666667
        k(    5) = (   0.0000000   0.2223725   0.1149080), wk =   0.3333333
        k(    6) = (   0.0000000   0.2223725  -0.2298161), wk =   0.1666667
        k(    7) = (  -0.4337375   0.0000000   0.0000000), wk =   0.0833333
        k(    8) = (  -0.4337375   0.0000000   0.1149080), wk =   0.1666667
        k(    9) = (  -0.4337375   0.0000000  -0.2298161), wk =   0.0833333
        k(   10) = (  -0.4337375   0.2223725   0.0000000), wk =   0.1666667
        k(   11) = (  -0.4337375   0.2223725   0.1149080), wk =   0.3333333
        k(   12) = (  -0.4337375   0.2223725  -0.2298161), wk =   0.1666667

[...]

     The maximum number of steps has been reached.

     End of BFGS Geometry Optimization
Begin final coordinates
     new unit-cell volume =   1297.87505 a.u.^3 (   192.32524 Ang^3 )

CELL_PARAMETERS (alat=  7.01510508)
   1.152770958   0.000000000   0.000000000
   0.000000000   1.498986597   0.000000000
   0.000000000   0.000000000   2.175652679

ATOMIC_POSITIONS (crystal)
Co       0.750000000   0.825992599   0.435159694
Co       0.250000000   0.174007401   0.564840306
Co       0.750000000   0.325992599   0.064840306
Co       0.250000000   0.674007401   0.935159694
Co       0.250000000   0.538347932   0.280013848
Co       0.750000000   0.461652068   0.719986152
Co       0.250000000   0.038347932   0.219986152
Co       0.750000000   0.961652068   0.780013848
Si       0.250000000   0.199909147   0.893932677
Si       0.750000000   0.800090853   0.106067323
Si       0.250000000   0.699909147   0.606067323
Si       0.750000000   0.300090853   0.393932677
End final coordinates

     A final scf calculation at the relaxed structure.
     The G-vectors are recalculated for the final unit cell
     Results may differ from those at the preceding step.

     bravais-lattice index     =            0
     lattice parameter (alat)  =       7.0151  a.u.
     unit-cell volume          =    1297.8751 (a.u.)^3
     number of atoms/cell      =           12
     number of atomic types    =            2
     number of electrons       =       280.00
     number of Kohn-Sham states=          168
     kinetic-energy cutoff     =      40.0000  Ry
     charge density cutoff     =     160.0000  Ry
     convergence threshold     =      1.0E-04
     mixing beta               =       0.7000
     number of iterations used =            8  plain     mixing
     Exchange-correlation      = SLA-PZ-NOGX-NOGC ( 1 1 0 0 0)
     EXX-fraction              =        0.00

     celldm(1)=   7.015105  celldm(2)=   0.000000  celldm(3)=   0.000000
     celldm(4)=   0.000000  celldm(5)=   0.000000  celldm(6)=   0.000000

     crystal axes: (cart. coord. in units of alat)
               a(1) = (   1.152771   0.000000   0.000000 )
               a(2) = (   0.000000   1.498987   0.000000 )
               a(3) = (   0.000000   0.000000   2.175653 )

     reciprocal axes: (cart. coord. in units 2 pi/alat)
               b(1) = (  0.867475  0.000000  0.000000 )
               b(2) = (  0.000000  0.667117  0.000000 )
               b(3) = (  0.000000  0.000000  0.459632 )

     PseudoPot. # 1 for Yb read from file:
     /home/jld5415/pp.La/Yb.UPF
     MD5 check sum: 3e859b81cc28c53ec6aa3a2e888efcdf
     Pseudo is Norm-conserving, Zval = 24.0
     Generated in analytical, separable form
     Using radial grid of 1269 points,  6 beta functions with:
                l(1) =   0
                l(2) =   0
                l(3) =   1
                l(4) =   1
                l(5) =   2
                l(6) =   3

     PseudoPot. # 2 for Er read from file:
     /home/jld5415/pp.La/Er.UPF
     MD5 check sum: e152ae21b84514339d8526f066caf99b
     Pseudo is Norm-conserving, Zval = 22.0
     Generated in analytical, separable form
     Using radial grid of 1267 points,  6 beta functions with:
                l(1) =   0
                l(2) =   0
                l(3) =   1
                l(4) =   1
                l(5) =   2
                l(6) =   3

     atomic species   valence    mass     pseudopotential
        Co            24.00    58.93320     Yb( 1.00)
        Si            22.00    28.08550     Er( 1.00)

      8 Sym. Ops., with inversion, found ( 6 have fractional translation)

   Cartesian axes

     site n.     atom                  positions (alat units)
         1           Co  tau(   1) = (   0.8645782   1.2381518   0.9467564  )
         2           Co  tau(   2) = (   0.2881927   0.2608348   1.2288963  )
         3           Co  tau(   3) = (   0.8645782   0.4886585   0.1410700  )
         4           Co  tau(   4) = (   0.2881927   1.0103281   2.0345827  )
         5           Co  tau(   5) = (   0.2881927   0.8069763   0.6092129  )
         6           Co  tau(   6) = (   0.8645782   0.6920103   1.5664398  )
         7           Co  tau(   7) = (   0.2881927   0.0574830   0.4786135  )
         8           Co  tau(   8) = (   0.8645782   1.4415036   1.6970392  )
         9           Si  tau(   9) = (   0.2881927   0.2996611   1.9448870  )
        10           Si  tau(  10) = (   0.8645782   1.1993255   0.2307657  )
        11           Si  tau(  11) = (   0.2881927   1.0491544   1.3185920  )
        12           Si  tau(  12) = (   0.8645782   0.4498322   0.8570607  )

     number of k points=    12  gaussian smearing, width (Ry)=  0.1000
                       cart. coord. in units 2pi/alat
        k(    1) = (   0.0000000   0.0000000   0.0000000), wk =   0.0833333
        k(    2) = (   0.0000000   0.0000000   0.1149080), wk =   0.1666667
        k(    3) = (   0.0000000   0.0000000  -0.2298161), wk =   0.0833333
        k(    4) = (   0.0000000   0.2223725   0.0000000), wk =   0.1666667
        k(    5) = (   0.0000000   0.2223725   0.1149080), wk =   0.3333333
        k(    6) = (   0.0000000   0.2223725  -0.2298161), wk =   0.1666667
        k(    7) = (  -0.4337375   0.0000000   0.0000000), wk =   0.0833333
        k(    8) = (  -0.4337375   0.0000000   0.1149080), wk =   0.1666667
        k(    9) = (  -0.4337375   0.0000000  -0.2298161), wk =   0.0833333
        k(   10) = (  -0.4337375   0.2223725   0.0000000), wk =   0.1666667
        k(   11) = (  -0.4337375   0.2223725   0.1149080), wk =   0.3333333
        k(   12) = (  -0.4337375   0.2223725  -0.2298161), wk =   0.1666667

     Largest allocated arrays     est. size (Mb)     dimensions
     Largest temporary arrays     est. size (Mb)     dimensions

     Initial potential from superposition of free atoms

     Starting from uniform charge
     Starting wfc are    0 randomized atomic wfcs

     Writing output data file Prototype-La-oP12-Co2Si.save

     Self-consistent Calculation

[...]

     iteration # 10     ecut=    40.00 Ry     beta=0.70
     CG style diagonalization
     c_bands:  1 eigenvalues not converged
     ethr =  1.58E-06,  avg # of iterations =  3.7

     total energy              =   -4587.56741633 Ry
     Harris-Foulkes estimate   =   -4587.56770327 Ry
     estimated scf accuracy    <       0.00056287 Ry

     iteration # 11     ecut=    40.00 Ry     beta=0.70
     CG style diagonalization
     ethr =  2.01E-07,  avg # of iterations =  3.9

     End of self-consistent calculation

[...]

          k = 0.0000 0.2224-0.2298 (  5534 PWs)   bands (ev):

[...]

          k =-0.4337 0.2224-0.2298 (  5548 PWs)   bands (ev):

   -86.0761 -86.0761 -86.0554 -86.0554 -85.9275 -85.9275 -85.9250 -85.9250
   -63.7840 -63.7840 -63.7823 -63.7823 -44.9538 -44.9538 -44.9534 -44.9534
   -44.9427 -44.9427 -44.9426 -44.9426 -44.8982 -44.8982 -44.8956 -44.8956
   -44.8244 -44.8244 -44.8232 -44.8232 -44.8027 -44.8027 -44.7736 -44.7736
   -44.7549 -44.7549 -44.7487 -44.7487 -25.9498 -25.9498 -25.9460 -25.9460
   -25.9089 -25.9089 -25.9084 -25.9084 -25.8021 -25.8021 -25.7974 -25.7974
    11.9785  11.9785  12.0600  12.0600  12.1388  12.1388  12.2241  12.2241
    12.2313  12.2313  12.3111  12.3111  12.3509  12.3509  12.4880  12.4880
    12.5322  12.5322  12.5763  12.5763  12.6019  12.6019  12.7589  12.7589
    12.7960  12.7960  12.8506  12.8506  12.8801  12.8801  12.9607  12.9607
    13.0578  13.0578  13.2237  13.2237  13.2863  13.2863  13.5172  13.5172
    19.3546  19.3546  19.3554  19.3554  20.0461  20.0461  20.1022  20.1022
    20.2789  20.2789  20.3391  20.3391  20.4932  20.4932  20.5862  20.5862
    20.6498  20.6498  20.7057  20.7057  22.1526  22.1526  22.7003  22.7003
    24.6001  24.6001  25.0391  25.0391  27.8769  27.8769  29.1146  29.1146
    30.3122  30.3122  30.7357  30.7357  32.5516  32.5516  33.4720  33.4720
    36.9107  36.9107  37.2334  37.2334  38.0759  38.0759  38.0953  38.0953
    38.7273  38.7273  39.1137  39.1137  40.1424  40.1424  40.4070  40.4070
    41.0565  41.0565  41.2377  41.2377  41.3703  41.3703  41.6811  41.6811
    41.7418  41.7418  41.9426  41.9427  42.5812  42.5812  44.4434  44.4435
    44.9759  44.9760  45.2215  45.2216  46.4364  46.4368  46.8261  46.8264

     the Fermi energy is    39.3614 ev

!    total energy              =   -4587.56752573 Ry
     Harris-Foulkes estimate   =   -4587.56757444 Ry
     estimated scf accuracy    <       0.00005314 Ry

     The total energy is the sum of the following terms:

     one-electron contribution =    -943.50784714 Ry
     hartree contribution      =     686.40631421 Ry
     xc contribution           =    -373.13249934 Ry
     ewald contribution        =   -3956.92376681 Ry
     smearing contrib. (-TS)   =      -0.40972665 Ry

     convergence has been achieved in  11 iterations

     Forces acting on atoms (Ry/au):

     atom    1 type  1   force =     0.00000000   -0.01569928   -0.03418159
     atom    2 type  1   force =     0.00000000    0.01569928    0.03418159
     atom    3 type  1   force =     0.00000000   -0.01569928    0.03418159
     atom    4 type  1   force =     0.00000000    0.01569928   -0.03418159
     atom    5 type  1   force =     0.00000000    0.04711959   -0.12660038
     atom    6 type  1   force =     0.00000000   -0.04711959    0.12660038
     atom    7 type  1   force =     0.00000000    0.04711959    0.12660038
     atom    8 type  1   force =     0.00000000   -0.04711959   -0.12660038
     atom    9 type  2   force =     0.00000000   -0.08962632   -0.00018797
     atom   10 type  2   force =     0.00000000    0.08962632    0.00018797
     atom   11 type  2   force =     0.00000000   -0.08962632    0.00018797
     atom   12 type  2   force =     0.00000000    0.08962632   -0.00018797

     Total force =     0.332840     Total SCF correction =     0.000000

     entering subroutine stress ...

          total   stress  (Ry/bohr**3)                   (kbar)     P= 1614.88
   0.01065493   0.00000000   0.00000000       1567.39      0.00      0.00
   0.00000000   0.01106733   0.00000000          0.00   1628.06      0.00
   0.00000000   0.00000000   0.01121091          0.00      0.00   1649.18

     Writing output data file Prototype-La-oP12-Co2Si.save

     General routines

     Parallel routines

   This run was terminated on:  12:40: 0  22Mar2018

   JOB DONE.