     Program PWSCF v.5.0.2 starts on 22Mar2018 at 12: 4:24

     Current dimensions of program PWSCF are:
     Max number of different atomic species (ntypx) = 10
     Max number of k-points (npk) =  40000
     Max angular momentum in pseudopotentials (lmaxx) =  3
     Waiting for input...
     Reading input from standard input

     Subspace diagonalization in iterative solution of the eigenvalue problem:
     a serial algorithm will be used

     bravais-lattice index     =            0
     lattice parameter (alat)  =       8.5346  a.u.
     unit-cell volume          =     621.6493 (a.u.)^3
     number of atoms/cell      =            8
     number of atomic types    =            2
     number of electrons       =       188.00
     number of Kohn-Sham states=          113
     kinetic-energy cutoff     =      40.0000  Ry
     charge density cutoff     =     160.0000  Ry
     convergence threshold     =      1.0E-04
     mixing beta               =       0.7000
     number of iterations used =            8  plain     mixing
     Exchange-correlation      = SLA-PZ-NOGX-NOGC ( 1 1 0 0 0)
     EXX-fraction              =        0.00
     nstep                     =           50

     celldm(1)=   8.534573  celldm(2)=   0.000000  celldm(3)=   0.000000
     celldm(4)=   0.000000  celldm(5)=   0.000000  celldm(6)=   0.000000

     crystal axes: (cart. coord. in units of alat)
               a(1) = (   1.000000   0.000000   0.000000 )
               a(2) = (   0.000000   1.000000   0.000000 )
               a(3) = (   0.000000   0.000000   1.000000 )

     reciprocal axes: (cart. coord. in units 2 pi/alat)
               b(1) = (  1.000000  0.000000  0.000000 )
               b(2) = (  0.000000  1.000000  0.000000 )
               b(3) = (  0.000000  0.000000  1.000000 )

     PseudoPot. # 1 for Yb read from file:
     /home/jld5415/pp.La/Yb.UPF
     MD5 check sum: 3e859b81cc28c53ec6aa3a2e888efcdf
     Pseudo is Norm-conserving, Zval = 24.0
     Generated in analytical, separable form
     Using radial grid of 1269 points,  6 beta functions with:
                l(1) =   0
                l(2) =   0
                l(3) =   1
                l(4) =   1
                l(5) =   2
                l(6) =   3

     PseudoPot. # 2 for Er read from file:
     /home/jld5415/pp.La/Er.UPF
     MD5 check sum: e152ae21b84514339d8526f066caf99b
     Pseudo is Norm-conserving, Zval = 22.0
     Generated in analytical, separable form
     Using radial grid of 1267 points,  6 beta functions with:
                l(1) =   0
                l(2) =   0
                l(3) =   1
                l(4) =   1
                l(5) =   2
                l(6) =   3

     atomic species   valence    mass     pseudopotential
        Cr            24.00    51.99610     Yb( 1.00)
        Si            22.00    28.08550     Er( 1.00)

     48 Sym. Ops., with inversion, found (24 have fractional translation)

   Cartesian axes

     site n.     atom                  positions (alat units)
         1           Cr  tau(   1) = (   0.0000000   0.5000000   0.2500000  )
         2           Cr  tau(   2) = (   0.0000000   0.5000000   0.7500000  )
         3           Cr  tau(   3) = (   0.5000000   0.7500000   0.0000000  )
         4           Cr  tau(   4) = (   0.5000000   0.2500000   0.0000000  )
         5           Cr  tau(   5) = (   0.7500000   0.0000000   0.5000000  )
         6           Cr  tau(   6) = (   0.2500000   0.0000000   0.5000000  )
         7           Si  tau(   7) = (   0.5000000   0.5000000   0.5000000  )
         8           Si  tau(   8) = (   0.0000000   0.0000000   0.0000000  )

     number of k points=    48  gaussian smearing, width (Ry)=  0.1000
                       cart. coord. in units 2pi/alat
        k(    1) = (   0.0000000   0.0000000   0.0000000), wk =   0.0095238
        k(    2) = (   0.0000000   0.0000000   0.1428571), wk =   0.0190476
        k(    3) = (   0.0000000   0.0000000   0.2857143), wk =   0.0190476
        k(    4) = (   0.0000000   0.0000000   0.4285714), wk =   0.0190476
        k(    5) = (   0.0000000   0.1666667   0.0000000), wk =   0.0190476
        k(    6) = (   0.0000000   0.1666667   0.1428571), wk =   0.0380952
        k(    7) = (   0.0000000   0.1666667   0.2857143), wk =   0.0380952
        k(    8) = (   0.0000000   0.1666667   0.4285714), wk =   0.0380952
        k(    9) = (   0.0000000   0.3333333   0.0000000), wk =   0.0190476
        k(   10) = (   0.0000000   0.3333333   0.1428571), wk =   0.0380952
        k(   11) = (   0.0000000   0.3333333   0.2857143), wk =   0.0380952
        k(   12) = (   0.0000000   0.3333333   0.4285714), wk =   0.0380952
        k(   13) = (   0.0000000  -0.5000000   0.0000000), wk =   0.0095238
        k(   14) = (   0.0000000  -0.5000000   0.1428571), wk =   0.0190476
        k(   15) = (   0.0000000  -0.5000000   0.2857143), wk =   0.0190476
        k(   16) = (   0.0000000  -0.5000000   0.4285714), wk =   0.0190476
        k(   17) = (   0.2000000   0.0000000   0.0000000), wk =   0.0190476
        k(   18) = (   0.2000000   0.0000000   0.1428571), wk =   0.0380952
        k(   19) = (   0.2000000   0.0000000   0.2857143), wk =   0.0380952
        k(   20) = (   0.2000000   0.0000000   0.4285714), wk =   0.0380952
        k(   21) = (   0.2000000   0.1666667   0.0000000), wk =   0.0380952
        k(   22) = (   0.2000000   0.1666667   0.1428571), wk =   0.0761905
        k(   23) = (   0.2000000   0.1666667   0.2857143), wk =   0.0761905
        k(   24) = (   0.2000000   0.1666667   0.4285714), wk =   0.0761905
        k(   25) = (   0.2000000   0.3333333   0.0000000), wk =   0.0380952
        k(   26) = (   0.2000000   0.3333333   0.1428571), wk =   0.0761905
        k(   27) = (   0.2000000   0.3333333   0.2857143), wk =   0.0761905
        k(   28) = (   0.2000000   0.3333333   0.4285714), wk =   0.0761905
        k(   29) = (   0.2000000  -0.5000000   0.0000000), wk =   0.0190476
        k(   30) = (   0.2000000  -0.5000000   0.1428571), wk =   0.0380952
        k(   31) = (   0.2000000  -0.5000000   0.2857143), wk =   0.0380952
        k(   32) = (   0.2000000  -0.5000000   0.4285714), wk =   0.0380952
        k(   33) = (   0.4000000   0.0000000   0.0000000), wk =   0.0190476
        k(   34) = (   0.4000000   0.0000000   0.1428571), wk =   0.0380952
        k(   35) = (   0.4000000   0.0000000   0.2857143), wk =   0.0380952
        k(   36) = (   0.4000000   0.0000000   0.4285714), wk =   0.0380952
        k(   37) = (   0.4000000   0.1666667   0.0000000), wk =   0.0380952
        k(   38) = (   0.4000000   0.1666667   0.1428571), wk =   0.0761905
        k(   39) = (   0.4000000   0.1666667   0.2857143), wk =   0.0761905
        k(   40) = (   0.4000000   0.1666667   0.4285714), wk =   0.0761905
        k(   41) = (   0.4000000   0.3333333   0.0000000), wk =   0.0380952
        k(   42) = (   0.4000000   0.3333333   0.1428571), wk =   0.0761905
        k(   43) = (   0.4000000   0.3333333   0.2857143), wk =   0.0761905
        k(   44) = (   0.4000000   0.3333333   0.4285714), wk =   0.0761905
        k(   45) = (   0.4000000  -0.5000000   0.0000000), wk =   0.0190476
        k(   46) = (   0.4000000  -0.5000000   0.1428571), wk =   0.0380952
        k(   47) = (   0.4000000  -0.5000000   0.2857143), wk =   0.0380952
        k(   48) = (   0.4000000  -0.5000000   0.4285714), wk =   0.0380952

     Largest allocated arrays     est. size (Mb)     dimensions
     Largest temporary arrays     est. size (Mb)     dimensions

     Initial potential from superposition of free atoms

     Starting from uniform charge
     Starting wfc are    0 randomized atomic wfcs

     Self-consistent Calculation

     iteration #  1     ecut=    40.00 Ry     beta=0.70
     CG style diagonalization
     c_bands:  4 eigenvalues not converged
     c_bands:  3 eigenvalues not converged
     c_bands:  5 eigenvalues not converged
     c_bands:  3 eigenvalues not converged
     ethr =  1.00E-02,  avg # of iterations = 16.9

     total energy              =   -2786.94729675 Ry
     Harris-Foulkes estimate   =   -3642.13747821 Ry
     estimated scf accuracy    <    1074.98557391 Ry

[...]

     iteration #  3     ecut=    40.00 Ry     beta=0.70
     CG style diagonalization
     ethr =  1.00E-02,  avg # of iterations =  6.4

[...]

     End of self-consistent calculation

          k = 0.0000 0.0000 0.0000 (  2601 PWs)   bands (ev):

   -71.4157 -71.4157 -71.1861 -71.0197 -71.0197 -71.0197 -49.2859 -49.2323
   -31.2494 -31.2494 -31.1906 -30.2822 -30.2822 -30.2822 -30.1152 -30.1152
   -30.1152 -30.0555 -30.0555 -30.0555 -30.0167 -30.0167 -30.0167 -29.9225
   -29.9225 -29.9225 -11.6376 -11.6376 -11.6376 -11.6174 -11.6174 -11.6174
    22.0527  22.0527  22.0857  23.6786  23.6786  23.6786  25.0552  25.0552
    25.0552  25.4623  25.7719  25.9332  25.9332  26.1609  26.1609  26.1609
    27.4155  27.4155  27.4155  28.0818  28.3356  28.3356  28.3438  28.3438
    28.3438  28.3541  28.3541  28.3541  29.3308  29.3308  29.3308  31.5904
    31.5904  33.9627  33.9627  33.9627  34.0398  34.0398  34.2192  34.2192
    34.2192  39.0994  39.0994  39.0994  41.8424  41.8424  41.9720  47.1152
    47.1152  47.8307  47.8307  47.8307  49.2236  49.5134  49.5134  49.5134
    50.7444  50.7444  50.7444  52.0627  53.4041  53.4041  53.4041  53.4151
    53.4151  53.4151  56.0552  56.0552  56.0552  58.4684  59.7995  59.7996
    59.7996  60.0888  60.0889  61.4025  61.4026  61.4026  61.9603  62.6359
    62.6360

[...]

     the Fermi energy is    54.1987 ev

!    total energy              =   -3103.46042612 Ry
     Harris-Foulkes estimate   =   -3103.46043957 Ry
     estimated scf accuracy    <       0.00001690 Ry

     The total energy is the sum of the following terms:

     one-electron contribution =    -206.06757571 Ry
     hartree contribution      =     346.67567364 Ry
     xc contribution           =    -258.17851267 Ry
     ewald contribution        =   -2985.58282199 Ry
     smearing contrib. (-TS)   =      -0.30718939 Ry

     convergence has been achieved in   8 iterations

     Forces acting on atoms (Ry/au):

     atom    1 type  1   force =     0.00000000    0.00000000    0.00000000
     atom    2 type  1   force =     0.00000000    0.00000000    0.00000000
     atom    3 type  1   force =     0.00000000    0.00000000    0.00000000
     atom    4 type  1   force =     0.00000000    0.00000000    0.00000000
     atom    5 type  1   force =     0.00000000    0.00000000    0.00000000
     atom    6 type  1   force =     0.00000000    0.00000000    0.00000000
     atom    7 type  2   force =     0.00000000    0.00000000    0.00000000
     atom    8 type  2   force =     0.00000000    0.00000000    0.00000000

     Total force =     0.000000     Total SCF correction =     0.000000

     entering subroutine stress ...

          total   stress  (Ry/bohr**3)                   (kbar)     P= 6218.35
   0.04227151   0.00000000   0.00000000       6218.35      0.00      0.00
   0.00000000   0.04227151   0.00000000          0.00   6218.35      0.00
   0.00000000   0.00000000   0.04227151          0.00      0.00   6218.35

     BFGS Geometry Optimization

[...]

     enthalpy old            =   -3108.0288433460 Ry
     enthalpy new            =   -3102.4575941084 Ry

     CASE: enthalpy_new > enthalpy_old

     new trust radius        =       0.1781258023 bohr

     trust_radius < trust_radius_min

     resetting bfgs history

     Message from routine bfgs:
     history already reset at previous step: stopping
     new conv_thr            =       0.0000010000 Ry

     new unit-cell volume =   1044.07134 a.u.^3 (   154.71541 Ang^3 )

[...]

ATOMIC_POSITIONS (crystal)
Cr       0.000000000   0.500000000   0.250000000
Cr       0.000000000   0.500000000   0.750000000
Cr       0.500000000   0.750000000   0.000000000
Cr       0.500000000   0.250000000   0.000000000
Cr       0.750000000   0.000000000   0.500000000
Cr       0.250000000   0.000000000   0.500000000
Si       0.500000000   0.500000000   0.500000000
Si       0.000000000   0.000000000   0.000000000

     Writing output data file Prototype-La-cP8-Cr3Si.save
     NEW-OLD atomic charge density approx. for the potential
     NEW k-points:
        k(    1) = (   0.0000000   0.0000000   0.0000000), wk =   0.0095238
        k(    2) = (   0.0000000   0.0000000   0.1201823), wk =   0.0190476
        k(    3) = (   0.0000000   0.0000000   0.2403645), wk =   0.0190476
        k(    4) = (   0.0000000   0.0000000   0.3605468), wk =   0.0190476
        k(    5) = (   0.0000000   0.1402126   0.0000000), wk =   0.0190476
        k(    6) = (   0.0000000   0.1402126   0.1201823), wk =   0.0380952
        k(    7) = (   0.0000000   0.1402126   0.2403645), wk =   0.0380952
        k(    8) = (   0.0000000   0.1402126   0.3605468), wk =   0.0380952
        k(    9) = (   0.0000000   0.2804253   0.0000000), wk =   0.0190476
        k(   10) = (   0.0000000   0.2804253   0.1201823), wk =   0.0380952
        k(   11) = (   0.0000000   0.2804253   0.2403645), wk =   0.0380952
        k(   12) = (   0.0000000   0.2804253   0.3605468), wk =   0.0380952
        k(   13) = (   0.0000000  -0.4206379   0.0000000), wk =   0.0095238
        k(   14) = (   0.0000000  -0.4206379   0.1201823), wk =   0.0190476
        k(   15) = (   0.0000000  -0.4206379   0.2403645), wk =   0.0190476
        k(   16) = (   0.0000000  -0.4206379   0.3605468), wk =   0.0190476
        k(   17) = (   0.1682552   0.0000000   0.0000000), wk =   0.0190476
        k(   18) = (   0.1682552   0.0000000   0.1201823), wk =   0.0380952
        k(   19) = (   0.1682552   0.0000000   0.2403645), wk =   0.0380952
        k(   20) = (   0.1682552   0.0000000   0.3605468), wk =   0.0380952
        k(   21) = (   0.1682552   0.1402126   0.0000000), wk =   0.0380952
        k(   22) = (   0.1682552   0.1402126   0.1201823), wk =   0.0761905
        k(   23) = (   0.1682552   0.1402126   0.2403645), wk =   0.0761905
        k(   24) = (   0.1682552   0.1402126   0.3605468), wk =   0.0761905
        k(   25) = (   0.1682552   0.2804253   0.0000000), wk =   0.0380952
        k(   26) = (   0.1682552   0.2804253   0.1201823), wk =   0.0761905
        k(   27) = (   0.1682552   0.2804253   0.2403645), wk =   0.0761905
        k(   28) = (   0.1682552   0.2804253   0.3605468), wk =   0.0761905
        k(   29) = (   0.1682552  -0.4206379   0.0000000), wk =   0.0190476
        k(   30) = (   0.1682552  -0.4206379   0.1201823), wk =   0.0380952
        k(   31) = (   0.1682552  -0.4206379   0.2403645), wk =   0.0380952
        k(   32) = (   0.1682552  -0.4206379   0.3605468), wk =   0.0380952
        k(   33) = (   0.3365103   0.0000000   0.0000000), wk =   0.0190476
        k(   34) = (   0.3365103   0.0000000   0.1201823), wk =   0.0380952
        k(   35) = (   0.3365103   0.0000000   0.2403645), wk =   0.0380952
        k(   36) = (   0.3365103   0.0000000   0.3605468), wk =   0.0380952
        k(   37) = (   0.3365103   0.1402126   0.0000000), wk =   0.0380952
        k(   38) = (   0.3365103   0.1402126   0.1201823), wk =   0.0761905
        k(   39) = (   0.3365103   0.1402126   0.2403645), wk =   0.0761905
        k(   40) = (   0.3365103   0.1402126   0.3605468), wk =   0.0761905
        k(   41) = (   0.3365103   0.2804253   0.0000000), wk =   0.0380952
        k(   42) = (   0.3365103   0.2804253   0.1201823), wk =   0.0761905
        k(   43) = (   0.3365103   0.2804253   0.2403645), wk =   0.0761905
        k(   44) = (   0.3365103   0.2804253   0.3605468), wk =   0.0761905
        k(   45) = (   0.3365103  -0.4206379   0.0000000), wk =   0.0190476
        k(   46) = (   0.3365103  -0.4206379   0.1201823), wk =   0.0380952
        k(   47) = (   0.3365103  -0.4206379   0.2403645), wk =   0.0380952
        k(   48) = (   0.3365103  -0.4206379   0.3605468), wk =   0.0380952

[...]

          total   stress  (Ry/bohr**3)                   (kbar)     P=-1573.75
  -0.01069810   0.00000000   0.00000000      -1573.75      0.00      0.00
   0.00000000  -0.01069810   0.00000000          0.00  -1573.75      0.00
   0.00000000   0.00000000  -0.01069810          0.00      0.00  -1573.75

     The maximum number of steps has been reached.

     End of BFGS Geometry Optimization
Begin final coordinates
     new unit-cell volume =   1044.07134 a.u.^3 (   154.71541 Ang^3 )

CELL_PARAMETERS (alat=  8.53457320)
   1.188670773   0.000000000   0.000000000
   0.000000000   1.188670773   0.000000000
   0.000000000   0.000000000   1.188670773

ATOMIC_POSITIONS (crystal)
Cr       0.000000000   0.500000000   0.250000000
Cr       0.000000000   0.500000000   0.750000000
Cr       0.500000000   0.750000000   0.000000000
Cr       0.500000000   0.250000000   0.000000000
Cr       0.750000000   0.000000000   0.500000000
Cr       0.250000000   0.000000000   0.500000000
Si       0.500000000   0.500000000   0.500000000
Si       0.000000000   0.000000000   0.000000000
End final coordinates

     A final scf calculation at the relaxed structure.
     The G-vectors are recalculated for the final unit cell
     Results may differ from those at the preceding step.

     bravais-lattice index     =            0
     lattice parameter (alat)  =       8.5346  a.u.
     unit-cell volume          =    1044.0713 (a.u.)^3
     number of atoms/cell      =            8
     number of atomic types    =            2
     number of electrons       =       188.00
     number of Kohn-Sham states=          113
     kinetic-energy cutoff     =      40.0000  Ry
     charge density cutoff     =     160.0000  Ry
     convergence threshold     =      1.0E-06
     mixing beta               =       0.7000
     number of iterations used =            8  plain     mixing
     Exchange-correlation      = SLA-PZ-NOGX-NOGC ( 1 1 0 0 0)
     EXX-fraction              =        0.00

     celldm(1)=   8.534573  celldm(2)=   0.000000  celldm(3)=   0.000000
     celldm(4)=   0.000000  celldm(5)=   0.000000  celldm(6)=   0.000000

     crystal axes: (cart. coord. in units of alat)
               a(1) = (   1.188671   0.000000   0.000000 )
               a(2) = (   0.000000   1.188671   0.000000 )
               a(3) = (   0.000000   0.000000   1.188671 )

     reciprocal axes: (cart. coord. in units 2 pi/alat)
               b(1) = (  0.841276  0.000000  0.000000 )
               b(2) = (  0.000000  0.841276  0.000000 )
               b(3) = (  0.000000  0.000000  0.841276 )

     PseudoPot. # 1 for Yb read from file:
     /home/jld5415/pp.La/Yb.UPF
     MD5 check sum: 3e859b81cc28c53ec6aa3a2e888efcdf
     Pseudo is Norm-conserving, Zval = 24.0
     Generated in analytical, separable form
     Using radial grid of 1269 points,  6 beta functions with:
                l(1) =   0
                l(2) =   0
                l(3) =   1
                l(4) =   1
                l(5) =   2
                l(6) =   3

     PseudoPot. # 2 for Er read from file:
     /home/jld5415/pp.La/Er.UPF
     MD5 check sum: e152ae21b84514339d8526f066caf99b
     Pseudo is Norm-conserving, Zval = 22.0
     Generated in analytical, separable form
     Using radial grid of 1267 points,  6 beta functions with:
                l(1) =   0
                l(2) =   0
                l(3) =   1
                l(4) =   1
                l(5) =   2
                l(6) =   3

     atomic species   valence    mass     pseudopotential
        Cr            24.00    51.99610     Yb( 1.00)
        Si            22.00    28.08550     Er( 1.00)

     48 Sym. Ops., with inversion, found (24 have fractional translation)

   Cartesian axes

     site n.     atom                  positions (alat units)
         1           Cr  tau(   1) = (   0.0000000   0.5943354   0.2971677  )
         2           Cr  tau(   2) = (   0.0000000   0.5943354   0.8915031  )
         3           Cr  tau(   3) = (   0.5943354   0.8915031   0.0000000  )
         4           Cr  tau(   4) = (   0.5943354   0.2971677   0.0000000  )
         5           Cr  tau(   5) = (   0.8915031   0.0000000   0.5943354  )
         6           Cr  tau(   6) = (   0.2971677   0.0000000   0.5943354  )
         7           Si  tau(   7) = (   0.5943354   0.5943354   0.5943354  )
         8           Si  tau(   8) = (   0.0000000   0.0000000   0.0000000  )

     number of k points=    48  gaussian smearing, width (Ry)=  0.1000
                       cart. coord. in units 2pi/alat
        k(    1) = (   0.0000000   0.0000000   0.0000000), wk =   0.0095238
        k(    2) = (   0.0000000   0.0000000   0.1201823), wk =   0.0190476
        k(    3) = (   0.0000000   0.0000000   0.2403645), wk =   0.0190476
        k(    4) = (   0.0000000   0.0000000   0.3605468), wk =   0.0190476
        k(    5) = (   0.0000000   0.1402126   0.0000000), wk =   0.0190476
        k(    6) = (   0.0000000   0.1402126   0.1201823), wk =   0.0380952
        k(    7) = (   0.0000000   0.1402126   0.2403645), wk =   0.0380952
        k(    8) = (   0.0000000   0.1402126   0.3605468), wk =   0.0380952
        k(    9) = (   0.0000000   0.2804253   0.0000000), wk =   0.0190476
        k(   10) = (   0.0000000   0.2804253   0.1201823), wk =   0.0380952
        k(   11) = (   0.0000000   0.2804253   0.2403645), wk =   0.0380952
        k(   12) = (   0.0000000   0.2804253   0.3605468), wk =   0.0380952
        k(   13) = (   0.0000000  -0.4206379   0.0000000), wk =   0.0095238
        k(   14) = (   0.0000000  -0.4206379   0.1201823), wk =   0.0190476
        k(   15) = (   0.0000000  -0.4206379   0.2403645), wk =   0.0190476
        k(   16) = (   0.0000000  -0.4206379   0.3605468), wk =   0.0190476
        k(   17) = (   0.1682552   0.0000000   0.0000000), wk =   0.0190476
        k(   18) = (   0.1682552   0.0000000   0.1201823), wk =   0.0380952
        k(   19) = (   0.1682552   0.0000000   0.2403645), wk =   0.0380952
        k(   20) = (   0.1682552   0.0000000   0.3605468), wk =   0.0380952
        k(   21) = (   0.1682552   0.1402126   0.0000000), wk =   0.0380952
        k(   22) = (   0.1682552   0.1402126   0.1201823), wk =   0.0761905
        k(   23) = (   0.1682552   0.1402126   0.2403645), wk =   0.0761905
        k(   24) = (   0.1682552   0.1402126   0.3605468), wk =   0.0761905
        k(   25) = (   0.1682552   0.2804253   0.0000000), wk =   0.0380952
        k(   26) = (   0.1682552   0.2804253   0.1201823), wk =   0.0761905
        k(   27) = (   0.1682552   0.2804253   0.2403645), wk =   0.0761905
        k(   28) = (   0.1682552   0.2804253   0.3605468), wk =   0.0761905
        k(   29) = (   0.1682552  -0.4206379   0.0000000), wk =   0.0190476
        k(   30) = (   0.1682552  -0.4206379   0.1201823), wk =   0.0380952
        k(   31) = (   0.1682552  -0.4206379   0.2403645), wk =   0.0380952
        k(   32) = (   0.1682552  -0.4206379   0.3605468), wk =   0.0380952
        k(   33) = (   0.3365103   0.0000000   0.0000000), wk =   0.0190476
        k(   34) = (   0.3365103   0.0000000   0.1201823), wk =   0.0380952
        k(   35) = (   0.3365103   0.0000000   0.2403645), wk =   0.0380952
        k(   36) = (   0.3365103   0.0000000   0.3605468), wk =   0.0380952
        k(   37) = (   0.3365103   0.1402126   0.0000000), wk =   0.0380952
        k(   38) = (   0.3365103   0.1402126   0.1201823), wk =   0.0761905
        k(   39) = (   0.3365103   0.1402126   0.2403645), wk =   0.0761905
        k(   40) = (   0.3365103   0.1402126   0.3605468), wk =   0.0761905
        k(   41) = (   0.3365103   0.2804253   0.0000000), wk =   0.0380952
        k(   42) = (   0.3365103   0.2804253   0.1201823), wk =   0.0761905
        k(   43) = (   0.3365103   0.2804253   0.2403645), wk =   0.0761905
        k(   44) = (   0.3365103   0.2804253   0.3605468), wk =   0.0761905
        k(   45) = (   0.3365103  -0.4206379   0.0000000), wk =   0.0190476
        k(   46) = (   0.3365103  -0.4206379   0.1201823), wk =   0.0380952
        k(   47) = (   0.3365103  -0.4206379   0.2403645), wk =   0.0380952
        k(   48) = (   0.3365103  -0.4206379   0.3605468), wk =   0.0380952

     Largest allocated arrays     est. size (Mb)     dimensions
     Largest temporary arrays     est. size (Mb)     dimensions

     Initial potential from superposition of free atoms

     Starting from uniform charge
     Starting wfc are    0 randomized atomic wfcs

     Writing output data file Prototype-La-cP8-Cr3Si.save

     Self-consistent Calculation

[...]

     iteration #  9     ecut=    40.00 Ry     beta=0.70
     CG style diagonalization
     c_bands:  1 eigenvalues not converged
     c_bands:  1 eigenvalues not converged
     ethr =  1.49E-07,  avg # of iterations =  4.2

[...]

     total energy              =   -3114.54607243 Ry
     Harris-Foulkes estimate   =   -3114.54607347 Ry
     estimated scf accuracy    <       0.00000163 Ry

     iteration # 11     ecut=    40.00 Ry     beta=0.70
     CG style diagonalization
     ethr =  8.69E-10,  avg # of iterations =  3.3

     End of self-consistent calculation

[...]

          k = 0.3365-0.4206 0.3605 (  4474 PWs)   bands (ev):

   -92.7561 -92.7553 -92.7456 -92.7441 -92.7359 -92.7356 -70.0015 -70.0013
   -51.7041 -51.6991 -51.6792 -51.6792 -51.6577 -51.6488 -51.4944 -51.4942
   -51.4933 -51.4929 -51.4922 -51.4913 -51.4906 -51.4901 -51.4893 -51.4876
   -51.4855 -51.4853 -32.0047 -32.0047 -32.0014 -32.0012 -31.9984 -31.9983
     5.5826   5.6837   5.9377   5.9384   5.9977   6.0011   6.0296   6.0371
     6.1243   6.1276   6.1585   6.1663   6.1770   6.2148   6.2373   6.2521
     6.3645   6.3646   6.4768   6.4836   6.4914   6.5049   6.5222   6.5370
     6.5997   6.6068   6.6274   6.6276   6.6539   6.6686  14.4401  14.4440
    14.4569  14.4660  14.5164  14.5170  14.6290  14.6296  14.6388  14.6392
    16.8610  16.8736  17.7335  17.7383  18.3228  18.3241  19.9129  19.9130
    27.3922  27.5805  28.1390  28.1899  29.0680  29.4953  29.7527  29.7692
    30.2090  30.2437  30.4937  30.5595  31.0354  31.0757  31.1777  31.3468
    31.7428  32.1433  32.5719  32.7399  33.1949  33.2605  33.5042  33.5266
    38.0764  38.1671  38.5030  38.5255  38.9259  39.0724  39.2928  39.3705
    39.5041

     the Fermi energy is    31.6241 ev

!    total energy              =   -3114.54607282 Ry
     Harris-Foulkes estimate   =   -3114.54607285 Ry
     estimated scf accuracy    <       0.00000004 Ry

     The total energy is the sum of the following terms:

     one-electron contribution =    -896.61544989 Ry
     hartree contribution      =     542.69029561 Ry
     xc contribution           =    -248.63905178 Ry
     ewald contribution        =   -2511.69868950 Ry
     smearing contrib. (-TS)   =      -0.28317726 Ry

     convergence has been achieved in  11 iterations

     Forces acting on atoms (Ry/au):

     atom    1 type  1   force =     0.00000000    0.00000000    0.00000000
     atom    2 type  1   force =     0.00000000    0.00000000    0.00000000
     atom    3 type  1   force =     0.00000000    0.00000000    0.00000000
     atom    4 type  1   force =     0.00000000    0.00000000    0.00000000
     atom    5 type  1   force =     0.00000000    0.00000000    0.00000000
     atom    6 type  1   force =     0.00000000    0.00000000    0.00000000
     atom    7 type  2   force =     0.00000000    0.00000000    0.00000000
     atom    8 type  2   force =     0.00000000    0.00000000    0.00000000

     Total force =     0.000000     Total SCF correction =     0.000000

     entering subroutine stress ...

          total   stress  (Ry/bohr**3)                   (kbar)     P=  386.00
   0.00262400   0.00000000   0.00000000        386.00      0.00      0.00
   0.00000000   0.00262400   0.00000000          0.00    386.00      0.00
   0.00000000   0.00000000   0.00262400          0.00      0.00    386.00

     Writing output data file Prototype-La-cP8-Cr3Si.save

     General routines

     Parallel routines

   This run was terminated on:  12:49:25  22Mar2018

   JOB DONE.