     Program PWSCF v.5.0.2 starts on 22Mar2018 at 12: 7:46

     Current dimensions of program PWSCF are:
     Max number of different atomic species (ntypx) = 10
     Max number of k-points (npk) =  40000
     Max angular momentum in pseudopotentials (lmaxx) =  3
     Waiting for input...
     Reading input from standard input

     Subspace diagonalization in iterative solution of the eigenvalue problem:
     a serial algorithm will be used

     bravais-lattice index     =            0
     lattice parameter (alat)  =      12.0168  a.u.
     unit-cell volume          =    1187.3413 (a.u.)^3
     number of atoms/cell      =            8
     number of atomic types    =            2
     number of electrons       =       188.00
     number of Kohn-Sham states=          113
     kinetic-energy cutoff     =      40.0000  Ry
     charge density cutoff     =     160.0000  Ry
     convergence threshold     =      1.0E-04
     mixing beta               =       0.7000
     number of iterations used =            8  plain     mixing
     Exchange-correlation      = SLA-PZ-NOGX-NOGC ( 1 1 0 0 0)
     EXX-fraction              =        0.00
     nstep                     =           50

     celldm(1)=  12.016801  celldm(2)=   0.000000  celldm(3)=   0.000000
     celldm(4)=   0.000000  celldm(5)=   0.000000  celldm(6)=   0.000000

     crystal axes: (cart. coord. in units of alat)
               a(1) = (   1.000000   0.000000   0.000000 )
               a(2) = (  -0.500000   0.866025   0.000000 )
               a(3) = (   0.000000   0.000000   0.790093 )

     reciprocal axes: (cart. coord. in units 2 pi/alat)
               b(1) = (  1.000000  0.577350  0.000000 )
               b(2) = (  0.000000  1.154701  0.000000 )
               b(3) = (  0.000000  0.000000  1.265674 )

     PseudoPot. # 1 for Yb read from file:
     /home/jld5415/pp.La/Yb.UPF
     MD5 check sum: 3e859b81cc28c53ec6aa3a2e888efcdf
     Pseudo is Norm-conserving, Zval = 24.0
     Generated in analytical, separable form
     Using radial grid of 1269 points,  6 beta functions with:
                l(1) =   0
                l(2) =   0
                l(3) =   1
                l(4) =   1
                l(5) =   2
                l(6) =   3

     PseudoPot. # 2 for Er read from file:
     /home/jld5415/pp.La/Er.UPF
     MD5 check sum: e152ae21b84514339d8526f066caf99b
     Pseudo is Norm-conserving, Zval = 22.0
     Generated in analytical, separable form
     Using radial grid of 1267 points,  6 beta functions with:
                l(1) =   0
                l(2) =   0
                l(3) =   1
                l(4) =   1
                l(5) =   2
                l(6) =   3

     atomic species   valence    mass     pseudopotential
        Mg            24.00    24.30500     Yb( 1.00)
        Cd            22.00   112.41100     Er( 1.00)

     24 Sym. Ops., with inversion, found (12 have fractional translation)

   Cartesian axes

     site n.     atom                  positions (alat units)
         1           Mg  tau(   1) = (   0.2478935   0.7204716   0.1975233  )
         2           Mg  tau(   2) = (   0.7478935   0.1455538   0.5925699  )
         3           Mg  tau(   3) = (   0.2521065   0.1455538   0.5925699  )
         4           Mg  tau(   4) = (  -0.2478935   0.7204716   0.1975233  )
         5           Mg  tau(   5) = (   0.0000000   0.2911075   0.1975233  )
         6           Mg  tau(   6) = (   0.5000000   0.5749179   0.5925699  )
         7           Cd  tau(   7) = (   0.5000005   0.2886748   0.1975233  )
         8           Cd  tau(   8) = (  -0.0000005   0.5773506   0.5925699  )

     number of k points=    64  gaussian smearing, width (Ry)=  0.1000
                       cart. coord. in units 2pi/alat
        k(    1) = (   0.0000000   0.0000000   0.0000000), wk =   0.0095238
        k(    2) = (   0.0000000   0.0000000   0.1808105), wk =   0.0190476
        k(    3) = (   0.0000000   0.0000000   0.3616210), wk =   0.0190476
        k(    4) = (   0.0000000   0.0000000   0.5424315), wk =   0.0190476
        k(    5) = (   0.0000000   0.1924501   0.0000000), wk =   0.0190476
        k(    6) = (   0.0000000   0.1924501   0.1808105), wk =   0.0380952
        k(    7) = (   0.0000000   0.1924501   0.3616210), wk =   0.0380952
        k(    8) = (   0.0000000   0.1924501   0.5424315), wk =   0.0380952
        k(    9) = (   0.0000000   0.3849002   0.0000000), wk =   0.0190476
        k(   10) = (   0.0000000   0.3849002   0.1808105), wk =   0.0380952
        k(   11) = (   0.0000000   0.3849002   0.3616210), wk =   0.0380952
        k(   12) = (   0.0000000   0.3849002   0.5424315), wk =   0.0380952
        k(   13) = (   0.0000000  -0.5773503   0.0000000), wk =   0.0095238
        k(   14) = (   0.0000000  -0.5773503   0.1808105), wk =   0.0190476
        k(   15) = (   0.0000000  -0.5773503   0.3616210), wk =   0.0190476
        k(   16) = (   0.0000000  -0.5773503   0.5424315), wk =   0.0190476
        k(   17) = (   0.2000000   0.1154701   0.0000000), wk =   0.0190476
        k(   18) = (   0.2000000   0.1154701   0.1808105), wk =   0.0380952
        k(   19) = (   0.2000000   0.1154701   0.3616210), wk =   0.0380952
        k(   20) = (   0.2000000   0.1154701   0.5424315), wk =   0.0380952
        k(   21) = (   0.2000000   0.3079201   0.0000000), wk =   0.0190476
        k(   22) = (   0.2000000   0.3079201   0.1808105), wk =   0.0380952
        k(   23) = (   0.2000000   0.3079201   0.3616210), wk =   0.0380952
        k(   24) = (   0.2000000   0.3079201   0.5424315), wk =   0.0380952
        k(   25) = (   0.2000000   0.5003702   0.0000000), wk =   0.0190476
        k(   26) = (   0.2000000   0.5003702   0.1808105), wk =   0.0380952
        k(   27) = (   0.2000000   0.5003702   0.3616210), wk =   0.0380952
        k(   28) = (   0.2000000   0.5003702   0.5424315), wk =   0.0380952
        k(   29) = (   0.2000000  -0.4618802   0.0000000), wk =   0.0190476
        k(   30) = (   0.2000000  -0.4618802   0.1808105), wk =   0.0380952
        k(   31) = (   0.2000000  -0.4618802   0.3616210), wk =   0.0380952
        k(   32) = (   0.2000000  -0.4618802   0.5424315), wk =   0.0380952
        k(   33) = (   0.2000000  -0.2694301   0.0000000), wk =   0.0190476
        k(   34) = (   0.2000000  -0.2694301   0.1808105), wk =   0.0380952
        k(   35) = (   0.2000000  -0.2694301   0.3616210), wk =   0.0380952
        k(   36) = (   0.2000000  -0.2694301   0.5424315), wk =   0.0380952
        k(   37) = (   0.2000000  -0.0769800   0.0000000), wk =   0.0190476
        k(   38) = (   0.2000000  -0.0769800   0.1808105), wk =   0.0380952
        k(   39) = (   0.2000000  -0.0769800   0.3616210), wk =   0.0380952
        k(   40) = (   0.2000000  -0.0769800   0.5424315), wk =   0.0380952
        k(   41) = (   0.4000000   0.2309401   0.0000000), wk =   0.0190476
        k(   42) = (   0.4000000   0.2309401   0.1808105), wk =   0.0380952
        k(   43) = (   0.4000000   0.2309401   0.3616210), wk =   0.0380952
        k(   44) = (   0.4000000   0.2309401   0.5424315), wk =   0.0380952
        k(   45) = (   0.4000000   0.4233902   0.0000000), wk =   0.0190476
        k(   46) = (   0.4000000   0.4233902   0.1808105), wk =   0.0380952
        k(   47) = (   0.4000000   0.4233902   0.3616210), wk =   0.0380952
        k(   48) = (   0.4000000   0.4233902   0.5424315), wk =   0.0380952
        k(   49) = (   0.4000000   0.6158403   0.0000000), wk =   0.0190476
        k(   50) = (   0.4000000   0.6158403   0.1808105), wk =   0.0380952
        k(   51) = (   0.4000000   0.6158403   0.3616210), wk =   0.0380952
        k(   52) = (   0.4000000   0.6158403   0.5424315), wk =   0.0380952
        k(   53) = (   0.4000000  -0.3464102   0.0000000), wk =   0.0190476
        k(   54) = (   0.4000000  -0.3464102   0.1808105), wk =   0.0380952
        k(   55) = (   0.4000000  -0.3464102   0.3616210), wk =   0.0380952
        k(   56) = (   0.4000000  -0.3464102   0.5424315), wk =   0.0380952
        k(   57) = (   0.4000000  -0.1539601   0.0000000), wk =   0.0190476
        k(   58) = (   0.4000000  -0.1539601   0.1808105), wk =   0.0380952
        k(   59) = (   0.4000000  -0.1539601   0.3616210), wk =   0.0380952
        k(   60) = (   0.4000000  -0.1539601   0.5424315), wk =   0.0380952
        k(   61) = (   0.4000000   0.0384900   0.0000000), wk =   0.0190476
        k(   62) = (   0.4000000   0.0384900   0.1808105), wk =   0.0380952
        k(   63) = (   0.4000000   0.0384900   0.3616210), wk =   0.0380952
        k(   64) = (   0.4000000   0.0384900   0.5424315), wk =   0.0380952

     Largest allocated arrays     est. size (Mb)     dimensions
     Largest temporary arrays     est. size (Mb)     dimensions

     Initial potential from superposition of free atoms

     Starting from uniform charge
     Starting wfc are    0 randomized atomic wfcs

     Self-consistent Calculation

     iteration #  1     ecut=    40.00 Ry     beta=0.70
     CG style diagonalization
     c_bands:  4 eigenvalues not converged
     c_bands:  1 eigenvalues not converged
     c_bands:  4 eigenvalues not converged
     c_bands:  2 eigenvalues not converged
     c_bands:  1 eigenvalues not converged
     c_bands:  2 eigenvalues not converged
     c_bands:  1 eigenvalues not converged
     c_bands:  1 eigenvalues not converged
     c_bands:  2 eigenvalues not converged
     c_bands:  1 eigenvalues not converged
     c_bands:  5 eigenvalues not converged
     c_bands:  2 eigenvalues not converged
     c_bands:  1 eigenvalues not converged
     c_bands:  2 eigenvalues not converged
     c_bands:  2 eigenvalues not converged
     c_bands:  4 eigenvalues not converged
     c_bands:  4 eigenvalues not converged
     c_bands:  1 eigenvalues not converged
     c_bands:  3 eigenvalues not converged
     c_bands:  2 eigenvalues not converged
     c_bands:  2 eigenvalues not converged
     c_bands:  1 eigenvalues not converged
     c_bands:  5 eigenvalues not converged
     c_bands:  4 eigenvalues not converged
     c_bands:  3 eigenvalues not converged
     c_bands:  2 eigenvalues not converged
     c_bands:  3 eigenvalues not converged
     c_bands:  2 eigenvalues not converged
     c_bands:  1 eigenvalues not converged
     c_bands:  4 eigenvalues not converged
     c_bands:  1 eigenvalues not converged
     c_bands:  4 eigenvalues not converged
     c_bands:  1 eigenvalues not converged
     c_bands:  1 eigenvalues not converged
     c_bands:  4 eigenvalues not converged
     c_bands:  3 eigenvalues not converged
     c_bands:  3 eigenvalues not converged
     c_bands:  2 eigenvalues not converged
     c_bands:  1 eigenvalues not converged
     c_bands:  4 eigenvalues not converged
     c_bands:  3 eigenvalues not converged
     c_bands:  2 eigenvalues not converged
     c_bands:  1 eigenvalues not converged
     c_bands:  4 eigenvalues not converged
     c_bands:  3 eigenvalues not converged
     c_bands:  1 eigenvalues not converged
     c_bands:  2 eigenvalues not converged
     c_bands:  3 eigenvalues not converged
     c_bands:  2 eigenvalues not converged
     c_bands:  4 eigenvalues not converged
[...]
        k(   17) = (   0.2033101   0.1173812   0.0000000), wk =   0.0190476
        k(   18) = (   0.2033101   0.1173812   0.1831280), wk =   0.0380952
        k(   19) = (   0.2033101   0.1173812   0.3662560), wk =   0.0380952
        k(   20) = (   0.2033101   0.1173812   0.5493841), wk =   0.0380952
        k(   21) = (   0.2033101   0.3130164   0.0000000), wk =   0.0190476
        k(   22) = (   0.2033101   0.3130164   0.1831280), wk =   0.0380952
        k(   23) = (   0.2033101   0.3130164   0.3662560), wk =   0.0380952
        k(   24) = (   0.2033101   0.3130164   0.5493841), wk =   0.0380952
        k(   25) = (   0.2033101   0.5086517   0.0000000), wk =   0.0190476
        k(   26) = (   0.2033101   0.5086517   0.1831280), wk =   0.0380952
        k(   27) = (   0.2033101   0.5086517   0.3662560), wk =   0.0380952
        k(   28) = (   0.2033101   0.5086517   0.5493841), wk =   0.0380952
        k(   29) = (   0.2033101  -0.4695247   0.0000000), wk =   0.0190476
        k(   30) = (   0.2033101  -0.4695247   0.1831280), wk =   0.0380952
        k(   31) = (   0.2033101  -0.4695247   0.3662560), wk =   0.0380952
        k(   32) = (   0.2033101  -0.4695247   0.5493841), wk =   0.0380952
        k(   33) = (   0.2033101  -0.2738894   0.0000000), wk =   0.0190476
        k(   34) = (   0.2033101  -0.2738894   0.1831280), wk =   0.0380952
        k(   35) = (   0.2033101  -0.2738894   0.3662560), wk =   0.0380952
        k(   36) = (   0.2033101  -0.2738894   0.5493841), wk =   0.0380952
        k(   37) = (   0.2033101  -0.0782541   0.0000000), wk =   0.0190476
        k(   38) = (   0.2033101  -0.0782541   0.1831280), wk =   0.0380952
        k(   39) = (   0.2033101  -0.0782541   0.3662560), wk =   0.0380952
        k(   40) = (   0.2033101  -0.0782541   0.5493841), wk =   0.0380952
        k(   41) = (   0.4066203   0.2347623   0.0000000), wk =   0.0190476
        k(   42) = (   0.4066203   0.2347623   0.1831280), wk =   0.0380952
        k(   43) = (   0.4066203   0.2347623   0.3662560), wk =   0.0380952
        k(   44) = (   0.4066203   0.2347623   0.5493841), wk =   0.0380952
        k(   45) = (   0.4066203   0.4303976   0.0000000), wk =   0.0190476
        k(   46) = (   0.4066203   0.4303976   0.1831280), wk =   0.0380952
        k(   47) = (   0.4066203   0.4303976   0.3662560), wk =   0.0380952
        k(   48) = (   0.4066203   0.4303976   0.5493841), wk =   0.0380952
        k(   49) = (   0.4066203   0.6260329   0.0000000), wk =   0.0190476
        k(   50) = (   0.4066203   0.6260329   0.1831280), wk =   0.0380952
        k(   51) = (   0.4066203   0.6260329   0.3662560), wk =   0.0380952
        k(   52) = (   0.4066203   0.6260329   0.5493841), wk =   0.0380952
        k(   53) = (   0.4066203  -0.3521435   0.0000000), wk =   0.0190476
        k(   54) = (   0.4066203  -0.3521435   0.1831280), wk =   0.0380952
        k(   55) = (   0.4066203  -0.3521435   0.3662560), wk =   0.0380952
        k(   56) = (   0.4066203  -0.3521435   0.5493841), wk =   0.0380952
        k(   57) = (   0.4066203  -0.1565082   0.0000000), wk =   0.0190476
        k(   58) = (   0.4066203  -0.1565082   0.1831280), wk =   0.0380952
        k(   59) = (   0.4066203  -0.1565082   0.3662560), wk =   0.0380952
        k(   60) = (   0.4066203  -0.1565082   0.5493841), wk =   0.0380952
        k(   61) = (   0.4066203   0.0391271   0.0000000), wk =   0.0190476
        k(   62) = (   0.4066203   0.0391271   0.1831280), wk =   0.0380952
        k(   63) = (   0.4066203   0.0391271   0.3662560), wk =   0.0380952
        k(   64) = (   0.4066203   0.0391271   0.5493841), wk =   0.0380952

[...]

     Threshold (ethr) on eigenvalues was too large:
     Diagonalizing with lowered threshold

     CG style diagonalization
     ethr =  3.77E-08,  avg # of iterations =  3.5

[...]

     The maximum number of steps has been reached.

     End of BFGS Geometry Optimization
Begin final coordinates
     new unit-cell volume =   1134.45251 a.u.^3 (   168.10852 Ang^3 )

CELL_PARAMETERS (alat= 12.01680127)
   0.983718736   0.000000000   0.000000000
  -0.491859368   0.851925415   0.000000000
   0.000000000   0.000000000   0.780094409

ATOMIC_POSITIONS (crystal)
Mg       0.665489961   0.832744981   0.250000000
Mg       0.832744981   0.167255019   0.750000000
Mg       0.334510039   0.167255019   0.750000000
Mg       0.167255019   0.832744981   0.250000000
Mg       0.167255019   0.334510039   0.250000000
Mg       0.832744981   0.665489961   0.750000000
Cd       0.666667000   0.333333000   0.250000000
Cd       0.333333000   0.666667000   0.750000000
End final coordinates

     A final scf calculation at the relaxed structure.
     The G-vectors are recalculated for the final unit cell
     Results may differ from those at the preceding step.

     bravais-lattice index     =            0
     lattice parameter (alat)  =      12.0168  a.u.
     unit-cell volume          =    1134.4525 (a.u.)^3
     number of atoms/cell      =            8
     number of atomic types    =            2
     number of electrons       =       188.00
     number of Kohn-Sham states=          113
     kinetic-energy cutoff     =      40.0000  Ry
     charge density cutoff     =     160.0000  Ry
     convergence threshold     =      1.0E-04
     mixing beta               =       0.7000
     number of iterations used =            8  plain     mixing
     Exchange-correlation      = SLA-PZ-NOGX-NOGC ( 1 1 0 0 0)
     EXX-fraction              =        0.00

     celldm(1)=  12.016801  celldm(2)=   0.000000  celldm(3)=   0.000000
     celldm(4)=   0.000000  celldm(5)=   0.000000  celldm(6)=   0.000000

     crystal axes: (cart. coord. in units of alat)
               a(1) = (   0.983719   0.000000   0.000000 )
               a(2) = (  -0.491859   0.851925   0.000000 )
               a(3) = (   0.000000   0.000000   0.780094 )

     reciprocal axes: (cart. coord. in units 2 pi/alat)
               b(1) = (  1.016551  0.586906  0.000000 )
               b(2) = (  0.000000  1.173812  0.000000 )
               b(3) = (  0.000000  0.000000  1.281896 )

     PseudoPot. # 1 for Yb read from file:
     /home/jld5415/pp.La/Yb.UPF
     MD5 check sum: 3e859b81cc28c53ec6aa3a2e888efcdf
     Pseudo is Norm-conserving, Zval = 24.0
     Generated in analytical, separable form
     Using radial grid of 1269 points,  6 beta functions with:
                l(1) =   0
                l(2) =   0
                l(3) =   1
                l(4) =   1
                l(5) =   2
                l(6) =   3

     PseudoPot. # 2 for Er read from file:
     /home/jld5415/pp.La/Er.UPF
     MD5 check sum: e152ae21b84514339d8526f066caf99b
     Pseudo is Norm-conserving, Zval = 22.0
     Generated in analytical, separable form
     Using radial grid of 1267 points,  6 beta functions with:
                l(1) =   0
                l(2) =   0
                l(3) =   1
                l(4) =   1
                l(5) =   2
                l(6) =   3

     atomic species   valence    mass     pseudopotential
        Mg            24.00    24.30500     Yb( 1.00)
        Cd            22.00   112.41100     Er( 1.00)

     24 Sym. Ops., with inversion, found (12 have fractional translation)

   Cartesian axes

     site n.     atom                  positions (alat units)
         1           Mg  tau(   1) = (   0.2450615   0.7094366   0.1950236  )
         2           Mg  tau(   2) = (   0.7369209   0.1424888   0.5850708  )
         3           Mg  tau(   3) = (   0.2467978   0.1424888   0.5850708  )
         4           Mg  tau(   4) = (  -0.2450615   0.7094366   0.1950236  )
         5           Mg  tau(   5) = (   0.0000000   0.2849776   0.1950236  )
         6           Mg  tau(   6) = (   0.4918594   0.5669478   0.5850708  )
         7           Cd  tau(   7) = (   0.4918599   0.2839749   0.1950236  )
         8           Cd  tau(   8) = (  -0.0000005   0.5679506   0.5850708  )

     number of k points=    64  gaussian smearing, width (Ry)=  0.1000
                       cart. coord. in units 2pi/alat
        k(    1) = (   0.0000000   0.0000000   0.0000000), wk =   0.0095238
        k(    2) = (   0.0000000   0.0000000   0.1831280), wk =   0.0190476
        k(    3) = (   0.0000000   0.0000000   0.3662560), wk =   0.0190476
        k(    4) = (   0.0000000   0.0000000   0.5493841), wk =   0.0190476
        k(    5) = (   0.0000000   0.1956353   0.0000000), wk =   0.0190476
        k(    6) = (   0.0000000   0.1956353   0.1831280), wk =   0.0380952
        k(    7) = (   0.0000000   0.1956353   0.3662560), wk =   0.0380952
        k(    8) = (   0.0000000   0.1956353   0.5493841), wk =   0.0380952
        k(    9) = (   0.0000000   0.3912706   0.0000000), wk =   0.0190476
        k(   10) = (   0.0000000   0.3912706   0.1831280), wk =   0.0380952
        k(   11) = (   0.0000000   0.3912706   0.3662560), wk =   0.0380952
        k(   12) = (   0.0000000   0.3912706   0.5493841), wk =   0.0380952
        k(   13) = (   0.0000000  -0.5869058   0.0000000), wk =   0.0095238
        k(   14) = (   0.0000000  -0.5869058   0.1831280), wk =   0.0190476
        k(   15) = (   0.0000000  -0.5869058   0.3662560), wk =   0.0190476
        k(   16) = (   0.0000000  -0.5869058   0.5493841), wk =   0.0190476
        k(   17) = (   0.2033101   0.1173812   0.0000000), wk =   0.0190476
        k(   18) = (   0.2033101   0.1173812   0.1831280), wk =   0.0380952
        k(   19) = (   0.2033101   0.1173812   0.3662560), wk =   0.0380952
        k(   20) = (   0.2033101   0.1173812   0.5493841), wk =   0.0380952
        k(   21) = (   0.2033101   0.3130164   0.0000000), wk =   0.0190476
        k(   22) = (   0.2033101   0.3130164   0.1831280), wk =   0.0380952
        k(   23) = (   0.2033101   0.3130164   0.3662560), wk =   0.0380952
        k(   24) = (   0.2033101   0.3130164   0.5493841), wk =   0.0380952
        k(   25) = (   0.2033101   0.5086517   0.0000000), wk =   0.0190476
        k(   26) = (   0.2033101   0.5086517   0.1831280), wk =   0.0380952
        k(   27) = (   0.2033101   0.5086517   0.3662560), wk =   0.0380952
        k(   28) = (   0.2033101   0.5086517   0.5493841), wk =   0.0380952
        k(   29) = (   0.2033101  -0.4695247   0.0000000), wk =   0.0190476
        k(   30) = (   0.2033101  -0.4695247   0.1831280), wk =   0.0380952
        k(   31) = (   0.2033101  -0.4695247   0.3662560), wk =   0.0380952
        k(   32) = (   0.2033101  -0.4695247   0.5493841), wk =   0.0380952
        k(   33) = (   0.2033101  -0.2738894   0.0000000), wk =   0.0190476
        k(   34) = (   0.2033101  -0.2738894   0.1831280), wk =   0.0380952
        k(   35) = (   0.2033101  -0.2738894   0.3662560), wk =   0.0380952
        k(   36) = (   0.2033101  -0.2738894   0.5493841), wk =   0.0380952
        k(   37) = (   0.2033101  -0.0782541   0.0000000), wk =   0.0190476
        k(   38) = (   0.2033101  -0.0782541   0.1831280), wk =   0.0380952
        k(   39) = (   0.2033101  -0.0782541   0.3662560), wk =   0.0380952
        k(   40) = (   0.2033101  -0.0782541   0.5493841), wk =   0.0380952
        k(   41) = (   0.4066203   0.2347623   0.0000000), wk =   0.0190476
        k(   42) = (   0.4066203   0.2347623   0.1831280), wk =   0.0380952
        k(   43) = (   0.4066203   0.2347623   0.3662560), wk =   0.0380952
        k(   44) = (   0.4066203   0.2347623   0.5493841), wk =   0.0380952
        k(   45) = (   0.4066203   0.4303976   0.0000000), wk =   0.0190476
        k(   46) = (   0.4066203   0.4303976   0.1831280), wk =   0.0380952
        k(   47) = (   0.4066203   0.4303976   0.3662560), wk =   0.0380952
        k(   48) = (   0.4066203   0.4303976   0.5493841), wk =   0.0380952
        k(   49) = (   0.4066203   0.6260329   0.0000000), wk =   0.0190476
        k(   50) = (   0.4066203   0.6260329   0.1831280), wk =   0.0380952
        k(   51) = (   0.4066203   0.6260329   0.3662560), wk =   0.0380952
        k(   52) = (   0.4066203   0.6260329   0.5493841), wk =   0.0380952
        k(   53) = (   0.4066203  -0.3521435   0.0000000), wk =   0.0190476
        k(   54) = (   0.4066203  -0.3521435   0.1831280), wk =   0.0380952
        k(   55) = (   0.4066203  -0.3521435   0.3662560), wk =   0.0380952
        k(   56) = (   0.4066203  -0.3521435   0.5493841), wk =   0.0380952
        k(   57) = (   0.4066203  -0.1565082   0.0000000), wk =   0.0190476
        k(   58) = (   0.4066203  -0.1565082   0.1831280), wk =   0.0380952
        k(   59) = (   0.4066203  -0.1565082   0.3662560), wk =   0.0380952
        k(   60) = (   0.4066203  -0.1565082   0.5493841), wk =   0.0380952
        k(   61) = (   0.4066203   0.0391271   0.0000000), wk =   0.0190476
        k(   62) = (   0.4066203   0.0391271   0.1831280), wk =   0.0380952
        k(   63) = (   0.4066203   0.0391271   0.3662560), wk =   0.0380952
        k(   64) = (   0.4066203   0.0391271   0.5493841), wk =   0.0380952

     Largest allocated arrays     est. size (Mb)     dimensions
     Largest temporary arrays     est. size (Mb)     dimensions

     Initial potential from superposition of free atoms

     Starting from uniform charge
     Starting wfc are    0 randomized atomic wfcs

     Writing output data file Prototype-La-hP8-Mg3Cd.save

     Self-consistent Calculation

[...]

     iteration #  9     ecut=    40.00 Ry     beta=0.70
     CG style diagonalization
     c_bands:  1 eigenvalues not converged
     ethr =  6.80E-07,  avg # of iterations =  3.7

     total energy              =   -3115.40671430 Ry
     Harris-Foulkes estimate   =   -3115.40678502 Ry
     estimated scf accuracy    <       0.00010126 Ry

     iteration # 10     ecut=    40.00 Ry     beta=0.70
     CG style diagonalization
     ethr =  5.39E-08,  avg # of iterations =  4.0

     End of self-consistent calculation

[...]

          k = 0.4066 0.0391 0.5494 (  4849 PWs)   bands (ev):

   -95.3740 -95.3626 -95.3395 -95.3336 -95.3252 -95.3195 -72.5074 -72.5039
   -54.1701 -54.1669 -54.1652 -54.1604 -54.1593 -54.1562 -54.1495 -54.1441
   -54.1376 -54.1360 -54.1344 -54.1328 -54.1278 -54.1258 -54.1227 -54.1207
   -54.1167 -54.1151 -34.4883 -34.4865 -34.4749 -34.4726 -34.4718 -34.4675
     3.3737   3.3778   3.4250   3.4693   3.4710   3.4802   3.5445   3.5799
     3.5923   3.6033   3.6952   3.7169   3.7420   3.8196   3.8299   3.8384
     3.8510   3.9115   3.9218   3.9341   3.9719   4.0186   4.0267   4.0293
     4.0925   4.1207   4.2031   4.2228   4.2675   4.3138  11.9706  12.0153
    12.1033  12.1225  12.1920  12.2332  12.2725  12.2870  12.3089  12.3297
    13.4338  14.4474  15.7391  16.2166  16.9476  17.4244  19.3393  20.2157
    20.6940  21.6394  23.2256  23.6463  24.6334  24.9275  25.2492  26.0408
    27.1974  27.5146  28.1299  28.5441  29.1146  29.4976  29.5544  29.6969
    30.5304  30.8103  30.9410  31.1753  31.7264  31.9911  32.1356  32.3322
    33.9518  34.2674  34.5833  34.7504  35.0431  35.3104  35.4208  36.4082
    36.5411

     the Fermi energy is    29.1426 ev

!    total energy              =   -3115.40675141 Ry
     Harris-Foulkes estimate   =   -3115.40675932 Ry
     estimated scf accuracy    <       0.00001054 Ry

     The total energy is the sum of the following terms:

     one-electron contribution =    -991.48854366 Ry
     hartree contribution      =     572.18782232 Ry
     xc contribution           =    -247.53283258 Ry
     ewald contribution        =   -2448.28402184 Ry
     smearing contrib. (-TS)   =      -0.28917565 Ry

     convergence has been achieved in  10 iterations

     Forces acting on atoms (Ry/au):

     atom    1 type  1   force =     0.00123731    0.00071436    0.00000000
     atom    2 type  1   force =     0.00123731   -0.00071436    0.00000000
     atom    3 type  1   force =    -0.00123731   -0.00071436    0.00000000
     atom    4 type  1   force =    -0.00123731    0.00071436    0.00000000
     atom    5 type  1   force =     0.00000000   -0.00142873    0.00000000
     atom    6 type  1   force =     0.00000000    0.00142873    0.00000000
     atom    7 type  2   force =     0.00000000    0.00000000    0.00000000
     atom    8 type  2   force =     0.00000000    0.00000000    0.00000000

     Total force =     0.003500     Total SCF correction =     0.000000

     entering subroutine stress ...

          total   stress  (Ry/bohr**3)                   (kbar)     P=   54.55
   0.00032418   0.00000000   0.00000000         47.69      0.00      0.00
   0.00000000   0.00032418   0.00000000          0.00     47.69      0.00
   0.00000000   0.00000000   0.00046410          0.00      0.00     68.27

     Writing output data file Prototype-La-hP8-Mg3Cd.save

     General routines

     Parallel routines

   This run was terminated on:  13: 6:39  22Mar2018

   JOB DONE.