     Program PWSCF v.5.0.2 starts on 22Mar2018 at 21:11:53

     Current dimensions of program PWSCF are:
     Max number of different atomic species (ntypx) = 10
     Max number of k-points (npk) =  40000
     Max angular momentum in pseudopotentials (lmaxx) =  3
     Waiting for input...
     Reading input from standard input

     Subspace diagonalization in iterative solution of the eigenvalue problem:
     a serial algorithm will be used

     bravais-lattice index     =            0
     lattice parameter (alat)  =       8.5346  a.u.
     unit-cell volume          =     621.6493 (a.u.)^3
     number of atoms/cell      =            8
     number of atomic types    =            2
     number of electrons       =       126.00
     number of Kohn-Sham states=           76
     kinetic-energy cutoff     =      40.0000  Ry
     charge density cutoff     =     160.0000  Ry
     convergence threshold     =      1.0E-04
     mixing beta               =       0.7000
     number of iterations used =            8  plain     mixing
     Exchange-correlation      = SLA-PZ-NOGX-NOGC ( 1 1 0 0 0)
     EXX-fraction              =        0.00
     nstep                     =           50

     celldm(1)=   8.534573  celldm(2)=   0.000000  celldm(3)=   0.000000
     celldm(4)=   0.000000  celldm(5)=   0.000000  celldm(6)=   0.000000

     crystal axes: (cart. coord. in units of alat)
               a(1) = (   1.000000   0.000000   0.000000 )
               a(2) = (   0.000000   1.000000   0.000000 )
               a(3) = (   0.000000   0.000000   1.000000 )

     reciprocal axes: (cart. coord. in units 2 pi/alat)
               b(1) = (  1.000000  0.000000  0.000000 )
               b(2) = (  0.000000  1.000000  0.000000 )
               b(3) = (  0.000000  0.000000  1.000000 )

     PseudoPot. # 1 for Eu read from file:
     /home/cwx6513/pp.La/Eu.UPF
     MD5 check sum: 5efdbbfc50c6a10138933a6429836ad2
     Pseudo is Norm-conserving, Zval = 17.0
     Generated in analytical, separable form
     Using radial grid of 1261 points,  6 beta functions with:
                l(1) =   0
                l(2) =   0
                l(3) =   1
                l(4) =   1
                l(5) =   2
                l(6) =   3

     PseudoPot. # 2 for Ce read from file:
     /home/cwx6513/pp.La/Ce.UPF
     MD5 check sum: 44451aa79a44a00cf2bc029dc19922f6
     Pseudo is Norm-conserving, Zval = 12.0
     Generated in analytical, separable form
     Using radial grid of 1255 points,  6 beta functions with:
                l(1) =   0
                l(2) =   0
                l(3) =   1
                l(4) =   1
                l(5) =   2
                l(6) =   3

     atomic species   valence    mass     pseudopotential
        Cr            17.00    51.99610     Eu( 1.00)
        Si            12.00    28.08550     Ce( 1.00)

     48 Sym. Ops., with inversion, found (24 have fractional translation)

   Cartesian axes

     site n.     atom                  positions (alat units)
         1           Cr  tau(   1) = (   0.0000000   0.5000000   0.2500000  )
         2           Cr  tau(   2) = (   0.0000000   0.5000000   0.7500000  )
         3           Cr  tau(   3) = (   0.5000000   0.7500000   0.0000000  )
         4           Cr  tau(   4) = (   0.5000000   0.2500000   0.0000000  )
         5           Cr  tau(   5) = (   0.7500000   0.0000000   0.5000000  )
         6           Cr  tau(   6) = (   0.2500000   0.0000000   0.5000000  )
         7           Si  tau(   7) = (   0.5000000   0.5000000   0.5000000  )
         8           Si  tau(   8) = (   0.0000000   0.0000000   0.0000000  )

     number of k points=    48  gaussian smearing, width (Ry)=  0.1000
                       cart. coord. in units 2pi/alat
        k(    1) = (   0.0000000   0.0000000   0.0000000), wk =   0.0095238
        k(    2) = (   0.0000000   0.0000000   0.1428571), wk =   0.0190476
        k(    3) = (   0.0000000   0.0000000   0.2857143), wk =   0.0190476
        k(    4) = (   0.0000000   0.0000000   0.4285714), wk =   0.0190476
        k(    5) = (   0.0000000   0.1666667   0.0000000), wk =   0.0190476
        k(    6) = (   0.0000000   0.1666667   0.1428571), wk =   0.0380952
        k(    7) = (   0.0000000   0.1666667   0.2857143), wk =   0.0380952
        k(    8) = (   0.0000000   0.1666667   0.4285714), wk =   0.0380952
        k(    9) = (   0.0000000   0.3333333   0.0000000), wk =   0.0190476
        k(   10) = (   0.0000000   0.3333333   0.1428571), wk =   0.0380952
        k(   11) = (   0.0000000   0.3333333   0.2857143), wk =   0.0380952
        k(   12) = (   0.0000000   0.3333333   0.4285714), wk =   0.0380952
        k(   13) = (   0.0000000  -0.5000000   0.0000000), wk =   0.0095238
        k(   14) = (   0.0000000  -0.5000000   0.1428571), wk =   0.0190476
        k(   15) = (   0.0000000  -0.5000000   0.2857143), wk =   0.0190476
        k(   16) = (   0.0000000  -0.5000000   0.4285714), wk =   0.0190476
        k(   17) = (   0.2000000   0.0000000   0.0000000), wk =   0.0190476
        k(   18) = (   0.2000000   0.0000000   0.1428571), wk =   0.0380952
        k(   19) = (   0.2000000   0.0000000   0.2857143), wk =   0.0380952
        k(   20) = (   0.2000000   0.0000000   0.4285714), wk =   0.0380952
        k(   21) = (   0.2000000   0.1666667   0.0000000), wk =   0.0380952
        k(   22) = (   0.2000000   0.1666667   0.1428571), wk =   0.0761905
        k(   23) = (   0.2000000   0.1666667   0.2857143), wk =   0.0761905
        k(   24) = (   0.2000000   0.1666667   0.4285714), wk =   0.0761905
        k(   25) = (   0.2000000   0.3333333   0.0000000), wk =   0.0380952
        k(   26) = (   0.2000000   0.3333333   0.1428571), wk =   0.0761905
        k(   27) = (   0.2000000   0.3333333   0.2857143), wk =   0.0761905
        k(   28) = (   0.2000000   0.3333333   0.4285714), wk =   0.0761905
        k(   29) = (   0.2000000  -0.5000000   0.0000000), wk =   0.0190476
        k(   30) = (   0.2000000  -0.5000000   0.1428571), wk =   0.0380952
        k(   31) = (   0.2000000  -0.5000000   0.2857143), wk =   0.0380952
        k(   32) = (   0.2000000  -0.5000000   0.4285714), wk =   0.0380952
        k(   33) = (   0.4000000   0.0000000   0.0000000), wk =   0.0190476
        k(   34) = (   0.4000000   0.0000000   0.1428571), wk =   0.0380952
        k(   35) = (   0.4000000   0.0000000   0.2857143), wk =   0.0380952
        k(   36) = (   0.4000000   0.0000000   0.4285714), wk =   0.0380952
        k(   37) = (   0.4000000   0.1666667   0.0000000), wk =   0.0380952
        k(   38) = (   0.4000000   0.1666667   0.1428571), wk =   0.0761905
        k(   39) = (   0.4000000   0.1666667   0.2857143), wk =   0.0761905
        k(   40) = (   0.4000000   0.1666667   0.4285714), wk =   0.0761905
        k(   41) = (   0.4000000   0.3333333   0.0000000), wk =   0.0380952
        k(   42) = (   0.4000000   0.3333333   0.1428571), wk =   0.0761905
        k(   43) = (   0.4000000   0.3333333   0.2857143), wk =   0.0761905
        k(   44) = (   0.4000000   0.3333333   0.4285714), wk =   0.0761905
        k(   45) = (   0.4000000  -0.5000000   0.0000000), wk =   0.0190476
        k(   46) = (   0.4000000  -0.5000000   0.1428571), wk =   0.0380952
        k(   47) = (   0.4000000  -0.5000000   0.2857143), wk =   0.0380952
        k(   48) = (   0.4000000  -0.5000000   0.4285714), wk =   0.0380952

     Largest allocated arrays     est. size (Mb)     dimensions
     Largest temporary arrays     est. size (Mb)     dimensions

     Initial potential from superposition of free atoms

     Starting from uniform charge
     Starting wfc are    0 randomized atomic wfcs

     Self-consistent Calculation

     iteration #  1     ecut=    40.00 Ry     beta=0.70
     CG style diagonalization
     c_bands:  2 eigenvalues not converged
     c_bands:  3 eigenvalues not converged
     c_bands:  4 eigenvalues not converged
     c_bands:  3 eigenvalues not converged
     c_bands:  3 eigenvalues not converged
     c_bands:  1 eigenvalues not converged
     c_bands:  3 eigenvalues not converged
     c_bands:  2 eigenvalues not converged
     c_bands:  2 eigenvalues not converged
     c_bands:  1 eigenvalues not converged
     c_bands:  1 eigenvalues not converged
     c_bands:  1 eigenvalues not converged
     c_bands:  1 eigenvalues not converged
     c_bands:  1 eigenvalues not converged
     c_bands:  5 eigenvalues not converged
     c_bands:  3 eigenvalues not converged
     c_bands:  2 eigenvalues not converged
     c_bands:  2 eigenvalues not converged
     c_bands:  1 eigenvalues not converged
     c_bands:  3 eigenvalues not converged
     c_bands:  5 eigenvalues not converged
     c_bands:  5 eigenvalues not converged
     c_bands:  2 eigenvalues not converged
     c_bands:  2 eigenvalues not converged
     c_bands:  1 eigenvalues not converged
     c_bands:  2 eigenvalues not converged
     c_bands:  1 eigenvalues not converged
     c_bands:  1 eigenvalues not converged
     c_bands:  3 eigenvalues not converged
     c_bands:  1 eigenvalues not converged
     c_bands:  3 eigenvalues not converged
     c_bands:  2 eigenvalues not converged
     c_bands:  1 eigenvalues not converged
     c_bands:  5 eigenvalues not converged
     c_bands:  2 eigenvalues not converged
     c_bands:  3 eigenvalues not converged
     c_bands:  2 eigenvalues not converged
     c_bands:  3 eigenvalues not converged
     c_bands:  1 eigenvalues not converged
     c_bands:  2 eigenvalues not converged
     c_bands:  1 eigenvalues not converged
     c_bands:  1 eigenvalues not converged
     c_bands:  3 eigenvalues not converged
     ethr =  1.00E-02,  avg # of iterations = 12.0

     total energy              =   -1092.47494663 Ry
     Harris-Foulkes estimate   =   -1320.44797894 Ry
     estimated scf accuracy    <     293.74182321 Ry

[...]

     iteration #  4     ecut=    40.00 Ry     beta=0.70
     CG style diagonalization
     ethr =  1.00E-02,  avg # of iterations =  3.5

[...]

     End of self-consistent calculation

          k = 0.0000 0.0000 0.0000 (  2601 PWs)   bands (ev):

   -22.4808 -21.9321 -21.9321 -20.6804 -20.6804 -20.6804   1.0688   1.2181
     1.2181   3.7206   3.7206   3.7206   4.5217   5.3830   5.6847   5.6847
     5.6847   5.7459   5.7459   5.7459   6.3614   6.3614   6.3614   8.6023
     8.6023   8.6024  21.3591  21.3591  21.3591  21.8339  21.8339  21.8339
    31.5731  31.5731  31.7959  31.9765  31.9765  31.9765  32.8322  34.7383
    34.7383  34.7383  35.3505  35.3505  35.9936  37.8579  37.8579  37.8579
    38.0965  39.8853  39.8853  39.8853  40.5767  40.5767  40.8665  40.8665
    40.8665  42.0473  42.0473  42.0473  42.0844  42.0844  42.0844  42.7201
    42.7201  44.5984  44.5984  44.5984  45.1979  45.1979  49.9790  50.0565
    50.0565  50.0567  50.8518  50.8523

[...]

     the Fermi energy is    43.8920 ev

!    total energy              =   -1199.59472140 Ry
     Harris-Foulkes estimate   =   -1199.59473768 Ry
     estimated scf accuracy    <       0.00001802 Ry

     The total energy is the sum of the following terms:

     one-electron contribution =     217.68491066 Ry
     hartree contribution      =      74.84937794 Ry
[...]
     enthalpy new            =   -1202.9529201423 Ry

     CASE: enthalpy_new < enthalpy_old

     small trust_radius: resetting bfgs history

     new trust radius        =       0.7577076515 bohr
     new conv_thr            =       0.0000010000 Ry

[...]

          total   stress  (Ry/bohr**3)                   (kbar)     P=-1092.24
  -0.00742492   0.00000000   0.00000000      -1092.24      0.00      0.00
   0.00000000  -0.00742492   0.00000000          0.00  -1092.24      0.00
   0.00000000   0.00000000  -0.00742492          0.00      0.00  -1092.24

     number of scf cycles    =   3
     number of bfgs steps    =   2

     enthalpy old            =   -1202.9529201423 Ry
     enthalpy new            =   -1201.8626294546 Ry

     CASE: enthalpy_new > enthalpy_old

     new trust radius        =       0.2467958546 bohr

     trust_radius < trust_radius_min

     resetting bfgs history

     Message from routine bfgs:
     history already reset at previous step: stopping
     new conv_thr            =       0.0000010000 Ry

     new unit-cell volume =   1047.91546 a.u.^3 (   155.28505 Ang^3 )

[...]

ATOMIC_POSITIONS (crystal)
Cr       0.000000000   0.500000000   0.250000000
Cr       0.000000000   0.500000000   0.750000000
Cr       0.500000000   0.750000000   0.000000000
Cr       0.500000000   0.250000000   0.000000000
Cr       0.750000000   0.000000000   0.500000000
Cr       0.250000000   0.000000000   0.500000000
Si       0.500000000   0.500000000   0.500000000
Si       0.000000000   0.000000000   0.000000000

     Writing output data file Prototype-La-cP8-Cr3Si.save
     NEW-OLD atomic charge density approx. for the potential
     NEW k-points:
        k(    1) = (   0.0000000   0.0000000   0.0000000), wk =   0.0095238
        k(    2) = (   0.0000000   0.0000000   0.1200351), wk =   0.0190476
        k(    3) = (   0.0000000   0.0000000   0.2400703), wk =   0.0190476
        k(    4) = (   0.0000000   0.0000000   0.3601054), wk =   0.0190476
        k(    5) = (   0.0000000   0.1400410   0.0000000), wk =   0.0190476
        k(    6) = (   0.0000000   0.1400410   0.1200351), wk =   0.0380952
        k(    7) = (   0.0000000   0.1400410   0.2400703), wk =   0.0380952
        k(    8) = (   0.0000000   0.1400410   0.3601054), wk =   0.0380952
        k(    9) = (   0.0000000   0.2800820   0.0000000), wk =   0.0190476
        k(   10) = (   0.0000000   0.2800820   0.1200351), wk =   0.0380952
        k(   11) = (   0.0000000   0.2800820   0.2400703), wk =   0.0380952
        k(   12) = (   0.0000000   0.2800820   0.3601054), wk =   0.0380952
        k(   13) = (   0.0000000  -0.4201229   0.0000000), wk =   0.0095238
        k(   14) = (   0.0000000  -0.4201229   0.1200351), wk =   0.0190476
        k(   15) = (   0.0000000  -0.4201229   0.2400703), wk =   0.0190476
        k(   16) = (   0.0000000  -0.4201229   0.3601054), wk =   0.0190476
        k(   17) = (   0.1680492   0.0000000   0.0000000), wk =   0.0190476
        k(   18) = (   0.1680492   0.0000000   0.1200351), wk =   0.0380952
        k(   19) = (   0.1680492   0.0000000   0.2400703), wk =   0.0380952
        k(   20) = (   0.1680492   0.0000000   0.3601054), wk =   0.0380952
        k(   21) = (   0.1680492   0.1400410   0.0000000), wk =   0.0380952
        k(   22) = (   0.1680492   0.1400410   0.1200351), wk =   0.0761905
        k(   23) = (   0.1680492   0.1400410   0.2400703), wk =   0.0761905
        k(   24) = (   0.1680492   0.1400410   0.3601054), wk =   0.0761905
        k(   25) = (   0.1680492   0.2800820   0.0000000), wk =   0.0380952
        k(   26) = (   0.1680492   0.2800820   0.1200351), wk =   0.0761905
        k(   27) = (   0.1680492   0.2800820   0.2400703), wk =   0.0761905
        k(   28) = (   0.1680492   0.2800820   0.3601054), wk =   0.0761905
        k(   29) = (   0.1680492  -0.4201229   0.0000000), wk =   0.0190476
        k(   30) = (   0.1680492  -0.4201229   0.1200351), wk =   0.0380952
        k(   31) = (   0.1680492  -0.4201229   0.2400703), wk =   0.0380952
        k(   32) = (   0.1680492  -0.4201229   0.3601054), wk =   0.0380952
        k(   33) = (   0.3360984   0.0000000   0.0000000), wk =   0.0190476
        k(   34) = (   0.3360984   0.0000000   0.1200351), wk =   0.0380952
        k(   35) = (   0.3360984   0.0000000   0.2400703), wk =   0.0380952
        k(   36) = (   0.3360984   0.0000000   0.3601054), wk =   0.0380952
        k(   37) = (   0.3360984   0.1400410   0.0000000), wk =   0.0380952
        k(   38) = (   0.3360984   0.1400410   0.1200351), wk =   0.0761905
        k(   39) = (   0.3360984   0.1400410   0.2400703), wk =   0.0761905
        k(   40) = (   0.3360984   0.1400410   0.3601054), wk =   0.0761905
        k(   41) = (   0.3360984   0.2800820   0.0000000), wk =   0.0380952
        k(   42) = (   0.3360984   0.2800820   0.1200351), wk =   0.0761905
        k(   43) = (   0.3360984   0.2800820   0.2400703), wk =   0.0761905
        k(   44) = (   0.3360984   0.2800820   0.3601054), wk =   0.0761905
        k(   45) = (   0.3360984  -0.4201229   0.0000000), wk =   0.0190476
        k(   46) = (   0.3360984  -0.4201229   0.1200351), wk =   0.0380952
        k(   47) = (   0.3360984  -0.4201229   0.2400703), wk =   0.0380952
        k(   48) = (   0.3360984  -0.4201229   0.3601054), wk =   0.0380952

[...]

     The maximum number of steps has been reached.

     End of BFGS Geometry Optimization
Begin final coordinates
     new unit-cell volume =   1047.91546 a.u.^3 (   155.28505 Ang^3 )

CELL_PARAMETERS (alat=  8.53457320)
   1.190127825   0.000000000   0.000000000
   0.000000000   1.190127825   0.000000000
   0.000000000   0.000000000   1.190127825

ATOMIC_POSITIONS (crystal)
Cr       0.000000000   0.500000000   0.250000000
Cr       0.000000000   0.500000000   0.750000000
Cr       0.500000000   0.750000000   0.000000000
Cr       0.500000000   0.250000000   0.000000000
Cr       0.750000000   0.000000000   0.500000000
Cr       0.250000000   0.000000000   0.500000000
Si       0.500000000   0.500000000   0.500000000
Si       0.000000000   0.000000000   0.000000000
End final coordinates

     A final scf calculation at the relaxed structure.
     The G-vectors are recalculated for the final unit cell
     Results may differ from those at the preceding step.

     bravais-lattice index     =            0
     lattice parameter (alat)  =       8.5346  a.u.
     unit-cell volume          =    1047.9155 (a.u.)^3
     number of atoms/cell      =            8
     number of atomic types    =            2
     number of electrons       =       126.00
     number of Kohn-Sham states=           76
     kinetic-energy cutoff     =      40.0000  Ry
     charge density cutoff     =     160.0000  Ry
     convergence threshold     =      1.0E-06
     mixing beta               =       0.7000
     number of iterations used =            8  plain     mixing
     Exchange-correlation      = SLA-PZ-NOGX-NOGC ( 1 1 0 0 0)
     EXX-fraction              =        0.00

     celldm(1)=   8.534573  celldm(2)=   0.000000  celldm(3)=   0.000000
     celldm(4)=   0.000000  celldm(5)=   0.000000  celldm(6)=   0.000000

     crystal axes: (cart. coord. in units of alat)
               a(1) = (   1.190128   0.000000   0.000000 )
               a(2) = (   0.000000   1.190128   0.000000 )
               a(3) = (   0.000000   0.000000   1.190128 )

     reciprocal axes: (cart. coord. in units 2 pi/alat)
               b(1) = (  0.840246  0.000000  0.000000 )
               b(2) = (  0.000000  0.840246  0.000000 )
               b(3) = (  0.000000  0.000000  0.840246 )

     PseudoPot. # 1 for Eu read from file:
     /home/cwx6513/pp.La/Eu.UPF
     MD5 check sum: 5efdbbfc50c6a10138933a6429836ad2
     Pseudo is Norm-conserving, Zval = 17.0
     Generated in analytical, separable form
     Using radial grid of 1261 points,  6 beta functions with:
                l(1) =   0
                l(2) =   0
                l(3) =   1
                l(4) =   1
                l(5) =   2
                l(6) =   3

     PseudoPot. # 2 for Ce read from file:
     /home/cwx6513/pp.La/Ce.UPF
     MD5 check sum: 44451aa79a44a00cf2bc029dc19922f6
     Pseudo is Norm-conserving, Zval = 12.0
     Generated in analytical, separable form
     Using radial grid of 1255 points,  6 beta functions with:
                l(1) =   0
                l(2) =   0
                l(3) =   1
                l(4) =   1
                l(5) =   2
                l(6) =   3

     atomic species   valence    mass     pseudopotential
        Cr            17.00    51.99610     Eu( 1.00)
        Si            12.00    28.08550     Ce( 1.00)

     48 Sym. Ops., with inversion, found (24 have fractional translation)

   Cartesian axes

     site n.     atom                  positions (alat units)
         1           Cr  tau(   1) = (   0.0000000   0.5950639   0.2975320  )
         2           Cr  tau(   2) = (   0.0000000   0.5950639   0.8925959  )
         3           Cr  tau(   3) = (   0.5950639   0.8925959   0.0000000  )
         4           Cr  tau(   4) = (   0.5950639   0.2975320   0.0000000  )
         5           Cr  tau(   5) = (   0.8925959   0.0000000   0.5950639  )
         6           Cr  tau(   6) = (   0.2975320   0.0000000   0.5950639  )
         7           Si  tau(   7) = (   0.5950639   0.5950639   0.5950639  )
         8           Si  tau(   8) = (   0.0000000   0.0000000   0.0000000  )

     number of k points=    48  gaussian smearing, width (Ry)=  0.1000
                       cart. coord. in units 2pi/alat
        k(    1) = (   0.0000000   0.0000000   0.0000000), wk =   0.0095238
        k(    2) = (   0.0000000   0.0000000   0.1200351), wk =   0.0190476
        k(    3) = (   0.0000000   0.0000000   0.2400703), wk =   0.0190476
        k(    4) = (   0.0000000   0.0000000   0.3601054), wk =   0.0190476
        k(    5) = (   0.0000000   0.1400410   0.0000000), wk =   0.0190476
        k(    6) = (   0.0000000   0.1400410   0.1200351), wk =   0.0380952
        k(    7) = (   0.0000000   0.1400410   0.2400703), wk =   0.0380952
        k(    8) = (   0.0000000   0.1400410   0.3601054), wk =   0.0380952
        k(    9) = (   0.0000000   0.2800820   0.0000000), wk =   0.0190476
        k(   10) = (   0.0000000   0.2800820   0.1200351), wk =   0.0380952
        k(   11) = (   0.0000000   0.2800820   0.2400703), wk =   0.0380952
        k(   12) = (   0.0000000   0.2800820   0.3601054), wk =   0.0380952
        k(   13) = (   0.0000000  -0.4201229   0.0000000), wk =   0.0095238
        k(   14) = (   0.0000000  -0.4201229   0.1200351), wk =   0.0190476
        k(   15) = (   0.0000000  -0.4201229   0.2400703), wk =   0.0190476
        k(   16) = (   0.0000000  -0.4201229   0.3601054), wk =   0.0190476
        k(   17) = (   0.1680492   0.0000000   0.0000000), wk =   0.0190476
        k(   18) = (   0.1680492   0.0000000   0.1200351), wk =   0.0380952
        k(   19) = (   0.1680492   0.0000000   0.2400703), wk =   0.0380952
        k(   20) = (   0.1680492   0.0000000   0.3601054), wk =   0.0380952
        k(   21) = (   0.1680492   0.1400410   0.0000000), wk =   0.0380952
        k(   22) = (   0.1680492   0.1400410   0.1200351), wk =   0.0761905
        k(   23) = (   0.1680492   0.1400410   0.2400703), wk =   0.0761905
        k(   24) = (   0.1680492   0.1400410   0.3601054), wk =   0.0761905
        k(   25) = (   0.1680492   0.2800820   0.0000000), wk =   0.0380952
        k(   26) = (   0.1680492   0.2800820   0.1200351), wk =   0.0761905
        k(   27) = (   0.1680492   0.2800820   0.2400703), wk =   0.0761905
        k(   28) = (   0.1680492   0.2800820   0.3601054), wk =   0.0761905
        k(   29) = (   0.1680492  -0.4201229   0.0000000), wk =   0.0190476
        k(   30) = (   0.1680492  -0.4201229   0.1200351), wk =   0.0380952
        k(   31) = (   0.1680492  -0.4201229   0.2400703), wk =   0.0380952
        k(   32) = (   0.1680492  -0.4201229   0.3601054), wk =   0.0380952
        k(   33) = (   0.3360984   0.0000000   0.0000000), wk =   0.0190476
        k(   34) = (   0.3360984   0.0000000   0.1200351), wk =   0.0380952
        k(   35) = (   0.3360984   0.0000000   0.2400703), wk =   0.0380952
        k(   36) = (   0.3360984   0.0000000   0.3601054), wk =   0.0380952
        k(   37) = (   0.3360984   0.1400410   0.0000000), wk =   0.0380952
        k(   38) = (   0.3360984   0.1400410   0.1200351), wk =   0.0761905
        k(   39) = (   0.3360984   0.1400410   0.2400703), wk =   0.0761905
        k(   40) = (   0.3360984   0.1400410   0.3601054), wk =   0.0761905
        k(   41) = (   0.3360984   0.2800820   0.0000000), wk =   0.0380952
        k(   42) = (   0.3360984   0.2800820   0.1200351), wk =   0.0761905
        k(   43) = (   0.3360984   0.2800820   0.2400703), wk =   0.0761905
        k(   44) = (   0.3360984   0.2800820   0.3601054), wk =   0.0761905
        k(   45) = (   0.3360984  -0.4201229   0.0000000), wk =   0.0190476
        k(   46) = (   0.3360984  -0.4201229   0.1200351), wk =   0.0380952
        k(   47) = (   0.3360984  -0.4201229   0.2400703), wk =   0.0380952
        k(   48) = (   0.3360984  -0.4201229   0.3601054), wk =   0.0380952

     Largest allocated arrays     est. size (Mb)     dimensions
     Largest temporary arrays     est. size (Mb)     dimensions

     Initial potential from superposition of free atoms

     Starting from uniform charge
     Starting wfc are    0 randomized atomic wfcs

     Writing output data file Prototype-La-cP8-Cr3Si.save

     Self-consistent Calculation

[...]

     negative rho (up, down):  0.153E-05 0.000E+00

[...]

     iteration # 11     ecut=    40.00 Ry     beta=0.70
     CG style diagonalization
     c_bands:  1 eigenvalues not converged
     ethr =  8.64E-07,  avg # of iterations =  3.2

[...]

     total energy              =   -1205.39464695 Ry
     Harris-Foulkes estimate   =   -1205.39464759 Ry
     estimated scf accuracy    <       0.00000160 Ry

     iteration # 15     ecut=    40.00 Ry     beta=0.70
     CG style diagonalization
     ethr =  1.27E-09,  avg # of iterations =  3.5

     End of self-consistent calculation

[...]

          k = 0.3361-0.4201 0.3601 (  4492 PWs)   bands (ev):

   -38.7999 -38.7905 -38.7643 -38.7641 -38.7386 -38.7289 -13.7738 -13.7736
   -12.0497 -11.9734 -11.7790 -11.7784 -11.6086 -11.5678 -11.5046 -11.5040
   -11.4833 -11.4681 -11.4429 -11.4315 -11.3980 -11.3865 -11.3742 -11.3735
   -11.3615 -11.3594   4.2546   4.2583   4.2736   4.2737   4.2815   4.2825
    18.3914  18.4008  18.5136  18.5939  18.6846  18.6992  19.3736  19.3756
    19.4509  19.4685  19.5542  19.5769  19.6202  19.6420  19.7877  19.9070
    20.7103  20.7150  20.8697  20.9733  21.3908  21.4030  21.9478  22.0690
    22.1259  22.1843  22.4643  22.4867  22.7247  22.8440  24.6816  24.6831
    25.2318  25.2687  25.4022  25.5426  27.0736  27.0851  27.7807  27.9047
    27.9608  28.0536  28.0880  28.1264

     the Fermi energy is    24.0296 ev

!    total energy              =   -1205.39464736 Ry
     Harris-Foulkes estimate   =   -1205.39464737 Ry
     estimated scf accuracy    <       0.00000001 Ry

     The total energy is the sum of the following terms:

     one-electron contribution =     -75.13019256 Ry
     hartree contribution      =     137.41343326 Ry
     xc contribution           =    -130.30051516 Ry
     ewald contribution        =   -1136.90079395 Ry
     smearing contrib. (-TS)   =      -0.47657894 Ry

     convergence has been achieved in  15 iterations

     Forces acting on atoms (Ry/au):

     atom    1 type  1   force =     0.00000000    0.00000000    0.00000000
     atom    2 type  1   force =     0.00000000    0.00000000    0.00000000
     atom    3 type  1   force =     0.00000000    0.00000000    0.00000000
     atom    4 type  1   force =     0.00000000    0.00000000    0.00000000
     atom    5 type  1   force =     0.00000000    0.00000000    0.00000000
     atom    6 type  1   force =     0.00000000    0.00000000    0.00000000
     atom    7 type  2   force =     0.00000000    0.00000000    0.00000000
     atom    8 type  2   force =     0.00000000    0.00000000    0.00000000

     Total force =     0.000000     Total SCF correction =     0.000000

     entering subroutine stress ...

          total   stress  (Ry/bohr**3)                   (kbar)     P=   92.07
   0.00062587   0.00000000   0.00000000         92.07      0.00      0.00
   0.00000000   0.00062587   0.00000000          0.00     92.07      0.00
   0.00000000   0.00000000   0.00062587          0.00      0.00     92.07

     Writing output data file Prototype-La-cP8-Cr3Si.save

     General routines

     Parallel routines

   This run was terminated on:  21:36: 1  22Mar2018

   JOB DONE.