     Program PWSCF v.5.0.2 starts on 22Mar2018 at  0:38:14

     Current dimensions of program PWSCF are:
     Max number of different atomic species (ntypx) = 10
     Max number of k-points (npk) =  40000
     Max angular momentum in pseudopotentials (lmaxx) =  3
     Waiting for input...
     Reading input from standard input

     Subspace diagonalization in iterative solution of the eigenvalue problem:
     a serial algorithm will be used

     bravais-lattice index     =            0
     lattice parameter (alat)  =      13.3930  a.u.
     unit-cell volume          =    1134.0956 (a.u.)^3
     number of atoms/cell      =            4
     number of atomic types    =            2
     number of electrons       =        52.00
     number of Kohn-Sham states=           31
     kinetic-energy cutoff     =      40.0000  Ry
     charge density cutoff     =     160.0000  Ry
     convergence threshold     =      1.0E-04
     mixing beta               =       0.7000
     number of iterations used =            8  plain     mixing
     Exchange-correlation      = SLA-PZ-NOGX-NOGC ( 1 1 0 0 0)
     EXX-fraction              =        0.00
     nstep                     =           50

     celldm(1)=  13.392972  celldm(2)=   0.000000  celldm(3)=   0.000000
     celldm(4)=   0.000000  celldm(5)=   0.000000  celldm(6)=   0.000000

     crystal axes: (cart. coord. in units of alat)
               a(1) = (   1.000000   0.000000   0.000000 )
               a(2) = (  -0.776311   0.630350   0.000000 )
               a(3) = (   0.000000   0.000000   0.748922 )

     reciprocal axes: (cart. coord. in units 2 pi/alat)
               b(1) = (  1.000000  1.231554  0.000000 )
               b(2) = (  0.000000  1.586419  0.000000 )
               b(3) = (  0.000000  0.000000  1.335252 )

     PseudoPot. # 1 for Ce read from file:
     /home/jld5415/pp.La/Ce.UPF
     MD5 check sum: 44451aa79a44a00cf2bc029dc19922f6
     Pseudo is Norm-conserving, Zval = 12.0
     Generated in analytical, separable form
     Using radial grid of 1255 points,  6 beta functions with:
                l(1) =   0
                l(2) =   0
                l(3) =   1
                l(4) =   1
                l(5) =   2
                l(6) =   3

     PseudoPot. # 2 for Nd read from file:
     /home/jld5415/pp.La/Nd.UPF
     MD5 check sum: c66c5b6abe7b5840ced9b1e244e3bed6
     Pseudo is Norm-conserving, Zval = 14.0
     Generated in analytical, separable form
     Using radial grid of 1257 points,  6 beta functions with:
                l(1) =   0
                l(2) =   0
                l(3) =   1
                l(4) =   1
                l(5) =   2
                l(6) =   3

     atomic species   valence    mass     pseudopotential
        Tl            12.00   204.38300     Ce( 1.00)
        I             14.00   126.90400     Nd( 1.00)

      2 Sym. Ops., with inversion, found
          (note:  2 additional sym.ops. were found but ignored
           their fractional translations are incommensurate with FFT grid)

   Cartesian axes

     site n.     atom                  positions (alat units)
         1           Tl  tau(   1) = (  -0.0906317   0.3870269   0.5616917  )
         2           Tl  tau(   2) = (   0.3143210   0.2433234   0.1872306  )
         3           I   tau(   3) = (  -0.5408004   0.5467760   0.5616917  )
         4           I   tau(   4) = (   0.7644896   0.0835744   0.1872306  )

     number of k points=   106  gaussian smearing, width (Ry)=  0.1000

     Number of k-points >= 100: set verbosity='high' to print them.

     Largest allocated arrays     est. size (Mb)     dimensions
     Largest temporary arrays     est. size (Mb)     dimensions

     Initial potential from superposition of free atoms

     Starting from uniform charge
     Starting wfc are    0 randomized atomic wfcs

     Self-consistent Calculation

     iteration #  1     ecut=    40.00 Ry     beta=0.70
     CG style diagonalization
     c_bands:  1 eigenvalues not converged
     c_bands:  1 eigenvalues not converged
     c_bands:  1 eigenvalues not converged
     c_bands:  1 eigenvalues not converged
     ethr =  1.00E-02,  avg # of iterations = 11.5

     total energy              =    -329.88859902 Ry
     Harris-Foulkes estimate   =    -468.59448511 Ry
     estimated scf accuracy    <     183.22085025 Ry

[...]

     iteration #  3     ecut=    40.00 Ry     beta=0.70
     CG style diagonalization
     ethr =  1.00E-02,  avg # of iterations =  8.5

[...]

     End of self-consistent calculation

     Number of k-points >= 100: set verbosity='high' to print the bands.

     the Fermi energy is     9.2951 ev

!    total energy              =    -374.94488548 Ry
     Harris-Foulkes estimate   =    -374.94493949 Ry
     estimated scf accuracy    <       0.00005966 Ry

     The total energy is the sum of the following terms:

     one-electron contribution =     -95.36564350 Ry
     hartree contribution      =      60.61706056 Ry
     xc contribution           =     -44.46068948 Ry
     ewald contribution        =    -295.24030871 Ry
     smearing contrib. (-TS)   =      -0.49530436 Ry

     convergence has been achieved in  12 iterations

     Forces acting on atoms (Ry/au):

     atom    1 type  1   force =    -0.00605381    0.00212684   -0.00030831
     atom    2 type  1   force =     0.00605381   -0.00212684    0.00030831
     atom    3 type  2   force =    -0.01151894    0.00410554   -0.00044173
     atom    4 type  2   force =     0.01151894   -0.00410554    0.00044173

     Total force =     0.019545     Total SCF correction =     0.000000

     entering subroutine stress ...

          total   stress  (Ry/bohr**3)                   (kbar)     P= -192.44
  -0.00130145  -0.00002160  -0.00000011       -191.45     -3.18     -0.02
  -0.00002160  -0.00135380   0.00000010         -3.18   -199.15      0.02
  -0.00000011   0.00000010  -0.00126922         -0.02      0.02   -186.71

     BFGS Geometry Optimization

     number of scf cycles    =   1
     number of bfgs steps    =   0

     enthalpy new            =    -374.9448854818 Ry

     new trust radius        =       0.2279846764 bohr
     new conv_thr            =       0.0001000000 Ry

     new unit-cell volume =   1026.42498 a.u.^3 (   152.10049 Ang^3 )

CELL_PARAMETERS (alat= 13.39297219)
   0.967463765  -0.000540042  -0.000002848
  -0.751392937   0.609435374   0.000003820
  -0.000002133   0.000001912   0.725158499

ATOMIC_POSITIONS (crystal)
Tl       0.385756560   0.614238928   0.749969262
Tl       0.614243440   0.385761072   0.250030738
I        0.132101452   0.867902308   0.749955960
I        0.867898548   0.132097692   0.250044040

     Writing output data file Prototype-La-oS8-TlI.save
     NEW-OLD atomic charge density approx. for the potential
     NEW k-points: (use verbosity='high' to print them)

[...]

     enthalpy old            =    -374.9448854818 Ry
     enthalpy new            =    -375.0819996699 Ry

     CASE: enthalpy_new < enthalpy_old

     WARNING: bfgs curvature condition failed, Theta= 0.932
     small trust_radius: resetting bfgs history

[...]

     number of scf cycles    =   3
     number of bfgs steps    =   2

     enthalpy old            =    -375.0819996699 Ry
     enthalpy new            =    -375.1848539416 Ry

     CASE: enthalpy_new < enthalpy_old

     WARNING: bfgs curvature condition failed, Theta= 0.978
     Message from routine bfgs:
     history already reset at previous step: stopping
     small trust_radius: resetting bfgs history

     new trust radius        =       0.1774184399 bohr
     new conv_thr            =       0.0000263914 Ry

     new unit-cell volume =    865.92702 a.u.^3 (   128.31714 Ang^3 )

[...]

ATOMIC_POSITIONS (crystal)
Tl       0.386295751   0.613753680   0.749414951
Tl       0.613704249   0.386246320   0.250585049
I        0.129897431   0.870261397   0.749136710
I        0.870102569   0.129738603   0.250863290

     Writing output data file Prototype-La-oS8-TlI.save
     NEW-OLD atomic charge density approx. for the potential
     NEW k-points: (use verbosity='high' to print them)

[...]

     The maximum number of steps has been reached.

     End of BFGS Geometry Optimization
Begin final coordinates
     new unit-cell volume =    865.92702 a.u.^3 (   128.31714 Ang^3 )

CELL_PARAMETERS (alat= 13.39297219)
   0.914847077  -0.002700553   0.000001576
  -0.711907938   0.574617318  -0.000003190
   0.000001196  -0.000002380   0.688199556

ATOMIC_POSITIONS (crystal)
Tl       0.386295751   0.613753680   0.749414951
Tl       0.613704249   0.386246320   0.250585049
I        0.129897431   0.870261397   0.749136710
I        0.870102569   0.129738603   0.250863290
End final coordinates

     A final scf calculation at the relaxed structure.
     The G-vectors are recalculated for the final unit cell
     Results may differ from those at the preceding step.

     bravais-lattice index     =            0
     lattice parameter (alat)  =      13.3930  a.u.
     unit-cell volume          =     865.9270 (a.u.)^3
     number of atoms/cell      =            4
     number of atomic types    =            2
     number of electrons       =        52.00
     number of Kohn-Sham states=           31
     kinetic-energy cutoff     =      40.0000  Ry
     charge density cutoff     =     160.0000  Ry
     convergence threshold     =      2.6E-05
     mixing beta               =       0.7000
     number of iterations used =            8  plain     mixing
     Exchange-correlation      = SLA-PZ-NOGX-NOGC ( 1 1 0 0 0)
     EXX-fraction              =        0.00

     celldm(1)=  13.392972  celldm(2)=   0.000000  celldm(3)=   0.000000
     celldm(4)=   0.000000  celldm(5)=   0.000000  celldm(6)=   0.000000

     crystal axes: (cart. coord. in units of alat)
               a(1) = (   0.914847  -0.002701   0.000002 )
               a(2) = (  -0.711908   0.574617  -0.000003 )
               a(3) = (   0.000001  -0.000002   0.688200 )

     reciprocal axes: (cart. coord. in units 2 pi/alat)
               b(1) = (  1.097091  1.359214  0.000003 )
               b(2) = (  0.005156  1.746677  0.000006 )
               b(3) = ( -0.000002  0.000005  1.453067 )

     PseudoPot. # 1 for Ce read from file:
     /home/jld5415/pp.La/Ce.UPF
     MD5 check sum: 44451aa79a44a00cf2bc029dc19922f6
     Pseudo is Norm-conserving, Zval = 12.0
     Generated in analytical, separable form
     Using radial grid of 1255 points,  6 beta functions with:
                l(1) =   0
                l(2) =   0
                l(3) =   1
                l(4) =   1
                l(5) =   2
                l(6) =   3

     PseudoPot. # 2 for Nd read from file:
     /home/jld5415/pp.La/Nd.UPF
     MD5 check sum: c66c5b6abe7b5840ced9b1e244e3bed6
     Pseudo is Norm-conserving, Zval = 14.0
     Generated in analytical, separable form
     Using radial grid of 1257 points,  6 beta functions with:
                l(1) =   0
                l(2) =   0
                l(3) =   1
                l(4) =   1
                l(5) =   2
                l(6) =   3

     atomic species   valence    mass     pseudopotential
        Tl            12.00   204.38300     Ce( 1.00)
        I             14.00   126.90400     Nd( 1.00)

      2 Sym. Ops., with inversion, found
          (note:  2 additional sym.ops. were found but ignored
           their fractional translations are incommensurate with FFT grid)

   Cartesian axes

     site n.     atom                  positions (alat units)
         1           Tl  tau(   1) = (  -0.0835337   0.3516285   0.5157457  )
         2           Tl  tau(   2) = (   0.2864740   0.2202859   0.1724523  )
         3           I   tau(   3) = (  -0.5007088   0.4997147   0.5155530  )
         4           I   tau(   4) = (   0.7036491   0.0721997   0.1726450  )

     number of k points=   106  gaussian smearing, width (Ry)=  0.1000

     Number of k-points >= 100: set verbosity='high' to print them.

     Largest allocated arrays     est. size (Mb)     dimensions
     Largest temporary arrays     est. size (Mb)     dimensions

     Initial potential from superposition of free atoms

     Starting from uniform charge
     Starting wfc are    0 randomized atomic wfcs

     Writing output data file Prototype-La-oS8-TlI.save

     Self-consistent Calculation

[...]

     iteration #  5     ecut=    40.00 Ry     beta=0.70
     CG style diagonalization
     ethr =  4.89E-03,  avg # of iterations =  3.9

[...]

     total energy              =    -375.20899458 Ry
     Harris-Foulkes estimate   =    -375.20901569 Ry
     estimated scf accuracy    <       0.00008722 Ry

     iteration # 11     ecut=    40.00 Ry     beta=0.70
     CG style diagonalization
     c_bands:  1 eigenvalues not converged
     c_bands:  1 eigenvalues not converged
     c_bands:  1 eigenvalues not converged
     c_bands:  1 eigenvalues not converged
     c_bands:  1 eigenvalues not converged
     ethr =  1.68E-07,  avg # of iterations =  3.3

     End of self-consistent calculation

     Number of k-points >= 100: set verbosity='high' to print the bands.

     the Fermi energy is    13.1952 ev

!    total energy              =    -375.20898340 Ry
     Harris-Foulkes estimate   =    -375.20900355 Ry
     estimated scf accuracy    <       0.00002175 Ry

     The total energy is the sum of the following terms:

     one-electron contribution =     -55.03898942 Ry
     hartree contribution      =      48.53865401 Ry
     xc contribution           =     -45.26187685 Ry
     ewald contribution        =    -323.06476466 Ry
     smearing contrib. (-TS)   =      -0.38200648 Ry

     convergence has been achieved in  11 iterations

     Forces acting on atoms (Ry/au):

     atom    1 type  1   force =     0.00702200   -0.00258241    0.00074425
     atom    2 type  1   force =    -0.00702200    0.00258241   -0.00074425
     atom    3 type  2   force =    -0.03293191    0.01160568    0.00037437
     atom    4 type  2   force =     0.03293191   -0.01160568   -0.00037437

     Total force =     0.050515     Total SCF correction =     0.000000

     entering subroutine stress ...

          total   stress  (Ry/bohr**3)                   (kbar)     P= -160.70
  -0.00107840  -0.00007406   0.00000089       -158.64    -10.90      0.13
  -0.00007406  -0.00125974  -0.00000043        -10.90   -185.31     -0.06
   0.00000089  -0.00000043  -0.00093905          0.13     -0.06   -138.14

     Writing output data file Prototype-La-oS8-TlI.save

     General routines

     Parallel routines

   This run was terminated on:   1:11:54  22Mar2018

   JOB DONE.