     Program PWSCF v.5.0.2 starts on 22Mar2018 at  0:36:55

     Current dimensions of program PWSCF are:
     Max number of different atomic species (ntypx) = 10
     Max number of k-points (npk) =  40000
     Max angular momentum in pseudopotentials (lmaxx) =  3
     Waiting for input...
     Reading input from standard input

     Subspace diagonalization in iterative solution of the eigenvalue problem:
     a serial algorithm will be used

     bravais-lattice index     =            0
     lattice parameter (alat)  =      12.0168  a.u.
     unit-cell volume          =    1187.3413 (a.u.)^3
     number of atoms/cell      =            8
     number of atomic types    =            2
     number of electrons       =       100.00
     number of Kohn-Sham states=           60
     kinetic-energy cutoff     =      40.0000  Ry
     charge density cutoff     =     160.0000  Ry
     convergence threshold     =      1.0E-04
     mixing beta               =       0.7000
     number of iterations used =            8  plain     mixing
     Exchange-correlation      = SLA-PZ-NOGX-NOGC ( 1 1 0 0 0)
     EXX-fraction              =        0.00
     nstep                     =           50

     celldm(1)=  12.016801  celldm(2)=   0.000000  celldm(3)=   0.000000
     celldm(4)=   0.000000  celldm(5)=   0.000000  celldm(6)=   0.000000

     crystal axes: (cart. coord. in units of alat)
               a(1) = (   1.000000   0.000000   0.000000 )
               a(2) = (  -0.500000   0.866025   0.000000 )
               a(3) = (   0.000000   0.000000   0.790093 )

     reciprocal axes: (cart. coord. in units 2 pi/alat)
               b(1) = (  1.000000  0.577350  0.000000 )
               b(2) = (  0.000000  1.154701  0.000000 )
               b(3) = (  0.000000  0.000000  1.265674 )

     PseudoPot. # 1 for Ce read from file:
     /home/jld5415/pp.La/Ce.UPF
     MD5 check sum: 44451aa79a44a00cf2bc029dc19922f6
     Pseudo is Norm-conserving, Zval = 12.0
     Generated in analytical, separable form
     Using radial grid of 1255 points,  6 beta functions with:
                l(1) =   0
                l(2) =   0
                l(3) =   1
                l(4) =   1
                l(5) =   2
                l(6) =   3

     PseudoPot. # 2 for Nd read from file:
     /home/jld5415/pp.La/Nd.UPF
     MD5 check sum: c66c5b6abe7b5840ced9b1e244e3bed6
     Pseudo is Norm-conserving, Zval = 14.0
     Generated in analytical, separable form
     Using radial grid of 1257 points,  6 beta functions with:
                l(1) =   0
                l(2) =   0
                l(3) =   1
                l(4) =   1
                l(5) =   2
                l(6) =   3

     atomic species   valence    mass     pseudopotential
        Mg            12.00    24.30500     Ce( 1.00)
        Cd            14.00   112.41100     Nd( 1.00)

     24 Sym. Ops., with inversion, found (12 have fractional translation)

   Cartesian axes

     site n.     atom                  positions (alat units)
         1           Mg  tau(   1) = (   0.2478935   0.7204716   0.1975233  )
         2           Mg  tau(   2) = (   0.7478935   0.1455538   0.5925699  )
         3           Mg  tau(   3) = (   0.2521065   0.1455538   0.5925699  )
         4           Mg  tau(   4) = (  -0.2478935   0.7204716   0.1975233  )
         5           Mg  tau(   5) = (   0.0000000   0.2911075   0.1975233  )
         6           Mg  tau(   6) = (   0.5000000   0.5749179   0.5925699  )
         7           Cd  tau(   7) = (   0.5000005   0.2886748   0.1975233  )
         8           Cd  tau(   8) = (  -0.0000005   0.5773506   0.5925699  )

     number of k points=    64  gaussian smearing, width (Ry)=  0.1000
                       cart. coord. in units 2pi/alat
        k(    1) = (   0.0000000   0.0000000   0.0000000), wk =   0.0095238
        k(    2) = (   0.0000000   0.0000000   0.1808105), wk =   0.0190476
        k(    3) = (   0.0000000   0.0000000   0.3616210), wk =   0.0190476
        k(    4) = (   0.0000000   0.0000000   0.5424315), wk =   0.0190476
        k(    5) = (   0.0000000   0.1924501   0.0000000), wk =   0.0190476
        k(    6) = (   0.0000000   0.1924501   0.1808105), wk =   0.0380952
        k(    7) = (   0.0000000   0.1924501   0.3616210), wk =   0.0380952
        k(    8) = (   0.0000000   0.1924501   0.5424315), wk =   0.0380952
        k(    9) = (   0.0000000   0.3849002   0.0000000), wk =   0.0190476
        k(   10) = (   0.0000000   0.3849002   0.1808105), wk =   0.0380952
        k(   11) = (   0.0000000   0.3849002   0.3616210), wk =   0.0380952
        k(   12) = (   0.0000000   0.3849002   0.5424315), wk =   0.0380952
        k(   13) = (   0.0000000  -0.5773503   0.0000000), wk =   0.0095238
        k(   14) = (   0.0000000  -0.5773503   0.1808105), wk =   0.0190476
        k(   15) = (   0.0000000  -0.5773503   0.3616210), wk =   0.0190476
        k(   16) = (   0.0000000  -0.5773503   0.5424315), wk =   0.0190476
        k(   17) = (   0.2000000   0.1154701   0.0000000), wk =   0.0190476
        k(   18) = (   0.2000000   0.1154701   0.1808105), wk =   0.0380952
        k(   19) = (   0.2000000   0.1154701   0.3616210), wk =   0.0380952
        k(   20) = (   0.2000000   0.1154701   0.5424315), wk =   0.0380952
        k(   21) = (   0.2000000   0.3079201   0.0000000), wk =   0.0190476
        k(   22) = (   0.2000000   0.3079201   0.1808105), wk =   0.0380952
        k(   23) = (   0.2000000   0.3079201   0.3616210), wk =   0.0380952
        k(   24) = (   0.2000000   0.3079201   0.5424315), wk =   0.0380952
        k(   25) = (   0.2000000   0.5003702   0.0000000), wk =   0.0190476
        k(   26) = (   0.2000000   0.5003702   0.1808105), wk =   0.0380952
        k(   27) = (   0.2000000   0.5003702   0.3616210), wk =   0.0380952
        k(   28) = (   0.2000000   0.5003702   0.5424315), wk =   0.0380952
        k(   29) = (   0.2000000  -0.4618802   0.0000000), wk =   0.0190476
        k(   30) = (   0.2000000  -0.4618802   0.1808105), wk =   0.0380952
        k(   31) = (   0.2000000  -0.4618802   0.3616210), wk =   0.0380952
        k(   32) = (   0.2000000  -0.4618802   0.5424315), wk =   0.0380952
        k(   33) = (   0.2000000  -0.2694301   0.0000000), wk =   0.0190476
        k(   34) = (   0.2000000  -0.2694301   0.1808105), wk =   0.0380952
        k(   35) = (   0.2000000  -0.2694301   0.3616210), wk =   0.0380952
        k(   36) = (   0.2000000  -0.2694301   0.5424315), wk =   0.0380952
        k(   37) = (   0.2000000  -0.0769800   0.0000000), wk =   0.0190476
        k(   38) = (   0.2000000  -0.0769800   0.1808105), wk =   0.0380952
        k(   39) = (   0.2000000  -0.0769800   0.3616210), wk =   0.0380952
        k(   40) = (   0.2000000  -0.0769800   0.5424315), wk =   0.0380952
        k(   41) = (   0.4000000   0.2309401   0.0000000), wk =   0.0190476
        k(   42) = (   0.4000000   0.2309401   0.1808105), wk =   0.0380952
        k(   43) = (   0.4000000   0.2309401   0.3616210), wk =   0.0380952
        k(   44) = (   0.4000000   0.2309401   0.5424315), wk =   0.0380952
        k(   45) = (   0.4000000   0.4233902   0.0000000), wk =   0.0190476
        k(   46) = (   0.4000000   0.4233902   0.1808105), wk =   0.0380952
        k(   47) = (   0.4000000   0.4233902   0.3616210), wk =   0.0380952
        k(   48) = (   0.4000000   0.4233902   0.5424315), wk =   0.0380952
        k(   49) = (   0.4000000   0.6158403   0.0000000), wk =   0.0190476
        k(   50) = (   0.4000000   0.6158403   0.1808105), wk =   0.0380952
        k(   51) = (   0.4000000   0.6158403   0.3616210), wk =   0.0380952
        k(   52) = (   0.4000000   0.6158403   0.5424315), wk =   0.0380952
        k(   53) = (   0.4000000  -0.3464102   0.0000000), wk =   0.0190476
        k(   54) = (   0.4000000  -0.3464102   0.1808105), wk =   0.0380952
        k(   55) = (   0.4000000  -0.3464102   0.3616210), wk =   0.0380952
        k(   56) = (   0.4000000  -0.3464102   0.5424315), wk =   0.0380952
        k(   57) = (   0.4000000  -0.1539601   0.0000000), wk =   0.0190476
        k(   58) = (   0.4000000  -0.1539601   0.1808105), wk =   0.0380952
        k(   59) = (   0.4000000  -0.1539601   0.3616210), wk =   0.0380952
        k(   60) = (   0.4000000  -0.1539601   0.5424315), wk =   0.0380952
        k(   61) = (   0.4000000   0.0384900   0.0000000), wk =   0.0190476
        k(   62) = (   0.4000000   0.0384900   0.1808105), wk =   0.0380952
        k(   63) = (   0.4000000   0.0384900   0.3616210), wk =   0.0380952
        k(   64) = (   0.4000000   0.0384900   0.5424315), wk =   0.0380952

     Largest allocated arrays     est. size (Mb)     dimensions
     Largest temporary arrays     est. size (Mb)     dimensions

     Initial potential from superposition of free atoms

     Starting from uniform charge
     Starting wfc are    0 randomized atomic wfcs

     Self-consistent Calculation

     iteration #  1     ecut=    40.00 Ry     beta=0.70
     CG style diagonalization
     ethr =  1.00E-02,  avg # of iterations = 14.9

     total energy              =    -517.52401103 Ry
     Harris-Foulkes estimate   =    -765.40491495 Ry
     estimated scf accuracy    <     315.56457464 Ry

     iteration #  2     ecut=    40.00 Ry     beta=0.70
     CG style diagonalization
     c_bands:  1 eigenvalues not converged
     c_bands:  1 eigenvalues not converged
     c_bands:  1 eigenvalues not converged
     c_bands:  1 eigenvalues not converged
     c_bands:  2 eigenvalues not converged
     c_bands:  1 eigenvalues not converged
     c_bands:  1 eigenvalues not converged
     c_bands:  1 eigenvalues not converged
     c_bands:  1 eigenvalues not converged
     c_bands:  1 eigenvalues not converged
     c_bands:  1 eigenvalues not converged
     c_bands:  2 eigenvalues not converged
     c_bands:  1 eigenvalues not converged
     c_bands:  2 eigenvalues not converged
     c_bands:  1 eigenvalues not converged
     c_bands:  1 eigenvalues not converged
     c_bands:  1 eigenvalues not converged
     c_bands:  1 eigenvalues not converged
     c_bands:  1 eigenvalues not converged
     c_bands:  2 eigenvalues not converged
     c_bands:  2 eigenvalues not converged
     c_bands:  2 eigenvalues not converged
     c_bands:  1 eigenvalues not converged
     c_bands:  1 eigenvalues not converged
     c_bands:  1 eigenvalues not converged
     c_bands:  1 eigenvalues not converged
     c_bands:  1 eigenvalues not converged
     c_bands:  1 eigenvalues not converged
     c_bands:  2 eigenvalues not converged
     c_bands:  1 eigenvalues not converged
     c_bands:  1 eigenvalues not converged
     c_bands:  2 eigenvalues not converged
     ethr =  1.00E-02,  avg # of iterations = 10.7

[...]

     End of self-consistent calculation

          k = 0.0000 0.0000 0.0000 (  5047 PWs)   bands (ev):

   -26.7622 -26.7529 -17.3976 -16.8939 -16.8939 -16.8157 -16.5998 -16.5997
    -5.3673  -5.3018  -5.3018  -5.2564  -5.2026  -5.2026  -0.7203  -0.2346
    -0.0181   0.4811   0.4811   0.5705   0.5706   0.6220   0.6220   1.2964
     1.7351   1.7352   2.1990   2.1990   2.2979   2.2979   2.3298   2.3335
[...]
        k(   19) = (   0.1925550   0.1111717   0.3414870), wk =   0.0380952
        k(   20) = (   0.1925550   0.1111717   0.5122305), wk =   0.0380952
        k(   21) = (   0.1925550   0.2964578   0.0000000), wk =   0.0190476
        k(   22) = (   0.1925550   0.2964578   0.1707435), wk =   0.0380952
        k(   23) = (   0.1925550   0.2964578   0.3414870), wk =   0.0380952
        k(   24) = (   0.1925550   0.2964578   0.5122305), wk =   0.0380952
        k(   25) = (   0.1925550   0.4817439   0.0000000), wk =   0.0190476
        k(   26) = (   0.1925550   0.4817439   0.1707435), wk =   0.0380952
        k(   27) = (   0.1925550   0.4817439   0.3414870), wk =   0.0380952
        k(   28) = (   0.1925550   0.4817439   0.5122305), wk =   0.0380952
        k(   29) = (   0.1925550  -0.4446866   0.0000000), wk =   0.0190476
        k(   30) = (   0.1925550  -0.4446866   0.1707435), wk =   0.0380952
        k(   31) = (   0.1925550  -0.4446866   0.3414870), wk =   0.0380952
        k(   32) = (   0.1925550  -0.4446866   0.5122305), wk =   0.0380952
        k(   33) = (   0.1925550  -0.2594005   0.0000000), wk =   0.0190476
        k(   34) = (   0.1925550  -0.2594005   0.1707435), wk =   0.0380952
        k(   35) = (   0.1925550  -0.2594005   0.3414870), wk =   0.0380952
        k(   36) = (   0.1925550  -0.2594005   0.5122305), wk =   0.0380952
        k(   37) = (   0.1925550  -0.0741144   0.0000000), wk =   0.0190476
        k(   38) = (   0.1925550  -0.0741144   0.1707435), wk =   0.0380952
        k(   39) = (   0.1925550  -0.0741144   0.3414870), wk =   0.0380952
        k(   40) = (   0.1925550  -0.0741144   0.5122305), wk =   0.0380952
        k(   41) = (   0.3851099   0.2223433   0.0000000), wk =   0.0190476
        k(   42) = (   0.3851099   0.2223433   0.1707435), wk =   0.0380952
        k(   43) = (   0.3851099   0.2223433   0.3414870), wk =   0.0380952
        k(   44) = (   0.3851099   0.2223433   0.5122305), wk =   0.0380952
        k(   45) = (   0.3851099   0.4076294   0.0000000), wk =   0.0190476
        k(   46) = (   0.3851099   0.4076294   0.1707435), wk =   0.0380952
        k(   47) = (   0.3851099   0.4076294   0.3414870), wk =   0.0380952
        k(   48) = (   0.3851099   0.4076294   0.5122305), wk =   0.0380952
        k(   49) = (   0.3851099   0.5929155   0.0000000), wk =   0.0190476
        k(   50) = (   0.3851099   0.5929155   0.1707435), wk =   0.0380952
        k(   51) = (   0.3851099   0.5929155   0.3414870), wk =   0.0380952
        k(   52) = (   0.3851099   0.5929155   0.5122305), wk =   0.0380952
        k(   53) = (   0.3851099  -0.3335150   0.0000000), wk =   0.0190476
        k(   54) = (   0.3851099  -0.3335150   0.1707435), wk =   0.0380952
        k(   55) = (   0.3851099  -0.3335150   0.3414870), wk =   0.0380952
        k(   56) = (   0.3851099  -0.3335150   0.5122305), wk =   0.0380952
        k(   57) = (   0.3851099  -0.1482289   0.0000000), wk =   0.0190476
        k(   58) = (   0.3851099  -0.1482289   0.1707435), wk =   0.0380952
        k(   59) = (   0.3851099  -0.1482289   0.3414870), wk =   0.0380952
        k(   60) = (   0.3851099  -0.1482289   0.5122305), wk =   0.0380952
        k(   61) = (   0.3851099   0.0370572   0.0000000), wk =   0.0190476
        k(   62) = (   0.3851099   0.0370572   0.1707435), wk =   0.0380952
        k(   63) = (   0.3851099   0.0370572   0.3414870), wk =   0.0380952
        k(   64) = (   0.3851099   0.0370572   0.5122305), wk =   0.0380952

[...]

     The maximum number of steps has been reached.

     End of BFGS Geometry Optimization
Begin final coordinates
     new unit-cell volume =   1356.45565 a.u.^3 (   201.00599 Ang^3 )

CELL_PARAMETERS (alat= 12.01680127)
   1.038664467   0.000000000   0.000000000
  -0.519332234   0.899509815   0.000000000
   0.000000000   0.000000000   0.836676907

ATOMIC_POSITIONS (crystal)
Mg       0.661044996   0.830522498   0.250000000
Mg       0.830522498   0.169477502   0.750000000
Mg       0.338955004   0.169477502   0.750000000
Mg       0.169477502   0.830522498   0.250000000
Mg       0.169477502   0.338955004   0.250000000
Mg       0.830522498   0.661044996   0.750000000
Cd       0.666667000   0.333333000   0.250000000
Cd       0.333333000   0.666667000   0.750000000
End final coordinates

     A final scf calculation at the relaxed structure.
     The G-vectors are recalculated for the final unit cell
     Results may differ from those at the preceding step.

     bravais-lattice index     =            0
     lattice parameter (alat)  =      12.0168  a.u.
     unit-cell volume          =    1356.4557 (a.u.)^3
     number of atoms/cell      =            8
     number of atomic types    =            2
     number of electrons       =       100.00
     number of Kohn-Sham states=           60
     kinetic-energy cutoff     =      40.0000  Ry
     charge density cutoff     =     160.0000  Ry
     convergence threshold     =      7.0E-06
     mixing beta               =       0.7000
     number of iterations used =            8  plain     mixing
     Exchange-correlation      = SLA-PZ-NOGX-NOGC ( 1 1 0 0 0)
     EXX-fraction              =        0.00

     celldm(1)=  12.016801  celldm(2)=   0.000000  celldm(3)=   0.000000
     celldm(4)=   0.000000  celldm(5)=   0.000000  celldm(6)=   0.000000

     crystal axes: (cart. coord. in units of alat)
               a(1) = (   1.038664   0.000000   0.000000 )
               a(2) = (  -0.519332   0.899510   0.000000 )
               a(3) = (   0.000000   0.000000   0.836677 )

     reciprocal axes: (cart. coord. in units 2 pi/alat)
               b(1) = (  0.962775  0.555858  0.000000 )
               b(2) = (  0.000000  1.111717  0.000000 )
               b(3) = (  0.000000  0.000000  1.195204 )

     PseudoPot. # 1 for Ce read from file:
     /home/jld5415/pp.La/Ce.UPF
     MD5 check sum: 44451aa79a44a00cf2bc029dc19922f6
     Pseudo is Norm-conserving, Zval = 12.0
     Generated in analytical, separable form
     Using radial grid of 1255 points,  6 beta functions with:
                l(1) =   0
                l(2) =   0
                l(3) =   1
                l(4) =   1
                l(5) =   2
                l(6) =   3

     PseudoPot. # 2 for Nd read from file:
     /home/jld5415/pp.La/Nd.UPF
     MD5 check sum: c66c5b6abe7b5840ced9b1e244e3bed6
     Pseudo is Norm-conserving, Zval = 14.0
     Generated in analytical, separable form
     Using radial grid of 1257 points,  6 beta functions with:
                l(1) =   0
                l(2) =   0
                l(3) =   1
                l(4) =   1
                l(5) =   2
                l(6) =   3

     atomic species   valence    mass     pseudopotential
        Mg            12.00    24.30500     Ce( 1.00)
        Cd            14.00   112.41100     Nd( 1.00)

     24 Sym. Ops., with inversion, found (12 have fractional translation)

   Cartesian axes

     site n.     atom                  positions (alat units)
         1           Mg  tau(   1) = (   0.2552868   0.7470631   0.2091692  )
         2           Mg  tau(   2) = (   0.7746191   0.1524467   0.6275077  )
         3           Mg  tau(   3) = (   0.2640454   0.1524467   0.6275077  )
         4           Mg  tau(   4) = (  -0.2552868   0.7470631   0.2091692  )
         5           Mg  tau(   5) = (   0.0000000   0.3048934   0.2091692  )
         6           Mg  tau(   6) = (   0.5193322   0.5946165   0.6275077  )
         7           Cd  tau(   7) = (   0.5193328   0.2998363   0.2091692  )
         8           Cd  tau(   8) = (  -0.0000005   0.5996735   0.6275077  )

     number of k points=    64  gaussian smearing, width (Ry)=  0.1000
                       cart. coord. in units 2pi/alat
        k(    1) = (   0.0000000   0.0000000   0.0000000), wk =   0.0095238
        k(    2) = (   0.0000000   0.0000000   0.1707435), wk =   0.0190476
        k(    3) = (   0.0000000   0.0000000   0.3414870), wk =   0.0190476
        k(    4) = (   0.0000000   0.0000000   0.5122305), wk =   0.0190476
        k(    5) = (   0.0000000   0.1852861   0.0000000), wk =   0.0190476
        k(    6) = (   0.0000000   0.1852861   0.1707435), wk =   0.0380952
        k(    7) = (   0.0000000   0.1852861   0.3414870), wk =   0.0380952
        k(    8) = (   0.0000000   0.1852861   0.5122305), wk =   0.0380952
        k(    9) = (   0.0000000   0.3705722   0.0000000), wk =   0.0190476
        k(   10) = (   0.0000000   0.3705722   0.1707435), wk =   0.0380952
        k(   11) = (   0.0000000   0.3705722   0.3414870), wk =   0.0380952
        k(   12) = (   0.0000000   0.3705722   0.5122305), wk =   0.0380952
        k(   13) = (   0.0000000  -0.5558583   0.0000000), wk =   0.0095238
        k(   14) = (   0.0000000  -0.5558583   0.1707435), wk =   0.0190476
        k(   15) = (   0.0000000  -0.5558583   0.3414870), wk =   0.0190476
        k(   16) = (   0.0000000  -0.5558583   0.5122305), wk =   0.0190476
        k(   17) = (   0.1925550   0.1111717   0.0000000), wk =   0.0190476
        k(   18) = (   0.1925550   0.1111717   0.1707435), wk =   0.0380952
        k(   19) = (   0.1925550   0.1111717   0.3414870), wk =   0.0380952
        k(   20) = (   0.1925550   0.1111717   0.5122305), wk =   0.0380952
        k(   21) = (   0.1925550   0.2964578   0.0000000), wk =   0.0190476
        k(   22) = (   0.1925550   0.2964578   0.1707435), wk =   0.0380952
        k(   23) = (   0.1925550   0.2964578   0.3414870), wk =   0.0380952
        k(   24) = (   0.1925550   0.2964578   0.5122305), wk =   0.0380952
        k(   25) = (   0.1925550   0.4817439   0.0000000), wk =   0.0190476
        k(   26) = (   0.1925550   0.4817439   0.1707435), wk =   0.0380952
        k(   27) = (   0.1925550   0.4817439   0.3414870), wk =   0.0380952
        k(   28) = (   0.1925550   0.4817439   0.5122305), wk =   0.0380952
        k(   29) = (   0.1925550  -0.4446866   0.0000000), wk =   0.0190476
        k(   30) = (   0.1925550  -0.4446866   0.1707435), wk =   0.0380952
        k(   31) = (   0.1925550  -0.4446866   0.3414870), wk =   0.0380952
        k(   32) = (   0.1925550  -0.4446866   0.5122305), wk =   0.0380952
        k(   33) = (   0.1925550  -0.2594005   0.0000000), wk =   0.0190476
        k(   34) = (   0.1925550  -0.2594005   0.1707435), wk =   0.0380952
        k(   35) = (   0.1925550  -0.2594005   0.3414870), wk =   0.0380952
        k(   36) = (   0.1925550  -0.2594005   0.5122305), wk =   0.0380952
        k(   37) = (   0.1925550  -0.0741144   0.0000000), wk =   0.0190476
        k(   38) = (   0.1925550  -0.0741144   0.1707435), wk =   0.0380952
        k(   39) = (   0.1925550  -0.0741144   0.3414870), wk =   0.0380952
        k(   40) = (   0.1925550  -0.0741144   0.5122305), wk =   0.0380952
        k(   41) = (   0.3851099   0.2223433   0.0000000), wk =   0.0190476
        k(   42) = (   0.3851099   0.2223433   0.1707435), wk =   0.0380952
        k(   43) = (   0.3851099   0.2223433   0.3414870), wk =   0.0380952
        k(   44) = (   0.3851099   0.2223433   0.5122305), wk =   0.0380952
        k(   45) = (   0.3851099   0.4076294   0.0000000), wk =   0.0190476
        k(   46) = (   0.3851099   0.4076294   0.1707435), wk =   0.0380952
        k(   47) = (   0.3851099   0.4076294   0.3414870), wk =   0.0380952
        k(   48) = (   0.3851099   0.4076294   0.5122305), wk =   0.0380952
        k(   49) = (   0.3851099   0.5929155   0.0000000), wk =   0.0190476
        k(   50) = (   0.3851099   0.5929155   0.1707435), wk =   0.0380952
        k(   51) = (   0.3851099   0.5929155   0.3414870), wk =   0.0380952
        k(   52) = (   0.3851099   0.5929155   0.5122305), wk =   0.0380952
        k(   53) = (   0.3851099  -0.3335150   0.0000000), wk =   0.0190476
        k(   54) = (   0.3851099  -0.3335150   0.1707435), wk =   0.0380952
        k(   55) = (   0.3851099  -0.3335150   0.3414870), wk =   0.0380952
        k(   56) = (   0.3851099  -0.3335150   0.5122305), wk =   0.0380952
        k(   57) = (   0.3851099  -0.1482289   0.0000000), wk =   0.0190476
        k(   58) = (   0.3851099  -0.1482289   0.1707435), wk =   0.0380952
        k(   59) = (   0.3851099  -0.1482289   0.3414870), wk =   0.0380952
        k(   60) = (   0.3851099  -0.1482289   0.5122305), wk =   0.0380952
        k(   61) = (   0.3851099   0.0370572   0.0000000), wk =   0.0190476
        k(   62) = (   0.3851099   0.0370572   0.1707435), wk =   0.0380952
        k(   63) = (   0.3851099   0.0370572   0.3414870), wk =   0.0380952
        k(   64) = (   0.3851099   0.0370572   0.5122305), wk =   0.0380952

     Largest allocated arrays     est. size (Mb)     dimensions
     Largest temporary arrays     est. size (Mb)     dimensions

     Initial potential from superposition of free atoms

     Starting from uniform charge
     Starting wfc are    0 randomized atomic wfcs

     Writing output data file Prototype-La-hP8-Mg3Cd.save

     Self-consistent Calculation

[...]

     iteration #  5     ecut=    40.00 Ry     beta=0.70
     CG style diagonalization
     ethr =  1.00E-02,  avg # of iterations =  3.9

[...]

     total energy              =    -684.34227180 Ry
     Harris-Foulkes estimate   =    -684.34266715 Ry
     estimated scf accuracy    <       0.00159437 Ry

     iteration # 12     ecut=    40.00 Ry     beta=0.70
     CG style diagonalization
     c_bands:  1 eigenvalues not converged
     c_bands:  1 eigenvalues not converged
     c_bands:  1 eigenvalues not converged
     c_bands:  1 eigenvalues not converged
     c_bands:  1 eigenvalues not converged
     c_bands:  1 eigenvalues not converged
     c_bands:  1 eigenvalues not converged
     c_bands:  1 eigenvalues not converged
     c_bands:  1 eigenvalues not converged
     c_bands:  1 eigenvalues not converged
     c_bands:  1 eigenvalues not converged
     c_bands:  1 eigenvalues not converged
     c_bands:  1 eigenvalues not converged
     c_bands:  1 eigenvalues not converged
     c_bands:  1 eigenvalues not converged
     c_bands:  1 eigenvalues not converged
     c_bands:  1 eigenvalues not converged
     c_bands:  1 eigenvalues not converged
     c_bands:  1 eigenvalues not converged
     c_bands:  1 eigenvalues not converged
     ethr =  6.53E-08,  avg # of iterations =  5.2

     End of self-consistent calculation

[...]

          k = 0.3851 0.0371 0.5122 (  5791 PWs)   bands (ev):

   -29.6688 -29.6684 -19.9850 -19.9281 -19.8359 -19.7949 -19.7649 -19.7404
    -8.0343  -8.0322  -8.0284  -8.0277  -8.0152  -8.0095  -2.7118  -2.6823
    -2.5474  -2.5250  -2.3050  -2.2620  -1.9260  -1.8439  -1.6399  -1.6366
    -1.4855  -1.3691  -1.2575  -1.2311  -1.1616  -1.0687  -1.0194  -0.9995
    14.6604  14.7143  14.8549  15.0417  15.0916  15.2965  15.5653  15.7671
    15.8953  15.9126  16.1314  16.3442  16.4905  16.5571  16.5963  16.8734
    17.5358  17.6225  18.2627  18.2863  18.4843  18.5655  18.7444  18.9578
    18.9947  19.1405  19.5734  19.6997

     the Fermi energy is    17.8082 ev

!    total energy              =    -684.34245817 Ry
     Harris-Foulkes estimate   =    -684.34245923 Ry
     estimated scf accuracy    <       0.00000022 Ry

     The total energy is the sum of the following terms:

     one-electron contribution =      -5.51013414 Ry
     hartree contribution      =      61.75140441 Ry
     xc contribution           =     -86.66773330 Ry
     ewald contribution        =    -653.25921027 Ry
     smearing contrib. (-TS)   =      -0.65678486 Ry

     convergence has been achieved in  12 iterations

     Forces acting on atoms (Ry/au):

     atom    1 type  1   force =    -0.00569146   -0.00328597    0.00000000
     atom    2 type  1   force =    -0.00569146    0.00328597    0.00000000
     atom    3 type  1   force =     0.00569146    0.00328597    0.00000000
     atom    4 type  1   force =     0.00569146   -0.00328597    0.00000000
     atom    5 type  1   force =     0.00000000    0.00657194    0.00000000
     atom    6 type  1   force =     0.00000000   -0.00657194    0.00000000
     atom    7 type  2   force =     0.00000000    0.00000000    0.00000000
     atom    8 type  2   force =     0.00000000    0.00000000    0.00000000

     Total force =     0.016098     Total SCF correction =     0.000000

     entering subroutine stress ...

          total   stress  (Ry/bohr**3)                   (kbar)     P=   45.91
   0.00024243   0.00000000   0.00000000         35.66      0.00      0.00
   0.00000000   0.00024243   0.00000000          0.00     35.66      0.00
   0.00000000   0.00000000   0.00045138          0.00      0.00     66.40

     Writing output data file Prototype-La-hP8-Mg3Cd.save

     General routines

     Parallel routines

   This run was terminated on:   1:26: 1  22Mar2018

   JOB DONE.