     Program PWSCF v.5.0.2 starts on 22Mar2018 at  0:35:22

     Current dimensions of program PWSCF are:
     Max number of different atomic species (ntypx) = 10
     Max number of k-points (npk) =  40000
     Max angular momentum in pseudopotentials (lmaxx) =  3
     Waiting for input...
     Reading input from standard input

     Subspace diagonalization in iterative solution of the eigenvalue problem:
     a serial algorithm will be used

     bravais-lattice index     =            0
     lattice parameter (alat)  =       7.0151  a.u.
     unit-cell volume          =     862.2778 (a.u.)^3
     number of atoms/cell      =           12
     number of atomic types    =            2
     number of electrons       =       168.00
     number of Kohn-Sham states=          101
     kinetic-energy cutoff     =      40.0000  Ry
     charge density cutoff     =     160.0000  Ry
     convergence threshold     =      1.0E-04
     mixing beta               =       0.7000
     number of iterations used =            8  plain     mixing
     Exchange-correlation      = SLA-PZ-NOGX-NOGC ( 1 1 0 0 0)
     EXX-fraction              =        0.00
     nstep                     =           50

     celldm(1)=   7.015105  celldm(2)=   0.000000  celldm(3)=   0.000000
     celldm(4)=   0.000000  celldm(5)=   0.000000  celldm(6)=   0.000000

     crystal axes: (cart. coord. in units of alat)
               a(1) = (   1.000000   0.000000   0.000000 )
               a(2) = (   0.000000   1.315963   0.000000 )
               a(3) = (   0.000000   0.000000   1.898020 )

     reciprocal axes: (cart. coord. in units 2 pi/alat)
               b(1) = (  1.000000  0.000000  0.000000 )
               b(2) = (  0.000000  0.759900  0.000000 )
               b(3) = (  0.000000  0.000000  0.526865 )

     PseudoPot. # 1 for Ce read from file:
     /home/jld5415/pp.La/Ce.UPF
     MD5 check sum: 44451aa79a44a00cf2bc029dc19922f6
     Pseudo is Norm-conserving, Zval = 12.0
     Generated in analytical, separable form
     Using radial grid of 1255 points,  6 beta functions with:
                l(1) =   0
                l(2) =   0
                l(3) =   1
                l(4) =   1
                l(5) =   2
                l(6) =   3

     PseudoPot. # 2 for Gd read from file:
     /home/jld5415/pp.La/Gd.UPF
     MD5 check sum: 09a8be538722f05520810cb6aac0efd2
     Pseudo is Norm-conserving, Zval = 18.0
     Generated in analytical, separable form
     Using radial grid of 1263 points,  6 beta functions with:
                l(1) =   0
                l(2) =   0
                l(3) =   1
                l(4) =   1
                l(5) =   2
                l(6) =   3

     atomic species   valence    mass     pseudopotential
        Co            12.00    58.93320     Ce( 1.00)
        Si            18.00    28.08550     Gd( 1.00)

      8 Sym. Ops., with inversion, found ( 6 have fractional translation)

   Cartesian axes

     site n.     atom                  positions (alat units)
         1           Co  tau(   1) = (   0.7500000   1.0875135   0.8270358  )
         2           Co  tau(   2) = (   0.2500000   0.2284499   1.0709846  )
         3           Co  tau(   3) = (   0.7500000   0.4295318   0.1219744  )
         4           Co  tau(   4) = (   0.2500000   0.8864316   1.7760460  )
         5           Co  tau(   5) = (   0.2500000   0.7067855   0.5358966  )
         6           Co  tau(   6) = (   0.7500000   0.6091779   1.3621238  )
         7           Co  tau(   7) = (   0.2500000   0.0488038   0.4131136  )
         8           Co  tau(   8) = (   0.7500000   1.2671596   1.4849068  )
         9           Si  tau(   9) = (   0.2500000   0.2669484   1.6960710  )
        10           Si  tau(  10) = (   0.7500000   1.0490149   0.2019494  )
        11           Si  tau(  11) = (   0.2500000   0.9249301   1.1509596  )
        12           Si  tau(  12) = (   0.7500000   0.3910333   0.7470608  )

     number of k points=    12  gaussian smearing, width (Ry)=  0.1000
                       cart. coord. in units 2pi/alat
        k(    1) = (   0.0000000   0.0000000   0.0000000), wk =   0.0833333
        k(    2) = (   0.0000000   0.0000000   0.1317162), wk =   0.1666667
        k(    3) = (   0.0000000   0.0000000  -0.2634324), wk =   0.0833333
        k(    4) = (   0.0000000   0.2532999   0.0000000), wk =   0.1666667
        k(    5) = (   0.0000000   0.2532999   0.1317162), wk =   0.3333333
        k(    6) = (   0.0000000   0.2532999  -0.2634324), wk =   0.1666667
        k(    7) = (  -0.5000000   0.0000000   0.0000000), wk =   0.0833333
        k(    8) = (  -0.5000000   0.0000000   0.1317162), wk =   0.1666667
        k(    9) = (  -0.5000000   0.0000000  -0.2634324), wk =   0.0833333
        k(   10) = (  -0.5000000   0.2532999   0.0000000), wk =   0.1666667
        k(   11) = (  -0.5000000   0.2532999   0.1317162), wk =   0.3333333
        k(   12) = (  -0.5000000   0.2532999  -0.2634324), wk =   0.1666667

     Largest allocated arrays     est. size (Mb)     dimensions
     Largest temporary arrays     est. size (Mb)     dimensions

     Initial potential from superposition of free atoms

     Starting from uniform charge
     Starting wfc are    0 randomized atomic wfcs

     Self-consistent Calculation

     iteration #  1     ecut=    40.00 Ry     beta=0.70
     CG style diagonalization
     ethr =  1.00E-02,  avg # of iterations = 17.3

     total energy              =    -820.99721331 Ry
     Harris-Foulkes estimate   =   -1610.86118622 Ry
     estimated scf accuracy    <     959.75255115 Ry

     iteration #  2     ecut=    40.00 Ry     beta=0.70
     CG style diagonalization
     c_bands:  4 eigenvalues not converged
     c_bands:  2 eigenvalues not converged
     c_bands:  3 eigenvalues not converged
     c_bands:  3 eigenvalues not converged
     c_bands:  2 eigenvalues not converged
     c_bands:  1 eigenvalues not converged
     ethr =  1.00E-02,  avg # of iterations = 15.2

[...]

     End of self-consistent calculation

          k = 0.0000 0.0000 0.0000 (  3675 PWs)   bands (ev):

   -26.9075 -26.8552 -26.8386 -26.8103   0.0011   0.0413   0.7774   0.7942
     0.8349   0.8819   0.9829   1.0963   1.1859   1.2433   1.6852   1.7372
     3.1670   5.6397   6.0131   6.4646   7.0848   7.6281   7.8943   7.9006
    17.8819  18.5517  19.5652  19.7270  20.3185  20.6031  20.7216  21.6877
    21.9581  22.3195  22.7344  22.7559  22.8714  23.6267  23.8988  24.5015
    24.8445  24.8702  25.5379  26.2122  27.4649  27.8097  28.1612  28.9702
    31.5675  32.4259  33.2455  33.3475  33.4944  33.5854  34.0381  34.4026
    34.4824  35.5399  35.9748  36.3433  36.3548  37.7770  38.1385  38.2275
    38.9134  38.9669  38.9895  39.8334  39.8954  41.4572  41.4896  42.5464
    42.6565  42.9452  43.3861  43.6537  44.0546  44.1009  44.2276  44.8043
    45.1729  45.7848  46.1519  46.3435  46.5674  46.7793  47.0119  47.4352
    48.1100  48.4404  48.6072  48.9260  49.6914  50.0320  50.0952  50.2644
    50.6722  51.3987  52.0776  52.4921  52.7953

[...]

          k =-0.5000 0.0000 0.0000 (  3722 PWs)   bands (ev):

[...]

     the Fermi energy is    46.0388 ev

!    total energy              =   -1410.34669133 Ry
     Harris-Foulkes estimate   =   -1410.34669151 Ry
     estimated scf accuracy    <       0.00000445 Ry

     The total energy is the sum of the following terms:

     one-electron contribution =     343.70646982 Ry
     hartree contribution      =      87.03594446 Ry
     xc contribution           =    -178.84007988 Ry
     ewald contribution        =   -1661.83026996 Ry
     smearing contrib. (-TS)   =      -0.41875577 Ry

     convergence has been achieved in  11 iterations

     Forces acting on atoms (Ry/au):

     atom    1 type  1   force =     0.00000000   -0.04620358   -0.08751272
     atom    2 type  1   force =     0.00000000    0.04620358    0.08751272
     atom    3 type  1   force =     0.00000000   -0.04620358    0.08751272
     atom    4 type  1   force =     0.00000000    0.04620358   -0.08751272
     atom    5 type  1   force =     0.00000000    0.14122910   -0.27255253
     atom    6 type  1   force =     0.00000000   -0.14122910    0.27255253
     atom    7 type  1   force =     0.00000000    0.14122910    0.27255253
     atom    8 type  1   force =     0.00000000   -0.14122910   -0.27255253
     atom    9 type  2   force =     0.00000000   -0.16132130   -0.03285432
     atom   10 type  2   force =     0.00000000    0.16132130    0.03285432
     atom   11 type  2   force =     0.00000000   -0.16132130    0.03285432
     atom   12 type  2   force =     0.00000000    0.16132130   -0.03285432

     Total force =     0.724231     Total SCF correction =     0.000000

     entering subroutine stress ...

          total   stress  (Ry/bohr**3)                   (kbar)     P= 6544.36
   0.04839306   0.00000000   0.00000000       7118.86      0.00      0.00
   0.00000000   0.04086713   0.00000000          0.00   6011.76      0.00
   0.00000000   0.00000000   0.04420284          0.00      0.00   6502.46

     BFGS Geometry Optimization

     number of scf cycles    =   1
     number of bfgs steps    =   0

     enthalpy new            =   -1410.3466913287 Ry

     new trust radius        =       0.5000000000 bohr
     new conv_thr            =       0.0001000000 Ry

     new unit-cell volume =   1080.95721 a.u.^3 (   160.18133 Ang^3 )

CELL_PARAMETERS (alat=  7.01510508)
   1.085136619   0.000000000   0.000000000
   0.000000000   1.410576483   0.000000000
   0.000000000   0.000000000   2.045619731

ATOMIC_POSITIONS (crystal)
Co       0.750000000   0.826048799   0.435273481
Co       0.250000000   0.173951201   0.564726519
Co       0.750000000   0.326048799   0.064726519
Co       0.250000000   0.673951201   0.935273481
Co       0.250000000   0.538162563   0.280904516
Co       0.750000000   0.461837437   0.719095484
Co       0.250000000   0.038162563   0.219095484
Co       0.750000000   0.961837437   0.780904516
Si       0.250000000   0.201624278   0.893426360
Si       0.750000000   0.798375722   0.106573640
Si       0.250000000   0.701624278   0.606573640
Si       0.750000000   0.298375722   0.393426360

     Writing output data file Prototype-La-oP12-Co2Si.save
     NEW-OLD atomic charge density approx. for the potential
     NEW k-points:
        k(    1) = (   0.0000000   0.0000000   0.0000000), wk =   0.0833333
        k(    2) = (   0.0000000   0.0000000   0.1222124), wk =   0.1666667
        k(    3) = (   0.0000000   0.0000000  -0.2444247), wk =   0.0833333
        k(    4) = (   0.0000000   0.2363100   0.0000000), wk =   0.1666667
        k(    5) = (   0.0000000   0.2363100   0.1222124), wk =   0.3333333
        k(    6) = (   0.0000000   0.2363100  -0.2444247), wk =   0.1666667
        k(    7) = (  -0.4607715   0.0000000   0.0000000), wk =   0.0833333
        k(    8) = (  -0.4607715   0.0000000   0.1222124), wk =   0.1666667
        k(    9) = (  -0.4607715   0.0000000  -0.2444247), wk =   0.0833333
        k(   10) = (  -0.4607715   0.2363100   0.0000000), wk =   0.1666667
        k(   11) = (  -0.4607715   0.2363100   0.1222124), wk =   0.3333333
        k(   12) = (  -0.4607715   0.2363100  -0.2444247), wk =   0.1666667

[...]

     enthalpy old            =   -1410.3466913287 Ry
     enthalpy new            =   -1416.8803849018 Ry

     CASE: enthalpy_new < enthalpy_old

     small trust_radius: resetting bfgs history

     new trust radius        =       3.3014503484 bohr
     new conv_thr            =       0.0001000000 Ry

[...]

          total   stress  (Ry/bohr**3)                   (kbar)     P=-1147.26
  -0.00831505   0.00000000   0.00000000      -1223.19      0.00      0.00
   0.00000000  -0.00737263   0.00000000          0.00  -1084.55      0.00
   0.00000000   0.00000000  -0.00770902          0.00      0.00  -1134.04

     number of scf cycles    =   3
     number of bfgs steps    =   2

     enthalpy old            =   -1416.8803849018 Ry
     enthalpy new            =   -1408.4999112051 Ry

     CASE: enthalpy_new > enthalpy_old

     new trust radius        =       1.4810537455 bohr

     trust_radius < trust_radius_min

     resetting bfgs history

     Message from routine bfgs:
     history already reset at previous step: stopping
     new conv_thr            =       0.0001000000 Ry

     new unit-cell volume =   1272.60169 a.u.^3 (   188.58011 Ang^3 )

[...]

ATOMIC_POSITIONS (crystal)
Co       0.750000000   0.825735001   0.435071942
Co       0.250000000   0.174264999   0.564928058
Co       0.750000000   0.325735001   0.064928058
Co       0.250000000   0.674264999   0.935071942
Co       0.250000000   0.538741124   0.280004269
Co       0.750000000   0.461258876   0.719995731
Co       0.250000000   0.038741124   0.219995731
Co       0.750000000   0.961258876   0.780004269
Si       0.250000000   0.200630952   0.893413575
Si       0.750000000   0.799369048   0.106586425
Si       0.250000000   0.700630952   0.606586425
Si       0.750000000   0.299369048   0.393413575

     Writing output data file Prototype-La-oP12-Co2Si.save
     NEW-OLD atomic charge density approx. for the potential
     NEW k-points:
        k(    1) = (   0.0000000   0.0000000   0.0000000), wk =   0.0833333
        k(    2) = (   0.0000000   0.0000000   0.1159000), wk =   0.1666667
        k(    3) = (   0.0000000   0.0000000  -0.2318000), wk =   0.0833333
        k(    4) = (   0.0000000   0.2254002   0.0000000), wk =   0.1666667
        k(    5) = (   0.0000000   0.2254002   0.1159000), wk =   0.3333333
        k(    6) = (   0.0000000   0.2254002  -0.2318000), wk =   0.1666667
        k(    7) = (  -0.4326743   0.0000000   0.0000000), wk =   0.0833333
        k(    8) = (  -0.4326743   0.0000000   0.1159000), wk =   0.1666667
        k(    9) = (  -0.4326743   0.0000000  -0.2318000), wk =   0.0833333
        k(   10) = (  -0.4326743   0.2254002   0.0000000), wk =   0.1666667
        k(   11) = (  -0.4326743   0.2254002   0.1159000), wk =   0.3333333
        k(   12) = (  -0.4326743   0.2254002  -0.2318000), wk =   0.1666667

[...]

     The maximum number of steps has been reached.

     End of BFGS Geometry Optimization
Begin final coordinates
     new unit-cell volume =   1272.60169 a.u.^3 (   188.58011 Ang^3 )

CELL_PARAMETERS (alat=  7.01510508)
   1.155603674   0.000000000   0.000000000
   0.000000000   1.478851390   0.000000000
   0.000000000   0.000000000   2.157031586

ATOMIC_POSITIONS (crystal)
Co       0.750000000   0.825735001   0.435071942
Co       0.250000000   0.174264999   0.564928058
Co       0.750000000   0.325735001   0.064928058
Co       0.250000000   0.674264999   0.935071942
Co       0.250000000   0.538741124   0.280004269
Co       0.750000000   0.461258876   0.719995731
Co       0.250000000   0.038741124   0.219995731
Co       0.750000000   0.961258876   0.780004269
Si       0.250000000   0.200630952   0.893413575
Si       0.750000000   0.799369048   0.106586425
Si       0.250000000   0.700630952   0.606586425
Si       0.750000000   0.299369048   0.393413575
End final coordinates

     A final scf calculation at the relaxed structure.
     The G-vectors are recalculated for the final unit cell
     Results may differ from those at the preceding step.

     bravais-lattice index     =            0
     lattice parameter (alat)  =       7.0151  a.u.
     unit-cell volume          =    1272.6017 (a.u.)^3
     number of atoms/cell      =           12
     number of atomic types    =            2
     number of electrons       =       168.00
     number of Kohn-Sham states=          101
     kinetic-energy cutoff     =      40.0000  Ry
     charge density cutoff     =     160.0000  Ry
     convergence threshold     =      1.0E-04
     mixing beta               =       0.7000
     number of iterations used =            8  plain     mixing
     Exchange-correlation      = SLA-PZ-NOGX-NOGC ( 1 1 0 0 0)
     EXX-fraction              =        0.00

     celldm(1)=   7.015105  celldm(2)=   0.000000  celldm(3)=   0.000000
     celldm(4)=   0.000000  celldm(5)=   0.000000  celldm(6)=   0.000000

     crystal axes: (cart. coord. in units of alat)
               a(1) = (   1.155604   0.000000   0.000000 )
               a(2) = (   0.000000   1.478851   0.000000 )
               a(3) = (   0.000000   0.000000   2.157032 )

     reciprocal axes: (cart. coord. in units 2 pi/alat)
               b(1) = (  0.865349  0.000000  0.000000 )
               b(2) = (  0.000000  0.676200  0.000000 )
               b(3) = (  0.000000  0.000000  0.463600 )

     PseudoPot. # 1 for Ce read from file:
     /home/jld5415/pp.La/Ce.UPF
     MD5 check sum: 44451aa79a44a00cf2bc029dc19922f6
     Pseudo is Norm-conserving, Zval = 12.0
     Generated in analytical, separable form
     Using radial grid of 1255 points,  6 beta functions with:
                l(1) =   0
                l(2) =   0
                l(3) =   1
                l(4) =   1
                l(5) =   2
                l(6) =   3

     PseudoPot. # 2 for Gd read from file:
     /home/jld5415/pp.La/Gd.UPF
     MD5 check sum: 09a8be538722f05520810cb6aac0efd2
     Pseudo is Norm-conserving, Zval = 18.0
     Generated in analytical, separable form
     Using radial grid of 1263 points,  6 beta functions with:
                l(1) =   0
                l(2) =   0
                l(3) =   1
                l(4) =   1
                l(5) =   2
                l(6) =   3

     atomic species   valence    mass     pseudopotential
        Co            12.00    58.93320     Ce( 1.00)
        Si            18.00    28.08550     Gd( 1.00)

      8 Sym. Ops., with inversion, found ( 6 have fractional translation)

   Cartesian axes

     site n.     atom                  positions (alat units)
         1           Co  tau(   1) = (   0.8667028   1.2211394   0.9384639  )
         2           Co  tau(   2) = (   0.2889009   0.2577120   1.2185677  )
         3           Co  tau(   3) = (   0.8667028   0.4817137   0.1400519  )
         4           Co  tau(   4) = (   0.2889009   0.9971377   2.0169797  )
         5           Co  tau(   5) = (   0.2889009   0.7967181   0.6039781  )
         6           Co  tau(   6) = (   0.8667028   0.6821333   1.5530535  )
         7           Co  tau(   7) = (   0.2889009   0.0572924   0.4745377  )
         8           Co  tau(   8) = (   0.8667028   1.4215590   1.6824938  )
         9           Si  tau(   9) = (   0.2889009   0.2967034   1.9271213  )
        10           Si  tau(  10) = (   0.8667028   1.1821480   0.2299103  )
        11           Si  tau(  11) = (   0.2889009   1.0361291   1.3084261  )
        12           Si  tau(  12) = (   0.8667028   0.4427223   0.8486055  )

     number of k points=    12  gaussian smearing, width (Ry)=  0.1000
                       cart. coord. in units 2pi/alat
        k(    1) = (   0.0000000   0.0000000   0.0000000), wk =   0.0833333
        k(    2) = (   0.0000000   0.0000000   0.1159000), wk =   0.1666667
        k(    3) = (   0.0000000   0.0000000  -0.2318000), wk =   0.0833333
        k(    4) = (   0.0000000   0.2254002   0.0000000), wk =   0.1666667
        k(    5) = (   0.0000000   0.2254002   0.1159000), wk =   0.3333333
        k(    6) = (   0.0000000   0.2254002  -0.2318000), wk =   0.1666667
        k(    7) = (  -0.4326743   0.0000000   0.0000000), wk =   0.0833333
        k(    8) = (  -0.4326743   0.0000000   0.1159000), wk =   0.1666667
        k(    9) = (  -0.4326743   0.0000000  -0.2318000), wk =   0.0833333
        k(   10) = (  -0.4326743   0.2254002   0.0000000), wk =   0.1666667
        k(   11) = (  -0.4326743   0.2254002   0.1159000), wk =   0.3333333
        k(   12) = (  -0.4326743   0.2254002  -0.2318000), wk =   0.1666667

     Largest allocated arrays     est. size (Mb)     dimensions
     Largest temporary arrays     est. size (Mb)     dimensions

     Initial potential from superposition of free atoms

     Starting from uniform charge
     Starting wfc are    0 randomized atomic wfcs

     Writing output data file Prototype-La-oP12-Co2Si.save

     Self-consistent Calculation

[...]

     negative rho (up, down):  0.577E-06 0.000E+00

[...]

     iteration #  9     ecut=    40.00 Ry     beta=0.70
     CG style diagonalization
     ethr =  4.95E-05,  avg # of iterations =  3.3

[...]

     total energy              =   -1420.62451840 Ry
     Harris-Foulkes estimate   =   -1420.62799351 Ry
     estimated scf accuracy    <       0.00623383 Ry

     iteration # 11     ecut=    40.00 Ry     beta=0.70
     CG style diagonalization
     c_bands:  1 eigenvalues not converged
     ethr =  3.71E-06,  avg # of iterations =  3.7

     End of self-consistent calculation

[...]

          k = 0.0000 0.2254-0.2318 (  5438 PWs)   bands (ev):

[...]

          k =-0.4327 0.2254-0.2318 (  5440 PWs)   bands (ev):

   -39.6385 -39.6385 -39.6364 -39.6364 -11.2429 -11.2429 -11.1546 -11.1546
   -10.9885 -10.9885 -10.9864 -10.9864 -10.7655 -10.7655 -10.7610 -10.7610
    -7.4666  -7.4666  -7.3272  -7.3272  -7.2135  -7.2134  -7.0205  -7.0205
     7.9420   7.9420   8.4350   8.4350   8.6776   8.6776   8.9499   8.9499
     9.0830   9.0830  10.1698  10.1699  10.6818  10.6818  11.0213  11.0213
    11.3815  11.3815  11.3993  11.3993  11.8145  11.8146  11.9568  11.9568
    22.3537  22.3537  22.7315  22.7315  23.1210  23.1210  23.3855  23.3855
    23.7489  23.7489  23.9939  23.9939  24.3614  24.3614  24.4067  24.4067
    24.8877  24.8877  25.0249  25.0249  26.8629  26.8629  27.5928  27.5928
    28.1913  28.1913  28.4748  28.4748  28.5214  28.5214  29.1575  29.1575
    29.2866  29.2866  30.2516  30.2516  30.4107  30.4107  31.2351  31.2351
    31.3170  31.3170  32.1841  32.1841  32.4104  32.4104  33.3470  33.3471
    33.3661  33.3666  33.8931  33.8935  34.6792

     the Fermi energy is    30.5623 ev

!    total energy              =   -1420.62607947 Ry
     Harris-Foulkes estimate   =   -1420.62612673 Ry
     estimated scf accuracy    <       0.00005949 Ry

     The total energy is the sum of the following terms:

     one-electron contribution =      75.34576266 Ry
     hartree contribution      =     133.38551439 Ry
     xc contribution           =    -168.37957428 Ry
     ewald contribution        =   -1460.42142665 Ry
     smearing contrib. (-TS)   =      -0.55635559 Ry

     convergence has been achieved in  11 iterations

     Forces acting on atoms (Ry/au):

     atom    1 type  1   force =     0.00000000   -0.03760914   -0.00851074
     atom    2 type  1   force =     0.00000000    0.03760914    0.00851074
     atom    3 type  1   force =     0.00000000   -0.03760914    0.00851074
     atom    4 type  1   force =     0.00000000    0.03760914   -0.00851074
     atom    5 type  1   force =     0.00000000    0.03303382   -0.08516938
     atom    6 type  1   force =     0.00000000   -0.03303382    0.08516938
     atom    7 type  1   force =     0.00000000    0.03303382    0.08516938
     atom    8 type  1   force =     0.00000000   -0.03303382   -0.08516938
     atom    9 type  2   force =     0.00000000   -0.09310174    0.02197163
     atom   10 type  2   force =     0.00000000    0.09310174   -0.02197163
     atom   11 type  2   force =     0.00000000   -0.09310174   -0.02197163
     atom   12 type  2   force =     0.00000000    0.09310174    0.02197163

     Total force =     0.275555     Total SCF correction =     0.000000

     entering subroutine stress ...

          total   stress  (Ry/bohr**3)                   (kbar)     P= 1489.06
   0.01102739   0.00000000   0.00000000       1622.18      0.00      0.00
   0.00000000   0.00941397   0.00000000          0.00   1384.84      0.00
   0.00000000   0.00000000   0.00992589          0.00      0.00   1460.15

     Writing output data file Prototype-La-oP12-Co2Si.save

     General routines

     Parallel routines

   This run was terminated on:   0:53:54  22Mar2018

   JOB DONE.