     Program PWSCF v.5.0.2 starts on 22Mar2018 at  0:35:21

     Current dimensions of program PWSCF are:
     Max number of different atomic species (ntypx) = 10
     Max number of k-points (npk) =  40000
     Max angular momentum in pseudopotentials (lmaxx) =  3
     Waiting for input...
     Reading input from standard input

     Subspace diagonalization in iterative solution of the eigenvalue problem:
     a serial algorithm will be used

     bravais-lattice index     =            0
     lattice parameter (alat)  =      12.0168  a.u.
     unit-cell volume          =    1187.3413 (a.u.)^3
     number of atoms/cell      =            8
     number of atomic types    =            2
     number of electrons       =       108.00
     number of Kohn-Sham states=           65
     kinetic-energy cutoff     =      40.0000  Ry
     charge density cutoff     =     160.0000  Ry
     convergence threshold     =      1.0E-04
     mixing beta               =       0.7000
     number of iterations used =            8  plain     mixing
     Exchange-correlation      = SLA-PZ-NOGX-NOGC ( 1 1 0 0 0)
     EXX-fraction              =        0.00
     nstep                     =           50

     celldm(1)=  12.016801  celldm(2)=   0.000000  celldm(3)=   0.000000
     celldm(4)=   0.000000  celldm(5)=   0.000000  celldm(6)=   0.000000

     crystal axes: (cart. coord. in units of alat)
               a(1) = (   1.000000   0.000000   0.000000 )
               a(2) = (  -0.500000   0.866025   0.000000 )
               a(3) = (   0.000000   0.000000   0.790093 )

     reciprocal axes: (cart. coord. in units 2 pi/alat)
               b(1) = (  1.000000  0.577350  0.000000 )
               b(2) = (  0.000000  1.154701  0.000000 )
               b(3) = (  0.000000  0.000000  1.265674 )

     PseudoPot. # 1 for Ce read from file:
     /home/jld5415/pp.La/Ce.UPF
     MD5 check sum: 44451aa79a44a00cf2bc029dc19922f6
     Pseudo is Norm-conserving, Zval = 12.0
     Generated in analytical, separable form
     Using radial grid of 1255 points,  6 beta functions with:
                l(1) =   0
                l(2) =   0
                l(3) =   1
                l(4) =   1
                l(5) =   2
                l(6) =   3

     PseudoPot. # 2 for Gd read from file:
     /home/jld5415/pp.La/Gd.UPF
     MD5 check sum: 09a8be538722f05520810cb6aac0efd2
     Pseudo is Norm-conserving, Zval = 18.0
     Generated in analytical, separable form
     Using radial grid of 1263 points,  6 beta functions with:
                l(1) =   0
                l(2) =   0
                l(3) =   1
                l(4) =   1
                l(5) =   2
                l(6) =   3

     atomic species   valence    mass     pseudopotential
        Mg            12.00    24.30500     Ce( 1.00)
        Cd            18.00   112.41100     Gd( 1.00)

     24 Sym. Ops., with inversion, found (12 have fractional translation)

   Cartesian axes

     site n.     atom                  positions (alat units)
         1           Mg  tau(   1) = (   0.2478935   0.7204716   0.1975233  )
         2           Mg  tau(   2) = (   0.7478935   0.1455538   0.5925699  )
         3           Mg  tau(   3) = (   0.2521065   0.1455538   0.5925699  )
         4           Mg  tau(   4) = (  -0.2478935   0.7204716   0.1975233  )
         5           Mg  tau(   5) = (   0.0000000   0.2911075   0.1975233  )
         6           Mg  tau(   6) = (   0.5000000   0.5749179   0.5925699  )
         7           Cd  tau(   7) = (   0.5000005   0.2886748   0.1975233  )
         8           Cd  tau(   8) = (  -0.0000005   0.5773506   0.5925699  )

     number of k points=    64  gaussian smearing, width (Ry)=  0.1000
                       cart. coord. in units 2pi/alat
        k(    1) = (   0.0000000   0.0000000   0.0000000), wk =   0.0095238
        k(    2) = (   0.0000000   0.0000000   0.1808105), wk =   0.0190476
        k(    3) = (   0.0000000   0.0000000   0.3616210), wk =   0.0190476
        k(    4) = (   0.0000000   0.0000000   0.5424315), wk =   0.0190476
        k(    5) = (   0.0000000   0.1924501   0.0000000), wk =   0.0190476
        k(    6) = (   0.0000000   0.1924501   0.1808105), wk =   0.0380952
        k(    7) = (   0.0000000   0.1924501   0.3616210), wk =   0.0380952
        k(    8) = (   0.0000000   0.1924501   0.5424315), wk =   0.0380952
        k(    9) = (   0.0000000   0.3849002   0.0000000), wk =   0.0190476
        k(   10) = (   0.0000000   0.3849002   0.1808105), wk =   0.0380952
        k(   11) = (   0.0000000   0.3849002   0.3616210), wk =   0.0380952
        k(   12) = (   0.0000000   0.3849002   0.5424315), wk =   0.0380952
        k(   13) = (   0.0000000  -0.5773503   0.0000000), wk =   0.0095238
        k(   14) = (   0.0000000  -0.5773503   0.1808105), wk =   0.0190476
        k(   15) = (   0.0000000  -0.5773503   0.3616210), wk =   0.0190476
        k(   16) = (   0.0000000  -0.5773503   0.5424315), wk =   0.0190476
        k(   17) = (   0.2000000   0.1154701   0.0000000), wk =   0.0190476
        k(   18) = (   0.2000000   0.1154701   0.1808105), wk =   0.0380952
        k(   19) = (   0.2000000   0.1154701   0.3616210), wk =   0.0380952
        k(   20) = (   0.2000000   0.1154701   0.5424315), wk =   0.0380952
        k(   21) = (   0.2000000   0.3079201   0.0000000), wk =   0.0190476
        k(   22) = (   0.2000000   0.3079201   0.1808105), wk =   0.0380952
        k(   23) = (   0.2000000   0.3079201   0.3616210), wk =   0.0380952
        k(   24) = (   0.2000000   0.3079201   0.5424315), wk =   0.0380952
        k(   25) = (   0.2000000   0.5003702   0.0000000), wk =   0.0190476
        k(   26) = (   0.2000000   0.5003702   0.1808105), wk =   0.0380952
        k(   27) = (   0.2000000   0.5003702   0.3616210), wk =   0.0380952
        k(   28) = (   0.2000000   0.5003702   0.5424315), wk =   0.0380952
        k(   29) = (   0.2000000  -0.4618802   0.0000000), wk =   0.0190476
        k(   30) = (   0.2000000  -0.4618802   0.1808105), wk =   0.0380952
        k(   31) = (   0.2000000  -0.4618802   0.3616210), wk =   0.0380952
        k(   32) = (   0.2000000  -0.4618802   0.5424315), wk =   0.0380952
        k(   33) = (   0.2000000  -0.2694301   0.0000000), wk =   0.0190476
        k(   34) = (   0.2000000  -0.2694301   0.1808105), wk =   0.0380952
        k(   35) = (   0.2000000  -0.2694301   0.3616210), wk =   0.0380952
        k(   36) = (   0.2000000  -0.2694301   0.5424315), wk =   0.0380952
        k(   37) = (   0.2000000  -0.0769800   0.0000000), wk =   0.0190476
        k(   38) = (   0.2000000  -0.0769800   0.1808105), wk =   0.0380952
        k(   39) = (   0.2000000  -0.0769800   0.3616210), wk =   0.0380952
        k(   40) = (   0.2000000  -0.0769800   0.5424315), wk =   0.0380952
        k(   41) = (   0.4000000   0.2309401   0.0000000), wk =   0.0190476
        k(   42) = (   0.4000000   0.2309401   0.1808105), wk =   0.0380952
        k(   43) = (   0.4000000   0.2309401   0.3616210), wk =   0.0380952
        k(   44) = (   0.4000000   0.2309401   0.5424315), wk =   0.0380952
        k(   45) = (   0.4000000   0.4233902   0.0000000), wk =   0.0190476
        k(   46) = (   0.4000000   0.4233902   0.1808105), wk =   0.0380952
        k(   47) = (   0.4000000   0.4233902   0.3616210), wk =   0.0380952
        k(   48) = (   0.4000000   0.4233902   0.5424315), wk =   0.0380952
        k(   49) = (   0.4000000   0.6158403   0.0000000), wk =   0.0190476
        k(   50) = (   0.4000000   0.6158403   0.1808105), wk =   0.0380952
        k(   51) = (   0.4000000   0.6158403   0.3616210), wk =   0.0380952
        k(   52) = (   0.4000000   0.6158403   0.5424315), wk =   0.0380952
        k(   53) = (   0.4000000  -0.3464102   0.0000000), wk =   0.0190476
        k(   54) = (   0.4000000  -0.3464102   0.1808105), wk =   0.0380952
        k(   55) = (   0.4000000  -0.3464102   0.3616210), wk =   0.0380952
        k(   56) = (   0.4000000  -0.3464102   0.5424315), wk =   0.0380952
        k(   57) = (   0.4000000  -0.1539601   0.0000000), wk =   0.0190476
        k(   58) = (   0.4000000  -0.1539601   0.1808105), wk =   0.0380952
        k(   59) = (   0.4000000  -0.1539601   0.3616210), wk =   0.0380952
        k(   60) = (   0.4000000  -0.1539601   0.5424315), wk =   0.0380952
        k(   61) = (   0.4000000   0.0384900   0.0000000), wk =   0.0190476
        k(   62) = (   0.4000000   0.0384900   0.1808105), wk =   0.0380952
        k(   63) = (   0.4000000   0.0384900   0.3616210), wk =   0.0380952
        k(   64) = (   0.4000000   0.0384900   0.5424315), wk =   0.0380952

     Largest allocated arrays     est. size (Mb)     dimensions
     Largest temporary arrays     est. size (Mb)     dimensions

     Initial potential from superposition of free atoms

     Starting from uniform charge
     Starting wfc are    0 randomized atomic wfcs

     Self-consistent Calculation

     iteration #  1     ecut=    40.00 Ry     beta=0.70
     CG style diagonalization
     c_bands:  2 eigenvalues not converged
     c_bands:  1 eigenvalues not converged
     c_bands:  1 eigenvalues not converged
     c_bands:  1 eigenvalues not converged
     c_bands:  1 eigenvalues not converged
     c_bands:  2 eigenvalues not converged
     c_bands:  1 eigenvalues not converged
     c_bands:  1 eigenvalues not converged
     c_bands:  2 eigenvalues not converged
     c_bands:  4 eigenvalues not converged
     c_bands:  4 eigenvalues not converged
     c_bands:  1 eigenvalues not converged
     c_bands:  2 eigenvalues not converged
     c_bands:  1 eigenvalues not converged
     c_bands:  1 eigenvalues not converged
     c_bands:  1 eigenvalues not converged
     c_bands:  2 eigenvalues not converged
     c_bands:  2 eigenvalues not converged
     c_bands:  4 eigenvalues not converged
     c_bands:  5 eigenvalues not converged
     c_bands:  4 eigenvalues not converged
     c_bands:  2 eigenvalues not converged
     c_bands:  1 eigenvalues not converged
     c_bands:  1 eigenvalues not converged
     c_bands:  5 eigenvalues not converged
     c_bands:  1 eigenvalues not converged
     c_bands:  4 eigenvalues not converged
     c_bands:  1 eigenvalues not converged
     c_bands:  2 eigenvalues not converged
     c_bands:  3 eigenvalues not converged
     c_bands:  2 eigenvalues not converged
     c_bands:  1 eigenvalues not converged
     c_bands:  2 eigenvalues not converged
     c_bands:  4 eigenvalues not converged
     c_bands:  3 eigenvalues not converged
     c_bands:  2 eigenvalues not converged
     c_bands:  3 eigenvalues not converged
     c_bands:  1 eigenvalues not converged
     c_bands:  1 eigenvalues not converged
     c_bands:  1 eigenvalues not converged
     c_bands:  5 eigenvalues not converged
     c_bands:  1 eigenvalues not converged
     ethr =  1.00E-02,  avg # of iterations = 11.5

     total energy              =    -358.00397151 Ry
     Harris-Foulkes estimate   =   -1113.85284296 Ry
     estimated scf accuracy    <     908.83566202 Ry

[...]

     iteration #  3     ecut=    40.00 Ry     beta=0.70
     CG style diagonalization
     ethr =  1.00E-02,  avg # of iterations =  9.9

[...]

[...]
        k(    9) = (   0.0000000   0.3745724   0.0000000), wk =   0.0190476
        k(   10) = (   0.0000000   0.3745724   0.1744059), wk =   0.0380952
        k(   11) = (   0.0000000   0.3745724   0.3488118), wk =   0.0380952
        k(   12) = (   0.0000000   0.3745724   0.5232177), wk =   0.0380952
        k(   13) = (   0.0000000  -0.5618585   0.0000000), wk =   0.0095238
        k(   14) = (   0.0000000  -0.5618585   0.1744059), wk =   0.0190476
        k(   15) = (   0.0000000  -0.5618585   0.3488118), wk =   0.0190476
        k(   16) = (   0.0000000  -0.5618585   0.5232177), wk =   0.0190476
        k(   17) = (   0.1946335   0.1123717   0.0000000), wk =   0.0190476
        k(   18) = (   0.1946335   0.1123717   0.1744059), wk =   0.0380952
        k(   19) = (   0.1946335   0.1123717   0.3488118), wk =   0.0380952
        k(   20) = (   0.1946335   0.1123717   0.5232177), wk =   0.0380952
        k(   21) = (   0.1946335   0.2996579   0.0000000), wk =   0.0190476
        k(   22) = (   0.1946335   0.2996579   0.1744059), wk =   0.0380952
        k(   23) = (   0.1946335   0.2996579   0.3488118), wk =   0.0380952
        k(   24) = (   0.1946335   0.2996579   0.5232177), wk =   0.0380952
        k(   25) = (   0.1946335   0.4869441   0.0000000), wk =   0.0190476
        k(   26) = (   0.1946335   0.4869441   0.1744059), wk =   0.0380952
        k(   27) = (   0.1946335   0.4869441   0.3488118), wk =   0.0380952
        k(   28) = (   0.1946335   0.4869441   0.5232177), wk =   0.0380952
        k(   29) = (   0.1946335  -0.4494868   0.0000000), wk =   0.0190476
        k(   30) = (   0.1946335  -0.4494868   0.1744059), wk =   0.0380952
        k(   31) = (   0.1946335  -0.4494868   0.3488118), wk =   0.0380952
        k(   32) = (   0.1946335  -0.4494868   0.5232177), wk =   0.0380952
        k(   33) = (   0.1946335  -0.2622007   0.0000000), wk =   0.0190476
        k(   34) = (   0.1946335  -0.2622007   0.1744059), wk =   0.0380952
        k(   35) = (   0.1946335  -0.2622007   0.3488118), wk =   0.0380952
        k(   36) = (   0.1946335  -0.2622007   0.5232177), wk =   0.0380952
        k(   37) = (   0.1946335  -0.0749145   0.0000000), wk =   0.0190476
        k(   38) = (   0.1946335  -0.0749145   0.1744059), wk =   0.0380952
        k(   39) = (   0.1946335  -0.0749145   0.3488118), wk =   0.0380952
        k(   40) = (   0.1946335  -0.0749145   0.5232177), wk =   0.0380952
        k(   41) = (   0.3892670   0.2247434   0.0000000), wk =   0.0190476
        k(   42) = (   0.3892670   0.2247434   0.1744059), wk =   0.0380952
        k(   43) = (   0.3892670   0.2247434   0.3488118), wk =   0.0380952
        k(   44) = (   0.3892670   0.2247434   0.5232177), wk =   0.0380952
        k(   45) = (   0.3892670   0.4120296   0.0000000), wk =   0.0190476
        k(   46) = (   0.3892670   0.4120296   0.1744059), wk =   0.0380952
        k(   47) = (   0.3892670   0.4120296   0.3488118), wk =   0.0380952
        k(   48) = (   0.3892670   0.4120296   0.5232177), wk =   0.0380952
        k(   49) = (   0.3892670   0.5993158   0.0000000), wk =   0.0190476
        k(   50) = (   0.3892670   0.5993158   0.1744059), wk =   0.0380952
        k(   51) = (   0.3892670   0.5993158   0.3488118), wk =   0.0380952
        k(   52) = (   0.3892670   0.5993158   0.5232177), wk =   0.0380952
        k(   53) = (   0.3892670  -0.3371151   0.0000000), wk =   0.0190476
        k(   54) = (   0.3892670  -0.3371151   0.1744059), wk =   0.0380952
        k(   55) = (   0.3892670  -0.3371151   0.3488118), wk =   0.0380952
        k(   56) = (   0.3892670  -0.3371151   0.5232177), wk =   0.0380952
        k(   57) = (   0.3892670  -0.1498289   0.0000000), wk =   0.0190476
        k(   58) = (   0.3892670  -0.1498289   0.1744059), wk =   0.0380952
        k(   59) = (   0.3892670  -0.1498289   0.3488118), wk =   0.0380952
        k(   60) = (   0.3892670  -0.1498289   0.5232177), wk =   0.0380952
        k(   61) = (   0.3892670   0.0374572   0.0000000), wk =   0.0190476
        k(   62) = (   0.3892670   0.0374572   0.1744059), wk =   0.0380952
        k(   63) = (   0.3892670   0.0374572   0.3488118), wk =   0.0380952
        k(   64) = (   0.3892670   0.0374572   0.5232177), wk =   0.0380952

[...]

     The maximum number of steps has been reached.

     End of BFGS Geometry Optimization
Begin final coordinates
     new unit-cell volume =   1299.75903 a.u.^3 (   192.60441 Ang^3 )

CELL_PARAMETERS (alat= 12.01680127)
   1.027572285   0.000000000   0.000000000
  -0.513786143   0.889903703   0.000000000
   0.000000000   0.000000000   0.819107327

ATOMIC_POSITIONS (crystal)
Mg       0.661888491   0.830944246   0.250000000
Mg       0.830944246   0.169055754   0.750000000
Mg       0.338111509   0.169055754   0.750000000
Mg       0.169055754   0.830944246   0.250000000
Mg       0.169055754   0.338111509   0.250000000
Mg       0.830944246   0.661888491   0.750000000
Cd       0.666667000   0.333333000   0.250000000
Cd       0.333333000   0.666667000   0.750000000
End final coordinates

     A final scf calculation at the relaxed structure.
     The G-vectors are recalculated for the final unit cell
     Results may differ from those at the preceding step.

     bravais-lattice index     =            0
     lattice parameter (alat)  =      12.0168  a.u.
     unit-cell volume          =    1299.7590 (a.u.)^3
     number of atoms/cell      =            8
     number of atomic types    =            2
     number of electrons       =       108.00
     number of Kohn-Sham states=           65
     kinetic-energy cutoff     =      40.0000  Ry
     charge density cutoff     =     160.0000  Ry
     convergence threshold     =      4.9E-06
     mixing beta               =       0.7000
     number of iterations used =            8  plain     mixing
     Exchange-correlation      = SLA-PZ-NOGX-NOGC ( 1 1 0 0 0)
     EXX-fraction              =        0.00

     celldm(1)=  12.016801  celldm(2)=   0.000000  celldm(3)=   0.000000
     celldm(4)=   0.000000  celldm(5)=   0.000000  celldm(6)=   0.000000

     crystal axes: (cart. coord. in units of alat)
               a(1) = (   1.027572   0.000000   0.000000 )
               a(2) = (  -0.513786   0.889904   0.000000 )
               a(3) = (   0.000000   0.000000   0.819107 )

     reciprocal axes: (cart. coord. in units 2 pi/alat)
               b(1) = (  0.973168  0.561859  0.000000 )
               b(2) = (  0.000000  1.123717  0.000000 )
               b(3) = (  0.000000  0.000000  1.220841 )

     PseudoPot. # 1 for Ce read from file:
     /home/jld5415/pp.La/Ce.UPF
     MD5 check sum: 44451aa79a44a00cf2bc029dc19922f6
     Pseudo is Norm-conserving, Zval = 12.0
     Generated in analytical, separable form
     Using radial grid of 1255 points,  6 beta functions with:
                l(1) =   0
                l(2) =   0
                l(3) =   1
                l(4) =   1
                l(5) =   2
                l(6) =   3

     PseudoPot. # 2 for Gd read from file:
     /home/jld5415/pp.La/Gd.UPF
     MD5 check sum: 09a8be538722f05520810cb6aac0efd2
     Pseudo is Norm-conserving, Zval = 18.0
     Generated in analytical, separable form
     Using radial grid of 1263 points,  6 beta functions with:
                l(1) =   0
                l(2) =   0
                l(3) =   1
                l(4) =   1
                l(5) =   2
                l(6) =   3

     atomic species   valence    mass     pseudopotential
        Mg            12.00    24.30500     Ce( 1.00)
        Cd            18.00   112.41100     Gd( 1.00)

     24 Sym. Ops., with inversion, found (12 have fractional translation)

   Cartesian axes

     site n.     atom                  positions (alat units)
         1           Mg  tau(   1) = (   0.2532106   0.7394604   0.2047768  )
         2           Mg  tau(   2) = (   0.7669968   0.1504433   0.6143305  )
         3           Mg  tau(   3) = (   0.2605755   0.1504433   0.6143305  )
         4           Mg  tau(   4) = (  -0.2532106   0.7394604   0.2047768  )
         5           Mg  tau(   5) = (   0.0000000   0.3008867   0.2047768  )
         6           Mg  tau(   6) = (   0.5137861   0.5890170   0.6143305  )
         7           Cd  tau(   7) = (   0.5137867   0.2966343   0.2047768  )
         8           Cd  tau(   8) = (  -0.0000005   0.5932694   0.6143305  )

     number of k points=    64  gaussian smearing, width (Ry)=  0.1000
                       cart. coord. in units 2pi/alat
        k(    1) = (   0.0000000   0.0000000   0.0000000), wk =   0.0095238
        k(    2) = (   0.0000000   0.0000000   0.1744059), wk =   0.0190476
        k(    3) = (   0.0000000   0.0000000   0.3488118), wk =   0.0190476
        k(    4) = (   0.0000000   0.0000000   0.5232177), wk =   0.0190476
        k(    5) = (   0.0000000   0.1872862   0.0000000), wk =   0.0190476
        k(    6) = (   0.0000000   0.1872862   0.1744059), wk =   0.0380952
        k(    7) = (   0.0000000   0.1872862   0.3488118), wk =   0.0380952
        k(    8) = (   0.0000000   0.1872862   0.5232177), wk =   0.0380952
        k(    9) = (   0.0000000   0.3745724   0.0000000), wk =   0.0190476
        k(   10) = (   0.0000000   0.3745724   0.1744059), wk =   0.0380952
        k(   11) = (   0.0000000   0.3745724   0.3488118), wk =   0.0380952
        k(   12) = (   0.0000000   0.3745724   0.5232177), wk =   0.0380952
        k(   13) = (   0.0000000  -0.5618585   0.0000000), wk =   0.0095238
        k(   14) = (   0.0000000  -0.5618585   0.1744059), wk =   0.0190476
        k(   15) = (   0.0000000  -0.5618585   0.3488118), wk =   0.0190476
        k(   16) = (   0.0000000  -0.5618585   0.5232177), wk =   0.0190476
        k(   17) = (   0.1946335   0.1123717   0.0000000), wk =   0.0190476
        k(   18) = (   0.1946335   0.1123717   0.1744059), wk =   0.0380952
        k(   19) = (   0.1946335   0.1123717   0.3488118), wk =   0.0380952
        k(   20) = (   0.1946335   0.1123717   0.5232177), wk =   0.0380952
        k(   21) = (   0.1946335   0.2996579   0.0000000), wk =   0.0190476
        k(   22) = (   0.1946335   0.2996579   0.1744059), wk =   0.0380952
        k(   23) = (   0.1946335   0.2996579   0.3488118), wk =   0.0380952
        k(   24) = (   0.1946335   0.2996579   0.5232177), wk =   0.0380952
        k(   25) = (   0.1946335   0.4869441   0.0000000), wk =   0.0190476
        k(   26) = (   0.1946335   0.4869441   0.1744059), wk =   0.0380952
        k(   27) = (   0.1946335   0.4869441   0.3488118), wk =   0.0380952
        k(   28) = (   0.1946335   0.4869441   0.5232177), wk =   0.0380952
        k(   29) = (   0.1946335  -0.4494868   0.0000000), wk =   0.0190476
        k(   30) = (   0.1946335  -0.4494868   0.1744059), wk =   0.0380952
        k(   31) = (   0.1946335  -0.4494868   0.3488118), wk =   0.0380952
        k(   32) = (   0.1946335  -0.4494868   0.5232177), wk =   0.0380952
        k(   33) = (   0.1946335  -0.2622007   0.0000000), wk =   0.0190476
        k(   34) = (   0.1946335  -0.2622007   0.1744059), wk =   0.0380952
        k(   35) = (   0.1946335  -0.2622007   0.3488118), wk =   0.0380952
        k(   36) = (   0.1946335  -0.2622007   0.5232177), wk =   0.0380952
        k(   37) = (   0.1946335  -0.0749145   0.0000000), wk =   0.0190476
        k(   38) = (   0.1946335  -0.0749145   0.1744059), wk =   0.0380952
        k(   39) = (   0.1946335  -0.0749145   0.3488118), wk =   0.0380952
        k(   40) = (   0.1946335  -0.0749145   0.5232177), wk =   0.0380952
        k(   41) = (   0.3892670   0.2247434   0.0000000), wk =   0.0190476
        k(   42) = (   0.3892670   0.2247434   0.1744059), wk =   0.0380952
        k(   43) = (   0.3892670   0.2247434   0.3488118), wk =   0.0380952
        k(   44) = (   0.3892670   0.2247434   0.5232177), wk =   0.0380952
        k(   45) = (   0.3892670   0.4120296   0.0000000), wk =   0.0190476
        k(   46) = (   0.3892670   0.4120296   0.1744059), wk =   0.0380952
        k(   47) = (   0.3892670   0.4120296   0.3488118), wk =   0.0380952
        k(   48) = (   0.3892670   0.4120296   0.5232177), wk =   0.0380952
        k(   49) = (   0.3892670   0.5993158   0.0000000), wk =   0.0190476
        k(   50) = (   0.3892670   0.5993158   0.1744059), wk =   0.0380952
        k(   51) = (   0.3892670   0.5993158   0.3488118), wk =   0.0380952
        k(   52) = (   0.3892670   0.5993158   0.5232177), wk =   0.0380952
        k(   53) = (   0.3892670  -0.3371151   0.0000000), wk =   0.0190476
        k(   54) = (   0.3892670  -0.3371151   0.1744059), wk =   0.0380952
        k(   55) = (   0.3892670  -0.3371151   0.3488118), wk =   0.0380952
        k(   56) = (   0.3892670  -0.3371151   0.5232177), wk =   0.0380952
        k(   57) = (   0.3892670  -0.1498289   0.0000000), wk =   0.0190476
        k(   58) = (   0.3892670  -0.1498289   0.1744059), wk =   0.0380952
        k(   59) = (   0.3892670  -0.1498289   0.3488118), wk =   0.0380952
        k(   60) = (   0.3892670  -0.1498289   0.5232177), wk =   0.0380952
        k(   61) = (   0.3892670   0.0374572   0.0000000), wk =   0.0190476
        k(   62) = (   0.3892670   0.0374572   0.1744059), wk =   0.0380952
        k(   63) = (   0.3892670   0.0374572   0.3488118), wk =   0.0380952
        k(   64) = (   0.3892670   0.0374572   0.5232177), wk =   0.0380952

     Largest allocated arrays     est. size (Mb)     dimensions
     Largest temporary arrays     est. size (Mb)     dimensions

     Initial potential from superposition of free atoms

     Starting from uniform charge
     Starting wfc are    0 randomized atomic wfcs

     Writing output data file Prototype-La-hP8-Mg3Cd.save

     Self-consistent Calculation

[...]

     iteration # 14     ecut=    40.00 Ry     beta=0.70
     CG style diagonalization
     c_bands:  1 eigenvalues not converged
     ethr =  7.47E-07,  avg # of iterations =  3.7

[...]

     total energy              =    -866.40639233 Ry
     Harris-Foulkes estimate   =    -866.40641103 Ry
     estimated scf accuracy    <       0.00004797 Ry

     iteration # 17     ecut=    40.00 Ry     beta=0.70
     CG style diagonalization
     ethr =  4.44E-08,  avg # of iterations =  4.0

     End of self-consistent calculation

[...]

          k = 0.3893 0.0375 0.5232 (  5558 PWs)   bands (ev):

   -49.5704 -49.5703 -20.5692 -20.5684 -20.5176 -20.5161 -20.5140 -20.5131
   -19.0875 -19.0154 -18.9368 -18.8937 -18.8626 -18.8346  -1.9574  -1.9280
    -1.8086  -1.7815  -1.5766  -1.5270  -1.0958  -0.9781  -0.7672  -0.7442
    -0.5646  -0.4386  -0.3213  -0.2900  -0.2011  -0.1087  -0.0504  -0.0244
    14.0830  14.1082  14.1910  14.3094  14.3894  14.4146  14.5696  14.6556
    14.7309  14.8153  15.2429  15.2900  16.5990  16.9150  17.0606  17.1911
    17.6544  17.9304  18.0528  18.2003  18.3326  18.6564  18.8423  19.0825
    19.2915  19.3792  19.5315  19.7830  20.4403  20.4873  20.5915  21.2505
    21.6000

     the Fermi energy is    18.7413 ev

!    total energy              =    -866.40640571 Ry
     Harris-Foulkes estimate   =    -866.40640924 Ry
     estimated scf accuracy    <       0.00000382 Ry

     The total energy is the sum of the following terms:

     one-electron contribution =     -93.15678417 Ry
     hartree contribution      =     112.62512044 Ry
     xc contribution           =    -100.81847594 Ry
     ewald contribution        =    -784.45101325 Ry
     smearing contrib. (-TS)   =      -0.60525279 Ry

     convergence has been achieved in  17 iterations

     Forces acting on atoms (Ry/au):

     atom    1 type  1   force =    -0.00606734   -0.00350298    0.00000000
     atom    2 type  1   force =    -0.00606734    0.00350298    0.00000000
     atom    3 type  1   force =     0.00606734    0.00350298    0.00000000
     atom    4 type  1   force =     0.00606734   -0.00350298    0.00000000
     atom    5 type  1   force =     0.00000000    0.00700596    0.00000000
     atom    6 type  1   force =     0.00000000   -0.00700596    0.00000000
     atom    7 type  2   force =     0.00000000    0.00000000    0.00000000
     atom    8 type  2   force =     0.00000000    0.00000000    0.00000000

     Total force =     0.017161     Total SCF correction =     0.000000

     entering subroutine stress ...

          total   stress  (Ry/bohr**3)                   (kbar)     P=   39.92
   0.00023763   0.00000000   0.00000000         34.96      0.00      0.00
   0.00000000   0.00023763   0.00000000          0.00     34.96      0.00
   0.00000000   0.00000000   0.00033893          0.00      0.00     49.86

     Writing output data file Prototype-La-hP8-Mg3Cd.save

     General routines

     Parallel routines

   This run was terminated on:   1:21:24  22Mar2018

   JOB DONE.