     Program PWSCF v.5.0.2 starts on 22Mar2018 at  0:35:22

     Current dimensions of program PWSCF are:
     Max number of different atomic species (ntypx) = 10
     Max number of k-points (npk) =  40000
     Max angular momentum in pseudopotentials (lmaxx) =  3
     Waiting for input...
     Reading input from standard input

     Subspace diagonalization in iterative solution of the eigenvalue problem:
     a serial algorithm will be used

     bravais-lattice index     =            0
     lattice parameter (alat)  =       8.8008  a.u.
     unit-cell volume          =    1116.9454 (a.u.)^3
     number of atoms/cell      =           16
     number of atomic types    =            2
     number of electrons       =       216.00
     number of Kohn-Sham states=          130
     kinetic-energy cutoff     =      40.0000  Ry
     charge density cutoff     =     160.0000  Ry
     convergence threshold     =      1.0E-04
     mixing beta               =       0.7000
     number of iterations used =            8  plain     mixing
     Exchange-correlation      = SLA-PZ-NOGX-NOGC ( 1 1 0 0 0)
     EXX-fraction              =        0.00
     nstep                     =           50

     celldm(1)=   8.800765  celldm(2)=   0.000000  celldm(3)=   0.000000
     celldm(4)=   0.000000  celldm(5)=   0.000000  celldm(6)=   0.000000

     crystal axes: (cart. coord. in units of alat)
               a(1) = (   1.000000   0.000000   0.000000 )
               a(2) = (   0.000000   1.083771   0.000000 )
               a(3) = (   0.000000   0.000000   1.511935 )

     reciprocal axes: (cart. coord. in units 2 pi/alat)
               b(1) = (  1.000000  0.000000  0.000000 )
               b(2) = (  0.000000  0.922704  0.000000 )
               b(3) = (  0.000000  0.000000  0.661404 )

     PseudoPot. # 1 for Ce read from file:
     /home/jld5415/pp.La/Ce.UPF
     MD5 check sum: 44451aa79a44a00cf2bc029dc19922f6
     Pseudo is Norm-conserving, Zval = 12.0
     Generated in analytical, separable form
     Using radial grid of 1255 points,  6 beta functions with:
                l(1) =   0
                l(2) =   0
                l(3) =   1
                l(4) =   1
                l(5) =   2
                l(6) =   3

     PseudoPot. # 2 for Gd read from file:
     /home/jld5415/pp.La/Gd.UPF
     MD5 check sum: 09a8be538722f05520810cb6aac0efd2
     Pseudo is Norm-conserving, Zval = 18.0
     Generated in analytical, separable form
     Using radial grid of 1263 points,  6 beta functions with:
                l(1) =   0
                l(2) =   0
                l(3) =   1
                l(4) =   1
                l(5) =   2
                l(6) =   3

     atomic species   valence    mass     pseudopotential
        Fe            12.00    55.84500     Ce( 1.00)
        C             18.00    12.01070     Gd( 1.00)

      8 Sym. Ops., with inversion, found ( 6 have fractional translation)

   Cartesian axes

     site n.     atom                  positions (alat units)
         1           Fe  tau(   1) = (   0.3472940   0.1827628   1.3947267  )
         2           Fe  tau(   2) = (   0.1527060   0.7246484   0.8731757  )
         3           Fe  tau(   3) = (   0.8472940   0.3591227   0.6387592  )
         4           Fe  tau(   4) = (   0.3396640   0.4879235   0.3779837  )
         5           Fe  tau(   5) = (   0.1527060   0.7246484   1.3947267  )
         6           Fe  tau(   6) = (   0.3472940   0.1827628   0.8731757  )
         7           Fe  tau(   7) = (   0.1603360   1.0298091   0.3779837  )
         8           Fe  tau(   8) = (   0.6527060   0.9010083   0.6387592  )
         9           Fe  tau(   9) = (   0.8472940   0.3591227   0.1172082  )
        10           Fe  tau(  10) = (   0.6603360   0.5958476   1.1339512  )
        11           Fe  tau(  11) = (   0.6527060   0.9010083   0.1172082  )
        12           Fe  tau(  12) = (   0.8396640   0.0539620   1.1339512  )
        13           C   tau(  13) = (   0.0000000   0.0000000   0.0000000  )
        14           C   tau(  14) = (   0.5000000   0.5418856   0.0000000  )
        15           C   tau(  15) = (   0.5000000   0.5418856   0.7559674  )
        16           C   tau(  16) = (   0.0000000   0.0000000   0.7559674  )

     number of k points=    12  gaussian smearing, width (Ry)=  0.1000
                       cart. coord. in units 2pi/alat
        k(    1) = (   0.0000000   0.0000000   0.0000000), wk =   0.0833333
        k(    2) = (   0.0000000   0.0000000   0.1653510), wk =   0.1666667
        k(    3) = (   0.0000000   0.0000000  -0.3307021), wk =   0.0833333
        k(    4) = (   0.0000000   0.3075680   0.0000000), wk =   0.1666667
        k(    5) = (   0.0000000   0.3075680   0.1653510), wk =   0.3333333
        k(    6) = (   0.0000000   0.3075680  -0.3307021), wk =   0.1666667
        k(    7) = (  -0.5000000   0.0000000   0.0000000), wk =   0.0833333
        k(    8) = (  -0.5000000   0.0000000   0.1653510), wk =   0.1666667
        k(    9) = (  -0.5000000   0.0000000  -0.3307021), wk =   0.0833333
        k(   10) = (  -0.5000000   0.3075680   0.0000000), wk =   0.1666667
        k(   11) = (  -0.5000000   0.3075680   0.1653510), wk =   0.3333333
        k(   12) = (  -0.5000000   0.3075680  -0.3307021), wk =   0.1666667

     Largest allocated arrays     est. size (Mb)     dimensions
     Largest temporary arrays     est. size (Mb)     dimensions

     Initial potential from superposition of free atoms

     Starting from uniform charge
     Starting wfc are    0 randomized atomic wfcs

     Self-consistent Calculation

     iteration #  1     ecut=    40.00 Ry     beta=0.70
     CG style diagonalization
     ethr =  1.00E-02,  avg # of iterations = 18.7

     total energy              =    -821.49446984 Ry
     Harris-Foulkes estimate   =   -2237.90422594 Ry
     estimated scf accuracy    <    1682.70838920 Ry

     iteration #  2     ecut=    40.00 Ry     beta=0.70
     CG style diagonalization
     c_bands:  5 eigenvalues not converged
     c_bands:  2 eigenvalues not converged
     c_bands:  2 eigenvalues not converged
     c_bands:  2 eigenvalues not converged
     c_bands:  4 eigenvalues not converged
     c_bands:  3 eigenvalues not converged
     c_bands:  5 eigenvalues not converged
     c_bands:  4 eigenvalues not converged
     ethr =  1.00E-02,  avg # of iterations = 15.5

[...]

     End of self-consistent calculation

          k = 0.0000 0.0000 0.0000 (  4785 PWs)   bands (ev):

   -31.7823 -31.7443 -31.6686 -31.6348  -6.7744  -6.7260  -6.6797  -6.6184
    -6.3439  -6.1439  -5.3172  -5.2815  -5.2360  -5.2335  -4.9286  -4.8647
     3.5499   3.7257   4.5836   4.6010   4.6133   5.4871   8.4854   9.1438
     9.6027  10.2645  10.8187  10.8312  16.5293  16.8442  16.8556  17.0426
    17.2936  17.6179  17.7274  17.7391  19.3839  21.1533  21.5790  21.7973
    21.8345  21.9606  22.1370  22.7124  22.7300  22.8134  23.4129  23.5188
    23.5383  24.1333  24.4997  24.6541  24.7957  25.0037  25.6892  25.8432
    26.0579  26.4891  26.9373  27.4249  27.8131  27.8309  27.8721  28.1713
    28.6375  28.6871  28.8029  28.8897  30.7356  30.7827  31.0830  31.8064
    34.0290  34.3264  34.3967  34.8761  36.9729  38.3605  38.8938  39.0488
    39.6877  39.9084  39.9235  40.0858  40.1711  40.3351  40.5577  40.9689
    41.1738  41.5722  42.5611  42.7121  42.8215  43.1137  43.3540  43.8278
    43.8350  44.0053  44.0575  44.1814  44.3471  44.6945  44.7893  45.0400
    45.3976  45.5466  45.6491  45.9278  46.0826  46.4445  46.5045  46.7516
    46.8279  46.8722  47.1432  47.3798  48.2863  48.7075  48.8448  48.8906
    48.9320  49.0007  49.0211  49.7112  50.8674  50.9485  50.9822  51.0043
    51.5497  52.0351

[...]

          k =-0.5000 0.0000 0.0000 (  4798 PWs)   bands (ev):

[...]

     the Fermi energy is    46.4511 ev

!    total energy              =   -1696.00698007 Ry
     Harris-Foulkes estimate   =   -1696.00699621 Ry
     estimated scf accuracy    <       0.00001737 Ry

     The total energy is the sum of the following terms:

     one-electron contribution =     263.33626115 Ry
     hartree contribution      =     199.62496559 Ry
     xc contribution           =    -232.34201639 Ry
     ewald contribution        =   -1926.10106058 Ry
     smearing contrib. (-TS)   =      -0.52512984 Ry

     convergence has been achieved in  10 iterations

     Forces acting on atoms (Ry/au):

     atom    1 type  1   force =     0.93537648   -0.99517336   -1.29640086
     atom    2 type  1   force =    -0.93537648   -0.99517336    1.29640086
     atom    3 type  1   force =     0.93537648    0.99517336   -1.29640086
     atom    4 type  1   force =    -1.58778432   -0.57320140    0.00000000
     atom    5 type  1   force =    -0.93537648   -0.99517336   -1.29640086
     atom    6 type  1   force =     0.93537648   -0.99517336    1.29640086
     atom    7 type  1   force =     1.58778432   -0.57320140    0.00000000
     atom    8 type  1   force =    -0.93537648    0.99517336   -1.29640086
     atom    9 type  1   force =     0.93537648    0.99517336    1.29640086
     atom   10 type  1   force =     1.58778432    0.57320140    0.00000000
     atom   11 type  1   force =    -0.93537648    0.99517336    1.29640086
     atom   12 type  1   force =    -1.58778432    0.57320140    0.00000000
     atom   13 type  2   force =     0.00000000    0.00000000    0.00000000
     atom   14 type  2   force =     0.00000000    0.00000000    0.00000000
     atom   15 type  2   force =     0.00000000    0.00000000    0.00000000
     atom   16 type  2   force =     0.00000000    0.00000000    0.00000000

     Total force =     6.306038     Total SCF correction =     0.000000

     entering subroutine stress ...

          total   stress  (Ry/bohr**3)                   (kbar)     P=11115.88
   0.07748141   0.00000000   0.00000000      11397.91      0.00      0.00
   0.00000000   0.07556085   0.00000000          0.00  11115.38      0.00
   0.00000000   0.00000000   0.07365047          0.00      0.00  10834.36

     BFGS Geometry Optimization

     number of scf cycles    =   1
     number of bfgs steps    =   0

     enthalpy new            =   -1696.0069800713 Ry

     new trust radius        =       0.5000000000 bohr
     new conv_thr            =       0.0001000000 Ry

     new unit-cell volume =   1379.66193 a.u.^3 (   204.44480 Ang^3 )

CELL_PARAMETERS (alat=  8.80076499)
   1.074803866   0.000000000   0.000000000
   0.000000000   1.162831888   0.000000000
   0.000000000   0.000000000   1.619441468

ATOMIC_POSITIONS (crystal)
Fe       0.351398427   0.164606722   0.918715536
Fe       0.148601573   0.664606722   0.581284464
Fe       0.851398427   0.335393278   0.418715536
Fe       0.332696811   0.447888211   0.250000000
Fe       0.148601573   0.664606722   0.918715536
Fe       0.351398427   0.164606722   0.581284464
Fe       0.167303189   0.947888211   0.250000000
Fe       0.648601573   0.835393278   0.418715536
Fe       0.851398427   0.335393278   0.081284464
Fe       0.667303189   0.552111789   0.750000000
Fe       0.648601573   0.835393278   0.081284464
Fe       0.832696811   0.052111789   0.750000000
C        0.000000000   0.000000000   0.000000000
C        0.500000000   0.500000000   0.000000000
C        0.500000000   0.500000000   0.500000000
C        0.000000000   0.000000000   0.500000000

     Writing output data file Prototype-La-oP16-Fe3C.save
     NEW-OLD atomic charge density approx. for the potential
     NEW k-points:
        k(    1) = (   0.0000000   0.0000000   0.0000000), wk =   0.0833333
        k(    2) = (   0.0000000   0.0000000   0.1543742), wk =   0.1666667
        k(    3) = (   0.0000000   0.0000000  -0.3087484), wk =   0.0833333
        k(    4) = (   0.0000000   0.2866565   0.0000000), wk =   0.1666667
        k(    5) = (   0.0000000   0.2866565   0.1543742), wk =   0.3333333
        k(    6) = (   0.0000000   0.2866565  -0.3087484), wk =   0.1666667
        k(    7) = (  -0.4652012   0.0000000   0.0000000), wk =   0.0833333
        k(    8) = (  -0.4652012   0.0000000   0.1543742), wk =   0.1666667
        k(    9) = (  -0.4652012   0.0000000  -0.3087484), wk =   0.0833333
        k(   10) = (  -0.4652012   0.2866565   0.0000000), wk =   0.1666667
        k(   11) = (  -0.4652012   0.2866565   0.1543742), wk =   0.3333333
        k(   12) = (  -0.4652012   0.2866565  -0.3087484), wk =   0.1666667

[...]

          total   stress  (Ry/bohr**3)                   (kbar)     P= 5442.92
   0.03820274   0.00000000   0.00000000       5619.82      0.00      0.00
   0.00000000   0.03635707   0.00000000          0.00   5348.31      0.00
   0.00000000   0.00000000   0.03644096          0.00      0.00   5360.65

[...]

     enthalpy old            =   -1696.0069800713 Ry
     enthalpy new            =   -1711.4286679893 Ry

     CASE: enthalpy_new < enthalpy_old

     small trust_radius: resetting bfgs history

     new trust radius        =       7.0949753964 bohr
     new conv_thr            =       0.0001000000 Ry

[...]

     number of scf cycles    =   3
     number of bfgs steps    =   2

     enthalpy old            =   -1711.4286679893 Ry
     enthalpy new            =   -1680.0609301321 Ry

     CASE: enthalpy_new > enthalpy_old

     new trust radius        =       4.0322116386 bohr

     trust_radius < trust_radius_min

     resetting bfgs history

     Message from routine bfgs:
     history already reset at previous step: stopping
     new conv_thr            =       0.0001000000 Ry

     new unit-cell volume =   1580.27341 a.u.^3 (   234.17236 Ang^3 )

[...]

ATOMIC_POSITIONS (crystal)
Fe       0.352837456   0.163072442   0.917313834
Fe       0.147162544   0.663072442   0.582686166
Fe       0.852837456   0.336927558   0.417313834
Fe       0.330211372   0.446994980   0.250000000
Fe       0.147162544   0.663072442   0.917313834
Fe       0.352837456   0.163072442   0.582686166
Fe       0.169788628   0.946994980   0.250000000
Fe       0.647162544   0.836927558   0.417313834
Fe       0.852837456   0.336927558   0.082686166
Fe       0.669788628   0.553005020   0.750000000
Fe       0.647162544   0.836927558   0.082686166
Fe       0.830211372   0.053005020   0.750000000
C        0.000000000   0.000000000   0.000000000
C        0.500000000   0.500000000   0.000000000
C        0.500000000   0.500000000   0.500000000
C        0.000000000   0.000000000   0.500000000

     Writing output data file Prototype-La-oP16-Fe3C.save
     NEW-OLD atomic charge density approx. for the potential
     NEW k-points:
        k(    1) = (   0.0000000   0.0000000   0.0000000), wk =   0.0833333
        k(    2) = (   0.0000000   0.0000000   0.1477397), wk =   0.1666667
        k(    3) = (   0.0000000   0.0000000  -0.2954794), wk =   0.0833333
        k(    4) = (   0.0000000   0.2743899   0.0000000), wk =   0.1666667
        k(    5) = (   0.0000000   0.2743899   0.1477397), wk =   0.3333333
        k(    6) = (   0.0000000   0.2743899  -0.2954794), wk =   0.1666667
        k(    7) = (  -0.4433558   0.0000000   0.0000000), wk =   0.0833333
        k(    8) = (  -0.4433558   0.0000000   0.1477397), wk =   0.1666667
        k(    9) = (  -0.4433558   0.0000000  -0.2954794), wk =   0.0833333
        k(   10) = (  -0.4433558   0.2743899   0.0000000), wk =   0.1666667
        k(   11) = (  -0.4433558   0.2743899   0.1477397), wk =   0.3333333
        k(   12) = (  -0.4433558   0.2743899  -0.2954794), wk =   0.1666667

[...]

     The maximum number of steps has been reached.

     End of BFGS Geometry Optimization
Begin final coordinates
     new unit-cell volume =   1580.27341 a.u.^3 (   234.17236 Ang^3 )

CELL_PARAMETERS (alat=  8.80076499)
   1.127762428   0.000000000   0.000000000
   0.000000000   1.214816254   0.000000000
   0.000000000   0.000000000   1.692165140

ATOMIC_POSITIONS (crystal)
Fe       0.352837456   0.163072442   0.917313834
Fe       0.147162544   0.663072442   0.582686166
Fe       0.852837456   0.336927558   0.417313834
Fe       0.330211372   0.446994980   0.250000000
Fe       0.147162544   0.663072442   0.917313834
Fe       0.352837456   0.163072442   0.582686166
Fe       0.169788628   0.946994980   0.250000000
Fe       0.647162544   0.836927558   0.417313834
Fe       0.852837456   0.336927558   0.082686166
Fe       0.669788628   0.553005020   0.750000000
Fe       0.647162544   0.836927558   0.082686166
Fe       0.830211372   0.053005020   0.750000000
C        0.000000000   0.000000000   0.000000000
C        0.500000000   0.500000000   0.000000000
C        0.500000000   0.500000000   0.500000000
C        0.000000000   0.000000000   0.500000000
End final coordinates

     A final scf calculation at the relaxed structure.
     The G-vectors are recalculated for the final unit cell
     Results may differ from those at the preceding step.

     bravais-lattice index     =            0
     lattice parameter (alat)  =       8.8008  a.u.
     unit-cell volume          =    1580.2734 (a.u.)^3
     number of atoms/cell      =           16
     number of atomic types    =            2
     number of electrons       =       216.00
     number of Kohn-Sham states=          130
     kinetic-energy cutoff     =      40.0000  Ry
     charge density cutoff     =     160.0000  Ry
     convergence threshold     =      1.0E-04
     mixing beta               =       0.7000
     number of iterations used =            8  plain     mixing
     Exchange-correlation      = SLA-PZ-NOGX-NOGC ( 1 1 0 0 0)
     EXX-fraction              =        0.00

     celldm(1)=   8.800765  celldm(2)=   0.000000  celldm(3)=   0.000000
     celldm(4)=   0.000000  celldm(5)=   0.000000  celldm(6)=   0.000000

     crystal axes: (cart. coord. in units of alat)
               a(1) = (   1.127762   0.000000   0.000000 )
               a(2) = (   0.000000   1.214816   0.000000 )
               a(3) = (   0.000000   0.000000   1.692165 )

     reciprocal axes: (cart. coord. in units 2 pi/alat)
               b(1) = (  0.886712  0.000000  0.000000 )
               b(2) = (  0.000000  0.823170  0.000000 )
               b(3) = (  0.000000  0.000000  0.590959 )

     PseudoPot. # 1 for Ce read from file:
     /home/jld5415/pp.La/Ce.UPF
     MD5 check sum: 44451aa79a44a00cf2bc029dc19922f6
     Pseudo is Norm-conserving, Zval = 12.0
     Generated in analytical, separable form
     Using radial grid of 1255 points,  6 beta functions with:
                l(1) =   0
                l(2) =   0
                l(3) =   1
                l(4) =   1
                l(5) =   2
                l(6) =   3

     PseudoPot. # 2 for Gd read from file:
     /home/jld5415/pp.La/Gd.UPF
     MD5 check sum: 09a8be538722f05520810cb6aac0efd2
     Pseudo is Norm-conserving, Zval = 18.0
     Generated in analytical, separable form
     Using radial grid of 1263 points,  6 beta functions with:
                l(1) =   0
                l(2) =   0
                l(3) =   1
                l(4) =   1
                l(5) =   2
                l(6) =   3

     atomic species   valence    mass     pseudopotential
        Fe            12.00    55.84500     Ce( 1.00)
        C             18.00    12.01070     Gd( 1.00)

      8 Sym. Ops., with inversion, found ( 6 have fractional translation)

   Cartesian axes

     site n.     atom                  positions (alat units)
         1           Fe  tau(   1) = (   0.3979168   0.1981031   1.5522465  )
         2           Fe  tau(   2) = (   0.1659644   0.8055112   0.9860012  )
         3           Fe  tau(   3) = (   0.9617980   0.4093051   0.7061639  )
         4           Fe  tau(   4) = (   0.3724000   0.5430168   0.4230413  )
         5           Fe  tau(   5) = (   0.1659644   0.8055112   1.5522465  )
         6           Fe  tau(   6) = (   0.3979168   0.1981031   0.9860012  )
         7           Fe  tau(   7) = (   0.1914812   1.1504249   0.4230413  )
         8           Fe  tau(   8) = (   0.7298456   1.0167132   0.7061639  )
         9           Fe  tau(   9) = (   0.9617980   0.4093051   0.1399186  )
        10           Fe  tau(  10) = (   0.7553624   0.6717995   1.2691239  )
        11           Fe  tau(  11) = (   0.7298456   1.0167132   0.1399186  )
        12           Fe  tau(  12) = (   0.9362812   0.0643914   1.2691239  )
        13           C   tau(  13) = (   0.0000000   0.0000000   0.0000000  )
        14           C   tau(  14) = (   0.5638812   0.6074081   0.0000000  )
        15           C   tau(  15) = (   0.5638812   0.6074081   0.8460826  )
        16           C   tau(  16) = (   0.0000000   0.0000000   0.8460826  )

     number of k points=    12  gaussian smearing, width (Ry)=  0.1000
                       cart. coord. in units 2pi/alat
        k(    1) = (   0.0000000   0.0000000   0.0000000), wk =   0.0833333
        k(    2) = (   0.0000000   0.0000000   0.1477397), wk =   0.1666667
        k(    3) = (   0.0000000   0.0000000  -0.2954794), wk =   0.0833333
        k(    4) = (   0.0000000   0.2743899   0.0000000), wk =   0.1666667
        k(    5) = (   0.0000000   0.2743899   0.1477397), wk =   0.3333333
        k(    6) = (   0.0000000   0.2743899  -0.2954794), wk =   0.1666667
        k(    7) = (  -0.4433558   0.0000000   0.0000000), wk =   0.0833333
        k(    8) = (  -0.4433558   0.0000000   0.1477397), wk =   0.1666667
        k(    9) = (  -0.4433558   0.0000000  -0.2954794), wk =   0.0833333
        k(   10) = (  -0.4433558   0.2743899   0.0000000), wk =   0.1666667
        k(   11) = (  -0.4433558   0.2743899   0.1477397), wk =   0.3333333
        k(   12) = (  -0.4433558   0.2743899  -0.2954794), wk =   0.1666667

     Largest allocated arrays     est. size (Mb)     dimensions
     Largest temporary arrays     est. size (Mb)     dimensions

     Initial potential from superposition of free atoms

     Starting from uniform charge
     Starting wfc are    0 randomized atomic wfcs

     Writing output data file Prototype-La-oP16-Fe3C.save

     Self-consistent Calculation

[...]

     iteration #  6     ecut=    40.00 Ry     beta=0.70
     CG style diagonalization
     ethr =  4.59E-03,  avg # of iterations =  3.8

[...]

     total energy              =   -1719.00313397 Ry
     Harris-Foulkes estimate   =   -1719.00317592 Ry
     estimated scf accuracy    <       0.00011901 Ry

     iteration # 11     ecut=    40.00 Ry     beta=0.70
     CG style diagonalization
     c_bands:  1 eigenvalues not converged
     c_bands:  1 eigenvalues not converged
     c_bands:  1 eigenvalues not converged
     ethr =  5.51E-08,  avg # of iterations =  4.8

     End of self-consistent calculation

[...]

          k = 0.0000 0.2744-0.2955 (  6736 PWs)   bands (ev):

[...]

          k =-0.4434 0.2744-0.2955 (  6764 PWs)   bands (ev):

   -41.2465 -41.2465 -41.2464 -41.2464 -14.1168 -14.1168 -14.1139 -14.1139
   -13.6428 -13.6428 -13.6339 -13.6339 -13.4612 -13.4612 -13.4605 -13.4605
    -6.2336  -6.2336  -6.2237  -6.2237  -5.5462  -5.5462  -5.3442  -5.3442
    -4.8858  -4.8858  -4.8617  -4.8617   8.4932   8.4932   8.5936   8.5936
     9.0333   9.0333   9.3483   9.3483   9.7696   9.7696   9.8704   9.8704
    10.7271  10.7271  10.9568  10.9568  11.1551  11.1551  12.0382  12.0382
    12.1136  12.1136  12.2477  12.2477  12.4709  12.4709  12.5795  12.5795
    12.9411  12.9411  13.2219  13.2219  13.7346  13.7346  13.9054  13.9054
    20.4385  20.4385  20.5588  20.5588  21.1815  21.1815  21.2974  21.2974
    22.3933  22.3933  22.3979  22.3979  24.8246  24.8246  25.0139  25.0139
    26.0900  26.0900  26.1215  26.1215  28.1886  28.1886  29.0718  29.0718
    29.2610  29.2610  29.6834  29.6834  29.8157  29.8157  30.0264  30.0264
    30.9089  30.9089  30.9157  30.9157  31.7324  31.7324  31.9870  31.9870
    32.2307  32.2307  32.3022  32.3022  33.1379  33.1379  33.7078  33.7078
    33.9701  33.9701  34.3371  34.3371  34.7409  34.7409  35.0027  35.0027
    35.3481  35.3481  36.0309  36.0311  36.2816  36.2819  36.4443  36.4447
    36.8468  36.8544

     the Fermi energy is    32.8444 ev

!    total energy              =   -1719.00317484 Ry
     Harris-Foulkes estimate   =   -1719.00321082 Ry
     estimated scf accuracy    <       0.00004370 Ry

     The total energy is the sum of the following terms:

     one-electron contribution =      -1.04556479 Ry
     hartree contribution      =     231.73588108 Ry
     xc contribution           =    -217.74773741 Ry
     ewald contribution        =   -1731.23203831 Ry
     smearing contrib. (-TS)   =      -0.71371541 Ry

     convergence has been achieved in  11 iterations

     Forces acting on atoms (Ry/au):

     atom    1 type  1   force =     0.36290314   -0.42186361   -0.51610387
     atom    2 type  1   force =    -0.36290314   -0.42186361    0.51610387
     atom    3 type  1   force =     0.36290314    0.42186361   -0.51610387
     atom    4 type  1   force =    -0.64376095   -0.23946023    0.00000000
     atom    5 type  1   force =    -0.36290314   -0.42186361   -0.51610387
     atom    6 type  1   force =     0.36290314   -0.42186361    0.51610387
     atom    7 type  1   force =     0.64376095   -0.23946023    0.00000000
     atom    8 type  1   force =    -0.36290314    0.42186361   -0.51610387
     atom    9 type  1   force =     0.36290314    0.42186361    0.51610387
     atom   10 type  1   force =     0.64376095    0.23946023    0.00000000
     atom   11 type  1   force =    -0.36290314    0.42186361    0.51610387
     atom   12 type  1   force =    -0.64376095    0.23946023    0.00000000
     atom   13 type  2   force =     0.00000000    0.00000000    0.00000000
     atom   14 type  2   force =     0.00000000    0.00000000    0.00000000
     atom   15 type  2   force =     0.00000000    0.00000000    0.00000000
     atom   16 type  2   force =     0.00000000    0.00000000    0.00000000

     Total force =     2.548593     Total SCF correction =     0.000000

     entering subroutine stress ...

          total   stress  (Ry/bohr**3)                   (kbar)     P= 3432.91
   0.02413158   0.00000000   0.00000000       3549.88      0.00      0.00
   0.00000000   0.02278303   0.00000000          0.00   3351.50      0.00
   0.00000000   0.00000000   0.02309484          0.00      0.00   3397.37

     Writing output data file Prototype-La-oP16-Fe3C.save

     General routines

     Parallel routines

   This run was terminated on:   1:14:14  22Mar2018

   JOB DONE.