     Program PWSCF v.5.0.2 starts on 22Mar2018 at  0:35:20

     Current dimensions of program PWSCF are:
     Max number of different atomic species (ntypx) = 10
     Max number of k-points (npk) =  40000
     Max angular momentum in pseudopotentials (lmaxx) =  3
     Waiting for input...
     Reading input from standard input

     Subspace diagonalization in iterative solution of the eigenvalue problem:
     a serial algorithm will be used

     bravais-lattice index     =            0
     lattice parameter (alat)  =       9.9235  a.u.
     unit-cell volume          =    1361.0366 (a.u.)^3
     number of atoms/cell      =           12
     number of atomic types    =            2
     number of electrons       =       192.00
     number of Kohn-Sham states=          115
     kinetic-energy cutoff     =      40.0000  Ry
     charge density cutoff     =     160.0000  Ry
     convergence threshold     =      1.0E-04
     mixing beta               =       0.7000
     number of iterations used =            8  plain     mixing
     Exchange-correlation      = SLA-PZ-NOGX-NOGC ( 1 1 0 0 0)
     EXX-fraction              =        0.00
     nstep                     =           50

     celldm(1)=   9.923489  celldm(2)=   0.000000  celldm(3)=   0.000000
     celldm(4)=   0.000000  celldm(5)=   0.000000  celldm(6)=   0.000000

     crystal axes: (cart. coord. in units of alat)
               a(1) = (   1.000000   0.000000   0.000000 )
               a(2) = (  -0.500000   0.866025   0.000000 )
               a(3) = (   0.000000   0.000000   1.608222 )

     reciprocal axes: (cart. coord. in units 2 pi/alat)
               b(1) = (  1.000000  0.577350  0.000000 )
               b(2) = (  0.000000  1.154701  0.000000 )
               b(3) = (  0.000000  0.000000  0.621805 )

     PseudoPot. # 1 for Ce read from file:
     /home/jld5415/pp.La/Ce.UPF
     MD5 check sum: 44451aa79a44a00cf2bc029dc19922f6
     Pseudo is Norm-conserving, Zval = 12.0
     Generated in analytical, separable form
     Using radial grid of 1255 points,  6 beta functions with:
                l(1) =   0
                l(2) =   0
                l(3) =   1
                l(4) =   1
                l(5) =   2
                l(6) =   3

     PseudoPot. # 2 for Gd read from file:
     /home/jld5415/pp.La/Gd.UPF
     MD5 check sum: 09a8be538722f05520810cb6aac0efd2
     Pseudo is Norm-conserving, Zval = 18.0
     Generated in analytical, separable form
     Using radial grid of 1263 points,  6 beta functions with:
                l(1) =   0
                l(2) =   0
                l(3) =   1
                l(4) =   1
                l(5) =   2
                l(6) =   3

     atomic species   valence    mass     pseudopotential
        Mg            12.00    24.30500     Ce( 1.00)
        Zn            18.00    65.39000     Gd( 1.00)

     24 Sym. Ops., with inversion, found (12 have fractional translation)

   Cartesian axes

     site n.     atom                  positions (alat units)
         1           Mg  tau(   1) = (  -0.0000005   0.5773506   0.1003820  )
         2           Mg  tau(   2) = (   0.5000005   0.2886748   0.9044931  )
         3           Mg  tau(   3) = (   0.5000005   0.2886748   1.5078402  )
         4           Mg  tau(   4) = (  -0.0000005   0.5773506   0.7037291  )
         5           Zn  tau(   5) = (   0.0000000   0.0000000   0.0000000  )
         6           Zn  tau(   6) = (   0.0000000   0.0000000   0.8041111  )
         7           Zn  tau(   7) = (   0.0000000   0.2950739   1.2061667  )
         8           Zn  tau(   8) = (   0.7444585   0.1475370   0.4020556  )
         9           Zn  tau(   9) = (   0.2555415   0.1475370   0.4020556  )
        10           Zn  tau(  10) = (   0.2444585   0.7184884   1.2061667  )
        11           Zn  tau(  11) = (  -0.2444585   0.7184884   1.2061667  )
        12           Zn  tau(  12) = (   0.5000000   0.5709515   0.4020556  )

     number of k points=    12  gaussian smearing, width (Ry)=  0.1000
                       cart. coord. in units 2pi/alat
        k(    1) = (   0.0000000   0.0000000   0.0000000), wk =   0.0833333
        k(    2) = (   0.0000000   0.0000000   0.1554512), wk =   0.1666667
        k(    3) = (   0.0000000   0.0000000  -0.3109023), wk =   0.0833333
        k(    4) = (   0.0000000   0.3849002   0.0000000), wk =   0.1666667
        k(    5) = (   0.0000000   0.3849002   0.1554512), wk =   0.3333333
        k(    6) = (   0.0000000   0.3849002  -0.3109023), wk =   0.1666667
        k(    7) = (  -0.5000000  -0.2886751   0.0000000), wk =   0.0833333
        k(    8) = (  -0.5000000  -0.2886751   0.1554512), wk =   0.1666667
        k(    9) = (  -0.5000000  -0.2886751  -0.3109023), wk =   0.0833333
        k(   10) = (  -0.5000000   0.0962250   0.0000000), wk =   0.1666667
        k(   11) = (  -0.5000000   0.0962250   0.1554512), wk =   0.3333333
        k(   12) = (  -0.5000000   0.0962250  -0.3109023), wk =   0.1666667

     Largest allocated arrays     est. size (Mb)     dimensions
     Largest temporary arrays     est. size (Mb)     dimensions

     Initial potential from superposition of free atoms

     Starting from uniform charge
     Starting wfc are    0 randomized atomic wfcs

     Self-consistent Calculation

     iteration #  1     ecut=    40.00 Ry     beta=0.70
     CG style diagonalization
     ethr =  1.00E-02,  avg # of iterations = 17.7

     total energy              =   -1311.22802824 Ry
     Harris-Foulkes estimate   =   -2475.47118159 Ry
     estimated scf accuracy    <    1411.45670554 Ry

[...]

     iteration #  3     ecut=    40.00 Ry     beta=0.70
     CG style diagonalization
     c_bands:  4 eigenvalues not converged
     c_bands:  4 eigenvalues not converged
     c_bands:  1 eigenvalues not converged
     c_bands:  2 eigenvalues not converged
     c_bands:  2 eigenvalues not converged
     c_bands:  1 eigenvalues not converged
     c_bands:  1 eigenvalues not converged
     ethr =  1.00E-02,  avg # of iterations = 12.0

[...]

     End of self-consistent calculation

          k = 0.0000 0.0000 0.0000 (  5769 PWs)   bands (ev):

   -40.7699 -40.7037 -40.3648 -40.3648 -40.3630 -40.3629 -40.2728 -40.1941
   -13.5911 -13.2557 -12.6602 -12.2508 -12.2508 -12.1801 -12.1800 -11.9691
   -11.9691 -11.8157 -11.4428 -11.4428 -11.3300 -11.3098 -11.3098 -10.8905
   -10.8834 -10.7720 -10.7720 -10.7552 -10.7552 -10.7392 -10.6845 -10.6845
    -9.0313  -8.8170  -8.6849  -8.5452   8.3731   8.3796   8.4264   8.4264
     8.4335   8.4336   9.4935   9.5075   9.5264   9.5264   9.6063   9.6063
    17.6118  18.3865  18.8443  19.6314  19.6314  20.1144  20.1144  20.6287
    20.7625  20.7625  21.0419  21.0420  21.2303  21.4176  21.8241  21.8241
    22.1130  23.1638  23.1639  23.2718  23.2719  23.3781  24.3653  24.3653
    24.4869  24.6309  25.4366  25.4366  25.4367  25.4500  25.4500  25.4720
    25.4720  25.7311  26.1922  26.1922  26.4462  26.9076  26.9076  27.2363
    27.2363  27.6966  27.9274  27.9274  27.9762  27.9762  29.0369  29.0369
    29.2653  29.6927  29.8473  29.8473  30.2416  30.2498  30.9773  30.9773
    31.1982  31.1982  32.8560  32.9844  33.4361  33.9136  33.9138  34.1243
    34.1244  36.2713  36.5142

[...]

          k =-0.5000-0.2887 0.0000 (  5800 PWs)   bands (ev):

[...]

     the Fermi energy is    29.1570 ev

!    total energy              =   -1918.51292618 Ry
     Harris-Foulkes estimate   =   -1918.51300640 Ry
     estimated scf accuracy    <       0.00008951 Ry

     The total energy is the sum of the following terms:

     one-electron contribution =    -159.24813312 Ry
     hartree contribution      =     259.48474864 Ry
     xc contribution           =    -205.46837497 Ry
     ewald contribution        =   -1812.74421067 Ry
     smearing contrib. (-TS)   =      -0.53695606 Ry

     convergence has been achieved in  14 iterations

     Forces acting on atoms (Ry/au):

     atom    1 type  1   force =     0.00000000    0.00000000    0.01216355
     atom    2 type  1   force =     0.00000000    0.00000000    0.01216355
     atom    3 type  1   force =     0.00000000    0.00000000   -0.01216355
     atom    4 type  1   force =     0.00000000    0.00000000   -0.01216355
     atom    5 type  2   force =     0.00000000    0.00000000    0.00000000
     atom    6 type  2   force =     0.00000000    0.00000000    0.00000000
     atom    7 type  2   force =     0.00000000    0.02085980    0.00000000
     atom    8 type  2   force =    -0.01806511    0.01042990    0.00000000
     atom    9 type  2   force =     0.01806511    0.01042990    0.00000000
     atom   10 type  2   force =    -0.01806511   -0.01042990    0.00000000
     atom   11 type  2   force =     0.01806511   -0.01042990    0.00000000
     atom   12 type  2   force =     0.00000000   -0.02085980    0.00000000

     Total force =     0.056591     Total SCF correction =     0.000000

     entering subroutine stress ...

          total   stress  (Ry/bohr**3)                   (kbar)     P=  964.27
   0.00644732   0.00000000   0.00000000        948.43      0.00      0.00
   0.00000000   0.00644732   0.00000000          0.00    948.43      0.00
   0.00000000   0.00000000   0.00677028          0.00      0.00    995.94

     BFGS Geometry Optimization

     number of scf cycles    =   1
     number of bfgs steps    =   0

     enthalpy new            =   -1918.5129261770 Ry

     new trust radius        =       0.5000000000 bohr
     new conv_thr            =       0.0001000000 Ry

     new unit-cell volume =   1646.88459 a.u.^3 (   244.04311 Ang^3 )

CELL_PARAMETERS (alat=  9.92348860)
   1.064532303   0.000000000   0.000000000
  -0.532266152   0.921912018   0.000000000
   0.000000000   0.000000000   1.717203317

ATOMIC_POSITIONS (crystal)
Mg       0.333333000   0.666667000   0.062723146
Mg       0.666667000   0.333333000   0.562723146
Mg       0.666667000   0.333333000   0.937276854
Mg       0.333333000   0.666667000   0.437276854
Zn       0.000000000   0.000000000   0.000000000
Zn       0.000000000   0.000000000   0.500000000
Zn       0.170846896   0.341693792   0.750000000
Zn       0.829153104   0.170846896   0.250000000
Zn       0.341693792   0.170846896   0.250000000
Zn       0.658306208   0.829153104   0.750000000
Zn       0.170846896   0.829153104   0.750000000
Zn       0.829153104   0.658306208   0.250000000

     Writing output data file Prototype-La-hP12-MgZn2.save
     NEW-OLD atomic charge density approx. for the potential
     NEW k-points:
        k(    1) = (   0.0000000   0.0000000   0.0000000), wk =   0.0833333
        k(    2) = (   0.0000000   0.0000000   0.1455856), wk =   0.1666667
        k(    3) = (   0.0000000   0.0000000  -0.2911711), wk =   0.0833333
        k(    4) = (   0.0000000   0.3615674   0.0000000), wk =   0.1666667
        k(    5) = (   0.0000000   0.3615674   0.1455856), wk =   0.3333333
        k(    6) = (   0.0000000   0.3615674  -0.2911711), wk =   0.1666667
        k(    7) = (  -0.4696898  -0.2711756   0.0000000), wk =   0.0833333
        k(    8) = (  -0.4696898  -0.2711756   0.1455856), wk =   0.1666667
        k(    9) = (  -0.4696898  -0.2711756  -0.2911711), wk =   0.0833333
        k(   10) = (  -0.4696898   0.0903919   0.0000000), wk =   0.1666667
        k(   11) = (  -0.4696898   0.0903919   0.1455856), wk =   0.3333333
        k(   12) = (  -0.4696898   0.0903919  -0.2911711), wk =   0.1666667

[...]

     enthalpy old            =   -1918.5129261770 Ry
     enthalpy new            =   -1919.2996435091 Ry

     CASE: enthalpy_new < enthalpy_old

     small trust_radius: resetting bfgs history

[...]

     number of scf cycles    =   3
     number of bfgs steps    =   2

     enthalpy old            =   -1919.2996435091 Ry
     enthalpy new            =   -1919.3010315447 Ry

     CASE: enthalpy_new < enthalpy_old

     Message from routine bfgs:
     history already reset at previous step: stopping
     small trust_radius: resetting bfgs history

     new trust radius        =       0.0398279231 bohr
     new conv_thr            =       0.0000072189 Ry

     new unit-cell volume =   1642.30698 a.u.^3 (   243.36478 Ang^3 )

[...]

ATOMIC_POSITIONS (crystal)
Mg       0.333333000   0.666667000   0.062919084
Mg       0.666667000   0.333333000   0.562919084
Mg       0.666667000   0.333333000   0.937080916
Mg       0.333333000   0.666667000   0.437080916
Zn       0.000000000   0.000000000   0.000000000
Zn       0.000000000   0.000000000   0.500000000
Zn       0.170194298   0.340388597   0.750000000
Zn       0.829805702   0.170194298   0.250000000
Zn       0.340388597   0.170194298   0.250000000
Zn       0.659611403   0.829805702   0.750000000
Zn       0.170194298   0.829805702   0.750000000
Zn       0.829805702   0.659611403   0.250000000

     Writing output data file Prototype-La-hP12-MgZn2.save
     NEW-OLD atomic charge density approx. for the potential
     NEW k-points:
        k(    1) = (   0.0000000   0.0000000   0.0000000), wk =   0.0833333
        k(    2) = (   0.0000000   0.0000000   0.1454263), wk =   0.1666667
        k(    3) = (   0.0000000   0.0000000  -0.2908526), wk =   0.0833333
        k(    4) = (   0.0000000   0.3622691   0.0000000), wk =   0.1666667
        k(    5) = (   0.0000000   0.3622691   0.1454263), wk =   0.3333333
        k(    6) = (   0.0000000   0.3622691  -0.2908526), wk =   0.1666667
        k(    7) = (  -0.4706014  -0.2717019   0.0000000), wk =   0.0833333
        k(    8) = (  -0.4706014  -0.2717019   0.1454263), wk =   0.1666667
        k(    9) = (  -0.4706014  -0.2717019  -0.2908526), wk =   0.0833333
        k(   10) = (  -0.4706014   0.0905673   0.0000000), wk =   0.1666667
        k(   11) = (  -0.4706014   0.0905673   0.1454263), wk =   0.3333333
        k(   12) = (  -0.4706014   0.0905673  -0.2908526), wk =   0.1666667

[...]

     The maximum number of steps has been reached.

     End of BFGS Geometry Optimization
Begin final coordinates
     new unit-cell volume =   1642.30698 a.u.^3 (   243.36478 Ang^3 )

CELL_PARAMETERS (alat=  9.92348860)
   1.062470223   0.000000000   0.000000000
  -0.531235111   0.920126204   0.000000000
   0.000000000   0.000000000   1.719083800

ATOMIC_POSITIONS (crystal)
Mg       0.333333000   0.666667000   0.062919084
Mg       0.666667000   0.333333000   0.562919084
Mg       0.666667000   0.333333000   0.937080916
Mg       0.333333000   0.666667000   0.437080916
Zn       0.000000000   0.000000000   0.000000000
Zn       0.000000000   0.000000000   0.500000000
Zn       0.170194298   0.340388597   0.750000000
Zn       0.829805702   0.170194298   0.250000000
Zn       0.340388597   0.170194298   0.250000000
Zn       0.659611403   0.829805702   0.750000000
Zn       0.170194298   0.829805702   0.750000000
Zn       0.829805702   0.659611403   0.250000000
End final coordinates

     A final scf calculation at the relaxed structure.
     The G-vectors are recalculated for the final unit cell
     Results may differ from those at the preceding step.

     bravais-lattice index     =            0
     lattice parameter (alat)  =       9.9235  a.u.
     unit-cell volume          =    1642.3070 (a.u.)^3
     number of atoms/cell      =           12
     number of atomic types    =            2
     number of electrons       =       192.00
     number of Kohn-Sham states=          115
     kinetic-energy cutoff     =      40.0000  Ry
     charge density cutoff     =     160.0000  Ry
     convergence threshold     =      7.2E-06
     mixing beta               =       0.7000
     number of iterations used =            8  plain     mixing
     Exchange-correlation      = SLA-PZ-NOGX-NOGC ( 1 1 0 0 0)
     EXX-fraction              =        0.00

     celldm(1)=   9.923489  celldm(2)=   0.000000  celldm(3)=   0.000000
     celldm(4)=   0.000000  celldm(5)=   0.000000  celldm(6)=   0.000000

     crystal axes: (cart. coord. in units of alat)
               a(1) = (   1.062470   0.000000   0.000000 )
               a(2) = (  -0.531235   0.920126   0.000000 )
               a(3) = (   0.000000   0.000000   1.719084 )

     reciprocal axes: (cart. coord. in units 2 pi/alat)
               b(1) = (  0.941203  0.543404  0.000000 )
               b(2) = (  0.000000  1.086807  0.000000 )
               b(3) = (  0.000000  0.000000  0.581705 )

     PseudoPot. # 1 for Ce read from file:
     /home/jld5415/pp.La/Ce.UPF
     MD5 check sum: 44451aa79a44a00cf2bc029dc19922f6
     Pseudo is Norm-conserving, Zval = 12.0
     Generated in analytical, separable form
     Using radial grid of 1255 points,  6 beta functions with:
                l(1) =   0
                l(2) =   0
                l(3) =   1
                l(4) =   1
                l(5) =   2
                l(6) =   3

     PseudoPot. # 2 for Gd read from file:
     /home/jld5415/pp.La/Gd.UPF
     MD5 check sum: 09a8be538722f05520810cb6aac0efd2
     Pseudo is Norm-conserving, Zval = 18.0
     Generated in analytical, separable form
     Using radial grid of 1263 points,  6 beta functions with:
                l(1) =   0
                l(2) =   0
                l(3) =   1
                l(4) =   1
                l(5) =   2
                l(6) =   3

     atomic species   valence    mass     pseudopotential
        Mg            12.00    24.30500     Ce( 1.00)
        Zn            18.00    65.39000     Gd( 1.00)

     24 Sym. Ops., with inversion, found (12 have fractional translation)

   Cartesian axes

     site n.     atom                  positions (alat units)
         1           Mg  tau(   1) = (  -0.0000005   0.6134178   0.1081632  )
         2           Mg  tau(   2) = (   0.5312356   0.3067084   0.9677051  )
         3           Mg  tau(   3) = (   0.5312356   0.3067084   1.6109206  )
         4           Mg  tau(   4) = (  -0.0000005   0.6134178   0.7513787  )
         5           Zn  tau(   5) = (   0.0000000   0.0000000   0.0000000  )
         6           Zn  tau(   6) = (   0.0000000   0.0000000   0.8595419  )
         7           Zn  tau(   7) = (   0.0000000   0.3132005   1.2893128  )
         8           Zn  tau(   8) = (   0.7912307   0.1566002   0.4297709  )
         9           Zn  tau(   9) = (   0.2712396   0.1566002   0.4297709  )
        10           Zn  tau(  10) = (   0.2599956   0.7635260   1.2893128  )
        11           Zn  tau(  11) = (  -0.2599956   0.7635260   1.2893128  )
        12           Zn  tau(  12) = (   0.5312351   0.6069257   0.4297709  )

     number of k points=    12  gaussian smearing, width (Ry)=  0.1000
                       cart. coord. in units 2pi/alat
        k(    1) = (   0.0000000   0.0000000   0.0000000), wk =   0.0833333
        k(    2) = (   0.0000000   0.0000000   0.1454263), wk =   0.1666667
        k(    3) = (   0.0000000   0.0000000  -0.2908526), wk =   0.0833333
        k(    4) = (   0.0000000   0.3622691   0.0000000), wk =   0.1666667
        k(    5) = (   0.0000000   0.3622691   0.1454263), wk =   0.3333333
        k(    6) = (   0.0000000   0.3622691  -0.2908526), wk =   0.1666667
        k(    7) = (  -0.4706014  -0.2717019   0.0000000), wk =   0.0833333
        k(    8) = (  -0.4706014  -0.2717019   0.1454263), wk =   0.1666667
        k(    9) = (  -0.4706014  -0.2717019  -0.2908526), wk =   0.0833333
        k(   10) = (  -0.4706014   0.0905673   0.0000000), wk =   0.1666667
        k(   11) = (  -0.4706014   0.0905673   0.1454263), wk =   0.3333333
        k(   12) = (  -0.4706014   0.0905673  -0.2908526), wk =   0.1666667

     Largest allocated arrays     est. size (Mb)     dimensions
     Largest temporary arrays     est. size (Mb)     dimensions

     Initial potential from superposition of free atoms

     Starting from uniform charge
     Starting wfc are    0 randomized atomic wfcs

     Writing output data file Prototype-La-hP12-MgZn2.save

     Self-consistent Calculation

[...]

     iteration # 11     ecut=    40.00 Ry     beta=0.70
     CG style diagonalization
     c_bands:  1 eigenvalues not converged
     c_bands:  1 eigenvalues not converged
     c_bands:  1 eigenvalues not converged
     ethr =  5.29E-07,  avg # of iterations =  4.7

[...]

     total energy              =   -1920.04921028 Ry
     Harris-Foulkes estimate   =   -1920.04921754 Ry
     estimated scf accuracy    <       0.00002640 Ry

     iteration # 14     ecut=    40.00 Ry     beta=0.70
     CG style diagonalization
     ethr =  1.37E-08,  avg # of iterations =  3.1

     End of self-consistent calculation

[...]

          k = 0.0000 0.3623-0.2909 (  7014 PWs)   bands (ev):

[...]

          k =-0.4706 0.0906-0.2909 (  7024 PWs)   bands (ev):

   -45.5023 -45.5023 -45.4428 -45.4428 -45.3799 -45.3799 -45.2620 -45.2620
   -17.1734 -17.1734 -16.8778 -16.8778 -16.6590 -16.6590 -16.6022 -16.6022
   -16.5424 -16.5424 -16.5157 -16.5157 -16.3852 -16.3852 -16.2489 -16.2488
   -16.1277 -16.1277 -16.0558 -16.0558 -15.9922 -15.9922 -15.9617 -15.9617
   -14.7686 -14.7685 -14.7054 -14.7053   2.8956   2.8957   2.9190   2.9191
     3.1360   3.1361   3.4574   3.4575   3.6981   3.6982   3.7139   3.7140
    15.5395  15.5396  16.3030  16.3030  16.6198  16.6198  16.8337  16.8337
    17.0090  17.0090  17.1299  17.1299  17.5477  17.5477  17.6301  17.6301
    17.9134  17.9134  18.2084  18.2084  18.3983  18.3983  18.7560  18.7560
    18.9451  18.9451  19.0906  19.0906  19.5072  19.5072  19.9378  19.9378
    20.1239  20.1239  20.2096  20.2096  20.5011  20.5011  20.9184  20.9184
    21.2926  21.2927  22.1981  22.1981  22.7707  22.7707  23.2381  23.2382
    23.6290  23.6290  23.9875  23.9875  24.2282  24.2283  24.8766  24.8766
    25.4173  25.4173  26.2448  26.2449  26.5602  26.5602  26.8153  26.8154
    27.4941  27.4944  28.1490

     the Fermi energy is    23.3400 ev

!    total energy              =   -1920.04920960 Ry
     Harris-Foulkes estimate   =   -1920.04921298 Ry
     estimated scf accuracy    <       0.00000366 Ry

     The total energy is the sum of the following terms:

     one-electron contribution =    -314.77953713 Ry
     hartree contribution      =     299.94636908 Ry
     xc contribution           =    -201.98151888 Ry
     ewald contribution        =   -1702.60535510 Ry
     smearing contrib. (-TS)   =      -0.62916756 Ry

     convergence has been achieved in  14 iterations

     Forces acting on atoms (Ry/au):

     atom    1 type  1   force =     0.00000000    0.00000000    0.00186967
     atom    2 type  1   force =     0.00000000    0.00000000    0.00186967
     atom    3 type  1   force =     0.00000000    0.00000000   -0.00186967
     atom    4 type  1   force =     0.00000000    0.00000000   -0.00186967
     atom    5 type  2   force =     0.00000000    0.00000000    0.00000000
     atom    6 type  2   force =     0.00000000    0.00000000    0.00000000
     atom    7 type  2   force =     0.00000000    0.00274381    0.00000000
     atom    8 type  2   force =    -0.00237621    0.00137190    0.00000000
     atom    9 type  2   force =     0.00237621    0.00137190    0.00000000
     atom   10 type  2   force =    -0.00237621   -0.00137190    0.00000000
     atom   11 type  2   force =     0.00237621   -0.00137190    0.00000000
     atom   12 type  2   force =     0.00000000   -0.00274381    0.00000000

     Total force =     0.007691     Total SCF correction =     0.000000

     entering subroutine stress ...

          total   stress  (Ry/bohr**3)                   (kbar)     P=  158.46
   0.00104505   0.00000000   0.00000000        153.73      0.00      0.00
   0.00000000   0.00104505   0.00000000          0.00    153.73      0.00
   0.00000000   0.00000000   0.00114146          0.00      0.00    167.91

     Writing output data file Prototype-La-hP12-MgZn2.save

     General routines

     Parallel routines

   This run was terminated on:   1: 4:28  22Mar2018

   JOB DONE.