     Program PWSCF v.5.0.2 starts on 22Mar2018 at 21:13:30

     Current dimensions of program PWSCF are:
     Max number of different atomic species (ntypx) = 10
     Max number of k-points (npk) =  40000
     Max angular momentum in pseudopotentials (lmaxx) =  3
     Waiting for input...
     Reading input from standard input

     Subspace diagonalization in iterative solution of the eigenvalue problem:
     a serial algorithm will be used

     bravais-lattice index     =            0
     lattice parameter (alat)  =       9.9235  a.u.
     unit-cell volume          =    1361.0366 (a.u.)^3
     number of atoms/cell      =           12
     number of atomic types    =            2
     number of electrons       =       236.00
     number of Kohn-Sham states=          142
     kinetic-energy cutoff     =      40.0000  Ry
     charge density cutoff     =     160.0000  Ry
     convergence threshold     =      1.0E-04
     mixing beta               =       0.7000
     number of iterations used =            8  plain     mixing
     Exchange-correlation      = SLA-PZ-NOGX-NOGC ( 1 1 0 0 0)
     EXX-fraction              =        0.00
     nstep                     =           50

     celldm(1)=   9.923489  celldm(2)=   0.000000  celldm(3)=   0.000000
     celldm(4)=   0.000000  celldm(5)=   0.000000  celldm(6)=   0.000000

     crystal axes: (cart. coord. in units of alat)
               a(1) = (   1.000000   0.000000   0.000000 )
               a(2) = (  -0.500000   0.866025   0.000000 )
               a(3) = (   0.000000   0.000000   1.608222 )

     reciprocal axes: (cart. coord. in units 2 pi/alat)
               b(1) = (  1.000000  0.577350  0.000000 )
               b(2) = (  0.000000  1.154701  0.000000 )
               b(3) = (  0.000000  0.000000  0.621805 )

     PseudoPot. # 1 for Eu read from file:
     /home/cwx6513/pp.La/Eu.UPF
     MD5 check sum: 5efdbbfc50c6a10138933a6429836ad2
     Pseudo is Norm-conserving, Zval = 17.0
     Generated in analytical, separable form
     Using radial grid of 1261 points,  6 beta functions with:
                l(1) =   0
                l(2) =   0
                l(3) =   1
                l(4) =   1
                l(5) =   2
                l(6) =   3

     PseudoPot. # 2 for Ho read from file:
     /home/cwx6513/pp.La/Ho.UPF
     MD5 check sum: f307ee11bce99f5b724fa279e3790763
     Pseudo is Norm-conserving, Zval = 21.0
     Generated in analytical, separable form
     Using radial grid of 1265 points,  6 beta functions with:
                l(1) =   0
                l(2) =   0
                l(3) =   1
                l(4) =   1
                l(5) =   2
                l(6) =   3

     atomic species   valence    mass     pseudopotential
        Mg            17.00    24.30500     Eu( 1.00)
        Zn            21.00    65.39000     Ho( 1.00)

     24 Sym. Ops., with inversion, found (12 have fractional translation)

   Cartesian axes

     site n.     atom                  positions (alat units)
         1           Mg  tau(   1) = (  -0.0000005   0.5773506   0.1003820  )
         2           Mg  tau(   2) = (   0.5000005   0.2886748   0.9044931  )
         3           Mg  tau(   3) = (   0.5000005   0.2886748   1.5078402  )
         4           Mg  tau(   4) = (  -0.0000005   0.5773506   0.7037291  )
         5           Zn  tau(   5) = (   0.0000000   0.0000000   0.0000000  )
         6           Zn  tau(   6) = (   0.0000000   0.0000000   0.8041111  )
         7           Zn  tau(   7) = (   0.0000000   0.2950739   1.2061667  )
         8           Zn  tau(   8) = (   0.7444585   0.1475370   0.4020556  )
         9           Zn  tau(   9) = (   0.2555415   0.1475370   0.4020556  )
        10           Zn  tau(  10) = (   0.2444585   0.7184884   1.2061667  )
        11           Zn  tau(  11) = (  -0.2444585   0.7184884   1.2061667  )
        12           Zn  tau(  12) = (   0.5000000   0.5709515   0.4020556  )

     number of k points=    12  gaussian smearing, width (Ry)=  0.1000
                       cart. coord. in units 2pi/alat
        k(    1) = (   0.0000000   0.0000000   0.0000000), wk =   0.0833333
        k(    2) = (   0.0000000   0.0000000   0.1554512), wk =   0.1666667
        k(    3) = (   0.0000000   0.0000000  -0.3109023), wk =   0.0833333
        k(    4) = (   0.0000000   0.3849002   0.0000000), wk =   0.1666667
        k(    5) = (   0.0000000   0.3849002   0.1554512), wk =   0.3333333
        k(    6) = (   0.0000000   0.3849002  -0.3109023), wk =   0.1666667
        k(    7) = (  -0.5000000  -0.2886751   0.0000000), wk =   0.0833333
        k(    8) = (  -0.5000000  -0.2886751   0.1554512), wk =   0.1666667
        k(    9) = (  -0.5000000  -0.2886751  -0.3109023), wk =   0.0833333
        k(   10) = (  -0.5000000   0.0962250   0.0000000), wk =   0.1666667
        k(   11) = (  -0.5000000   0.0962250   0.1554512), wk =   0.3333333
        k(   12) = (  -0.5000000   0.0962250  -0.3109023), wk =   0.1666667

     Largest allocated arrays     est. size (Mb)     dimensions
     Largest temporary arrays     est. size (Mb)     dimensions

     Initial potential from superposition of free atoms

     Starting from uniform charge
     Starting wfc are    0 randomized atomic wfcs

     Self-consistent Calculation

     iteration #  1     ecut=    40.00 Ry     beta=0.70
     CG style diagonalization
     c_bands:  3 eigenvalues not converged
     c_bands:  3 eigenvalues not converged
     c_bands:  2 eigenvalues not converged
     c_bands:  2 eigenvalues not converged
     c_bands:  1 eigenvalues not converged
     c_bands:  1 eigenvalues not converged
     c_bands:  1 eigenvalues not converged
     ethr =  1.00E-02,  avg # of iterations = 20.5

     total energy              =   -1971.32896030 Ry
     Harris-Foulkes estimate   =   -3879.55429700 Ry
     estimated scf accuracy    <    2301.97765476 Ry

     iteration #  2     ecut=    40.00 Ry     beta=0.70
     CG style diagonalization
     ethr =  1.00E-02,  avg # of iterations = 20.2

[...]

     End of self-consistent calculation

          k = 0.0000 0.0000 0.0000 (  5769 PWs)   bands (ev):

   -61.5736 -61.5269 -61.5181 -61.4303 -61.4130 -61.4130 -61.4045 -61.4044
   -30.3324 -30.3204 -30.2943 -30.2767 -26.8754 -26.6613 -26.3793 -26.0054
   -26.0054 -25.9577 -25.9577 -25.9297 -25.8687 -25.8686 -25.6901 -25.5921
   -25.5921 -25.5776 -25.5775 -25.3934 -25.3934 -25.3918 -25.3440 -25.3440
   -25.3125 -25.3125 -25.2688 -25.2531  -3.3546  -3.3489  -3.3290  -3.3290
    -3.3031  -3.3031  -3.1225  -3.1007  -3.0827  -3.0827  -3.0685  -3.0685
    12.8314  13.4955  13.9712  14.9604  14.9604  15.2229  15.2229  15.5244
    15.5359  15.5359  15.9795  15.9795  16.7228  16.9688  17.1289  17.1290
    17.4070  17.4070  17.8124  18.3182  18.3183  18.4892  18.6355  18.6355
    18.6956  19.2488  19.2488  19.2916  19.2916  19.3005  19.3563  19.3753
    19.3754  19.3915  19.3915  20.4485  20.4485  20.5512  20.9475  20.9475
    21.6548  21.6561  22.1481  25.2851  25.9621  26.0419  26.0420  26.0630
    26.0630  26.4397  26.7819  26.7820  27.0752  27.0752  27.7199  27.7199
    28.1022  28.1023  29.0984  29.3141  30.2034  30.4172  30.4172  30.4591
    30.4591  31.9933  31.9933  33.2109  33.3629  33.3629  33.9083  33.9083
    33.9425  34.4135  34.6035  34.7443  34.7443  34.7449  35.3187  35.4487
    35.4487  37.3079  37.3079  37.5643  37.8596  37.8597  37.8791  38.1037
    38.2371  38.6219  38.6220  38.8888  38.8890  39.0725

[...]

          k =-0.5000-0.2887 0.0000 (  5800 PWs)   bands (ev):

[...]

     the Fermi energy is    33.0394 ev

!    total energy              =   -3046.27080669 Ry
     Harris-Foulkes estimate   =   -3046.27084634 Ry
     estimated scf accuracy    <       0.00004951 Ry

     The total energy is the sum of the following terms:

     one-electron contribution =    -474.03613467 Ry
     hartree contribution      =     443.34526342 Ry
     xc contribution           =    -284.23284297 Ry
     ewald contribution        =   -2731.07751761 Ry
     smearing contrib. (-TS)   =      -0.26957487 Ry

     convergence has been achieved in  10 iterations

     Forces acting on atoms (Ry/au):

     atom    1 type  1   force =     0.00000000    0.00000000   -0.00479184
     atom    2 type  1   force =     0.00000000    0.00000000   -0.00479184
     atom    3 type  1   force =     0.00000000    0.00000000    0.00479184
     atom    4 type  1   force =     0.00000000    0.00000000    0.00479184
     atom    5 type  2   force =     0.00000000    0.00000000    0.00000000
     atom    6 type  2   force =     0.00000000    0.00000000    0.00000000
     atom    7 type  2   force =     0.00000000    0.10780998    0.00000000
     atom    8 type  2   force =    -0.09336618    0.05390499    0.00000000
     atom    9 type  2   force =     0.09336618    0.05390499    0.00000000
     atom   10 type  2   force =    -0.09336618   -0.05390499    0.00000000
     atom   11 type  2   force =     0.09336618   -0.05390499    0.00000000
     atom   12 type  2   force =     0.00000000   -0.10780998    0.00000000

     Total force =     0.264253     Total SCF correction =     0.000000

     entering subroutine stress ...

          total   stress  (Ry/bohr**3)                   (kbar)     P=  777.42
   0.00534768   0.00000000   0.00000000        786.67      0.00      0.00
   0.00000000   0.00534768   0.00000000          0.00    786.67      0.00
   0.00000000   0.00000000   0.00515893          0.00      0.00    758.90

     BFGS Geometry Optimization

     number of scf cycles    =   1
     number of bfgs steps    =   0

     enthalpy new            =   -3046.2708066928 Ry

     new trust radius        =       0.5000000000 bohr
     new conv_thr            =       0.0001000000 Ry

     new unit-cell volume =   1653.19036 a.u.^3 (   244.97753 Ang^3 )

CELL_PARAMETERS (alat=  9.92348860)
   1.067764947   0.000000000   0.000000000
  -0.533882474   0.924711570   0.000000000
   0.000000000   0.000000000   1.713356704

ATOMIC_POSITIONS (crystal)
Mg       0.333333000   0.666667000   0.062265808
Mg       0.666667000   0.333333000   0.562265808
Mg       0.666667000   0.333333000   0.937734192
Mg       0.333333000   0.666667000   0.437734192
Zn       0.000000000   0.000000000   0.000000000
Zn       0.000000000   0.000000000   0.500000000
Zn       0.173540313   0.347080627   0.750000000
Zn       0.826459687   0.173540313   0.250000000
Zn       0.347080627   0.173540313   0.250000000
Zn       0.652919373   0.826459687   0.750000000
Zn       0.173540313   0.826459687   0.750000000
Zn       0.826459687   0.652919373   0.250000000

     Writing output data file Prototype-La-hP12-MgZn2.save
     NEW-OLD atomic charge density approx. for the potential
     NEW k-points:
        k(    1) = (   0.0000000   0.0000000   0.0000000), wk =   0.0833333
        k(    2) = (   0.0000000   0.0000000   0.1459124), wk =   0.1666667
        k(    3) = (   0.0000000   0.0000000  -0.2918248), wk =   0.0833333
        k(    4) = (   0.0000000   0.3604728   0.0000000), wk =   0.1666667
        k(    5) = (   0.0000000   0.3604728   0.1459124), wk =   0.3333333
        k(    6) = (   0.0000000   0.3604728  -0.2918248), wk =   0.1666667
        k(    7) = (  -0.4682679  -0.2703546   0.0000000), wk =   0.0833333
        k(    8) = (  -0.4682679  -0.2703546   0.1459124), wk =   0.1666667
        k(    9) = (  -0.4682679  -0.2703546  -0.2918248), wk =   0.0833333
        k(   10) = (  -0.4682679   0.0901182   0.0000000), wk =   0.1666667
        k(   11) = (  -0.4682679   0.0901182   0.1459124), wk =   0.3333333
        k(   12) = (  -0.4682679   0.0901182  -0.2918248), wk =   0.1666667

[...]

     enthalpy old            =   -3046.2708066927 Ry
     enthalpy new            =   -3046.4767872582 Ry

     CASE: enthalpy_new < enthalpy_old

     small trust_radius: resetting bfgs history

     new trust radius        =       0.6237918795 bohr
     new conv_thr            =       0.0000154088 Ry

[...]

     number of scf cycles    =   3
     number of bfgs steps    =   2

     enthalpy old            =   -3046.4767872582 Ry
     enthalpy new            =   -3046.0623985498 Ry

     CASE: enthalpy_new > enthalpy_old

     new trust radius        =       0.2146448645 bohr

     trust_radius < trust_radius_min

     resetting bfgs history

     Message from routine bfgs:
     history already reset at previous step: stopping
     new conv_thr            =       0.0000154088 Ry

     new unit-cell volume =   1374.53141 a.u.^3 (   203.68454 Ang^3 )

[...]

ATOMIC_POSITIONS (crystal)
Mg       0.333333000   0.666667000   0.062755696
Mg       0.666667000   0.333333000   0.562755696
Mg       0.666667000   0.333333000   0.937244304
Mg       0.333333000   0.666667000   0.437244304
Zn       0.000000000   0.000000000   0.000000000
Zn       0.000000000   0.000000000   0.500000000
Zn       0.172788289   0.345576578   0.750000000
Zn       0.827211711   0.172788289   0.250000000
Zn       0.345576578   0.172788289   0.250000000
Zn       0.654423422   0.827211711   0.750000000
Zn       0.172788289   0.827211711   0.750000000
Zn       0.827211711   0.654423422   0.250000000

     Writing output data file Prototype-La-hP12-MgZn2.save
     NEW-OLD atomic charge density approx. for the potential
     NEW k-points:
        k(    1) = (   0.0000000   0.0000000   0.0000000), wk =   0.0833333
        k(    2) = (   0.0000000   0.0000000   0.1557958), wk =   0.1666667
        k(    3) = (   0.0000000   0.0000000  -0.3115915), wk =   0.0833333
        k(    4) = (   0.0000000   0.3825823   0.0000000), wk =   0.1666667
        k(    5) = (   0.0000000   0.3825823   0.1557958), wk =   0.3333333
        k(    6) = (   0.0000000   0.3825823  -0.3115915), wk =   0.1666667
        k(    7) = (  -0.4969889  -0.2869367   0.0000000), wk =   0.0833333
        k(    8) = (  -0.4969889  -0.2869367   0.1557958), wk =   0.1666667
        k(    9) = (  -0.4969889  -0.2869367  -0.3115915), wk =   0.0833333
        k(   10) = (  -0.4969889   0.0956456   0.0000000), wk =   0.1666667
        k(   11) = (  -0.4969889   0.0956456   0.1557958), wk =   0.3333333
        k(   12) = (  -0.4969889   0.0956456  -0.3115915), wk =   0.1666667

[...]

     The maximum number of steps has been reached.

     End of BFGS Geometry Optimization
Begin final coordinates
     new unit-cell volume =   1374.53141 a.u.^3 (   203.68454 Ang^3 )

CELL_PARAMETERS (alat=  9.92348860)
   1.006058607   0.000000000   0.000000000
  -0.503029304   0.871272311   0.000000000
   0.000000000   0.000000000   1.604664889

ATOMIC_POSITIONS (crystal)
Mg       0.333333000   0.666667000   0.062755696
Mg       0.666667000   0.333333000   0.562755696
Mg       0.666667000   0.333333000   0.937244304
Mg       0.333333000   0.666667000   0.437244304
Zn       0.000000000   0.000000000   0.000000000
Zn       0.000000000   0.000000000   0.500000000
Zn       0.172788289   0.345576578   0.750000000
Zn       0.827211711   0.172788289   0.250000000
Zn       0.345576578   0.172788289   0.250000000
Zn       0.654423422   0.827211711   0.750000000
Zn       0.172788289   0.827211711   0.750000000
Zn       0.827211711   0.654423422   0.250000000
End final coordinates

     A final scf calculation at the relaxed structure.
     The G-vectors are recalculated for the final unit cell
     Results may differ from those at the preceding step.

     bravais-lattice index     =            0
     lattice parameter (alat)  =       9.9235  a.u.
     unit-cell volume          =    1374.5314 (a.u.)^3
     number of atoms/cell      =           12
     number of atomic types    =            2
     number of electrons       =       236.00
     number of Kohn-Sham states=          142
     kinetic-energy cutoff     =      40.0000  Ry
     charge density cutoff     =     160.0000  Ry
     convergence threshold     =      1.5E-05
     mixing beta               =       0.7000
     number of iterations used =            8  plain     mixing
     Exchange-correlation      = SLA-PZ-NOGX-NOGC ( 1 1 0 0 0)
     EXX-fraction              =        0.00

     celldm(1)=   9.923489  celldm(2)=   0.000000  celldm(3)=   0.000000
     celldm(4)=   0.000000  celldm(5)=   0.000000  celldm(6)=   0.000000

     crystal axes: (cart. coord. in units of alat)
               a(1) = (   1.006059   0.000000   0.000000 )
               a(2) = (  -0.503029   0.871272   0.000000 )
               a(3) = (   0.000000   0.000000   1.604665 )

     reciprocal axes: (cart. coord. in units 2 pi/alat)
               b(1) = (  0.993978  0.573873  0.000000 )
               b(2) = (  0.000000  1.147747  0.000000 )
               b(3) = (  0.000000  0.000000  0.623183 )

     PseudoPot. # 1 for Eu read from file:
     /home/cwx6513/pp.La/Eu.UPF
     MD5 check sum: 5efdbbfc50c6a10138933a6429836ad2
     Pseudo is Norm-conserving, Zval = 17.0
     Generated in analytical, separable form
     Using radial grid of 1261 points,  6 beta functions with:
                l(1) =   0
                l(2) =   0
                l(3) =   1
                l(4) =   1
                l(5) =   2
                l(6) =   3

     PseudoPot. # 2 for Ho read from file:
     /home/cwx6513/pp.La/Ho.UPF
     MD5 check sum: f307ee11bce99f5b724fa279e3790763
     Pseudo is Norm-conserving, Zval = 21.0
     Generated in analytical, separable form
     Using radial grid of 1265 points,  6 beta functions with:
                l(1) =   0
                l(2) =   0
                l(3) =   1
                l(4) =   1
                l(5) =   2
                l(6) =   3

     atomic species   valence    mass     pseudopotential
        Mg            17.00    24.30500     Eu( 1.00)
        Zn            21.00    65.39000     Ho( 1.00)

     24 Sym. Ops., with inversion, found (12 have fractional translation)

   Cartesian axes

     site n.     atom                  positions (alat units)
         1           Mg  tau(   1) = (  -0.0000005   0.5808485   0.1007019  )
         2           Mg  tau(   2) = (   0.5030298   0.2904238   0.9030343  )
         3           Mg  tau(   3) = (   0.5030298   0.2904238   1.5039630  )
         4           Mg  tau(   4) = (  -0.0000005   0.5808485   0.7016306  )
         5           Zn  tau(   5) = (   0.0000000   0.0000000   0.0000000  )
         6           Zn  tau(   6) = (   0.0000000   0.0000000   0.8023324  )
         7           Zn  tau(   7) = (   0.0000000   0.3010913   1.2034987  )
         8           Zn  tau(   8) = (   0.7453059   0.1505457   0.4011662  )
         9           Zn  tau(   9) = (   0.2607527   0.1505457   0.4011662  )
        10           Zn  tau(  10) = (   0.2422766   0.7207267   1.2034987  )
        11           Zn  tau(  11) = (  -0.2422766   0.7207267   1.2034987  )
        12           Zn  tau(  12) = (   0.5030293   0.5701810   0.4011662  )

     number of k points=    12  gaussian smearing, width (Ry)=  0.1000
                       cart. coord. in units 2pi/alat
        k(    1) = (   0.0000000   0.0000000   0.0000000), wk =   0.0833333
        k(    2) = (   0.0000000   0.0000000   0.1557958), wk =   0.1666667
        k(    3) = (   0.0000000   0.0000000  -0.3115915), wk =   0.0833333
        k(    4) = (   0.0000000   0.3825823   0.0000000), wk =   0.1666667
        k(    5) = (   0.0000000   0.3825823   0.1557958), wk =   0.3333333
        k(    6) = (   0.0000000   0.3825823  -0.3115915), wk =   0.1666667
        k(    7) = (  -0.4969889  -0.2869367   0.0000000), wk =   0.0833333
        k(    8) = (  -0.4969889  -0.2869367   0.1557958), wk =   0.1666667
        k(    9) = (  -0.4969889  -0.2869367  -0.3115915), wk =   0.0833333
        k(   10) = (  -0.4969889   0.0956456   0.0000000), wk =   0.1666667
        k(   11) = (  -0.4969889   0.0956456   0.1557958), wk =   0.3333333
        k(   12) = (  -0.4969889   0.0956456  -0.3115915), wk =   0.1666667

     Largest allocated arrays     est. size (Mb)     dimensions
     Largest temporary arrays     est. size (Mb)     dimensions

     Initial potential from superposition of free atoms

     Starting from uniform charge
     Starting wfc are    0 randomized atomic wfcs

     Writing output data file Prototype-La-hP12-MgZn2.save

     Self-consistent Calculation

[...]

     iteration # 10     ecut=    40.00 Ry     beta=0.70
     CG style diagonalization
     c_bands:  1 eigenvalues not converged
     ethr =  1.23E-07,  avg # of iterations =  4.5

     total energy              =   -3046.44560751 Ry
     Harris-Foulkes estimate   =   -3046.44562966 Ry
     estimated scf accuracy    <       0.00004877 Ry

     iteration # 11     ecut=    40.00 Ry     beta=0.70
     CG style diagonalization
     ethr =  2.07E-08,  avg # of iterations =  3.6

     End of self-consistent calculation

[...]

          k = 0.0000 0.3826-0.3116 (  5870 PWs)   bands (ev):

[...]

          k =-0.4970 0.0956-0.3116 (  5890 PWs)   bands (ev):

   -61.8271 -61.8271 -61.7965 -61.7965 -61.7322 -61.7322 -61.7244 -61.7244
   -30.6696 -30.6695 -30.6480 -30.6478 -26.7980 -26.7980 -26.5625 -26.5625
   -26.2359 -26.2359 -26.1581 -26.1581 -26.0810 -26.0810 -26.0463 -26.0463
   -25.9100 -25.9099 -25.8152 -25.8152 -25.7438 -25.7438 -25.7101 -25.7101
   -25.6882 -25.6882 -25.6669 -25.6669  -3.7224  -3.7223  -3.6801  -3.6801
    -3.6079  -3.6078  -3.5024  -3.5023  -3.4290  -3.4289  -3.4057  -3.4057
    14.0818  14.0818  14.9856  14.9856  15.3026  15.3026  15.5895  15.5895
    15.6979  15.6979  16.4347  16.4347  16.5790  16.5790  16.8247  16.8247
    17.1884  17.1884  17.3036  17.3037  17.6204  17.6204  17.8614  17.8614
    18.1050  18.1050  18.5625  18.5625  18.6319  18.6319  18.9595  18.9595
    19.0310  19.0310  19.1309  19.1309  19.3689  19.3689  20.1208  20.1208
    20.4465  20.4466  22.2067  22.2067  24.7146  24.7146  25.5480  25.5480
    26.8522  26.8523  27.2871  27.2871  27.4268  27.4268  27.6609  27.6609
    28.2051  28.2051  29.0302  29.0303  29.4125  29.4126  29.7045  29.7045
    30.1397  30.1398  30.4065  30.4065  31.9335  31.9335  33.2856  33.2856
    34.0290  34.0290  34.5777  34.5777  36.3867  36.3868  36.9577  36.9577
    37.1792  37.1792  37.9259  37.9259  38.2294  38.2295  38.7285  38.7285
    38.8505  38.8506  39.2810  39.2810  39.6965  39.6970

     the Fermi energy is    32.6423 ev

!    total energy              =   -3046.44561773 Ry
     Harris-Foulkes estimate   =   -3046.44562087 Ry
     estimated scf accuracy    <       0.00000396 Ry

     The total energy is the sum of the following terms:

     one-electron contribution =    -483.19756912 Ry
     hartree contribution      =     445.16938291 Ry
     xc contribution           =    -284.02458404 Ry
     ewald contribution        =   -2724.12023395 Ry
     smearing contrib. (-TS)   =      -0.27261353 Ry

     convergence has been achieved in  11 iterations

     Forces acting on atoms (Ry/au):

     atom    1 type  1   force =     0.00000000    0.00000000    0.01226346
     atom    2 type  1   force =     0.00000000    0.00000000    0.01226346
     atom    3 type  1   force =     0.00000000    0.00000000   -0.01226346
     atom    4 type  1   force =     0.00000000    0.00000000   -0.01226346
     atom    5 type  2   force =     0.00000000    0.00000000    0.00000000
     atom    6 type  2   force =     0.00000000    0.00000000    0.00000000
     atom    7 type  2   force =     0.00000000    0.00153790    0.00000000
     atom    8 type  2   force =    -0.00133186    0.00076895    0.00000000
     atom    9 type  2   force =     0.00133186    0.00076895    0.00000000
     atom   10 type  2   force =    -0.00133186   -0.00076895    0.00000000
     atom   11 type  2   force =     0.00133186   -0.00076895    0.00000000
     atom   12 type  2   force =     0.00000000   -0.00153790    0.00000000

     Total force =     0.024815     Total SCF correction =     0.000000

     entering subroutine stress ...

          total   stress  (Ry/bohr**3)                   (kbar)     P=  716.72
   0.00499692   0.00000000   0.00000000        735.07      0.00      0.00
   0.00000000   0.00499692   0.00000000          0.00    735.07      0.00
   0.00000000   0.00000000   0.00462264          0.00      0.00    680.01

     Writing output data file Prototype-La-hP12-MgZn2.save

     General routines

     Parallel routines

   This run was terminated on:  21:36:38  22Mar2018

   JOB DONE.