     Program PWSCF v.5.0.2 starts on 22Mar2018 at 21:13:31

     Current dimensions of program PWSCF are:
     Max number of different atomic species (ntypx) = 10
     Max number of k-points (npk) =  40000
     Max angular momentum in pseudopotentials (lmaxx) =  3
     Waiting for input...
     Reading input from standard input

     Subspace diagonalization in iterative solution of the eigenvalue problem:
     a serial algorithm will be used

     bravais-lattice index     =            0
     lattice parameter (alat)  =      12.0168  a.u.
     unit-cell volume          =    1187.3413 (a.u.)^3
     number of atoms/cell      =            8
     number of atomic types    =            2
     number of electrons       =       144.00
     number of Kohn-Sham states=           86
     kinetic-energy cutoff     =      40.0000  Ry
     charge density cutoff     =     160.0000  Ry
     convergence threshold     =      1.0E-04
     mixing beta               =       0.7000
     number of iterations used =            8  plain     mixing
     Exchange-correlation      = SLA-PZ-NOGX-NOGC ( 1 1 0 0 0)
     EXX-fraction              =        0.00
     nstep                     =           50

     celldm(1)=  12.016801  celldm(2)=   0.000000  celldm(3)=   0.000000
     celldm(4)=   0.000000  celldm(5)=   0.000000  celldm(6)=   0.000000

     crystal axes: (cart. coord. in units of alat)
               a(1) = (   1.000000   0.000000   0.000000 )
               a(2) = (  -0.500000   0.866025   0.000000 )
               a(3) = (   0.000000   0.000000   0.790093 )

     reciprocal axes: (cart. coord. in units 2 pi/alat)
               b(1) = (  1.000000  0.577350  0.000000 )
               b(2) = (  0.000000  1.154701  0.000000 )
               b(3) = (  0.000000  0.000000  1.265674 )

     PseudoPot. # 1 for Eu read from file:
     /home/cwx6513/pp.La/Eu.UPF
     MD5 check sum: 5efdbbfc50c6a10138933a6429836ad2
     Pseudo is Norm-conserving, Zval = 17.0
     Generated in analytical, separable form
     Using radial grid of 1261 points,  6 beta functions with:
                l(1) =   0
                l(2) =   0
                l(3) =   1
                l(4) =   1
                l(5) =   2
                l(6) =   3

     PseudoPot. # 2 for Ho read from file:
     /home/cwx6513/pp.La/Ho.UPF
     MD5 check sum: f307ee11bce99f5b724fa279e3790763
     Pseudo is Norm-conserving, Zval = 21.0
     Generated in analytical, separable form
     Using radial grid of 1265 points,  6 beta functions with:
                l(1) =   0
                l(2) =   0
                l(3) =   1
                l(4) =   1
                l(5) =   2
                l(6) =   3

     atomic species   valence    mass     pseudopotential
        Mg            17.00    24.30500     Eu( 1.00)
        Cd            21.00   112.41100     Ho( 1.00)

     24 Sym. Ops., with inversion, found (12 have fractional translation)

   Cartesian axes

     site n.     atom                  positions (alat units)
         1           Mg  tau(   1) = (   0.2478935   0.7204716   0.1975233  )
         2           Mg  tau(   2) = (   0.7478935   0.1455538   0.5925699  )
         3           Mg  tau(   3) = (   0.2521065   0.1455538   0.5925699  )
         4           Mg  tau(   4) = (  -0.2478935   0.7204716   0.1975233  )
         5           Mg  tau(   5) = (   0.0000000   0.2911075   0.1975233  )
         6           Mg  tau(   6) = (   0.5000000   0.5749179   0.5925699  )
         7           Cd  tau(   7) = (   0.5000005   0.2886748   0.1975233  )
         8           Cd  tau(   8) = (  -0.0000005   0.5773506   0.5925699  )

     number of k points=    64  gaussian smearing, width (Ry)=  0.1000
                       cart. coord. in units 2pi/alat
        k(    1) = (   0.0000000   0.0000000   0.0000000), wk =   0.0095238
        k(    2) = (   0.0000000   0.0000000   0.1808105), wk =   0.0190476
        k(    3) = (   0.0000000   0.0000000   0.3616210), wk =   0.0190476
        k(    4) = (   0.0000000   0.0000000   0.5424315), wk =   0.0190476
        k(    5) = (   0.0000000   0.1924501   0.0000000), wk =   0.0190476
        k(    6) = (   0.0000000   0.1924501   0.1808105), wk =   0.0380952
        k(    7) = (   0.0000000   0.1924501   0.3616210), wk =   0.0380952
        k(    8) = (   0.0000000   0.1924501   0.5424315), wk =   0.0380952
        k(    9) = (   0.0000000   0.3849002   0.0000000), wk =   0.0190476
        k(   10) = (   0.0000000   0.3849002   0.1808105), wk =   0.0380952
        k(   11) = (   0.0000000   0.3849002   0.3616210), wk =   0.0380952
        k(   12) = (   0.0000000   0.3849002   0.5424315), wk =   0.0380952
        k(   13) = (   0.0000000  -0.5773503   0.0000000), wk =   0.0095238
        k(   14) = (   0.0000000  -0.5773503   0.1808105), wk =   0.0190476
        k(   15) = (   0.0000000  -0.5773503   0.3616210), wk =   0.0190476
        k(   16) = (   0.0000000  -0.5773503   0.5424315), wk =   0.0190476
        k(   17) = (   0.2000000   0.1154701   0.0000000), wk =   0.0190476
        k(   18) = (   0.2000000   0.1154701   0.1808105), wk =   0.0380952
        k(   19) = (   0.2000000   0.1154701   0.3616210), wk =   0.0380952
        k(   20) = (   0.2000000   0.1154701   0.5424315), wk =   0.0380952
        k(   21) = (   0.2000000   0.3079201   0.0000000), wk =   0.0190476
        k(   22) = (   0.2000000   0.3079201   0.1808105), wk =   0.0380952
        k(   23) = (   0.2000000   0.3079201   0.3616210), wk =   0.0380952
        k(   24) = (   0.2000000   0.3079201   0.5424315), wk =   0.0380952
        k(   25) = (   0.2000000   0.5003702   0.0000000), wk =   0.0190476
        k(   26) = (   0.2000000   0.5003702   0.1808105), wk =   0.0380952
        k(   27) = (   0.2000000   0.5003702   0.3616210), wk =   0.0380952
        k(   28) = (   0.2000000   0.5003702   0.5424315), wk =   0.0380952
        k(   29) = (   0.2000000  -0.4618802   0.0000000), wk =   0.0190476
        k(   30) = (   0.2000000  -0.4618802   0.1808105), wk =   0.0380952
        k(   31) = (   0.2000000  -0.4618802   0.3616210), wk =   0.0380952
        k(   32) = (   0.2000000  -0.4618802   0.5424315), wk =   0.0380952
        k(   33) = (   0.2000000  -0.2694301   0.0000000), wk =   0.0190476
        k(   34) = (   0.2000000  -0.2694301   0.1808105), wk =   0.0380952
        k(   35) = (   0.2000000  -0.2694301   0.3616210), wk =   0.0380952
        k(   36) = (   0.2000000  -0.2694301   0.5424315), wk =   0.0380952
        k(   37) = (   0.2000000  -0.0769800   0.0000000), wk =   0.0190476
        k(   38) = (   0.2000000  -0.0769800   0.1808105), wk =   0.0380952
        k(   39) = (   0.2000000  -0.0769800   0.3616210), wk =   0.0380952
        k(   40) = (   0.2000000  -0.0769800   0.5424315), wk =   0.0380952
        k(   41) = (   0.4000000   0.2309401   0.0000000), wk =   0.0190476
        k(   42) = (   0.4000000   0.2309401   0.1808105), wk =   0.0380952
        k(   43) = (   0.4000000   0.2309401   0.3616210), wk =   0.0380952
        k(   44) = (   0.4000000   0.2309401   0.5424315), wk =   0.0380952
        k(   45) = (   0.4000000   0.4233902   0.0000000), wk =   0.0190476
        k(   46) = (   0.4000000   0.4233902   0.1808105), wk =   0.0380952
        k(   47) = (   0.4000000   0.4233902   0.3616210), wk =   0.0380952
        k(   48) = (   0.4000000   0.4233902   0.5424315), wk =   0.0380952
        k(   49) = (   0.4000000   0.6158403   0.0000000), wk =   0.0190476
        k(   50) = (   0.4000000   0.6158403   0.1808105), wk =   0.0380952
        k(   51) = (   0.4000000   0.6158403   0.3616210), wk =   0.0380952
        k(   52) = (   0.4000000   0.6158403   0.5424315), wk =   0.0380952
        k(   53) = (   0.4000000  -0.3464102   0.0000000), wk =   0.0190476
        k(   54) = (   0.4000000  -0.3464102   0.1808105), wk =   0.0380952
        k(   55) = (   0.4000000  -0.3464102   0.3616210), wk =   0.0380952
        k(   56) = (   0.4000000  -0.3464102   0.5424315), wk =   0.0380952
        k(   57) = (   0.4000000  -0.1539601   0.0000000), wk =   0.0190476
        k(   58) = (   0.4000000  -0.1539601   0.1808105), wk =   0.0380952
        k(   59) = (   0.4000000  -0.1539601   0.3616210), wk =   0.0380952
        k(   60) = (   0.4000000  -0.1539601   0.5424315), wk =   0.0380952
        k(   61) = (   0.4000000   0.0384900   0.0000000), wk =   0.0190476
        k(   62) = (   0.4000000   0.0384900   0.1808105), wk =   0.0380952
        k(   63) = (   0.4000000   0.0384900   0.3616210), wk =   0.0380952
        k(   64) = (   0.4000000   0.0384900   0.5424315), wk =   0.0380952

     Largest allocated arrays     est. size (Mb)     dimensions
     Largest temporary arrays     est. size (Mb)     dimensions

     Initial potential from superposition of free atoms

     Starting from uniform charge
     Starting wfc are    0 randomized atomic wfcs

     Self-consistent Calculation

     iteration #  1     ecut=    40.00 Ry     beta=0.70
     CG style diagonalization
     c_bands:  1 eigenvalues not converged
     c_bands:  1 eigenvalues not converged
     c_bands:  1 eigenvalues not converged
     c_bands:  1 eigenvalues not converged
     c_bands:  1 eigenvalues not converged
     c_bands:  1 eigenvalues not converged
     c_bands:  1 eigenvalues not converged
     c_bands:  2 eigenvalues not converged
     c_bands:  1 eigenvalues not converged
     c_bands:  1 eigenvalues not converged
     c_bands:  1 eigenvalues not converged
     c_bands:  1 eigenvalues not converged
     c_bands:  2 eigenvalues not converged
     c_bands:  1 eigenvalues not converged
     ethr =  1.00E-02,  avg # of iterations = 11.6

     total energy              =   -1132.45744394 Ry
     Harris-Foulkes estimate   =   -2056.50777996 Ry
     estimated scf accuracy    <    1128.70519178 Ry

[...]

     iteration #  4     ecut=    40.00 Ry     beta=0.70
     CG style diagonalization
     ethr =  1.00E-02,  avg # of iterations =  6.1

[...]

     End of self-consistent calculation

          k = 0.0000 0.0000 0.0000 (  5047 PWs)   bands (ev):

   -69.6667 -69.6629 -41.2455 -41.1858 -41.1858 -41.1760 -41.1518 -41.1518
   -33.7995 -33.7929 -33.7771 -33.7771 -33.7684 -33.7684 -14.2416 -14.2249
   -14.0966 -14.0341 -14.0340 -14.0268 -14.0268 -13.9929 -13.9929 -13.8635
   -13.7482 -13.7481 -13.6455 -13.6454 -13.6451 -13.6305 -13.6268 -13.6268
    10.0666  10.0666  10.0829  10.0926  10.0926  10.1084  10.1769  10.1769
    10.3051  10.3051  12.9154  14.2314  15.9094  16.3571  16.7628  16.8639
    16.8640  16.9083  16.9083  17.5666  17.5667  17.8935  18.1310  18.4503
    18.4503  18.4755  18.4756  18.8189  18.8783  18.8784  20.1016  20.1016
    20.3105  20.3105  20.6752  20.6753  20.7112  20.7112  21.1067  21.7613
    22.1023  22.1450  22.1773  22.7837  23.3525  23.3525  24.3388  24.3389
    25.7667  27.2377  27.2378  27.5940  27.6845  28.3453

[...]

     the Fermi energy is    21.3220 ev

!    total energy              =   -1638.34667320 Ry
     Harris-Foulkes estimate   =   -1638.34670085 Ry
     estimated scf accuracy    <       0.00003136 Ry

     The total energy is the sum of the following terms:

[...]
        k(   12) = (   0.0000000   0.3938238   0.5420365), wk =   0.0380952
        k(   13) = (   0.0000000  -0.5907357   0.0000000), wk =   0.0095238
        k(   14) = (   0.0000000  -0.5907357   0.1806788), wk =   0.0190476
        k(   15) = (   0.0000000  -0.5907357   0.3613577), wk =   0.0190476
        k(   16) = (   0.0000000  -0.5907357   0.5420365), wk =   0.0190476
        k(   17) = (   0.2046368   0.1181471   0.0000000), wk =   0.0190476
        k(   18) = (   0.2046368   0.1181471   0.1806788), wk =   0.0380952
        k(   19) = (   0.2046368   0.1181471   0.3613577), wk =   0.0380952
        k(   20) = (   0.2046368   0.1181471   0.5420365), wk =   0.0380952
        k(   21) = (   0.2046368   0.3150590   0.0000000), wk =   0.0190476
        k(   22) = (   0.2046368   0.3150590   0.1806788), wk =   0.0380952
        k(   23) = (   0.2046368   0.3150590   0.3613577), wk =   0.0380952
        k(   24) = (   0.2046368   0.3150590   0.5420365), wk =   0.0380952
        k(   25) = (   0.2046368   0.5119709   0.0000000), wk =   0.0190476
        k(   26) = (   0.2046368   0.5119709   0.1806788), wk =   0.0380952
        k(   27) = (   0.2046368   0.5119709   0.3613577), wk =   0.0380952
        k(   28) = (   0.2046368   0.5119709   0.5420365), wk =   0.0380952
        k(   29) = (   0.2046368  -0.4725885   0.0000000), wk =   0.0190476
        k(   30) = (   0.2046368  -0.4725885   0.1806788), wk =   0.0380952
        k(   31) = (   0.2046368  -0.4725885   0.3613577), wk =   0.0380952
        k(   32) = (   0.2046368  -0.4725885   0.5420365), wk =   0.0380952
        k(   33) = (   0.2046368  -0.2756766   0.0000000), wk =   0.0190476
        k(   34) = (   0.2046368  -0.2756766   0.1806788), wk =   0.0380952
        k(   35) = (   0.2046368  -0.2756766   0.3613577), wk =   0.0380952
        k(   36) = (   0.2046368  -0.2756766   0.5420365), wk =   0.0380952
        k(   37) = (   0.2046368  -0.0787648   0.0000000), wk =   0.0190476
        k(   38) = (   0.2046368  -0.0787648   0.1806788), wk =   0.0380952
        k(   39) = (   0.2046368  -0.0787648   0.3613577), wk =   0.0380952
        k(   40) = (   0.2046368  -0.0787648   0.5420365), wk =   0.0380952
        k(   41) = (   0.4092737   0.2362943   0.0000000), wk =   0.0190476
        k(   42) = (   0.4092737   0.2362943   0.1806788), wk =   0.0380952
        k(   43) = (   0.4092737   0.2362943   0.3613577), wk =   0.0380952
        k(   44) = (   0.4092737   0.2362943   0.5420365), wk =   0.0380952
        k(   45) = (   0.4092737   0.4332062   0.0000000), wk =   0.0190476
        k(   46) = (   0.4092737   0.4332062   0.1806788), wk =   0.0380952
        k(   47) = (   0.4092737   0.4332062   0.3613577), wk =   0.0380952
        k(   48) = (   0.4092737   0.4332062   0.5420365), wk =   0.0380952
        k(   49) = (   0.4092737   0.6301181   0.0000000), wk =   0.0190476
        k(   50) = (   0.4092737   0.6301181   0.1806788), wk =   0.0380952
        k(   51) = (   0.4092737   0.6301181   0.3613577), wk =   0.0380952
        k(   52) = (   0.4092737   0.6301181   0.5420365), wk =   0.0380952
        k(   53) = (   0.4092737  -0.3544414   0.0000000), wk =   0.0190476
        k(   54) = (   0.4092737  -0.3544414   0.1806788), wk =   0.0380952
        k(   55) = (   0.4092737  -0.3544414   0.3613577), wk =   0.0380952
        k(   56) = (   0.4092737  -0.3544414   0.5420365), wk =   0.0380952
        k(   57) = (   0.4092737  -0.1575295   0.0000000), wk =   0.0190476
        k(   58) = (   0.4092737  -0.1575295   0.1806788), wk =   0.0380952
        k(   59) = (   0.4092737  -0.1575295   0.3613577), wk =   0.0380952
        k(   60) = (   0.4092737  -0.1575295   0.5420365), wk =   0.0380952
        k(   61) = (   0.4092737   0.0393824   0.0000000), wk =   0.0190476
        k(   62) = (   0.4092737   0.0393824   0.1806788), wk =   0.0380952
        k(   63) = (   0.4092737   0.0393824   0.3613577), wk =   0.0380952
        k(   64) = (   0.4092737   0.0393824   0.5420365), wk =   0.0380952

[...]

     The maximum number of steps has been reached.

     End of BFGS Geometry Optimization
Begin final coordinates
     new unit-cell volume =   1134.96971 a.u.^3 (   168.18516 Ang^3 )

CELL_PARAMETERS (alat= 12.01680127)
   0.977341125   0.000000000   0.000000000
  -0.488670562   0.846402242   0.000000000
   0.000000000   0.000000000   0.790668898

ATOMIC_POSITIONS (crystal)
Mg       0.668546219   0.834273110   0.250000000
Mg       0.834273110   0.165726890   0.750000000
Mg       0.331453781   0.165726890   0.750000000
Mg       0.165726890   0.834273110   0.250000000
Mg       0.165726890   0.331453781   0.250000000
Mg       0.834273110   0.668546219   0.750000000
Cd       0.666667000   0.333333000   0.250000000
Cd       0.333333000   0.666667000   0.750000000
End final coordinates

     A final scf calculation at the relaxed structure.
     The G-vectors are recalculated for the final unit cell
     Results may differ from those at the preceding step.

     bravais-lattice index     =            0
     lattice parameter (alat)  =      12.0168  a.u.
     unit-cell volume          =    1134.9697 (a.u.)^3
     number of atoms/cell      =            8
     number of atomic types    =            2
     number of electrons       =       144.00
     number of Kohn-Sham states=           86
     kinetic-energy cutoff     =      40.0000  Ry
     charge density cutoff     =     160.0000  Ry
     convergence threshold     =      3.0E-05
     mixing beta               =       0.7000
     number of iterations used =            8  plain     mixing
     Exchange-correlation      = SLA-PZ-NOGX-NOGC ( 1 1 0 0 0)
     EXX-fraction              =        0.00

     celldm(1)=  12.016801  celldm(2)=   0.000000  celldm(3)=   0.000000
     celldm(4)=   0.000000  celldm(5)=   0.000000  celldm(6)=   0.000000

     crystal axes: (cart. coord. in units of alat)
               a(1) = (   0.977341   0.000000   0.000000 )
               a(2) = (  -0.488671   0.846402   0.000000 )
               a(3) = (   0.000000   0.000000   0.790669 )

     reciprocal axes: (cart. coord. in units 2 pi/alat)
               b(1) = (  1.023184  0.590736  0.000000 )
               b(2) = (  0.000000  1.181471  0.000000 )
               b(3) = (  0.000000  0.000000  1.264752 )

     PseudoPot. # 1 for Eu read from file:
     /home/cwx6513/pp.La/Eu.UPF
     MD5 check sum: 5efdbbfc50c6a10138933a6429836ad2
     Pseudo is Norm-conserving, Zval = 17.0
     Generated in analytical, separable form
     Using radial grid of 1261 points,  6 beta functions with:
                l(1) =   0
                l(2) =   0
                l(3) =   1
                l(4) =   1
                l(5) =   2
                l(6) =   3

     PseudoPot. # 2 for Ho read from file:
     /home/cwx6513/pp.La/Ho.UPF
     MD5 check sum: f307ee11bce99f5b724fa279e3790763
     Pseudo is Norm-conserving, Zval = 21.0
     Generated in analytical, separable form
     Using radial grid of 1265 points,  6 beta functions with:
                l(1) =   0
                l(2) =   0
                l(3) =   1
                l(4) =   1
                l(5) =   2
                l(6) =   3

     atomic species   valence    mass     pseudopotential
        Mg            17.00    24.30500     Eu( 1.00)
        Cd            21.00   112.41100     Ho( 1.00)

     24 Sym. Ops., with inversion, found (12 have fractional translation)

   Cartesian axes

     site n.     atom                  positions (alat units)
         1           Mg  tau(   1) = (   0.2457130   0.7061306   0.1976672  )
         2           Mg  tau(   2) = (   0.7343836   0.1402716   0.5930017  )
         3           Mg  tau(   3) = (   0.2429576   0.1402716   0.5930017  )
         4           Mg  tau(   4) = (  -0.2457130   0.7061306   0.1976672  )
         5           Mg  tau(   5) = (   0.0000000   0.2805432   0.1976672  )
         6           Mg  tau(   6) = (   0.4886706   0.5658590   0.5930017  )
         7           Cd  tau(   7) = (   0.4886711   0.2821338   0.1976672  )
         8           Cd  tau(   8) = (  -0.0000005   0.5642684   0.5930017  )

     number of k points=    64  gaussian smearing, width (Ry)=  0.1000
                       cart. coord. in units 2pi/alat
        k(    1) = (   0.0000000   0.0000000   0.0000000), wk =   0.0095238
        k(    2) = (   0.0000000   0.0000000   0.1806788), wk =   0.0190476
        k(    3) = (   0.0000000   0.0000000   0.3613577), wk =   0.0190476
        k(    4) = (   0.0000000   0.0000000   0.5420365), wk =   0.0190476
        k(    5) = (   0.0000000   0.1969119   0.0000000), wk =   0.0190476
        k(    6) = (   0.0000000   0.1969119   0.1806788), wk =   0.0380952
        k(    7) = (   0.0000000   0.1969119   0.3613577), wk =   0.0380952
        k(    8) = (   0.0000000   0.1969119   0.5420365), wk =   0.0380952
        k(    9) = (   0.0000000   0.3938238   0.0000000), wk =   0.0190476
        k(   10) = (   0.0000000   0.3938238   0.1806788), wk =   0.0380952
        k(   11) = (   0.0000000   0.3938238   0.3613577), wk =   0.0380952
        k(   12) = (   0.0000000   0.3938238   0.5420365), wk =   0.0380952
        k(   13) = (   0.0000000  -0.5907357   0.0000000), wk =   0.0095238
        k(   14) = (   0.0000000  -0.5907357   0.1806788), wk =   0.0190476
        k(   15) = (   0.0000000  -0.5907357   0.3613577), wk =   0.0190476
        k(   16) = (   0.0000000  -0.5907357   0.5420365), wk =   0.0190476
        k(   17) = (   0.2046368   0.1181471   0.0000000), wk =   0.0190476
        k(   18) = (   0.2046368   0.1181471   0.1806788), wk =   0.0380952
        k(   19) = (   0.2046368   0.1181471   0.3613577), wk =   0.0380952
        k(   20) = (   0.2046368   0.1181471   0.5420365), wk =   0.0380952
        k(   21) = (   0.2046368   0.3150590   0.0000000), wk =   0.0190476
        k(   22) = (   0.2046368   0.3150590   0.1806788), wk =   0.0380952
        k(   23) = (   0.2046368   0.3150590   0.3613577), wk =   0.0380952
        k(   24) = (   0.2046368   0.3150590   0.5420365), wk =   0.0380952
        k(   25) = (   0.2046368   0.5119709   0.0000000), wk =   0.0190476
        k(   26) = (   0.2046368   0.5119709   0.1806788), wk =   0.0380952
        k(   27) = (   0.2046368   0.5119709   0.3613577), wk =   0.0380952
        k(   28) = (   0.2046368   0.5119709   0.5420365), wk =   0.0380952
        k(   29) = (   0.2046368  -0.4725885   0.0000000), wk =   0.0190476
        k(   30) = (   0.2046368  -0.4725885   0.1806788), wk =   0.0380952
        k(   31) = (   0.2046368  -0.4725885   0.3613577), wk =   0.0380952
        k(   32) = (   0.2046368  -0.4725885   0.5420365), wk =   0.0380952
        k(   33) = (   0.2046368  -0.2756766   0.0000000), wk =   0.0190476
        k(   34) = (   0.2046368  -0.2756766   0.1806788), wk =   0.0380952
        k(   35) = (   0.2046368  -0.2756766   0.3613577), wk =   0.0380952
        k(   36) = (   0.2046368  -0.2756766   0.5420365), wk =   0.0380952
        k(   37) = (   0.2046368  -0.0787648   0.0000000), wk =   0.0190476
        k(   38) = (   0.2046368  -0.0787648   0.1806788), wk =   0.0380952
        k(   39) = (   0.2046368  -0.0787648   0.3613577), wk =   0.0380952
        k(   40) = (   0.2046368  -0.0787648   0.5420365), wk =   0.0380952
        k(   41) = (   0.4092737   0.2362943   0.0000000), wk =   0.0190476
        k(   42) = (   0.4092737   0.2362943   0.1806788), wk =   0.0380952
        k(   43) = (   0.4092737   0.2362943   0.3613577), wk =   0.0380952
        k(   44) = (   0.4092737   0.2362943   0.5420365), wk =   0.0380952
        k(   45) = (   0.4092737   0.4332062   0.0000000), wk =   0.0190476
        k(   46) = (   0.4092737   0.4332062   0.1806788), wk =   0.0380952
        k(   47) = (   0.4092737   0.4332062   0.3613577), wk =   0.0380952
        k(   48) = (   0.4092737   0.4332062   0.5420365), wk =   0.0380952
        k(   49) = (   0.4092737   0.6301181   0.0000000), wk =   0.0190476
        k(   50) = (   0.4092737   0.6301181   0.1806788), wk =   0.0380952
        k(   51) = (   0.4092737   0.6301181   0.3613577), wk =   0.0380952
        k(   52) = (   0.4092737   0.6301181   0.5420365), wk =   0.0380952
        k(   53) = (   0.4092737  -0.3544414   0.0000000), wk =   0.0190476
        k(   54) = (   0.4092737  -0.3544414   0.1806788), wk =   0.0380952
        k(   55) = (   0.4092737  -0.3544414   0.3613577), wk =   0.0380952
        k(   56) = (   0.4092737  -0.3544414   0.5420365), wk =   0.0380952
        k(   57) = (   0.4092737  -0.1575295   0.0000000), wk =   0.0190476
        k(   58) = (   0.4092737  -0.1575295   0.1806788), wk =   0.0380952
        k(   59) = (   0.4092737  -0.1575295   0.3613577), wk =   0.0380952
        k(   60) = (   0.4092737  -0.1575295   0.5420365), wk =   0.0380952
        k(   61) = (   0.4092737   0.0393824   0.0000000), wk =   0.0190476
        k(   62) = (   0.4092737   0.0393824   0.1806788), wk =   0.0380952
        k(   63) = (   0.4092737   0.0393824   0.3613577), wk =   0.0380952
        k(   64) = (   0.4092737   0.0393824   0.5420365), wk =   0.0380952

     Largest allocated arrays     est. size (Mb)     dimensions
     Largest temporary arrays     est. size (Mb)     dimensions

     Initial potential from superposition of free atoms

     Starting from uniform charge
     Starting wfc are    0 randomized atomic wfcs

     Writing output data file Prototype-La-hP8-Mg3Cd.save

     Self-consistent Calculation

[...]

     iteration # 10     ecut=    40.00 Ry     beta=0.70
     CG style diagonalization
     c_bands:  1 eigenvalues not converged
     c_bands:  1 eigenvalues not converged
     c_bands:  1 eigenvalues not converged
     ethr =  3.88E-07,  avg # of iterations =  4.6

     total energy              =   -1638.32942450 Ry
     Harris-Foulkes estimate   =   -1638.32954239 Ry
     estimated scf accuracy    <       0.00026814 Ry

     iteration # 11     ecut=    40.00 Ry     beta=0.70
     CG style diagonalization
     ethr =  1.86E-07,  avg # of iterations =  3.5

     End of self-consistent calculation

[...]

          k = 0.4093 0.0394 0.5420 (  4841 PWs)   bands (ev):

   -68.4902 -68.4887 -40.0348 -40.0187 -39.9998 -39.9917 -39.9841 -39.9783
   -32.6194 -32.6145 -32.6121 -32.6113 -32.6041 -32.5993 -13.0472 -13.0386
   -13.0117 -13.0005 -12.9479 -12.9320 -12.7639 -12.7175 -12.6688 -12.6654
   -12.6181 -12.5806 -12.5462 -12.5383 -12.5227 -12.4909 -12.4617 -12.4551
    11.2148  11.2383  11.2479  11.2629  11.2917  11.3029  11.3578  11.3640
    11.4107  11.4263  15.3895  15.4698  17.1818  17.4131  17.6669  17.6975
    18.0862  18.2312  18.2733  18.3789  18.5036  18.5348  18.8338  18.8938
    19.3209  19.3898  19.5319  19.5980  20.1424  20.1591  20.2404  20.8207
    20.9299  21.0794  21.4121  21.4943  21.6337  21.7823  21.9523  22.1936
    22.5535  22.7911  23.0461  23.1597  23.5806  23.9710  25.8031  26.0302
    27.8413  28.1260  30.1661  30.3323  30.8385  31.1152

     the Fermi energy is    22.5960 ev

!    total energy              =   -1638.32945234 Ry
     Harris-Foulkes estimate   =   -1638.32946594 Ry
     estimated scf accuracy    <       0.00001523 Ry

     The total energy is the sum of the following terms:

     one-electron contribution =    -265.41413826 Ry
     hartree contribution      =     229.98678104 Ry
     xc contribution           =    -160.43368869 Ry
     ewald contribution        =   -1441.98928863 Ry
     smearing contrib. (-TS)   =      -0.47911781 Ry

     convergence has been achieved in  11 iterations

     Forces acting on atoms (Ry/au):

     atom    1 type  1   force =     0.00347148    0.00200426    0.00000000
     atom    2 type  1   force =     0.00347148   -0.00200426    0.00000000
     atom    3 type  1   force =    -0.00347148   -0.00200426    0.00000000
     atom    4 type  1   force =    -0.00347148    0.00200426    0.00000000
     atom    5 type  1   force =     0.00000000   -0.00400852    0.00000000
     atom    6 type  1   force =     0.00000000    0.00400852    0.00000000
     atom    7 type  2   force =     0.00000000    0.00000000    0.00000000
     atom    8 type  2   force =     0.00000000    0.00000000    0.00000000

     Total force =     0.009819     Total SCF correction =     0.000000

     entering subroutine stress ...

          total   stress  (Ry/bohr**3)                   (kbar)     P= -366.32
  -0.00252098   0.00000000   0.00000000       -370.85      0.00      0.00
   0.00000000  -0.00252098   0.00000000          0.00   -370.85      0.00
   0.00000000   0.00000000  -0.00242861          0.00      0.00   -357.26

     Writing output data file Prototype-La-hP8-Mg3Cd.save

     General routines

     Parallel routines

   This run was terminated on:  22:30:24  22Mar2018

   JOB DONE.