     Program PWSCF v.5.0.2 starts on 23Mar2018 at  0:54:27

     Current dimensions of program PWSCF are:
     Max number of different atomic species (ntypx) = 10
     Max number of k-points (npk) =  40000
     Max angular momentum in pseudopotentials (lmaxx) =  3
     Waiting for input...
     Reading input from standard input

     Subspace diagonalization in iterative solution of the eigenvalue problem:
     a serial algorithm will be used

     bravais-lattice index     =            0
     lattice parameter (alat)  =       9.9235  a.u.
     unit-cell volume          =    1361.0366 (a.u.)^3
     number of atoms/cell      =           12
     number of atomic types    =            2
     number of electrons       =       180.00
     number of Kohn-Sham states=          108
     kinetic-energy cutoff     =      40.0000  Ry
     charge density cutoff     =     160.0000  Ry
     convergence threshold     =      1.0E-04
     mixing beta               =       0.7000
     number of iterations used =            8  plain     mixing
     Exchange-correlation      = SLA-PZ-NOGX-NOGC ( 1 1 0 0 0)
     EXX-fraction              =        0.00
     nstep                     =           50

     celldm(1)=   9.923489  celldm(2)=   0.000000  celldm(3)=   0.000000
     celldm(4)=   0.000000  celldm(5)=   0.000000  celldm(6)=   0.000000

     crystal axes: (cart. coord. in units of alat)
               a(1) = (   1.000000   0.000000   0.000000 )
               a(2) = (  -0.500000   0.866025   0.000000 )
               a(3) = (   0.000000   0.000000   1.608222 )

     reciprocal axes: (cart. coord. in units 2 pi/alat)
               b(1) = (  1.000000  0.577350  0.000000 )
               b(2) = (  0.000000  1.154701  0.000000 )
               b(3) = (  0.000000  0.000000  0.621805 )

     PseudoPot. # 1 for Ho read from file:
     /home/cwx6513/pp.La/Ho.UPF
     MD5 check sum: f307ee11bce99f5b724fa279e3790763
     Pseudo is Norm-conserving, Zval = 21.0
     Generated in analytical, separable form
     Using radial grid of 1265 points,  6 beta functions with:
                l(1) =   0
                l(2) =   0
                l(3) =   1
                l(4) =   1
                l(5) =   2
                l(6) =   3

     PseudoPot. # 2 for Ce read from file:
     /home/cwx6513/pp.La/Ce.UPF
     MD5 check sum: 44451aa79a44a00cf2bc029dc19922f6
     Pseudo is Norm-conserving, Zval = 12.0
     Generated in analytical, separable form
     Using radial grid of 1255 points,  6 beta functions with:
                l(1) =   0
                l(2) =   0
                l(3) =   1
                l(4) =   1
                l(5) =   2
                l(6) =   3

     atomic species   valence    mass     pseudopotential
        Mg            21.00    24.30500     Ho( 1.00)
        Zn            12.00    65.39000     Ce( 1.00)

     24 Sym. Ops., with inversion, found (12 have fractional translation)

   Cartesian axes

     site n.     atom                  positions (alat units)
         1           Mg  tau(   1) = (  -0.0000005   0.5773506   0.1003820  )
         2           Mg  tau(   2) = (   0.5000005   0.2886748   0.9044931  )
         3           Mg  tau(   3) = (   0.5000005   0.2886748   1.5078402  )
         4           Mg  tau(   4) = (  -0.0000005   0.5773506   0.7037291  )
         5           Zn  tau(   5) = (   0.0000000   0.0000000   0.0000000  )
         6           Zn  tau(   6) = (   0.0000000   0.0000000   0.8041111  )
         7           Zn  tau(   7) = (   0.0000000   0.2950739   1.2061667  )
         8           Zn  tau(   8) = (   0.7444585   0.1475370   0.4020556  )
         9           Zn  tau(   9) = (   0.2555415   0.1475370   0.4020556  )
        10           Zn  tau(  10) = (   0.2444585   0.7184884   1.2061667  )
        11           Zn  tau(  11) = (  -0.2444585   0.7184884   1.2061667  )
        12           Zn  tau(  12) = (   0.5000000   0.5709515   0.4020556  )

     number of k points=    12  gaussian smearing, width (Ry)=  0.1000
                       cart. coord. in units 2pi/alat
        k(    1) = (   0.0000000   0.0000000   0.0000000), wk =   0.0833333
        k(    2) = (   0.0000000   0.0000000   0.1554512), wk =   0.1666667
        k(    3) = (   0.0000000   0.0000000  -0.3109023), wk =   0.0833333
        k(    4) = (   0.0000000   0.3849002   0.0000000), wk =   0.1666667
        k(    5) = (   0.0000000   0.3849002   0.1554512), wk =   0.3333333
        k(    6) = (   0.0000000   0.3849002  -0.3109023), wk =   0.1666667
        k(    7) = (  -0.5000000  -0.2886751   0.0000000), wk =   0.0833333
        k(    8) = (  -0.5000000  -0.2886751   0.1554512), wk =   0.1666667
        k(    9) = (  -0.5000000  -0.2886751  -0.3109023), wk =   0.0833333
        k(   10) = (  -0.5000000   0.0962250   0.0000000), wk =   0.1666667
        k(   11) = (  -0.5000000   0.0962250   0.1554512), wk =   0.3333333
        k(   12) = (  -0.5000000   0.0962250  -0.3109023), wk =   0.1666667

     Largest allocated arrays     est. size (Mb)     dimensions
     Largest temporary arrays     est. size (Mb)     dimensions

     Initial potential from superposition of free atoms

     Starting from uniform charge
     Starting wfc are    0 randomized atomic wfcs

     Self-consistent Calculation

     iteration #  1     ecut=    40.00 Ry     beta=0.70
     CG style diagonalization
     c_bands:  2 eigenvalues not converged
     ethr =  1.00E-02,  avg # of iterations = 12.3

     total energy              =    -505.24175040 Ry
     Harris-Foulkes estimate   =   -2394.49903246 Ry
     estimated scf accuracy    <    2242.53389149 Ry

     iteration #  2     ecut=    40.00 Ry     beta=0.70
     CG style diagonalization
     ethr =  1.00E-02,  avg # of iterations = 20.1

[...]

     End of self-consistent calculation

          k = 0.0000 0.0000 0.0000 (  5769 PWs)   bands (ev):

   -62.9253 -62.9201 -62.9125 -62.8965 -27.1437 -27.1277 -27.1265 -27.1265
   -27.1030 -27.1029 -27.0758 -27.0524 -27.0524 -27.0492 -27.0456 -27.0456
   -10.9289 -10.3748  -8.9227  -8.1488  -8.1488  -8.1327  -8.1219  -8.1218
     2.9433   4.0583   5.0206   6.3693   6.3693   6.6941   6.6941   6.8852
     6.8853   7.9499   9.1212   9.1212   9.1930   9.1930  10.1336  11.3250
    11.7831  11.7832  11.7836  11.8021  12.4186  12.4186  12.6569  12.6569
    16.1463  16.1530  16.1530  16.2033  16.4978  16.4978  16.6860  16.6861
    16.6861  16.6861  16.8501  17.0020  17.0020  17.1101  17.1102  17.3102
    17.3102  17.3292  17.3292  17.3716  18.6565  20.7767  20.9864  22.9101
    22.9102  23.6658  25.0386  25.1649  25.1649  25.3149  25.3690  26.1359
    26.1808  26.1809  26.8436  26.8437  27.4825  27.4825  28.4980  28.7057
    28.7058  28.8937  29.6079  29.6079  31.4211  31.5723  31.5725  31.9157
    33.1247  33.1583  33.1583  33.3465  33.4657  33.4659  33.8898  34.1191
    34.1192  34.1608  34.1610  34.5857

[...]

          k =-0.5000-0.2887 0.0000 (  5800 PWs)   bands (ev):

[...]

     the Fermi energy is    29.4897 ev

!    total energy              =   -1789.53872913 Ry
     Harris-Foulkes estimate   =   -1789.53874922 Ry
     estimated scf accuracy    <       0.00002225 Ry

     The total energy is the sum of the following terms:

     one-electron contribution =    -146.18429643 Ry
     hartree contribution      =     232.79563168 Ry
     xc contribution           =    -190.96197835 Ry
     ewald contribution        =   -1684.74033509 Ry
     smearing contrib. (-TS)   =      -0.44775094 Ry

     convergence has been achieved in  11 iterations

     Forces acting on atoms (Ry/au):

     atom    1 type  1   force =     0.00000000    0.00000000    0.01222680
     atom    2 type  1   force =     0.00000000    0.00000000    0.01222680
     atom    3 type  1   force =     0.00000000    0.00000000   -0.01222680
     atom    4 type  1   force =     0.00000000    0.00000000   -0.01222680
     atom    5 type  2   force =     0.00000000    0.00000000    0.00000000
     atom    6 type  2   force =     0.00000000    0.00000000    0.00000000
     atom    7 type  2   force =     0.00000000    0.05511764    0.00000000
     atom    8 type  2   force =    -0.04773328    0.02755882    0.00000000
     atom    9 type  2   force =     0.04773328    0.02755882    0.00000000
     atom   10 type  2   force =    -0.04773328   -0.02755882    0.00000000
     atom   11 type  2   force =     0.04773328   -0.02755882    0.00000000
     atom   12 type  2   force =     0.00000000   -0.05511764    0.00000000

     Total force =     0.137207     Total SCF correction =     0.000000

     entering subroutine stress ...

          total   stress  (Ry/bohr**3)                   (kbar)     P= 1094.68
   0.00732411   0.00000000   0.00000000       1077.41      0.00      0.00
   0.00000000   0.00732411   0.00000000          0.00   1077.41      0.00
   0.00000000   0.00000000   0.00767627          0.00      0.00   1129.22

     BFGS Geometry Optimization

     number of scf cycles    =   1
     number of bfgs steps    =   0

     enthalpy new            =   -1789.5387291293 Ry

     new trust radius        =       0.5000000000 bohr
     new conv_thr            =       0.0001000000 Ry

     new unit-cell volume =   1647.26759 a.u.^3 (   244.09987 Ang^3 )

CELL_PARAMETERS (alat=  9.92348860)
   1.064656081   0.000000000   0.000000000
  -0.532328041   0.922019213   0.000000000
   0.000000000   0.000000000   1.717203317

ATOMIC_POSITIONS (crystal)
Mg       0.333333000   0.666667000   0.062688531
Mg       0.666667000   0.333333000   0.562688531
Mg       0.666667000   0.333333000   0.937311469
Mg       0.333333000   0.666667000   0.437311469
Zn       0.000000000   0.000000000   0.000000000
Zn       0.000000000   0.000000000   0.500000000
Zn       0.171493349   0.342986698   0.750000000
Zn       0.828506651   0.171493349   0.250000000
Zn       0.342986698   0.171493349   0.250000000
Zn       0.657013302   0.828506651   0.750000000
Zn       0.171493349   0.828506651   0.750000000
Zn       0.828506651   0.657013302   0.250000000

     Writing output data file Prototype-La-hP12-MgZn2.save
     NEW-OLD atomic charge density approx. for the potential
     NEW k-points:
        k(    1) = (   0.0000000   0.0000000   0.0000000), wk =   0.0833333
        k(    2) = (   0.0000000   0.0000000   0.1455856), wk =   0.1666667
        k(    3) = (   0.0000000   0.0000000  -0.2911711), wk =   0.0833333
        k(    4) = (   0.0000000   0.3615254   0.0000000), wk =   0.1666667
        k(    5) = (   0.0000000   0.3615254   0.1455856), wk =   0.3333333
        k(    6) = (   0.0000000   0.3615254  -0.2911711), wk =   0.1666667
        k(    7) = (  -0.4696352  -0.2711440   0.0000000), wk =   0.0833333
        k(    8) = (  -0.4696352  -0.2711440   0.1455856), wk =   0.1666667
        k(    9) = (  -0.4696352  -0.2711440  -0.2911711), wk =   0.0833333
        k(   10) = (  -0.4696352   0.0903813   0.0000000), wk =   0.1666667
        k(   11) = (  -0.4696352   0.0903813   0.1455856), wk =   0.3333333
        k(   12) = (  -0.4696352   0.0903813  -0.2911711), wk =   0.1666667

[...]

     enthalpy old            =   -1789.5387291293 Ry
     enthalpy new            =   -1790.6396764234 Ry

     CASE: enthalpy_new < enthalpy_old

     small trust_radius: resetting bfgs history

[...]

     number of scf cycles    =   3
     number of bfgs steps    =   2

     enthalpy old            =   -1790.6396764234 Ry
     enthalpy new            =   -1790.6516082567 Ry

     CASE: enthalpy_new < enthalpy_old

     Message from routine bfgs:
     history already reset at previous step: stopping
     small trust_radius: resetting bfgs history

     new trust radius        =       0.1626303359 bohr
     new conv_thr            =       0.0000141144 Ry

     new unit-cell volume =   1685.08095 a.u.^3 (   249.70323 Ang^3 )

[...]

ATOMIC_POSITIONS (crystal)
Mg       0.333333000   0.666667000   0.063523472
Mg       0.666667000   0.333333000   0.563523472
Mg       0.666667000   0.333333000   0.936476528
Mg       0.333333000   0.666667000   0.436476528
Zn       0.000000000   0.000000000   0.000000000
Zn       0.000000000   0.000000000   0.500000000
Zn       0.171670554   0.343341108   0.750000000
Zn       0.828329446   0.171670554   0.250000000
Zn       0.343341108   0.171670554   0.250000000
Zn       0.656658892   0.828329446   0.750000000
Zn       0.171670554   0.828329446   0.750000000
Zn       0.828329446   0.656658892   0.250000000

     Writing output data file Prototype-La-hP12-MgZn2.save
     NEW-OLD atomic charge density approx. for the potential
     NEW k-points:
        k(    1) = (   0.0000000   0.0000000   0.0000000), wk =   0.0833333
        k(    2) = (   0.0000000   0.0000000   0.1444364), wk =   0.1666667
        k(    3) = (   0.0000000   0.0000000  -0.2888727), wk =   0.0833333
        k(    4) = (   0.0000000   0.3588652   0.0000000), wk =   0.1666667
        k(    5) = (   0.0000000   0.3588652   0.1444364), wk =   0.3333333
        k(    6) = (   0.0000000   0.3588652  -0.2888727), wk =   0.1666667
        k(    7) = (  -0.4661796  -0.2691489   0.0000000), wk =   0.0833333
        k(    8) = (  -0.4661796  -0.2691489   0.1444364), wk =   0.1666667
        k(    9) = (  -0.4661796  -0.2691489  -0.2888727), wk =   0.0833333
        k(   10) = (  -0.4661796   0.0897163   0.0000000), wk =   0.1666667
        k(   11) = (  -0.4661796   0.0897163   0.1444364), wk =   0.3333333
        k(   12) = (  -0.4661796   0.0897163  -0.2888727), wk =   0.1666667

[...]

     The maximum number of steps has been reached.

     End of BFGS Geometry Optimization
Begin final coordinates
     new unit-cell volume =   1685.08095 a.u.^3 (   249.70323 Ang^3 )

CELL_PARAMETERS (alat=  9.92348860)
   1.072548049   0.000000000   0.000000000
  -0.536274024   0.928853857   0.000000000
   0.000000000   0.000000000   1.730866206

ATOMIC_POSITIONS (crystal)
Mg       0.333333000   0.666667000   0.063523472
Mg       0.666667000   0.333333000   0.563523472
Mg       0.666667000   0.333333000   0.936476528
Mg       0.333333000   0.666667000   0.436476528
Zn       0.000000000   0.000000000   0.000000000
Zn       0.000000000   0.000000000   0.500000000
Zn       0.171670554   0.343341108   0.750000000
Zn       0.828329446   0.171670554   0.250000000
Zn       0.343341108   0.171670554   0.250000000
Zn       0.656658892   0.828329446   0.750000000
Zn       0.171670554   0.828329446   0.750000000
Zn       0.828329446   0.656658892   0.250000000
End final coordinates

     A final scf calculation at the relaxed structure.
     The G-vectors are recalculated for the final unit cell
     Results may differ from those at the preceding step.

     bravais-lattice index     =            0
     lattice parameter (alat)  =       9.9235  a.u.
     unit-cell volume          =    1685.0810 (a.u.)^3
     number of atoms/cell      =           12
     number of atomic types    =            2
     number of electrons       =       180.00
     number of Kohn-Sham states=          108
     kinetic-energy cutoff     =      40.0000  Ry
     charge density cutoff     =     160.0000  Ry
     convergence threshold     =      1.4E-05
     mixing beta               =       0.7000
     number of iterations used =            8  plain     mixing
     Exchange-correlation      = SLA-PZ-NOGX-NOGC ( 1 1 0 0 0)
     EXX-fraction              =        0.00

     celldm(1)=   9.923489  celldm(2)=   0.000000  celldm(3)=   0.000000
     celldm(4)=   0.000000  celldm(5)=   0.000000  celldm(6)=   0.000000

     crystal axes: (cart. coord. in units of alat)
               a(1) = (   1.072548   0.000000   0.000000 )
               a(2) = (  -0.536274   0.928854   0.000000 )
               a(3) = (   0.000000   0.000000   1.730866 )

     reciprocal axes: (cart. coord. in units 2 pi/alat)
               b(1) = (  0.932359  0.538298  0.000000 )
               b(2) = (  0.000000  1.076596  0.000000 )
               b(3) = (  0.000000  0.000000  0.577745 )

     PseudoPot. # 1 for Ho read from file:
     /home/cwx6513/pp.La/Ho.UPF
     MD5 check sum: f307ee11bce99f5b724fa279e3790763
     Pseudo is Norm-conserving, Zval = 21.0
     Generated in analytical, separable form
     Using radial grid of 1265 points,  6 beta functions with:
                l(1) =   0
                l(2) =   0
                l(3) =   1
                l(4) =   1
                l(5) =   2
                l(6) =   3

     PseudoPot. # 2 for Ce read from file:
     /home/cwx6513/pp.La/Ce.UPF
     MD5 check sum: 44451aa79a44a00cf2bc029dc19922f6
     Pseudo is Norm-conserving, Zval = 12.0
     Generated in analytical, separable form
     Using radial grid of 1255 points,  6 beta functions with:
                l(1) =   0
                l(2) =   0
                l(3) =   1
                l(4) =   1
                l(5) =   2
                l(6) =   3

     atomic species   valence    mass     pseudopotential
        Mg            21.00    24.30500     Ho( 1.00)
        Zn            12.00    65.39000     Ce( 1.00)

     24 Sym. Ops., with inversion, found (12 have fractional translation)

   Cartesian axes

     site n.     atom                  positions (alat units)
         1           Mg  tau(   1) = (  -0.0000005   0.6192362   0.1099506  )
         2           Mg  tau(   2) = (   0.5362746   0.3096176   0.9753837  )
         3           Mg  tau(   3) = (   0.5362746   0.3096176   1.6209156  )
         4           Mg  tau(   4) = (  -0.0000005   0.6192362   0.7554825  )
         5           Zn  tau(   5) = (   0.0000000   0.0000000   0.0000000  )
         6           Zn  tau(   6) = (   0.0000000   0.0000000   0.8654331  )
         7           Zn  tau(   7) = (   0.0000000   0.3189137   1.2981497  )
         8           Zn  tau(   8) = (   0.7963607   0.1594569   0.4327166  )
         9           Zn  tau(   9) = (   0.2761874   0.1594569   0.4327166  )
        10           Zn  tau(  10) = (   0.2600866   0.7693970   1.2981497  )
        11           Zn  tau(  11) = (  -0.2600866   0.7693970   1.2981497  )
        12           Zn  tau(  12) = (   0.5362740   0.6099401   0.4327166  )

     number of k points=    12  gaussian smearing, width (Ry)=  0.1000
                       cart. coord. in units 2pi/alat
        k(    1) = (   0.0000000   0.0000000   0.0000000), wk =   0.0833333
        k(    2) = (   0.0000000   0.0000000   0.1444364), wk =   0.1666667
        k(    3) = (   0.0000000   0.0000000  -0.2888727), wk =   0.0833333
        k(    4) = (   0.0000000   0.3588652   0.0000000), wk =   0.1666667
        k(    5) = (   0.0000000   0.3588652   0.1444364), wk =   0.3333333
        k(    6) = (   0.0000000   0.3588652  -0.2888727), wk =   0.1666667
        k(    7) = (  -0.4661796  -0.2691489   0.0000000), wk =   0.0833333
        k(    8) = (  -0.4661796  -0.2691489   0.1444364), wk =   0.1666667
        k(    9) = (  -0.4661796  -0.2691489  -0.2888727), wk =   0.0833333
        k(   10) = (  -0.4661796   0.0897163   0.0000000), wk =   0.1666667
        k(   11) = (  -0.4661796   0.0897163   0.1444364), wk =   0.3333333
        k(   12) = (  -0.4661796   0.0897163  -0.2888727), wk =   0.1666667

     Largest allocated arrays     est. size (Mb)     dimensions
     Largest temporary arrays     est. size (Mb)     dimensions

     Initial potential from superposition of free atoms

     Starting from uniform charge
     Starting wfc are    0 randomized atomic wfcs

     Writing output data file Prototype-La-hP12-MgZn2.save

     Self-consistent Calculation

[...]

     iteration #  6     ecut=    40.00 Ry     beta=0.70
     CG style diagonalization
     ethr =  2.60E-03,  avg # of iterations =  3.9

[...]

     total energy              =   -1791.66701480 Ry
     Harris-Foulkes estimate   =   -1791.66702498 Ry
     estimated scf accuracy    <       0.00002278 Ry

     iteration # 12     ecut=    40.00 Ry     beta=0.70
     CG style diagonalization
     c_bands:  1 eigenvalues not converged
     ethr =  1.27E-08,  avg # of iterations =  5.0

     End of self-consistent calculation

[...]

          k = 0.0000 0.3589-0.2889 (  7192 PWs)   bands (ev):

[...]

          k =-0.4662 0.0897-0.2889 (  7194 PWs)   bands (ev):

   -68.4246 -68.4246 -68.4210 -68.4210 -32.5558 -32.5558 -32.5452 -32.5452
   -32.5437 -32.5436 -32.5401 -32.5401 -32.5383 -32.5383 -32.5319 -32.5319
   -15.2831 -15.2831 -14.8722 -14.8722 -14.2266 -14.2266 -14.1422 -14.1422
     0.4867   0.4867   1.4912   1.4912   2.1327   2.1327   2.2655   2.2655
     2.4995   2.4995   2.8194   2.8194   3.3917   3.3917   3.9535   3.9535
     4.3309   4.3309   4.6596   4.6596   5.2162   5.2162   5.3376   5.3376
    11.0939  11.0939  11.1334  11.1334  11.2481  11.2481  11.3668  11.3669
    11.4469  11.4470  11.5361  11.5362  11.5670  11.5670  11.6222  11.6222
    11.8188  11.8189  11.8686  11.8686  16.3422  16.3422  16.9829  16.9829
    19.7009  19.7009  19.9375  19.9375  20.6599  20.6599  20.9902  20.9902
    21.2170  21.2170  21.5941  21.5941  22.2437  22.2437  22.3775  22.3775
    22.7304  22.7304  23.4995  23.4995  24.1469  24.1469  24.2251  24.2251
    25.1043  25.1043  25.2432  25.2432  25.7547  25.7547  26.2286  26.2286
    26.3641  26.3641  27.3128  27.3129

     the Fermi energy is    23.2711 ev

!    total energy              =   -1791.66703044 Ry
     Harris-Foulkes estimate   =   -1791.66703699 Ry
     estimated scf accuracy    <       0.00000763 Ry

     The total energy is the sum of the following terms:

     one-electron contribution =    -311.57734484 Ry
     hartree contribution      =     276.51907617 Ry
     xc contribution           =    -187.15358434 Ry
     ewald contribution        =   -1568.92343363 Ry
     smearing contrib. (-TS)   =      -0.53174379 Ry

     convergence has been achieved in  12 iterations

     Forces acting on atoms (Ry/au):

     atom    1 type  1   force =     0.00000000    0.00000000    0.00873586
     atom    2 type  1   force =     0.00000000    0.00000000    0.00873586
     atom    3 type  1   force =     0.00000000    0.00000000   -0.00873586
     atom    4 type  1   force =     0.00000000    0.00000000   -0.00873586
     atom    5 type  2   force =     0.00000000    0.00000000    0.00000000
     atom    6 type  2   force =     0.00000000    0.00000000    0.00000000
     atom    7 type  2   force =     0.00000000    0.00638313    0.00000000
     atom    8 type  2   force =    -0.00552795    0.00319157    0.00000000
     atom    9 type  2   force =     0.00552795    0.00319157    0.00000000
     atom   10 type  2   force =    -0.00552795   -0.00319157    0.00000000
     atom   11 type  2   force =     0.00552795   -0.00319157    0.00000000
     atom   12 type  2   force =     0.00000000   -0.00638313    0.00000000

     Total force =     0.023446     Total SCF correction =     0.000000

     entering subroutine stress ...

          total   stress  (Ry/bohr**3)                   (kbar)     P=  257.53
   0.00174900   0.00000000   0.00000000        257.29      0.00      0.00
   0.00000000   0.00174900   0.00000000          0.00    257.29      0.00
   0.00000000   0.00000000   0.00175389          0.00      0.00    258.01

     Writing output data file Prototype-La-hP12-MgZn2.save

     General routines

     Parallel routines

   This run was terminated on:   1:16:42  23Mar2018

   JOB DONE.