     Program PWSCF v.5.0.2 starts on 23Mar2018 at  0:54:26

     Current dimensions of program PWSCF are:
     Max number of different atomic species (ntypx) = 10
     Max number of k-points (npk) =  40000
     Max angular momentum in pseudopotentials (lmaxx) =  3
     Waiting for input...
     Reading input from standard input

     Subspace diagonalization in iterative solution of the eigenvalue problem:
     a serial algorithm will be used

     bravais-lattice index     =            0
     lattice parameter (alat)  =       8.5346  a.u.
     unit-cell volume          =     621.6493 (a.u.)^3
     number of atoms/cell      =            8
     number of atomic types    =            2
     number of electrons       =       150.00
     number of Kohn-Sham states=           90
     kinetic-energy cutoff     =      40.0000  Ry
     charge density cutoff     =     160.0000  Ry
     convergence threshold     =      1.0E-04
     mixing beta               =       0.7000
     number of iterations used =            8  plain     mixing
     Exchange-correlation      = SLA-PZ-NOGX-NOGC ( 1 1 0 0 0)
     EXX-fraction              =        0.00
     nstep                     =           50

     celldm(1)=   8.534573  celldm(2)=   0.000000  celldm(3)=   0.000000
     celldm(4)=   0.000000  celldm(5)=   0.000000  celldm(6)=   0.000000

     crystal axes: (cart. coord. in units of alat)
               a(1) = (   1.000000   0.000000   0.000000 )
               a(2) = (   0.000000   1.000000   0.000000 )
               a(3) = (   0.000000   0.000000   1.000000 )

     reciprocal axes: (cart. coord. in units 2 pi/alat)
               b(1) = (  1.000000  0.000000  0.000000 )
               b(2) = (  0.000000  1.000000  0.000000 )
               b(3) = (  0.000000  0.000000  1.000000 )

     PseudoPot. # 1 for Ho read from file:
     /home/cwx6513/pp.La/Ho.UPF
     MD5 check sum: f307ee11bce99f5b724fa279e3790763
     Pseudo is Norm-conserving, Zval = 21.0
     Generated in analytical, separable form
     Using radial grid of 1265 points,  6 beta functions with:
                l(1) =   0
                l(2) =   0
                l(3) =   1
                l(4) =   1
                l(5) =   2
                l(6) =   3

     PseudoPot. # 2 for Ce read from file:
     /home/cwx6513/pp.La/Ce.UPF
     MD5 check sum: 44451aa79a44a00cf2bc029dc19922f6
     Pseudo is Norm-conserving, Zval = 12.0
     Generated in analytical, separable form
     Using radial grid of 1255 points,  6 beta functions with:
                l(1) =   0
                l(2) =   0
                l(3) =   1
                l(4) =   1
                l(5) =   2
                l(6) =   3

     atomic species   valence    mass     pseudopotential
        Cr            21.00    51.99610     Ho( 1.00)
        Si            12.00    28.08550     Ce( 1.00)

     48 Sym. Ops., with inversion, found (24 have fractional translation)

   Cartesian axes

     site n.     atom                  positions (alat units)
         1           Cr  tau(   1) = (   0.0000000   0.5000000   0.2500000  )
         2           Cr  tau(   2) = (   0.0000000   0.5000000   0.7500000  )
         3           Cr  tau(   3) = (   0.5000000   0.7500000   0.0000000  )
         4           Cr  tau(   4) = (   0.5000000   0.2500000   0.0000000  )
         5           Cr  tau(   5) = (   0.7500000   0.0000000   0.5000000  )
         6           Cr  tau(   6) = (   0.2500000   0.0000000   0.5000000  )
         7           Si  tau(   7) = (   0.5000000   0.5000000   0.5000000  )
         8           Si  tau(   8) = (   0.0000000   0.0000000   0.0000000  )

     number of k points=    48  gaussian smearing, width (Ry)=  0.1000
                       cart. coord. in units 2pi/alat
        k(    1) = (   0.0000000   0.0000000   0.0000000), wk =   0.0095238
        k(    2) = (   0.0000000   0.0000000   0.1428571), wk =   0.0190476
        k(    3) = (   0.0000000   0.0000000   0.2857143), wk =   0.0190476
        k(    4) = (   0.0000000   0.0000000   0.4285714), wk =   0.0190476
        k(    5) = (   0.0000000   0.1666667   0.0000000), wk =   0.0190476
        k(    6) = (   0.0000000   0.1666667   0.1428571), wk =   0.0380952
        k(    7) = (   0.0000000   0.1666667   0.2857143), wk =   0.0380952
        k(    8) = (   0.0000000   0.1666667   0.4285714), wk =   0.0380952
        k(    9) = (   0.0000000   0.3333333   0.0000000), wk =   0.0190476
        k(   10) = (   0.0000000   0.3333333   0.1428571), wk =   0.0380952
        k(   11) = (   0.0000000   0.3333333   0.2857143), wk =   0.0380952
        k(   12) = (   0.0000000   0.3333333   0.4285714), wk =   0.0380952
        k(   13) = (   0.0000000  -0.5000000   0.0000000), wk =   0.0095238
        k(   14) = (   0.0000000  -0.5000000   0.1428571), wk =   0.0190476
        k(   15) = (   0.0000000  -0.5000000   0.2857143), wk =   0.0190476
        k(   16) = (   0.0000000  -0.5000000   0.4285714), wk =   0.0190476
        k(   17) = (   0.2000000   0.0000000   0.0000000), wk =   0.0190476
        k(   18) = (   0.2000000   0.0000000   0.1428571), wk =   0.0380952
        k(   19) = (   0.2000000   0.0000000   0.2857143), wk =   0.0380952
        k(   20) = (   0.2000000   0.0000000   0.4285714), wk =   0.0380952
        k(   21) = (   0.2000000   0.1666667   0.0000000), wk =   0.0380952
        k(   22) = (   0.2000000   0.1666667   0.1428571), wk =   0.0761905
        k(   23) = (   0.2000000   0.1666667   0.2857143), wk =   0.0761905
        k(   24) = (   0.2000000   0.1666667   0.4285714), wk =   0.0761905
        k(   25) = (   0.2000000   0.3333333   0.0000000), wk =   0.0380952
        k(   26) = (   0.2000000   0.3333333   0.1428571), wk =   0.0761905
        k(   27) = (   0.2000000   0.3333333   0.2857143), wk =   0.0761905
        k(   28) = (   0.2000000   0.3333333   0.4285714), wk =   0.0761905
        k(   29) = (   0.2000000  -0.5000000   0.0000000), wk =   0.0190476
        k(   30) = (   0.2000000  -0.5000000   0.1428571), wk =   0.0380952
        k(   31) = (   0.2000000  -0.5000000   0.2857143), wk =   0.0380952
        k(   32) = (   0.2000000  -0.5000000   0.4285714), wk =   0.0380952
        k(   33) = (   0.4000000   0.0000000   0.0000000), wk =   0.0190476
        k(   34) = (   0.4000000   0.0000000   0.1428571), wk =   0.0380952
        k(   35) = (   0.4000000   0.0000000   0.2857143), wk =   0.0380952
        k(   36) = (   0.4000000   0.0000000   0.4285714), wk =   0.0380952
        k(   37) = (   0.4000000   0.1666667   0.0000000), wk =   0.0380952
        k(   38) = (   0.4000000   0.1666667   0.1428571), wk =   0.0761905
        k(   39) = (   0.4000000   0.1666667   0.2857143), wk =   0.0761905
        k(   40) = (   0.4000000   0.1666667   0.4285714), wk =   0.0761905
        k(   41) = (   0.4000000   0.3333333   0.0000000), wk =   0.0380952
        k(   42) = (   0.4000000   0.3333333   0.1428571), wk =   0.0761905
        k(   43) = (   0.4000000   0.3333333   0.2857143), wk =   0.0761905
        k(   44) = (   0.4000000   0.3333333   0.4285714), wk =   0.0761905
        k(   45) = (   0.4000000  -0.5000000   0.0000000), wk =   0.0190476
        k(   46) = (   0.4000000  -0.5000000   0.1428571), wk =   0.0380952
        k(   47) = (   0.4000000  -0.5000000   0.2857143), wk =   0.0380952
        k(   48) = (   0.4000000  -0.5000000   0.4285714), wk =   0.0380952

     Largest allocated arrays     est. size (Mb)     dimensions
     Largest temporary arrays     est. size (Mb)     dimensions

     Initial potential from superposition of free atoms

     Starting from uniform charge
     Starting wfc are    0 randomized atomic wfcs

     Self-consistent Calculation

     iteration #  1     ecut=    40.00 Ry     beta=0.70
     CG style diagonalization
     c_bands:  2 eigenvalues not converged
     c_bands:  1 eigenvalues not converged
     ethr =  1.00E-02,  avg # of iterations = 16.9

     total energy              =   -1538.32637369 Ry
     Harris-Foulkes estimate   =   -2272.41921485 Ry
     estimated scf accuracy    <     910.61833634 Ry

[...]

     iteration #  4     ecut=    40.00 Ry     beta=0.70
     CG style diagonalization
     ethr =  1.00E-02,  avg # of iterations =  3.9

[...]

     End of self-consistent calculation

          k = 0.0000 0.0000 0.0000 (  2601 PWs)   bands (ev):

   -47.2167 -47.1944 -47.1944 -46.6741 -46.6741 -46.6741 -13.6091 -13.6091
   -13.4054 -11.8098 -11.8098 -11.8098 -11.1680 -11.1680 -11.1680 -11.1046
   -11.1046 -11.1046 -10.9349 -10.9349 -10.9349 -10.2563 -10.2563 -10.2563
     8.6563   8.8228  23.5058  23.5058  23.5058  23.7303  23.7303  23.7303
    25.9018  25.9018  25.9858  28.2519  28.2519  28.2519  29.0788  30.3881
    30.3881  30.3881  30.4728  30.4728  32.1315  32.7085  32.7085  32.7085
    32.8501  34.0162  34.0162  34.0162  34.5665  34.5665  34.7819  34.7819
    34.7819  34.8015  34.8015  34.8015  36.3557  36.3557  36.3557  38.0570
    38.0570  44.1513  44.1513  44.1513  44.4082  44.4082  45.4869  45.4869
    45.4869  46.4375  46.4375  46.4375  49.9034  49.9034  49.9034  50.6831
    50.6831  50.6831  51.2065  54.3469  54.4383  54.4380  54.4381  54.9302
    54.9304  55.7173

[...]

     the Fermi energy is    48.4327 ev

!    total energy              =   -1906.63779101 Ry
     Harris-Foulkes estimate   =   -1906.63785460 Ry
     estimated scf accuracy    <       0.00008066 Ry

     The total energy is the sum of the following terms:

     one-electron contribution =      21.71240745 Ry
     hartree contribution      =     198.29777158 Ry
     xc contribution           =    -185.35639653 Ry
     ewald contribution        =   -1941.10011302 Ry
     smearing contrib. (-TS)   =      -0.19146050 Ry

     convergence has been achieved in   9 iterations

     Forces acting on atoms (Ry/au):

     atom    1 type  1   force =     0.00000000    0.00000000    0.00000000
     atom    2 type  1   force =     0.00000000    0.00000000    0.00000000
     atom    3 type  1   force =     0.00000000    0.00000000    0.00000000
     atom    4 type  1   force =     0.00000000    0.00000000    0.00000000
     atom    5 type  1   force =     0.00000000    0.00000000    0.00000000
     atom    6 type  1   force =     0.00000000    0.00000000    0.00000000
     atom    7 type  2   force =     0.00000000    0.00000000    0.00000000
     atom    8 type  2   force =     0.00000000    0.00000000    0.00000000

     Total force =     0.000000     Total SCF correction =     0.000000

     entering subroutine stress ...

          total   stress  (Ry/bohr**3)                   (kbar)     P= 5538.95
   0.03765299   0.00000000   0.00000000       5538.95      0.00      0.00
   0.00000000   0.03765299   0.00000000          0.00   5538.95      0.00
   0.00000000   0.00000000   0.03765299          0.00      0.00   5538.95

     BFGS Geometry Optimization

     number of scf cycles    =   1
     number of bfgs steps    =   0

     enthalpy new            =   -1906.6377910119 Ry

     new trust radius        =       0.5000000000 bohr
     new conv_thr            =       0.0001000000 Ry

     new unit-cell volume =    828.02266 a.u.^3 (   122.70030 Ang^3 )

[...]

     CASE: enthalpy_new < enthalpy_old

     small trust_radius: resetting bfgs history

     new trust radius        =       1.0232622221 bohr
     new conv_thr            =       0.0000010000 Ry

[...]

          total   stress  (Ry/bohr**3)                   (kbar)     P=-1557.90
  -0.01059042   0.00000000   0.00000000      -1557.90      0.00      0.00
   0.00000000  -0.01059042   0.00000000          0.00  -1557.90      0.00
   0.00000000   0.00000000  -0.01059042          0.00      0.00  -1557.90

     number of scf cycles    =   3
     number of bfgs steps    =   2

     enthalpy old            =   -1910.7176409413 Ry
     enthalpy new            =   -1908.3930010871 Ry

     CASE: enthalpy_new > enthalpy_old

     new trust radius        =       0.3191034660 bohr

     trust_radius < trust_radius_min

     resetting bfgs history

     Message from routine bfgs:
     history already reset at previous step: stopping
     new conv_thr            =       0.0000010000 Ry

     new unit-cell volume =   1043.22643 a.u.^3 (   154.59021 Ang^3 )

[...]

ATOMIC_POSITIONS (crystal)
Cr       0.000000000   0.500000000   0.250000000
Cr       0.000000000   0.500000000   0.750000000
Cr       0.500000000   0.750000000   0.000000000
Cr       0.500000000   0.250000000   0.000000000
Cr       0.750000000   0.000000000   0.500000000
Cr       0.250000000   0.000000000   0.500000000
Si       0.500000000   0.500000000   0.500000000
Si       0.000000000   0.000000000   0.000000000

     Writing output data file Prototype-La-cP8-Cr3Si.save
     NEW-OLD atomic charge density approx. for the potential
     NEW k-points:
        k(    1) = (   0.0000000   0.0000000   0.0000000), wk =   0.0095238
        k(    2) = (   0.0000000   0.0000000   0.1202147), wk =   0.0190476
        k(    3) = (   0.0000000   0.0000000   0.2404294), wk =   0.0190476
        k(    4) = (   0.0000000   0.0000000   0.3606441), wk =   0.0190476
        k(    5) = (   0.0000000   0.1402505   0.0000000), wk =   0.0190476
        k(    6) = (   0.0000000   0.1402505   0.1202147), wk =   0.0380952
        k(    7) = (   0.0000000   0.1402505   0.2404294), wk =   0.0380952
        k(    8) = (   0.0000000   0.1402505   0.3606441), wk =   0.0380952
        k(    9) = (   0.0000000   0.2805010   0.0000000), wk =   0.0190476
        k(   10) = (   0.0000000   0.2805010   0.1202147), wk =   0.0380952
        k(   11) = (   0.0000000   0.2805010   0.2404294), wk =   0.0380952
        k(   12) = (   0.0000000   0.2805010   0.3606441), wk =   0.0380952
        k(   13) = (   0.0000000  -0.4207514   0.0000000), wk =   0.0095238
        k(   14) = (   0.0000000  -0.4207514   0.1202147), wk =   0.0190476
        k(   15) = (   0.0000000  -0.4207514   0.2404294), wk =   0.0190476
        k(   16) = (   0.0000000  -0.4207514   0.3606441), wk =   0.0190476
        k(   17) = (   0.1683006   0.0000000   0.0000000), wk =   0.0190476
        k(   18) = (   0.1683006   0.0000000   0.1202147), wk =   0.0380952
        k(   19) = (   0.1683006   0.0000000   0.2404294), wk =   0.0380952
        k(   20) = (   0.1683006   0.0000000   0.3606441), wk =   0.0380952
        k(   21) = (   0.1683006   0.1402505   0.0000000), wk =   0.0380952
        k(   22) = (   0.1683006   0.1402505   0.1202147), wk =   0.0761905
        k(   23) = (   0.1683006   0.1402505   0.2404294), wk =   0.0761905
        k(   24) = (   0.1683006   0.1402505   0.3606441), wk =   0.0761905
        k(   25) = (   0.1683006   0.2805010   0.0000000), wk =   0.0380952
        k(   26) = (   0.1683006   0.2805010   0.1202147), wk =   0.0761905
        k(   27) = (   0.1683006   0.2805010   0.2404294), wk =   0.0761905
        k(   28) = (   0.1683006   0.2805010   0.3606441), wk =   0.0761905
        k(   29) = (   0.1683006  -0.4207514   0.0000000), wk =   0.0190476
        k(   30) = (   0.1683006  -0.4207514   0.1202147), wk =   0.0380952
        k(   31) = (   0.1683006  -0.4207514   0.2404294), wk =   0.0380952
        k(   32) = (   0.1683006  -0.4207514   0.3606441), wk =   0.0380952
        k(   33) = (   0.3366012   0.0000000   0.0000000), wk =   0.0190476
        k(   34) = (   0.3366012   0.0000000   0.1202147), wk =   0.0380952
        k(   35) = (   0.3366012   0.0000000   0.2404294), wk =   0.0380952
        k(   36) = (   0.3366012   0.0000000   0.3606441), wk =   0.0380952
        k(   37) = (   0.3366012   0.1402505   0.0000000), wk =   0.0380952
        k(   38) = (   0.3366012   0.1402505   0.1202147), wk =   0.0761905
        k(   39) = (   0.3366012   0.1402505   0.2404294), wk =   0.0761905
        k(   40) = (   0.3366012   0.1402505   0.3606441), wk =   0.0761905
        k(   41) = (   0.3366012   0.2805010   0.0000000), wk =   0.0380952
        k(   42) = (   0.3366012   0.2805010   0.1202147), wk =   0.0761905
        k(   43) = (   0.3366012   0.2805010   0.2404294), wk =   0.0761905
        k(   44) = (   0.3366012   0.2805010   0.3606441), wk =   0.0761905
        k(   45) = (   0.3366012  -0.4207514   0.0000000), wk =   0.0190476
        k(   46) = (   0.3366012  -0.4207514   0.1202147), wk =   0.0380952
        k(   47) = (   0.3366012  -0.4207514   0.2404294), wk =   0.0380952
        k(   48) = (   0.3366012  -0.4207514   0.3606441), wk =   0.0380952

[...]

     The maximum number of steps has been reached.

     End of BFGS Geometry Optimization
Begin final coordinates
     new unit-cell volume =   1043.22643 a.u.^3 (   154.59021 Ang^3 )

CELL_PARAMETERS (alat=  8.53457320)
   1.188350045   0.000000000   0.000000000
   0.000000000   1.188350045   0.000000000
   0.000000000   0.000000000   1.188350045

ATOMIC_POSITIONS (crystal)
Cr       0.000000000   0.500000000   0.250000000
Cr       0.000000000   0.500000000   0.750000000
Cr       0.500000000   0.750000000   0.000000000
Cr       0.500000000   0.250000000   0.000000000
Cr       0.750000000   0.000000000   0.500000000
Cr       0.250000000   0.000000000   0.500000000
Si       0.500000000   0.500000000   0.500000000
Si       0.000000000   0.000000000   0.000000000
End final coordinates

     A final scf calculation at the relaxed structure.
     The G-vectors are recalculated for the final unit cell
     Results may differ from those at the preceding step.

     bravais-lattice index     =            0
     lattice parameter (alat)  =       8.5346  a.u.
     unit-cell volume          =    1043.2264 (a.u.)^3
     number of atoms/cell      =            8
     number of atomic types    =            2
     number of electrons       =       150.00
     number of Kohn-Sham states=           90
     kinetic-energy cutoff     =      40.0000  Ry
     charge density cutoff     =     160.0000  Ry
     convergence threshold     =      1.0E-06
     mixing beta               =       0.7000
     number of iterations used =            8  plain     mixing
     Exchange-correlation      = SLA-PZ-NOGX-NOGC ( 1 1 0 0 0)
     EXX-fraction              =        0.00

     celldm(1)=   8.534573  celldm(2)=   0.000000  celldm(3)=   0.000000
     celldm(4)=   0.000000  celldm(5)=   0.000000  celldm(6)=   0.000000

     crystal axes: (cart. coord. in units of alat)
               a(1) = (   1.188350   0.000000   0.000000 )
               a(2) = (   0.000000   1.188350   0.000000 )
               a(3) = (   0.000000   0.000000   1.188350 )

     reciprocal axes: (cart. coord. in units 2 pi/alat)
               b(1) = (  0.841503  0.000000  0.000000 )
               b(2) = (  0.000000  0.841503  0.000000 )
               b(3) = (  0.000000  0.000000  0.841503 )

     PseudoPot. # 1 for Ho read from file:
     /home/cwx6513/pp.La/Ho.UPF
     MD5 check sum: f307ee11bce99f5b724fa279e3790763
     Pseudo is Norm-conserving, Zval = 21.0
     Generated in analytical, separable form
     Using radial grid of 1265 points,  6 beta functions with:
                l(1) =   0
                l(2) =   0
                l(3) =   1
                l(4) =   1
                l(5) =   2
                l(6) =   3

     PseudoPot. # 2 for Ce read from file:
     /home/cwx6513/pp.La/Ce.UPF
     MD5 check sum: 44451aa79a44a00cf2bc029dc19922f6
     Pseudo is Norm-conserving, Zval = 12.0
     Generated in analytical, separable form
     Using radial grid of 1255 points,  6 beta functions with:
                l(1) =   0
                l(2) =   0
                l(3) =   1
                l(4) =   1
                l(5) =   2
                l(6) =   3

     atomic species   valence    mass     pseudopotential
        Cr            21.00    51.99610     Ho( 1.00)
        Si            12.00    28.08550     Ce( 1.00)

     48 Sym. Ops., with inversion, found (24 have fractional translation)

   Cartesian axes

     site n.     atom                  positions (alat units)
         1           Cr  tau(   1) = (   0.0000000   0.5941750   0.2970875  )
         2           Cr  tau(   2) = (   0.0000000   0.5941750   0.8912625  )
         3           Cr  tau(   3) = (   0.5941750   0.8912625   0.0000000  )
         4           Cr  tau(   4) = (   0.5941750   0.2970875   0.0000000  )
         5           Cr  tau(   5) = (   0.8912625   0.0000000   0.5941750  )
         6           Cr  tau(   6) = (   0.2970875   0.0000000   0.5941750  )
         7           Si  tau(   7) = (   0.5941750   0.5941750   0.5941750  )
         8           Si  tau(   8) = (   0.0000000   0.0000000   0.0000000  )

     number of k points=    48  gaussian smearing, width (Ry)=  0.1000
                       cart. coord. in units 2pi/alat
        k(    1) = (   0.0000000   0.0000000   0.0000000), wk =   0.0095238
        k(    2) = (   0.0000000   0.0000000   0.1202147), wk =   0.0190476
        k(    3) = (   0.0000000   0.0000000   0.2404294), wk =   0.0190476
        k(    4) = (   0.0000000   0.0000000   0.3606441), wk =   0.0190476
        k(    5) = (   0.0000000   0.1402505   0.0000000), wk =   0.0190476
        k(    6) = (   0.0000000   0.1402505   0.1202147), wk =   0.0380952
        k(    7) = (   0.0000000   0.1402505   0.2404294), wk =   0.0380952
        k(    8) = (   0.0000000   0.1402505   0.3606441), wk =   0.0380952
        k(    9) = (   0.0000000   0.2805010   0.0000000), wk =   0.0190476
        k(   10) = (   0.0000000   0.2805010   0.1202147), wk =   0.0380952
        k(   11) = (   0.0000000   0.2805010   0.2404294), wk =   0.0380952
        k(   12) = (   0.0000000   0.2805010   0.3606441), wk =   0.0380952
        k(   13) = (   0.0000000  -0.4207514   0.0000000), wk =   0.0095238
        k(   14) = (   0.0000000  -0.4207514   0.1202147), wk =   0.0190476
        k(   15) = (   0.0000000  -0.4207514   0.2404294), wk =   0.0190476
        k(   16) = (   0.0000000  -0.4207514   0.3606441), wk =   0.0190476
        k(   17) = (   0.1683006   0.0000000   0.0000000), wk =   0.0190476
        k(   18) = (   0.1683006   0.0000000   0.1202147), wk =   0.0380952
        k(   19) = (   0.1683006   0.0000000   0.2404294), wk =   0.0380952
        k(   20) = (   0.1683006   0.0000000   0.3606441), wk =   0.0380952
        k(   21) = (   0.1683006   0.1402505   0.0000000), wk =   0.0380952
        k(   22) = (   0.1683006   0.1402505   0.1202147), wk =   0.0761905
        k(   23) = (   0.1683006   0.1402505   0.2404294), wk =   0.0761905
        k(   24) = (   0.1683006   0.1402505   0.3606441), wk =   0.0761905
        k(   25) = (   0.1683006   0.2805010   0.0000000), wk =   0.0380952
        k(   26) = (   0.1683006   0.2805010   0.1202147), wk =   0.0761905
        k(   27) = (   0.1683006   0.2805010   0.2404294), wk =   0.0761905
        k(   28) = (   0.1683006   0.2805010   0.3606441), wk =   0.0761905
        k(   29) = (   0.1683006  -0.4207514   0.0000000), wk =   0.0190476
        k(   30) = (   0.1683006  -0.4207514   0.1202147), wk =   0.0380952
        k(   31) = (   0.1683006  -0.4207514   0.2404294), wk =   0.0380952
        k(   32) = (   0.1683006  -0.4207514   0.3606441), wk =   0.0380952
        k(   33) = (   0.3366012   0.0000000   0.0000000), wk =   0.0190476
        k(   34) = (   0.3366012   0.0000000   0.1202147), wk =   0.0380952
        k(   35) = (   0.3366012   0.0000000   0.2404294), wk =   0.0380952
        k(   36) = (   0.3366012   0.0000000   0.3606441), wk =   0.0380952
        k(   37) = (   0.3366012   0.1402505   0.0000000), wk =   0.0380952
        k(   38) = (   0.3366012   0.1402505   0.1202147), wk =   0.0761905
        k(   39) = (   0.3366012   0.1402505   0.2404294), wk =   0.0761905
        k(   40) = (   0.3366012   0.1402505   0.3606441), wk =   0.0761905
        k(   41) = (   0.3366012   0.2805010   0.0000000), wk =   0.0380952
        k(   42) = (   0.3366012   0.2805010   0.1202147), wk =   0.0761905
        k(   43) = (   0.3366012   0.2805010   0.2404294), wk =   0.0761905
        k(   44) = (   0.3366012   0.2805010   0.3606441), wk =   0.0761905
        k(   45) = (   0.3366012  -0.4207514   0.0000000), wk =   0.0190476
        k(   46) = (   0.3366012  -0.4207514   0.1202147), wk =   0.0380952
        k(   47) = (   0.3366012  -0.4207514   0.2404294), wk =   0.0380952
        k(   48) = (   0.3366012  -0.4207514   0.3606441), wk =   0.0380952

     Largest allocated arrays     est. size (Mb)     dimensions
     Largest temporary arrays     est. size (Mb)     dimensions

     Initial potential from superposition of free atoms

     Starting from uniform charge
     Starting wfc are    0 randomized atomic wfcs

     Writing output data file Prototype-La-cP8-Cr3Si.save

     Self-consistent Calculation

[...]

     iteration # 11     ecut=    40.00 Ry     beta=0.70
     CG style diagonalization
     c_bands:  1 eigenvalues not converged
     ethr =  4.45E-07,  avg # of iterations =  3.7

[...]

     total energy              =   -1915.06472808 Ry
     Harris-Foulkes estimate   =   -1915.06474139 Ry
     estimated scf accuracy    <       0.00002520 Ry

     iteration # 13     ecut=    40.00 Ry     beta=0.70
     CG style diagonalization
     ethr =  1.68E-08,  avg # of iterations =  3.6

     End of self-consistent calculation

[...]

          k = 0.3366-0.4208 0.3606 (  4470 PWs)   bands (ev):

   -64.9313 -64.9261 -64.9216 -64.9207 -64.9186 -64.9145 -29.3396 -29.3172
   -29.2460 -29.2458 -29.1682 -29.1440 -29.0733 -29.0731 -29.0523 -29.0498
   -29.0413 -29.0365 -29.0292 -29.0276 -29.0267 -29.0176 -29.0156 -29.0127
   -10.2438 -10.2438   7.1733   7.1772   7.2029   7.2030   7.2201   7.2227
    13.5122  13.6766  13.8137  13.8175  13.8827  13.8943  14.0388  14.0568
    14.0611  14.0628  14.2477  14.2497  14.2968  14.2997  14.3925  14.3956
    14.9326  14.9367  14.9748  14.9757  15.0298  15.0351  15.1633  15.2805
    15.3517  15.3653  15.3998  15.4099  15.4424  15.4589  20.0975  20.1087
    20.6884  20.7026  21.0802  21.0976  24.2392  24.2395  27.0084  27.0105
    27.0837  27.0837  28.3955  28.4299  28.7893  28.7906  28.8430  28.9530
    30.4228  30.5508  31.3811  31.4132  32.3829  32.8342  34.1385  34.2783
    34.5651  34.7239

     the Fermi energy is    27.5173 ev

!    total energy              =   -1915.06473564 Ry
     Harris-Foulkes estimate   =   -1915.06473619 Ry
     estimated scf accuracy    <       0.00000069 Ry

     The total energy is the sum of the following terms:

     one-electron contribution =    -419.44415660 Ry
     hartree contribution      =     315.31123574 Ry
     xc contribution           =    -177.18001422 Ry
     ewald contribution        =   -1633.44135988 Ry
     smearing contrib. (-TS)   =      -0.31044067 Ry

     convergence has been achieved in  13 iterations

     Forces acting on atoms (Ry/au):

     atom    1 type  1   force =     0.00000000    0.00000000    0.00000000
     atom    2 type  1   force =     0.00000000    0.00000000    0.00000000
     atom    3 type  1   force =     0.00000000    0.00000000    0.00000000
     atom    4 type  1   force =     0.00000000    0.00000000    0.00000000
     atom    5 type  1   force =     0.00000000    0.00000000    0.00000000
     atom    6 type  1   force =     0.00000000    0.00000000    0.00000000
     atom    7 type  2   force =     0.00000000    0.00000000    0.00000000
     atom    8 type  2   force =     0.00000000    0.00000000    0.00000000

     Total force =     0.000000     Total SCF correction =     0.000000

     entering subroutine stress ...

          total   stress  (Ry/bohr**3)                   (kbar)     P=  319.20
   0.00216988   0.00000000   0.00000000        319.20      0.00      0.00
   0.00000000   0.00216988   0.00000000          0.00    319.20      0.00
   0.00000000   0.00000000   0.00216988          0.00      0.00    319.20

     Writing output data file Prototype-La-cP8-Cr3Si.save

     General routines

     Parallel routines

   This run was terminated on:   1:26:20  23Mar2018

   JOB DONE.