     Program PWSCF v.5.0.2 starts on 23Mar2018 at  0:54:28

     Current dimensions of program PWSCF are:
     Max number of different atomic species (ntypx) = 10
     Max number of k-points (npk) =  40000
     Max angular momentum in pseudopotentials (lmaxx) =  3
     Waiting for input...
     Reading input from standard input

     Subspace diagonalization in iterative solution of the eigenvalue problem:
     a serial algorithm will be used

     bravais-lattice index     =            0
     lattice parameter (alat)  =      12.0168  a.u.
     unit-cell volume          =    1187.3413 (a.u.)^3
     number of atoms/cell      =            8
     number of atomic types    =            2
     number of electrons       =       150.00
     number of Kohn-Sham states=           90
     kinetic-energy cutoff     =      40.0000  Ry
     charge density cutoff     =     160.0000  Ry
     convergence threshold     =      1.0E-04
     mixing beta               =       0.7000
     number of iterations used =            8  plain     mixing
     Exchange-correlation      = SLA-PZ-NOGX-NOGC ( 1 1 0 0 0)
     EXX-fraction              =        0.00
     nstep                     =           50

     celldm(1)=  12.016801  celldm(2)=   0.000000  celldm(3)=   0.000000
     celldm(4)=   0.000000  celldm(5)=   0.000000  celldm(6)=   0.000000

     crystal axes: (cart. coord. in units of alat)
               a(1) = (   1.000000   0.000000   0.000000 )
               a(2) = (  -0.500000   0.866025   0.000000 )
               a(3) = (   0.000000   0.000000   0.790093 )

     reciprocal axes: (cart. coord. in units 2 pi/alat)
               b(1) = (  1.000000  0.577350  0.000000 )
               b(2) = (  0.000000  1.154701  0.000000 )
               b(3) = (  0.000000  0.000000  1.265674 )

     PseudoPot. # 1 for Ho read from file:
     /home/cwx6513/pp.La/Ho.UPF
     MD5 check sum: f307ee11bce99f5b724fa279e3790763
     Pseudo is Norm-conserving, Zval = 21.0
     Generated in analytical, separable form
     Using radial grid of 1265 points,  6 beta functions with:
                l(1) =   0
                l(2) =   0
                l(3) =   1
                l(4) =   1
                l(5) =   2
                l(6) =   3

     PseudoPot. # 2 for Ce read from file:
     /home/cwx6513/pp.La/Ce.UPF
     MD5 check sum: 44451aa79a44a00cf2bc029dc19922f6
     Pseudo is Norm-conserving, Zval = 12.0
     Generated in analytical, separable form
     Using radial grid of 1255 points,  6 beta functions with:
                l(1) =   0
                l(2) =   0
                l(3) =   1
                l(4) =   1
                l(5) =   2
                l(6) =   3

     atomic species   valence    mass     pseudopotential
        Mg            21.00    24.30500     Ho( 1.00)
        Cd            12.00   112.41100     Ce( 1.00)

     24 Sym. Ops., with inversion, found (12 have fractional translation)

   Cartesian axes

     site n.     atom                  positions (alat units)
         1           Mg  tau(   1) = (   0.2478935   0.7204716   0.1975233  )
         2           Mg  tau(   2) = (   0.7478935   0.1455538   0.5925699  )
         3           Mg  tau(   3) = (   0.2521065   0.1455538   0.5925699  )
         4           Mg  tau(   4) = (  -0.2478935   0.7204716   0.1975233  )
         5           Mg  tau(   5) = (   0.0000000   0.2911075   0.1975233  )
         6           Mg  tau(   6) = (   0.5000000   0.5749179   0.5925699  )
         7           Cd  tau(   7) = (   0.5000005   0.2886748   0.1975233  )
         8           Cd  tau(   8) = (  -0.0000005   0.5773506   0.5925699  )

     number of k points=    64  gaussian smearing, width (Ry)=  0.1000
                       cart. coord. in units 2pi/alat
        k(    1) = (   0.0000000   0.0000000   0.0000000), wk =   0.0095238
        k(    2) = (   0.0000000   0.0000000   0.1808105), wk =   0.0190476
        k(    3) = (   0.0000000   0.0000000   0.3616210), wk =   0.0190476
        k(    4) = (   0.0000000   0.0000000   0.5424315), wk =   0.0190476
        k(    5) = (   0.0000000   0.1924501   0.0000000), wk =   0.0190476
        k(    6) = (   0.0000000   0.1924501   0.1808105), wk =   0.0380952
        k(    7) = (   0.0000000   0.1924501   0.3616210), wk =   0.0380952
        k(    8) = (   0.0000000   0.1924501   0.5424315), wk =   0.0380952
        k(    9) = (   0.0000000   0.3849002   0.0000000), wk =   0.0190476
        k(   10) = (   0.0000000   0.3849002   0.1808105), wk =   0.0380952
        k(   11) = (   0.0000000   0.3849002   0.3616210), wk =   0.0380952
        k(   12) = (   0.0000000   0.3849002   0.5424315), wk =   0.0380952
        k(   13) = (   0.0000000  -0.5773503   0.0000000), wk =   0.0095238
        k(   14) = (   0.0000000  -0.5773503   0.1808105), wk =   0.0190476
        k(   15) = (   0.0000000  -0.5773503   0.3616210), wk =   0.0190476
        k(   16) = (   0.0000000  -0.5773503   0.5424315), wk =   0.0190476
        k(   17) = (   0.2000000   0.1154701   0.0000000), wk =   0.0190476
        k(   18) = (   0.2000000   0.1154701   0.1808105), wk =   0.0380952
        k(   19) = (   0.2000000   0.1154701   0.3616210), wk =   0.0380952
        k(   20) = (   0.2000000   0.1154701   0.5424315), wk =   0.0380952
        k(   21) = (   0.2000000   0.3079201   0.0000000), wk =   0.0190476
        k(   22) = (   0.2000000   0.3079201   0.1808105), wk =   0.0380952
        k(   23) = (   0.2000000   0.3079201   0.3616210), wk =   0.0380952
        k(   24) = (   0.2000000   0.3079201   0.5424315), wk =   0.0380952
        k(   25) = (   0.2000000   0.5003702   0.0000000), wk =   0.0190476
        k(   26) = (   0.2000000   0.5003702   0.1808105), wk =   0.0380952
        k(   27) = (   0.2000000   0.5003702   0.3616210), wk =   0.0380952
        k(   28) = (   0.2000000   0.5003702   0.5424315), wk =   0.0380952
        k(   29) = (   0.2000000  -0.4618802   0.0000000), wk =   0.0190476
        k(   30) = (   0.2000000  -0.4618802   0.1808105), wk =   0.0380952
        k(   31) = (   0.2000000  -0.4618802   0.3616210), wk =   0.0380952
        k(   32) = (   0.2000000  -0.4618802   0.5424315), wk =   0.0380952
        k(   33) = (   0.2000000  -0.2694301   0.0000000), wk =   0.0190476
        k(   34) = (   0.2000000  -0.2694301   0.1808105), wk =   0.0380952
        k(   35) = (   0.2000000  -0.2694301   0.3616210), wk =   0.0380952
        k(   36) = (   0.2000000  -0.2694301   0.5424315), wk =   0.0380952
        k(   37) = (   0.2000000  -0.0769800   0.0000000), wk =   0.0190476
        k(   38) = (   0.2000000  -0.0769800   0.1808105), wk =   0.0380952
        k(   39) = (   0.2000000  -0.0769800   0.3616210), wk =   0.0380952
        k(   40) = (   0.2000000  -0.0769800   0.5424315), wk =   0.0380952
        k(   41) = (   0.4000000   0.2309401   0.0000000), wk =   0.0190476
        k(   42) = (   0.4000000   0.2309401   0.1808105), wk =   0.0380952
        k(   43) = (   0.4000000   0.2309401   0.3616210), wk =   0.0380952
        k(   44) = (   0.4000000   0.2309401   0.5424315), wk =   0.0380952
        k(   45) = (   0.4000000   0.4233902   0.0000000), wk =   0.0190476
        k(   46) = (   0.4000000   0.4233902   0.1808105), wk =   0.0380952
        k(   47) = (   0.4000000   0.4233902   0.3616210), wk =   0.0380952
        k(   48) = (   0.4000000   0.4233902   0.5424315), wk =   0.0380952
        k(   49) = (   0.4000000   0.6158403   0.0000000), wk =   0.0190476
        k(   50) = (   0.4000000   0.6158403   0.1808105), wk =   0.0380952
        k(   51) = (   0.4000000   0.6158403   0.3616210), wk =   0.0380952
        k(   52) = (   0.4000000   0.6158403   0.5424315), wk =   0.0380952
        k(   53) = (   0.4000000  -0.3464102   0.0000000), wk =   0.0190476
        k(   54) = (   0.4000000  -0.3464102   0.1808105), wk =   0.0380952
        k(   55) = (   0.4000000  -0.3464102   0.3616210), wk =   0.0380952
        k(   56) = (   0.4000000  -0.3464102   0.5424315), wk =   0.0380952
        k(   57) = (   0.4000000  -0.1539601   0.0000000), wk =   0.0190476
        k(   58) = (   0.4000000  -0.1539601   0.1808105), wk =   0.0380952
        k(   59) = (   0.4000000  -0.1539601   0.3616210), wk =   0.0380952
        k(   60) = (   0.4000000  -0.1539601   0.5424315), wk =   0.0380952
        k(   61) = (   0.4000000   0.0384900   0.0000000), wk =   0.0190476
        k(   62) = (   0.4000000   0.0384900   0.1808105), wk =   0.0380952
        k(   63) = (   0.4000000   0.0384900   0.3616210), wk =   0.0380952
        k(   64) = (   0.4000000   0.0384900   0.5424315), wk =   0.0380952

     Largest allocated arrays     est. size (Mb)     dimensions
     Largest temporary arrays     est. size (Mb)     dimensions

     Initial potential from superposition of free atoms

     Starting from uniform charge
     Starting wfc are    0 randomized atomic wfcs

     Self-consistent Calculation

     iteration #  1     ecut=    40.00 Ry     beta=0.70
     CG style diagonalization
     c_bands:  1 eigenvalues not converged
     c_bands:  1 eigenvalues not converged
     c_bands:  1 eigenvalues not converged
     c_bands:  1 eigenvalues not converged
     c_bands:  1 eigenvalues not converged
     c_bands:  1 eigenvalues not converged
     c_bands:  1 eigenvalues not converged
     ethr =  1.00E-02,  avg # of iterations = 12.0

     total energy              =   -1443.66771897 Ry
     Harris-Foulkes estimate   =   -2539.66916094 Ry
     estimated scf accuracy    <    1353.29456119 Ry

[...]

     iteration #  5     ecut=    40.00 Ry     beta=0.70
     CG style diagonalization
     ethr =  1.00E-02,  avg # of iterations =  3.8

[...]

     End of self-consistent calculation

          k = 0.0000 0.0000 0.0000 (  5047 PWs)   bands (ev):

   -68.2426 -68.2412 -68.2412 -68.2244 -68.2244 -68.2195 -32.5043 -32.4741
   -32.4539 -32.4333 -32.4332 -32.4070 -32.4070 -32.3944 -32.3944 -32.3606
   -32.3408 -32.3408 -32.3186 -32.3185 -32.2995 -32.2995 -32.2994 -32.2764
   -14.1802 -14.1649   3.5217   3.6090   3.6090   3.6313   3.7173   3.7173
    10.1524  10.2834  10.2834  10.4530  10.5490  10.7880  10.7881  10.8324
    10.8324  10.9149  10.9429  11.1960  11.1960  11.4914  11.6982  11.6982
    11.8365  11.8366  11.9150  11.9151  11.9982  12.0625  12.0625  12.3003
    12.3003  12.4633  12.6199  12.6199  12.6989  12.8756  12.9153  17.8539
    18.3069  18.3069  18.6744  19.7992  19.7993  20.7541  22.5043  22.5044
    22.7390  23.2401  23.2401  24.7906  24.7906  25.1045  25.1045  25.9307
    26.9204  26.9204  26.9750  27.5628  27.5628  28.0545  28.8107  28.8108
    29.1800  30.1940

[...]

     the Fermi energy is    23.9387 ev

!    total energy              =   -1915.98106564 Ry
     Harris-Foulkes estimate   =   -1915.98111765 Ry
     estimated scf accuracy    <       0.00005716 Ry

     The total energy is the sum of the following terms:

     one-electron contribution =    -518.55803314 Ry
     hartree contribution      =     345.59337334 Ry
     xc contribution           =    -175.76487122 Ry
     ewald contribution        =   -1566.97006120 Ry
     smearing contrib. (-TS)   =      -0.28147342 Ry

[...]
        k(   12) = (   0.0000000   0.3934419   0.5432284), wk =   0.0380952
        k(   13) = (   0.0000000  -0.5901628   0.0000000), wk =   0.0095238
        k(   14) = (   0.0000000  -0.5901628   0.1810761), wk =   0.0190476
        k(   15) = (   0.0000000  -0.5901628   0.3621522), wk =   0.0190476
        k(   16) = (   0.0000000  -0.5901628   0.5432284), wk =   0.0190476
        k(   17) = (   0.2044384   0.1180326   0.0000000), wk =   0.0190476
        k(   18) = (   0.2044384   0.1180326   0.1810761), wk =   0.0380952
        k(   19) = (   0.2044384   0.1180326   0.3621522), wk =   0.0380952
        k(   20) = (   0.2044384   0.1180326   0.5432284), wk =   0.0380952
        k(   21) = (   0.2044384   0.3147535   0.0000000), wk =   0.0190476
        k(   22) = (   0.2044384   0.3147535   0.1810761), wk =   0.0380952
        k(   23) = (   0.2044384   0.3147535   0.3621522), wk =   0.0380952
        k(   24) = (   0.2044384   0.3147535   0.5432284), wk =   0.0380952
        k(   25) = (   0.2044384   0.5114744   0.0000000), wk =   0.0190476
        k(   26) = (   0.2044384   0.5114744   0.1810761), wk =   0.0380952
        k(   27) = (   0.2044384   0.5114744   0.3621522), wk =   0.0380952
        k(   28) = (   0.2044384   0.5114744   0.5432284), wk =   0.0380952
        k(   29) = (   0.2044384  -0.4721303   0.0000000), wk =   0.0190476
        k(   30) = (   0.2044384  -0.4721303   0.1810761), wk =   0.0380952
        k(   31) = (   0.2044384  -0.4721303   0.3621522), wk =   0.0380952
        k(   32) = (   0.2044384  -0.4721303   0.5432284), wk =   0.0380952
        k(   33) = (   0.2044384  -0.2754093   0.0000000), wk =   0.0190476
        k(   34) = (   0.2044384  -0.2754093   0.1810761), wk =   0.0380952
        k(   35) = (   0.2044384  -0.2754093   0.3621522), wk =   0.0380952
        k(   36) = (   0.2044384  -0.2754093   0.5432284), wk =   0.0380952
        k(   37) = (   0.2044384  -0.0786884   0.0000000), wk =   0.0190476
        k(   38) = (   0.2044384  -0.0786884   0.1810761), wk =   0.0380952
        k(   39) = (   0.2044384  -0.0786884   0.3621522), wk =   0.0380952
        k(   40) = (   0.2044384  -0.0786884   0.5432284), wk =   0.0380952
        k(   41) = (   0.4088768   0.2360651   0.0000000), wk =   0.0190476
        k(   42) = (   0.4088768   0.2360651   0.1810761), wk =   0.0380952
        k(   43) = (   0.4088768   0.2360651   0.3621522), wk =   0.0380952
        k(   44) = (   0.4088768   0.2360651   0.5432284), wk =   0.0380952
        k(   45) = (   0.4088768   0.4327861   0.0000000), wk =   0.0190476
        k(   46) = (   0.4088768   0.4327861   0.1810761), wk =   0.0380952
        k(   47) = (   0.4088768   0.4327861   0.3621522), wk =   0.0380952
        k(   48) = (   0.4088768   0.4327861   0.5432284), wk =   0.0380952
        k(   49) = (   0.4088768   0.6295070   0.0000000), wk =   0.0190476
        k(   50) = (   0.4088768   0.6295070   0.1810761), wk =   0.0380952
        k(   51) = (   0.4088768   0.6295070   0.3621522), wk =   0.0380952
        k(   52) = (   0.4088768   0.6295070   0.5432284), wk =   0.0380952
        k(   53) = (   0.4088768  -0.3540977   0.0000000), wk =   0.0190476
        k(   54) = (   0.4088768  -0.3540977   0.1810761), wk =   0.0380952
        k(   55) = (   0.4088768  -0.3540977   0.3621522), wk =   0.0380952
        k(   56) = (   0.4088768  -0.3540977   0.5432284), wk =   0.0380952
        k(   57) = (   0.4088768  -0.1573768   0.0000000), wk =   0.0190476
        k(   58) = (   0.4088768  -0.1573768   0.1810761), wk =   0.0380952
        k(   59) = (   0.4088768  -0.1573768   0.3621522), wk =   0.0380952
        k(   60) = (   0.4088768  -0.1573768   0.5432284), wk =   0.0380952
        k(   61) = (   0.4088768   0.0393442   0.0000000), wk =   0.0190476
        k(   62) = (   0.4088768   0.0393442   0.1810761), wk =   0.0380952
        k(   63) = (   0.4088768   0.0393442   0.3621522), wk =   0.0380952
        k(   64) = (   0.4088768   0.0393442   0.5432284), wk =   0.0380952

[...]

     The maximum number of steps has been reached.

     End of BFGS Geometry Optimization
Begin final coordinates
     new unit-cell volume =   1134.67926 a.u.^3 (   168.14212 Ang^3 )

CELL_PARAMETERS (alat= 12.01680127)
   0.978289815   0.000000000   0.000000000
  -0.489144908   0.847223832   0.000000000
   0.000000000   0.000000000   0.788934202

ATOMIC_POSITIONS (crystal)
Mg       0.667440769   0.833720385   0.250000000
Mg       0.833720385   0.166279615   0.750000000
Mg       0.332559231   0.166279615   0.750000000
Mg       0.166279615   0.833720385   0.250000000
Mg       0.166279615   0.332559231   0.250000000
Mg       0.833720385   0.667440769   0.750000000
Cd       0.666667000   0.333333000   0.250000000
Cd       0.333333000   0.666667000   0.750000000
End final coordinates

     A final scf calculation at the relaxed structure.
     The G-vectors are recalculated for the final unit cell
     Results may differ from those at the preceding step.

     bravais-lattice index     =            0
     lattice parameter (alat)  =      12.0168  a.u.
     unit-cell volume          =    1134.6793 (a.u.)^3
     number of atoms/cell      =            8
     number of atomic types    =            2
     number of electrons       =       150.00
     number of Kohn-Sham states=           90
     kinetic-energy cutoff     =      40.0000  Ry
     charge density cutoff     =     160.0000  Ry
     convergence threshold     =      1.5E-05
     mixing beta               =       0.7000
     number of iterations used =            8  plain     mixing
     Exchange-correlation      = SLA-PZ-NOGX-NOGC ( 1 1 0 0 0)
     EXX-fraction              =        0.00

     celldm(1)=  12.016801  celldm(2)=   0.000000  celldm(3)=   0.000000
     celldm(4)=   0.000000  celldm(5)=   0.000000  celldm(6)=   0.000000

     crystal axes: (cart. coord. in units of alat)
               a(1) = (   0.978290   0.000000   0.000000 )
               a(2) = (  -0.489145   0.847224   0.000000 )
               a(3) = (   0.000000   0.000000   0.788934 )

     reciprocal axes: (cart. coord. in units 2 pi/alat)
               b(1) = (  1.022192  0.590163  0.000000 )
               b(2) = (  0.000000  1.180326  0.000000 )
               b(3) = (  0.000000  0.000000  1.267533 )

     PseudoPot. # 1 for Ho read from file:
     /home/cwx6513/pp.La/Ho.UPF
     MD5 check sum: f307ee11bce99f5b724fa279e3790763
     Pseudo is Norm-conserving, Zval = 21.0
     Generated in analytical, separable form
     Using radial grid of 1265 points,  6 beta functions with:
                l(1) =   0
                l(2) =   0
                l(3) =   1
                l(4) =   1
                l(5) =   2
                l(6) =   3

     PseudoPot. # 2 for Ce read from file:
     /home/cwx6513/pp.La/Ce.UPF
     MD5 check sum: 44451aa79a44a00cf2bc029dc19922f6
     Pseudo is Norm-conserving, Zval = 12.0
     Generated in analytical, separable form
     Using radial grid of 1255 points,  6 beta functions with:
                l(1) =   0
                l(2) =   0
                l(3) =   1
                l(4) =   1
                l(5) =   2
                l(6) =   3

     atomic species   valence    mass     pseudopotential
        Mg            21.00    24.30500     Ho( 1.00)
        Cd            12.00   112.41100     Ce( 1.00)

     24 Sym. Ops., with inversion, found (12 have fractional translation)

   Cartesian axes

     site n.     atom                  positions (alat units)
         1           Mg  tau(   1) = (   0.2451404   0.7063478   0.1972336  )
         2           Mg  tau(   2) = (   0.7342853   0.1408761   0.5917007  )
         3           Mg  tau(   3) = (   0.2440045   0.1408761   0.5917007  )
         4           Mg  tau(   4) = (  -0.2451404   0.7063478   0.1972336  )
         5           Mg  tau(   5) = (   0.0000000   0.2817521   0.1972336  )
         6           Mg  tau(   6) = (   0.4891449   0.5654717   0.5917007  )
         7           Cd  tau(   7) = (   0.4891454   0.2824077   0.1972336  )
         8           Cd  tau(   8) = (  -0.0000005   0.5648162   0.5917007  )

     number of k points=    64  gaussian smearing, width (Ry)=  0.1000
                       cart. coord. in units 2pi/alat
        k(    1) = (   0.0000000   0.0000000   0.0000000), wk =   0.0095238
        k(    2) = (   0.0000000   0.0000000   0.1810761), wk =   0.0190476
        k(    3) = (   0.0000000   0.0000000   0.3621522), wk =   0.0190476
        k(    4) = (   0.0000000   0.0000000   0.5432284), wk =   0.0190476
        k(    5) = (   0.0000000   0.1967209   0.0000000), wk =   0.0190476
        k(    6) = (   0.0000000   0.1967209   0.1810761), wk =   0.0380952
        k(    7) = (   0.0000000   0.1967209   0.3621522), wk =   0.0380952
        k(    8) = (   0.0000000   0.1967209   0.5432284), wk =   0.0380952
        k(    9) = (   0.0000000   0.3934419   0.0000000), wk =   0.0190476
        k(   10) = (   0.0000000   0.3934419   0.1810761), wk =   0.0380952
        k(   11) = (   0.0000000   0.3934419   0.3621522), wk =   0.0380952
        k(   12) = (   0.0000000   0.3934419   0.5432284), wk =   0.0380952
        k(   13) = (   0.0000000  -0.5901628   0.0000000), wk =   0.0095238
        k(   14) = (   0.0000000  -0.5901628   0.1810761), wk =   0.0190476
        k(   15) = (   0.0000000  -0.5901628   0.3621522), wk =   0.0190476
        k(   16) = (   0.0000000  -0.5901628   0.5432284), wk =   0.0190476
        k(   17) = (   0.2044384   0.1180326   0.0000000), wk =   0.0190476
        k(   18) = (   0.2044384   0.1180326   0.1810761), wk =   0.0380952
        k(   19) = (   0.2044384   0.1180326   0.3621522), wk =   0.0380952
        k(   20) = (   0.2044384   0.1180326   0.5432284), wk =   0.0380952
        k(   21) = (   0.2044384   0.3147535   0.0000000), wk =   0.0190476
        k(   22) = (   0.2044384   0.3147535   0.1810761), wk =   0.0380952
        k(   23) = (   0.2044384   0.3147535   0.3621522), wk =   0.0380952
        k(   24) = (   0.2044384   0.3147535   0.5432284), wk =   0.0380952
        k(   25) = (   0.2044384   0.5114744   0.0000000), wk =   0.0190476
        k(   26) = (   0.2044384   0.5114744   0.1810761), wk =   0.0380952
        k(   27) = (   0.2044384   0.5114744   0.3621522), wk =   0.0380952
        k(   28) = (   0.2044384   0.5114744   0.5432284), wk =   0.0380952
        k(   29) = (   0.2044384  -0.4721303   0.0000000), wk =   0.0190476
        k(   30) = (   0.2044384  -0.4721303   0.1810761), wk =   0.0380952
        k(   31) = (   0.2044384  -0.4721303   0.3621522), wk =   0.0380952
        k(   32) = (   0.2044384  -0.4721303   0.5432284), wk =   0.0380952
        k(   33) = (   0.2044384  -0.2754093   0.0000000), wk =   0.0190476
        k(   34) = (   0.2044384  -0.2754093   0.1810761), wk =   0.0380952
        k(   35) = (   0.2044384  -0.2754093   0.3621522), wk =   0.0380952
        k(   36) = (   0.2044384  -0.2754093   0.5432284), wk =   0.0380952
        k(   37) = (   0.2044384  -0.0786884   0.0000000), wk =   0.0190476
        k(   38) = (   0.2044384  -0.0786884   0.1810761), wk =   0.0380952
        k(   39) = (   0.2044384  -0.0786884   0.3621522), wk =   0.0380952
        k(   40) = (   0.2044384  -0.0786884   0.5432284), wk =   0.0380952
        k(   41) = (   0.4088768   0.2360651   0.0000000), wk =   0.0190476
        k(   42) = (   0.4088768   0.2360651   0.1810761), wk =   0.0380952
        k(   43) = (   0.4088768   0.2360651   0.3621522), wk =   0.0380952
        k(   44) = (   0.4088768   0.2360651   0.5432284), wk =   0.0380952
        k(   45) = (   0.4088768   0.4327861   0.0000000), wk =   0.0190476
        k(   46) = (   0.4088768   0.4327861   0.1810761), wk =   0.0380952
        k(   47) = (   0.4088768   0.4327861   0.3621522), wk =   0.0380952
        k(   48) = (   0.4088768   0.4327861   0.5432284), wk =   0.0380952
        k(   49) = (   0.4088768   0.6295070   0.0000000), wk =   0.0190476
        k(   50) = (   0.4088768   0.6295070   0.1810761), wk =   0.0380952
        k(   51) = (   0.4088768   0.6295070   0.3621522), wk =   0.0380952
        k(   52) = (   0.4088768   0.6295070   0.5432284), wk =   0.0380952
        k(   53) = (   0.4088768  -0.3540977   0.0000000), wk =   0.0190476
        k(   54) = (   0.4088768  -0.3540977   0.1810761), wk =   0.0380952
        k(   55) = (   0.4088768  -0.3540977   0.3621522), wk =   0.0380952
        k(   56) = (   0.4088768  -0.3540977   0.5432284), wk =   0.0380952
        k(   57) = (   0.4088768  -0.1573768   0.0000000), wk =   0.0190476
        k(   58) = (   0.4088768  -0.1573768   0.1810761), wk =   0.0380952
        k(   59) = (   0.4088768  -0.1573768   0.3621522), wk =   0.0380952
        k(   60) = (   0.4088768  -0.1573768   0.5432284), wk =   0.0380952
        k(   61) = (   0.4088768   0.0393442   0.0000000), wk =   0.0190476
        k(   62) = (   0.4088768   0.0393442   0.1810761), wk =   0.0380952
        k(   63) = (   0.4088768   0.0393442   0.3621522), wk =   0.0380952
        k(   64) = (   0.4088768   0.0393442   0.5432284), wk =   0.0380952

     Largest allocated arrays     est. size (Mb)     dimensions
     Largest temporary arrays     est. size (Mb)     dimensions

     Initial potential from superposition of free atoms

     Starting from uniform charge
     Starting wfc are    0 randomized atomic wfcs

     Writing output data file Prototype-La-hP8-Mg3Cd.save

     Self-consistent Calculation

[...]

     iteration # 13     ecut=    40.00 Ry     beta=0.70
     CG style diagonalization
     c_bands:  1 eigenvalues not converged
     ethr =  2.70E-08,  avg # of iterations =  3.1

     total energy              =   -1915.78491480 Ry
     Harris-Foulkes estimate   =   -1915.78492892 Ry
     estimated scf accuracy    <       0.00003347 Ry

     iteration # 14     ecut=    40.00 Ry     beta=0.70
     CG style diagonalization
     ethr =  2.23E-08,  avg # of iterations =  3.3

     End of self-consistent calculation

[...]

          k = 0.4089 0.0393 0.5432 (  4843 PWs)   bands (ev):

   -67.1038 -67.1009 -67.1001 -67.0959 -67.0933 -67.0905 -31.3527 -31.3501
   -31.3245 -31.3214 -31.3113 -31.3014 -31.2628 -31.2507 -31.2407 -31.2294
   -31.2243 -31.2131 -31.2003 -31.1932 -31.1911 -31.1871 -31.1749 -31.1740
   -12.8295 -12.8273   4.7616   4.7734   4.8630   4.8880   4.9131   4.9218
    11.4747  11.5243  11.6188  11.7036  11.7277  11.7509  11.7774  11.8819
    11.9156  11.9542  12.1540  12.2222  12.5204  12.6465  12.6779  12.7231
    12.7837  12.8741  12.8975  12.9873  13.0451  13.1384  13.1603  13.2118
    13.2876  13.3482  13.6191  13.6585  13.8303  13.9654  15.9535  17.0345
    18.2880  18.9764  19.5374  20.0578  21.9017  22.4388  22.4947  22.8992
    24.3456  24.5088  25.1781  25.2293  26.0246  26.3247  27.2051  27.2871
    27.4780  27.9085  28.9851  29.4266  29.8859  30.2738  30.6547  31.4381
    31.8824  32.0894

     the Fermi energy is    25.2282 ev

!    total energy              =   -1915.78491792 Ry
     Harris-Foulkes estimate   =   -1915.78492002 Ry
     estimated scf accuracy    <       0.00000230 Ry

     The total energy is the sum of the following terms:

     one-electron contribution =    -485.18158433 Ry
     hartree contribution      =     335.47031155 Ry
     xc contribution           =    -176.19733185 Ry
     ewald contribution        =   -1589.60934207 Ry
     smearing contrib. (-TS)   =      -0.26697122 Ry

     convergence has been achieved in  14 iterations

     Forces acting on atoms (Ry/au):

     atom    1 type  1   force =    -0.00255848   -0.00147714    0.00000000
     atom    2 type  1   force =    -0.00255848    0.00147714    0.00000000
     atom    3 type  1   force =     0.00255848    0.00147714    0.00000000
     atom    4 type  1   force =     0.00255848   -0.00147714    0.00000000
     atom    5 type  1   force =     0.00000000    0.00295428    0.00000000
     atom    6 type  1   force =     0.00000000   -0.00295428    0.00000000
     atom    7 type  2   force =     0.00000000    0.00000000    0.00000000
     atom    8 type  2   force =     0.00000000    0.00000000    0.00000000

     Total force =     0.007236     Total SCF correction =     0.000000

     entering subroutine stress ...

          total   stress  (Ry/bohr**3)                   (kbar)     P=    4.47
  -0.00006992   0.00000000   0.00000000        -10.29      0.00      0.00
   0.00000000  -0.00006992   0.00000000          0.00    -10.29      0.00
   0.00000000   0.00000000   0.00023099          0.00      0.00     33.98

     Writing output data file Prototype-La-hP8-Mg3Cd.save

     General routines

     Parallel routines

   This run was terminated on:   2: 3:18  23Mar2018

   JOB DONE.