     Program PWSCF v.5.0.2 starts on 22Mar2018 at 12: 4:21

     Current dimensions of program PWSCF are:
     Max number of different atomic species (ntypx) = 10
     Max number of k-points (npk) =  40000
     Max angular momentum in pseudopotentials (lmaxx) =  3
     Waiting for input...
     Reading input from standard input

     Subspace diagonalization in iterative solution of the eigenvalue problem:
     a serial algorithm will be used

     bravais-lattice index     =            0
     lattice parameter (alat)  =       9.9235  a.u.
     unit-cell volume          =    1361.0366 (a.u.)^3
     number of atoms/cell      =           12
     number of atomic types    =            2
     number of electrons       =       256.00
     number of Kohn-Sham states=          154
     kinetic-energy cutoff     =      40.0000  Ry
     charge density cutoff     =     160.0000  Ry
     convergence threshold     =      1.0E-04
     mixing beta               =       0.7000
     number of iterations used =            8  plain     mixing
     Exchange-correlation      = SLA-PZ-NOGX-NOGC ( 1 1 0 0 0)
     EXX-fraction              =        0.00
     nstep                     =           50

     celldm(1)=   9.923489  celldm(2)=   0.000000  celldm(3)=   0.000000
     celldm(4)=   0.000000  celldm(5)=   0.000000  celldm(6)=   0.000000

     crystal axes: (cart. coord. in units of alat)
               a(1) = (   1.000000   0.000000   0.000000 )
               a(2) = (  -0.500000   0.866025   0.000000 )
               a(3) = (   0.000000   0.000000   1.608222 )

     reciprocal axes: (cart. coord. in units 2 pi/alat)
               b(1) = (  1.000000  0.577350  0.000000 )
               b(2) = (  0.000000  1.154701  0.000000 )
               b(3) = (  0.000000  0.000000  0.621805 )

     PseudoPot. # 1 for Yb read from file:
     /home/jld5415/pp.La/Yb.UPF
     MD5 check sum: 3e859b81cc28c53ec6aa3a2e888efcdf
     Pseudo is Norm-conserving, Zval = 24.0
     Generated in analytical, separable form
     Using radial grid of 1269 points,  6 beta functions with:
                l(1) =   0
                l(2) =   0
                l(3) =   1
                l(4) =   1
                l(5) =   2
                l(6) =   3

     PseudoPot. # 2 for Dy read from file:
     /home/jld5415/pp.La/Dy.UPF
     MD5 check sum: 9597327bec62616a94a14d07f3fd9936
     Pseudo is Norm-conserving, Zval = 20.0
     Generated in analytical, separable form
     Using radial grid of 1265 points,  6 beta functions with:
                l(1) =   0
                l(2) =   0
                l(3) =   1
                l(4) =   1
                l(5) =   2
                l(6) =   3

     atomic species   valence    mass     pseudopotential
        Mg            24.00    24.30500     Yb( 1.00)
        Zn            20.00    65.39000     Dy( 1.00)

     24 Sym. Ops., with inversion, found (12 have fractional translation)

   Cartesian axes

     site n.     atom                  positions (alat units)
         1           Mg  tau(   1) = (  -0.0000005   0.5773506   0.1003820  )
         2           Mg  tau(   2) = (   0.5000005   0.2886748   0.9044931  )
         3           Mg  tau(   3) = (   0.5000005   0.2886748   1.5078402  )
         4           Mg  tau(   4) = (  -0.0000005   0.5773506   0.7037291  )
         5           Zn  tau(   5) = (   0.0000000   0.0000000   0.0000000  )
         6           Zn  tau(   6) = (   0.0000000   0.0000000   0.8041111  )
         7           Zn  tau(   7) = (   0.0000000   0.2950739   1.2061667  )
         8           Zn  tau(   8) = (   0.7444585   0.1475370   0.4020556  )
         9           Zn  tau(   9) = (   0.2555415   0.1475370   0.4020556  )
        10           Zn  tau(  10) = (   0.2444585   0.7184884   1.2061667  )
        11           Zn  tau(  11) = (  -0.2444585   0.7184884   1.2061667  )
        12           Zn  tau(  12) = (   0.5000000   0.5709515   0.4020556  )

     number of k points=    12  gaussian smearing, width (Ry)=  0.1000
                       cart. coord. in units 2pi/alat
        k(    1) = (   0.0000000   0.0000000   0.0000000), wk =   0.0833333
        k(    2) = (   0.0000000   0.0000000   0.1554512), wk =   0.1666667
        k(    3) = (   0.0000000   0.0000000  -0.3109023), wk =   0.0833333
        k(    4) = (   0.0000000   0.3849002   0.0000000), wk =   0.1666667
        k(    5) = (   0.0000000   0.3849002   0.1554512), wk =   0.3333333
        k(    6) = (   0.0000000   0.3849002  -0.3109023), wk =   0.1666667
        k(    7) = (  -0.5000000  -0.2886751   0.0000000), wk =   0.0833333
        k(    8) = (  -0.5000000  -0.2886751   0.1554512), wk =   0.1666667
        k(    9) = (  -0.5000000  -0.2886751  -0.3109023), wk =   0.0833333
        k(   10) = (  -0.5000000   0.0962250   0.0000000), wk =   0.1666667
        k(   11) = (  -0.5000000   0.0962250   0.1554512), wk =   0.3333333
        k(   12) = (  -0.5000000   0.0962250  -0.3109023), wk =   0.1666667

     Largest allocated arrays     est. size (Mb)     dimensions
     Largest temporary arrays     est. size (Mb)     dimensions

     Initial potential from superposition of free atoms

     Starting from uniform charge
     Starting wfc are    0 randomized atomic wfcs

     Self-consistent Calculation

     iteration #  1     ecut=    40.00 Ry     beta=0.70
     CG style diagonalization
     c_bands:  3 eigenvalues not converged
     c_bands:  3 eigenvalues not converged
     c_bands:  3 eigenvalues not converged
     c_bands:  4 eigenvalues not converged
     c_bands:  2 eigenvalues not converged
     c_bands:  5 eigenvalues not converged
     c_bands:  4 eigenvalues not converged
     c_bands:  5 eigenvalues not converged
     c_bands:  4 eigenvalues not converged
     c_bands:  4 eigenvalues not converged
     c_bands:  4 eigenvalues not converged
     c_bands:  2 eigenvalues not converged
     ethr =  1.00E-02,  avg # of iterations = 13.0

     total energy              =   -3238.82511175 Ry
     Harris-Foulkes estimate   =   -4571.09109075 Ry
     estimated scf accuracy    <    1669.96236271 Ry

     iteration #  2     ecut=    40.00 Ry     beta=0.70
     CG style diagonalization
     ethr =  1.00E-02,  avg # of iterations = 10.3

[...]

     End of self-consistent calculation

          k = 0.0000 0.0000 0.0000 (  5769 PWs)   bands (ev):

   -89.9882 -89.9659 -89.9587 -89.8943 -50.7450 -50.7013 -50.6011 -50.5366
   -50.5365 -50.5309 -50.5308 -50.5289 -48.8169 -48.8082 -48.7978 -48.7977
   -48.7975 -48.7876 -48.7876 -48.7840 -48.7774 -48.7774 -48.7724 -48.7724
   -18.9769 -18.7379 -18.3724 -18.0276 -18.0276 -17.9730 -17.9730 -17.8801
   -17.8800 -17.6906 -17.6876 -17.5238 -17.5237 -17.5166 -17.5166 -17.1954
   -17.1949 -17.1949 -17.1725 -17.1631 -17.1631 -17.1607 -17.1372 -17.1372
     8.8717   8.8717   8.8836   8.8914   8.9236   8.9236   8.9483   8.9483
     9.0122   9.0122   9.1529   9.1529   9.1931   9.2282   9.2283   9.2317
     9.2337   9.2337   9.2861   9.2861  17.1552  17.7026  18.2147  18.3770
    19.4191  19.7618  19.9197  19.9197  20.0185  20.0185  20.0742  20.1994
    20.1994  20.9066  20.9340  20.9341  21.9230  21.9230  21.9554  21.9554
    22.6712  22.6712  23.0961  23.1369  23.7272  23.7273  24.3445  24.6622
    24.7935  24.8197  24.8197  24.8594  24.8594  24.9897  24.9956  24.9956
    24.9974  24.9975  26.1912  26.3310  26.3311  26.8077  26.8077  27.9580
    27.9606  28.5847  28.5847  28.6453  28.8334  29.0420  29.0420  30.6534
    30.7441  30.7443  30.7776  31.2343  31.2345  31.6243  32.3295  34.3307
    34.3307  34.7150  35.7671  36.0210  36.0210  37.6357  37.6358  37.7672
    37.7673  37.9279  37.9279  38.4441  38.4826  38.7239  38.7431  38.7431
    39.2214  39.2215  40.1770  40.7465  40.8354  40.9463  40.9463  41.3275
    42.2986  42.9517

[...]

          k =-0.5000-0.2887 0.0000 (  5800 PWs)   bands (ev):

[...]

     the Fermi energy is    34.8689 ev

!    total energy              =   -3719.29535541 Ry
     Harris-Foulkes estimate   =   -3719.29538817 Ry
     estimated scf accuracy    <       0.00003553 Ry

     The total energy is the sum of the following terms:

     one-electron contribution =    -680.63944131 Ry
     hartree contribution      =     544.46312823 Ry
     xc contribution           =    -323.41284160 Ry
     ewald contribution        =   -3259.34806546 Ry
     smearing contrib. (-TS)   =      -0.35813528 Ry

     convergence has been achieved in  11 iterations

     Forces acting on atoms (Ry/au):

     atom    1 type  1   force =     0.00000000    0.00000000    0.01962924
     atom    2 type  1   force =     0.00000000    0.00000000    0.01962924
     atom    3 type  1   force =     0.00000000    0.00000000   -0.01962924
     atom    4 type  1   force =     0.00000000    0.00000000   -0.01962924
     atom    5 type  2   force =     0.00000000    0.00000000    0.00000000
     atom    6 type  2   force =     0.00000000    0.00000000    0.00000000
     atom    7 type  2   force =     0.00000000    0.03043109    0.00000000
     atom    8 type  2   force =    -0.02635410    0.01521554    0.00000000
     atom    9 type  2   force =     0.02635410    0.01521554    0.00000000
     atom   10 type  2   force =    -0.02635410   -0.01521554    0.00000000
     atom   11 type  2   force =     0.02635410   -0.01521554    0.00000000
     atom   12 type  2   force =     0.00000000   -0.03043109    0.00000000

     Total force =     0.084247     Total SCF correction =     0.000000

     entering subroutine stress ...

          total   stress  (Ry/bohr**3)                   (kbar)     P= 1084.44
   0.00725702   0.00000000   0.00000000       1067.54      0.00      0.00
   0.00000000   0.00725702   0.00000000          0.00   1067.54      0.00
   0.00000000   0.00000000   0.00760159          0.00      0.00   1118.23

     BFGS Geometry Optimization

     number of scf cycles    =   1
     number of bfgs steps    =   0

     enthalpy new            =   -3719.2953554147 Ry

     new trust radius        =       0.5000000000 bohr
     new conv_thr            =       0.0001000000 Ry

     new unit-cell volume =   1647.38265 a.u.^3 (   244.11692 Ang^3 )

CELL_PARAMETERS (alat=  9.92348860)
   1.064693264   0.000000000   0.000000000
  -0.532346632   0.922051414   0.000000000
   0.000000000   0.000000000   1.717203317

ATOMIC_POSITIONS (crystal)
Mg       0.333333000   0.666667000   0.062856585
Mg       0.666667000   0.333333000   0.562856585
Mg       0.666667000   0.333333000   0.937143415
Mg       0.333333000   0.666667000   0.437143415
Zn       0.000000000   0.000000000   0.000000000
Zn       0.000000000   0.000000000   0.500000000
Zn       0.170992325   0.341984650   0.750000000
Zn       0.829007675   0.170992325   0.250000000
Zn       0.341984650   0.170992325   0.250000000
Zn       0.658015350   0.829007675   0.750000000
Zn       0.170992325   0.829007675   0.750000000
Zn       0.829007675   0.658015350   0.250000000

     Writing output data file Prototype-La-hP12-MgZn2.save
     NEW-OLD atomic charge density approx. for the potential
     NEW k-points:
        k(    1) = (   0.0000000   0.0000000   0.0000000), wk =   0.0833333
        k(    2) = (   0.0000000   0.0000000   0.1455856), wk =   0.1666667
        k(    3) = (   0.0000000   0.0000000  -0.2911711), wk =   0.0833333
        k(    4) = (   0.0000000   0.3615127   0.0000000), wk =   0.1666667
        k(    5) = (   0.0000000   0.3615127   0.1455856), wk =   0.3333333
        k(    6) = (   0.0000000   0.3615127  -0.2911711), wk =   0.1666667
        k(    7) = (  -0.4696188  -0.2711346   0.0000000), wk =   0.0833333
        k(    8) = (  -0.4696188  -0.2711346   0.1455856), wk =   0.1666667
        k(    9) = (  -0.4696188  -0.2711346  -0.2911711), wk =   0.0833333
        k(   10) = (  -0.4696188   0.0903782   0.0000000), wk =   0.1666667
        k(   11) = (  -0.4696188   0.0903782   0.1455856), wk =   0.3333333
        k(   12) = (  -0.4696188   0.0903782  -0.2911711), wk =   0.1666667

[...]

     enthalpy old            =   -3719.2953554147 Ry
     enthalpy new            =   -3719.9483004977 Ry

     CASE: enthalpy_new < enthalpy_old

     small trust_radius: resetting bfgs history

     new trust radius        =       0.3412349951 bohr
     new conv_thr            =       0.0000156613 Ry

[...]

     number of scf cycles    =   3
     number of bfgs steps    =   2

     enthalpy old            =   -3719.9483004977 Ry
     enthalpy new            =   -3719.7952817262 Ry

     CASE: enthalpy_new > enthalpy_old

     new trust radius        =       0.1152286213 bohr

     trust_radius < trust_radius_min

     resetting bfgs history

     Message from routine bfgs:
     history already reset at previous step: stopping
     new conv_thr            =       0.0000156613 Ry

     new unit-cell volume =   1443.39878 a.u.^3 (   213.88963 Ang^3 )

[...]

ATOMIC_POSITIONS (crystal)
Mg       0.333333000   0.666667000   0.063853629
Mg       0.666667000   0.333333000   0.563853629
Mg       0.666667000   0.333333000   0.936146371
Mg       0.333333000   0.666667000   0.436146371
Zn       0.000000000   0.000000000   0.000000000
Zn       0.000000000   0.000000000   0.500000000
Zn       0.170391211   0.340782423   0.750000000
Zn       0.829608789   0.170391211   0.250000000
Zn       0.340782423   0.170391211   0.250000000
Zn       0.659217577   0.829608789   0.750000000
Zn       0.170391211   0.829608789   0.750000000
Zn       0.829608789   0.659217577   0.250000000

     Writing output data file Prototype-La-hP12-MgZn2.save
     NEW-OLD atomic charge density approx. for the potential
     NEW k-points:
        k(    1) = (   0.0000000   0.0000000   0.0000000), wk =   0.0833333
        k(    2) = (   0.0000000   0.0000000   0.1519283), wk =   0.1666667
        k(    3) = (   0.0000000   0.0000000  -0.3038567), wk =   0.0833333
        k(    4) = (   0.0000000   0.3780658   0.0000000), wk =   0.1666667
        k(    5) = (   0.0000000   0.3780658   0.1519283), wk =   0.3333333
        k(    6) = (   0.0000000   0.3780658  -0.3038567), wk =   0.1666667
        k(    7) = (  -0.4911219  -0.2835494   0.0000000), wk =   0.0833333
        k(    8) = (  -0.4911219  -0.2835494   0.1519283), wk =   0.1666667
        k(    9) = (  -0.4911219  -0.2835494  -0.3038567), wk =   0.0833333
        k(   10) = (  -0.4911219   0.0945165   0.0000000), wk =   0.1666667
        k(   11) = (  -0.4911219   0.0945165   0.1519283), wk =   0.3333333
        k(   12) = (  -0.4911219   0.0945165  -0.3038567), wk =   0.1666667

[...]

     The maximum number of steps has been reached.

     End of BFGS Geometry Optimization
Begin final coordinates
     new unit-cell volume =   1443.39878 a.u.^3 (   213.88963 Ang^3 )

CELL_PARAMETERS (alat=  9.92348860)
   1.018077103   0.000000000   0.000000000
  -0.509038552   0.881680635   0.000000000
   0.000000000   0.000000000   1.645512687

ATOMIC_POSITIONS (crystal)
Mg       0.333333000   0.666667000   0.063853629
Mg       0.666667000   0.333333000   0.563853629
Mg       0.666667000   0.333333000   0.936146371
Mg       0.333333000   0.666667000   0.436146371
Zn       0.000000000   0.000000000   0.000000000
Zn       0.000000000   0.000000000   0.500000000
Zn       0.170391211   0.340782423   0.750000000
Zn       0.829608789   0.170391211   0.250000000
Zn       0.340782423   0.170391211   0.250000000
Zn       0.659217577   0.829608789   0.750000000
Zn       0.170391211   0.829608789   0.750000000
Zn       0.829608789   0.659217577   0.250000000
End final coordinates

     A final scf calculation at the relaxed structure.
     The G-vectors are recalculated for the final unit cell
     Results may differ from those at the preceding step.

     bravais-lattice index     =            0
     lattice parameter (alat)  =       9.9235  a.u.
     unit-cell volume          =    1443.3988 (a.u.)^3
     number of atoms/cell      =           12
     number of atomic types    =            2
     number of electrons       =       256.00
     number of Kohn-Sham states=          154
     kinetic-energy cutoff     =      40.0000  Ry
     charge density cutoff     =     160.0000  Ry
     convergence threshold     =      1.6E-05
     mixing beta               =       0.7000
     number of iterations used =            8  plain     mixing
     Exchange-correlation      = SLA-PZ-NOGX-NOGC ( 1 1 0 0 0)
     EXX-fraction              =        0.00

     celldm(1)=   9.923489  celldm(2)=   0.000000  celldm(3)=   0.000000
     celldm(4)=   0.000000  celldm(5)=   0.000000  celldm(6)=   0.000000

     crystal axes: (cart. coord. in units of alat)
               a(1) = (   1.018077   0.000000   0.000000 )
               a(2) = (  -0.509039   0.881681   0.000000 )
               a(3) = (   0.000000   0.000000   1.645513 )

     reciprocal axes: (cart. coord. in units 2 pi/alat)
               b(1) = (  0.982244  0.567099  0.000000 )
               b(2) = (  0.000000  1.134198  0.000000 )
               b(3) = (  0.000000  0.000000  0.607713 )

     PseudoPot. # 1 for Yb read from file:
     /home/jld5415/pp.La/Yb.UPF
     MD5 check sum: 3e859b81cc28c53ec6aa3a2e888efcdf
     Pseudo is Norm-conserving, Zval = 24.0
     Generated in analytical, separable form
     Using radial grid of 1269 points,  6 beta functions with:
                l(1) =   0
                l(2) =   0
                l(3) =   1
                l(4) =   1
                l(5) =   2
                l(6) =   3

     PseudoPot. # 2 for Dy read from file:
     /home/jld5415/pp.La/Dy.UPF
     MD5 check sum: 9597327bec62616a94a14d07f3fd9936
     Pseudo is Norm-conserving, Zval = 20.0
     Generated in analytical, separable form
     Using radial grid of 1265 points,  6 beta functions with:
                l(1) =   0
                l(2) =   0
                l(3) =   1
                l(4) =   1
                l(5) =   2
                l(6) =   3

     atomic species   valence    mass     pseudopotential
        Mg            24.00    24.30500     Yb( 1.00)
        Zn            20.00    65.39000     Dy( 1.00)

     24 Sym. Ops., with inversion, found (12 have fractional translation)

   Cartesian axes

     site n.     atom                  positions (alat units)
         1           Mg  tau(   1) = (  -0.0000005   0.5877874   0.1050720  )
         2           Mg  tau(   2) = (   0.5090391   0.2938933   0.9278283  )
         3           Mg  tau(   3) = (   0.5090391   0.2938933   1.5404407  )
         4           Mg  tau(   4) = (  -0.0000005   0.5877874   0.7176844  )
         5           Zn  tau(   5) = (   0.0000000   0.0000000   0.0000000  )
         6           Zn  tau(   6) = (   0.0000000   0.0000000   0.8227563  )
         7           Zn  tau(   7) = (   0.0000000   0.3004613   1.2341345  )
         8           Zn  tau(   8) = (   0.7578700   0.1502306   0.4113782  )
         9           Zn  tau(   9) = (   0.2602071   0.1502306   0.4113782  )
        10           Zn  tau(  10) = (   0.2488315   0.7314500   1.2341345  )
        11           Zn  tau(  11) = (  -0.2488315   0.7314500   1.2341345  )
        12           Zn  tau(  12) = (   0.5090386   0.5812194   0.4113782  )

     number of k points=    12  gaussian smearing, width (Ry)=  0.1000
                       cart. coord. in units 2pi/alat
        k(    1) = (   0.0000000   0.0000000   0.0000000), wk =   0.0833333
        k(    2) = (   0.0000000   0.0000000   0.1519283), wk =   0.1666667
        k(    3) = (   0.0000000   0.0000000  -0.3038567), wk =   0.0833333
        k(    4) = (   0.0000000   0.3780658   0.0000000), wk =   0.1666667
        k(    5) = (   0.0000000   0.3780658   0.1519283), wk =   0.3333333
        k(    6) = (   0.0000000   0.3780658  -0.3038567), wk =   0.1666667
        k(    7) = (  -0.4911219  -0.2835494   0.0000000), wk =   0.0833333
        k(    8) = (  -0.4911219  -0.2835494   0.1519283), wk =   0.1666667
        k(    9) = (  -0.4911219  -0.2835494  -0.3038567), wk =   0.0833333
        k(   10) = (  -0.4911219   0.0945165   0.0000000), wk =   0.1666667
        k(   11) = (  -0.4911219   0.0945165   0.1519283), wk =   0.3333333
        k(   12) = (  -0.4911219   0.0945165  -0.3038567), wk =   0.1666667

     Largest allocated arrays     est. size (Mb)     dimensions
     Largest temporary arrays     est. size (Mb)     dimensions

     Initial potential from superposition of free atoms

     Starting from uniform charge
     Starting wfc are    0 randomized atomic wfcs

     Writing output data file Prototype-La-hP12-MgZn2.save

     Self-consistent Calculation

[...]

     iteration #  9     ecut=    40.00 Ry     beta=0.70
     CG style diagonalization
     c_bands:  2 eigenvalues not converged
     ethr =  3.28E-06,  avg # of iterations =  4.1

[...]

     total energy              =   -3720.32907375 Ry
     Harris-Foulkes estimate   =   -3720.32909217 Ry
     estimated scf accuracy    <       0.00003129 Ry

     iteration # 11     ecut=    40.00 Ry     beta=0.70
     CG style diagonalization
     ethr =  1.22E-08,  avg # of iterations =  3.6

     End of self-consistent calculation

[...]

          k = 0.0000 0.3781-0.3039 (  6158 PWs)   bands (ev):

[...]

          k =-0.4911 0.0945-0.3039 (  6170 PWs)   bands (ev):

   -92.1364 -92.1364 -92.1252 -92.1251 -52.5384 -52.5384 -52.4989 -52.4989
   -52.4357 -52.4357 -52.4286 -52.4286 -50.9434 -50.9434 -50.9362 -50.9362
   -50.9310 -50.9310 -50.9262 -50.9261 -50.9249 -50.9249 -50.9202 -50.9202
   -20.2451 -20.2451 -19.9717 -19.9717 -19.7137 -19.7137 -19.6512 -19.6512
   -19.5933 -19.5933 -19.5453 -19.5453 -19.4344 -19.4344 -19.3136 -19.3136
   -19.2255 -19.2255 -19.1831 -19.1831 -19.1511 -19.1511 -19.1239 -19.1239
     6.8281   6.8281   6.8465   6.8465   6.9081   6.9081   6.9592   6.9592
     6.9801   6.9801   7.0565   7.0565   7.0749   7.0749   7.1112   7.1112
     7.1958   7.1958   7.2133   7.2133  17.2859  17.2859  17.7660  17.7660
    18.0235  18.0235  18.7940  18.7940  19.0314  19.0314  19.2232  19.2232
    19.4698  19.4698  20.0541  20.0541  20.2995  20.2995  20.3726  20.3727
    20.6431  20.6431  21.0959  21.0959  21.2932  21.2933  21.6440  21.6440
    21.9033  21.9033  22.0210  22.0210  22.3131  22.3131  22.6316  22.6316
    22.8514  22.8514  23.0254  23.0254  23.3156  23.3156  23.9501  23.9501
    24.5838  24.5838  25.8262  25.8262  26.7474  26.7474  27.7592  27.7592
    28.8255  28.8255  30.1089  30.1089  32.1429  32.1429  32.4847  32.4847
    33.0051  33.0051  33.3462  33.3462  34.6583  34.6583  35.7980  35.7980
    36.0289  36.0290  36.6794  36.6794  36.9434  36.9434  37.6907  37.6908
    38.3995  38.3996  38.6010  38.6011  38.7540  38.7540  39.8523  39.8525
    40.3197  40.3198

     the Fermi energy is    32.5469 ev

!    total energy              =   -3720.32907688 Ry
     Harris-Foulkes estimate   =   -3720.32908722 Ry
     estimated scf accuracy    <       0.00001121 Ry

     The total energy is the sum of the following terms:

     one-electron contribution =    -773.69221789 Ry
     hartree contribution      =     572.13819334 Ry
     xc contribution           =    -322.21354000 Ry
     ewald contribution        =   -3196.19965267 Ry
     smearing contrib. (-TS)   =      -0.36185965 Ry

     convergence has been achieved in  11 iterations

     Forces acting on atoms (Ry/au):

     atom    1 type  1   force =     0.00000000    0.00000000    0.01208544
     atom    2 type  1   force =     0.00000000    0.00000000    0.01208544
     atom    3 type  1   force =     0.00000000    0.00000000   -0.01208544
     atom    4 type  1   force =     0.00000000    0.00000000   -0.01208544
     atom    5 type  2   force =     0.00000000    0.00000000    0.00000000
     atom    6 type  2   force =     0.00000000    0.00000000    0.00000000
     atom    7 type  2   force =     0.00000000    0.00520580    0.00000000
     atom    8 type  2   force =    -0.00450836    0.00260290    0.00000000
     atom    9 type  2   force =     0.00450836    0.00260290    0.00000000
     atom   10 type  2   force =    -0.00450836   -0.00260290    0.00000000
     atom   11 type  2   force =     0.00450836   -0.00260290    0.00000000
     atom   12 type  2   force =     0.00000000   -0.00520580    0.00000000

     Total force =     0.027328     Total SCF correction =     0.000000

     entering subroutine stress ...

          total   stress  (Ry/bohr**3)                   (kbar)     P=  711.29
   0.00478484   0.00000000   0.00000000        703.87      0.00      0.00
   0.00000000   0.00478484   0.00000000          0.00    703.87      0.00
   0.00000000   0.00000000   0.00493618          0.00      0.00    726.14

     Writing output data file Prototype-La-hP12-MgZn2.save

     General routines

     Parallel routines

   This run was terminated on:  12:31:39  22Mar2018

   JOB DONE.