     Program PWSCF v.5.0.2 starts on 22Mar2018 at 12: 4:22

     Current dimensions of program PWSCF are:
     Max number of different atomic species (ntypx) = 10
     Max number of k-points (npk) =  40000
     Max angular momentum in pseudopotentials (lmaxx) =  3
     Waiting for input...
     Reading input from standard input

     Subspace diagonalization in iterative solution of the eigenvalue problem:
     a serial algorithm will be used

     bravais-lattice index     =            0
     lattice parameter (alat)  =       8.8008  a.u.
     unit-cell volume          =    1116.9454 (a.u.)^3
     number of atoms/cell      =           16
     number of atomic types    =            2
     number of electrons       =       368.00
     number of Kohn-Sham states=          221
     kinetic-energy cutoff     =      40.0000  Ry
     charge density cutoff     =     160.0000  Ry
     convergence threshold     =      1.0E-04
     mixing beta               =       0.7000
     number of iterations used =            8  plain     mixing
     Exchange-correlation      = SLA-PZ-NOGX-NOGC ( 1 1 0 0 0)
     EXX-fraction              =        0.00
     nstep                     =           50

     celldm(1)=   8.800765  celldm(2)=   0.000000  celldm(3)=   0.000000
     celldm(4)=   0.000000  celldm(5)=   0.000000  celldm(6)=   0.000000

     crystal axes: (cart. coord. in units of alat)
               a(1) = (   1.000000   0.000000   0.000000 )
               a(2) = (   0.000000   1.083771   0.000000 )
               a(3) = (   0.000000   0.000000   1.511935 )

     reciprocal axes: (cart. coord. in units 2 pi/alat)
               b(1) = (  1.000000  0.000000  0.000000 )
               b(2) = (  0.000000  0.922704  0.000000 )
               b(3) = (  0.000000  0.000000  0.661404 )

     PseudoPot. # 1 for Yb read from file:
     /home/jld5415/pp.La/Yb.UPF
     MD5 check sum: 3e859b81cc28c53ec6aa3a2e888efcdf
     Pseudo is Norm-conserving, Zval = 24.0
     Generated in analytical, separable form
     Using radial grid of 1269 points,  6 beta functions with:
                l(1) =   0
                l(2) =   0
                l(3) =   1
                l(4) =   1
                l(5) =   2
                l(6) =   3

     PseudoPot. # 2 for Dy read from file:
     /home/jld5415/pp.La/Dy.UPF
     MD5 check sum: 9597327bec62616a94a14d07f3fd9936
     Pseudo is Norm-conserving, Zval = 20.0
     Generated in analytical, separable form
     Using radial grid of 1265 points,  6 beta functions with:
                l(1) =   0
                l(2) =   0
                l(3) =   1
                l(4) =   1
                l(5) =   2
                l(6) =   3

     atomic species   valence    mass     pseudopotential
        Fe            24.00    55.84500     Yb( 1.00)
        C             20.00    12.01070     Dy( 1.00)

      8 Sym. Ops., with inversion, found ( 6 have fractional translation)

   Cartesian axes

     site n.     atom                  positions (alat units)
         1           Fe  tau(   1) = (   0.3472940   0.1827628   1.3947267  )
         2           Fe  tau(   2) = (   0.1527060   0.7246484   0.8731757  )
         3           Fe  tau(   3) = (   0.8472940   0.3591227   0.6387592  )
         4           Fe  tau(   4) = (   0.3396640   0.4879235   0.3779837  )
         5           Fe  tau(   5) = (   0.1527060   0.7246484   1.3947267  )
         6           Fe  tau(   6) = (   0.3472940   0.1827628   0.8731757  )
         7           Fe  tau(   7) = (   0.1603360   1.0298091   0.3779837  )
         8           Fe  tau(   8) = (   0.6527060   0.9010083   0.6387592  )
         9           Fe  tau(   9) = (   0.8472940   0.3591227   0.1172082  )
        10           Fe  tau(  10) = (   0.6603360   0.5958476   1.1339512  )
        11           Fe  tau(  11) = (   0.6527060   0.9010083   0.1172082  )
        12           Fe  tau(  12) = (   0.8396640   0.0539620   1.1339512  )
        13           C   tau(  13) = (   0.0000000   0.0000000   0.0000000  )
        14           C   tau(  14) = (   0.5000000   0.5418856   0.0000000  )
        15           C   tau(  15) = (   0.5000000   0.5418856   0.7559674  )
        16           C   tau(  16) = (   0.0000000   0.0000000   0.7559674  )

     number of k points=    12  gaussian smearing, width (Ry)=  0.1000
                       cart. coord. in units 2pi/alat
        k(    1) = (   0.0000000   0.0000000   0.0000000), wk =   0.0833333
        k(    2) = (   0.0000000   0.0000000   0.1653510), wk =   0.1666667
        k(    3) = (   0.0000000   0.0000000  -0.3307021), wk =   0.0833333
        k(    4) = (   0.0000000   0.3075680   0.0000000), wk =   0.1666667
        k(    5) = (   0.0000000   0.3075680   0.1653510), wk =   0.3333333
        k(    6) = (   0.0000000   0.3075680  -0.3307021), wk =   0.1666667
        k(    7) = (  -0.5000000   0.0000000   0.0000000), wk =   0.0833333
        k(    8) = (  -0.5000000   0.0000000   0.1653510), wk =   0.1666667
        k(    9) = (  -0.5000000   0.0000000  -0.3307021), wk =   0.0833333
        k(   10) = (  -0.5000000   0.3075680   0.0000000), wk =   0.1666667
        k(   11) = (  -0.5000000   0.3075680   0.1653510), wk =   0.3333333
        k(   12) = (  -0.5000000   0.3075680  -0.3307021), wk =   0.1666667

     Largest allocated arrays     est. size (Mb)     dimensions
     Largest temporary arrays     est. size (Mb)     dimensions

     Initial potential from superposition of free atoms

     Starting from uniform charge
     Starting wfc are    0 randomized atomic wfcs

     Self-consistent Calculation

     iteration #  1     ecut=    40.00 Ry     beta=0.70
     CG style diagonalization
     c_bands:  1 eigenvalues not converged
     c_bands:  1 eigenvalues not converged
     c_bands:  1 eigenvalues not converged
     c_bands:  1 eigenvalues not converged
     ethr =  1.00E-02,  avg # of iterations = 23.1

     total energy              =   -5298.33408511 Ry
     Harris-Foulkes estimate   =   -7160.13680977 Ry
     estimated scf accuracy    <    2282.91993900 Ry

[...]

     iteration #  4     ecut=    40.00 Ry     beta=0.70
     CG style diagonalization
     ethr =  1.00E-02,  avg # of iterations =  4.5

[...]

     End of self-consistent calculation

          k = 0.0000 0.0000 0.0000 (  4785 PWs)   bands (ev):

   -67.8257 -67.8201 -67.7986 -67.7968 -67.7747 -67.7621 -67.7487 -67.7469
   -67.4683 -67.4655 -67.4610 -67.4385 -35.7159 -35.4350 -34.9769 -34.6280
   -28.4056 -28.3753 -28.3453 -28.3228 -27.9866 -27.9754 -27.9460 -27.9158
   -27.7489 -27.2786 -26.9059 -26.8210 -26.7891 -26.7549 -26.6706 -26.6463
   -26.5948 -26.5616 -26.4975 -26.3838 -26.3364 -26.3249 -26.2868 -26.2554
   -26.2162 -26.2115 -26.1826 -26.1491 -26.1096 -26.1039 -26.0960 -26.0911
   -25.9755 -25.9602 -25.8195 -25.8138  -3.1899  -3.1413  -3.0035  -2.9972
    -2.7983  -2.7466  -2.1397  -2.0830  -2.0683  -2.0009  -1.9974  -1.8727
    23.5643  23.6142  24.0981  24.6216  24.7465  24.8800  25.1982  25.6818
    26.0173  26.4580  26.5237  26.6241  27.3539  27.8191  27.8409  28.1075
    28.1667  28.1984  28.3227  28.4278  28.5448  28.6120  28.7060  28.8429
    29.0238  29.0508  29.1426  29.2742  29.4990  29.7261  29.8430  29.8497
    29.8869  29.9065  29.9257  29.9447  29.9906  30.2157  30.3372  30.4297
    30.5077  30.6662  30.6787  30.7059  30.8642  30.9220  30.9839  31.0181
    31.1009  31.3102  31.4789  31.6942  31.7215  31.9762  32.0669  32.1754
    32.2340  32.4892  32.5850  32.6590  33.3591  36.2013  36.6713  36.8400
    37.4516  37.5309  38.0246  38.0348  38.5690  38.9367  39.9914  40.2255
    40.2730  40.9132  41.0881  41.9059  42.1343  42.7173  42.8443  42.9260
    44.0002  44.6925  44.7054  45.0186  45.0440  45.9024  47.3191  47.6815
    47.8980  48.0451  48.3245  48.6972  49.5650  50.5362  50.8543  51.0752
    51.2192  51.5095  52.3232  52.8415  53.4147  53.6779  54.2583  54.2619
    54.6307  55.2614  55.3577  55.7048  56.8398  56.8644  56.9523  57.5566
    57.6409  58.0308  58.1739  58.3663  58.8083  59.4032  59.4603  59.7087
    59.7815  59.8107  59.9658  60.1721  60.5912  60.6321  60.9350  61.2100
    61.3452  61.3617  61.6046  61.7933  61.9745  61.9888  62.0362  62.7232
    62.9008  62.9550  63.1356  63.5659  63.6370  64.0016  64.7086  64.9029
    65.0230  65.2579  65.3307  65.6086  65.7353  65.9078  66.0761  67.0751
    67.2770  67.3769  67.4678  67.8140  67.8486

[...]

          k =-0.5000 0.0000 0.0000 (  4798 PWs)   bands (ev):

[...]

     the Fermi energy is    59.6761 ev

!    total energy              =   -5905.63543235 Ry
     Harris-Foulkes estimate   =   -5905.63543836 Ry
     estimated scf accuracy    <       0.00000767 Ry

     The total energy is the sum of the following terms:

     one-electron contribution =    -508.40412399 Ry
     hartree contribution      =     787.84769855 Ry
     xc contribution           =    -511.47754261 Ry
     ewald contribution        =   -5672.99945644 Ry
     smearing contrib. (-TS)   =      -0.60200786 Ry

     convergence has been achieved in  10 iterations

     Forces acting on atoms (Ry/au):

     atom    1 type  1   force =     1.06772153   -1.16897372   -1.52766342
     atom    2 type  1   force =    -1.06772153   -1.16897372    1.52766342
     atom    3 type  1   force =     1.06772153    1.16897372   -1.52766342
     atom    4 type  1   force =    -1.87541286   -0.69816817    0.00000000
     atom    5 type  1   force =    -1.06772153   -1.16897372   -1.52766342
     atom    6 type  1   force =     1.06772153   -1.16897372    1.52766342
     atom    7 type  1   force =     1.87541286   -0.69816817    0.00000000
     atom    8 type  1   force =    -1.06772153    1.16897372   -1.52766342
     atom    9 type  1   force =     1.06772153    1.16897372    1.52766342
     atom   10 type  1   force =     1.87541286    0.69816817    0.00000000
     atom   11 type  1   force =    -1.06772153    1.16897372    1.52766342
     atom   12 type  1   force =    -1.87541286    0.69816817    0.00000000
     atom   13 type  2   force =     0.00000000    0.00000000    0.00000000
     atom   14 type  2   force =     0.00000000    0.00000000    0.00000000
     atom   15 type  2   force =     0.00000000    0.00000000    0.00000000
     atom   16 type  2   force =     0.00000000    0.00000000    0.00000000

     Total force =     7.398697     Total SCF correction =     0.000000

     entering subroutine stress ...

          total   stress  (Ry/bohr**3)                   (kbar)     P=12891.12
   0.08878887   0.00000000   0.00000000      13061.29      0.00      0.00
   0.00000000   0.08740027   0.00000000          0.00  12857.02      0.00
   0.00000000   0.00000000   0.08670701          0.00      0.00  12755.04

     BFGS Geometry Optimization

     number of scf cycles    =   1
     number of bfgs steps    =   0

     enthalpy new            =   -5905.6354323475 Ry

     new trust radius        =       0.5000000000 bohr
     new conv_thr            =       0.0001000000 Ry

     new unit-cell volume =   1383.04826 a.u.^3 (   204.94660 Ang^3 )

CELL_PARAMETERS (alat=  8.80076499)
   1.074803866   0.000000000   0.000000000
   0.000000000   1.163573526   0.000000000
[...]
Fe       0.851382491   0.335494211   0.418608992
Fe       0.332482718   0.447742236   0.250000000
Fe       0.148617509   0.664505789   0.918608992
Fe       0.351382491   0.164505789   0.581391008
Fe       0.167517282   0.947742236   0.250000000
Fe       0.648617509   0.835494211   0.418608992
Fe       0.851382491   0.335494211   0.081391008
Fe       0.667517282   0.552257764   0.750000000
Fe       0.648617509   0.835494211   0.081391008
Fe       0.832482718   0.052257764   0.750000000
C        0.000000000   0.000000000   0.000000000
C        0.500000000   0.500000000   0.000000000
C        0.500000000   0.500000000   0.500000000
C        0.000000000   0.000000000   0.500000000

     Writing output data file Prototype-La-oP16-Fe3C.save
     NEW-OLD atomic charge density approx. for the potential
     NEW k-points:
        k(    1) = (   0.0000000   0.0000000   0.0000000), wk =   0.0833333
        k(    2) = (   0.0000000   0.0000000   0.1540945), wk =   0.1666667
        k(    3) = (   0.0000000   0.0000000  -0.3081889), wk =   0.0833333
        k(    4) = (   0.0000000   0.2864738   0.0000000), wk =   0.1666667
        k(    5) = (   0.0000000   0.2864738   0.1540945), wk =   0.3333333
        k(    6) = (   0.0000000   0.2864738  -0.3081889), wk =   0.1666667
        k(    7) = (  -0.4652012   0.0000000   0.0000000), wk =   0.0833333
        k(    8) = (  -0.4652012   0.0000000   0.1540945), wk =   0.1666667
        k(    9) = (  -0.4652012   0.0000000  -0.3081889), wk =   0.0833333
        k(   10) = (  -0.4652012   0.2864738   0.0000000), wk =   0.1666667
        k(   11) = (  -0.4652012   0.2864738   0.1540945), wk =   0.3333333
        k(   12) = (  -0.4652012   0.2864738  -0.3081889), wk =   0.1666667

[...]

          total   stress  (Ry/bohr**3)                   (kbar)     P= 5869.86
   0.04060341   0.00000000   0.00000000       5972.97      0.00      0.00
   0.00000000   0.03907437   0.00000000          0.00   5748.04      0.00
   0.00000000   0.00000000   0.04002971          0.00      0.00   5888.57

[...]

     enthalpy old            =   -5905.6354323475 Ry
     enthalpy new            =   -5923.4000820010 Ry

     CASE: enthalpy_new < enthalpy_old

     small trust_radius: resetting bfgs history

     new trust radius        =       7.5500731513 bohr
     new conv_thr            =       0.0001000000 Ry

[...]

          total   stress  (Ry/bohr**3)                   (kbar)     P=-8111.01
  -0.05571586   0.00000000   0.00000000      -8196.08      0.00      0.00
   0.00000000  -0.05468511   0.00000000          0.00  -8044.46      0.00
   0.00000000   0.00000000  -0.05501170          0.00      0.00  -8092.50

     number of scf cycles    =   3
     number of bfgs steps    =   2

     enthalpy old            =   -5923.4000820010 Ry
     enthalpy new            =   -5473.9273070676 Ry

     CASE: enthalpy_new > enthalpy_old

     new trust radius        =       1.5422025879 bohr

     trust_radius < trust_radius_min

     resetting bfgs history

     Message from routine bfgs:
     history already reset at previous step: stopping
     new conv_thr            =       0.0001000000 Ry

     new unit-cell volume =   1584.41833 a.u.^3 (   234.78657 Ang^3 )

[...]

ATOMIC_POSITIONS (crystal)
Fe       0.352930734   0.162873009   0.917127247
Fe       0.147069266   0.662873009   0.582872753
Fe       0.852930734   0.337126991   0.417127247
Fe       0.329778129   0.446653855   0.250000000
Fe       0.147069266   0.662873009   0.917127247
Fe       0.352930734   0.162873009   0.582872753
Fe       0.170221871   0.946653855   0.250000000
Fe       0.647069266   0.837126991   0.417127247
Fe       0.852930734   0.337126991   0.082872753
Fe       0.670221871   0.553346145   0.750000000
Fe       0.647069266   0.837126991   0.082872753
Fe       0.829778129   0.053346145   0.750000000
C        0.000000000   0.000000000   0.000000000
C        0.500000000   0.500000000   0.000000000
C        0.500000000   0.500000000   0.500000000
C        0.000000000   0.000000000   0.500000000

     Writing output data file Prototype-La-oP16-Fe3C.save
     NEW-OLD atomic charge density approx. for the potential
     NEW k-points:
        k(    1) = (   0.0000000   0.0000000   0.0000000), wk =   0.0833333
        k(    2) = (   0.0000000   0.0000000   0.1472286), wk =   0.1666667
        k(    3) = (   0.0000000   0.0000000  -0.2944573), wk =   0.0833333
        k(    4) = (   0.0000000   0.2742845   0.0000000), wk =   0.1666667
        k(    5) = (   0.0000000   0.2742845   0.1472286), wk =   0.3333333
        k(    6) = (   0.0000000   0.2742845  -0.2944573), wk =   0.1666667
        k(    7) = (  -0.4439016   0.0000000   0.0000000), wk =   0.0833333
        k(    8) = (  -0.4439016   0.0000000   0.1472286), wk =   0.1666667
        k(    9) = (  -0.4439016   0.0000000  -0.2944573), wk =   0.0833333
        k(   10) = (  -0.4439016   0.2742845   0.0000000), wk =   0.1666667
        k(   11) = (  -0.4439016   0.2742845   0.1472286), wk =   0.3333333
        k(   12) = (  -0.4439016   0.2742845  -0.2944573), wk =   0.1666667

[...]

     The maximum number of steps has been reached.

     End of BFGS Geometry Optimization
Begin final coordinates
     new unit-cell volume =   1584.41833 a.u.^3 (   234.78657 Ang^3 )

CELL_PARAMETERS (alat=  8.80076499)
   1.126375844   0.000000000   0.000000000
   0.000000000   1.215283285   0.000000000
   0.000000000   0.000000000   1.698039289

ATOMIC_POSITIONS (crystal)
Fe       0.352930734   0.162873009   0.917127247
Fe       0.147069266   0.662873009   0.582872753
Fe       0.852930734   0.337126991   0.417127247
Fe       0.329778129   0.446653855   0.250000000
Fe       0.147069266   0.662873009   0.917127247
Fe       0.352930734   0.162873009   0.582872753
Fe       0.170221871   0.946653855   0.250000000
Fe       0.647069266   0.837126991   0.417127247
Fe       0.852930734   0.337126991   0.082872753
Fe       0.670221871   0.553346145   0.750000000
Fe       0.647069266   0.837126991   0.082872753
Fe       0.829778129   0.053346145   0.750000000
C        0.000000000   0.000000000   0.000000000
C        0.500000000   0.500000000   0.000000000
C        0.500000000   0.500000000   0.500000000
C        0.000000000   0.000000000   0.500000000
End final coordinates

     A final scf calculation at the relaxed structure.
     The G-vectors are recalculated for the final unit cell
     Results may differ from those at the preceding step.

     bravais-lattice index     =            0
     lattice parameter (alat)  =       8.8008  a.u.
     unit-cell volume          =    1584.4183 (a.u.)^3
     number of atoms/cell      =           16
     number of atomic types    =            2
     number of electrons       =       368.00
     number of Kohn-Sham states=          221
     kinetic-energy cutoff     =      40.0000  Ry
     charge density cutoff     =     160.0000  Ry
     convergence threshold     =      1.0E-04
     mixing beta               =       0.7000
     number of iterations used =            8  plain     mixing
     Exchange-correlation      = SLA-PZ-NOGX-NOGC ( 1 1 0 0 0)
     EXX-fraction              =        0.00

     celldm(1)=   8.800765  celldm(2)=   0.000000  celldm(3)=   0.000000
     celldm(4)=   0.000000  celldm(5)=   0.000000  celldm(6)=   0.000000

     crystal axes: (cart. coord. in units of alat)
               a(1) = (   1.126376   0.000000   0.000000 )
               a(2) = (   0.000000   1.215283   0.000000 )
               a(3) = (   0.000000   0.000000   1.698039 )

     reciprocal axes: (cart. coord. in units 2 pi/alat)
               b(1) = (  0.887803  0.000000  0.000000 )
               b(2) = (  0.000000  0.822853  0.000000 )
               b(3) = (  0.000000  0.000000  0.588915 )

     PseudoPot. # 1 for Yb read from file:
     /home/jld5415/pp.La/Yb.UPF
     MD5 check sum: 3e859b81cc28c53ec6aa3a2e888efcdf
     Pseudo is Norm-conserving, Zval = 24.0
     Generated in analytical, separable form
     Using radial grid of 1269 points,  6 beta functions with:
                l(1) =   0
                l(2) =   0
                l(3) =   1
                l(4) =   1
                l(5) =   2
                l(6) =   3

     PseudoPot. # 2 for Dy read from file:
     /home/jld5415/pp.La/Dy.UPF
     MD5 check sum: 9597327bec62616a94a14d07f3fd9936
     Pseudo is Norm-conserving, Zval = 20.0
     Generated in analytical, separable form
     Using radial grid of 1265 points,  6 beta functions with:
                l(1) =   0
                l(2) =   0
                l(3) =   1
                l(4) =   1
                l(5) =   2
                l(6) =   3

     atomic species   valence    mass     pseudopotential
        Fe            24.00    55.84500     Yb( 1.00)
        C             20.00    12.01070     Dy( 1.00)

      8 Sym. Ops., with inversion, found ( 6 have fractional translation)

   Cartesian axes

     site n.     atom                  positions (alat units)
         1           Fe  tau(   1) = (   0.3975327   0.1979368   1.5573181  )
         2           Fe  tau(   2) = (   0.1656553   0.8055785   0.9897408  )
         3           Fe  tau(   3) = (   0.9607206   0.4097048   0.7082985  )
         4           Fe  tau(   4) = (   0.3714541   0.5428110   0.4245098  )
         5           Fe  tau(   5) = (   0.1656553   0.8055785   1.5573181  )
         6           Fe  tau(   6) = (   0.3975327   0.1979368   0.9897408  )
         7           Fe  tau(   7) = (   0.1917338   1.1504526   0.4245098  )
         8           Fe  tau(   8) = (   0.7288432   1.0173464   0.7082985  )
         9           Fe  tau(   9) = (   0.9607206   0.4097048   0.1407212  )
        10           Fe  tau(  10) = (   0.7549217   0.6724723   1.2735295  )
        11           Fe  tau(  11) = (   0.7288432   1.0173464   0.1407212  )
        12           Fe  tau(  12) = (   0.9346420   0.0648307   1.2735295  )
        13           C   tau(  13) = (   0.0000000   0.0000000   0.0000000  )
        14           C   tau(  14) = (   0.5631879   0.6076416   0.0000000  )
        15           C   tau(  15) = (   0.5631879   0.6076416   0.8490196  )
        16           C   tau(  16) = (   0.0000000   0.0000000   0.8490196  )

     number of k points=    12  gaussian smearing, width (Ry)=  0.1000
                       cart. coord. in units 2pi/alat
        k(    1) = (   0.0000000   0.0000000   0.0000000), wk =   0.0833333
        k(    2) = (   0.0000000   0.0000000   0.1472286), wk =   0.1666667
        k(    3) = (   0.0000000   0.0000000  -0.2944573), wk =   0.0833333
        k(    4) = (   0.0000000   0.2742845   0.0000000), wk =   0.1666667
        k(    5) = (   0.0000000   0.2742845   0.1472286), wk =   0.3333333
        k(    6) = (   0.0000000   0.2742845  -0.2944573), wk =   0.1666667
        k(    7) = (  -0.4439016   0.0000000   0.0000000), wk =   0.0833333
        k(    8) = (  -0.4439016   0.0000000   0.1472286), wk =   0.1666667
        k(    9) = (  -0.4439016   0.0000000  -0.2944573), wk =   0.0833333
        k(   10) = (  -0.4439016   0.2742845   0.0000000), wk =   0.1666667
        k(   11) = (  -0.4439016   0.2742845   0.1472286), wk =   0.3333333
        k(   12) = (  -0.4439016   0.2742845  -0.2944573), wk =   0.1666667

     Largest allocated arrays     est. size (Mb)     dimensions
     Largest temporary arrays     est. size (Mb)     dimensions

     Initial potential from superposition of free atoms

     Starting from uniform charge
     Starting wfc are    0 randomized atomic wfcs

     Writing output data file Prototype-La-oP16-Fe3C.save

     Self-consistent Calculation

[...]

     iteration # 10     ecut=    40.00 Ry     beta=0.70
     CG style diagonalization
     c_bands:  1 eigenvalues not converged
     ethr =  3.01E-07,  avg # of iterations =  4.0

     total energy              =   -5937.18738249 Ry
     Harris-Foulkes estimate   =   -5937.18746356 Ry
     estimated scf accuracy    <       0.00017257 Ry

     iteration # 11     ecut=    40.00 Ry     beta=0.70
     CG style diagonalization
     ethr =  4.69E-08,  avg # of iterations =  3.7

     End of self-consistent calculation

[...]

          k = 0.0000 0.2743-0.2945 (  6742 PWs)   bands (ev):

[...]

          k =-0.4439 0.2743-0.2945 (  6788 PWs)   bands (ev):

   -83.7214 -83.7214 -83.7198 -83.7198 -83.7110 -83.7110 -83.7005 -83.7005
   -83.4533 -83.4533 -83.4362 -83.4362 -47.6481 -47.6481 -47.6460 -47.6460
   -43.1043 -43.1043 -43.1007 -43.1007 -43.0062 -43.0062 -43.0050 -43.0050
   -42.7823 -42.7823 -42.7809 -42.7809 -42.5636 -42.5636 -42.5493 -42.5493
   -42.4928 -42.4928 -42.4739 -42.4739 -42.3944 -42.3944 -42.3865 -42.3865
   -42.3142 -42.3142 -42.3088 -42.3088 -42.2338 -42.2338 -42.2313 -42.2313
   -42.0564 -42.0564 -42.0435 -42.0435 -15.3014 -15.3014 -15.3008 -15.3008
   -15.1573 -15.1573 -15.1552 -15.1552 -15.0756 -15.0756 -15.0739 -15.0739
    12.6679  12.6679  12.6870  12.6870  12.9847  12.9847  12.9997  12.9997
    13.4430  13.4430  13.5360  13.5360  13.5593  13.5593  13.7037  13.7037
    13.9912  13.9912  14.0344  14.0344  14.2791  14.2791  14.3394  14.3394
    14.4867  14.4867  14.5624  14.5624  14.7047  14.7047  14.7226  14.7226
    14.7747  14.7747  14.8761  14.8761  14.9386  14.9386  14.9871  14.9871
    15.0632  15.0632  15.1949  15.1949  15.3394  15.3394  15.4868  15.4868
    15.6094  15.6094  15.6275  15.6275  15.7957  15.7957  15.8788  15.8788
    16.0142  16.0142  16.0853  16.0853  23.1591  23.1591  23.2830  23.2830
    23.9044  23.9044  24.3559  24.3559  24.5841  24.5841  24.7376  24.7376
    25.0211  25.0211  25.1930  25.1930  25.9469  25.9469  26.3055  26.3055
    26.4274  26.4274  26.7041  26.7041  27.7475  27.7475  27.8203  27.8203
    31.1945  31.1945  31.5063  31.5063  33.2278  33.2278  33.2505  33.2505
    34.6244  34.6244  34.9612  34.9612  37.2423  37.2423  37.4782  37.4782
    38.8865  38.8865  38.9999  38.9999  39.9973  39.9973  40.0863  40.0863
    40.7899  40.7899  40.8643  40.8643  42.0307  42.0307  42.2183  42.2183
    43.0291  43.0291  43.4356  43.4356  44.2597  44.2597  44.2847  44.2847
    44.6322  44.6322  44.9445  44.9445  45.4355  45.4355  45.7095  45.7096
    46.6208  46.6209  46.9154  46.9155  46.9439  46.9440  47.1726  47.1727
    47.4821  47.4822  48.0013  48.0014  48.0744  48.0745  48.2830  48.2832
    48.5606  48.5607  48.6349  48.6351  49.2534

     the Fermi energy is    42.7759 ev

!    total energy              =   -5937.18741699 Ry
     Harris-Foulkes estimate   =   -5937.18742535 Ry
     estimated scf accuracy    <       0.00000944 Ry

     The total energy is the sum of the following terms:

     one-electron contribution =   -1352.17961435 Ry
     hartree contribution      =     990.45914552 Ry
     xc contribution           =    -493.40351564 Ry
     ewald contribution        =   -5081.47537463 Ry
     smearing contrib. (-TS)   =      -0.58805789 Ry

     convergence has been achieved in  11 iterations

     Forces acting on atoms (Ry/au):

     atom    1 type  1   force =     0.45485206   -0.51093737   -0.62769321
     atom    2 type  1   force =    -0.45485206   -0.51093737    0.62769321
     atom    3 type  1   force =     0.45485206    0.51093737   -0.62769321
     atom    4 type  1   force =    -0.80320995   -0.35560546    0.00000000
     atom    5 type  1   force =    -0.45485206   -0.51093737   -0.62769321
     atom    6 type  1   force =     0.45485206   -0.51093737    0.62769321
     atom    7 type  1   force =     0.80320995   -0.35560546    0.00000000
     atom    8 type  1   force =    -0.45485206    0.51093737   -0.62769321
     atom    9 type  1   force =     0.45485206    0.51093737    0.62769321
     atom   10 type  1   force =     0.80320995    0.35560546    0.00000000
     atom   11 type  1   force =    -0.45485206    0.51093737    0.62769321
     atom   12 type  1   force =    -0.80320995    0.35560546    0.00000000
     atom   13 type  2   force =     0.00000000    0.00000000    0.00000000
     atom   14 type  2   force =     0.00000000    0.00000000    0.00000000
     atom   15 type  2   force =     0.00000000    0.00000000    0.00000000
     atom   16 type  2   force =     0.00000000    0.00000000    0.00000000

     Total force =     3.159426     Total SCF correction =     0.000000

     entering subroutine stress ...

          total   stress  (Ry/bohr**3)                   (kbar)     P= 4032.02
   0.02764070   0.00000000   0.00000000       4066.09      0.00      0.00
   0.00000000   0.02685050   0.00000000          0.00   3949.84      0.00
   0.00000000   0.00000000   0.02773614          0.00      0.00   4080.13

     Writing output data file Prototype-La-oP16-Fe3C.save

     General routines

     Parallel routines

   This run was terminated on:  13:13:51  22Mar2018

   JOB DONE.