     Program PWSCF v.5.0.2 starts on 22Mar2018 at 12: 4:22

     Current dimensions of program PWSCF are:
     Max number of different atomic species (ntypx) = 10
     Max number of k-points (npk) =  40000
     Max angular momentum in pseudopotentials (lmaxx) =  3
     Waiting for input...
     Reading input from standard input

     Subspace diagonalization in iterative solution of the eigenvalue problem:
     a serial algorithm will be used

     bravais-lattice index     =            0
     lattice parameter (alat)  =       7.0151  a.u.
     unit-cell volume          =     862.2778 (a.u.)^3
     number of atoms/cell      =           12
     number of atomic types    =            2
     number of electrons       =       272.00
     number of Kohn-Sham states=          163
     kinetic-energy cutoff     =      40.0000  Ry
     charge density cutoff     =     160.0000  Ry
     convergence threshold     =      1.0E-04
     mixing beta               =       0.7000
     number of iterations used =            8  plain     mixing
     Exchange-correlation      = SLA-PZ-NOGX-NOGC ( 1 1 0 0 0)
     EXX-fraction              =        0.00
     nstep                     =           50

     celldm(1)=   7.015105  celldm(2)=   0.000000  celldm(3)=   0.000000
     celldm(4)=   0.000000  celldm(5)=   0.000000  celldm(6)=   0.000000

     crystal axes: (cart. coord. in units of alat)
               a(1) = (   1.000000   0.000000   0.000000 )
               a(2) = (   0.000000   1.315963   0.000000 )
               a(3) = (   0.000000   0.000000   1.898020 )

     reciprocal axes: (cart. coord. in units 2 pi/alat)
               b(1) = (  1.000000  0.000000  0.000000 )
               b(2) = (  0.000000  0.759900  0.000000 )
               b(3) = (  0.000000  0.000000  0.526865 )

     PseudoPot. # 1 for Yb read from file:
     /home/jld5415/pp.La/Yb.UPF
     MD5 check sum: 3e859b81cc28c53ec6aa3a2e888efcdf
     Pseudo is Norm-conserving, Zval = 24.0
     Generated in analytical, separable form
     Using radial grid of 1269 points,  6 beta functions with:
                l(1) =   0
                l(2) =   0
                l(3) =   1
                l(4) =   1
                l(5) =   2
                l(6) =   3

     PseudoPot. # 2 for Dy read from file:
     /home/jld5415/pp.La/Dy.UPF
     MD5 check sum: 9597327bec62616a94a14d07f3fd9936
     Pseudo is Norm-conserving, Zval = 20.0
     Generated in analytical, separable form
     Using radial grid of 1265 points,  6 beta functions with:
                l(1) =   0
                l(2) =   0
                l(3) =   1
                l(4) =   1
                l(5) =   2
                l(6) =   3

     atomic species   valence    mass     pseudopotential
        Co            24.00    58.93320     Yb( 1.00)
        Si            20.00    28.08550     Dy( 1.00)

      8 Sym. Ops., with inversion, found ( 6 have fractional translation)

   Cartesian axes

     site n.     atom                  positions (alat units)
         1           Co  tau(   1) = (   0.7500000   1.0875135   0.8270358  )
         2           Co  tau(   2) = (   0.2500000   0.2284499   1.0709846  )
         3           Co  tau(   3) = (   0.7500000   0.4295318   0.1219744  )
         4           Co  tau(   4) = (   0.2500000   0.8864316   1.7760460  )
         5           Co  tau(   5) = (   0.2500000   0.7067855   0.5358966  )
         6           Co  tau(   6) = (   0.7500000   0.6091779   1.3621238  )
         7           Co  tau(   7) = (   0.2500000   0.0488038   0.4131136  )
         8           Co  tau(   8) = (   0.7500000   1.2671596   1.4849068  )
         9           Si  tau(   9) = (   0.2500000   0.2669484   1.6960710  )
        10           Si  tau(  10) = (   0.7500000   1.0490149   0.2019494  )
        11           Si  tau(  11) = (   0.2500000   0.9249301   1.1509596  )
        12           Si  tau(  12) = (   0.7500000   0.3910333   0.7470608  )

     number of k points=    12  gaussian smearing, width (Ry)=  0.1000
                       cart. coord. in units 2pi/alat
        k(    1) = (   0.0000000   0.0000000   0.0000000), wk =   0.0833333
        k(    2) = (   0.0000000   0.0000000   0.1317162), wk =   0.1666667
        k(    3) = (   0.0000000   0.0000000  -0.2634324), wk =   0.0833333
        k(    4) = (   0.0000000   0.2532999   0.0000000), wk =   0.1666667
        k(    5) = (   0.0000000   0.2532999   0.1317162), wk =   0.3333333
        k(    6) = (   0.0000000   0.2532999  -0.2634324), wk =   0.1666667
        k(    7) = (  -0.5000000   0.0000000   0.0000000), wk =   0.0833333
        k(    8) = (  -0.5000000   0.0000000   0.1317162), wk =   0.1666667
        k(    9) = (  -0.5000000   0.0000000  -0.2634324), wk =   0.0833333
        k(   10) = (  -0.5000000   0.2532999   0.0000000), wk =   0.1666667
        k(   11) = (  -0.5000000   0.2532999   0.1317162), wk =   0.3333333
        k(   12) = (  -0.5000000   0.2532999  -0.2634324), wk =   0.1666667

     Largest allocated arrays     est. size (Mb)     dimensions
     Largest temporary arrays     est. size (Mb)     dimensions

     Initial potential from superposition of free atoms

     Starting from uniform charge
     Starting wfc are    0 randomized atomic wfcs

     Self-consistent Calculation

     iteration #  1     ecut=    40.00 Ry     beta=0.70
     CG style diagonalization
     ethr =  1.00E-02,  avg # of iterations = 19.9

     total energy              =   -3494.52172054 Ry
     Harris-Foulkes estimate   =   -4975.88436165 Ry
     estimated scf accuracy    <    1832.75456513 Ry

     iteration #  2     ecut=    40.00 Ry     beta=0.70
     CG style diagonalization
     c_bands:  5 eigenvalues not converged
     ethr =  1.00E-02,  avg # of iterations = 15.8

[...]

     End of self-consistent calculation

          k = 0.0000 0.0000 0.0000 (  3675 PWs)   bands (ev):

   -68.3646 -68.3603 -68.3474 -68.3086 -68.1067 -68.0549 -68.0109 -68.0043
   -30.5912 -30.5825 -30.5600 -30.5407 -27.5575 -27.5572 -27.5278 -27.4979
   -27.4838 -27.4560 -27.4450 -27.4345 -27.3881 -27.3789 -27.3356 -27.2858
   -27.2660 -27.2569 -27.1439 -27.1432 -27.1255 -27.1168 -27.0458 -27.0362
   -27.0288 -26.9709 -26.8543 -26.8388   1.6122   1.7017   1.7167   1.7232
     1.7409   1.7467   1.7707   1.7894   2.1037   2.1817   2.2147   2.3149
    26.7030  26.7548  26.7718  26.8180  26.8680  27.1717  27.1791  27.2504
    27.5948  27.6785  27.8132  27.9105  28.1188  28.4207  28.4585  28.8598
    28.9281  29.0334  29.0509  29.0592  29.2248  29.2826  29.3442  29.4345
    29.6665  29.7184  29.9724  30.0154  30.1483  30.1625  30.1996  30.3655
    30.5437  30.5972  31.1874  31.3911  31.4395  31.4773  31.6492  31.7352
    31.7469  35.5863  36.0289  36.0680  38.6194  39.3246  39.6488  39.7804
    39.9385  40.7686  41.3657  41.3844  41.6188  41.8311  41.9717  42.0827
    42.4126  42.8223  43.3705  43.5174  43.5804  43.6453  43.7736  44.0406
    44.7242  47.2511  47.6147  47.9150  48.0440  48.9778  49.6619  52.6271
    52.9963  53.7197  53.8490  54.2029  54.2865  54.3036  54.7095  55.3356
    55.8598  56.1434  56.5988  56.7812  56.7954  56.9803  57.1073  57.2355
    57.4184  57.5251  57.7101  57.9857  58.2454  58.7991  59.0936  59.1243
    59.1405  59.6526  60.0429  60.9283  61.4193  61.8721  61.9643  62.2163
    62.2176  62.7407  62.8508  63.2042  63.4682  63.4844  63.5848  65.0420
    65.0671  65.1793  65.6596

[...]

          k =-0.5000 0.0000 0.0000 (  3722 PWs)   bands (ev):

[...]

     the Fermi energy is    58.0843 ev

!    total energy              =   -4297.16798487 Ry
     Harris-Foulkes estimate   =   -4297.16802686 Ry
     estimated scf accuracy    <       0.00004791 Ry

     The total energy is the sum of the following terms:

     one-electron contribution =     -64.49279211 Ry
     hartree contribution      =     429.55399071 Ry
     xc contribution           =    -369.36347236 Ry
     ewald contribution        =   -4292.35547065 Ry
     smearing contrib. (-TS)   =      -0.51024046 Ry

     convergence has been achieved in  10 iterations

     Forces acting on atoms (Ry/au):

     atom    1 type  1   force =     0.00000000   -0.04490683   -0.09785505
     atom    2 type  1   force =     0.00000000    0.04490683    0.09785505
     atom    3 type  1   force =     0.00000000   -0.04490683    0.09785505
     atom    4 type  1   force =     0.00000000    0.04490683   -0.09785505
     atom    5 type  1   force =     0.00000000    0.07481654   -0.17129424
     atom    6 type  1   force =     0.00000000   -0.07481654    0.17129424
     atom    7 type  1   force =     0.00000000    0.07481654    0.17129424
     atom    8 type  1   force =     0.00000000   -0.07481654   -0.17129424
     atom    9 type  2   force =     0.00000000   -0.16986822    0.01704144
     atom   10 type  2   force =     0.00000000    0.16986822   -0.01704144
     atom   11 type  2   force =     0.00000000   -0.16986822   -0.01704144
     atom   12 type  2   force =     0.00000000    0.16986822    0.01704144

     Total force =     0.550189     Total SCF correction =     0.000000

     entering subroutine stress ...

          total   stress  (Ry/bohr**3)                   (kbar)     P= 7938.27
   0.05754107   0.00000000   0.00000000       8464.58      0.00      0.00
   0.00000000   0.05122164   0.00000000          0.00   7534.96      0.00
   0.00000000   0.00000000   0.05312703          0.00      0.00   7815.26

     BFGS Geometry Optimization

     number of scf cycles    =   1
     number of bfgs steps    =   0

     enthalpy new            =   -4297.1679848713 Ry

     new trust radius        =       0.5000000000 bohr
     new conv_thr            =       0.0001000000 Ry

     new unit-cell volume =   1085.72654 a.u.^3 (   160.88807 Ang^3 )

CELL_PARAMETERS (alat=  7.01510508)
   1.085136619   0.000000000   0.000000000
   0.000000000   1.415695669   0.000000000
   0.000000000   0.000000000   2.047215628

ATOMIC_POSITIONS (crystal)
Co       0.750000000   0.826113106   0.435301043
Co       0.250000000   0.173886894   0.564698957
Co       0.750000000   0.326113106   0.064698957
Co       0.250000000   0.673886894   0.935301043
Co       0.250000000   0.537565643   0.281583612
Co       0.750000000   0.462434357   0.718416388
Co       0.250000000   0.037565643   0.218416388
Co       0.750000000   0.962434357   0.781583612
Si       0.250000000   0.201764988   0.893675748
Si       0.750000000   0.798235012   0.106324252
Si       0.250000000   0.701764988   0.606324252
Si       0.750000000   0.298235012   0.393675748

     Writing output data file Prototype-La-oP12-Co2Si.save
     NEW-OLD atomic charge density approx. for the potential
     NEW k-points:
        k(    1) = (   0.0000000   0.0000000   0.0000000), wk =   0.0833333
        k(    2) = (   0.0000000   0.0000000   0.1221171), wk =   0.1666667
        k(    3) = (   0.0000000   0.0000000  -0.2442342), wk =   0.0833333
        k(    4) = (   0.0000000   0.2354555   0.0000000), wk =   0.1666667
        k(    5) = (   0.0000000   0.2354555   0.1221171), wk =   0.3333333
        k(    6) = (   0.0000000   0.2354555  -0.2442342), wk =   0.1666667
        k(    7) = (  -0.4607715   0.0000000   0.0000000), wk =   0.0833333
        k(    8) = (  -0.4607715   0.0000000   0.1221171), wk =   0.1666667
        k(    9) = (  -0.4607715   0.0000000  -0.2442342), wk =   0.0833333
        k(   10) = (  -0.4607715   0.2354555   0.0000000), wk =   0.1666667
        k(   11) = (  -0.4607715   0.2354555   0.1221171), wk =   0.3333333
        k(   12) = (  -0.4607715   0.2354555  -0.2442342), wk =   0.1666667

[...]

     enthalpy old            =   -4297.1679848713 Ry
     enthalpy new            =   -4304.9823920573 Ry

     CASE: enthalpy_new < enthalpy_old

     small trust_radius: resetting bfgs history

     new trust radius        =       3.3441813438 bohr
     new conv_thr            =       0.0000983378 Ry

[...]

          total   stress  (Ry/bohr**3)                   (kbar)     P=-6862.32
  -0.04963412   0.00000000   0.00000000      -7301.43      0.00      0.00
   0.00000000  -0.04418106   0.00000000          0.00  -6499.26      0.00
   0.00000000   0.00000000  -0.04613205          0.00      0.00  -6786.26

     number of scf cycles    =   3
     number of bfgs steps    =   2

     enthalpy old            =   -4304.9823920573 Ry
     enthalpy new            =   -4238.3258000563 Ry

     CASE: enthalpy_new > enthalpy_old

     new trust radius        =       0.6287502001 bohr

     trust_radius < trust_radius_min

     resetting bfgs history

     Message from routine bfgs:
     history already reset at previous step: stopping
     new conv_thr            =       0.0000983378 Ry

     new unit-cell volume =   1287.19986 a.u.^3 (   190.74334 Ang^3 )

[...]

ATOMIC_POSITIONS (crystal)
Co       0.750000000   0.825811947   0.435119300
Co       0.250000000   0.174188053   0.564880700
Co       0.750000000   0.325811947   0.064880700
Co       0.250000000   0.674188053   0.935119300
Co       0.250000000   0.537823214   0.281068287
Co       0.750000000   0.462176786   0.718931713
Co       0.250000000   0.037823214   0.218931713
Co       0.750000000   0.962176786   0.781068287
Si       0.250000000   0.200933606   0.893880234
Si       0.750000000   0.799066394   0.106119766
Si       0.250000000   0.700933606   0.606119766
Si       0.750000000   0.299066394   0.393880234

     Writing output data file Prototype-La-oP12-Co2Si.save
     NEW-OLD atomic charge density approx. for the potential
     NEW k-points:
        k(    1) = (   0.0000000   0.0000000   0.0000000), wk =   0.0833333
        k(    2) = (   0.0000000   0.0000000   0.1154362), wk =   0.1666667
        k(    3) = (   0.0000000   0.0000000  -0.2308725), wk =   0.0833333
        k(    4) = (   0.0000000   0.2234058   0.0000000), wk =   0.1666667
        k(    5) = (   0.0000000   0.2234058   0.1154362), wk =   0.3333333
        k(    6) = (   0.0000000   0.2234058  -0.2308725), wk =   0.1666667
        k(    7) = (  -0.4333200   0.0000000   0.0000000), wk =   0.0833333
        k(    8) = (  -0.4333200   0.0000000   0.1154362), wk =   0.1666667
        k(    9) = (  -0.4333200   0.0000000  -0.2308725), wk =   0.0833333
        k(   10) = (  -0.4333200   0.2234058   0.0000000), wk =   0.1666667
        k(   11) = (  -0.4333200   0.2234058   0.1154362), wk =   0.3333333
        k(   12) = (  -0.4333200   0.2234058  -0.2308725), wk =   0.1666667

[...]

     The maximum number of steps has been reached.

     End of BFGS Geometry Optimization
Begin final coordinates
     new unit-cell volume =   1287.19986 a.u.^3 (   190.74334 Ang^3 )

CELL_PARAMETERS (alat=  7.01510508)
   1.153881757   0.000000000   0.000000000
   0.000000000   1.492053030   0.000000000
   0.000000000   0.000000000   2.165697902

ATOMIC_POSITIONS (crystal)
Co       0.750000000   0.825811947   0.435119300
Co       0.250000000   0.174188053   0.564880700
Co       0.750000000   0.325811947   0.064880700
Co       0.250000000   0.674188053   0.935119300
Co       0.250000000   0.537823214   0.281068287
Co       0.750000000   0.462176786   0.718931713
Co       0.250000000   0.037823214   0.218931713
Co       0.750000000   0.962176786   0.781068287
Si       0.250000000   0.200933606   0.893880234
Si       0.750000000   0.799066394   0.106119766
Si       0.250000000   0.700933606   0.606119766
Si       0.750000000   0.299066394   0.393880234
End final coordinates

     A final scf calculation at the relaxed structure.
     The G-vectors are recalculated for the final unit cell
     Results may differ from those at the preceding step.

     bravais-lattice index     =            0
     lattice parameter (alat)  =       7.0151  a.u.
     unit-cell volume          =    1287.1999 (a.u.)^3
     number of atoms/cell      =           12
     number of atomic types    =            2
     number of electrons       =       272.00
     number of Kohn-Sham states=          163
     kinetic-energy cutoff     =      40.0000  Ry
     charge density cutoff     =     160.0000  Ry
     convergence threshold     =      9.8E-05
     mixing beta               =       0.7000
     number of iterations used =            8  plain     mixing
     Exchange-correlation      = SLA-PZ-NOGX-NOGC ( 1 1 0 0 0)
     EXX-fraction              =        0.00

     celldm(1)=   7.015105  celldm(2)=   0.000000  celldm(3)=   0.000000
     celldm(4)=   0.000000  celldm(5)=   0.000000  celldm(6)=   0.000000

     crystal axes: (cart. coord. in units of alat)
               a(1) = (   1.153882   0.000000   0.000000 )
               a(2) = (   0.000000   1.492053   0.000000 )
               a(3) = (   0.000000   0.000000   2.165698 )

     reciprocal axes: (cart. coord. in units 2 pi/alat)
               b(1) = (  0.866640  0.000000  0.000000 )
               b(2) = (  0.000000  0.670217  0.000000 )
               b(3) = (  0.000000  0.000000  0.461745 )

     PseudoPot. # 1 for Yb read from file:
     /home/jld5415/pp.La/Yb.UPF
     MD5 check sum: 3e859b81cc28c53ec6aa3a2e888efcdf
     Pseudo is Norm-conserving, Zval = 24.0
     Generated in analytical, separable form
     Using radial grid of 1269 points,  6 beta functions with:
                l(1) =   0
                l(2) =   0
                l(3) =   1
                l(4) =   1
                l(5) =   2
                l(6) =   3

     PseudoPot. # 2 for Dy read from file:
     /home/jld5415/pp.La/Dy.UPF
     MD5 check sum: 9597327bec62616a94a14d07f3fd9936
     Pseudo is Norm-conserving, Zval = 20.0
     Generated in analytical, separable form
     Using radial grid of 1265 points,  6 beta functions with:
                l(1) =   0
                l(2) =   0
                l(3) =   1
                l(4) =   1
                l(5) =   2
                l(6) =   3

     atomic species   valence    mass     pseudopotential
        Co            24.00    58.93320     Yb( 1.00)
        Si            20.00    28.08550     Dy( 1.00)

      8 Sym. Ops., with inversion, found ( 6 have fractional translation)

   Cartesian axes

     site n.     atom                  positions (alat units)
         1           Co  tau(   1) = (   0.8654113   1.2321552   0.9423370  )
         2           Co  tau(   2) = (   0.2884704   0.2598978   1.2233609  )
         3           Co  tau(   3) = (   0.8654113   0.4861287   0.1405120  )
         4           Co  tau(   4) = (   0.2884704   1.0059243   2.0251859  )
         5           Co  tau(   5) = (   0.2884704   0.8024608   0.6087090  )
         6           Co  tau(   6) = (   0.8654113   0.6895923   1.5569889  )
         7           Co  tau(   7) = (   0.2884704   0.0564342   0.4741400  )
         8           Co  tau(   8) = (   0.8654113   1.4356188   1.6915579  )
         9           Si  tau(   9) = (   0.2884704   0.2998036   1.9358745  )
        10           Si  tau(  10) = (   0.8654113   1.1922494   0.2298234  )
        11           Si  tau(  11) = (   0.2884704   1.0458301   1.3126723  )
        12           Si  tau(  12) = (   0.8654113   0.4462229   0.8530256  )

     number of k points=    12  gaussian smearing, width (Ry)=  0.1000
                       cart. coord. in units 2pi/alat
        k(    1) = (   0.0000000   0.0000000   0.0000000), wk =   0.0833333
        k(    2) = (   0.0000000   0.0000000   0.1154362), wk =   0.1666667
        k(    3) = (   0.0000000   0.0000000  -0.2308725), wk =   0.0833333
        k(    4) = (   0.0000000   0.2234058   0.0000000), wk =   0.1666667
        k(    5) = (   0.0000000   0.2234058   0.1154362), wk =   0.3333333
        k(    6) = (   0.0000000   0.2234058  -0.2308725), wk =   0.1666667
        k(    7) = (  -0.4333200   0.0000000   0.0000000), wk =   0.0833333
        k(    8) = (  -0.4333200   0.0000000   0.1154362), wk =   0.1666667
        k(    9) = (  -0.4333200   0.0000000  -0.2308725), wk =   0.0833333
        k(   10) = (  -0.4333200   0.2234058   0.0000000), wk =   0.1666667
        k(   11) = (  -0.4333200   0.2234058   0.1154362), wk =   0.3333333
        k(   12) = (  -0.4333200   0.2234058  -0.2308725), wk =   0.1666667

     Largest allocated arrays     est. size (Mb)     dimensions
     Largest temporary arrays     est. size (Mb)     dimensions

     Initial potential from superposition of free atoms

     Starting from uniform charge
     Starting wfc are    0 randomized atomic wfcs

     Writing output data file Prototype-La-oP12-Co2Si.save

     Self-consistent Calculation

[...]

     iteration #  9     ecut=    40.00 Ry     beta=0.70
     CG style diagonalization
     c_bands:  1 eigenvalues not converged
     ethr =  1.18E-06,  avg # of iterations =  4.4

[...]

     total energy              =   -4313.43745893 Ry
     Harris-Foulkes estimate   =   -4313.43753434 Ry
     estimated scf accuracy    <       0.00014747 Ry

     iteration # 11     ecut=    40.00 Ry     beta=0.70
     CG style diagonalization
     ethr =  5.42E-08,  avg # of iterations =  3.5

     End of self-consistent calculation

[...]

          k = 0.0000 0.2234-0.2309 (  5488 PWs)   bands (ev):

[...]

          k =-0.4333 0.2234-0.2309 (  5528 PWs)   bands (ev):

   -86.7723 -86.7723 -86.7589 -86.7589 -86.5306 -86.5306 -86.5226 -86.5226
   -46.7708 -46.7708 -46.7689 -46.7689 -45.6315 -45.6315 -45.6306 -45.6306
   -45.6129 -45.6129 -45.6116 -45.6116 -45.5745 -45.5745 -45.5714 -45.5714
   -45.3988 -45.3988 -45.3906 -45.3906 -45.3903 -45.3903 -45.3653 -45.3653
   -45.3363 -45.3363 -45.3298 -45.3298 -13.9593 -13.9593 -13.9526 -13.9526
   -13.9359 -13.9359 -13.9319 -13.9319 -13.7898 -13.7898 -13.7864 -13.7864
    11.4123  11.4123  11.5579  11.5579  11.5718  11.5718  11.6448  11.6448
    11.6670  11.6670  11.7722  11.7722  11.8003  11.8003  11.9359  11.9359
    11.9887  11.9887  12.0256  12.0256  12.0507  12.0507  12.2333  12.2333
    12.2799  12.2799  12.3492  12.3492  12.3614  12.3614  12.4250  12.4250
    12.5029  12.5029  12.6722  12.6722  12.7312  12.7312  12.9702  12.9702
    21.1850  21.1850  21.6654  21.6654  22.7698  22.7698  22.9631  22.9631
    25.4058  25.4058  25.4790  25.4790  25.6249  25.6249  26.0367  26.0367
    26.2934  26.2934  26.3370  26.3370  26.6139  26.6139  26.6925  26.6925
    28.0955  28.0955  28.2346  28.2346  29.1586  29.1586  31.0472  31.0472
    31.9187  31.9187  32.4444  32.4444  33.6398  33.6398  35.1735  35.1735
    37.6044  37.6044  37.6711  37.6711  38.8800  38.8800  39.0019  39.0019
    39.7913  39.7913  40.0209  40.0209  40.9267  40.9267  41.1379  41.1379
    41.7349  41.7349  41.7507  41.7507  42.0535  42.0535  42.6006  42.6006
    42.6978  42.6978  42.8780  42.8780  43.6728  43.6728  45.1174  45.1175
    45.7134  45.7134  45.7686

     the Fermi energy is    38.7097 ev

!    total energy              =   -4313.43748988 Ry
     Harris-Foulkes estimate   =   -4313.43749663 Ry
     estimated scf accuracy    <       0.00000786 Ry

     The total energy is the sum of the following terms:

     one-electron contribution =    -829.91004012 Ry
     hartree contribution      =     630.37153493 Ry
     xc contribution           =    -356.99658592 Ry
     ewald contribution        =   -3756.57092590 Ry
     smearing contrib. (-TS)   =      -0.33147287 Ry

     convergence has been achieved in  11 iterations

     Forces acting on atoms (Ry/au):

     atom    1 type  1   force =     0.00000000   -0.03987271   -0.02985091
     atom    2 type  1   force =     0.00000000    0.03987271    0.02985091
     atom    3 type  1   force =     0.00000000   -0.03987271    0.02985091
     atom    4 type  1   force =     0.00000000    0.03987271   -0.02985091
     atom    5 type  1   force =     0.00000000    0.01142041   -0.04731202
     atom    6 type  1   force =     0.00000000   -0.01142041    0.04731202
     atom    7 type  1   force =     0.00000000    0.01142041    0.04731202
     atom    8 type  1   force =     0.00000000   -0.01142041   -0.04731202
     atom    9 type  2   force =     0.00000000   -0.07260801    0.02050651
     atom   10 type  2   force =     0.00000000    0.07260801   -0.02050651
     atom   11 type  2   force =     0.00000000   -0.07260801   -0.02050651
     atom   12 type  2   force =     0.00000000    0.07260801    0.02050651

     Total force =     0.205350     Total SCF correction =     0.000000

     entering subroutine stress ...

          total   stress  (Ry/bohr**3)                   (kbar)     P= 1624.68
   0.01142324   0.00000000   0.00000000       1680.42      0.00      0.00
   0.00000000   0.01071441   0.00000000          0.00   1576.14      0.00
   0.00000000   0.00000000   0.01099535          0.00      0.00   1617.47

     Writing output data file Prototype-La-oP12-Co2Si.save

     General routines

     Parallel routines

   This run was terminated on:  12:28:57  22Mar2018

   JOB DONE.