     Program PWSCF v.5.0.2 starts on 22Mar2018 at 12: 4:20

     Current dimensions of program PWSCF are:
     Max number of different atomic species (ntypx) = 10
     Max number of k-points (npk) =  40000
     Max angular momentum in pseudopotentials (lmaxx) =  3
     Waiting for input...
     Reading input from standard input

     Subspace diagonalization in iterative solution of the eigenvalue problem:
     a serial algorithm will be used

     bravais-lattice index     =            0
     lattice parameter (alat)  =       8.5346  a.u.
     unit-cell volume          =     621.6493 (a.u.)^3
     number of atoms/cell      =            8
     number of atomic types    =            2
     number of electrons       =       184.00
     number of Kohn-Sham states=          110
     kinetic-energy cutoff     =      40.0000  Ry
     charge density cutoff     =     160.0000  Ry
     convergence threshold     =      1.0E-04
     mixing beta               =       0.7000
     number of iterations used =            8  plain     mixing
     Exchange-correlation      = SLA-PZ-NOGX-NOGC ( 1 1 0 0 0)
     EXX-fraction              =        0.00
     nstep                     =           50

     celldm(1)=   8.534573  celldm(2)=   0.000000  celldm(3)=   0.000000
     celldm(4)=   0.000000  celldm(5)=   0.000000  celldm(6)=   0.000000

     crystal axes: (cart. coord. in units of alat)
               a(1) = (   1.000000   0.000000   0.000000 )
               a(2) = (   0.000000   1.000000   0.000000 )
               a(3) = (   0.000000   0.000000   1.000000 )

     reciprocal axes: (cart. coord. in units 2 pi/alat)
               b(1) = (  1.000000  0.000000  0.000000 )
               b(2) = (  0.000000  1.000000  0.000000 )
               b(3) = (  0.000000  0.000000  1.000000 )

     PseudoPot. # 1 for Yb read from file:
     /home/jld5415/pp.La/Yb.UPF
     MD5 check sum: 3e859b81cc28c53ec6aa3a2e888efcdf
     Pseudo is Norm-conserving, Zval = 24.0
     Generated in analytical, separable form
     Using radial grid of 1269 points,  6 beta functions with:
                l(1) =   0
                l(2) =   0
                l(3) =   1
                l(4) =   1
                l(5) =   2
                l(6) =   3

     PseudoPot. # 2 for Dy read from file:
     /home/jld5415/pp.La/Dy.UPF
     MD5 check sum: 9597327bec62616a94a14d07f3fd9936
     Pseudo is Norm-conserving, Zval = 20.0
     Generated in analytical, separable form
     Using radial grid of 1265 points,  6 beta functions with:
                l(1) =   0
                l(2) =   0
                l(3) =   1
                l(4) =   1
                l(5) =   2
                l(6) =   3

     atomic species   valence    mass     pseudopotential
        Cr            24.00    51.99610     Yb( 1.00)
        Si            20.00    28.08550     Dy( 1.00)

     48 Sym. Ops., with inversion, found (24 have fractional translation)

   Cartesian axes

     site n.     atom                  positions (alat units)
         1           Cr  tau(   1) = (   0.0000000   0.5000000   0.2500000  )
         2           Cr  tau(   2) = (   0.0000000   0.5000000   0.7500000  )
         3           Cr  tau(   3) = (   0.5000000   0.7500000   0.0000000  )
         4           Cr  tau(   4) = (   0.5000000   0.2500000   0.0000000  )
         5           Cr  tau(   5) = (   0.7500000   0.0000000   0.5000000  )
         6           Cr  tau(   6) = (   0.2500000   0.0000000   0.5000000  )
         7           Si  tau(   7) = (   0.5000000   0.5000000   0.5000000  )
         8           Si  tau(   8) = (   0.0000000   0.0000000   0.0000000  )

     number of k points=    48  gaussian smearing, width (Ry)=  0.1000
                       cart. coord. in units 2pi/alat
        k(    1) = (   0.0000000   0.0000000   0.0000000), wk =   0.0095238
        k(    2) = (   0.0000000   0.0000000   0.1428571), wk =   0.0190476
        k(    3) = (   0.0000000   0.0000000   0.2857143), wk =   0.0190476
        k(    4) = (   0.0000000   0.0000000   0.4285714), wk =   0.0190476
        k(    5) = (   0.0000000   0.1666667   0.0000000), wk =   0.0190476
        k(    6) = (   0.0000000   0.1666667   0.1428571), wk =   0.0380952
        k(    7) = (   0.0000000   0.1666667   0.2857143), wk =   0.0380952
        k(    8) = (   0.0000000   0.1666667   0.4285714), wk =   0.0380952
        k(    9) = (   0.0000000   0.3333333   0.0000000), wk =   0.0190476
        k(   10) = (   0.0000000   0.3333333   0.1428571), wk =   0.0380952
        k(   11) = (   0.0000000   0.3333333   0.2857143), wk =   0.0380952
        k(   12) = (   0.0000000   0.3333333   0.4285714), wk =   0.0380952
        k(   13) = (   0.0000000  -0.5000000   0.0000000), wk =   0.0095238
        k(   14) = (   0.0000000  -0.5000000   0.1428571), wk =   0.0190476
        k(   15) = (   0.0000000  -0.5000000   0.2857143), wk =   0.0190476
        k(   16) = (   0.0000000  -0.5000000   0.4285714), wk =   0.0190476
        k(   17) = (   0.2000000   0.0000000   0.0000000), wk =   0.0190476
        k(   18) = (   0.2000000   0.0000000   0.1428571), wk =   0.0380952
        k(   19) = (   0.2000000   0.0000000   0.2857143), wk =   0.0380952
        k(   20) = (   0.2000000   0.0000000   0.4285714), wk =   0.0380952
        k(   21) = (   0.2000000   0.1666667   0.0000000), wk =   0.0380952
        k(   22) = (   0.2000000   0.1666667   0.1428571), wk =   0.0761905
        k(   23) = (   0.2000000   0.1666667   0.2857143), wk =   0.0761905
        k(   24) = (   0.2000000   0.1666667   0.4285714), wk =   0.0761905
        k(   25) = (   0.2000000   0.3333333   0.0000000), wk =   0.0380952
        k(   26) = (   0.2000000   0.3333333   0.1428571), wk =   0.0761905
        k(   27) = (   0.2000000   0.3333333   0.2857143), wk =   0.0761905
        k(   28) = (   0.2000000   0.3333333   0.4285714), wk =   0.0761905
        k(   29) = (   0.2000000  -0.5000000   0.0000000), wk =   0.0190476
        k(   30) = (   0.2000000  -0.5000000   0.1428571), wk =   0.0380952
        k(   31) = (   0.2000000  -0.5000000   0.2857143), wk =   0.0380952
        k(   32) = (   0.2000000  -0.5000000   0.4285714), wk =   0.0380952
        k(   33) = (   0.4000000   0.0000000   0.0000000), wk =   0.0190476
        k(   34) = (   0.4000000   0.0000000   0.1428571), wk =   0.0380952
        k(   35) = (   0.4000000   0.0000000   0.2857143), wk =   0.0380952
        k(   36) = (   0.4000000   0.0000000   0.4285714), wk =   0.0380952
        k(   37) = (   0.4000000   0.1666667   0.0000000), wk =   0.0380952
        k(   38) = (   0.4000000   0.1666667   0.1428571), wk =   0.0761905
        k(   39) = (   0.4000000   0.1666667   0.2857143), wk =   0.0761905
        k(   40) = (   0.4000000   0.1666667   0.4285714), wk =   0.0761905
        k(   41) = (   0.4000000   0.3333333   0.0000000), wk =   0.0380952
        k(   42) = (   0.4000000   0.3333333   0.1428571), wk =   0.0761905
        k(   43) = (   0.4000000   0.3333333   0.2857143), wk =   0.0761905
        k(   44) = (   0.4000000   0.3333333   0.4285714), wk =   0.0761905
        k(   45) = (   0.4000000  -0.5000000   0.0000000), wk =   0.0190476
        k(   46) = (   0.4000000  -0.5000000   0.1428571), wk =   0.0380952
        k(   47) = (   0.4000000  -0.5000000   0.2857143), wk =   0.0380952
        k(   48) = (   0.4000000  -0.5000000   0.4285714), wk =   0.0380952

     Largest allocated arrays     est. size (Mb)     dimensions
     Largest temporary arrays     est. size (Mb)     dimensions

     Initial potential from superposition of free atoms

     Starting from uniform charge
     Starting wfc are    0 randomized atomic wfcs

     Self-consistent Calculation

     iteration #  1     ecut=    40.00 Ry     beta=0.70
     CG style diagonalization
     ethr =  1.00E-02,  avg # of iterations = 18.2

     total energy              =   -2476.01596600 Ry
     Harris-Foulkes estimate   =   -3501.03315677 Ry
     estimated scf accuracy    <    1266.31690428 Ry

     iteration #  2     ecut=    40.00 Ry     beta=0.70
     CG style diagonalization
     c_bands:  3 eigenvalues not converged
     c_bands:  2 eigenvalues not converged
     c_bands:  2 eigenvalues not converged
     c_bands:  1 eigenvalues not converged
     c_bands:  1 eigenvalues not converged
     c_bands:  4 eigenvalues not converged
     c_bands:  5 eigenvalues not converged
     c_bands:  2 eigenvalues not converged
     c_bands:  4 eigenvalues not converged
     c_bands:  3 eigenvalues not converged
     c_bands:  2 eigenvalues not converged
     c_bands:  2 eigenvalues not converged
     c_bands:  2 eigenvalues not converged
     c_bands:  2 eigenvalues not converged
     c_bands:  3 eigenvalues not converged
     c_bands:  4 eigenvalues not converged
     c_bands:  4 eigenvalues not converged
     c_bands:  5 eigenvalues not converged
     c_bands:  2 eigenvalues not converged
     c_bands:  3 eigenvalues not converged
     c_bands:  1 eigenvalues not converged
     c_bands:  3 eigenvalues not converged
     c_bands:  5 eigenvalues not converged
     c_bands:  2 eigenvalues not converged
     c_bands:  2 eigenvalues not converged
     c_bands:  4 eigenvalues not converged
     c_bands:  4 eigenvalues not converged
     c_bands:  2 eigenvalues not converged
     c_bands:  1 eigenvalues not converged
     ethr =  1.00E-02,  avg # of iterations = 13.2

[...]

     End of self-consistent calculation

          k = 0.0000 0.0000 0.0000 (  2601 PWs)   bands (ev):

   -72.1466 -72.1466 -71.9157 -71.7508 -71.7508 -71.7508 -33.2109 -33.1514
   -31.9689 -31.9689 -31.8765 -31.0063 -31.0063 -31.0063 -30.8405 -30.8405
   -30.8405 -30.7817 -30.7817 -30.7817 -30.7433 -30.7433 -30.7433 -30.6443
   -30.6443 -30.6443  -0.6125  -0.6125  -0.6125  -0.5976  -0.5976  -0.5976
    21.3862  21.3862  21.3870  23.0621  23.0621  23.0621  24.5773  24.5773
    24.5773  24.7841  25.4477  25.4477  25.4651  25.5779  25.5779  25.5779
    26.7623  26.7623  26.7623  27.6267  27.6267  27.7693  27.7693  27.7693
    27.7947  27.7947  27.7947  28.2211  28.7365  28.7365  28.7365  33.8777
    33.8777  38.0713  38.0713  38.4225  38.4225  38.4225  38.6365  38.6365
    38.6365  39.2585  39.2585  39.2585  42.9261  44.9956  44.9956  47.3553
    47.3553  47.3553  48.2561  48.2561  50.1397  50.1397  50.1397  50.9407
    52.4703  52.4703  52.4703  52.9976  53.8835  53.8835  53.8835  54.6080
    54.6080  54.6080  55.7442  55.7442  55.7442  58.3561  59.7128  59.7129
    59.7130  60.0155  60.0155  61.9860  61.9861  61.9878

[...]

     the Fermi energy is    53.8328 ev

!    total energy              =   -2966.52172087 Ry
     Harris-Foulkes estimate   =   -2966.52173639 Ry
     estimated scf accuracy    <       0.00002263 Ry

     The total energy is the sum of the following terms:

     one-electron contribution =    -178.46512398 Ry
     hartree contribution      =     328.36083563 Ry
     xc contribution           =    -249.87774705 Ry
     ewald contribution        =   -2866.17616520 Ry
     smearing contrib. (-TS)   =      -0.36352027 Ry

     convergence has been achieved in   8 iterations

     Forces acting on atoms (Ry/au):

[...]

     resetting bfgs history

     Message from routine bfgs:
     history already reset at previous step: stopping
     new conv_thr            =       0.0000010000 Ry

     new unit-cell volume =   1042.97916 a.u.^3 (   154.55356 Ang^3 )

[...]

ATOMIC_POSITIONS (crystal)
Cr       0.000000000   0.500000000   0.250000000
Cr       0.000000000   0.500000000   0.750000000
Cr       0.500000000   0.750000000   0.000000000
Cr       0.500000000   0.250000000   0.000000000
Cr       0.750000000   0.000000000   0.500000000
Cr       0.250000000   0.000000000   0.500000000
Si       0.500000000   0.500000000   0.500000000
Si       0.000000000   0.000000000   0.000000000

     Writing output data file Prototype-La-cP8-Cr3Si.save
     NEW-OLD atomic charge density approx. for the potential
     NEW k-points:
        k(    1) = (   0.0000000   0.0000000   0.0000000), wk =   0.0095238
        k(    2) = (   0.0000000   0.0000000   0.1202242), wk =   0.0190476
        k(    3) = (   0.0000000   0.0000000   0.2404484), wk =   0.0190476
        k(    4) = (   0.0000000   0.0000000   0.3606726), wk =   0.0190476
        k(    5) = (   0.0000000   0.1402616   0.0000000), wk =   0.0190476
        k(    6) = (   0.0000000   0.1402616   0.1202242), wk =   0.0380952
        k(    7) = (   0.0000000   0.1402616   0.2404484), wk =   0.0380952
        k(    8) = (   0.0000000   0.1402616   0.3606726), wk =   0.0380952
        k(    9) = (   0.0000000   0.2805231   0.0000000), wk =   0.0190476
        k(   10) = (   0.0000000   0.2805231   0.1202242), wk =   0.0380952
        k(   11) = (   0.0000000   0.2805231   0.2404484), wk =   0.0380952
        k(   12) = (   0.0000000   0.2805231   0.3606726), wk =   0.0380952
        k(   13) = (   0.0000000  -0.4207847   0.0000000), wk =   0.0095238
        k(   14) = (   0.0000000  -0.4207847   0.1202242), wk =   0.0190476
        k(   15) = (   0.0000000  -0.4207847   0.2404484), wk =   0.0190476
        k(   16) = (   0.0000000  -0.4207847   0.3606726), wk =   0.0190476
        k(   17) = (   0.1683139   0.0000000   0.0000000), wk =   0.0190476
        k(   18) = (   0.1683139   0.0000000   0.1202242), wk =   0.0380952
        k(   19) = (   0.1683139   0.0000000   0.2404484), wk =   0.0380952
        k(   20) = (   0.1683139   0.0000000   0.3606726), wk =   0.0380952
        k(   21) = (   0.1683139   0.1402616   0.0000000), wk =   0.0380952
        k(   22) = (   0.1683139   0.1402616   0.1202242), wk =   0.0761905
        k(   23) = (   0.1683139   0.1402616   0.2404484), wk =   0.0761905
        k(   24) = (   0.1683139   0.1402616   0.3606726), wk =   0.0761905
        k(   25) = (   0.1683139   0.2805231   0.0000000), wk =   0.0380952
        k(   26) = (   0.1683139   0.2805231   0.1202242), wk =   0.0761905
        k(   27) = (   0.1683139   0.2805231   0.2404484), wk =   0.0761905
        k(   28) = (   0.1683139   0.2805231   0.3606726), wk =   0.0761905
        k(   29) = (   0.1683139  -0.4207847   0.0000000), wk =   0.0190476
        k(   30) = (   0.1683139  -0.4207847   0.1202242), wk =   0.0380952
        k(   31) = (   0.1683139  -0.4207847   0.2404484), wk =   0.0380952
        k(   32) = (   0.1683139  -0.4207847   0.3606726), wk =   0.0380952
        k(   33) = (   0.3366278   0.0000000   0.0000000), wk =   0.0190476
        k(   34) = (   0.3366278   0.0000000   0.1202242), wk =   0.0380952
        k(   35) = (   0.3366278   0.0000000   0.2404484), wk =   0.0380952
        k(   36) = (   0.3366278   0.0000000   0.3606726), wk =   0.0380952
        k(   37) = (   0.3366278   0.1402616   0.0000000), wk =   0.0380952
        k(   38) = (   0.3366278   0.1402616   0.1202242), wk =   0.0761905
        k(   39) = (   0.3366278   0.1402616   0.2404484), wk =   0.0761905
        k(   40) = (   0.3366278   0.1402616   0.3606726), wk =   0.0761905
        k(   41) = (   0.3366278   0.2805231   0.0000000), wk =   0.0380952
        k(   42) = (   0.3366278   0.2805231   0.1202242), wk =   0.0761905
        k(   43) = (   0.3366278   0.2805231   0.2404484), wk =   0.0761905
        k(   44) = (   0.3366278   0.2805231   0.3606726), wk =   0.0761905
        k(   45) = (   0.3366278  -0.4207847   0.0000000), wk =   0.0190476
        k(   46) = (   0.3366278  -0.4207847   0.1202242), wk =   0.0380952
        k(   47) = (   0.3366278  -0.4207847   0.2404484), wk =   0.0380952
        k(   48) = (   0.3366278  -0.4207847   0.3606726), wk =   0.0380952

[...]

          total   stress  (Ry/bohr**3)                   (kbar)     P=-1407.51
  -0.00956809   0.00000000   0.00000000      -1407.51      0.00      0.00
   0.00000000  -0.00956809   0.00000000          0.00  -1407.51      0.00
   0.00000000   0.00000000  -0.00956809          0.00      0.00  -1407.51

     The maximum number of steps has been reached.

     End of BFGS Geometry Optimization
Begin final coordinates
     new unit-cell volume =   1042.97916 a.u.^3 (   154.55356 Ang^3 )

CELL_PARAMETERS (alat=  8.53457320)
   1.188256148   0.000000000   0.000000000
   0.000000000   1.188256148   0.000000000
   0.000000000   0.000000000   1.188256148

ATOMIC_POSITIONS (crystal)
Cr       0.000000000   0.500000000   0.250000000
Cr       0.000000000   0.500000000   0.750000000
Cr       0.500000000   0.750000000   0.000000000
Cr       0.500000000   0.250000000   0.000000000
Cr       0.750000000   0.000000000   0.500000000
Cr       0.250000000   0.000000000   0.500000000
Si       0.500000000   0.500000000   0.500000000
Si       0.000000000   0.000000000   0.000000000
End final coordinates

     A final scf calculation at the relaxed structure.
     The G-vectors are recalculated for the final unit cell
     Results may differ from those at the preceding step.

     bravais-lattice index     =            0
     lattice parameter (alat)  =       8.5346  a.u.
     unit-cell volume          =    1042.9792 (a.u.)^3
     number of atoms/cell      =            8
     number of atomic types    =            2
     number of electrons       =       184.00
     number of Kohn-Sham states=          110
     kinetic-energy cutoff     =      40.0000  Ry
     charge density cutoff     =     160.0000  Ry
     convergence threshold     =      1.0E-06
     mixing beta               =       0.7000
     number of iterations used =            8  plain     mixing
     Exchange-correlation      = SLA-PZ-NOGX-NOGC ( 1 1 0 0 0)
     EXX-fraction              =        0.00

     celldm(1)=   8.534573  celldm(2)=   0.000000  celldm(3)=   0.000000
     celldm(4)=   0.000000  celldm(5)=   0.000000  celldm(6)=   0.000000

     crystal axes: (cart. coord. in units of alat)
               a(1) = (   1.188256   0.000000   0.000000 )
               a(2) = (   0.000000   1.188256   0.000000 )
               a(3) = (   0.000000   0.000000   1.188256 )

     reciprocal axes: (cart. coord. in units 2 pi/alat)
               b(1) = (  0.841569  0.000000  0.000000 )
               b(2) = (  0.000000  0.841569  0.000000 )
               b(3) = (  0.000000  0.000000  0.841569 )

     PseudoPot. # 1 for Yb read from file:
     /home/jld5415/pp.La/Yb.UPF
     MD5 check sum: 3e859b81cc28c53ec6aa3a2e888efcdf
     Pseudo is Norm-conserving, Zval = 24.0
     Generated in analytical, separable form
     Using radial grid of 1269 points,  6 beta functions with:
                l(1) =   0
                l(2) =   0
                l(3) =   1
                l(4) =   1
                l(5) =   2
                l(6) =   3

     PseudoPot. # 2 for Dy read from file:
     /home/jld5415/pp.La/Dy.UPF
     MD5 check sum: 9597327bec62616a94a14d07f3fd9936
     Pseudo is Norm-conserving, Zval = 20.0
     Generated in analytical, separable form
     Using radial grid of 1265 points,  6 beta functions with:
                l(1) =   0
                l(2) =   0
                l(3) =   1
                l(4) =   1
                l(5) =   2
                l(6) =   3

     atomic species   valence    mass     pseudopotential
        Cr            24.00    51.99610     Yb( 1.00)
        Si            20.00    28.08550     Dy( 1.00)

     48 Sym. Ops., with inversion, found (24 have fractional translation)

   Cartesian axes

     site n.     atom                  positions (alat units)
         1           Cr  tau(   1) = (   0.0000000   0.5941281   0.2970640  )
         2           Cr  tau(   2) = (   0.0000000   0.5941281   0.8911921  )
         3           Cr  tau(   3) = (   0.5941281   0.8911921   0.0000000  )
         4           Cr  tau(   4) = (   0.5941281   0.2970640   0.0000000  )
         5           Cr  tau(   5) = (   0.8911921   0.0000000   0.5941281  )
         6           Cr  tau(   6) = (   0.2970640   0.0000000   0.5941281  )
         7           Si  tau(   7) = (   0.5941281   0.5941281   0.5941281  )
         8           Si  tau(   8) = (   0.0000000   0.0000000   0.0000000  )

     number of k points=    48  gaussian smearing, width (Ry)=  0.1000
                       cart. coord. in units 2pi/alat
        k(    1) = (   0.0000000   0.0000000   0.0000000), wk =   0.0095238
        k(    2) = (   0.0000000   0.0000000   0.1202242), wk =   0.0190476
        k(    3) = (   0.0000000   0.0000000   0.2404484), wk =   0.0190476
        k(    4) = (   0.0000000   0.0000000   0.3606726), wk =   0.0190476
        k(    5) = (   0.0000000   0.1402616   0.0000000), wk =   0.0190476
        k(    6) = (   0.0000000   0.1402616   0.1202242), wk =   0.0380952
        k(    7) = (   0.0000000   0.1402616   0.2404484), wk =   0.0380952
        k(    8) = (   0.0000000   0.1402616   0.3606726), wk =   0.0380952
        k(    9) = (   0.0000000   0.2805231   0.0000000), wk =   0.0190476
        k(   10) = (   0.0000000   0.2805231   0.1202242), wk =   0.0380952
        k(   11) = (   0.0000000   0.2805231   0.2404484), wk =   0.0380952
        k(   12) = (   0.0000000   0.2805231   0.3606726), wk =   0.0380952
        k(   13) = (   0.0000000  -0.4207847   0.0000000), wk =   0.0095238
        k(   14) = (   0.0000000  -0.4207847   0.1202242), wk =   0.0190476
        k(   15) = (   0.0000000  -0.4207847   0.2404484), wk =   0.0190476
        k(   16) = (   0.0000000  -0.4207847   0.3606726), wk =   0.0190476
        k(   17) = (   0.1683139   0.0000000   0.0000000), wk =   0.0190476
        k(   18) = (   0.1683139   0.0000000   0.1202242), wk =   0.0380952
        k(   19) = (   0.1683139   0.0000000   0.2404484), wk =   0.0380952
        k(   20) = (   0.1683139   0.0000000   0.3606726), wk =   0.0380952
        k(   21) = (   0.1683139   0.1402616   0.0000000), wk =   0.0380952
        k(   22) = (   0.1683139   0.1402616   0.1202242), wk =   0.0761905
        k(   23) = (   0.1683139   0.1402616   0.2404484), wk =   0.0761905
        k(   24) = (   0.1683139   0.1402616   0.3606726), wk =   0.0761905
        k(   25) = (   0.1683139   0.2805231   0.0000000), wk =   0.0380952
        k(   26) = (   0.1683139   0.2805231   0.1202242), wk =   0.0761905
        k(   27) = (   0.1683139   0.2805231   0.2404484), wk =   0.0761905
        k(   28) = (   0.1683139   0.2805231   0.3606726), wk =   0.0761905
        k(   29) = (   0.1683139  -0.4207847   0.0000000), wk =   0.0190476
        k(   30) = (   0.1683139  -0.4207847   0.1202242), wk =   0.0380952
        k(   31) = (   0.1683139  -0.4207847   0.2404484), wk =   0.0380952
        k(   32) = (   0.1683139  -0.4207847   0.3606726), wk =   0.0380952
        k(   33) = (   0.3366278   0.0000000   0.0000000), wk =   0.0190476
        k(   34) = (   0.3366278   0.0000000   0.1202242), wk =   0.0380952
        k(   35) = (   0.3366278   0.0000000   0.2404484), wk =   0.0380952
        k(   36) = (   0.3366278   0.0000000   0.3606726), wk =   0.0380952
        k(   37) = (   0.3366278   0.1402616   0.0000000), wk =   0.0380952
        k(   38) = (   0.3366278   0.1402616   0.1202242), wk =   0.0761905
        k(   39) = (   0.3366278   0.1402616   0.2404484), wk =   0.0761905
        k(   40) = (   0.3366278   0.1402616   0.3606726), wk =   0.0761905
        k(   41) = (   0.3366278   0.2805231   0.0000000), wk =   0.0380952
        k(   42) = (   0.3366278   0.2805231   0.1202242), wk =   0.0761905
        k(   43) = (   0.3366278   0.2805231   0.2404484), wk =   0.0761905
        k(   44) = (   0.3366278   0.2805231   0.3606726), wk =   0.0761905
        k(   45) = (   0.3366278  -0.4207847   0.0000000), wk =   0.0190476
        k(   46) = (   0.3366278  -0.4207847   0.1202242), wk =   0.0380952
        k(   47) = (   0.3366278  -0.4207847   0.2404484), wk =   0.0380952
        k(   48) = (   0.3366278  -0.4207847   0.3606726), wk =   0.0380952

     Largest allocated arrays     est. size (Mb)     dimensions
     Largest temporary arrays     est. size (Mb)     dimensions

     Initial potential from superposition of free atoms

     Starting from uniform charge
     Starting wfc are    0 randomized atomic wfcs

     Writing output data file Prototype-La-cP8-Cr3Si.save

     Self-consistent Calculation

[...]

     iteration #  8     ecut=    40.00 Ry     beta=0.70
     CG style diagonalization
     c_bands:  1 eigenvalues not converged
     c_bands:  1 eigenvalues not converged
     c_bands:  1 eigenvalues not converged
     c_bands:  1 eigenvalues not converged
     c_bands:  2 eigenvalues not converged
     c_bands:  1 eigenvalues not converged
     c_bands:  1 eigenvalues not converged
     c_bands:  1 eigenvalues not converged
     c_bands:  1 eigenvalues not converged
     ethr =  7.61E-07,  avg # of iterations =  3.6

[...]

     total energy              =   -2977.19664465 Ry
     Harris-Foulkes estimate   =   -2977.19664596 Ry
     estimated scf accuracy    <       0.00000244 Ry

     iteration # 10     ecut=    40.00 Ry     beta=0.70
     CG style diagonalization
     ethr =  1.33E-09,  avg # of iterations =  4.1

     End of self-consistent calculation

[...]

          k = 0.3366-0.4208 0.3607 (  4470 PWs)   bands (ev):

   -93.4326 -93.4299 -93.4209 -93.4191 -93.4077 -93.4024 -52.5080 -52.5078
   -52.3659 -52.3609 -52.3407 -52.3407 -52.3168 -52.3103 -52.1686 -52.1686
   -52.1671 -52.1670 -52.1662 -52.1650 -52.1627 -52.1621 -52.1618 -52.1606
   -52.1594 -52.1589 -19.5020 -19.5020 -19.4985 -19.4984 -19.4981 -19.4979
     4.9374   5.0390   5.2953   5.2963   5.3695   5.3743   5.3983   5.4088
     5.4906   5.4936   5.5272   5.5455   5.5508   5.5813   5.6123   5.6228
     5.7411   5.7413   5.8339   5.8387   5.8477   5.8601   5.8743   5.8915
     5.9576   5.9630   5.9827   5.9832   6.0079   6.0218  16.1377  16.1431
    16.7726  16.7733  17.2953  17.3051  20.7481  20.7490  20.9252  20.9274
    20.9488  20.9502  21.6025  21.6274  21.7512  21.7567  21.8513  21.8602
    27.1487  27.3484  27.9696  28.0577  28.9367  29.3396  29.9177  30.0164
    30.4729  30.5789  31.0762  31.3287  31.5422  31.5577  31.8843  32.0718
    32.2918  32.3325  33.6889  33.7154  34.2218  34.3059  34.5844  34.5888
    38.0322  38.1748  38.4973  38.5259  38.8315  38.9142

     the Fermi energy is    31.0995 ev

!    total energy              =   -2977.19664540 Ry
     Harris-Foulkes estimate   =   -2977.19664557 Ry
     estimated scf accuracy    <       0.00000023 Ry

     The total energy is the sum of the following terms:

     one-electron contribution =    -838.64868448 Ry
     hartree contribution      =     514.45549975 Ry
     xc contribution           =    -240.58763494 Ry
     ewald contribution        =   -2412.08612214 Ry
     smearing contrib. (-TS)   =      -0.32970359 Ry

     convergence has been achieved in  10 iterations

     Forces acting on atoms (Ry/au):

     atom    1 type  1   force =     0.00000000    0.00000000    0.00000000
     atom    2 type  1   force =     0.00000000    0.00000000    0.00000000
     atom    3 type  1   force =     0.00000000    0.00000000    0.00000000
     atom    4 type  1   force =     0.00000000    0.00000000    0.00000000
     atom    5 type  1   force =     0.00000000    0.00000000    0.00000000
     atom    6 type  1   force =     0.00000000    0.00000000    0.00000000
     atom    7 type  2   force =     0.00000000    0.00000000    0.00000000
     atom    8 type  2   force =     0.00000000    0.00000000    0.00000000

     Total force =     0.000000     Total SCF correction =     0.000000

     entering subroutine stress ...

          total   stress  (Ry/bohr**3)                   (kbar)     P=  406.47
   0.00276315   0.00000000   0.00000000        406.47      0.00      0.00
   0.00000000   0.00276315   0.00000000          0.00    406.47      0.00
   0.00000000   0.00000000   0.00276315          0.00      0.00    406.47

     Writing output data file Prototype-La-cP8-Cr3Si.save

     General routines

     Parallel routines

   This run was terminated on:  12:39:17  22Mar2018

   JOB DONE.