     Program PWSCF v.5.0.2 starts on 22Mar2018 at 12: 9:38

     Current dimensions of program PWSCF are:
     Max number of different atomic species (ntypx) = 10
     Max number of k-points (npk) =  40000
     Max angular momentum in pseudopotentials (lmaxx) =  3
     Waiting for input...
     Reading input from standard input

     Subspace diagonalization in iterative solution of the eigenvalue problem:
     a serial algorithm will be used

     bravais-lattice index     =            0
     lattice parameter (alat)  =       9.9235  a.u.
     unit-cell volume          =    1361.0366 (a.u.)^3
     number of atoms/cell      =           12
     number of atomic types    =            2
     number of electrons       =       264.00
     number of Kohn-Sham states=          158
     kinetic-energy cutoff     =      40.0000  Ry
     charge density cutoff     =     160.0000  Ry
     convergence threshold     =      1.0E-04
     mixing beta               =       0.7000
     number of iterations used =            8  plain     mixing
     Exchange-correlation      = SLA-PZ-NOGX-NOGC ( 1 1 0 0 0)
     EXX-fraction              =        0.00
     nstep                     =           50

     celldm(1)=   9.923489  celldm(2)=   0.000000  celldm(3)=   0.000000
     celldm(4)=   0.000000  celldm(5)=   0.000000  celldm(6)=   0.000000

     crystal axes: (cart. coord. in units of alat)
               a(1) = (   1.000000   0.000000   0.000000 )
               a(2) = (  -0.500000   0.866025   0.000000 )
               a(3) = (   0.000000   0.000000   1.608222 )

     reciprocal axes: (cart. coord. in units 2 pi/alat)
               b(1) = (  1.000000  0.577350  0.000000 )
               b(2) = (  0.000000  1.154701  0.000000 )
               b(3) = (  0.000000  0.000000  0.621805 )

     PseudoPot. # 1 for Yb read from file:
     /home/jld5415/pp.La/Yb.UPF
     MD5 check sum: 3e859b81cc28c53ec6aa3a2e888efcdf
     Pseudo is Norm-conserving, Zval = 24.0
     Generated in analytical, separable form
     Using radial grid of 1269 points,  6 beta functions with:
                l(1) =   0
                l(2) =   0
                l(3) =   1
                l(4) =   1
                l(5) =   2
                l(6) =   3

     PseudoPot. # 2 for Ho read from file:
     /home/jld5415/pp.La/Ho.UPF
     MD5 check sum: f307ee11bce99f5b724fa279e3790763
     Pseudo is Norm-conserving, Zval = 21.0
     Generated in analytical, separable form
     Using radial grid of 1265 points,  6 beta functions with:
                l(1) =   0
                l(2) =   0
                l(3) =   1
                l(4) =   1
                l(5) =   2
                l(6) =   3

     atomic species   valence    mass     pseudopotential
        Mg            24.00    24.30500     Yb( 1.00)
        Zn            21.00    65.39000     Ho( 1.00)

     24 Sym. Ops., with inversion, found (12 have fractional translation)

   Cartesian axes

     site n.     atom                  positions (alat units)
         1           Mg  tau(   1) = (  -0.0000005   0.5773506   0.1003820  )
         2           Mg  tau(   2) = (   0.5000005   0.2886748   0.9044931  )
         3           Mg  tau(   3) = (   0.5000005   0.2886748   1.5078402  )
         4           Mg  tau(   4) = (  -0.0000005   0.5773506   0.7037291  )
         5           Zn  tau(   5) = (   0.0000000   0.0000000   0.0000000  )
         6           Zn  tau(   6) = (   0.0000000   0.0000000   0.8041111  )
         7           Zn  tau(   7) = (   0.0000000   0.2950739   1.2061667  )
         8           Zn  tau(   8) = (   0.7444585   0.1475370   0.4020556  )
         9           Zn  tau(   9) = (   0.2555415   0.1475370   0.4020556  )
        10           Zn  tau(  10) = (   0.2444585   0.7184884   1.2061667  )
        11           Zn  tau(  11) = (  -0.2444585   0.7184884   1.2061667  )
        12           Zn  tau(  12) = (   0.5000000   0.5709515   0.4020556  )

     number of k points=    12  gaussian smearing, width (Ry)=  0.1000
                       cart. coord. in units 2pi/alat
        k(    1) = (   0.0000000   0.0000000   0.0000000), wk =   0.0833333
        k(    2) = (   0.0000000   0.0000000   0.1554512), wk =   0.1666667
        k(    3) = (   0.0000000   0.0000000  -0.3109023), wk =   0.0833333
        k(    4) = (   0.0000000   0.3849002   0.0000000), wk =   0.1666667
        k(    5) = (   0.0000000   0.3849002   0.1554512), wk =   0.3333333
        k(    6) = (   0.0000000   0.3849002  -0.3109023), wk =   0.1666667
        k(    7) = (  -0.5000000  -0.2886751   0.0000000), wk =   0.0833333
        k(    8) = (  -0.5000000  -0.2886751   0.1554512), wk =   0.1666667
        k(    9) = (  -0.5000000  -0.2886751  -0.3109023), wk =   0.0833333
        k(   10) = (  -0.5000000   0.0962250   0.0000000), wk =   0.1666667
        k(   11) = (  -0.5000000   0.0962250   0.1554512), wk =   0.3333333
        k(   12) = (  -0.5000000   0.0962250  -0.3109023), wk =   0.1666667

     Largest allocated arrays     est. size (Mb)     dimensions
     Largest temporary arrays     est. size (Mb)     dimensions

     Initial potential from superposition of free atoms

     Starting from uniform charge
     Starting wfc are    0 randomized atomic wfcs

     Self-consistent Calculation

     iteration #  1     ecut=    40.00 Ry     beta=0.70
     CG style diagonalization
     c_bands:  1 eigenvalues not converged
     c_bands:  2 eigenvalues not converged
     c_bands:  1 eigenvalues not converged
     c_bands:  1 eigenvalues not converged
     c_bands:  2 eigenvalues not converged
     c_bands:  2 eigenvalues not converged
     c_bands:  1 eigenvalues not converged
     c_bands:  1 eigenvalues not converged
     ethr =  1.00E-02,  avg # of iterations = 19.1

     total energy              =   -3440.35543755 Ry
     Harris-Foulkes estimate   =   -4910.30038139 Ry
     estimated scf accuracy    <    1837.72598710 Ry

     iteration #  2     ecut=    40.00 Ry     beta=0.70
     CG style diagonalization
     ethr =  1.00E-02,  avg # of iterations =  8.8

[...]

     End of self-consistent calculation

          k = 0.0000 0.0000 0.0000 (  5769 PWs)   bands (ev):

   -88.8171 -88.7949 -88.7875 -88.7233 -58.6755 -58.6260 -58.6242 -58.5338
   -58.5202 -58.5201 -58.5116 -58.5115 -47.6512 -47.6420 -47.6343 -47.6343
   -47.6312 -47.6240 -47.6240 -47.6177 -47.6137 -47.6137 -47.6089 -47.6089
   -23.9683 -23.7585 -23.4797 -23.1439 -23.1439 -23.0957 -23.0957 -23.0303
   -23.0303 -23.0062 -22.8553 -22.7537 -22.7537 -22.7368 -22.7367 -22.5250
   -22.5199 -22.5199 -22.4693 -22.4693 -22.4682 -22.4682 -22.4380 -22.4221
     9.9811   9.9811   9.9970   9.9971  10.0157  10.0157  10.0669  10.0670
    10.1114  10.1114  10.2616  10.2616  10.3035  10.3399  10.3431  10.3431
    10.3467  10.3467  10.4020  10.4020  15.6742  16.3211  16.6250  17.2772
    17.7675  17.7675  17.9873  17.9873  18.0793  18.0793  18.1162  18.6605
    18.7181  18.7181  19.1031  19.6285  19.7086  19.7086  19.8308  19.8308
    20.5086  20.6055  20.6055  21.3496  21.3496  21.5989  21.7333  21.9330
    21.9513  21.9513  22.0045  22.0422  22.0422  22.1852  22.1852  22.2485
    22.2486  23.2734  23.2735  23.7055  23.7056  24.4896  24.4909  25.6722
    25.9841  27.3675  27.9375  27.9377  28.4642  28.6516  28.6516  29.2050
    30.0757  30.4286  30.4288  30.8256  30.9562  30.9564  31.3509  32.6130
    32.6130  34.5079  34.5080  34.7078  35.4540  36.7730  36.8338  36.8340
    37.3131  37.3132  37.5589  37.5590  37.9673  38.4885  38.4886  38.6276
    38.6276  38.7851  39.2677  40.6608  40.9119  40.9121  41.0890  41.2423
    41.8695  42.3274  42.3274  43.5958  43.7724  43.7990

[...]

          k =-0.5000-0.2887 0.0000 (  5800 PWs)   bands (ev):

[...]

     the Fermi energy is    35.6751 ev

!    total energy              =   -3982.25619644 Ry
     Harris-Foulkes estimate   =   -3982.25623573 Ry
     estimated scf accuracy    <       0.00004376 Ry

     The total energy is the sum of the following terms:

     one-electron contribution =    -788.61453680 Ry
     hartree contribution      =     600.55730782 Ry
     xc contribution           =    -339.51016743 Ry
     ewald contribution        =   -3454.29212759 Ry
     smearing contrib. (-TS)   =      -0.39667244 Ry

     convergence has been achieved in  11 iterations

     Forces acting on atoms (Ry/au):

     atom    1 type  1   force =     0.00000000    0.00000000    0.00251643
     atom    2 type  1   force =     0.00000000    0.00000000    0.00251643
     atom    3 type  1   force =     0.00000000    0.00000000   -0.00251643
     atom    4 type  1   force =     0.00000000    0.00000000   -0.00251643
     atom    5 type  2   force =     0.00000000    0.00000000    0.00000000
     atom    6 type  2   force =     0.00000000    0.00000000    0.00000000
     atom    7 type  2   force =     0.00000000    0.08036089    0.00000000
     atom    8 type  2   force =    -0.06959458    0.04018045    0.00000000
     atom    9 type  2   force =     0.06959458    0.04018045    0.00000000
     atom   10 type  2   force =    -0.06959458   -0.04018045    0.00000000
     atom   11 type  2   force =     0.06959458   -0.04018045    0.00000000
     atom   12 type  2   force =     0.00000000   -0.08036089    0.00000000

     Total force =     0.196908     Total SCF correction =     0.000000

     entering subroutine stress ...

          total   stress  (Ry/bohr**3)                   (kbar)     P= 1198.36
   0.00820768   0.00000000   0.00000000       1207.39      0.00      0.00
   0.00000000   0.00820768   0.00000000          0.00   1207.39      0.00
   0.00000000   0.00000000   0.00802350          0.00      0.00   1180.30

     BFGS Geometry Optimization

     number of scf cycles    =   1
     number of bfgs steps    =   0

     enthalpy new            =   -3982.2561964351 Ry

     new trust radius        =       0.5000000000 bohr
     new conv_thr            =       0.0001000000 Ry

     new unit-cell volume =   1654.54226 a.u.^3 (   245.17786 Ang^3 )

CELL_PARAMETERS (alat=  9.92348860)
   1.067764947   0.000000000   0.000000000
  -0.533882474   0.924711570   0.000000000
   0.000000000   0.000000000   1.714757805

ATOMIC_POSITIONS (crystal)
Mg       0.333333000   0.666667000   0.062470074
Mg       0.666667000   0.333333000   0.562470074
Mg       0.666667000   0.333333000   0.937529926
Mg       0.333333000   0.666667000   0.437529926
Zn       0.000000000   0.000000000   0.000000000
Zn       0.000000000   0.000000000   0.500000000
Zn       0.171905061   0.343810123   0.750000000
Zn       0.828094939   0.171905061   0.250000000
Zn       0.343810123   0.171905061   0.250000000
Zn       0.656189877   0.828094939   0.750000000
Zn       0.171905061   0.828094939   0.750000000
Zn       0.828094939   0.656189877   0.250000000

     Writing output data file Prototype-La-hP12-MgZn2.save
     NEW-OLD atomic charge density approx. for the potential
     NEW k-points:
        k(    1) = (   0.0000000   0.0000000   0.0000000), wk =   0.0833333
        k(    2) = (   0.0000000   0.0000000   0.1457932), wk =   0.1666667
        k(    3) = (   0.0000000   0.0000000  -0.2915864), wk =   0.0833333
        k(    4) = (   0.0000000   0.3604728   0.0000000), wk =   0.1666667
        k(    5) = (   0.0000000   0.3604728   0.1457932), wk =   0.3333333
        k(    6) = (   0.0000000   0.3604728  -0.2915864), wk =   0.1666667
        k(    7) = (  -0.4682679  -0.2703546   0.0000000), wk =   0.0833333
        k(    8) = (  -0.4682679  -0.2703546   0.1457932), wk =   0.1666667
        k(    9) = (  -0.4682679  -0.2703546  -0.2915864), wk =   0.0833333
        k(   10) = (  -0.4682679   0.0901182   0.0000000), wk =   0.1666667
        k(   11) = (  -0.4682679   0.0901182   0.1457932), wk =   0.3333333
        k(   12) = (  -0.4682679   0.0901182  -0.2915864), wk =   0.1666667

[...]

     enthalpy old            =   -3982.2561964351 Ry
     enthalpy new            =   -3983.0226955735 Ry

     CASE: enthalpy_new < enthalpy_old

     small trust_radius: resetting bfgs history

     new trust radius        =       0.3854884844 bohr
     new conv_thr            =       0.0000173783 Ry

[...]

     number of scf cycles    =   3
     number of bfgs steps    =   2

     enthalpy old            =   -3983.0226955736 Ry
     enthalpy new            =   -3982.7617580206 Ry

     CASE: enthalpy_new > enthalpy_old

     new trust radius        =       0.1156730781 bohr

     trust_radius < trust_radius_min

     resetting bfgs history

     Message from routine bfgs:
     history already reset at previous step: stopping
     new conv_thr            =       0.0000173783 Ry

     new unit-cell volume =   1429.24039 a.u.^3 (   211.79157 Ang^3 )

[...]

ATOMIC_POSITIONS (crystal)
Mg       0.333333000   0.666667000   0.063595471
Mg       0.666667000   0.333333000   0.563595471
Mg       0.666667000   0.333333000   0.936404529
Mg       0.333333000   0.666667000   0.436404529
Zn       0.000000000   0.000000000   0.000000000
Zn       0.000000000   0.000000000   0.500000000
Zn       0.172837563   0.345675127   0.750000000
Zn       0.827162437   0.172837563   0.250000000
Zn       0.345675127   0.172837563   0.250000000
Zn       0.654324873   0.827162437   0.750000000
Zn       0.172837563   0.827162437   0.750000000
Zn       0.827162437   0.654324873   0.250000000

     Writing output data file Prototype-La-hP12-MgZn2.save
     NEW-OLD atomic charge density approx. for the potential
     NEW k-points:
        k(    1) = (   0.0000000   0.0000000   0.0000000), wk =   0.0833333
        k(    2) = (   0.0000000   0.0000000   0.1533764), wk =   0.1666667
        k(    3) = (   0.0000000   0.0000000  -0.3067529), wk =   0.0833333
        k(    4) = (   0.0000000   0.3781360   0.0000000), wk =   0.1666667
        k(    5) = (   0.0000000   0.3781360   0.1533764), wk =   0.3333333
        k(    6) = (   0.0000000   0.3781360  -0.3067529), wk =   0.1666667
        k(    7) = (  -0.4912131  -0.2836020   0.0000000), wk =   0.0833333
        k(    8) = (  -0.4912131  -0.2836020   0.1533764), wk =   0.1666667
        k(    9) = (  -0.4912131  -0.2836020  -0.3067529), wk =   0.0833333
        k(   10) = (  -0.4912131   0.0945340   0.0000000), wk =   0.1666667
        k(   11) = (  -0.4912131   0.0945340   0.1533764), wk =   0.3333333
        k(   12) = (  -0.4912131   0.0945340  -0.3067529), wk =   0.1666667

[...]

     The maximum number of steps has been reached.

     End of BFGS Geometry Optimization
Begin final coordinates
     new unit-cell volume =   1429.24039 a.u.^3 (   211.79157 Ang^3 )

CELL_PARAMETERS (alat=  9.92348860)
   1.017888179   0.000000000   0.000000000
  -0.508944089   0.881517021   0.000000000
   0.000000000   0.000000000   1.629976644

ATOMIC_POSITIONS (crystal)
Mg       0.333333000   0.666667000   0.063595471
Mg       0.666667000   0.333333000   0.563595471
Mg       0.666667000   0.333333000   0.936404529
Mg       0.333333000   0.666667000   0.436404529
Zn       0.000000000   0.000000000   0.000000000
Zn       0.000000000   0.000000000   0.500000000
Zn       0.172837563   0.345675127   0.750000000
Zn       0.827162437   0.172837563   0.250000000
Zn       0.345675127   0.172837563   0.250000000
Zn       0.654324873   0.827162437   0.750000000
Zn       0.172837563   0.827162437   0.750000000
Zn       0.827162437   0.654324873   0.250000000
End final coordinates

     A final scf calculation at the relaxed structure.
     The G-vectors are recalculated for the final unit cell
     Results may differ from those at the preceding step.

     bravais-lattice index     =            0
     lattice parameter (alat)  =       9.9235  a.u.
     unit-cell volume          =    1429.2404 (a.u.)^3
     number of atoms/cell      =           12
     number of atomic types    =            2
     number of electrons       =       264.00
     number of Kohn-Sham states=          158
     kinetic-energy cutoff     =      40.0000  Ry
     charge density cutoff     =     160.0000  Ry
     convergence threshold     =      1.7E-05
     mixing beta               =       0.7000
     number of iterations used =            8  plain     mixing
     Exchange-correlation      = SLA-PZ-NOGX-NOGC ( 1 1 0 0 0)
     EXX-fraction              =        0.00

     celldm(1)=   9.923489  celldm(2)=   0.000000  celldm(3)=   0.000000
     celldm(4)=   0.000000  celldm(5)=   0.000000  celldm(6)=   0.000000

     crystal axes: (cart. coord. in units of alat)
               a(1) = (   1.017888   0.000000   0.000000 )
               a(2) = (  -0.508944   0.881517   0.000000 )
               a(3) = (   0.000000   0.000000   1.629977 )

     reciprocal axes: (cart. coord. in units 2 pi/alat)
               b(1) = (  0.982426  0.567204  0.000000 )
               b(2) = (  0.000000  1.134408  0.000000 )
               b(3) = (  0.000000  0.000000  0.613506 )

     PseudoPot. # 1 for Yb read from file:
     /home/jld5415/pp.La/Yb.UPF
     MD5 check sum: 3e859b81cc28c53ec6aa3a2e888efcdf
     Pseudo is Norm-conserving, Zval = 24.0
     Generated in analytical, separable form
     Using radial grid of 1269 points,  6 beta functions with:
                l(1) =   0
                l(2) =   0
                l(3) =   1
                l(4) =   1
                l(5) =   2
                l(6) =   3

     PseudoPot. # 2 for Ho read from file:
     /home/jld5415/pp.La/Ho.UPF
     MD5 check sum: f307ee11bce99f5b724fa279e3790763
     Pseudo is Norm-conserving, Zval = 21.0
     Generated in analytical, separable form
     Using radial grid of 1265 points,  6 beta functions with:
                l(1) =   0
                l(2) =   0
                l(3) =   1
                l(4) =   1
                l(5) =   2
                l(6) =   3

     atomic species   valence    mass     pseudopotential
        Mg            24.00    24.30500     Yb( 1.00)
        Zn            21.00    65.39000     Ho( 1.00)

     24 Sym. Ops., with inversion, found (12 have fractional translation)

   Cartesian axes

     site n.     atom                  positions (alat units)
         1           Mg  tau(   1) = (  -0.0000005   0.5876783   0.1036591  )
         2           Mg  tau(   2) = (   0.5089446   0.2938387   0.9186475  )
         3           Mg  tau(   3) = (   0.5089446   0.2938387   1.5263175  )
         4           Mg  tau(   4) = (  -0.0000005   0.5876783   0.7113292  )
         5           Zn  tau(   5) = (   0.0000000   0.0000000   0.0000000  )
         6           Zn  tau(   6) = (   0.0000000   0.0000000   0.8149883  )
         7           Zn  tau(   7) = (   0.0000000   0.3047185   1.2224825  )
         8           Zn  tau(   8) = (   0.7539942   0.1523593   0.4074942  )
         9           Zn  tau(   9) = (   0.2638940   0.1523593   0.4074942  )
        10           Zn  tau(  10) = (   0.2450501   0.7291578   1.2224825  )
        11           Zn  tau(  11) = (  -0.2450501   0.7291578   1.2224825  )
        12           Zn  tau(  12) = (   0.5089441   0.5767985   0.4074942  )

     number of k points=    12  gaussian smearing, width (Ry)=  0.1000
                       cart. coord. in units 2pi/alat
        k(    1) = (   0.0000000   0.0000000   0.0000000), wk =   0.0833333
        k(    2) = (   0.0000000   0.0000000   0.1533764), wk =   0.1666667
        k(    3) = (   0.0000000   0.0000000  -0.3067529), wk =   0.0833333
        k(    4) = (   0.0000000   0.3781360   0.0000000), wk =   0.1666667
        k(    5) = (   0.0000000   0.3781360   0.1533764), wk =   0.3333333
        k(    6) = (   0.0000000   0.3781360  -0.3067529), wk =   0.1666667
        k(    7) = (  -0.4912131  -0.2836020   0.0000000), wk =   0.0833333
        k(    8) = (  -0.4912131  -0.2836020   0.1533764), wk =   0.1666667
        k(    9) = (  -0.4912131  -0.2836020  -0.3067529), wk =   0.0833333
        k(   10) = (  -0.4912131   0.0945340   0.0000000), wk =   0.1666667
        k(   11) = (  -0.4912131   0.0945340   0.1533764), wk =   0.3333333
        k(   12) = (  -0.4912131   0.0945340  -0.3067529), wk =   0.1666667

     Largest allocated arrays     est. size (Mb)     dimensions
     Largest temporary arrays     est. size (Mb)     dimensions

     Initial potential from superposition of free atoms

     Starting from uniform charge
     Starting wfc are    0 randomized atomic wfcs

     Writing output data file Prototype-La-hP12-MgZn2.save

     Self-consistent Calculation

[...]

     iteration # 10     ecut=    40.00 Ry     beta=0.70
     CG style diagonalization
     c_bands:  1 eigenvalues not converged
     ethr =  3.68E-07,  avg # of iterations =  4.8

[...]

     total energy              =   -3983.27761278 Ry
     Harris-Foulkes estimate   =   -3983.27764233 Ry
     estimated scf accuracy    <       0.00006016 Ry

     iteration # 12     ecut=    40.00 Ry     beta=0.70
     CG style diagonalization
     ethr =  2.28E-08,  avg # of iterations =  3.4

     End of self-consistent calculation

[...]

          k = 0.0000 0.3781-0.3068 (  6100 PWs)   bands (ev):

[...]

          k =-0.4912 0.0945-0.3068 (  6114 PWs)   bands (ev):

   -90.6508 -90.6508 -90.6367 -90.6367 -60.2095 -60.2095 -60.1856 -60.1856
   -60.1430 -60.1429 -60.1297 -60.1297 -49.4678 -49.4677 -49.4583 -49.4583
   -49.4487 -49.4487 -49.4438 -49.4437 -49.4416 -49.4416 -49.4375 -49.4375
   -25.0841 -25.0841 -24.8729 -24.8729 -24.6082 -24.6082 -24.5518 -24.5518
   -24.5002 -24.5002 -24.4672 -24.4672 -24.3435 -24.3435 -24.2633 -24.2633
   -24.1914 -24.1914 -24.1575 -24.1575 -24.1460 -24.1460 -24.1309 -24.1309
     8.2243   8.2244   8.2635   8.2635   8.3108   8.3109   8.3637   8.3637
     8.3927   8.3927   8.4741   8.4741   8.4936   8.4936   8.5354   8.5354
     8.6172   8.6172   8.6495   8.6495  15.9177  15.9177  16.6067  16.6067
    16.9721  16.9721  17.2074  17.2074  17.3546  17.3546  17.4066  17.4066
    17.9503  17.9503  18.0965  18.0965  18.3600  18.3600  18.5815  18.5815
    18.8662  18.8662  19.1955  19.1955  19.3019  19.3019  19.6235  19.6236
    19.8494  19.8494  20.0161  20.0161  20.2674  20.2674  20.4354  20.4354
    20.5552  20.5552  20.6923  20.6923  21.3770  21.3770  21.6426  21.6426
    22.8799  22.8799  25.1448  25.1449  26.3431  26.3431  27.2912  27.2912
    28.3290  28.3290  29.8792  29.8792  32.0349  32.0350  32.4472  32.4472
    32.9495  32.9495  33.5512  33.5512  34.3942  34.3942  35.4337  35.4337
    36.0207  36.0207  36.4071  36.4071  36.6746  36.6747  37.4923  37.4923
    38.0375  38.0375  38.6567  38.6568  38.6955  38.6955  39.5974  39.5975
    40.2249  40.2250  40.5095  40.5097  40.8505  40.8506

     the Fermi energy is    33.7298 ev

!    total energy              =   -3983.27761925 Ry
     Harris-Foulkes estimate   =   -3983.27762209 Ry
     estimated scf accuracy    <       0.00000338 Ry

     The total energy is the sum of the following terms:

     one-electron contribution =    -869.22773277 Ry
     hartree contribution      =     624.37014161 Ry
     xc contribution           =    -338.48199773 Ry
     ewald contribution        =   -3399.54117794 Ry
     smearing contrib. (-TS)   =      -0.39685241 Ry

     convergence has been achieved in  12 iterations

     Forces acting on atoms (Ry/au):

     atom    1 type  1   force =     0.00000000    0.00000000    0.01376365
     atom    2 type  1   force =     0.00000000    0.00000000    0.01376365
     atom    3 type  1   force =     0.00000000    0.00000000   -0.01376365
     atom    4 type  1   force =     0.00000000    0.00000000   -0.01376365
     atom    5 type  2   force =     0.00000000    0.00000000    0.00000000
     atom    6 type  2   force =     0.00000000    0.00000000    0.00000000
     atom    7 type  2   force =     0.00000000   -0.03287472    0.00000000
     atom    8 type  2   force =     0.02847034   -0.01643736    0.00000000
     atom    9 type  2   force =    -0.02847034   -0.01643736    0.00000000
     atom   10 type  2   force =     0.02847034    0.01643736    0.00000000
     atom   11 type  2   force =    -0.02847034    0.01643736    0.00000000
     atom   12 type  2   force =     0.00000000    0.03287472    0.00000000

     Total force =     0.085101     Total SCF correction =     0.000000

     entering subroutine stress ...

          total   stress  (Ry/bohr**3)                   (kbar)     P=  870.48
   0.00605013   0.00000000   0.00000000        890.00      0.00      0.00
   0.00000000   0.00605013   0.00000000          0.00    890.00      0.00
   0.00000000   0.00000000   0.00565201          0.00      0.00    831.44

     Writing output data file Prototype-La-hP12-MgZn2.save

     General routines

     Parallel routines

   This run was terminated on:  12:40:24  22Mar2018

   JOB DONE.