     Program PWSCF v.5.0.2 starts on 22Mar2018 at 12: 9:40

     Current dimensions of program PWSCF are:
     Max number of different atomic species (ntypx) = 10
     Max number of k-points (npk) =  40000
     Max angular momentum in pseudopotentials (lmaxx) =  3
     Waiting for input...
     Reading input from standard input

     Subspace diagonalization in iterative solution of the eigenvalue problem:
     a serial algorithm will be used

     bravais-lattice index     =            0
     lattice parameter (alat)  =       8.8008  a.u.
     unit-cell volume          =    1116.9454 (a.u.)^3
     number of atoms/cell      =           16
     number of atomic types    =            2
     number of electrons       =       372.00
     number of Kohn-Sham states=          223
     kinetic-energy cutoff     =      40.0000  Ry
     charge density cutoff     =     160.0000  Ry
     convergence threshold     =      1.0E-04
     mixing beta               =       0.7000
     number of iterations used =            8  plain     mixing
     Exchange-correlation      = SLA-PZ-NOGX-NOGC ( 1 1 0 0 0)
     EXX-fraction              =        0.00
     nstep                     =           50

     celldm(1)=   8.800765  celldm(2)=   0.000000  celldm(3)=   0.000000
     celldm(4)=   0.000000  celldm(5)=   0.000000  celldm(6)=   0.000000

     crystal axes: (cart. coord. in units of alat)
               a(1) = (   1.000000   0.000000   0.000000 )
               a(2) = (   0.000000   1.083771   0.000000 )
               a(3) = (   0.000000   0.000000   1.511935 )

     reciprocal axes: (cart. coord. in units 2 pi/alat)
               b(1) = (  1.000000  0.000000  0.000000 )
               b(2) = (  0.000000  0.922704  0.000000 )
               b(3) = (  0.000000  0.000000  0.661404 )

     PseudoPot. # 1 for Yb read from file:
     /home/jld5415/pp.La/Yb.UPF
     MD5 check sum: 3e859b81cc28c53ec6aa3a2e888efcdf
     Pseudo is Norm-conserving, Zval = 24.0
     Generated in analytical, separable form
     Using radial grid of 1269 points,  6 beta functions with:
                l(1) =   0
                l(2) =   0
                l(3) =   1
                l(4) =   1
                l(5) =   2
                l(6) =   3

     PseudoPot. # 2 for Ho read from file:
     /home/jld5415/pp.La/Ho.UPF
     MD5 check sum: f307ee11bce99f5b724fa279e3790763
     Pseudo is Norm-conserving, Zval = 21.0
     Generated in analytical, separable form
     Using radial grid of 1265 points,  6 beta functions with:
                l(1) =   0
                l(2) =   0
                l(3) =   1
                l(4) =   1
                l(5) =   2
                l(6) =   3

     atomic species   valence    mass     pseudopotential
        Fe            24.00    55.84500     Yb( 1.00)
        C             21.00    12.01070     Ho( 1.00)

      8 Sym. Ops., with inversion, found ( 6 have fractional translation)

   Cartesian axes

     site n.     atom                  positions (alat units)
         1           Fe  tau(   1) = (   0.3472940   0.1827628   1.3947267  )
         2           Fe  tau(   2) = (   0.1527060   0.7246484   0.8731757  )
         3           Fe  tau(   3) = (   0.8472940   0.3591227   0.6387592  )
         4           Fe  tau(   4) = (   0.3396640   0.4879235   0.3779837  )
         5           Fe  tau(   5) = (   0.1527060   0.7246484   1.3947267  )
         6           Fe  tau(   6) = (   0.3472940   0.1827628   0.8731757  )
         7           Fe  tau(   7) = (   0.1603360   1.0298091   0.3779837  )
         8           Fe  tau(   8) = (   0.6527060   0.9010083   0.6387592  )
         9           Fe  tau(   9) = (   0.8472940   0.3591227   0.1172082  )
        10           Fe  tau(  10) = (   0.6603360   0.5958476   1.1339512  )
        11           Fe  tau(  11) = (   0.6527060   0.9010083   0.1172082  )
        12           Fe  tau(  12) = (   0.8396640   0.0539620   1.1339512  )
        13           C   tau(  13) = (   0.0000000   0.0000000   0.0000000  )
        14           C   tau(  14) = (   0.5000000   0.5418856   0.0000000  )
        15           C   tau(  15) = (   0.5000000   0.5418856   0.7559674  )
        16           C   tau(  16) = (   0.0000000   0.0000000   0.7559674  )

     number of k points=    12  gaussian smearing, width (Ry)=  0.1000
                       cart. coord. in units 2pi/alat
        k(    1) = (   0.0000000   0.0000000   0.0000000), wk =   0.0833333
        k(    2) = (   0.0000000   0.0000000   0.1653510), wk =   0.1666667
        k(    3) = (   0.0000000   0.0000000  -0.3307021), wk =   0.0833333
        k(    4) = (   0.0000000   0.3075680   0.0000000), wk =   0.1666667
        k(    5) = (   0.0000000   0.3075680   0.1653510), wk =   0.3333333
        k(    6) = (   0.0000000   0.3075680  -0.3307021), wk =   0.1666667
        k(    7) = (  -0.5000000   0.0000000   0.0000000), wk =   0.0833333
        k(    8) = (  -0.5000000   0.0000000   0.1653510), wk =   0.1666667
        k(    9) = (  -0.5000000   0.0000000  -0.3307021), wk =   0.0833333
        k(   10) = (  -0.5000000   0.3075680   0.0000000), wk =   0.1666667
        k(   11) = (  -0.5000000   0.3075680   0.1653510), wk =   0.3333333
        k(   12) = (  -0.5000000   0.3075680  -0.3307021), wk =   0.1666667

     Largest allocated arrays     est. size (Mb)     dimensions
     Largest temporary arrays     est. size (Mb)     dimensions

     Initial potential from superposition of free atoms

     Starting from uniform charge
     Starting wfc are    0 randomized atomic wfcs

     Self-consistent Calculation

     iteration #  1     ecut=    40.00 Ry     beta=0.70
     CG style diagonalization
     c_bands:  1 eigenvalues not converged
     c_bands:  1 eigenvalues not converged
     ethr =  1.00E-02,  avg # of iterations = 23.8

     total energy              =   -5318.65336993 Ry
     Harris-Foulkes estimate   =   -7376.22703647 Ry
     estimated scf accuracy    <    2509.47318691 Ry

[...]

     iteration #  4     ecut=    40.00 Ry     beta=0.70
     CG style diagonalization
     ethr =  1.00E-02,  avg # of iterations =  4.6

[...]

     End of self-consistent calculation

          k = 0.0000 0.0000 0.0000 (  4785 PWs)   bands (ev):

   -67.5738 -67.5593 -67.5460 -67.5374 -67.5151 -67.5012 -67.4888 -67.4872
   -67.2451 -67.2418 -67.2404 -67.2187 -42.5136 -42.3571 -42.1813 -42.0266
   -28.2595 -28.2301 -28.1939 -28.1731 -27.8208 -27.7901 -27.7559 -27.7447
   -27.5612 -27.2632 -27.2353 -26.8680 -26.5822 -26.5459 -26.5076 -26.4069
   -26.3994 -26.3520 -26.3456 -26.2350 -26.1641 -26.1231 -26.1200 -26.1183
   -25.9980 -25.9939 -25.9795 -25.9536 -25.9482 -25.9283 -25.8308 -25.8251
   -25.7402 -25.7318 -25.5832 -25.5772  -7.7396  -7.6909  -7.5795  -7.5764
    -7.4183  -7.3752  -6.7822  -6.7343  -6.7233  -6.6771  -6.6742  -6.5732
    23.0722  23.1293  23.5689  24.2072  24.2967  24.4745  24.7018  25.2094
    25.6346  26.1586  26.1998  26.3437  26.9377  28.0029  28.0539  28.0646
    28.3021  28.3711  28.4598  28.4911  28.5539  28.6476  28.7391  28.7774
    28.8457  28.8999  29.2229  29.2994  29.4228  29.6923  29.8213  29.8242
    29.8784  29.8801  30.0104  30.0346  30.0825  30.2905  30.2947  30.3639
    30.3688  30.5898  30.6575  30.7314  30.7765  30.9222  30.9402  30.9903
    31.1687  31.5235  31.6936  31.7360  31.8304  31.9195  32.2463  32.2554
    32.3465  32.5418  32.7589  32.8075  33.0461  34.9525  35.4972  35.7347
    35.8197  36.3008  36.3285  36.7813  36.9943  38.7800  38.9561  38.9879
    39.0158  39.3391  40.1400  40.4932  40.7462  41.1324  41.2298  42.0562
    42.7010  43.0691  43.1482  43.5002  43.9183  44.4700  47.2054  47.3010
    47.3563  47.4707  47.5689  47.8058  48.6197  50.2753  50.3893  50.4515
    50.6426  51.3934  52.3583  52.7599  53.2463  53.6053  53.8330  54.2614
    54.5723  54.9759  55.0855  55.1861  56.3860  56.5236  56.9204  57.5591
    57.6633  57.8550  57.9611  58.3521  58.6373  59.1812  59.2214  59.2912
    59.4742  59.7190  59.8585  60.0265  60.6476  60.6783  60.7074  60.7462
    61.1544  61.1906  61.2921  61.6090  61.7510  61.8457  61.9585  62.4739
    62.5468  62.9635  63.0730  63.1494  63.3943  63.4794  64.6603  64.7148
    64.9077  64.9693  65.0339  65.3627  65.5632  65.9047  65.9744  66.8903
    67.1868  67.2925  67.3645  67.6238  67.7792  68.0676  68.1010

[...]

          k =-0.5000 0.0000 0.0000 (  4798 PWs)   bands (ev):

[...]

     the Fermi energy is    59.9284 ev

!    total energy              =   -6036.09979947 Ry
     Harris-Foulkes estimate   =   -6036.09980111 Ry
     estimated scf accuracy    <       0.00000242 Ry

     The total energy is the sum of the following terms:

     one-electron contribution =    -561.63638793 Ry
     hartree contribution      =     819.72868692 Ry
     xc contribution           =    -519.66802713 Ry
     ewald contribution        =   -5773.91341199 Ry
     smearing contrib. (-TS)   =      -0.61065934 Ry

     convergence has been achieved in  10 iterations

     Forces acting on atoms (Ry/au):

     atom    1 type  1   force =     1.07984995   -1.17451944   -1.53859872
     atom    2 type  1   force =    -1.07984995   -1.17451944    1.53859872
     atom    3 type  1   force =     1.07984995    1.17451944   -1.53859872
     atom    4 type  1   force =    -1.89576945   -0.70823089    0.00000000
     atom    5 type  1   force =    -1.07984995   -1.17451944   -1.53859872
     atom    6 type  1   force =     1.07984995   -1.17451944    1.53859872
     atom    7 type  1   force =     1.89576945   -0.70823089    0.00000000
     atom    8 type  1   force =    -1.07984995    1.17451944   -1.53859872
     atom    9 type  1   force =     1.07984995    1.17451944    1.53859872
     atom   10 type  1   force =     1.89576945    0.70823089    0.00000000
     atom   11 type  1   force =    -1.07984995    1.17451944    1.53859872
     atom   12 type  1   force =    -1.89576945    0.70823089    0.00000000
     atom   13 type  2   force =     0.00000000    0.00000000    0.00000000
     atom   14 type  2   force =     0.00000000    0.00000000    0.00000000
     atom   15 type  2   force =     0.00000000    0.00000000    0.00000000
     atom   16 type  2   force =     0.00000000    0.00000000    0.00000000

     Total force =     7.462238     Total SCF correction =     0.000000

     entering subroutine stress ...

          total   stress  (Ry/bohr**3)                   (kbar)     P=12760.00
   0.08779200   0.00000000   0.00000000      12914.65      0.00      0.00
   0.00000000   0.08661820   0.00000000          0.00  12741.98      0.00
   0.00000000   0.00000000   0.08581194          0.00      0.00  12623.37

     BFGS Geometry Optimization

     number of scf cycles    =   1
     number of bfgs steps    =   0

     enthalpy new            =   -6036.0997994653 Ry

     new trust radius        =       0.5000000000 bohr
     new conv_thr            =       0.0001000000 Ry

     new unit-cell volume =   1383.35304 a.u.^3 (   204.99177 Ang^3 )

CELL_PARAMETERS (alat=  8.80076499)
   1.074803866   0.000000000   0.000000000
   0.000000000   1.163757482   0.000000000
   0.000000000   0.000000000   1.622482617

ATOMIC_POSITIONS (crystal)
[...]
Fe       0.167677658   0.947678269   0.250000000
Fe       0.648524115   0.835560926   0.418537050
Fe       0.851475885   0.335560926   0.081462950
Fe       0.667677658   0.552321731   0.750000000
Fe       0.648524115   0.835560926   0.081462950
Fe       0.832322342   0.052321731   0.750000000
C        0.000000000   0.000000000   0.000000000
C        0.500000000   0.500000000   0.000000000
C        0.500000000   0.500000000   0.500000000
C        0.000000000   0.000000000   0.500000000

     Writing output data file Prototype-La-oP16-Fe3C.save
     NEW-OLD atomic charge density approx. for the potential
     NEW k-points:
        k(    1) = (   0.0000000   0.0000000   0.0000000), wk =   0.0833333
        k(    2) = (   0.0000000   0.0000000   0.1540849), wk =   0.1666667
        k(    3) = (   0.0000000   0.0000000  -0.3081697), wk =   0.0833333
        k(    4) = (   0.0000000   0.2864285   0.0000000), wk =   0.1666667
        k(    5) = (   0.0000000   0.2864285   0.1540849), wk =   0.3333333
        k(    6) = (   0.0000000   0.2864285  -0.3081697), wk =   0.1666667
        k(    7) = (  -0.4652012   0.0000000   0.0000000), wk =   0.0833333
        k(    8) = (  -0.4652012   0.0000000   0.1540849), wk =   0.1666667
        k(    9) = (  -0.4652012   0.0000000  -0.3081697), wk =   0.0833333
        k(   10) = (  -0.4652012   0.2864285   0.0000000), wk =   0.1666667
        k(   11) = (  -0.4652012   0.2864285   0.1540849), wk =   0.3333333
        k(   12) = (  -0.4652012   0.2864285  -0.3081697), wk =   0.1666667

[...]

          total   stress  (Ry/bohr**3)                   (kbar)     P= 5824.69
   0.03998820   0.00000000   0.00000000       5882.47      0.00      0.00
   0.00000000   0.03893884   0.00000000          0.00   5728.10      0.00
   0.00000000   0.00000000   0.03985938          0.00      0.00   5863.52

[...]

     enthalpy old            =   -6036.0997994653 Ry
     enthalpy new            =   -6053.7647937963 Ry

     CASE: enthalpy_new < enthalpy_old

     small trust_radius: resetting bfgs history

     new trust radius        =       7.4364973297 bohr
     new conv_thr            =       0.0001000000 Ry

[...]

          total   stress  (Ry/bohr**3)                   (kbar)     P=-8419.93
  -0.05752551   0.00000000   0.00000000      -8462.29      0.00      0.00
   0.00000000  -0.05695123   0.00000000          0.00  -8377.81      0.00
   0.00000000   0.00000000  -0.05723575          0.00      0.00  -8419.67

     number of scf cycles    =   3
     number of bfgs steps    =   2

     enthalpy old            =   -6053.7647937963 Ry
     enthalpy new            =   -5597.5112398658 Ry

     CASE: enthalpy_new > enthalpy_old

     new trust radius        =       1.4950474259 bohr

     trust_radius < trust_radius_min

     resetting bfgs history

     Message from routine bfgs:
     history already reset at previous step: stopping
     new conv_thr            =       0.0001000000 Ry

     new unit-cell volume =   1587.52916 a.u.^3 (   235.24755 Ang^3 )

[...]

ATOMIC_POSITIONS (crystal)
Fe       0.353119282   0.162744262   0.917015596
Fe       0.146880718   0.662744262   0.582984404
Fe       0.853119282   0.337255738   0.417015596
Fe       0.329474428   0.446521934   0.250000000
Fe       0.146880718   0.662744262   0.917015596
Fe       0.353119282   0.162744262   0.582984404
Fe       0.170525572   0.946521934   0.250000000
Fe       0.646880718   0.837255738   0.417015596
Fe       0.853119282   0.337255738   0.082984404
Fe       0.670525572   0.553478066   0.750000000
Fe       0.646880718   0.837255738   0.082984404
Fe       0.829474428   0.053478066   0.750000000
C        0.000000000   0.000000000   0.000000000
C        0.500000000   0.500000000   0.000000000
C        0.500000000   0.500000000   0.500000000
C        0.000000000   0.000000000   0.500000000

     Writing output data file Prototype-La-oP16-Fe3C.save
     NEW-OLD atomic charge density approx. for the potential
     NEW k-points:
        k(    1) = (   0.0000000   0.0000000   0.0000000), wk =   0.0833333
        k(    2) = (   0.0000000   0.0000000   0.1470868), wk =   0.1666667
        k(    3) = (   0.0000000   0.0000000  -0.2941735), wk =   0.0833333
        k(    4) = (   0.0000000   0.2739858   0.0000000), wk =   0.1666667
        k(    5) = (   0.0000000   0.2739858   0.1470868), wk =   0.3333333
        k(    6) = (   0.0000000   0.2739858  -0.2941735), wk =   0.1666667
        k(    7) = (  -0.4439425   0.0000000   0.0000000), wk =   0.0833333
        k(    8) = (  -0.4439425   0.0000000   0.1470868), wk =   0.1666667
        k(    9) = (  -0.4439425   0.0000000  -0.2941735), wk =   0.0833333
        k(   10) = (  -0.4439425   0.2739858   0.0000000), wk =   0.1666667
        k(   11) = (  -0.4439425   0.2739858   0.1470868), wk =   0.3333333
        k(   12) = (  -0.4439425   0.2739858  -0.2941735), wk =   0.1666667

[...]

     The maximum number of steps has been reached.

     End of BFGS Geometry Optimization
Begin final coordinates
     new unit-cell volume =   1587.52916 a.u.^3 (   235.24755 Ang^3 )

CELL_PARAMETERS (alat=  8.80076499)
   1.126271874   0.000000000   0.000000000
   0.000000000   1.216608245   0.000000000
   0.000000000   0.000000000   1.699677186

ATOMIC_POSITIONS (crystal)
Fe       0.353119282   0.162744262   0.917015596
Fe       0.146880718   0.662744262   0.582984404
Fe       0.853119282   0.337255738   0.417015596
Fe       0.329474428   0.446521934   0.250000000
Fe       0.146880718   0.662744262   0.917015596
Fe       0.353119282   0.162744262   0.582984404
Fe       0.170525572   0.946521934   0.250000000
Fe       0.646880718   0.837255738   0.417015596
Fe       0.853119282   0.337255738   0.082984404
Fe       0.670525572   0.553478066   0.750000000
Fe       0.646880718   0.837255738   0.082984404
Fe       0.829474428   0.053478066   0.750000000
C        0.000000000   0.000000000   0.000000000
C        0.500000000   0.500000000   0.000000000
C        0.500000000   0.500000000   0.500000000
C        0.000000000   0.000000000   0.500000000
End final coordinates

     A final scf calculation at the relaxed structure.
     The G-vectors are recalculated for the final unit cell
     Results may differ from those at the preceding step.

     bravais-lattice index     =            0
     lattice parameter (alat)  =       8.8008  a.u.
     unit-cell volume          =    1587.5292 (a.u.)^3
     number of atoms/cell      =           16
     number of atomic types    =            2
     number of electrons       =       372.00
     number of Kohn-Sham states=          223
     kinetic-energy cutoff     =      40.0000  Ry
     charge density cutoff     =     160.0000  Ry
     convergence threshold     =      1.0E-04
     mixing beta               =       0.7000
     number of iterations used =            8  plain     mixing
     Exchange-correlation      = SLA-PZ-NOGX-NOGC ( 1 1 0 0 0)
     EXX-fraction              =        0.00

     celldm(1)=   8.800765  celldm(2)=   0.000000  celldm(3)=   0.000000
     celldm(4)=   0.000000  celldm(5)=   0.000000  celldm(6)=   0.000000

     crystal axes: (cart. coord. in units of alat)
               a(1) = (   1.126272   0.000000   0.000000 )
               a(2) = (   0.000000   1.216608   0.000000 )
               a(3) = (   0.000000   0.000000   1.699677 )

     reciprocal axes: (cart. coord. in units 2 pi/alat)
               b(1) = (  0.887885  0.000000  0.000000 )
               b(2) = (  0.000000  0.821957  0.000000 )
               b(3) = (  0.000000  0.000000  0.588347 )

     PseudoPot. # 1 for Yb read from file:
     /home/jld5415/pp.La/Yb.UPF
     MD5 check sum: 3e859b81cc28c53ec6aa3a2e888efcdf
     Pseudo is Norm-conserving, Zval = 24.0
     Generated in analytical, separable form
     Using radial grid of 1269 points,  6 beta functions with:
                l(1) =   0
                l(2) =   0
                l(3) =   1
                l(4) =   1
                l(5) =   2
                l(6) =   3

     PseudoPot. # 2 for Ho read from file:
     /home/jld5415/pp.La/Ho.UPF
     MD5 check sum: f307ee11bce99f5b724fa279e3790763
     Pseudo is Norm-conserving, Zval = 21.0
     Generated in analytical, separable form
     Using radial grid of 1265 points,  6 beta functions with:
                l(1) =   0
                l(2) =   0
                l(3) =   1
                l(4) =   1
                l(5) =   2
                l(6) =   3

     atomic species   valence    mass     pseudopotential
        Fe            24.00    55.84500     Yb( 1.00)
        C             21.00    12.01070     Ho( 1.00)

      8 Sym. Ops., with inversion, found ( 6 have fractional translation)

   Cartesian axes

     site n.     atom                  positions (alat units)
         1           Fe  tau(   1) = (   0.3977083   0.1979960   1.5586305  )
         2           Fe  tau(   2) = (   0.1654276   0.8063001   0.9908853  )
         3           Fe  tau(   3) = (   0.9608443   0.4103081   0.7087919  )
         4           Fe  tau(   4) = (   0.3710778   0.5432423   0.4249193  )
         5           Fe  tau(   5) = (   0.1654276   0.8063001   1.5586305  )
         6           Fe  tau(   6) = (   0.3977083   0.1979960   0.9908853  )
         7           Fe  tau(   7) = (   0.1920582   1.1515464   0.4249193  )
         8           Fe  tau(   8) = (   0.7285636   1.0186122   0.7087919  )
         9           Fe  tau(   9) = (   0.9608443   0.4103081   0.1410467  )
        10           Fe  tau(  10) = (   0.7551941   0.6733660   1.2747579  )
        11           Fe  tau(  11) = (   0.7285636   1.0186122   0.1410467  )
        12           Fe  tau(  12) = (   0.9342137   0.0650619   1.2747579  )
        13           C   tau(  13) = (   0.0000000   0.0000000   0.0000000  )
        14           C   tau(  14) = (   0.5631359   0.6083041   0.0000000  )
        15           C   tau(  15) = (   0.5631359   0.6083041   0.8498386  )
        16           C   tau(  16) = (   0.0000000   0.0000000   0.8498386  )

     number of k points=    12  gaussian smearing, width (Ry)=  0.1000
                       cart. coord. in units 2pi/alat
        k(    1) = (   0.0000000   0.0000000   0.0000000), wk =   0.0833333
        k(    2) = (   0.0000000   0.0000000   0.1470868), wk =   0.1666667
        k(    3) = (   0.0000000   0.0000000  -0.2941735), wk =   0.0833333
        k(    4) = (   0.0000000   0.2739858   0.0000000), wk =   0.1666667
        k(    5) = (   0.0000000   0.2739858   0.1470868), wk =   0.3333333
        k(    6) = (   0.0000000   0.2739858  -0.2941735), wk =   0.1666667
        k(    7) = (  -0.4439425   0.0000000   0.0000000), wk =   0.0833333
        k(    8) = (  -0.4439425   0.0000000   0.1470868), wk =   0.1666667
        k(    9) = (  -0.4439425   0.0000000  -0.2941735), wk =   0.0833333
        k(   10) = (  -0.4439425   0.2739858   0.0000000), wk =   0.1666667
        k(   11) = (  -0.4439425   0.2739858   0.1470868), wk =   0.3333333
        k(   12) = (  -0.4439425   0.2739858  -0.2941735), wk =   0.1666667

     Largest allocated arrays     est. size (Mb)     dimensions
     Largest temporary arrays     est. size (Mb)     dimensions

     Initial potential from superposition of free atoms

     Starting from uniform charge
     Starting wfc are    0 randomized atomic wfcs

     Writing output data file Prototype-La-oP16-Fe3C.save

     Self-consistent Calculation

[...]

     iteration #  9     ecut=    40.00 Ry     beta=0.70
     CG style diagonalization
     c_bands:  1 eigenvalues not converged
     c_bands:  1 eigenvalues not converged
     c_bands:  1 eigenvalues not converged
     c_bands:  1 eigenvalues not converged
     c_bands:  1 eigenvalues not converged
     ethr =  1.63E-06,  avg # of iterations =  4.5

[...]

     total energy              =   -6068.05384929 Ry
     Harris-Foulkes estimate   =   -6068.05391496 Ry
     estimated scf accuracy    <       0.00011019 Ry

     iteration # 11     ecut=    40.00 Ry     beta=0.70
     CG style diagonalization
     ethr =  2.96E-08,  avg # of iterations =  3.9

     End of self-consistent calculation

[...]

          k = 0.0000 0.2740-0.2942 (  6760 PWs)   bands (ev):

[...]

          k =-0.4439 0.2740-0.2942 (  6808 PWs)   bands (ev):

   -83.5662 -83.5662 -83.5606 -83.5606 -83.5536 -83.5536 -83.5361 -83.5361
   -83.3168 -83.3168 -83.2856 -83.2856 -55.6760 -55.6760 -55.6749 -55.6749
   -42.9679 -42.9679 -42.9657 -42.9657 -42.9095 -42.9095 -42.9091 -42.9091
   -42.6850 -42.6850 -42.6812 -42.6812 -42.4044 -42.4044 -42.3963 -42.3963
   -42.3389 -42.3389 -42.3299 -42.3299 -42.2224 -42.2224 -42.2186 -42.2186
   -42.1416 -42.1416 -42.1370 -42.1370 -42.0975 -42.0975 -42.0942 -42.0942
   -41.9006 -41.9006 -41.8903 -41.8903 -20.5440 -20.5440 -20.5426 -20.5426
   -20.4191 -20.4191 -20.4168 -20.4168 -20.3432 -20.3432 -20.3429 -20.3429
    12.4258  12.4258  12.4439  12.4439  12.7563  12.7563  12.7713  12.7713
    13.3933  13.3933  13.4402  13.4402  13.4756  13.4756  13.6363  13.6363
    13.9711  13.9711  14.0334  14.0334  14.2582  14.2582  14.2888  14.2888
    14.5331  14.5331  14.5890  14.5890  14.7751  14.7751  14.8188  14.8188
    14.8433  14.8433  14.9562  14.9562  15.0358  15.0358  15.0948  15.0948
    15.1566  15.1566  15.3048  15.3048  15.4760  15.4760  15.6064  15.6064
    15.7239  15.7239  15.7495  15.7495  15.9149  15.9149  16.0084  16.0084
    16.1563  16.1563  16.2185  16.2185  22.0851  22.0851  22.1912  22.1912
    22.5474  22.5474  22.6549  22.6549  22.8440  22.8440  23.1256  23.1256
    23.1875  23.1875  23.4961  23.4961  24.0694  24.0694  24.1086  24.1086
    24.4011  24.4011  24.6990  24.6990  26.5000  26.5000  26.6135  26.6135
    30.5340  30.5340  30.8410  30.8410  32.6595  32.6595  32.7674  32.7674
    34.2404  34.2404  34.5136  34.5136  36.8965  36.8965  37.1600  37.1600
    38.5363  38.5363  38.7176  38.7176  39.7918  39.7918  39.8541  39.8541
    40.6202  40.6202  40.6352  40.6352  41.6046  41.6046  41.7585  41.7585
    42.9078  42.9078  42.9855  42.9855  43.7898  43.7898  43.8925  43.8925
    44.1972  44.1972  44.3190  44.3190  45.2396  45.2396  45.3840  45.3840
    46.3391  46.3391  46.6403  46.6403  46.6557  46.6557  46.9254  46.9254
    47.2278  47.2279  47.6710  47.6710  47.8267  47.8267  47.9924  47.9925
    48.2060  48.2061  48.3084  48.3085  48.8880  48.8882  49.1081

     the Fermi energy is    42.9194 ev

!    total energy              =   -6068.05388624 Ry
     Harris-Foulkes estimate   =   -6068.05389167 Ry
     estimated scf accuracy    <       0.00000666 Ry

     The total energy is the sum of the following terms:

     one-electron contribution =   -1421.28328276 Ry
     hartree contribution      =    1025.88119804 Ry
     xc contribution           =    -501.39722060 Ry
     ewald contribution        =   -5170.63973319 Ry
     smearing contrib. (-TS)   =      -0.61484773 Ry

     convergence has been achieved in  11 iterations

     Forces acting on atoms (Ry/au):

     atom    1 type  1   force =     0.47968932   -0.51663279   -0.62538908
     atom    2 type  1   force =    -0.47968932   -0.51663279    0.62538908
     atom    3 type  1   force =     0.47968932    0.51663279   -0.62538908
     atom    4 type  1   force =    -0.81112532   -0.36477867    0.00000000
     atom    5 type  1   force =    -0.47968932   -0.51663279   -0.62538908
     atom    6 type  1   force =     0.47968932   -0.51663279    0.62538908
     atom    7 type  1   force =     0.81112532   -0.36477867    0.00000000
     atom    8 type  1   force =    -0.47968932    0.51663279   -0.62538908
     atom    9 type  1   force =     0.47968932    0.51663279    0.62538908
     atom   10 type  1   force =     0.81112532    0.36477867    0.00000000
     atom   11 type  1   force =    -0.47968932    0.51663279    0.62538908
     atom   12 type  1   force =    -0.81112532    0.36477867    0.00000000
     atom   13 type  2   force =     0.00000000    0.00000000    0.00000000
     atom   14 type  2   force =     0.00000000    0.00000000    0.00000000
     atom   15 type  2   force =     0.00000000    0.00000000    0.00000000
     atom   16 type  2   force =     0.00000000    0.00000000    0.00000000

     Total force =     3.204518     Total SCF correction =     0.000000

     entering subroutine stress ...

          total   stress  (Ry/bohr**3)                   (kbar)     P= 4026.39
   0.02736359   0.00000000   0.00000000       4025.32      0.00      0.00
   0.00000000   0.02694307   0.00000000          0.00   3963.46      0.00
   0.00000000   0.00000000   0.02780585          0.00      0.00   4090.38

     Writing output data file Prototype-La-oP16-Fe3C.save

     General routines

     Parallel routines

   This run was terminated on:  13:53:10  22Mar2018

   JOB DONE.