     Program PWSCF v.5.0.2 starts on 22Mar2018 at 12: 9:37

     Current dimensions of program PWSCF are:
     Max number of different atomic species (ntypx) = 10
     Max number of k-points (npk) =  40000
     Max angular momentum in pseudopotentials (lmaxx) =  3
     Waiting for input...
     Reading input from standard input

     Subspace diagonalization in iterative solution of the eigenvalue problem:
     a serial algorithm will be used

     bravais-lattice index     =            0
     lattice parameter (alat)  =       8.5346  a.u.
     unit-cell volume          =     621.6493 (a.u.)^3
     number of atoms/cell      =            8
     number of atomic types    =            2
     number of electrons       =       186.00
     number of Kohn-Sham states=          112
     kinetic-energy cutoff     =      40.0000  Ry
     charge density cutoff     =     160.0000  Ry
     convergence threshold     =      1.0E-04
     mixing beta               =       0.7000
     number of iterations used =            8  plain     mixing
     Exchange-correlation      = SLA-PZ-NOGX-NOGC ( 1 1 0 0 0)
     EXX-fraction              =        0.00
     nstep                     =           50

     celldm(1)=   8.534573  celldm(2)=   0.000000  celldm(3)=   0.000000
     celldm(4)=   0.000000  celldm(5)=   0.000000  celldm(6)=   0.000000

     crystal axes: (cart. coord. in units of alat)
               a(1) = (   1.000000   0.000000   0.000000 )
               a(2) = (   0.000000   1.000000   0.000000 )
               a(3) = (   0.000000   0.000000   1.000000 )

     reciprocal axes: (cart. coord. in units 2 pi/alat)
               b(1) = (  1.000000  0.000000  0.000000 )
               b(2) = (  0.000000  1.000000  0.000000 )
               b(3) = (  0.000000  0.000000  1.000000 )

     PseudoPot. # 1 for Yb read from file:
     /home/jld5415/pp.La/Yb.UPF
     MD5 check sum: 3e859b81cc28c53ec6aa3a2e888efcdf
     Pseudo is Norm-conserving, Zval = 24.0
     Generated in analytical, separable form
     Using radial grid of 1269 points,  6 beta functions with:
                l(1) =   0
                l(2) =   0
                l(3) =   1
                l(4) =   1
                l(5) =   2
                l(6) =   3

     PseudoPot. # 2 for Ho read from file:
     /home/jld5415/pp.La/Ho.UPF
     MD5 check sum: f307ee11bce99f5b724fa279e3790763
     Pseudo is Norm-conserving, Zval = 21.0
     Generated in analytical, separable form
     Using radial grid of 1265 points,  6 beta functions with:
                l(1) =   0
                l(2) =   0
                l(3) =   1
                l(4) =   1
                l(5) =   2
                l(6) =   3

     atomic species   valence    mass     pseudopotential
        Cr            24.00    51.99610     Yb( 1.00)
        Si            21.00    28.08550     Ho( 1.00)

     48 Sym. Ops., with inversion, found (24 have fractional translation)

   Cartesian axes

     site n.     atom                  positions (alat units)
         1           Cr  tau(   1) = (   0.0000000   0.5000000   0.2500000  )
         2           Cr  tau(   2) = (   0.0000000   0.5000000   0.7500000  )
         3           Cr  tau(   3) = (   0.5000000   0.7500000   0.0000000  )
         4           Cr  tau(   4) = (   0.5000000   0.2500000   0.0000000  )
         5           Cr  tau(   5) = (   0.7500000   0.0000000   0.5000000  )
         6           Cr  tau(   6) = (   0.2500000   0.0000000   0.5000000  )
         7           Si  tau(   7) = (   0.5000000   0.5000000   0.5000000  )
         8           Si  tau(   8) = (   0.0000000   0.0000000   0.0000000  )

     number of k points=    48  gaussian smearing, width (Ry)=  0.1000
                       cart. coord. in units 2pi/alat
        k(    1) = (   0.0000000   0.0000000   0.0000000), wk =   0.0095238
        k(    2) = (   0.0000000   0.0000000   0.1428571), wk =   0.0190476
        k(    3) = (   0.0000000   0.0000000   0.2857143), wk =   0.0190476
        k(    4) = (   0.0000000   0.0000000   0.4285714), wk =   0.0190476
        k(    5) = (   0.0000000   0.1666667   0.0000000), wk =   0.0190476
        k(    6) = (   0.0000000   0.1666667   0.1428571), wk =   0.0380952
        k(    7) = (   0.0000000   0.1666667   0.2857143), wk =   0.0380952
        k(    8) = (   0.0000000   0.1666667   0.4285714), wk =   0.0380952
        k(    9) = (   0.0000000   0.3333333   0.0000000), wk =   0.0190476
        k(   10) = (   0.0000000   0.3333333   0.1428571), wk =   0.0380952
        k(   11) = (   0.0000000   0.3333333   0.2857143), wk =   0.0380952
        k(   12) = (   0.0000000   0.3333333   0.4285714), wk =   0.0380952
        k(   13) = (   0.0000000  -0.5000000   0.0000000), wk =   0.0095238
        k(   14) = (   0.0000000  -0.5000000   0.1428571), wk =   0.0190476
        k(   15) = (   0.0000000  -0.5000000   0.2857143), wk =   0.0190476
        k(   16) = (   0.0000000  -0.5000000   0.4285714), wk =   0.0190476
        k(   17) = (   0.2000000   0.0000000   0.0000000), wk =   0.0190476
        k(   18) = (   0.2000000   0.0000000   0.1428571), wk =   0.0380952
        k(   19) = (   0.2000000   0.0000000   0.2857143), wk =   0.0380952
        k(   20) = (   0.2000000   0.0000000   0.4285714), wk =   0.0380952
        k(   21) = (   0.2000000   0.1666667   0.0000000), wk =   0.0380952
        k(   22) = (   0.2000000   0.1666667   0.1428571), wk =   0.0761905
        k(   23) = (   0.2000000   0.1666667   0.2857143), wk =   0.0761905
        k(   24) = (   0.2000000   0.1666667   0.4285714), wk =   0.0761905
        k(   25) = (   0.2000000   0.3333333   0.0000000), wk =   0.0380952
        k(   26) = (   0.2000000   0.3333333   0.1428571), wk =   0.0761905
        k(   27) = (   0.2000000   0.3333333   0.2857143), wk =   0.0761905
        k(   28) = (   0.2000000   0.3333333   0.4285714), wk =   0.0761905
        k(   29) = (   0.2000000  -0.5000000   0.0000000), wk =   0.0190476
        k(   30) = (   0.2000000  -0.5000000   0.1428571), wk =   0.0380952
        k(   31) = (   0.2000000  -0.5000000   0.2857143), wk =   0.0380952
        k(   32) = (   0.2000000  -0.5000000   0.4285714), wk =   0.0380952
        k(   33) = (   0.4000000   0.0000000   0.0000000), wk =   0.0190476
        k(   34) = (   0.4000000   0.0000000   0.1428571), wk =   0.0380952
        k(   35) = (   0.4000000   0.0000000   0.2857143), wk =   0.0380952
        k(   36) = (   0.4000000   0.0000000   0.4285714), wk =   0.0380952
        k(   37) = (   0.4000000   0.1666667   0.0000000), wk =   0.0380952
        k(   38) = (   0.4000000   0.1666667   0.1428571), wk =   0.0761905
        k(   39) = (   0.4000000   0.1666667   0.2857143), wk =   0.0761905
        k(   40) = (   0.4000000   0.1666667   0.4285714), wk =   0.0761905
        k(   41) = (   0.4000000   0.3333333   0.0000000), wk =   0.0380952
        k(   42) = (   0.4000000   0.3333333   0.1428571), wk =   0.0761905
        k(   43) = (   0.4000000   0.3333333   0.2857143), wk =   0.0761905
        k(   44) = (   0.4000000   0.3333333   0.4285714), wk =   0.0761905
        k(   45) = (   0.4000000  -0.5000000   0.0000000), wk =   0.0190476
        k(   46) = (   0.4000000  -0.5000000   0.1428571), wk =   0.0380952
        k(   47) = (   0.4000000  -0.5000000   0.2857143), wk =   0.0380952
        k(   48) = (   0.4000000  -0.5000000   0.4285714), wk =   0.0380952

     Largest allocated arrays     est. size (Mb)     dimensions
     Largest temporary arrays     est. size (Mb)     dimensions

     Initial potential from superposition of free atoms

     Starting from uniform charge
     Starting wfc are    0 randomized atomic wfcs

     Self-consistent Calculation

     iteration #  1     ecut=    40.00 Ry     beta=0.70
     CG style diagonalization
     c_bands:  5 eigenvalues not converged
     c_bands:  5 eigenvalues not converged
     c_bands:  4 eigenvalues not converged
     c_bands:  4 eigenvalues not converged
     c_bands:  4 eigenvalues not converged
     c_bands:  3 eigenvalues not converged
     c_bands:  4 eigenvalues not converged
     c_bands:  5 eigenvalues not converged
     c_bands:  1 eigenvalues not converged
     c_bands:  3 eigenvalues not converged
     c_bands:  1 eigenvalues not converged
     c_bands:  2 eigenvalues not converged
     c_bands:  5 eigenvalues not converged
     c_bands:  3 eigenvalues not converged
     c_bands:  2 eigenvalues not converged
     c_bands:  3 eigenvalues not converged
     c_bands:  5 eigenvalues not converged
     c_bands:  2 eigenvalues not converged
     c_bands:  5 eigenvalues not converged
     c_bands:  4 eigenvalues not converged
     c_bands:  1 eigenvalues not converged
     c_bands:  3 eigenvalues not converged
     c_bands:  5 eigenvalues not converged
     c_bands:  2 eigenvalues not converged
     c_bands:  5 eigenvalues not converged
     ethr =  1.00E-02,  avg # of iterations = 14.3

     total energy              =   -2700.47401526 Ry
     Harris-Foulkes estimate   =   -3555.95720568 Ry
     estimated scf accuracy    <    1072.67757759 Ry

[...]

     iteration #  4     ecut=    40.00 Ry     beta=0.70
     CG style diagonalization
     ethr =  1.00E-02,  avg # of iterations =  5.0

[...]

     End of self-consistent calculation

          k = 0.0000 0.0000 0.0000 (  2601 PWs)   bands (ev):

   -71.7951 -71.7951 -71.5647 -71.3992 -71.3992 -71.3992 -41.0703 -41.0303
   -31.6266 -31.6266 -31.5654 -30.6546 -30.6546 -30.6546 -30.4887 -30.4887
   -30.4887 -30.4292 -30.4292 -30.4292 -30.3906 -30.3906 -30.3906 -30.3006
   -30.3006 -30.3006  -5.6847  -5.6847  -5.6847  -5.6640  -5.6640  -5.6640
    21.7107  21.7107  21.7237  23.3583  23.3583  23.3583  24.8031  24.8031
    24.8031  25.1186  25.6181  25.7116  25.7116  25.8824  25.8824  25.8824
    27.0801  27.0801  27.0801  27.9757  27.9757  28.0684  28.0684  28.0684
    28.0870  28.0870  28.0870  28.1559  29.0242  29.0242  29.0242  33.0887
    33.0887  36.3948  36.3948  36.5948  36.5948  36.5948  36.6280  36.6280
    36.6280  39.1903  39.1903  39.1903  42.4894  43.3451  43.3451  47.5908
    47.5908  47.5908  47.6039  47.6039  49.9154  49.9154  49.9154  50.0955
    51.5475  51.5475  51.5475  52.4647  53.6364  53.6364  53.6364  53.9852
    53.9852  53.9852  55.9083  55.9083  55.9083  58.4300  59.7772  59.7772
    59.7772  60.0411  60.0411  61.7834  61.7838  61.7838  62.1667  62.5471

[...]

     the Fermi energy is    53.9836 ev

!    total energy              =   -3032.24797059 Ry
     Harris-Foulkes estimate   =   -3032.24802366 Ry
     estimated scf accuracy    <       0.00006411 Ry

     The total energy is the sum of the following terms:

     one-electron contribution =    -189.37666624 Ry
     hartree contribution      =     336.46222248 Ry
     xc contribution           =    -253.97389028 Ry
     ewald contribution        =   -2925.02667216 Ry
     smearing contrib. (-TS)   =      -0.33296439 Ry

     convergence has been achieved in   7 iterations

     Forces acting on atoms (Ry/au):

     atom    1 type  1   force =     0.00000000    0.00000000    0.00000000
     atom    2 type  1   force =     0.00000000    0.00000000    0.00000000
[...]
     number of bfgs steps    =   2

     enthalpy old            =   -3036.8328811486 Ry
     enthalpy new            =   -3031.1260030637 Ry

     CASE: enthalpy_new > enthalpy_old

     new trust radius        =       0.1915948054 bohr

     trust_radius < trust_radius_min

     resetting bfgs history

     Message from routine bfgs:
     history already reset at previous step: stopping
     new conv_thr            =       0.0000010000 Ry

     new unit-cell volume =   1043.43561 a.u.^3 (   154.62120 Ang^3 )

[...]

ATOMIC_POSITIONS (crystal)
Cr       0.000000000   0.500000000   0.250000000
Cr       0.000000000   0.500000000   0.750000000
Cr       0.500000000   0.750000000   0.000000000
Cr       0.500000000   0.250000000   0.000000000
Cr       0.750000000   0.000000000   0.500000000
Cr       0.250000000   0.000000000   0.500000000
Si       0.500000000   0.500000000   0.500000000
Si       0.000000000   0.000000000   0.000000000

     Writing output data file Prototype-La-cP8-Cr3Si.save
     NEW-OLD atomic charge density approx. for the potential
     NEW k-points:
        k(    1) = (   0.0000000   0.0000000   0.0000000), wk =   0.0095238
        k(    2) = (   0.0000000   0.0000000   0.1202067), wk =   0.0190476
        k(    3) = (   0.0000000   0.0000000   0.2404133), wk =   0.0190476
        k(    4) = (   0.0000000   0.0000000   0.3606200), wk =   0.0190476
        k(    5) = (   0.0000000   0.1402411   0.0000000), wk =   0.0190476
        k(    6) = (   0.0000000   0.1402411   0.1202067), wk =   0.0380952
        k(    7) = (   0.0000000   0.1402411   0.2404133), wk =   0.0380952
        k(    8) = (   0.0000000   0.1402411   0.3606200), wk =   0.0380952
        k(    9) = (   0.0000000   0.2804822   0.0000000), wk =   0.0190476
        k(   10) = (   0.0000000   0.2804822   0.1202067), wk =   0.0380952
        k(   11) = (   0.0000000   0.2804822   0.2404133), wk =   0.0380952
        k(   12) = (   0.0000000   0.2804822   0.3606200), wk =   0.0380952
        k(   13) = (   0.0000000  -0.4207233   0.0000000), wk =   0.0095238
        k(   14) = (   0.0000000  -0.4207233   0.1202067), wk =   0.0190476
        k(   15) = (   0.0000000  -0.4207233   0.2404133), wk =   0.0190476
        k(   16) = (   0.0000000  -0.4207233   0.3606200), wk =   0.0190476
        k(   17) = (   0.1682893   0.0000000   0.0000000), wk =   0.0190476
        k(   18) = (   0.1682893   0.0000000   0.1202067), wk =   0.0380952
        k(   19) = (   0.1682893   0.0000000   0.2404133), wk =   0.0380952
        k(   20) = (   0.1682893   0.0000000   0.3606200), wk =   0.0380952
        k(   21) = (   0.1682893   0.1402411   0.0000000), wk =   0.0380952
        k(   22) = (   0.1682893   0.1402411   0.1202067), wk =   0.0761905
        k(   23) = (   0.1682893   0.1402411   0.2404133), wk =   0.0761905
        k(   24) = (   0.1682893   0.1402411   0.3606200), wk =   0.0761905
        k(   25) = (   0.1682893   0.2804822   0.0000000), wk =   0.0380952
        k(   26) = (   0.1682893   0.2804822   0.1202067), wk =   0.0761905
        k(   27) = (   0.1682893   0.2804822   0.2404133), wk =   0.0761905
        k(   28) = (   0.1682893   0.2804822   0.3606200), wk =   0.0761905
        k(   29) = (   0.1682893  -0.4207233   0.0000000), wk =   0.0190476
        k(   30) = (   0.1682893  -0.4207233   0.1202067), wk =   0.0380952
        k(   31) = (   0.1682893  -0.4207233   0.2404133), wk =   0.0380952
        k(   32) = (   0.1682893  -0.4207233   0.3606200), wk =   0.0380952
        k(   33) = (   0.3365787   0.0000000   0.0000000), wk =   0.0190476
        k(   34) = (   0.3365787   0.0000000   0.1202067), wk =   0.0380952
        k(   35) = (   0.3365787   0.0000000   0.2404133), wk =   0.0380952
        k(   36) = (   0.3365787   0.0000000   0.3606200), wk =   0.0380952
        k(   37) = (   0.3365787   0.1402411   0.0000000), wk =   0.0380952
        k(   38) = (   0.3365787   0.1402411   0.1202067), wk =   0.0761905
        k(   39) = (   0.3365787   0.1402411   0.2404133), wk =   0.0761905
        k(   40) = (   0.3365787   0.1402411   0.3606200), wk =   0.0761905
        k(   41) = (   0.3365787   0.2804822   0.0000000), wk =   0.0380952
        k(   42) = (   0.3365787   0.2804822   0.1202067), wk =   0.0761905
        k(   43) = (   0.3365787   0.2804822   0.2404133), wk =   0.0761905
        k(   44) = (   0.3365787   0.2804822   0.3606200), wk =   0.0761905
        k(   45) = (   0.3365787  -0.4207233   0.0000000), wk =   0.0190476
        k(   46) = (   0.3365787  -0.4207233   0.1202067), wk =   0.0380952
        k(   47) = (   0.3365787  -0.4207233   0.2404133), wk =   0.0380952
        k(   48) = (   0.3365787  -0.4207233   0.3606200), wk =   0.0380952

[...]

          total   stress  (Ry/bohr**3)                   (kbar)     P=-1466.85
  -0.00997145   0.00000000   0.00000000      -1466.85      0.00      0.00
   0.00000000  -0.00997145   0.00000000          0.00  -1466.85      0.00
   0.00000000   0.00000000  -0.00997145          0.00      0.00  -1466.85

     The maximum number of steps has been reached.

     End of BFGS Geometry Optimization
Begin final coordinates
     new unit-cell volume =   1043.43561 a.u.^3 (   154.62120 Ang^3 )

CELL_PARAMETERS (alat=  8.53457320)
   1.188429465   0.000000000   0.000000000
   0.000000000   1.188429465   0.000000000
   0.000000000   0.000000000   1.188429465

ATOMIC_POSITIONS (crystal)
Cr       0.000000000   0.500000000   0.250000000
Cr       0.000000000   0.500000000   0.750000000
Cr       0.500000000   0.750000000   0.000000000
Cr       0.500000000   0.250000000   0.000000000
Cr       0.750000000   0.000000000   0.500000000
Cr       0.250000000   0.000000000   0.500000000
Si       0.500000000   0.500000000   0.500000000
Si       0.000000000   0.000000000   0.000000000
End final coordinates

     A final scf calculation at the relaxed structure.
     The G-vectors are recalculated for the final unit cell
     Results may differ from those at the preceding step.

     bravais-lattice index     =            0
     lattice parameter (alat)  =       8.5346  a.u.
     unit-cell volume          =    1043.4356 (a.u.)^3
     number of atoms/cell      =            8
     number of atomic types    =            2
     number of electrons       =       186.00
     number of Kohn-Sham states=          112
     kinetic-energy cutoff     =      40.0000  Ry
     charge density cutoff     =     160.0000  Ry
     convergence threshold     =      1.0E-06
     mixing beta               =       0.7000
     number of iterations used =            8  plain     mixing
     Exchange-correlation      = SLA-PZ-NOGX-NOGC ( 1 1 0 0 0)
     EXX-fraction              =        0.00

     celldm(1)=   8.534573  celldm(2)=   0.000000  celldm(3)=   0.000000
     celldm(4)=   0.000000  celldm(5)=   0.000000  celldm(6)=   0.000000

     crystal axes: (cart. coord. in units of alat)
               a(1) = (   1.188429   0.000000   0.000000 )
               a(2) = (   0.000000   1.188429   0.000000 )
               a(3) = (   0.000000   0.000000   1.188429 )

     reciprocal axes: (cart. coord. in units 2 pi/alat)
               b(1) = (  0.841447  0.000000  0.000000 )
               b(2) = (  0.000000  0.841447  0.000000 )
               b(3) = (  0.000000  0.000000  0.841447 )

     PseudoPot. # 1 for Yb read from file:
     /home/jld5415/pp.La/Yb.UPF
     MD5 check sum: 3e859b81cc28c53ec6aa3a2e888efcdf
     Pseudo is Norm-conserving, Zval = 24.0
     Generated in analytical, separable form
     Using radial grid of 1269 points,  6 beta functions with:
                l(1) =   0
                l(2) =   0
                l(3) =   1
                l(4) =   1
                l(5) =   2
                l(6) =   3

     PseudoPot. # 2 for Ho read from file:
     /home/jld5415/pp.La/Ho.UPF
     MD5 check sum: f307ee11bce99f5b724fa279e3790763
     Pseudo is Norm-conserving, Zval = 21.0
     Generated in analytical, separable form
     Using radial grid of 1265 points,  6 beta functions with:
                l(1) =   0
                l(2) =   0
                l(3) =   1
                l(4) =   1
                l(5) =   2
                l(6) =   3

     atomic species   valence    mass     pseudopotential
        Cr            24.00    51.99610     Yb( 1.00)
        Si            21.00    28.08550     Ho( 1.00)

     48 Sym. Ops., with inversion, found (24 have fractional translation)

   Cartesian axes

     site n.     atom                  positions (alat units)
         1           Cr  tau(   1) = (   0.0000000   0.5942147   0.2971074  )
         2           Cr  tau(   2) = (   0.0000000   0.5942147   0.8913221  )
         3           Cr  tau(   3) = (   0.5942147   0.8913221   0.0000000  )
         4           Cr  tau(   4) = (   0.5942147   0.2971074   0.0000000  )
         5           Cr  tau(   5) = (   0.8913221   0.0000000   0.5942147  )
         6           Cr  tau(   6) = (   0.2971074   0.0000000   0.5942147  )
         7           Si  tau(   7) = (   0.5942147   0.5942147   0.5942147  )
         8           Si  tau(   8) = (   0.0000000   0.0000000   0.0000000  )

     number of k points=    48  gaussian smearing, width (Ry)=  0.1000
                       cart. coord. in units 2pi/alat
        k(    1) = (   0.0000000   0.0000000   0.0000000), wk =   0.0095238
        k(    2) = (   0.0000000   0.0000000   0.1202067), wk =   0.0190476
        k(    3) = (   0.0000000   0.0000000   0.2404133), wk =   0.0190476
        k(    4) = (   0.0000000   0.0000000   0.3606200), wk =   0.0190476
        k(    5) = (   0.0000000   0.1402411   0.0000000), wk =   0.0190476
        k(    6) = (   0.0000000   0.1402411   0.1202067), wk =   0.0380952
        k(    7) = (   0.0000000   0.1402411   0.2404133), wk =   0.0380952
        k(    8) = (   0.0000000   0.1402411   0.3606200), wk =   0.0380952
        k(    9) = (   0.0000000   0.2804822   0.0000000), wk =   0.0190476
        k(   10) = (   0.0000000   0.2804822   0.1202067), wk =   0.0380952
        k(   11) = (   0.0000000   0.2804822   0.2404133), wk =   0.0380952
        k(   12) = (   0.0000000   0.2804822   0.3606200), wk =   0.0380952
        k(   13) = (   0.0000000  -0.4207233   0.0000000), wk =   0.0095238
        k(   14) = (   0.0000000  -0.4207233   0.1202067), wk =   0.0190476
        k(   15) = (   0.0000000  -0.4207233   0.2404133), wk =   0.0190476
        k(   16) = (   0.0000000  -0.4207233   0.3606200), wk =   0.0190476
        k(   17) = (   0.1682893   0.0000000   0.0000000), wk =   0.0190476
        k(   18) = (   0.1682893   0.0000000   0.1202067), wk =   0.0380952
        k(   19) = (   0.1682893   0.0000000   0.2404133), wk =   0.0380952
        k(   20) = (   0.1682893   0.0000000   0.3606200), wk =   0.0380952
        k(   21) = (   0.1682893   0.1402411   0.0000000), wk =   0.0380952
        k(   22) = (   0.1682893   0.1402411   0.1202067), wk =   0.0761905
        k(   23) = (   0.1682893   0.1402411   0.2404133), wk =   0.0761905
        k(   24) = (   0.1682893   0.1402411   0.3606200), wk =   0.0761905
        k(   25) = (   0.1682893   0.2804822   0.0000000), wk =   0.0380952
        k(   26) = (   0.1682893   0.2804822   0.1202067), wk =   0.0761905
        k(   27) = (   0.1682893   0.2804822   0.2404133), wk =   0.0761905
        k(   28) = (   0.1682893   0.2804822   0.3606200), wk =   0.0761905
        k(   29) = (   0.1682893  -0.4207233   0.0000000), wk =   0.0190476
        k(   30) = (   0.1682893  -0.4207233   0.1202067), wk =   0.0380952
        k(   31) = (   0.1682893  -0.4207233   0.2404133), wk =   0.0380952
        k(   32) = (   0.1682893  -0.4207233   0.3606200), wk =   0.0380952
        k(   33) = (   0.3365787   0.0000000   0.0000000), wk =   0.0190476
        k(   34) = (   0.3365787   0.0000000   0.1202067), wk =   0.0380952
        k(   35) = (   0.3365787   0.0000000   0.2404133), wk =   0.0380952
        k(   36) = (   0.3365787   0.0000000   0.3606200), wk =   0.0380952
        k(   37) = (   0.3365787   0.1402411   0.0000000), wk =   0.0380952
        k(   38) = (   0.3365787   0.1402411   0.1202067), wk =   0.0761905
        k(   39) = (   0.3365787   0.1402411   0.2404133), wk =   0.0761905
        k(   40) = (   0.3365787   0.1402411   0.3606200), wk =   0.0761905
        k(   41) = (   0.3365787   0.2804822   0.0000000), wk =   0.0380952
        k(   42) = (   0.3365787   0.2804822   0.1202067), wk =   0.0761905
        k(   43) = (   0.3365787   0.2804822   0.2404133), wk =   0.0761905
        k(   44) = (   0.3365787   0.2804822   0.3606200), wk =   0.0761905
        k(   45) = (   0.3365787  -0.4207233   0.0000000), wk =   0.0190476
        k(   46) = (   0.3365787  -0.4207233   0.1202067), wk =   0.0380952
        k(   47) = (   0.3365787  -0.4207233   0.2404133), wk =   0.0380952
        k(   48) = (   0.3365787  -0.4207233   0.3606200), wk =   0.0380952

     Largest allocated arrays     est. size (Mb)     dimensions
     Largest temporary arrays     est. size (Mb)     dimensions

     Initial potential from superposition of free atoms

     Starting from uniform charge
     Starting wfc are    0 randomized atomic wfcs

     Writing output data file Prototype-La-cP8-Cr3Si.save

     Self-consistent Calculation

[...]

     iteration #  9     ecut=    40.00 Ry     beta=0.70
     CG style diagonalization
     c_bands:  1 eigenvalues not converged
     c_bands:  1 eigenvalues not converged
     ethr =  1.43E-07,  avg # of iterations =  3.9

[...]

     total energy              =   -3043.17757227 Ry
     Harris-Foulkes estimate   =   -3043.17757438 Ry
     estimated scf accuracy    <       0.00000370 Ry

     iteration # 11     ecut=    40.00 Ry     beta=0.70
     CG style diagonalization
     ethr =  1.99E-09,  avg # of iterations =  3.2

     End of self-consistent calculation

[...]

          k = 0.3366-0.4207 0.3606 (  4472 PWs)   bands (ev):

   -93.1006 -93.1000 -93.0899 -93.0888 -93.0761 -93.0754 -61.0316 -61.0315
   -52.0422 -52.0371 -52.0170 -52.0170 -51.9946 -51.9866 -51.8373 -51.8372
   -51.8363 -51.8355 -51.8351 -51.8343 -51.8332 -51.8324 -51.8316 -51.8306
   -51.8286 -51.8283 -25.2545 -25.2544 -25.2495 -25.2494 -25.2482 -25.2481
     5.2531   5.3545   5.6101   5.6110   5.6785   5.6827   5.7085   5.7178
     5.8018   5.8051   5.8385   5.8519   5.8586   5.8933   5.9205   5.9327
     6.0469   6.0471   6.1494   6.1553   6.1633   6.1765   6.1921   6.2080
     6.2729   6.2789   6.2992   6.2997   6.3255   6.3399  16.1388  16.1422
    16.5971  16.5995  16.9271  16.9374  18.2046  18.2047  18.2108  18.2108
    18.8109  18.8275  19.1563  19.1598  19.4221  19.4228  20.4498  20.4505
    27.2640  27.4678  28.0614  28.1430  29.0255  29.4249  29.8277  29.8989
    30.3224  30.4641  30.8440  31.0103  31.2015  31.2378  31.6274  31.7096
    31.8162  32.1232  33.1896  33.2689  33.7530  33.8187  34.1170  34.1240
    38.0510  38.1703  38.5148  38.5189  38.8884  39.0014  39.2883  39.3966

     the Fermi energy is    31.3233 ev

!    total energy              =   -3043.17757283 Ry
     Harris-Foulkes estimate   =   -3043.17757287 Ry
     estimated scf accuracy    <       0.00000005 Ry

     The total energy is the sum of the following terms:

     one-electron contribution =    -864.61325512 Ry
     hartree contribution      =     527.58375974 Ry
     xc contribution           =    -244.58608183 Ry
     ewald contribution        =   -2461.25391413 Ry
     smearing contrib. (-TS)   =      -0.30808148 Ry

     convergence has been achieved in  11 iterations

     Forces acting on atoms (Ry/au):

     atom    1 type  1   force =     0.00000000    0.00000000    0.00000000
     atom    2 type  1   force =     0.00000000    0.00000000    0.00000000
     atom    3 type  1   force =     0.00000000    0.00000000    0.00000000
     atom    4 type  1   force =     0.00000000    0.00000000    0.00000000
     atom    5 type  1   force =     0.00000000    0.00000000    0.00000000
     atom    6 type  1   force =     0.00000000    0.00000000    0.00000000
     atom    7 type  2   force =     0.00000000    0.00000000    0.00000000
     atom    8 type  2   force =     0.00000000    0.00000000    0.00000000

     Total force =     0.000000     Total SCF correction =     0.000000

     entering subroutine stress ...

          total   stress  (Ry/bohr**3)                   (kbar)     P=  399.08
   0.00271287   0.00000000   0.00000000        399.08      0.00      0.00
   0.00000000   0.00271287   0.00000000          0.00    399.08      0.00
   0.00000000   0.00000000   0.00271287          0.00      0.00    399.08

     Writing output data file Prototype-La-cP8-Cr3Si.save

     General routines

     Parallel routines

   This run was terminated on:  13: 0:14  22Mar2018

   JOB DONE.