     Program PWSCF v.5.0.2 starts on 22Mar2018 at 17:34:49

     Current dimensions of program PWSCF are:
     Max number of different atomic species (ntypx) = 10
     Max number of k-points (npk) =  40000
     Max angular momentum in pseudopotentials (lmaxx) =  3
     Waiting for input...
     Reading input from standard input

     Subspace diagonalization in iterative solution of the eigenvalue problem:
     a serial algorithm will be used

     bravais-lattice index     =            0
     lattice parameter (alat)  =       8.5346  a.u.
     unit-cell volume          =     621.6493 (a.u.)^3
     number of atoms/cell      =            8
     number of atomic types    =            2
     number of electrons       =       110.00
     number of Kohn-Sham states=           66
     kinetic-energy cutoff     =      40.0000  Ry
     charge density cutoff     =     160.0000  Ry
     convergence threshold     =      1.0E-04
     mixing beta               =       0.7000
     number of iterations used =            8  plain     mixing
     Exchange-correlation      = SLA-PZ-NOGX-NOGC ( 1 1 0 0 0)
     EXX-fraction              =        0.00
     nstep                     =           50

     celldm(1)=   8.534573  celldm(2)=   0.000000  celldm(3)=   0.000000
     celldm(4)=   0.000000  celldm(5)=   0.000000  celldm(6)=   0.000000

     crystal axes: (cart. coord. in units of alat)
               a(1) = (   1.000000   0.000000   0.000000 )
               a(2) = (   0.000000   1.000000   0.000000 )
               a(3) = (   0.000000   0.000000   1.000000 )

     reciprocal axes: (cart. coord. in units 2 pi/alat)
               b(1) = (  1.000000  0.000000  0.000000 )
               b(2) = (  0.000000  1.000000  0.000000 )
               b(3) = (  0.000000  0.000000  1.000000 )

     PseudoPot. # 1 for Nd read from file:
     /home/cwx6513/pp.La/Nd.UPF
     MD5 check sum: c66c5b6abe7b5840ced9b1e244e3bed6
     Pseudo is Norm-conserving, Zval = 14.0
     Generated in analytical, separable form
     Using radial grid of 1257 points,  6 beta functions with:
                l(1) =   0
                l(2) =   0
                l(3) =   1
                l(4) =   1
                l(5) =   2
                l(6) =   3

     PseudoPot. # 2 for Pr read from file:
     /home/cwx6513/pp.La/Pr.UPF
     MD5 check sum: 70e2b4b153859e92c8c91247dfc63203
     Pseudo is Norm-conserving, Zval = 13.0
     Generated in analytical, separable form
     Using radial grid of 1255 points,  6 beta functions with:
                l(1) =   0
                l(2) =   0
                l(3) =   1
                l(4) =   1
                l(5) =   2
                l(6) =   3

     atomic species   valence    mass     pseudopotential
        Cr            14.00    51.99610     Nd( 1.00)
        Si            13.00    28.08550     Pr( 1.00)

     48 Sym. Ops., with inversion, found (24 have fractional translation)

   Cartesian axes

     site n.     atom                  positions (alat units)
         1           Cr  tau(   1) = (   0.0000000   0.5000000   0.2500000  )
         2           Cr  tau(   2) = (   0.0000000   0.5000000   0.7500000  )
         3           Cr  tau(   3) = (   0.5000000   0.7500000   0.0000000  )
         4           Cr  tau(   4) = (   0.5000000   0.2500000   0.0000000  )
         5           Cr  tau(   5) = (   0.7500000   0.0000000   0.5000000  )
         6           Cr  tau(   6) = (   0.2500000   0.0000000   0.5000000  )
         7           Si  tau(   7) = (   0.5000000   0.5000000   0.5000000  )
         8           Si  tau(   8) = (   0.0000000   0.0000000   0.0000000  )

     number of k points=    48  gaussian smearing, width (Ry)=  0.1000
                       cart. coord. in units 2pi/alat
        k(    1) = (   0.0000000   0.0000000   0.0000000), wk =   0.0095238
        k(    2) = (   0.0000000   0.0000000   0.1428571), wk =   0.0190476
        k(    3) = (   0.0000000   0.0000000   0.2857143), wk =   0.0190476
        k(    4) = (   0.0000000   0.0000000   0.4285714), wk =   0.0190476
        k(    5) = (   0.0000000   0.1666667   0.0000000), wk =   0.0190476
        k(    6) = (   0.0000000   0.1666667   0.1428571), wk =   0.0380952
        k(    7) = (   0.0000000   0.1666667   0.2857143), wk =   0.0380952
        k(    8) = (   0.0000000   0.1666667   0.4285714), wk =   0.0380952
        k(    9) = (   0.0000000   0.3333333   0.0000000), wk =   0.0190476
        k(   10) = (   0.0000000   0.3333333   0.1428571), wk =   0.0380952
        k(   11) = (   0.0000000   0.3333333   0.2857143), wk =   0.0380952
        k(   12) = (   0.0000000   0.3333333   0.4285714), wk =   0.0380952
        k(   13) = (   0.0000000  -0.5000000   0.0000000), wk =   0.0095238
        k(   14) = (   0.0000000  -0.5000000   0.1428571), wk =   0.0190476
        k(   15) = (   0.0000000  -0.5000000   0.2857143), wk =   0.0190476
        k(   16) = (   0.0000000  -0.5000000   0.4285714), wk =   0.0190476
        k(   17) = (   0.2000000   0.0000000   0.0000000), wk =   0.0190476
        k(   18) = (   0.2000000   0.0000000   0.1428571), wk =   0.0380952
        k(   19) = (   0.2000000   0.0000000   0.2857143), wk =   0.0380952
        k(   20) = (   0.2000000   0.0000000   0.4285714), wk =   0.0380952
        k(   21) = (   0.2000000   0.1666667   0.0000000), wk =   0.0380952
        k(   22) = (   0.2000000   0.1666667   0.1428571), wk =   0.0761905
        k(   23) = (   0.2000000   0.1666667   0.2857143), wk =   0.0761905
        k(   24) = (   0.2000000   0.1666667   0.4285714), wk =   0.0761905
        k(   25) = (   0.2000000   0.3333333   0.0000000), wk =   0.0380952
        k(   26) = (   0.2000000   0.3333333   0.1428571), wk =   0.0761905
        k(   27) = (   0.2000000   0.3333333   0.2857143), wk =   0.0761905
        k(   28) = (   0.2000000   0.3333333   0.4285714), wk =   0.0761905
        k(   29) = (   0.2000000  -0.5000000   0.0000000), wk =   0.0190476
        k(   30) = (   0.2000000  -0.5000000   0.1428571), wk =   0.0380952
        k(   31) = (   0.2000000  -0.5000000   0.2857143), wk =   0.0380952
        k(   32) = (   0.2000000  -0.5000000   0.4285714), wk =   0.0380952
        k(   33) = (   0.4000000   0.0000000   0.0000000), wk =   0.0190476
        k(   34) = (   0.4000000   0.0000000   0.1428571), wk =   0.0380952
        k(   35) = (   0.4000000   0.0000000   0.2857143), wk =   0.0380952
        k(   36) = (   0.4000000   0.0000000   0.4285714), wk =   0.0380952
        k(   37) = (   0.4000000   0.1666667   0.0000000), wk =   0.0380952
        k(   38) = (   0.4000000   0.1666667   0.1428571), wk =   0.0761905
        k(   39) = (   0.4000000   0.1666667   0.2857143), wk =   0.0761905
        k(   40) = (   0.4000000   0.1666667   0.4285714), wk =   0.0761905
        k(   41) = (   0.4000000   0.3333333   0.0000000), wk =   0.0380952
        k(   42) = (   0.4000000   0.3333333   0.1428571), wk =   0.0761905
        k(   43) = (   0.4000000   0.3333333   0.2857143), wk =   0.0761905
        k(   44) = (   0.4000000   0.3333333   0.4285714), wk =   0.0761905
        k(   45) = (   0.4000000  -0.5000000   0.0000000), wk =   0.0190476
        k(   46) = (   0.4000000  -0.5000000   0.1428571), wk =   0.0380952
        k(   47) = (   0.4000000  -0.5000000   0.2857143), wk =   0.0380952
        k(   48) = (   0.4000000  -0.5000000   0.4285714), wk =   0.0380952

     Largest allocated arrays     est. size (Mb)     dimensions
     Largest temporary arrays     est. size (Mb)     dimensions

     Initial potential from superposition of free atoms
     Check: negative starting charge=   -0.000293

     starting charge   25.98109, renormalised to  110.00000

     negative rho (up, down):  0.124E-02 0.000E+00
     Starting wfc are   40 randomized atomic wfcs

     Self-consistent Calculation

     iteration #  1     ecut=    40.00 Ry     beta=0.70
     CG style diagonalization
     ethr =  1.00E-02,  avg # of iterations = 22.0

     negative rho (up, down):  0.366E-03 0.000E+00

     total energy              =    -720.00094332 Ry
     Harris-Foulkes estimate   =   -2023.21071270 Ry
     estimated scf accuracy    <    1537.49263344 Ry

     iteration #  2     ecut=    40.00 Ry     beta=0.70
     CG style diagonalization
     c_bands:  1 eigenvalues not converged
     c_bands:  1 eigenvalues not converged
     c_bands:  1 eigenvalues not converged
     c_bands:  1 eigenvalues not converged
     c_bands:  1 eigenvalues not converged
     ethr =  1.00E-02,  avg # of iterations = 11.4

[...]

     End of self-consistent calculation

          k = 0.0000 0.0000 0.0000 (  2601 PWs)   bands (ev):

    -9.6119  -7.8402  -7.8402  -5.4401  -5.4401  -5.4401  -2.0703  -1.0680
     8.3065   8.3065  10.0815  10.1701  10.1701  10.1701  13.2178  13.2178
    13.2178  14.2408  14.2408  14.2408  15.8657  15.8657  15.8657  19.0140
    19.0140  19.0140  19.4017  19.4017  19.4017  20.7966  20.7966  20.7966
    33.4139  33.4139  33.4139  33.7411  33.8606  34.1090  34.1090  36.8536
    36.8536  36.8536  37.4665  37.4665  39.1004  39.3641  39.3641  39.3641
    40.1069  40.2551  40.2551  40.2551  40.5439  40.5439  42.7787  42.7787
    42.7787  44.3773  44.3773  44.3773  44.5254  44.5254  44.5255  44.7892
    44.7892  46.9272

[...]

     the Fermi energy is    42.8187 ev

!    total energy              =    -842.53157084 Ry
     Harris-Foulkes estimate   =    -842.53163824 Ry
     estimated scf accuracy    <       0.00007399 Ry

     The total energy is the sum of the following terms:

     one-electron contribution =     263.28297490 Ry
     hartree contribution      =      28.15599285 Ry
     xc contribution           =    -111.71738985 Ry
     ewald contribution        =   -1021.92149417 Ry
     smearing contrib. (-TS)   =      -0.33165458 Ry

     convergence has been achieved in   9 iterations

     Forces acting on atoms (Ry/au):

     atom    1 type  1   force =     0.00000000    0.00000000    0.00000000
     atom    2 type  1   force =     0.00000000    0.00000000    0.00000000
     atom    3 type  1   force =     0.00000000    0.00000000    0.00000000
     atom    4 type  1   force =     0.00000000    0.00000000    0.00000000
     atom    5 type  1   force =     0.00000000    0.00000000    0.00000000
     atom    6 type  1   force =     0.00000000    0.00000000    0.00000000
     atom    7 type  2   force =     0.00000000    0.00000000    0.00000000
     atom    8 type  2   force =     0.00000000    0.00000000    0.00000000

     Total force =     0.000000     Total SCF correction =     0.000000

     entering subroutine stress ...

          total   stress  (Ry/bohr**3)                   (kbar)     P= 4683.93
   0.03184072   0.00000000   0.00000000       4683.93      0.00      0.00
   0.00000000   0.03184072   0.00000000          0.00   4683.93      0.00
   0.00000000   0.00000000   0.03184072          0.00      0.00   4683.93

     BFGS Geometry Optimization

     number of scf cycles    =   1
     number of bfgs steps    =   0

     enthalpy new            =    -842.5315708447 Ry

     new trust radius        =       0.5000000000 bohr
     new conv_thr            =       0.0001000000 Ry

[...]

[...]

          total   stress  (Ry/bohr**3)                   (kbar)     P=-1133.91
  -0.00770817   0.00000000   0.00000000      -1133.91      0.00      0.00
   0.00000000  -0.00770817   0.00000000          0.00  -1133.91      0.00
   0.00000000   0.00000000  -0.00770817          0.00      0.00  -1133.91

     number of scf cycles    =   3
     number of bfgs steps    =   2

     enthalpy old            =    -846.2346478268 Ry
     enthalpy new            =    -844.5959118571 Ry

     CASE: enthalpy_new > enthalpy_old

     new trust radius        =       0.4519119433 bohr

     trust_radius < trust_radius_min

     resetting bfgs history

     Message from routine bfgs:
     history already reset at previous step: stopping
     new conv_thr            =       0.0000010000 Ry

     new unit-cell volume =   1040.93057 a.u.^3 (   154.24999 Ang^3 )

[...]

ATOMIC_POSITIONS (crystal)
Cr       0.000000000   0.500000000   0.250000000
Cr       0.000000000   0.500000000   0.750000000
Cr       0.500000000   0.750000000   0.000000000
Cr       0.500000000   0.250000000   0.000000000
Cr       0.750000000   0.000000000   0.500000000
Cr       0.250000000   0.000000000   0.500000000
Si       0.500000000   0.500000000   0.500000000
Si       0.000000000   0.000000000   0.000000000

     Writing output data file Prototype-La-cP8-Cr3Si.save
     Check: negative starting charge=   -0.014913
     NEW-OLD atomic charge density approx. for the potential
     NEW k-points:
        k(    1) = (   0.0000000   0.0000000   0.0000000), wk =   0.0095238
        k(    2) = (   0.0000000   0.0000000   0.1203030), wk =   0.0190476
        k(    3) = (   0.0000000   0.0000000   0.2406060), wk =   0.0190476
        k(    4) = (   0.0000000   0.0000000   0.3609090), wk =   0.0190476
        k(    5) = (   0.0000000   0.1403535   0.0000000), wk =   0.0190476
        k(    6) = (   0.0000000   0.1403535   0.1203030), wk =   0.0380952
        k(    7) = (   0.0000000   0.1403535   0.2406060), wk =   0.0380952
        k(    8) = (   0.0000000   0.1403535   0.3609090), wk =   0.0380952
        k(    9) = (   0.0000000   0.2807070   0.0000000), wk =   0.0190476
        k(   10) = (   0.0000000   0.2807070   0.1203030), wk =   0.0380952
        k(   11) = (   0.0000000   0.2807070   0.2406060), wk =   0.0380952
        k(   12) = (   0.0000000   0.2807070   0.3609090), wk =   0.0380952
        k(   13) = (   0.0000000  -0.4210606   0.0000000), wk =   0.0095238
        k(   14) = (   0.0000000  -0.4210606   0.1203030), wk =   0.0190476
        k(   15) = (   0.0000000  -0.4210606   0.2406060), wk =   0.0190476
        k(   16) = (   0.0000000  -0.4210606   0.3609090), wk =   0.0190476
        k(   17) = (   0.1684242   0.0000000   0.0000000), wk =   0.0190476
        k(   18) = (   0.1684242   0.0000000   0.1203030), wk =   0.0380952
        k(   19) = (   0.1684242   0.0000000   0.2406060), wk =   0.0380952
        k(   20) = (   0.1684242   0.0000000   0.3609090), wk =   0.0380952
        k(   21) = (   0.1684242   0.1403535   0.0000000), wk =   0.0380952
        k(   22) = (   0.1684242   0.1403535   0.1203030), wk =   0.0761905
        k(   23) = (   0.1684242   0.1403535   0.2406060), wk =   0.0761905
        k(   24) = (   0.1684242   0.1403535   0.3609090), wk =   0.0761905
        k(   25) = (   0.1684242   0.2807070   0.0000000), wk =   0.0380952
        k(   26) = (   0.1684242   0.2807070   0.1203030), wk =   0.0761905
        k(   27) = (   0.1684242   0.2807070   0.2406060), wk =   0.0761905
        k(   28) = (   0.1684242   0.2807070   0.3609090), wk =   0.0761905
        k(   29) = (   0.1684242  -0.4210606   0.0000000), wk =   0.0190476
        k(   30) = (   0.1684242  -0.4210606   0.1203030), wk =   0.0380952
        k(   31) = (   0.1684242  -0.4210606   0.2406060), wk =   0.0380952
        k(   32) = (   0.1684242  -0.4210606   0.3609090), wk =   0.0380952
        k(   33) = (   0.3368484   0.0000000   0.0000000), wk =   0.0190476
        k(   34) = (   0.3368484   0.0000000   0.1203030), wk =   0.0380952
        k(   35) = (   0.3368484   0.0000000   0.2406060), wk =   0.0380952
        k(   36) = (   0.3368484   0.0000000   0.3609090), wk =   0.0380952
        k(   37) = (   0.3368484   0.1403535   0.0000000), wk =   0.0380952
        k(   38) = (   0.3368484   0.1403535   0.1203030), wk =   0.0761905
        k(   39) = (   0.3368484   0.1403535   0.2406060), wk =   0.0761905
        k(   40) = (   0.3368484   0.1403535   0.3609090), wk =   0.0761905
        k(   41) = (   0.3368484   0.2807070   0.0000000), wk =   0.0380952
        k(   42) = (   0.3368484   0.2807070   0.1203030), wk =   0.0761905
        k(   43) = (   0.3368484   0.2807070   0.2406060), wk =   0.0761905
        k(   44) = (   0.3368484   0.2807070   0.3609090), wk =   0.0761905
        k(   45) = (   0.3368484  -0.4210606   0.0000000), wk =   0.0190476
        k(   46) = (   0.3368484  -0.4210606   0.1203030), wk =   0.0380952
        k(   47) = (   0.3368484  -0.4210606   0.2406060), wk =   0.0380952
        k(   48) = (   0.3368484  -0.4210606   0.3609090), wk =   0.0380952
     Check: negative starting charge=   -0.007379

     negative rho (up, down):  0.107E+01 0.000E+00
     extrapolated charge  100.13585, renormalised to  110.00000

[...]

     The maximum number of steps has been reached.

     End of BFGS Geometry Optimization
Begin final coordinates
     new unit-cell volume =   1040.93057 a.u.^3 (   154.24999 Ang^3 )

CELL_PARAMETERS (alat=  8.53457320)
   1.187477659   0.000000000   0.000000000
   0.000000000   1.187477659   0.000000000
   0.000000000   0.000000000   1.187477659

ATOMIC_POSITIONS (crystal)
Cr       0.000000000   0.500000000   0.250000000
Cr       0.000000000   0.500000000   0.750000000
Cr       0.500000000   0.750000000   0.000000000
Cr       0.500000000   0.250000000   0.000000000
Cr       0.750000000   0.000000000   0.500000000
Cr       0.250000000   0.000000000   0.500000000
Si       0.500000000   0.500000000   0.500000000
Si       0.000000000   0.000000000   0.000000000
End final coordinates

     A final scf calculation at the relaxed structure.
     The G-vectors are recalculated for the final unit cell
     Results may differ from those at the preceding step.

     bravais-lattice index     =            0
     lattice parameter (alat)  =       8.5346  a.u.
     unit-cell volume          =    1040.9306 (a.u.)^3
     number of atoms/cell      =            8
     number of atomic types    =            2
     number of electrons       =       110.00
     number of Kohn-Sham states=           66
     kinetic-energy cutoff     =      40.0000  Ry
     charge density cutoff     =     160.0000  Ry
     convergence threshold     =      1.0E-06
     mixing beta               =       0.7000
     number of iterations used =            8  plain     mixing
     Exchange-correlation      = SLA-PZ-NOGX-NOGC ( 1 1 0 0 0)
     EXX-fraction              =        0.00

     celldm(1)=   8.534573  celldm(2)=   0.000000  celldm(3)=   0.000000
     celldm(4)=   0.000000  celldm(5)=   0.000000  celldm(6)=   0.000000

     crystal axes: (cart. coord. in units of alat)
               a(1) = (   1.187478   0.000000   0.000000 )
               a(2) = (   0.000000   1.187478   0.000000 )
               a(3) = (   0.000000   0.000000   1.187478 )

     reciprocal axes: (cart. coord. in units 2 pi/alat)
               b(1) = (  0.842121  0.000000  0.000000 )
               b(2) = (  0.000000  0.842121  0.000000 )
               b(3) = (  0.000000  0.000000  0.842121 )

     PseudoPot. # 1 for Nd read from file:
     /home/cwx6513/pp.La/Nd.UPF
     MD5 check sum: c66c5b6abe7b5840ced9b1e244e3bed6
     Pseudo is Norm-conserving, Zval = 14.0
     Generated in analytical, separable form
     Using radial grid of 1257 points,  6 beta functions with:
                l(1) =   0
                l(2) =   0
                l(3) =   1
                l(4) =   1
                l(5) =   2
                l(6) =   3

     PseudoPot. # 2 for Pr read from file:
     /home/cwx6513/pp.La/Pr.UPF
     MD5 check sum: 70e2b4b153859e92c8c91247dfc63203
     Pseudo is Norm-conserving, Zval = 13.0
     Generated in analytical, separable form
     Using radial grid of 1255 points,  6 beta functions with:
                l(1) =   0
                l(2) =   0
                l(3) =   1
                l(4) =   1
                l(5) =   2
                l(6) =   3

     atomic species   valence    mass     pseudopotential
        Cr            14.00    51.99610     Nd( 1.00)
        Si            13.00    28.08550     Pr( 1.00)

     48 Sym. Ops., with inversion, found (24 have fractional translation)

   Cartesian axes

     site n.     atom                  positions (alat units)
         1           Cr  tau(   1) = (   0.0000000   0.5937388   0.2968694  )
         2           Cr  tau(   2) = (   0.0000000   0.5937388   0.8906082  )
         3           Cr  tau(   3) = (   0.5937388   0.8906082   0.0000000  )
         4           Cr  tau(   4) = (   0.5937388   0.2968694   0.0000000  )
         5           Cr  tau(   5) = (   0.8906082   0.0000000   0.5937388  )
         6           Cr  tau(   6) = (   0.2968694   0.0000000   0.5937388  )
         7           Si  tau(   7) = (   0.5937388   0.5937388   0.5937388  )
         8           Si  tau(   8) = (   0.0000000   0.0000000   0.0000000  )

     number of k points=    48  gaussian smearing, width (Ry)=  0.1000
                       cart. coord. in units 2pi/alat
        k(    1) = (   0.0000000   0.0000000   0.0000000), wk =   0.0095238
        k(    2) = (   0.0000000   0.0000000   0.1203030), wk =   0.0190476
        k(    3) = (   0.0000000   0.0000000   0.2406060), wk =   0.0190476
        k(    4) = (   0.0000000   0.0000000   0.3609090), wk =   0.0190476
        k(    5) = (   0.0000000   0.1403535   0.0000000), wk =   0.0190476
        k(    6) = (   0.0000000   0.1403535   0.1203030), wk =   0.0380952
        k(    7) = (   0.0000000   0.1403535   0.2406060), wk =   0.0380952
        k(    8) = (   0.0000000   0.1403535   0.3609090), wk =   0.0380952
        k(    9) = (   0.0000000   0.2807070   0.0000000), wk =   0.0190476
        k(   10) = (   0.0000000   0.2807070   0.1203030), wk =   0.0380952
        k(   11) = (   0.0000000   0.2807070   0.2406060), wk =   0.0380952
        k(   12) = (   0.0000000   0.2807070   0.3609090), wk =   0.0380952
        k(   13) = (   0.0000000  -0.4210606   0.0000000), wk =   0.0095238
        k(   14) = (   0.0000000  -0.4210606   0.1203030), wk =   0.0190476
        k(   15) = (   0.0000000  -0.4210606   0.2406060), wk =   0.0190476
        k(   16) = (   0.0000000  -0.4210606   0.3609090), wk =   0.0190476
        k(   17) = (   0.1684242   0.0000000   0.0000000), wk =   0.0190476
        k(   18) = (   0.1684242   0.0000000   0.1203030), wk =   0.0380952
        k(   19) = (   0.1684242   0.0000000   0.2406060), wk =   0.0380952
        k(   20) = (   0.1684242   0.0000000   0.3609090), wk =   0.0380952
        k(   21) = (   0.1684242   0.1403535   0.0000000), wk =   0.0380952
        k(   22) = (   0.1684242   0.1403535   0.1203030), wk =   0.0761905
        k(   23) = (   0.1684242   0.1403535   0.2406060), wk =   0.0761905
        k(   24) = (   0.1684242   0.1403535   0.3609090), wk =   0.0761905
        k(   25) = (   0.1684242   0.2807070   0.0000000), wk =   0.0380952
        k(   26) = (   0.1684242   0.2807070   0.1203030), wk =   0.0761905
        k(   27) = (   0.1684242   0.2807070   0.2406060), wk =   0.0761905
        k(   28) = (   0.1684242   0.2807070   0.3609090), wk =   0.0761905
        k(   29) = (   0.1684242  -0.4210606   0.0000000), wk =   0.0190476
        k(   30) = (   0.1684242  -0.4210606   0.1203030), wk =   0.0380952
        k(   31) = (   0.1684242  -0.4210606   0.2406060), wk =   0.0380952
        k(   32) = (   0.1684242  -0.4210606   0.3609090), wk =   0.0380952
        k(   33) = (   0.3368484   0.0000000   0.0000000), wk =   0.0190476
        k(   34) = (   0.3368484   0.0000000   0.1203030), wk =   0.0380952
        k(   35) = (   0.3368484   0.0000000   0.2406060), wk =   0.0380952
        k(   36) = (   0.3368484   0.0000000   0.3609090), wk =   0.0380952
        k(   37) = (   0.3368484   0.1403535   0.0000000), wk =   0.0380952
        k(   38) = (   0.3368484   0.1403535   0.1203030), wk =   0.0761905
        k(   39) = (   0.3368484   0.1403535   0.2406060), wk =   0.0761905
        k(   40) = (   0.3368484   0.1403535   0.3609090), wk =   0.0761905
        k(   41) = (   0.3368484   0.2807070   0.0000000), wk =   0.0380952
        k(   42) = (   0.3368484   0.2807070   0.1203030), wk =   0.0761905
        k(   43) = (   0.3368484   0.2807070   0.2406060), wk =   0.0761905
        k(   44) = (   0.3368484   0.2807070   0.3609090), wk =   0.0761905
        k(   45) = (   0.3368484  -0.4210606   0.0000000), wk =   0.0190476
        k(   46) = (   0.3368484  -0.4210606   0.1203030), wk =   0.0380952
        k(   47) = (   0.3368484  -0.4210606   0.2406060), wk =   0.0380952
        k(   48) = (   0.3368484  -0.4210606   0.3609090), wk =   0.0380952

     Largest allocated arrays     est. size (Mb)     dimensions
     Largest temporary arrays     est. size (Mb)     dimensions

     Initial potential from superposition of free atoms
     Check: negative starting charge=   -0.000591

     starting charge   25.98109, renormalised to  110.00000

     negative rho (up, down):  0.250E-02 0.000E+00
     Starting wfc are   40 randomized atomic wfcs

     Writing output data file Prototype-La-cP8-Cr3Si.save

     Self-consistent Calculation

[...]

     negative rho (up, down):  0.885E-05 0.000E+00

[...]

     iteration # 10     ecut=    40.00 Ry     beta=0.70
     CG style diagonalization
     c_bands:  1 eigenvalues not converged
     ethr =  2.63E-07,  avg # of iterations =  3.7

[...]

     total energy              =    -848.16120137 Ry
     Harris-Foulkes estimate   =    -848.16120166 Ry
     estimated scf accuracy    <       0.00000115 Ry

     iteration # 12     ecut=    40.00 Ry     beta=0.70
     CG style diagonalization
     ethr =  1.05E-09,  avg # of iterations =  3.1

     End of self-consistent calculation

[...]

          k = 0.3368-0.4211 0.3609 (  4458 PWs)   bands (ev):

   -23.5125 -23.4884 -23.4124 -23.4115 -23.3387 -23.3126 -18.3229 -18.3229
    -2.8869  -2.7422  -2.4054  -2.4053  -2.2942  -2.2934  -2.1483  -2.0931
    -1.7392  -1.7172  -1.6383  -1.6370  -1.5056  -1.4903  -1.4680  -1.4488
    -1.4420  -1.3978   1.7229   1.7260   1.7438   1.7530   1.7599   1.7638
    19.6053  19.6388  19.8404  19.8765  20.0618  20.1100  20.6808  20.6898
    20.8084  20.8190  21.2231  21.2491  21.4232  21.4253  21.9533  21.9759
    22.8022  22.8028  23.3934  23.6636  24.1650  24.2269  24.7710  24.8887
    25.0378  25.0897  25.5910  25.6508  26.3295  26.6421  27.1988  27.2044
    27.6951  27.7741

     the Fermi energy is    24.4791 ev

!    total energy              =    -848.16120117 Ry
     Harris-Foulkes estimate   =    -848.16120147 Ry
     estimated scf accuracy    <       0.00000033 Ry

     The total energy is the sum of the following terms:

     one-electron contribution =      53.65060251 Ry
     hartree contribution      =      62.34293941 Ry
     xc contribution           =    -103.07354319 Ry
     ewald contribution        =    -860.58165935 Ry
     smearing contrib. (-TS)   =      -0.49954056 Ry

     convergence has been achieved in  12 iterations

     Forces acting on atoms (Ry/au):

     atom    1 type  1   force =     0.00000000    0.00000000    0.00000000
     atom    2 type  1   force =     0.00000000    0.00000000    0.00000000
     atom    3 type  1   force =     0.00000000    0.00000000    0.00000000
     atom    4 type  1   force =     0.00000000    0.00000000    0.00000000
     atom    5 type  1   force =     0.00000000    0.00000000    0.00000000
     atom    6 type  1   force =     0.00000000    0.00000000    0.00000000
     atom    7 type  2   force =     0.00000000    0.00000000    0.00000000
     atom    8 type  2   force =     0.00000000    0.00000000    0.00000000

     Total force =     0.000000     Total SCF correction =     0.000000

     entering subroutine stress ...

          total   stress  (Ry/bohr**3)                   (kbar)     P=  359.56
   0.00244425   0.00000000   0.00000000        359.56      0.00      0.00
   0.00000000   0.00244425   0.00000000          0.00    359.56      0.00
   0.00000000   0.00000000   0.00244425          0.00      0.00    359.56

     Writing output data file Prototype-La-cP8-Cr3Si.save

     General routines

     Parallel routines

   This run was terminated on:  18: 5: 7  22Mar2018

   JOB DONE.