     Program PWSCF v.5.0.2 starts on 23Mar2018 at  2:19:47

     Current dimensions of program PWSCF are:
     Max number of different atomic species (ntypx) = 10
     Max number of k-points (npk) =  40000
     Max angular momentum in pseudopotentials (lmaxx) =  3
     Waiting for input...
     Reading input from standard input

     Subspace diagonalization in iterative solution of the eigenvalue problem:
     a serial algorithm will be used

     bravais-lattice index     =            0
     lattice parameter (alat)  =       7.0151  a.u.
     unit-cell volume          =     862.2778 (a.u.)^3
     number of atoms/cell      =           12
     number of atomic types    =            2
     number of electrons       =       224.00
     number of Kohn-Sham states=          134
     kinetic-energy cutoff     =      40.0000  Ry
     charge density cutoff     =     160.0000  Ry
     convergence threshold     =      1.0E-04
     mixing beta               =       0.7000
     number of iterations used =            8  plain     mixing
     Exchange-correlation      = SLA-PZ-NOGX-NOGC ( 1 1 0 0 0)
     EXX-fraction              =        0.00
     nstep                     =           50

     celldm(1)=   7.015105  celldm(2)=   0.000000  celldm(3)=   0.000000
     celldm(4)=   0.000000  celldm(5)=   0.000000  celldm(6)=   0.000000

     crystal axes: (cart. coord. in units of alat)
               a(1) = (   1.000000   0.000000   0.000000 )
               a(2) = (   0.000000   1.315963   0.000000 )
               a(3) = (   0.000000   0.000000   1.898020 )

     reciprocal axes: (cart. coord. in units 2 pi/alat)
               b(1) = (  1.000000  0.000000  0.000000 )
               b(2) = (  0.000000  0.759900  0.000000 )
               b(3) = (  0.000000  0.000000  0.526865 )

     PseudoPot. # 1 for Dy read from file:
     /home/cwx6513/pp.La/Dy.UPF
     MD5 check sum: 9597327bec62616a94a14d07f3fd9936
     Pseudo is Norm-conserving, Zval = 20.0
     Generated in analytical, separable form
     Using radial grid of 1265 points,  6 beta functions with:
                l(1) =   0
                l(2) =   0
                l(3) =   1
                l(4) =   1
                l(5) =   2
                l(6) =   3

     PseudoPot. # 2 for Sm read from file:
     /home/cwx6513/pp.La/Sm.UPF
     MD5 check sum: 5079e8b144a06bfcdbc14fb02b96ab09
     Pseudo is Norm-conserving, Zval = 16.0
     Generated in analytical, separable form
     Using radial grid of 1259 points,  6 beta functions with:
                l(1) =   0
                l(2) =   0
                l(3) =   1
                l(4) =   1
                l(5) =   2
                l(6) =   3

     atomic species   valence    mass     pseudopotential
        Co            20.00    58.93320     Dy( 1.00)
        Si            16.00    28.08550     Sm( 1.00)

      8 Sym. Ops., with inversion, found ( 6 have fractional translation)

   Cartesian axes

     site n.     atom                  positions (alat units)
         1           Co  tau(   1) = (   0.7500000   1.0875135   0.8270358  )
         2           Co  tau(   2) = (   0.2500000   0.2284499   1.0709846  )
         3           Co  tau(   3) = (   0.7500000   0.4295318   0.1219744  )
         4           Co  tau(   4) = (   0.2500000   0.8864316   1.7760460  )
         5           Co  tau(   5) = (   0.2500000   0.7067855   0.5358966  )
         6           Co  tau(   6) = (   0.7500000   0.6091779   1.3621238  )
         7           Co  tau(   7) = (   0.2500000   0.0488038   0.4131136  )
         8           Co  tau(   8) = (   0.7500000   1.2671596   1.4849068  )
         9           Si  tau(   9) = (   0.2500000   0.2669484   1.6960710  )
        10           Si  tau(  10) = (   0.7500000   1.0490149   0.2019494  )
        11           Si  tau(  11) = (   0.2500000   0.9249301   1.1509596  )
        12           Si  tau(  12) = (   0.7500000   0.3910333   0.7470608  )

     number of k points=    12  gaussian smearing, width (Ry)=  0.1000
                       cart. coord. in units 2pi/alat
        k(    1) = (   0.0000000   0.0000000   0.0000000), wk =   0.0833333
        k(    2) = (   0.0000000   0.0000000   0.1317162), wk =   0.1666667
        k(    3) = (   0.0000000   0.0000000  -0.2634324), wk =   0.0833333
        k(    4) = (   0.0000000   0.2532999   0.0000000), wk =   0.1666667
        k(    5) = (   0.0000000   0.2532999   0.1317162), wk =   0.3333333
        k(    6) = (   0.0000000   0.2532999  -0.2634324), wk =   0.1666667
        k(    7) = (  -0.5000000   0.0000000   0.0000000), wk =   0.0833333
        k(    8) = (  -0.5000000   0.0000000   0.1317162), wk =   0.1666667
        k(    9) = (  -0.5000000   0.0000000  -0.2634324), wk =   0.0833333
        k(   10) = (  -0.5000000   0.2532999   0.0000000), wk =   0.1666667
        k(   11) = (  -0.5000000   0.2532999   0.1317162), wk =   0.3333333
        k(   12) = (  -0.5000000   0.2532999  -0.2634324), wk =   0.1666667

     Largest allocated arrays     est. size (Mb)     dimensions
     Largest temporary arrays     est. size (Mb)     dimensions

     Initial potential from superposition of free atoms

     Starting from uniform charge
     Starting wfc are    0 randomized atomic wfcs

     Self-consistent Calculation

     iteration #  1     ecut=    40.00 Ry     beta=0.70
     CG style diagonalization
     c_bands:  4 eigenvalues not converged
     c_bands:  3 eigenvalues not converged
     c_bands:  3 eigenvalues not converged
     c_bands:  3 eigenvalues not converged
     c_bands:  1 eigenvalues not converged
     ethr =  1.00E-02,  avg # of iterations = 14.6

     total energy              =   -2364.86056709 Ry
     Harris-Foulkes estimate   =   -2971.32029509 Ry
     estimated scf accuracy    <     775.27560076 Ry

[...]

     iteration #  3     ecut=    40.00 Ry     beta=0.70
     CG style diagonalization
     ethr =  1.00E-02,  avg # of iterations =  8.7

[...]

     End of self-consistent calculation

          k = 0.0000 0.0000 0.0000 (  3675 PWs)   bands (ev):

   -35.4854 -35.3440 -35.2170 -35.1589 -35.1161 -35.0894 -35.0629 -35.0582
    -8.6920  -8.6525  -8.4952  -8.3706  -3.6379  -3.6054  -3.4447  -3.2974
    -3.2737  -3.1165  -2.9553  -2.8257  -2.8087  -2.7083  -2.5562  -2.5112
    -2.4712  -2.4352  -2.3932  -2.3647  -2.2599  -2.1499  -2.1329  -2.1144
    -2.0140  -1.9129  -1.7780  -1.6564  14.8927  15.1393  15.1782  15.1908
    15.3316  15.4554  15.4939  15.5720  15.6561  15.8411  16.0243  16.2541
    31.9111  32.1899  32.4588  32.6295  32.6630  32.7150  32.9028  33.4292
    33.6746  34.1839  34.4861  35.0130  35.1681  35.5891  35.5991  35.7542
    36.1908  36.3259  36.4932  36.9941  37.0837  37.3059  37.5515  37.9486
    38.0556  38.1133  38.1244  38.3937  38.6496  39.1272  39.2645  39.5231
    39.6206  39.8416  39.9310  40.0271  40.6218  41.1135  41.3203  41.5790
    42.1929  42.5417  42.9192  43.3953  44.6607  44.7841  45.4581  45.6067
    45.9116  46.1611  46.3638  46.9926  47.7518  48.2548  48.2550  48.5153
    49.0125  49.4637  50.0910  50.1629  50.1833  50.2130  50.8058  51.1927
    51.2359  53.6014  54.0984  54.5864  55.0139  55.3929  55.5744  55.6051
    56.0263  56.7554  57.4388  57.4468  57.6507  58.3064  58.3995  58.7236
    58.8779  59.1059  59.2228  59.3022  59.7203  60.1504

[...]

          k =-0.5000 0.0000 0.0000 (  3722 PWs)   bands (ev):

[...]

     the Fermi energy is    51.2919 ev

!    total energy              =   -2676.90208161 Ry
     Harris-Foulkes estimate   =   -2676.90211307 Ry
     estimated scf accuracy    <       0.00003397 Ry

     The total energy is the sum of the following terms:

     one-electron contribution =     315.72705693 Ry
     hartree contribution      =     197.77219354 Ry
     xc contribution           =    -273.42863544 Ry
     ewald contribution        =   -2916.76759009 Ry
     smearing contrib. (-TS)   =      -0.20510655 Ry

     convergence has been achieved in  10 iterations

     Forces acting on atoms (Ry/au):

     atom    1 type  1   force =     0.00000000   -0.06240465   -0.06966983
     atom    2 type  1   force =     0.00000000    0.06240465    0.06966983
     atom    3 type  1   force =     0.00000000   -0.06240465    0.06966983
     atom    4 type  1   force =     0.00000000    0.06240465   -0.06966983
     atom    5 type  1   force =     0.00000000    0.16169523   -0.24161096
     atom    6 type  1   force =     0.00000000   -0.16169523    0.24161096
     atom    7 type  1   force =     0.00000000    0.16169523    0.24161096
     atom    8 type  1   force =     0.00000000   -0.16169523   -0.24161096
     atom    9 type  2   force =     0.00000000   -0.19604574    0.05653635
     atom   10 type  2   force =     0.00000000    0.19604574   -0.05653635
     atom   11 type  2   force =     0.00000000   -0.19604574   -0.05653635
     atom   12 type  2   force =     0.00000000    0.19604574    0.05653635

     Total force =     0.734574     Total SCF correction =     0.000000

     entering subroutine stress ...

          total   stress  (Ry/bohr**3)                   (kbar)     P= 7206.45
   0.05333548   0.00000000   0.00000000       7845.92      0.00      0.00
   0.00000000   0.04558351   0.00000000          0.00   6705.56      0.00
   0.00000000   0.00000000   0.04804634          0.00      0.00   7067.86

     BFGS Geometry Optimization

     number of scf cycles    =   1
     number of bfgs steps    =   0

     enthalpy new            =   -2676.9020816101 Ry

     new trust radius        =       0.5000000000 bohr
     new conv_thr            =       0.0001000000 Ry

     new unit-cell volume =   1080.75554 a.u.^3 (   160.15145 Ang^3 )

CELL_PARAMETERS (alat=  7.01510508)
   1.085136619   0.000000000   0.000000000
   0.000000000   1.411716227   0.000000000
   0.000000000   0.000000000   2.043586860

ATOMIC_POSITIONS (crystal)
Co       0.750000000   0.825969382   0.435401905
Co       0.250000000   0.174030618   0.564598095
Co       0.750000000   0.325969382   0.064598095
Co       0.250000000   0.674030618   0.935401905
Co       0.250000000   0.538204354   0.281186378
Co       0.750000000   0.461795646   0.718813622
Co       0.250000000   0.038204354   0.218813622
Co       0.750000000   0.961795646   0.781186378
Si       0.250000000   0.201498063   0.893871115
Si       0.750000000   0.798501937   0.106128885
Si       0.250000000   0.701498063   0.606128885
Si       0.750000000   0.298501937   0.393871115

     Writing output data file Prototype-La-oP12-Co2Si.save
     NEW-OLD atomic charge density approx. for the potential
     NEW k-points:
        k(    1) = (   0.0000000   0.0000000   0.0000000), wk =   0.0833333
        k(    2) = (   0.0000000   0.0000000   0.1223339), wk =   0.1666667
        k(    3) = (   0.0000000   0.0000000  -0.2446678), wk =   0.0833333
        k(    4) = (   0.0000000   0.2361192   0.0000000), wk =   0.1666667
        k(    5) = (   0.0000000   0.2361192   0.1223339), wk =   0.3333333
        k(    6) = (   0.0000000   0.2361192  -0.2446678), wk =   0.1666667
        k(    7) = (  -0.4607715   0.0000000   0.0000000), wk =   0.0833333
        k(    8) = (  -0.4607715   0.0000000   0.1223339), wk =   0.1666667
        k(    9) = (  -0.4607715   0.0000000  -0.2446678), wk =   0.0833333
        k(   10) = (  -0.4607715   0.2361192   0.0000000), wk =   0.1666667
        k(   11) = (  -0.4607715   0.2361192   0.1223339), wk =   0.3333333
        k(   12) = (  -0.4607715   0.2361192  -0.2446678), wk =   0.1666667

[...]

     enthalpy old            =   -2676.9020816101 Ry
     enthalpy new            =   -2683.5163031150 Ry

     CASE: enthalpy_new < enthalpy_old

     small trust_radius: resetting bfgs history

     new trust radius        =       2.8486076908 bohr
     new conv_thr            =       0.0001000000 Ry

[...]

          total   stress  (Ry/bohr**3)                   (kbar)     P=-1982.95
  -0.01490158   0.00000000   0.00000000      -2192.10      0.00      0.00
   0.00000000  -0.01235601   0.00000000          0.00  -1817.63      0.00
   0.00000000   0.00000000  -0.01318195          0.00      0.00  -1939.13

     number of scf cycles    =   3
     number of bfgs steps    =   2

     enthalpy old            =   -2683.5163031150 Ry
     enthalpy new            =   -2669.2649663372 Ry

     CASE: enthalpy_new > enthalpy_old

     new trust radius        =       0.9631775136 bohr

     trust_radius < trust_radius_min

     resetting bfgs history

     Message from routine bfgs:
     history already reset at previous step: stopping
     new conv_thr            =       0.0001000000 Ry

     new unit-cell volume =   1276.88064 a.u.^3 (   189.21419 Ang^3 )

[...]

ATOMIC_POSITIONS (crystal)
Co       0.750000000   0.825473095   0.435218802
Co       0.250000000   0.174526905   0.564781198
Co       0.750000000   0.325473095   0.064781198
Co       0.250000000   0.674526905   0.935218802
Co       0.250000000   0.539268790   0.280093638
Co       0.750000000   0.460731210   0.719906362
Co       0.250000000   0.039268790   0.219906362
Co       0.750000000   0.960731210   0.780093638
Si       0.250000000   0.200182540   0.894205812
Si       0.750000000   0.799817460   0.105794188
Si       0.250000000   0.700182540   0.605794188
Si       0.750000000   0.299817460   0.394205812

     Writing output data file Prototype-La-oP12-Co2Si.save
     NEW-OLD atomic charge density approx. for the potential
     NEW k-points:
        k(    1) = (   0.0000000   0.0000000   0.0000000), wk =   0.0833333
        k(    2) = (   0.0000000   0.0000000   0.1158586), wk =   0.1666667
        k(    3) = (   0.0000000   0.0000000  -0.2317171), wk =   0.0833333
        k(    4) = (   0.0000000   0.2250035   0.0000000), wk =   0.1666667
        k(    5) = (   0.0000000   0.2250035   0.1158586), wk =   0.3333333
        k(    6) = (   0.0000000   0.2250035  -0.2317171), wk =   0.1666667
        k(    7) = (  -0.4321391   0.0000000   0.0000000), wk =   0.0833333
        k(    8) = (  -0.4321391   0.0000000   0.1158586), wk =   0.1666667
        k(    9) = (  -0.4321391   0.0000000  -0.2317171), wk =   0.0833333
        k(   10) = (  -0.4321391   0.2250035   0.0000000), wk =   0.1666667
        k(   11) = (  -0.4321391   0.2250035   0.1158586), wk =   0.3333333
        k(   12) = (  -0.4321391   0.2250035  -0.2317171), wk =   0.1666667

[...]

     The maximum number of steps has been reached.

     End of BFGS Geometry Optimization
Begin final coordinates
     new unit-cell volume =   1276.88064 a.u.^3 (   189.21419 Ang^3 )

CELL_PARAMETERS (alat=  7.01510508)
   1.157034727   0.000000000   0.000000000
   0.000000000   1.481458645   0.000000000
   0.000000000   0.000000000   2.157803196

ATOMIC_POSITIONS (crystal)
Co       0.750000000   0.825473095   0.435218802
Co       0.250000000   0.174526905   0.564781198
Co       0.750000000   0.325473095   0.064781198
Co       0.250000000   0.674526905   0.935218802
Co       0.250000000   0.539268790   0.280093638
Co       0.750000000   0.460731210   0.719906362
Co       0.250000000   0.039268790   0.219906362
Co       0.750000000   0.960731210   0.780093638
Si       0.250000000   0.200182540   0.894205812
Si       0.750000000   0.799817460   0.105794188
Si       0.250000000   0.700182540   0.605794188
Si       0.750000000   0.299817460   0.394205812
End final coordinates

     A final scf calculation at the relaxed structure.
     The G-vectors are recalculated for the final unit cell
     Results may differ from those at the preceding step.

     bravais-lattice index     =            0
     lattice parameter (alat)  =       7.0151  a.u.
     unit-cell volume          =    1276.8806 (a.u.)^3
     number of atoms/cell      =           12
     number of atomic types    =            2
     number of electrons       =       224.00
     number of Kohn-Sham states=          134
     kinetic-energy cutoff     =      40.0000  Ry
     charge density cutoff     =     160.0000  Ry
     convergence threshold     =      1.0E-04
     mixing beta               =       0.7000
     number of iterations used =            8  plain     mixing
     Exchange-correlation      = SLA-PZ-NOGX-NOGC ( 1 1 0 0 0)
     EXX-fraction              =        0.00

     celldm(1)=   7.015105  celldm(2)=   0.000000  celldm(3)=   0.000000
     celldm(4)=   0.000000  celldm(5)=   0.000000  celldm(6)=   0.000000

     crystal axes: (cart. coord. in units of alat)
               a(1) = (   1.157035   0.000000   0.000000 )
               a(2) = (   0.000000   1.481459   0.000000 )
               a(3) = (   0.000000   0.000000   2.157803 )

     reciprocal axes: (cart. coord. in units 2 pi/alat)
               b(1) = (  0.864278  0.000000  0.000000 )
               b(2) = (  0.000000  0.675010  0.000000 )
               b(3) = (  0.000000  0.000000  0.463434 )

     PseudoPot. # 1 for Dy read from file:
     /home/cwx6513/pp.La/Dy.UPF
     MD5 check sum: 9597327bec62616a94a14d07f3fd9936
     Pseudo is Norm-conserving, Zval = 20.0
     Generated in analytical, separable form
     Using radial grid of 1265 points,  6 beta functions with:
                l(1) =   0
                l(2) =   0
                l(3) =   1
                l(4) =   1
                l(5) =   2
                l(6) =   3

     PseudoPot. # 2 for Sm read from file:
     /home/cwx6513/pp.La/Sm.UPF
     MD5 check sum: 5079e8b144a06bfcdbc14fb02b96ab09
     Pseudo is Norm-conserving, Zval = 16.0
     Generated in analytical, separable form
     Using radial grid of 1259 points,  6 beta functions with:
                l(1) =   0
                l(2) =   0
                l(3) =   1
                l(4) =   1
                l(5) =   2
                l(6) =   3

     atomic species   valence    mass     pseudopotential
        Co            20.00    58.93320     Dy( 1.00)
        Si            16.00    28.08550     Sm( 1.00)

      8 Sym. Ops., with inversion, found ( 6 have fractional translation)

   Cartesian axes

     site n.     atom                  positions (alat units)
         1           Co  tau(   1) = (   0.8677760   1.2229043   0.9391165  )
         2           Co  tau(   2) = (   0.2892587   0.2585544   1.2186867  )
         3           Co  tau(   3) = (   0.8677760   0.4821749   0.1397851  )
         4           Co  tau(   4) = (   0.2892587   0.9992837   2.0180181  )
         5           Co  tau(   5) = (   0.2892587   0.7989044   0.6043869  )
         6           Co  tau(   6) = (   0.8677760   0.6825542   1.5534162  )
         7           Co  tau(   7) = (   0.2892587   0.0581751   0.4745146  )
         8           Co  tau(   8) = (   0.8677760   1.4232836   1.6832885  )
         9           Si  tau(   9) = (   0.2892587   0.2965622   1.9295202  )
        10           Si  tau(  10) = (   0.8677760   1.1848965   0.2282830  )
        11           Si  tau(  11) = (   0.2892587   1.0372915   1.3071846  )
        12           Si  tau(  12) = (   0.8677760   0.4441672   0.8506186  )

     number of k points=    12  gaussian smearing, width (Ry)=  0.1000
                       cart. coord. in units 2pi/alat
        k(    1) = (   0.0000000   0.0000000   0.0000000), wk =   0.0833333
        k(    2) = (   0.0000000   0.0000000   0.1158586), wk =   0.1666667
        k(    3) = (   0.0000000   0.0000000  -0.2317171), wk =   0.0833333
        k(    4) = (   0.0000000   0.2250035   0.0000000), wk =   0.1666667
        k(    5) = (   0.0000000   0.2250035   0.1158586), wk =   0.3333333
        k(    6) = (   0.0000000   0.2250035  -0.2317171), wk =   0.1666667
        k(    7) = (  -0.4321391   0.0000000   0.0000000), wk =   0.0833333
        k(    8) = (  -0.4321391   0.0000000   0.1158586), wk =   0.1666667
        k(    9) = (  -0.4321391   0.0000000  -0.2317171), wk =   0.0833333
        k(   10) = (  -0.4321391   0.2250035   0.0000000), wk =   0.1666667
        k(   11) = (  -0.4321391   0.2250035   0.1158586), wk =   0.3333333
        k(   12) = (  -0.4321391   0.2250035  -0.2317171), wk =   0.1666667

     Largest allocated arrays     est. size (Mb)     dimensions
     Largest temporary arrays     est. size (Mb)     dimensions

     Initial potential from superposition of free atoms

     Starting from uniform charge
     Starting wfc are    0 randomized atomic wfcs

     Writing output data file Prototype-La-oP12-Co2Si.save

     Self-consistent Calculation

[...]

     iteration #  8     ecut=    40.00 Ry     beta=0.70
     CG style diagonalization
     ethr =  1.02E-04,  avg # of iterations =  3.3

[...]

     total energy              =   -2688.52075797 Ry
     Harris-Foulkes estimate   =   -2688.52120750 Ry
     estimated scf accuracy    <       0.00098441 Ry

     iteration # 11     ecut=    40.00 Ry     beta=0.70
     CG style diagonalization
     c_bands:  1 eigenvalues not converged
     ethr =  4.39E-07,  avg # of iterations =  3.3

     End of self-consistent calculation

[...]

          k = 0.0000 0.2250-0.2317 (  5460 PWs)   bands (ev):

[...]

          k =-0.4321 0.2250-0.2317 (  5460 PWs)   bands (ev):

   -50.7769 -50.7769 -50.7567 -50.7567 -50.6752 -50.6752 -50.6658 -50.6658
   -24.4757 -24.4757 -24.4669 -24.4669 -18.0251 -18.0251 -17.9050 -17.9050
   -17.8788 -17.8788 -17.8171 -17.8171 -17.7904 -17.7904 -17.7292 -17.7292
   -17.6596 -17.6596 -17.6438 -17.6438 -17.6306 -17.6306 -17.6107 -17.6107
   -17.5767 -17.5767 -17.5595 -17.5595  -0.0887  -0.0887  -0.0528  -0.0528
    -0.0001  -0.0001   0.0046   0.0046   0.1387   0.1387   0.1545   0.1545
    20.6568  20.6568  21.1707  21.1707  21.2767  21.2767  21.4434  21.4434
    21.6420  21.6420  21.7703  21.7703  21.8278  21.8278  22.2259  22.2259
    22.3455  22.3455  22.4842  22.4842  22.5226  22.5226  23.0054  23.0054
    23.0936  23.0936  23.2380  23.2380  23.3304  23.3304  23.5595  23.5595
    23.8360  23.8360  24.4249  24.4249  24.4369  24.4369  24.9646  24.9646
    25.6985  25.6985  25.9519  25.9519  27.8550  27.8550  28.5859  28.5859
    29.3524  29.3524  29.3657  29.3657  29.8677  29.8677  30.2554  30.2554
    30.8885  30.8885  31.0814  31.0814  31.4544  31.4544  31.6215  31.6215
    33.4037  33.4037  33.6700  33.6700  34.2667  34.2667  36.8186  36.8186
    37.8607  37.8607  39.0377  39.0378  39.8018  39.8019  40.4104  40.4104
    40.7244  40.7245  42.0070  42.0070  42.6834  42.7211

     the Fermi energy is    32.8183 ev

!    total energy              =   -2688.52089125 Ry
     Harris-Foulkes estimate   =   -2688.52093345 Ry
     estimated scf accuracy    <       0.00004769 Ry

     The total energy is the sum of the following terms:

     one-electron contribution =    -177.09939435 Ry
     hartree contribution      =     310.75117137 Ry
     xc contribution           =    -262.11400602 Ry
     ewald contribution        =   -2559.71225377 Ry
     smearing contrib. (-TS)   =      -0.34640848 Ry

     convergence has been achieved in  11 iterations

     Forces acting on atoms (Ry/au):

     atom    1 type  1   force =     0.00000000   -0.05436481   -0.01364528
     atom    2 type  1   force =     0.00000000    0.05436481    0.01364528
     atom    3 type  1   force =     0.00000000   -0.05436481    0.01364528
     atom    4 type  1   force =     0.00000000    0.05436481   -0.01364528
     atom    5 type  1   force =     0.00000000    0.05412352   -0.07141423
     atom    6 type  1   force =     0.00000000   -0.05412352    0.07141423
     atom    7 type  1   force =     0.00000000    0.05412352    0.07141423
     atom    8 type  1   force =     0.00000000   -0.05412352   -0.07141423
     atom    9 type  2   force =     0.00000000   -0.08425612    0.01747646
     atom   10 type  2   force =     0.00000000    0.08425612   -0.01747646
     atom   11 type  2   force =     0.00000000   -0.08425612   -0.01747646
     atom   12 type  2   force =     0.00000000    0.08425612    0.01747646

     Total force =     0.272585     Total SCF correction =     0.000000

     entering subroutine stress ...

          total   stress  (Ry/bohr**3)                   (kbar)     P= 1079.63
   0.00803678   0.00000000   0.00000000       1182.25      0.00      0.00
   0.00000000   0.00672065   0.00000000          0.00    988.64      0.00
   0.00000000   0.00000000   0.00726004          0.00      0.00   1067.99

     Writing output data file Prototype-La-oP12-Co2Si.save

     General routines

     Parallel routines

   This run was terminated on:   2:39:47  23Mar2018

   JOB DONE.