     Program PWSCF v.5.0.2 starts on 22Mar2018 at 22:48:58

     Current dimensions of program PWSCF are:
     Max number of different atomic species (ntypx) = 10
     Max number of k-points (npk) =  40000
     Max angular momentum in pseudopotentials (lmaxx) =  3
     Waiting for input...
     Reading input from standard input

     Subspace diagonalization in iterative solution of the eigenvalue problem:
     a serial algorithm will be used

     bravais-lattice index     =            0
     lattice parameter (alat)  =       7.0151  a.u.
     unit-cell volume          =     862.2778 (a.u.)^3
     number of atoms/cell      =           12
     number of atomic types    =            2
     number of electrons       =       196.00
     number of Kohn-Sham states=          118
     kinetic-energy cutoff     =      40.0000  Ry
     charge density cutoff     =     160.0000  Ry
     convergence threshold     =      1.0E-04
     mixing beta               =       0.7000
     number of iterations used =            8  plain     mixing
     Exchange-correlation      = SLA-PZ-NOGX-NOGC ( 1 1 0 0 0)
     EXX-fraction              =        0.00
     nstep                     =           50

     celldm(1)=   7.015105  celldm(2)=   0.000000  celldm(3)=   0.000000
     celldm(4)=   0.000000  celldm(5)=   0.000000  celldm(6)=   0.000000

     crystal axes: (cart. coord. in units of alat)
               a(1) = (   1.000000   0.000000   0.000000 )
               a(2) = (   0.000000   1.315963   0.000000 )
               a(3) = (   0.000000   0.000000   1.898020 )

     reciprocal axes: (cart. coord. in units 2 pi/alat)
               b(1) = (  1.000000  0.000000  0.000000 )
               b(2) = (  0.000000  0.759900  0.000000 )
               b(3) = (  0.000000  0.000000  0.526865 )

     PseudoPot. # 1 for Gd read from file:
     /home/cwx6513/pp.La/Gd.UPF
     MD5 check sum: 09a8be538722f05520810cb6aac0efd2
     Pseudo is Norm-conserving, Zval = 18.0
     Generated in analytical, separable form
     Using radial grid of 1263 points,  6 beta functions with:
                l(1) =   0
                l(2) =   0
                l(3) =   1
                l(4) =   1
                l(5) =   2
                l(6) =   3

     PseudoPot. # 2 for Pr read from file:
     /home/cwx6513/pp.La/Pr.UPF
     MD5 check sum: 70e2b4b153859e92c8c91247dfc63203
     Pseudo is Norm-conserving, Zval = 13.0
     Generated in analytical, separable form
     Using radial grid of 1255 points,  6 beta functions with:
                l(1) =   0
                l(2) =   0
                l(3) =   1
                l(4) =   1
                l(5) =   2
                l(6) =   3

     atomic species   valence    mass     pseudopotential
        Co            18.00    58.93320     Gd( 1.00)
        Si            13.00    28.08550     Pr( 1.00)

      8 Sym. Ops., with inversion, found ( 6 have fractional translation)

   Cartesian axes

     site n.     atom                  positions (alat units)
         1           Co  tau(   1) = (   0.7500000   1.0875135   0.8270358  )
         2           Co  tau(   2) = (   0.2500000   0.2284499   1.0709846  )
         3           Co  tau(   3) = (   0.7500000   0.4295318   0.1219744  )
         4           Co  tau(   4) = (   0.2500000   0.8864316   1.7760460  )
         5           Co  tau(   5) = (   0.2500000   0.7067855   0.5358966  )
         6           Co  tau(   6) = (   0.7500000   0.6091779   1.3621238  )
         7           Co  tau(   7) = (   0.2500000   0.0488038   0.4131136  )
         8           Co  tau(   8) = (   0.7500000   1.2671596   1.4849068  )
         9           Si  tau(   9) = (   0.2500000   0.2669484   1.6960710  )
        10           Si  tau(  10) = (   0.7500000   1.0490149   0.2019494  )
        11           Si  tau(  11) = (   0.2500000   0.9249301   1.1509596  )
        12           Si  tau(  12) = (   0.7500000   0.3910333   0.7470608  )

     number of k points=    12  gaussian smearing, width (Ry)=  0.1000
                       cart. coord. in units 2pi/alat
        k(    1) = (   0.0000000   0.0000000   0.0000000), wk =   0.0833333
        k(    2) = (   0.0000000   0.0000000   0.1317162), wk =   0.1666667
        k(    3) = (   0.0000000   0.0000000  -0.2634324), wk =   0.0833333
        k(    4) = (   0.0000000   0.2532999   0.0000000), wk =   0.1666667
        k(    5) = (   0.0000000   0.2532999   0.1317162), wk =   0.3333333
        k(    6) = (   0.0000000   0.2532999  -0.2634324), wk =   0.1666667
        k(    7) = (  -0.5000000   0.0000000   0.0000000), wk =   0.0833333
        k(    8) = (  -0.5000000   0.0000000   0.1317162), wk =   0.1666667
        k(    9) = (  -0.5000000   0.0000000  -0.2634324), wk =   0.0833333
        k(   10) = (  -0.5000000   0.2532999   0.0000000), wk =   0.1666667
        k(   11) = (  -0.5000000   0.2532999   0.1317162), wk =   0.3333333
        k(   12) = (  -0.5000000   0.2532999  -0.2634324), wk =   0.1666667

     Largest allocated arrays     est. size (Mb)     dimensions
     Largest temporary arrays     est. size (Mb)     dimensions

     Initial potential from superposition of free atoms
     Check: negative starting charge=   -0.001196

     starting charge   51.96217, renormalised to  196.00000

     negative rho (up, down):  0.451E-02 0.000E+00
     Starting wfc are   80 randomized atomic wfcs

     Self-consistent Calculation

     iteration #  1     ecut=    40.00 Ry     beta=0.70
     CG style diagonalization
     c_bands:  5 eigenvalues not converged
     c_bands:  4 eigenvalues not converged
     c_bands:  5 eigenvalues not converged
     c_bands:  4 eigenvalues not converged
     c_bands:  5 eigenvalues not converged
     ethr =  1.00E-02,  avg # of iterations = 28.6

     negative rho (up, down):  0.133E-02 0.000E+00

     total energy              =   -1375.92356769 Ry
     Harris-Foulkes estimate   =   -4043.97504990 Ry
     estimated scf accuracy    <    3175.44522954 Ry

[...]

     iteration #  4     ecut=    40.00 Ry     beta=0.70
     CG style diagonalization
     ethr =  1.00E-02,  avg # of iterations =  6.3

[...]

     End of self-consistent calculation

          k = 0.0000 0.0000 0.0000 (  3675 PWs)   bands (ev):

   -24.2610 -23.8868 -23.8431 -23.6778 -23.5651 -23.3749 -23.3077 -23.2844
     0.8110   1.2398   1.4851   2.7107   2.9317   3.3981   3.7064   3.7720
     3.8229   3.9413   4.0543   4.1793   4.5589   4.7024   4.8222   4.8686
     4.9379   5.1416   5.3044   5.3388   5.4578   5.5268   5.8470   5.8628
     6.1208   6.3227   6.3765   6.7564  21.0411  21.6038  21.6316  21.6955
    22.1223  22.3061  22.4451  22.5299  22.6489  22.7828  23.3197  23.6029
    32.8773  32.9055  33.0701  33.6575  33.7408  33.8753  34.1441  34.6580
    35.0091  36.0291  36.1293  36.5860  36.8147  37.2458  37.4243  37.8900
    38.2957  38.6236  38.7005  39.0100  39.0923  39.2239  39.9244  40.0357
    40.4097  40.4402  40.8284  41.3707  41.5235  42.0051  42.3014  42.6122
    43.0797  43.2464  43.4200  43.6518  43.7469  43.7874  44.3292  44.8821
    45.6241  45.8627  46.9508  47.0247  47.0422  47.8372  47.9429  48.0762
    48.2856  48.7511  48.9155  49.7334  50.5387  51.1894  51.4211  51.6987
    51.7869  51.9799  52.7067  52.7681  53.3616  53.4065  53.6604  54.5560
    54.9023  55.4784  55.5581  55.7538  55.9408  56.3238

[...]

          k =-0.5000 0.0000 0.0000 (  3722 PWs)   bands (ev):

[...]

     the Fermi energy is    48.8290 ev

!    total energy              =   -1970.25576077 Ry
     Harris-Foulkes estimate   =   -1970.25577611 Ry
     estimated scf accuracy    <       0.00001759 Ry

     The total energy is the sum of the following terms:

     one-electron contribution =     379.98227408 Ry
     hartree contribution      =     120.06931811 Ry
     xc contribution           =    -223.07188614 Ry
     ewald contribution        =   -2246.87638375 Ry
     smearing contrib. (-TS)   =      -0.35908306 Ry

     convergence has been achieved in  10 iterations

     Forces acting on atoms (Ry/au):

     atom    1 type  1   force =     0.00000000   -0.06777468   -0.13318285
     atom    2 type  1   force =     0.00000000    0.06777468    0.13318285
     atom    3 type  1   force =     0.00000000   -0.06777468    0.13318285
     atom    4 type  1   force =     0.00000000    0.06777468   -0.13318285
     atom    5 type  1   force =     0.00000000    0.16260780   -0.24308072
     atom    6 type  1   force =     0.00000000   -0.16260780    0.24308072
     atom    7 type  1   force =     0.00000000    0.16260780    0.24308072
     atom    8 type  1   force =     0.00000000   -0.16260780   -0.24308072
     atom    9 type  2   force =     0.00000000   -0.17610650   -0.05216423
     atom   10 type  2   force =     0.00000000    0.17610650    0.05216423
     atom   11 type  2   force =     0.00000000   -0.17610650    0.05216423
     atom   12 type  2   force =     0.00000000    0.17610650   -0.05216423

     Total force =     0.752583     Total SCF correction =     0.012248

     entering subroutine stress ...

          total   stress  (Ry/bohr**3)                   (kbar)     P= 6728.75
   0.04761413   0.00000000   0.00000000       7004.28      0.00      0.00
   0.00000000   0.04295016   0.00000000          0.00   6318.19      0.00
   0.00000000   0.00000000   0.04665912          0.00      0.00   6863.79

     BFGS Geometry Optimization

     number of scf cycles    =   1
     number of bfgs steps    =   0

     enthalpy new            =   -1970.2557607721 Ry

     new trust radius        =       0.5000000000 bohr
     new conv_thr            =       0.0001000000 Ry

     new unit-cell volume =   1091.60624 a.u.^3 (   161.75935 Ang^3 )

CELL_PARAMETERS (alat=  7.01510508)
   1.085136619   0.000000000   0.000000000
   0.000000000   1.417025660   0.000000000
   0.000000000   0.000000000   2.056370341

ATOMIC_POSITIONS (crystal)
Co       0.750000000   0.825875915   0.435020592
Co       0.250000000   0.174124085   0.564979408
Co       0.750000000   0.325875915   0.064979408
Co       0.250000000   0.674124085   0.935020592
Co       0.250000000   0.538345807   0.281039262
Co       0.750000000   0.461654193   0.718960738
Co       0.250000000   0.038345807   0.218960738
Co       0.750000000   0.961654193   0.781039262
Si       0.250000000   0.201489612   0.893319793
Si       0.750000000   0.798510388   0.106680207
Si       0.250000000   0.701489612   0.606680207
Si       0.750000000   0.298510388   0.393319793

     Writing output data file Prototype-La-oP12-Co2Si.save
     Check: negative starting charge=   -0.001196
     NEW-OLD atomic charge density approx. for the potential
     NEW k-points:
        k(    1) = (   0.0000000   0.0000000   0.0000000), wk =   0.0833333
        k(    2) = (   0.0000000   0.0000000   0.1215734), wk =   0.1666667
        k(    3) = (   0.0000000   0.0000000  -0.2431469), wk =   0.0833333
        k(    4) = (   0.0000000   0.2352345   0.0000000), wk =   0.1666667
        k(    5) = (   0.0000000   0.2352345   0.1215734), wk =   0.3333333
        k(    6) = (   0.0000000   0.2352345  -0.2431469), wk =   0.1666667
        k(    7) = (  -0.4607715   0.0000000   0.0000000), wk =   0.0833333
        k(    8) = (  -0.4607715   0.0000000   0.1215734), wk =   0.1666667
        k(    9) = (  -0.4607715   0.0000000  -0.2431469), wk =   0.0833333
        k(   10) = (  -0.4607715   0.2352345   0.0000000), wk =   0.1666667
        k(   11) = (  -0.4607715   0.2352345   0.1215734), wk =   0.3333333
        k(   12) = (  -0.4607715   0.2352345  -0.2431469), wk =   0.1666667
     Check: negative starting charge=   -0.006499

     negative rho (up, down):  0.542E-02 0.000E+00
     extrapolated charge  206.91639, renormalised to  196.00000

[...]

     enthalpy old            =   -1970.2557607721 Ry
     enthalpy new            =   -1976.8146797533 Ry

     CASE: enthalpy_new < enthalpy_old

     small trust_radius: resetting bfgs history

     new trust radius        =       2.6529989656 bohr
     new conv_thr            =       0.0001000000 Ry

[...]

          total   stress  (Ry/bohr**3)                   (kbar)     P=-1371.31
  -0.00962301   0.00000000   0.00000000      -1415.59      0.00      0.00
   0.00000000  -0.00888561   0.00000000          0.00  -1307.12      0.00
   0.00000000   0.00000000  -0.00945733          0.00      0.00  -1391.22

     number of scf cycles    =   3
     number of bfgs steps    =   2

     enthalpy old            =   -1976.8146797533 Ry
     enthalpy new            =   -1966.8595098585 Ry

     CASE: enthalpy_new > enthalpy_old

     new trust radius        =       1.0188993058 bohr

     trust_radius < trust_radius_min

     resetting bfgs history

     Message from routine bfgs:
     history already reset at previous step: stopping
     new conv_thr            =       0.0001000000 Ry

     new unit-cell volume =   1302.91236 a.u.^3 (   193.07169 Ang^3 )

[...]

ATOMIC_POSITIONS (crystal)
Co       0.750000000   0.825404175   0.434734135
Co       0.250000000   0.174595825   0.565265865
Co       0.750000000   0.325404175   0.065265865
Co       0.250000000   0.674595825   0.934734135
Co       0.250000000   0.539540623   0.280064226
Co       0.750000000   0.460459377   0.719935774
Co       0.250000000   0.039540623   0.219935774
Co       0.750000000   0.960459377   0.780064226
Si       0.250000000   0.200333511   0.893150302
Si       0.750000000   0.799666489   0.106849698
Si       0.250000000   0.700333511   0.606849698
Si       0.750000000   0.299666489   0.393150302

     Writing output data file Prototype-La-oP12-Co2Si.save
     Check: negative starting charge=   -0.022097
     NEW-OLD atomic charge density approx. for the potential
     NEW k-points:
        k(    1) = (   0.0000000   0.0000000   0.0000000), wk =   0.0833333
        k(    2) = (   0.0000000   0.0000000   0.1143394), wk =   0.1666667
        k(    3) = (   0.0000000   0.0000000  -0.2286788), wk =   0.0833333
        k(    4) = (   0.0000000   0.2232122   0.0000000), wk =   0.1666667
        k(    5) = (   0.0000000   0.2232122   0.1143394), wk =   0.3333333
        k(    6) = (   0.0000000   0.2232122  -0.2286788), wk =   0.1666667
        k(    7) = (  -0.4325759   0.0000000   0.0000000), wk =   0.0833333
        k(    8) = (  -0.4325759   0.0000000   0.1143394), wk =   0.1666667
        k(    9) = (  -0.4325759   0.0000000  -0.2286788), wk =   0.0833333
        k(   10) = (  -0.4325759   0.2232122   0.0000000), wk =   0.1666667
        k(   11) = (  -0.4325759   0.2232122   0.1143394), wk =   0.3333333
        k(   12) = (  -0.4325759   0.2232122  -0.2286788), wk =   0.1666667
     Check: negative starting charge=   -0.012579

     negative rho (up, down):  0.233E+02 0.000E+00
     extrapolated charge  132.72460, renormalised to  196.00000

[...]

     The maximum number of steps has been reached.

     End of BFGS Geometry Optimization
Begin final coordinates
     new unit-cell volume =   1302.91236 a.u.^3 (   193.07169 Ang^3 )

CELL_PARAMETERS (alat=  7.01510508)
   1.155866551   0.000000000   0.000000000
   0.000000000   1.493347438   0.000000000
   0.000000000   0.000000000   2.186472934

ATOMIC_POSITIONS (crystal)
Co       0.750000000   0.825404175   0.434734135
Co       0.250000000   0.174595825   0.565265865
Co       0.750000000   0.325404175   0.065265865
Co       0.250000000   0.674595825   0.934734135
Co       0.250000000   0.539540623   0.280064226
Co       0.750000000   0.460459377   0.719935774
Co       0.250000000   0.039540623   0.219935774
Co       0.750000000   0.960459377   0.780064226
Si       0.250000000   0.200333511   0.893150302
Si       0.750000000   0.799666489   0.106849698
Si       0.250000000   0.700333511   0.606849698
Si       0.750000000   0.299666489   0.393150302
End final coordinates

     A final scf calculation at the relaxed structure.
     The G-vectors are recalculated for the final unit cell
     Results may differ from those at the preceding step.

     bravais-lattice index     =            0
     lattice parameter (alat)  =       7.0151  a.u.
     unit-cell volume          =    1302.9124 (a.u.)^3
     number of atoms/cell      =           12
     number of atomic types    =            2
     number of electrons       =       196.00
     number of Kohn-Sham states=          118
     kinetic-energy cutoff     =      40.0000  Ry
     charge density cutoff     =     160.0000  Ry
     convergence threshold     =      1.0E-04
     mixing beta               =       0.7000
     number of iterations used =            8  plain     mixing
     Exchange-correlation      = SLA-PZ-NOGX-NOGC ( 1 1 0 0 0)
     EXX-fraction              =        0.00

     celldm(1)=   7.015105  celldm(2)=   0.000000  celldm(3)=   0.000000
     celldm(4)=   0.000000  celldm(5)=   0.000000  celldm(6)=   0.000000

     crystal axes: (cart. coord. in units of alat)
               a(1) = (   1.155867   0.000000   0.000000 )
               a(2) = (   0.000000   1.493347   0.000000 )
               a(3) = (   0.000000   0.000000   2.186473 )

     reciprocal axes: (cart. coord. in units 2 pi/alat)
               b(1) = (  0.865152  0.000000  0.000000 )
               b(2) = (  0.000000  0.669637  0.000000 )
               b(3) = (  0.000000  0.000000  0.457358 )

     PseudoPot. # 1 for Gd read from file:
     /home/cwx6513/pp.La/Gd.UPF
     MD5 check sum: 09a8be538722f05520810cb6aac0efd2
     Pseudo is Norm-conserving, Zval = 18.0
     Generated in analytical, separable form
     Using radial grid of 1263 points,  6 beta functions with:
                l(1) =   0
                l(2) =   0
                l(3) =   1
                l(4) =   1
                l(5) =   2
                l(6) =   3

     PseudoPot. # 2 for Pr read from file:
     /home/cwx6513/pp.La/Pr.UPF
     MD5 check sum: 70e2b4b153859e92c8c91247dfc63203
     Pseudo is Norm-conserving, Zval = 13.0
     Generated in analytical, separable form
     Using radial grid of 1255 points,  6 beta functions with:
                l(1) =   0
                l(2) =   0
                l(3) =   1
                l(4) =   1
                l(5) =   2
                l(6) =   3

     atomic species   valence    mass     pseudopotential
        Co            18.00    58.93320     Gd( 1.00)
        Si            13.00    28.08550     Pr( 1.00)

      8 Sym. Ops., with inversion, found ( 6 have fractional translation)

   Cartesian axes

     site n.     atom                  positions (alat units)
         1           Co  tau(   1) = (   0.8668999   1.2326152   0.9505344  )
         2           Co  tau(   2) = (   0.2889666   0.2607322   1.2359385  )
         3           Co  tau(   3) = (   0.8668999   0.4859415   0.1427020  )
         4           Co  tau(   4) = (   0.2889666   1.0074059   2.0437709  )
         5           Co  tau(   5) = (   0.2889666   0.8057216   0.6123528  )
         6           Co  tau(   6) = (   0.8668999   0.6876258   1.5741201  )
         7           Co  tau(   7) = (   0.2889666   0.0590479   0.4808836  )
         8           Co  tau(   8) = (   0.8668999   1.4342996   1.7055893  )
         9           Si  tau(   9) = (   0.2889666   0.2991675   1.9528490  )
        10           Si  tau(  10) = (   0.8668999   1.1941799   0.2336240  )
        11           Si  tau(  11) = (   0.2889666   1.0458413   1.3268604  )
        12           Si  tau(  12) = (   0.8668999   0.4475062   0.8596125  )

     number of k points=    12  gaussian smearing, width (Ry)=  0.1000
                       cart. coord. in units 2pi/alat
        k(    1) = (   0.0000000   0.0000000   0.0000000), wk =   0.0833333
        k(    2) = (   0.0000000   0.0000000   0.1143394), wk =   0.1666667
        k(    3) = (   0.0000000   0.0000000  -0.2286788), wk =   0.0833333
        k(    4) = (   0.0000000   0.2232122   0.0000000), wk =   0.1666667
        k(    5) = (   0.0000000   0.2232122   0.1143394), wk =   0.3333333
        k(    6) = (   0.0000000   0.2232122  -0.2286788), wk =   0.1666667
        k(    7) = (  -0.4325759   0.0000000   0.0000000), wk =   0.0833333
        k(    8) = (  -0.4325759   0.0000000   0.1143394), wk =   0.1666667
        k(    9) = (  -0.4325759   0.0000000  -0.2286788), wk =   0.0833333
        k(   10) = (  -0.4325759   0.2232122   0.0000000), wk =   0.1666667
        k(   11) = (  -0.4325759   0.2232122   0.1143394), wk =   0.3333333
        k(   12) = (  -0.4325759   0.2232122  -0.2286788), wk =   0.1666667

     Largest allocated arrays     est. size (Mb)     dimensions
     Largest temporary arrays     est. size (Mb)     dimensions

     Initial potential from superposition of free atoms
     Check: negative starting charge=   -0.001017

     starting charge   51.96217, renormalised to  196.00000

     negative rho (up, down):  0.384E-02 0.000E+00
     Starting wfc are   80 randomized atomic wfcs

     Writing output data file Prototype-La-oP12-Co2Si.save

     Self-consistent Calculation

[...]

     negative rho (up, down):  0.173E-03 0.000E+00

[...]

     iteration #  9     ecut=    40.00 Ry     beta=0.70
     CG style diagonalization
     c_bands:  1 eigenvalues not converged
     ethr =  2.26E-05,  avg # of iterations =  3.7

[...]

     total energy              =   -1981.03833219 Ry
     Harris-Foulkes estimate   =   -1981.03851110 Ry
     estimated scf accuracy    <       0.00036756 Ry

     iteration # 11     ecut=    40.00 Ry     beta=0.70
     CG style diagonalization
     ethr =  1.88E-07,  avg # of iterations =  4.1

     End of self-consistent calculation

[...]

          k = 0.0000 0.2232-0.2287 (  5542 PWs)   bands (ev):

[...]

          k =-0.4326 0.2232-0.2287 (  5556 PWs)   bands (ev):

   -38.8523 -38.8523 -38.8515 -38.8515 -38.6894 -38.6894 -38.6449 -38.6449
   -13.0578 -13.0578 -12.9928 -12.9928 -10.3206 -10.3206 -10.1943 -10.1943
   -10.1647 -10.1647 -10.0533 -10.0533  -9.9269  -9.9269  -9.9256  -9.9256
    -9.7797  -9.7797  -9.6913  -9.6913  -9.6828  -9.6828  -9.6214  -9.6214
    -9.5504  -9.5504  -9.4674  -9.4674   6.6250   6.6250   6.7373   6.7373
     6.8952   6.8952   6.9139   6.9139   7.0838   7.0838   7.0922   7.0922
    22.0090  22.0090  22.5558  22.5558  22.6180  22.6180  23.1602  23.1602
    23.1689  23.1689  23.4013  23.4013  23.5269  23.5269  23.9555  23.9555
    23.9871  23.9871  24.2157  24.2157  24.2631  24.2631  24.7073  24.7073
    24.8633  24.8633  25.4144  25.4144  25.4239  25.4239  25.7938  25.7938
    25.9264  25.9264  26.8693  26.8693  26.9602  26.9602  27.3644  27.3644
    27.9394  27.9394  28.0186  28.0186  29.6057  29.6057  30.3943  30.3943
    30.7352  30.7352  30.8246  30.8246  31.5712  31.5712  31.6756  31.6756
    32.4112  32.4112  32.9458  32.9458  33.5056  33.5056  33.7350  33.7350
    35.4951  35.4952  35.9983  35.9983  36.4671  36.4671

     the Fermi energy is    30.9656 ev

!    total energy              =   -1981.03845624 Ry
     Harris-Foulkes estimate   =   -1981.03849316 Ry
     estimated scf accuracy    <       0.00004114 Ry

     The total energy is the sum of the following terms:

     one-electron contribution =     -10.01439861 Ry
     hartree contribution      =     199.32632463 Ry
     xc contribution           =    -211.46932589 Ry
     ewald contribution        =   -1958.35304849 Ry
     smearing contrib. (-TS)   =      -0.52800789 Ry

     convergence has been achieved in  11 iterations

     Forces acting on atoms (Ry/au):

     atom    1 type  1   force =     0.00000000   -0.04134594   -0.03244368
     atom    2 type  1   force =     0.00000000    0.04134594    0.03244368
     atom    3 type  1   force =     0.00000000   -0.04134594    0.03244368
     atom    4 type  1   force =     0.00000000    0.04134594   -0.03244368
     atom    5 type  1   force =     0.00000000    0.06367169   -0.06649602
     atom    6 type  1   force =     0.00000000   -0.06367169    0.06649602
     atom    7 type  1   force =     0.00000000    0.06367169    0.06649602
     atom    8 type  1   force =     0.00000000   -0.06367169   -0.06649602
     atom    9 type  2   force =     0.00000000   -0.05779063   -0.00921290
     atom   10 type  2   force =     0.00000000    0.05779063    0.00921290
     atom   11 type  2   force =     0.00000000   -0.05779063    0.00921290
     atom   12 type  2   force =     0.00000000    0.05779063   -0.00921290

     Total force =     0.242178     Total SCF correction =     0.016603

     entering subroutine stress ...

          total   stress  (Ry/bohr**3)                   (kbar)     P= 1035.06
   0.00740904   0.00000000   0.00000000       1089.91      0.00      0.00
   0.00000000   0.00657377   0.00000000          0.00    967.03      0.00
   0.00000000   0.00000000   0.00712574          0.00      0.00   1048.23

     Writing output data file Prototype-La-oP12-Co2Si.save

     General routines

     Parallel routines

   This run was terminated on:  23:18:11  22Mar2018

   JOB DONE.