     Program PWSCF v.5.0.2 starts on 22Mar2018 at 12: 7:52

     Current dimensions of program PWSCF are:
     Max number of different atomic species (ntypx) = 10
     Max number of k-points (npk) =  40000
     Max angular momentum in pseudopotentials (lmaxx) =  3
     Waiting for input...
     Reading input from standard input

     Subspace diagonalization in iterative solution of the eigenvalue problem:
     a serial algorithm will be used

     bravais-lattice index     =            0
     lattice parameter (alat)  =       8.8008  a.u.
     unit-cell volume          =    1116.9454 (a.u.)^3
     number of atoms/cell      =           16
     number of atomic types    =            2
     number of electrons       =       356.00
     number of Kohn-Sham states=          214
     kinetic-energy cutoff     =      40.0000  Ry
     charge density cutoff     =     160.0000  Ry
     convergence threshold     =      1.0E-04
     mixing beta               =       0.7000
     number of iterations used =            8  plain     mixing
     Exchange-correlation      = SLA-PZ-NOGX-NOGC ( 1 1 0 0 0)
     EXX-fraction              =        0.00
     nstep                     =           50

     celldm(1)=   8.800765  celldm(2)=   0.000000  celldm(3)=   0.000000
     celldm(4)=   0.000000  celldm(5)=   0.000000  celldm(6)=   0.000000

     crystal axes: (cart. coord. in units of alat)
               a(1) = (   1.000000   0.000000   0.000000 )
               a(2) = (   0.000000   1.083771   0.000000 )
               a(3) = (   0.000000   0.000000   1.511935 )

     reciprocal axes: (cart. coord. in units 2 pi/alat)
               b(1) = (  1.000000  0.000000  0.000000 )
               b(2) = (  0.000000  0.922704  0.000000 )
               b(3) = (  0.000000  0.000000  0.661404 )

     PseudoPot. # 1 for Yb read from file:
     /home/jld5415/pp.La/Yb.UPF
     MD5 check sum: 3e859b81cc28c53ec6aa3a2e888efcdf
     Pseudo is Norm-conserving, Zval = 24.0
     Generated in analytical, separable form
     Using radial grid of 1269 points,  6 beta functions with:
                l(1) =   0
                l(2) =   0
                l(3) =   1
                l(4) =   1
                l(5) =   2
                l(6) =   3

     PseudoPot. # 2 for Eu read from file:
     /home/jld5415/pp.La/Eu.UPF
     MD5 check sum: 5efdbbfc50c6a10138933a6429836ad2
     Pseudo is Norm-conserving, Zval = 17.0
     Generated in analytical, separable form
     Using radial grid of 1261 points,  6 beta functions with:
                l(1) =   0
                l(2) =   0
                l(3) =   1
                l(4) =   1
                l(5) =   2
                l(6) =   3

     atomic species   valence    mass     pseudopotential
        Fe            24.00    55.84500     Yb( 1.00)
        C             17.00    12.01070     Eu( 1.00)

      8 Sym. Ops., with inversion, found ( 6 have fractional translation)

   Cartesian axes

     site n.     atom                  positions (alat units)
         1           Fe  tau(   1) = (   0.3472940   0.1827628   1.3947267  )
         2           Fe  tau(   2) = (   0.1527060   0.7246484   0.8731757  )
         3           Fe  tau(   3) = (   0.8472940   0.3591227   0.6387592  )
         4           Fe  tau(   4) = (   0.3396640   0.4879235   0.3779837  )
         5           Fe  tau(   5) = (   0.1527060   0.7246484   1.3947267  )
         6           Fe  tau(   6) = (   0.3472940   0.1827628   0.8731757  )
         7           Fe  tau(   7) = (   0.1603360   1.0298091   0.3779837  )
         8           Fe  tau(   8) = (   0.6527060   0.9010083   0.6387592  )
         9           Fe  tau(   9) = (   0.8472940   0.3591227   0.1172082  )
        10           Fe  tau(  10) = (   0.6603360   0.5958476   1.1339512  )
        11           Fe  tau(  11) = (   0.6527060   0.9010083   0.1172082  )
        12           Fe  tau(  12) = (   0.8396640   0.0539620   1.1339512  )
        13           C   tau(  13) = (   0.0000000   0.0000000   0.0000000  )
        14           C   tau(  14) = (   0.5000000   0.5418856   0.0000000  )
        15           C   tau(  15) = (   0.5000000   0.5418856   0.7559674  )
        16           C   tau(  16) = (   0.0000000   0.0000000   0.7559674  )

     number of k points=    12  gaussian smearing, width (Ry)=  0.1000
                       cart. coord. in units 2pi/alat
        k(    1) = (   0.0000000   0.0000000   0.0000000), wk =   0.0833333
        k(    2) = (   0.0000000   0.0000000   0.1653510), wk =   0.1666667
        k(    3) = (   0.0000000   0.0000000  -0.3307021), wk =   0.0833333
        k(    4) = (   0.0000000   0.3075680   0.0000000), wk =   0.1666667
        k(    5) = (   0.0000000   0.3075680   0.1653510), wk =   0.3333333
        k(    6) = (   0.0000000   0.3075680  -0.3307021), wk =   0.1666667
        k(    7) = (  -0.5000000   0.0000000   0.0000000), wk =   0.0833333
        k(    8) = (  -0.5000000   0.0000000   0.1653510), wk =   0.1666667
        k(    9) = (  -0.5000000   0.0000000  -0.3307021), wk =   0.0833333
        k(   10) = (  -0.5000000   0.3075680   0.0000000), wk =   0.1666667
        k(   11) = (  -0.5000000   0.3075680   0.1653510), wk =   0.3333333
        k(   12) = (  -0.5000000   0.3075680  -0.3307021), wk =   0.1666667

     Largest allocated arrays     est. size (Mb)     dimensions
     Largest temporary arrays     est. size (Mb)     dimensions

     Initial potential from superposition of free atoms

     Starting from uniform charge
     Starting wfc are    0 randomized atomic wfcs

     Self-consistent Calculation

     iteration #  1     ecut=    40.00 Ry     beta=0.70
     CG style diagonalization
     ethr =  1.00E-02,  avg # of iterations = 21.7

     total energy              =   -5082.15079489 Ry
     Harris-Foulkes estimate   =   -6675.47035971 Ry
     estimated scf accuracy    <    1978.25823836 Ry

     iteration #  2     ecut=    40.00 Ry     beta=0.70
     CG style diagonalization
     c_bands:  1 eigenvalues not converged
     ethr =  1.00E-02,  avg # of iterations = 10.5

[...]

     End of self-consistent calculation

          k = 0.0000 0.0000 0.0000 (  4785 PWs)   bands (ev):

   -68.6125 -68.6078 -68.5871 -68.5805 -68.5649 -68.5543 -68.5387 -68.5366
   -68.2840 -68.2812 -68.2742 -68.2500 -29.6198 -29.4654 -28.9508 -28.9194
   -28.9005 -28.8769 -28.7343 -28.6585 -28.6401 -28.5429 -28.5151 -28.4073
   -27.7056 -27.5982 -27.5801 -27.5711 -27.4741 -27.4712 -27.4191 -27.3714
   -27.3313 -27.2999 -27.1889 -27.1522 -27.1337 -27.0929 -27.0784 -27.0702
   -27.0362 -27.0078 -26.9235 -26.9193 -26.8347 -26.8320 -26.6842 -26.6767
   -14.6012 -14.2021 -13.7323 -13.3441   8.8268   8.9017   9.0725   9.1818
     9.5125   9.5597  10.4685  10.6384  10.6798  10.7512  10.9442  11.0571
    24.3274  24.3341  24.8775  25.1456  25.3584  25.3698  25.7259  26.1782
    26.5791  26.5990  26.7702  26.8826  27.1702  27.2522  27.4474  27.5342
    27.8137  27.8979  27.9927  28.0150  28.0400  28.0693  28.0842  28.5139
    28.7066  28.7185  28.8707  28.9985  29.1012  29.2711  29.3142  29.4653
    29.4881  29.5249  29.8348  29.8733  29.8821  29.9877  30.0309  30.1481
    30.2707  30.3704  30.4843  30.4979  30.6543  30.7304  30.7692  30.8978
    31.2249  31.3932  31.4873  31.6516  31.7074  31.7678  31.9696  32.5031
    33.0947  33.1192  33.4186  33.6125  34.6843  38.6617  38.7580  39.4309
    39.6733  39.8123  40.8963  41.1059  41.8253  41.9920  42.6403  42.8011
    43.2781  43.7020  43.8178  44.1344  45.4058  45.6295  46.1628  46.6618
    46.8308  47.1299  48.3558  48.8146  49.1347  49.1709  49.4340  49.8217
    49.9861  50.4703  50.9787  51.1102  51.6074  51.9277  52.0374  52.1548
    52.5752  53.4065  53.5357  53.7310  53.7699  54.4889  54.5625  54.6108
    54.8779  55.5377  56.0066  57.0298  57.2162  57.3668  57.5647  57.5967
    58.1446  58.4540  58.6951  58.9679  59.2283  59.7589  59.8864  60.0392
    60.2605  60.2871  60.4480  60.4754  60.5113  60.6919  61.2753  61.2937
    61.4303  61.7828  62.1735  62.4417  62.6220  62.9740  62.9747  63.1318
    63.1432  63.3039  63.7678  63.9264  63.9705  64.5896  64.6115  64.9503
    65.2625  65.7067  65.7483  66.0347  66.3102  66.5500

[...]

          k =-0.5000 0.0000 0.0000 (  4798 PWs)   bands (ev):

[...]

     the Fermi energy is    58.6612 ev

!    total energy              =   -5568.35003809 Ry
     Harris-Foulkes estimate   =   -5568.35007204 Ry
     estimated scf accuracy    <       0.00003885 Ry

     The total energy is the sum of the following terms:

     one-electron contribution =    -404.39341534 Ry
     hartree contribution      =     716.38887032 Ry
     xc contribution           =    -488.73282758 Ry
     ewald contribution        =   -5391.09666466 Ry
     smearing contrib. (-TS)   =      -0.51600082 Ry

     convergence has been achieved in   9 iterations

     Forces acting on atoms (Ry/au):

     atom    1 type  1   force =     1.01215829   -1.13441290   -1.47757095
     atom    2 type  1   force =    -1.01215829   -1.13441290    1.47757095
     atom    3 type  1   force =     1.01215829    1.13441290   -1.47757095
     atom    4 type  1   force =    -1.75189666   -0.65411761    0.00000000
     atom    5 type  1   force =    -1.01215829   -1.13441290   -1.47757095
     atom    6 type  1   force =     1.01215829   -1.13441290    1.47757095
     atom    7 type  1   force =     1.75189666   -0.65411761    0.00000000
     atom    8 type  1   force =    -1.01215829    1.13441290   -1.47757095
     atom    9 type  1   force =     1.01215829    1.13441290    1.47757095
     atom   10 type  1   force =     1.75189666    0.65411761    0.00000000
     atom   11 type  1   force =    -1.01215829    1.13441290    1.47757095
     atom   12 type  1   force =    -1.75189666    0.65411761    0.00000000
     atom   13 type  2   force =     0.00000000    0.00000000    0.00000000
     atom   14 type  2   force =     0.00000000    0.00000000    0.00000000
     atom   15 type  2   force =     0.00000000    0.00000000    0.00000000
     atom   16 type  2   force =     0.00000000    0.00000000    0.00000000

     Total force =     7.067152     Total SCF correction =     0.000000

     entering subroutine stress ...

          total   stress  (Ry/bohr**3)                   (kbar)     P=12780.32
   0.08764521   0.00000000   0.00000000      12893.05      0.00      0.00
   0.00000000   0.08669854   0.00000000          0.00  12753.79      0.00
   0.00000000   0.00000000   0.08629282          0.00      0.00  12694.11

     BFGS Geometry Optimization

     number of scf cycles    =   1
     number of bfgs steps    =   0

     enthalpy new            =   -5568.3500380949 Ry

     new trust radius        =       0.5000000000 bohr
     new conv_thr            =       0.0001000000 Ry

     new unit-cell volume =   1384.28768 a.u.^3 (   205.13027 Ang^3 )

CELL_PARAMETERS (alat=  8.80076499)
   1.074803866   0.000000000   0.000000000
   0.000000000   1.163965759   0.000000000
   0.000000000   0.000000000   1.623288294

ATOMIC_POSITIONS (crystal)
Fe       0.351220303   0.164575599   0.918687027
Fe       0.148779697   0.664575599   0.581312973
Fe       0.851220303   0.335424401   0.418687027
Fe       0.332868148   0.447867718   0.250000000
Fe       0.148779697   0.664575599   0.918687027
Fe       0.351220303   0.164575599   0.581312973
Fe       0.167131852   0.947867718   0.250000000
Fe       0.648779697   0.835424401   0.418687027
Fe       0.851220303   0.335424401   0.081312973
Fe       0.667131852   0.552132282   0.750000000
Fe       0.648779697   0.835424401   0.081312973
Fe       0.832868148   0.052132282   0.750000000
C        0.000000000   0.000000000   0.000000000
C        0.500000000   0.500000000   0.000000000
C        0.500000000   0.500000000   0.500000000
C        0.000000000   0.000000000   0.500000000

     Writing output data file Prototype-La-oP16-Fe3C.save
     NEW-OLD atomic charge density approx. for the potential
     NEW k-points:
        k(    1) = (   0.0000000   0.0000000   0.0000000), wk =   0.0833333
        k(    2) = (   0.0000000   0.0000000   0.1540084), wk =   0.1666667
        k(    3) = (   0.0000000   0.0000000  -0.3080168), wk =   0.0833333
        k(    4) = (   0.0000000   0.2863773   0.0000000), wk =   0.1666667
        k(    5) = (   0.0000000   0.2863773   0.1540084), wk =   0.3333333
        k(    6) = (   0.0000000   0.2863773  -0.3080168), wk =   0.1666667
        k(    7) = (  -0.4652012   0.0000000   0.0000000), wk =   0.0833333
        k(    8) = (  -0.4652012   0.0000000   0.1540084), wk =   0.1666667
        k(    9) = (  -0.4652012   0.0000000  -0.3080168), wk =   0.0833333
        k(   10) = (  -0.4652012   0.2863773   0.0000000), wk =   0.1666667
        k(   11) = (  -0.4652012   0.2863773   0.1540084), wk =   0.3333333
        k(   12) = (  -0.4652012   0.2863773  -0.3080168), wk =   0.1666667

[...]

          total   stress  (Ry/bohr**3)                   (kbar)     P= 5750.83
   0.04017503   0.00000000   0.00000000       5909.95      0.00      0.00
   0.00000000   0.03781963   0.00000000          0.00   5563.46      0.00
   0.00000000   0.00000000   0.03928548          0.00      0.00   5779.09

[...]

     enthalpy old            =   -5568.3500380949 Ry
     enthalpy new            =   -5585.8705418266 Ry

     CASE: enthalpy_new < enthalpy_old

     small trust_radius: resetting bfgs history

     new trust radius        =       7.4737651040 bohr
     new conv_thr            =       0.0001000000 Ry

[...]

          total   stress  (Ry/bohr**3)                   (kbar)     P=-7656.08
  -0.05294921   0.00000000   0.00000000      -7789.10      0.00      0.00
   0.00000000  -0.05114754   0.00000000          0.00  -7524.06      0.00
   0.00000000   0.00000000  -0.05203828          0.00      0.00  -7655.09

     number of scf cycles    =   3
     number of bfgs steps    =   2

     enthalpy old            =   -5585.8705418266 Ry
     enthalpy new            =   -5176.1393265560 Ry

     CASE: enthalpy_new > enthalpy_old

     new trust radius        =       1.5585909854 bohr

     trust_radius < trust_radius_min

     resetting bfgs history

     Message from routine bfgs:
     history already reset at previous step: stopping
     new conv_thr            =       0.0001000000 Ry

     new unit-cell volume =   1583.82472 a.u.^3 (   234.69861 Ang^3 )

[...]

ATOMIC_POSITIONS (crystal)
Fe       0.352730072   0.162999554   0.917293824
Fe       0.147269928   0.662999554   0.582706176
Fe       0.852730072   0.337000446   0.417293824
Fe       0.330266624   0.446890471   0.250000000
Fe       0.147269928   0.662999554   0.917293824
Fe       0.352730072   0.162999554   0.582706176
Fe       0.169733376   0.946890471   0.250000000
Fe       0.647269928   0.837000446   0.417293824
Fe       0.852730072   0.337000446   0.082706176
Fe       0.669733376   0.553109529   0.750000000
Fe       0.647269928   0.837000446   0.082706176
Fe       0.830266624   0.053109529   0.750000000
C        0.000000000   0.000000000   0.000000000
C        0.500000000   0.500000000   0.000000000
C        0.500000000   0.500000000   0.500000000
C        0.000000000   0.000000000   0.500000000

     Writing output data file Prototype-La-oP16-Fe3C.save
     NEW-OLD atomic charge density approx. for the potential
     NEW k-points:
        k(    1) = (   0.0000000   0.0000000   0.0000000), wk =   0.0833333
        k(    2) = (   0.0000000   0.0000000   0.1471897), wk =   0.1666667
        k(    3) = (   0.0000000   0.0000000  -0.2943795), wk =   0.0833333
        k(    4) = (   0.0000000   0.2745804   0.0000000), wk =   0.1666667
        k(    5) = (   0.0000000   0.2745804   0.1471897), wk =   0.3333333
        k(    6) = (   0.0000000   0.2745804  -0.2943795), wk =   0.1666667
        k(    7) = (  -0.4437065   0.0000000   0.0000000), wk =   0.0833333
        k(    8) = (  -0.4437065   0.0000000   0.1471897), wk =   0.1666667
        k(    9) = (  -0.4437065   0.0000000  -0.2943795), wk =   0.0833333
        k(   10) = (  -0.4437065   0.2745804   0.0000000), wk =   0.1666667
        k(   11) = (  -0.4437065   0.2745804   0.1471897), wk =   0.3333333
        k(   12) = (  -0.4437065   0.2745804  -0.2943795), wk =   0.1666667

[...]

     The maximum number of steps has been reached.

     End of BFGS Geometry Optimization
Begin final coordinates
     new unit-cell volume =   1583.82472 a.u.^3 (   234.69861 Ang^3 )

CELL_PARAMETERS (alat=  8.80076499)
   1.126871066   0.000000000   0.000000000
   0.000000000   1.213973381   0.000000000
   0.000000000   0.000000000   1.698487882

ATOMIC_POSITIONS (crystal)
Fe       0.352730072   0.162999554   0.917293824
Fe       0.147269928   0.662999554   0.582706176
Fe       0.852730072   0.337000446   0.417293824
Fe       0.330266624   0.446890471   0.250000000
Fe       0.147269928   0.662999554   0.917293824
Fe       0.352730072   0.162999554   0.582706176
Fe       0.169733376   0.946890471   0.250000000
Fe       0.647269928   0.837000446   0.417293824
Fe       0.852730072   0.337000446   0.082706176
Fe       0.669733376   0.553109529   0.750000000
Fe       0.647269928   0.837000446   0.082706176
Fe       0.830266624   0.053109529   0.750000000
C        0.000000000   0.000000000   0.000000000
C        0.500000000   0.500000000   0.000000000
C        0.500000000   0.500000000   0.500000000
C        0.000000000   0.000000000   0.500000000
End final coordinates

     A final scf calculation at the relaxed structure.
     The G-vectors are recalculated for the final unit cell
     Results may differ from those at the preceding step.

     bravais-lattice index     =            0
     lattice parameter (alat)  =       8.8008  a.u.
     unit-cell volume          =    1583.8247 (a.u.)^3
     number of atoms/cell      =           16
     number of atomic types    =            2
     number of electrons       =       356.00
     number of Kohn-Sham states=          214
     kinetic-energy cutoff     =      40.0000  Ry
     charge density cutoff     =     160.0000  Ry
     convergence threshold     =      1.0E-04
     mixing beta               =       0.7000
     number of iterations used =            8  plain     mixing
     Exchange-correlation      = SLA-PZ-NOGX-NOGC ( 1 1 0 0 0)
     EXX-fraction              =        0.00

     celldm(1)=   8.800765  celldm(2)=   0.000000  celldm(3)=   0.000000
     celldm(4)=   0.000000  celldm(5)=   0.000000  celldm(6)=   0.000000

     crystal axes: (cart. coord. in units of alat)
               a(1) = (   1.126871   0.000000   0.000000 )
               a(2) = (   0.000000   1.213973   0.000000 )
               a(3) = (   0.000000   0.000000   1.698488 )

     reciprocal axes: (cart. coord. in units 2 pi/alat)
               b(1) = (  0.887413  0.000000  0.000000 )
               b(2) = (  0.000000  0.823741  0.000000 )
               b(3) = (  0.000000  0.000000  0.588759 )

     PseudoPot. # 1 for Yb read from file:
     /home/jld5415/pp.La/Yb.UPF
     MD5 check sum: 3e859b81cc28c53ec6aa3a2e888efcdf
     Pseudo is Norm-conserving, Zval = 24.0
     Generated in analytical, separable form
     Using radial grid of 1269 points,  6 beta functions with:
                l(1) =   0
                l(2) =   0
                l(3) =   1
                l(4) =   1
                l(5) =   2
                l(6) =   3

     PseudoPot. # 2 for Eu read from file:
     /home/jld5415/pp.La/Eu.UPF
     MD5 check sum: 5efdbbfc50c6a10138933a6429836ad2
     Pseudo is Norm-conserving, Zval = 17.0
     Generated in analytical, separable form
     Using radial grid of 1261 points,  6 beta functions with:
                l(1) =   0
                l(2) =   0
                l(3) =   1
                l(4) =   1
                l(5) =   2
                l(6) =   3

     atomic species   valence    mass     pseudopotential
        Fe            24.00    55.84500     Yb( 1.00)
        C             17.00    12.01070     Eu( 1.00)

      8 Sym. Ops., with inversion, found ( 6 have fractional translation)

   Cartesian axes

     site n.     atom                  positions (alat units)
         1           Fe  tau(   1) = (   0.3974813   0.1978771   1.5580124  )
         2           Fe  tau(   2) = (   0.1659542   0.8048638   0.9897194  )
         3           Fe  tau(   3) = (   0.9609168   0.4091096   0.7087685  )
         4           Fe  tau(   4) = (   0.3721679   0.5425131   0.4246220  )
         5           Fe  tau(   5) = (   0.1659542   0.8048638   1.5580124  )
         6           Fe  tau(   6) = (   0.3974813   0.1978771   0.9897194  )
         7           Fe  tau(   7) = (   0.1912676   1.1494998   0.4246220  )
         8           Fe  tau(   8) = (   0.7293898   1.0160963   0.7087685  )
         9           Fe  tau(   9) = (   0.9609168   0.4091096   0.1404754  )
        10           Fe  tau(  10) = (   0.7547032   0.6714602   1.2738659  )
        11           Fe  tau(  11) = (   0.7293898   1.0160963   0.1404754  )
        12           Fe  tau(  12) = (   0.9356034   0.0644736   1.2738659  )
        13           C   tau(  13) = (   0.0000000   0.0000000   0.0000000  )
        14           C   tau(  14) = (   0.5634355   0.6069867   0.0000000  )
        15           C   tau(  15) = (   0.5634355   0.6069867   0.8492439  )
        16           C   tau(  16) = (   0.0000000   0.0000000   0.8492439  )

     number of k points=    12  gaussian smearing, width (Ry)=  0.1000
                       cart. coord. in units 2pi/alat
        k(    1) = (   0.0000000   0.0000000   0.0000000), wk =   0.0833333
        k(    2) = (   0.0000000   0.0000000   0.1471897), wk =   0.1666667
        k(    3) = (   0.0000000   0.0000000  -0.2943795), wk =   0.0833333
        k(    4) = (   0.0000000   0.2745804   0.0000000), wk =   0.1666667
        k(    5) = (   0.0000000   0.2745804   0.1471897), wk =   0.3333333
        k(    6) = (   0.0000000   0.2745804  -0.2943795), wk =   0.1666667
        k(    7) = (  -0.4437065   0.0000000   0.0000000), wk =   0.0833333
        k(    8) = (  -0.4437065   0.0000000   0.1471897), wk =   0.1666667
        k(    9) = (  -0.4437065   0.0000000  -0.2943795), wk =   0.0833333
        k(   10) = (  -0.4437065   0.2745804   0.0000000), wk =   0.1666667
        k(   11) = (  -0.4437065   0.2745804   0.1471897), wk =   0.3333333
        k(   12) = (  -0.4437065   0.2745804  -0.2943795), wk =   0.1666667

     Largest allocated arrays     est. size (Mb)     dimensions
     Largest temporary arrays     est. size (Mb)     dimensions

     Initial potential from superposition of free atoms

     Starting from uniform charge
     Starting wfc are    0 randomized atomic wfcs

     Writing output data file Prototype-La-oP16-Fe3C.save

     Self-consistent Calculation

[...]

     iteration #  7     ecut=    40.00 Ry     beta=0.70
     CG style diagonalization
     ethr =  2.98E-04,  avg # of iterations =  3.8

[...]

     total energy              =   -5598.96964691 Ry
     Harris-Foulkes estimate   =   -5598.96975291 Ry
     estimated scf accuracy    <       0.00017801 Ry

     iteration # 11     ecut=    40.00 Ry     beta=0.70
     CG style diagonalization
     c_bands:  1 eigenvalues not converged
     ethr =  5.00E-08,  avg # of iterations =  3.9

     End of self-consistent calculation

[...]

          k = 0.0000 0.2746-0.2944 (  6742 PWs)   bands (ev):

[...]

          k =-0.4437 0.2746-0.2944 (  6792 PWs)   bands (ev):

   -84.3738 -84.3738 -84.3707 -84.3707 -84.3606 -84.3606 -84.3502 -84.3502
   -84.0381 -84.0381 -84.0199 -84.0199 -43.6783 -43.6783 -43.6702 -43.6702
   -43.6492 -43.6492 -43.6395 -43.6395 -43.3300 -43.3300 -43.3234 -43.3234
   -43.2359 -43.2359 -43.2296 -43.2296 -43.1691 -43.1691 -43.1660 -43.1660
   -43.0849 -43.0849 -43.0794 -43.0794 -43.0063 -43.0063 -43.0002 -43.0002
   -42.8430 -42.8430 -42.8382 -42.8382 -42.6888 -42.6888 -42.6760 -42.6760
   -26.8945 -26.8945 -26.8941 -26.8941  -1.5390  -1.5390  -1.5379  -1.5379
    -1.2673  -1.2673  -1.2654  -1.2654  -1.0987  -1.0987  -1.0944  -1.0944
    12.7028  12.7028  12.7105  12.7105  12.9708  12.9708  12.9932  12.9932
    13.1305  13.1305  13.2909  13.2909  13.4565  13.4565  13.5843  13.5843
    13.7031  13.7031  13.8494  13.8494  14.0038  14.0038  14.0658  14.0658
    14.1553  14.1553  14.2288  14.2288  14.3116  14.3116  14.3543  14.3543
    14.6393  14.6393  14.6498  14.6498  14.6586  14.6586  14.7128  14.7128
    14.7880  14.7880  14.8177  14.8177  14.9435  14.9435  14.9960  14.9960
    15.1331  15.1331  15.2013  15.2013  15.3228  15.3228  15.3244  15.3244
    15.4392  15.4392  15.5604  15.5604  24.0360  24.0360  24.1362  24.1362
    25.7688  25.7688  25.9979  25.9979  27.0767  27.0767  27.5683  27.5683
    28.8402  28.8402  29.2655  29.2655  29.3844  29.3844  30.0162  30.0162
    31.0193  31.0193  31.4662  31.4662  31.9212  31.9212  32.0796  32.0796
    33.4359  33.4359  33.7808  33.7808  35.0134  35.0134  35.0852  35.0852
    35.5996  35.5996  36.1966  36.1966  38.1822  38.1822  38.1976  38.1976
    39.8408  39.8408  39.9425  39.9425  40.4088  40.4088  40.4104  40.4104
    40.8355  40.8355  41.3926  41.3926  42.6727  42.6727  42.9779  42.9779
    43.4193  43.4193  44.3961  44.3962  44.8618  44.8619  45.0255  45.0255
    45.4832  45.4832  45.5276  45.5277  46.3164  46.3164  46.4951  46.4951
    46.9302  46.9302  47.3481  47.3482  47.3805  47.3805  47.3844  47.3845
    47.9015  47.9016  48.1484  48.1485  48.3835  48.3836

     the Fermi energy is    41.8319 ev

!    total energy              =   -5598.96969671 Ry
     Harris-Foulkes estimate   =   -5598.96972067 Ry
     estimated scf accuracy    <       0.00002692 Ry

     The total energy is the sum of the following terms:

     one-electron contribution =   -1215.19382399 Ry
     hartree contribution      =     912.15177667 Ry
     xc contribution           =    -470.96892530 Ry
     ewald contribution        =   -4824.50065908 Ry
     smearing contrib. (-TS)   =      -0.45806501 Ry

     convergence has been achieved in  11 iterations

     Forces acting on atoms (Ry/au):

     atom    1 type  1   force =     0.41214141   -0.48086510   -0.62338450
     atom    2 type  1   force =    -0.41214141   -0.48086510    0.62338450
     atom    3 type  1   force =     0.41214141    0.48086510   -0.62338450
     atom    4 type  1   force =    -0.73374336   -0.29705842    0.00000000
     atom    5 type  1   force =    -0.41214141   -0.48086510   -0.62338450
     atom    6 type  1   force =     0.41214141   -0.48086510    0.62338450
     atom    7 type  1   force =     0.73374336   -0.29705842    0.00000000
     atom    8 type  1   force =    -0.41214141    0.48086510   -0.62338450
     atom    9 type  1   force =     0.41214141    0.48086510    0.62338450
     atom   10 type  1   force =     0.73374336    0.29705842    0.00000000
     atom   11 type  1   force =    -0.41214141    0.48086510    0.62338450
     atom   12 type  1   force =    -0.73374336    0.29705842    0.00000000
     atom   13 type  2   force =     0.00000000    0.00000000    0.00000000
     atom   14 type  2   force =     0.00000000    0.00000000    0.00000000
     atom   15 type  2   force =     0.00000000    0.00000000    0.00000000
     atom   16 type  2   force =     0.00000000    0.00000000    0.00000000

     Total force =     2.970537     Total SCF correction =     0.000000

     entering subroutine stress ...

          total   stress  (Ry/bohr**3)                   (kbar)     P= 3897.07
   0.02726389   0.00000000   0.00000000       4010.66      0.00      0.00
   0.00000000   0.02554346   0.00000000          0.00   3757.57      0.00
   0.00000000   0.00000000   0.02666797          0.00      0.00   3922.99

     Writing output data file Prototype-La-oP16-Fe3C.save

     General routines

     Parallel routines

   This run was terminated on:  13:51:59  22Mar2018

   JOB DONE.