     Program PWSCF v.5.0.2 starts on 22Mar2018 at 12: 7:50

     Current dimensions of program PWSCF are:
     Max number of different atomic species (ntypx) = 10
     Max number of k-points (npk) =  40000
     Max angular momentum in pseudopotentials (lmaxx) =  3
     Waiting for input...
     Reading input from standard input

     Subspace diagonalization in iterative solution of the eigenvalue problem:
     a serial algorithm will be used

     bravais-lattice index     =            0
     lattice parameter (alat)  =       9.9235  a.u.
     unit-cell volume          =    1361.0366 (a.u.)^3
     number of atoms/cell      =           12
     number of atomic types    =            2
     number of electrons       =       232.00
     number of Kohn-Sham states=          139
     kinetic-energy cutoff     =      40.0000  Ry
     charge density cutoff     =     160.0000  Ry
     convergence threshold     =      1.0E-04
     mixing beta               =       0.7000
     number of iterations used =            8  plain     mixing
     Exchange-correlation      = SLA-PZ-NOGX-NOGC ( 1 1 0 0 0)
     EXX-fraction              =        0.00
     nstep                     =           50

     celldm(1)=   9.923489  celldm(2)=   0.000000  celldm(3)=   0.000000
     celldm(4)=   0.000000  celldm(5)=   0.000000  celldm(6)=   0.000000

     crystal axes: (cart. coord. in units of alat)
               a(1) = (   1.000000   0.000000   0.000000 )
               a(2) = (  -0.500000   0.866025   0.000000 )
               a(3) = (   0.000000   0.000000   1.608222 )

     reciprocal axes: (cart. coord. in units 2 pi/alat)
               b(1) = (  1.000000  0.577350  0.000000 )
               b(2) = (  0.000000  1.154701  0.000000 )
               b(3) = (  0.000000  0.000000  0.621805 )

     PseudoPot. # 1 for Yb read from file:
     /home/jld5415/pp.La/Yb.UPF
     MD5 check sum: 3e859b81cc28c53ec6aa3a2e888efcdf
     Pseudo is Norm-conserving, Zval = 24.0
     Generated in analytical, separable form
     Using radial grid of 1269 points,  6 beta functions with:
                l(1) =   0
                l(2) =   0
                l(3) =   1
                l(4) =   1
                l(5) =   2
                l(6) =   3

     PseudoPot. # 2 for Eu read from file:
     /home/jld5415/pp.La/Eu.UPF
     MD5 check sum: 5efdbbfc50c6a10138933a6429836ad2
     Pseudo is Norm-conserving, Zval = 17.0
     Generated in analytical, separable form
     Using radial grid of 1261 points,  6 beta functions with:
                l(1) =   0
                l(2) =   0
                l(3) =   1
                l(4) =   1
                l(5) =   2
                l(6) =   3

     atomic species   valence    mass     pseudopotential
        Mg            24.00    24.30500     Yb( 1.00)
        Zn            17.00    65.39000     Eu( 1.00)

     24 Sym. Ops., with inversion, found (12 have fractional translation)

   Cartesian axes

     site n.     atom                  positions (alat units)
         1           Mg  tau(   1) = (  -0.0000005   0.5773506   0.1003820  )
         2           Mg  tau(   2) = (   0.5000005   0.2886748   0.9044931  )
         3           Mg  tau(   3) = (   0.5000005   0.2886748   1.5078402  )
         4           Mg  tau(   4) = (  -0.0000005   0.5773506   0.7037291  )
         5           Zn  tau(   5) = (   0.0000000   0.0000000   0.0000000  )
         6           Zn  tau(   6) = (   0.0000000   0.0000000   0.8041111  )
         7           Zn  tau(   7) = (   0.0000000   0.2950739   1.2061667  )
         8           Zn  tau(   8) = (   0.7444585   0.1475370   0.4020556  )
         9           Zn  tau(   9) = (   0.2555415   0.1475370   0.4020556  )
        10           Zn  tau(  10) = (   0.2444585   0.7184884   1.2061667  )
        11           Zn  tau(  11) = (  -0.2444585   0.7184884   1.2061667  )
        12           Zn  tau(  12) = (   0.5000000   0.5709515   0.4020556  )

     number of k points=    12  gaussian smearing, width (Ry)=  0.1000
                       cart. coord. in units 2pi/alat
        k(    1) = (   0.0000000   0.0000000   0.0000000), wk =   0.0833333
        k(    2) = (   0.0000000   0.0000000   0.1554512), wk =   0.1666667
        k(    3) = (   0.0000000   0.0000000  -0.3109023), wk =   0.0833333
        k(    4) = (   0.0000000   0.3849002   0.0000000), wk =   0.1666667
        k(    5) = (   0.0000000   0.3849002   0.1554512), wk =   0.3333333
        k(    6) = (   0.0000000   0.3849002  -0.3109023), wk =   0.1666667
        k(    7) = (  -0.5000000  -0.2886751   0.0000000), wk =   0.0833333
        k(    8) = (  -0.5000000  -0.2886751   0.1554512), wk =   0.1666667
        k(    9) = (  -0.5000000  -0.2886751  -0.3109023), wk =   0.0833333
        k(   10) = (  -0.5000000   0.0962250   0.0000000), wk =   0.1666667
        k(   11) = (  -0.5000000   0.0962250   0.1554512), wk =   0.3333333
        k(   12) = (  -0.5000000   0.0962250  -0.3109023), wk =   0.1666667

     Largest allocated arrays     est. size (Mb)     dimensions
     Largest temporary arrays     est. size (Mb)     dimensions

     Initial potential from superposition of free atoms

     Starting from uniform charge
     Starting wfc are    0 randomized atomic wfcs

     Self-consistent Calculation

     iteration #  1     ecut=    40.00 Ry     beta=0.70
     CG style diagonalization
     ethr =  1.00E-02,  avg # of iterations = 17.6

     total energy              =   -1873.75319684 Ry
     Harris-Foulkes estimate   =   -3870.56410700 Ry
     estimated scf accuracy    <    2395.55670972 Ry

[...]

     iteration #  3     ecut=    40.00 Ry     beta=0.70
     CG style diagonalization
     c_bands:  1 eigenvalues not converged
     c_bands:  1 eigenvalues not converged
     c_bands:  1 eigenvalues not converged
     c_bands:  1 eigenvalues not converged
     ethr =  1.00E-02,  avg # of iterations = 11.8

[...]

     End of self-consistent calculation

          k = 0.0000 0.0000 0.0000 (  5769 PWs)   bands (ev):

   -92.5989 -92.5765 -92.5694 -92.5046 -51.3857 -51.3854 -51.3854 -51.3763
   -51.3752 -51.3752 -51.3659 -51.3652 -51.3652 -51.3603 -51.3603 -51.3523
   -32.0353 -31.8657 -31.6326 -31.4491 -31.3897 -31.3896 -31.3882 -31.3881
    -7.0244  -6.5458  -6.0513  -5.3636  -5.3636  -5.2326  -5.2326  -5.1944
    -5.1944  -4.8089  -4.3984  -4.3983  -4.3795  -4.3795  -4.3772  -3.5973
    -3.5973  -3.5866  -3.5531  -3.5451  -3.3684  -3.3684  -3.2817  -3.2817
     6.4596   6.4597   6.4747   6.4936   6.5230   6.5230   6.5645   6.5645
     6.6348   6.6348   6.7435   6.7435   6.7749   6.8044   6.8044   6.8213
     6.8213   6.8329   6.8566   6.8566  16.4135  17.8947  19.0524  21.5250
    21.7702  22.1316  22.1316  22.6067  22.8077  22.8875  23.4289  23.4289
    23.9208  23.9209  24.1917  24.1918  24.8244  24.9312  25.1447  25.1448
    25.8093  25.8093  25.9788  25.9788  27.1122  27.1124  28.3325  28.4022
    28.7776  29.6062  29.8261  29.8262  30.0037  30.0037  30.1293  30.2267
    30.2267  30.3372  30.3486  30.3487  30.4738  30.4739  30.9170  30.9171
    31.5126  31.6611  31.6611  31.6950  32.4056  32.4057  32.6669  33.5877
    33.5878  33.7148  33.7148  34.6075  35.5194  35.5403  35.7726  36.6169
    36.9365  36.9366  37.1727  37.1727  37.5995  37.9636  38.4858  38.4859
    38.8854  38.8855  39.5840

[...]

          k =-0.5000-0.2887 0.0000 (  5800 PWs)   bands (ev):

[...]

     the Fermi energy is    32.1819 ev

!    total energy              =   -3037.95444710 Ry
     Harris-Foulkes estimate   =   -3037.95450832 Ry
     estimated scf accuracy    <       0.00005831 Ry

     The total energy is the sum of the following terms:

     one-electron contribution =    -455.94621082 Ry
     hartree contribution      =     413.88220227 Ry
     xc contribution           =    -277.23512925 Ry
     ewald contribution        =   -2718.14206824 Ry
     smearing contrib. (-TS)   =      -0.51324107 Ry

     convergence has been achieved in  11 iterations

     Forces acting on atoms (Ry/au):

     atom    1 type  1   force =     0.00000000    0.00000000    0.02319538
     atom    2 type  1   force =     0.00000000    0.00000000    0.02319538
     atom    3 type  1   force =     0.00000000    0.00000000   -0.02319538
     atom    4 type  1   force =     0.00000000    0.00000000   -0.02319538
     atom    5 type  2   force =     0.00000000    0.00000000    0.00000000
     atom    6 type  2   force =     0.00000000    0.00000000    0.00000000
     atom    7 type  2   force =     0.00000000   -0.01106244    0.00000000
     atom    8 type  2   force =     0.00958035   -0.00553122    0.00000000
     atom    9 type  2   force =    -0.00958035   -0.00553122    0.00000000
     atom   10 type  2   force =     0.00958035    0.00553122    0.00000000
     atom   11 type  2   force =    -0.00958035    0.00553122    0.00000000
     atom   12 type  2   force =     0.00000000    0.01106244    0.00000000

     Total force =     0.053725     Total SCF correction =     0.000000

     entering subroutine stress ...

          total   stress  (Ry/bohr**3)                   (kbar)     P=  621.00
   0.00435389   0.00000000   0.00000000        640.48      0.00      0.00
   0.00000000   0.00435389   0.00000000          0.00    640.48      0.00
   0.00000000   0.00000000   0.00395664          0.00      0.00    582.04

     BFGS Geometry Optimization

     number of scf cycles    =   1
     number of bfgs steps    =   0

     enthalpy new            =   -3037.9544470997 Ry

     new trust radius        =       0.5000000000 bohr
     new conv_thr            =       0.0001000000 Ry

     new unit-cell volume =   1647.30743 a.u.^3 (   244.10577 Ang^3 )

CELL_PARAMETERS (alat=  9.92348860)
   1.067764947   0.000000000   0.000000000
  -0.533882474   0.924711570   0.000000000
   0.000000000   0.000000000   1.707259667

ATOMIC_POSITIONS (crystal)
Mg       0.333333000   0.666667000   0.063322854
Mg       0.666667000   0.333333000   0.563322854
Mg       0.666667000   0.333333000   0.936677146
Mg       0.333333000   0.666667000   0.436677146
Zn       0.000000000   0.000000000   0.000000000
Zn       0.000000000   0.000000000   0.500000000
Zn       0.169960306   0.339920611   0.750000000
Zn       0.830039694   0.169960306   0.250000000
Zn       0.339920611   0.169960306   0.250000000
Zn       0.660079389   0.830039694   0.750000000
Zn       0.169960306   0.830039694   0.750000000
Zn       0.830039694   0.660079389   0.250000000

     Writing output data file Prototype-La-hP12-MgZn2.save
     NEW-OLD atomic charge density approx. for the potential
     NEW k-points:
        k(    1) = (   0.0000000   0.0000000   0.0000000), wk =   0.0833333
        k(    2) = (   0.0000000   0.0000000   0.1464335), wk =   0.1666667
        k(    3) = (   0.0000000   0.0000000  -0.2928670), wk =   0.0833333
        k(    4) = (   0.0000000   0.3604728   0.0000000), wk =   0.1666667
        k(    5) = (   0.0000000   0.3604728   0.1464335), wk =   0.3333333
        k(    6) = (   0.0000000   0.3604728  -0.2928670), wk =   0.1666667
        k(    7) = (  -0.4682679  -0.2703546   0.0000000), wk =   0.0833333
        k(    8) = (  -0.4682679  -0.2703546   0.1464335), wk =   0.1666667
        k(    9) = (  -0.4682679  -0.2703546  -0.2928670), wk =   0.0833333
        k(   10) = (  -0.4682679   0.0901182   0.0000000), wk =   0.1666667
        k(   11) = (  -0.4682679   0.0901182   0.1464335), wk =   0.3333333
        k(   12) = (  -0.4682679   0.0901182  -0.2928670), wk =   0.1666667

[...]

     enthalpy old            =   -3037.9544470997 Ry
     enthalpy new            =   -3037.9273813833 Ry

     CASE: enthalpy_new > enthalpy_old

     new trust radius        =       0.2515913559 bohr

     trust_radius < trust_radius_min

     resetting bfgs history

     new conv_thr            =       0.0001000000 Ry

[...]

     number of scf cycles    =   3
     number of bfgs steps    =   1

     enthalpy old            =   -3037.9544470997 Ry
     enthalpy new            =   -3037.9615097462 Ry

     CASE: enthalpy_new > enthalpy_old

     new trust radius        =       0.2513197917 bohr

     trust_radius < trust_radius_min

     resetting bfgs history

     Message from routine bfgs:
     history already reset at previous step: stopping
     new conv_thr            =       0.0001000000 Ry

     new unit-cell volume =   1637.54521 a.u.^3 (   242.65916 Ang^3 )

[...]

ATOMIC_POSITIONS (crystal)
Mg       0.333333000   0.666667000   0.063248206
Mg       0.666667000   0.333333000   0.563248206
Mg       0.666667000   0.333333000   0.936751794
Mg       0.333333000   0.666667000   0.436751794
Zn       0.000000000   0.000000000   0.000000000
Zn       0.000000000   0.000000000   0.500000000
Zn       0.169997963   0.339995927   0.750000000
Zn       0.830002037   0.169997963   0.250000000
Zn       0.339995927   0.169997963   0.250000000
Zn       0.660004073   0.830002037   0.750000000
Zn       0.169997963   0.830002037   0.750000000
Zn       0.830002037   0.660004073   0.250000000

     Writing output data file Prototype-La-hP12-MgZn2.save
     NEW-OLD atomic charge density approx. for the potential
     NEW k-points:
        k(    1) = (   0.0000000   0.0000000   0.0000000), wk =   0.0833333
        k(    2) = (   0.0000000   0.0000000   0.1467779), wk =   0.1666667
        k(    3) = (   0.0000000   0.0000000  -0.2935559), wk =   0.0833333
        k(    4) = (   0.0000000   0.3611212   0.0000000), wk =   0.1666667
        k(    5) = (   0.0000000   0.3611212   0.1467779), wk =   0.3333333
        k(    6) = (   0.0000000   0.3611212  -0.2935559), wk =   0.1666667
        k(    7) = (  -0.4691102  -0.2708409   0.0000000), wk =   0.0833333
        k(    8) = (  -0.4691102  -0.2708409   0.1467779), wk =   0.1666667
        k(    9) = (  -0.4691102  -0.2708409  -0.2935559), wk =   0.0833333
        k(   10) = (  -0.4691102   0.0902803   0.0000000), wk =   0.1666667
        k(   11) = (  -0.4691102   0.0902803   0.1467779), wk =   0.3333333
        k(   12) = (  -0.4691102   0.0902803  -0.2935559), wk =   0.1666667

[...]

     The maximum number of steps has been reached.

     End of BFGS Geometry Optimization
Begin final coordinates
     new unit-cell volume =   1637.54521 a.u.^3 (   242.65916 Ang^3 )

CELL_PARAMETERS (alat=  9.92348860)
   1.065847751   0.000000000   0.000000000
  -0.532923876   0.923051229   0.000000000
   0.000000000   0.000000000   1.703253124

ATOMIC_POSITIONS (crystal)
Mg       0.333333000   0.666667000   0.063248206
Mg       0.666667000   0.333333000   0.563248206
Mg       0.666667000   0.333333000   0.936751794
Mg       0.333333000   0.666667000   0.436751794
Zn       0.000000000   0.000000000   0.000000000
Zn       0.000000000   0.000000000   0.500000000
Zn       0.169997963   0.339995927   0.750000000
Zn       0.830002037   0.169997963   0.250000000
Zn       0.339995927   0.169997963   0.250000000
Zn       0.660004073   0.830002037   0.750000000
Zn       0.169997963   0.830002037   0.750000000
Zn       0.830002037   0.660004073   0.250000000
End final coordinates

     A final scf calculation at the relaxed structure.
     The G-vectors are recalculated for the final unit cell
     Results may differ from those at the preceding step.

     bravais-lattice index     =            0
     lattice parameter (alat)  =       9.9235  a.u.
     unit-cell volume          =    1637.5452 (a.u.)^3
     number of atoms/cell      =           12
     number of atomic types    =            2
     number of electrons       =       232.00
     number of Kohn-Sham states=          139
     kinetic-energy cutoff     =      40.0000  Ry
     charge density cutoff     =     160.0000  Ry
     convergence threshold     =      1.0E-04
     mixing beta               =       0.7000
     number of iterations used =            8  plain     mixing
     Exchange-correlation      = SLA-PZ-NOGX-NOGC ( 1 1 0 0 0)
     EXX-fraction              =        0.00

     celldm(1)=   9.923489  celldm(2)=   0.000000  celldm(3)=   0.000000
     celldm(4)=   0.000000  celldm(5)=   0.000000  celldm(6)=   0.000000

     crystal axes: (cart. coord. in units of alat)
               a(1) = (   1.065848   0.000000   0.000000 )
               a(2) = (  -0.532924   0.923051   0.000000 )
               a(3) = (   0.000000   0.000000   1.703253 )

     reciprocal axes: (cart. coord. in units 2 pi/alat)
               b(1) = (  0.938220  0.541682  0.000000 )
               b(2) = (  0.000000  1.083363  0.000000 )
               b(3) = (  0.000000  0.000000  0.587112 )

     PseudoPot. # 1 for Yb read from file:
     /home/jld5415/pp.La/Yb.UPF
     MD5 check sum: 3e859b81cc28c53ec6aa3a2e888efcdf
     Pseudo is Norm-conserving, Zval = 24.0
     Generated in analytical, separable form
     Using radial grid of 1269 points,  6 beta functions with:
                l(1) =   0
                l(2) =   0
                l(3) =   1
                l(4) =   1
                l(5) =   2
                l(6) =   3

     PseudoPot. # 2 for Eu read from file:
     /home/jld5415/pp.La/Eu.UPF
     MD5 check sum: 5efdbbfc50c6a10138933a6429836ad2
     Pseudo is Norm-conserving, Zval = 17.0
     Generated in analytical, separable form
     Using radial grid of 1261 points,  6 beta functions with:
                l(1) =   0
                l(2) =   0
                l(3) =   1
                l(4) =   1
                l(5) =   2
                l(6) =   3

     atomic species   valence    mass     pseudopotential
        Mg            24.00    24.30500     Yb( 1.00)
        Zn            17.00    65.39000     Eu( 1.00)

     24 Sym. Ops., with inversion, found (12 have fractional translation)

   Cartesian axes

     site n.     atom                  positions (alat units)
         1           Mg  tau(   1) = (  -0.0000005   0.6153678   0.1077277  )
         2           Mg  tau(   2) = (   0.5329244   0.3076834   0.9593543  )
         3           Mg  tau(   3) = (   0.5329244   0.3076834   1.5955254  )
         4           Mg  tau(   4) = (  -0.0000005   0.6153678   0.7438989  )
         5           Zn  tau(   5) = (   0.0000000   0.0000000   0.0000000  )
         6           Zn  tau(   6) = (   0.0000000   0.0000000   0.8516266  )
         7           Zn  tau(   7) = (   0.0000000   0.3138337   1.2774398  )
         8           Zn  tau(   8) = (   0.7940598   0.1569168   0.4258133  )
         9           Zn  tau(   9) = (   0.2717879   0.1569168   0.4258133  )
        10           Zn  tau(  10) = (   0.2611360   0.7661344   1.2774398  )
        11           Zn  tau(  11) = (  -0.2611360   0.7661344   1.2774398  )
        12           Zn  tau(  12) = (   0.5329239   0.6092176   0.4258133  )

     number of k points=    12  gaussian smearing, width (Ry)=  0.1000
                       cart. coord. in units 2pi/alat
        k(    1) = (   0.0000000   0.0000000   0.0000000), wk =   0.0833333
        k(    2) = (   0.0000000   0.0000000   0.1467779), wk =   0.1666667
        k(    3) = (   0.0000000   0.0000000  -0.2935559), wk =   0.0833333
        k(    4) = (   0.0000000   0.3611212   0.0000000), wk =   0.1666667
        k(    5) = (   0.0000000   0.3611212   0.1467779), wk =   0.3333333
        k(    6) = (   0.0000000   0.3611212  -0.2935559), wk =   0.1666667
        k(    7) = (  -0.4691102  -0.2708409   0.0000000), wk =   0.0833333
        k(    8) = (  -0.4691102  -0.2708409   0.1467779), wk =   0.1666667
        k(    9) = (  -0.4691102  -0.2708409  -0.2935559), wk =   0.0833333
        k(   10) = (  -0.4691102   0.0902803   0.0000000), wk =   0.1666667
        k(   11) = (  -0.4691102   0.0902803   0.1467779), wk =   0.3333333
        k(   12) = (  -0.4691102   0.0902803  -0.2935559), wk =   0.1666667

     Largest allocated arrays     est. size (Mb)     dimensions
     Largest temporary arrays     est. size (Mb)     dimensions

     Initial potential from superposition of free atoms

     Starting from uniform charge
     Starting wfc are    0 randomized atomic wfcs

     Writing output data file Prototype-La-hP12-MgZn2.save

     Self-consistent Calculation

[...]

     iteration #  9     ecut=    40.00 Ry     beta=0.70
     CG style diagonalization
     c_bands:  1 eigenvalues not converged
     c_bands:  1 eigenvalues not converged
     c_bands:  1 eigenvalues not converged
     c_bands:  1 eigenvalues not converged
     c_bands:  1 eigenvalues not converged
     c_bands:  1 eigenvalues not converged
     c_bands:  1 eigenvalues not converged
     ethr =  1.65E-05,  avg # of iterations =  4.2

[...]

     total energy              =   -3039.60593646 Ry
     Harris-Foulkes estimate   =   -3039.60764932 Ry
     estimated scf accuracy    <       0.00407878 Ry

     iteration # 11     ecut=    40.00 Ry     beta=0.70
     CG style diagonalization
     ethr =  1.76E-06,  avg # of iterations =  3.4

     End of self-consistent calculation

[...]

          k = 0.0000 0.3611-0.2936 (  6994 PWs)   bands (ev):

[...]

          k =-0.4691 0.0903-0.2936 (  6990 PWs)   bands (ev):

   -98.5909 -98.5909 -98.5758 -98.5758 -57.3532 -57.3532 -57.3493 -57.3493
   -57.3482 -57.3482 -57.3451 -57.3450 -57.3431 -57.3431 -57.3401 -57.3401
   -37.4388 -37.4388 -37.3371 -37.3371 -37.2239 -37.2239 -37.2113 -37.2112
   -11.1240 -11.1240 -10.7295 -10.7295 -10.4482 -10.4482 -10.4046 -10.4046
   -10.3244 -10.3244 -10.1689 -10.1689 -10.0204 -10.0204  -9.8581  -9.8581
    -9.7476  -9.7476  -9.6937  -9.6937  -9.5651  -9.5650  -9.5175  -9.5175
     0.7271   0.7271   0.7397   0.7397   0.7923   0.7923   0.8296   0.8296
     0.8390   0.8390   0.8794   0.8794   0.8910   0.8910   0.9086   0.9086
     0.9644   0.9644   0.9669   0.9669  13.2501  13.2501  14.2271  14.2271
    18.4385  18.4385  18.6335  18.6335  18.9145  18.9145  19.2134  19.2134
    19.6507  19.6507  19.9698  19.9698  20.1719  20.1719  20.4810  20.4810
    20.6658  20.6658  21.3024  21.3024  21.8631  21.8631  22.0232  22.0232
    22.2390  22.2390  22.5969  22.5969  22.8587  22.8587  23.0963  23.0963
    23.2984  23.2984  23.8792  23.8792  24.3268  24.3268  24.5446  24.5446
    25.0884  25.0884  25.4745  25.4745  26.1092  26.1092  26.1936  26.1936
    26.7241  26.7242  27.2592  27.2592  28.1408  28.1408  29.5889  29.5890
    29.9598  29.9598  30.7929  30.7929  31.6623  31.6624  32.3632  32.3634
    32.9166  32.9169  33.6402

     the Fermi energy is    25.7626 ev

!    total energy              =   -3039.60671953 Ry
     Harris-Foulkes estimate   =   -3039.60680204 Ry
     estimated scf accuracy    <       0.00008847 Ry

     The total energy is the sum of the following terms:

     one-electron contribution =    -691.60170594 Ry
     hartree contribution      =     481.64378009 Ry
     xc contribution           =    -273.47846362 Ry
     ewald contribution        =   -2555.51876663 Ry
     smearing contrib. (-TS)   =      -0.65156342 Ry

     convergence has been achieved in  11 iterations

     Forces acting on atoms (Ry/au):

     atom    1 type  1   force =     0.00000000    0.00000000   -0.00396434
     atom    2 type  1   force =     0.00000000    0.00000000   -0.00396434
     atom    3 type  1   force =     0.00000000    0.00000000    0.00396434
     atom    4 type  1   force =     0.00000000    0.00000000    0.00396434
     atom    5 type  2   force =     0.00000000    0.00000000    0.00000000
     atom    6 type  2   force =     0.00000000    0.00000000    0.00000000
     atom    7 type  2   force =     0.00000000   -0.00494719    0.00000000
     atom    8 type  2   force =     0.00428439   -0.00247360    0.00000000
     atom    9 type  2   force =    -0.00428439   -0.00247360    0.00000000
     atom   10 type  2   force =     0.00428439    0.00247360    0.00000000
     atom   11 type  2   force =    -0.00428439    0.00247360    0.00000000
     atom   12 type  2   force =     0.00000000    0.00494719    0.00000000

     Total force =     0.014481     Total SCF correction =     0.000000

     entering subroutine stress ...

          total   stress  (Ry/bohr**3)                   (kbar)     P= -151.47
  -0.00100071   0.00000000   0.00000000       -147.21      0.00      0.00
   0.00000000  -0.00100071   0.00000000          0.00   -147.21      0.00
   0.00000000   0.00000000  -0.00108758          0.00      0.00   -159.99

     Writing output data file Prototype-La-hP12-MgZn2.save

     General routines

     Parallel routines

   This run was terminated on:  12:36:13  22Mar2018

   JOB DONE.