     Program PWSCF v.5.0.2 starts on 22Mar2018 at 12: 7:51

     Current dimensions of program PWSCF are:
     Max number of different atomic species (ntypx) = 10
     Max number of k-points (npk) =  40000
     Max angular momentum in pseudopotentials (lmaxx) =  3
     Waiting for input...
     Reading input from standard input

     Subspace diagonalization in iterative solution of the eigenvalue problem:
     a serial algorithm will be used

     bravais-lattice index     =            0
     lattice parameter (alat)  =      12.0168  a.u.
     unit-cell volume          =    1187.3413 (a.u.)^3
     number of atoms/cell      =            8
     number of atomic types    =            2
     number of electrons       =       178.00
     number of Kohn-Sham states=          107
     kinetic-energy cutoff     =      40.0000  Ry
     charge density cutoff     =     160.0000  Ry
     convergence threshold     =      1.0E-04
     mixing beta               =       0.7000
     number of iterations used =            8  plain     mixing
     Exchange-correlation      = SLA-PZ-NOGX-NOGC ( 1 1 0 0 0)
     EXX-fraction              =        0.00
     nstep                     =           50

     celldm(1)=  12.016801  celldm(2)=   0.000000  celldm(3)=   0.000000
     celldm(4)=   0.000000  celldm(5)=   0.000000  celldm(6)=   0.000000

     crystal axes: (cart. coord. in units of alat)
               a(1) = (   1.000000   0.000000   0.000000 )
               a(2) = (  -0.500000   0.866025   0.000000 )
               a(3) = (   0.000000   0.000000   0.790093 )

     reciprocal axes: (cart. coord. in units 2 pi/alat)
               b(1) = (  1.000000  0.577350  0.000000 )
               b(2) = (  0.000000  1.154701  0.000000 )
               b(3) = (  0.000000  0.000000  1.265674 )

     PseudoPot. # 1 for Yb read from file:
     /home/jld5415/pp.La/Yb.UPF
     MD5 check sum: 3e859b81cc28c53ec6aa3a2e888efcdf
     Pseudo is Norm-conserving, Zval = 24.0
     Generated in analytical, separable form
     Using radial grid of 1269 points,  6 beta functions with:
                l(1) =   0
                l(2) =   0
                l(3) =   1
                l(4) =   1
                l(5) =   2
                l(6) =   3

     PseudoPot. # 2 for Eu read from file:
     /home/jld5415/pp.La/Eu.UPF
     MD5 check sum: 5efdbbfc50c6a10138933a6429836ad2
     Pseudo is Norm-conserving, Zval = 17.0
     Generated in analytical, separable form
     Using radial grid of 1261 points,  6 beta functions with:
                l(1) =   0
                l(2) =   0
                l(3) =   1
                l(4) =   1
                l(5) =   2
                l(6) =   3

     atomic species   valence    mass     pseudopotential
        Mg            24.00    24.30500     Yb( 1.00)
        Cd            17.00   112.41100     Eu( 1.00)

     24 Sym. Ops., with inversion, found (12 have fractional translation)

   Cartesian axes

     site n.     atom                  positions (alat units)
         1           Mg  tau(   1) = (   0.2478935   0.7204716   0.1975233  )
         2           Mg  tau(   2) = (   0.7478935   0.1455538   0.5925699  )
         3           Mg  tau(   3) = (   0.2521065   0.1455538   0.5925699  )
         4           Mg  tau(   4) = (  -0.2478935   0.7204716   0.1975233  )
         5           Mg  tau(   5) = (   0.0000000   0.2911075   0.1975233  )
         6           Mg  tau(   6) = (   0.5000000   0.5749179   0.5925699  )
         7           Cd  tau(   7) = (   0.5000005   0.2886748   0.1975233  )
         8           Cd  tau(   8) = (  -0.0000005   0.5773506   0.5925699  )

     number of k points=    64  gaussian smearing, width (Ry)=  0.1000
                       cart. coord. in units 2pi/alat
        k(    1) = (   0.0000000   0.0000000   0.0000000), wk =   0.0095238
        k(    2) = (   0.0000000   0.0000000   0.1808105), wk =   0.0190476
        k(    3) = (   0.0000000   0.0000000   0.3616210), wk =   0.0190476
        k(    4) = (   0.0000000   0.0000000   0.5424315), wk =   0.0190476
        k(    5) = (   0.0000000   0.1924501   0.0000000), wk =   0.0190476
        k(    6) = (   0.0000000   0.1924501   0.1808105), wk =   0.0380952
        k(    7) = (   0.0000000   0.1924501   0.3616210), wk =   0.0380952
        k(    8) = (   0.0000000   0.1924501   0.5424315), wk =   0.0380952
        k(    9) = (   0.0000000   0.3849002   0.0000000), wk =   0.0190476
        k(   10) = (   0.0000000   0.3849002   0.1808105), wk =   0.0380952
        k(   11) = (   0.0000000   0.3849002   0.3616210), wk =   0.0380952
        k(   12) = (   0.0000000   0.3849002   0.5424315), wk =   0.0380952
        k(   13) = (   0.0000000  -0.5773503   0.0000000), wk =   0.0095238
        k(   14) = (   0.0000000  -0.5773503   0.1808105), wk =   0.0190476
        k(   15) = (   0.0000000  -0.5773503   0.3616210), wk =   0.0190476
        k(   16) = (   0.0000000  -0.5773503   0.5424315), wk =   0.0190476
        k(   17) = (   0.2000000   0.1154701   0.0000000), wk =   0.0190476
        k(   18) = (   0.2000000   0.1154701   0.1808105), wk =   0.0380952
        k(   19) = (   0.2000000   0.1154701   0.3616210), wk =   0.0380952
        k(   20) = (   0.2000000   0.1154701   0.5424315), wk =   0.0380952
        k(   21) = (   0.2000000   0.3079201   0.0000000), wk =   0.0190476
        k(   22) = (   0.2000000   0.3079201   0.1808105), wk =   0.0380952
        k(   23) = (   0.2000000   0.3079201   0.3616210), wk =   0.0380952
        k(   24) = (   0.2000000   0.3079201   0.5424315), wk =   0.0380952
        k(   25) = (   0.2000000   0.5003702   0.0000000), wk =   0.0190476
        k(   26) = (   0.2000000   0.5003702   0.1808105), wk =   0.0380952
        k(   27) = (   0.2000000   0.5003702   0.3616210), wk =   0.0380952
        k(   28) = (   0.2000000   0.5003702   0.5424315), wk =   0.0380952
        k(   29) = (   0.2000000  -0.4618802   0.0000000), wk =   0.0190476
        k(   30) = (   0.2000000  -0.4618802   0.1808105), wk =   0.0380952
        k(   31) = (   0.2000000  -0.4618802   0.3616210), wk =   0.0380952
        k(   32) = (   0.2000000  -0.4618802   0.5424315), wk =   0.0380952
        k(   33) = (   0.2000000  -0.2694301   0.0000000), wk =   0.0190476
        k(   34) = (   0.2000000  -0.2694301   0.1808105), wk =   0.0380952
        k(   35) = (   0.2000000  -0.2694301   0.3616210), wk =   0.0380952
        k(   36) = (   0.2000000  -0.2694301   0.5424315), wk =   0.0380952
        k(   37) = (   0.2000000  -0.0769800   0.0000000), wk =   0.0190476
        k(   38) = (   0.2000000  -0.0769800   0.1808105), wk =   0.0380952
        k(   39) = (   0.2000000  -0.0769800   0.3616210), wk =   0.0380952
        k(   40) = (   0.2000000  -0.0769800   0.5424315), wk =   0.0380952
        k(   41) = (   0.4000000   0.2309401   0.0000000), wk =   0.0190476
        k(   42) = (   0.4000000   0.2309401   0.1808105), wk =   0.0380952
        k(   43) = (   0.4000000   0.2309401   0.3616210), wk =   0.0380952
        k(   44) = (   0.4000000   0.2309401   0.5424315), wk =   0.0380952
        k(   45) = (   0.4000000   0.4233902   0.0000000), wk =   0.0190476
        k(   46) = (   0.4000000   0.4233902   0.1808105), wk =   0.0380952
        k(   47) = (   0.4000000   0.4233902   0.3616210), wk =   0.0380952
        k(   48) = (   0.4000000   0.4233902   0.5424315), wk =   0.0380952
        k(   49) = (   0.4000000   0.6158403   0.0000000), wk =   0.0190476
        k(   50) = (   0.4000000   0.6158403   0.1808105), wk =   0.0380952
        k(   51) = (   0.4000000   0.6158403   0.3616210), wk =   0.0380952
        k(   52) = (   0.4000000   0.6158403   0.5424315), wk =   0.0380952
        k(   53) = (   0.4000000  -0.3464102   0.0000000), wk =   0.0190476
        k(   54) = (   0.4000000  -0.3464102   0.1808105), wk =   0.0380952
        k(   55) = (   0.4000000  -0.3464102   0.3616210), wk =   0.0380952
        k(   56) = (   0.4000000  -0.3464102   0.5424315), wk =   0.0380952
        k(   57) = (   0.4000000  -0.1539601   0.0000000), wk =   0.0190476
        k(   58) = (   0.4000000  -0.1539601   0.1808105), wk =   0.0380952
        k(   59) = (   0.4000000  -0.1539601   0.3616210), wk =   0.0380952
        k(   60) = (   0.4000000  -0.1539601   0.5424315), wk =   0.0380952
        k(   61) = (   0.4000000   0.0384900   0.0000000), wk =   0.0190476
        k(   62) = (   0.4000000   0.0384900   0.1808105), wk =   0.0380952
        k(   63) = (   0.4000000   0.0384900   0.3616210), wk =   0.0380952
        k(   64) = (   0.4000000   0.0384900   0.5424315), wk =   0.0380952

     Largest allocated arrays     est. size (Mb)     dimensions
     Largest temporary arrays     est. size (Mb)     dimensions

     Initial potential from superposition of free atoms

     Starting from uniform charge
     Starting wfc are    0 randomized atomic wfcs

     Self-consistent Calculation

     iteration #  1     ecut=    40.00 Ry     beta=0.70
     CG style diagonalization
     c_bands:  5 eigenvalues not converged
     c_bands:  4 eigenvalues not converged
     c_bands:  5 eigenvalues not converged
     c_bands:  5 eigenvalues not converged
     c_bands:  3 eigenvalues not converged
     c_bands:  5 eigenvalues not converged
     c_bands:  5 eigenvalues not converged
     c_bands:  5 eigenvalues not converged
     c_bands:  4 eigenvalues not converged
     c_bands:  4 eigenvalues not converged
     c_bands:  4 eigenvalues not converged
     c_bands:  5 eigenvalues not converged
     c_bands:  4 eigenvalues not converged
     c_bands:  5 eigenvalues not converged
     c_bands:  5 eigenvalues not converged
     c_bands:  5 eigenvalues not converged
     c_bands:  5 eigenvalues not converged
     c_bands:  5 eigenvalues not converged
     c_bands:  5 eigenvalues not converged
     c_bands:  5 eigenvalues not converged
     c_bands:  4 eigenvalues not converged
     c_bands:  5 eigenvalues not converged
     c_bands:  5 eigenvalues not converged
     c_bands:  5 eigenvalues not converged
     ethr =  1.00E-02,  avg # of iterations = 16.8

     total energy              =   -2086.04700157 Ry
     Harris-Foulkes estimate   =   -3745.61572464 Ry
     estimated scf accuracy    <    2018.62558219 Ry

[...]

     iteration #  4     ecut=    40.00 Ry     beta=0.70
     CG style diagonalization
     ethr =  1.00E-02,  avg # of iterations =  7.8

[...]

     End of self-consistent calculation

          k = 0.0000 0.0000 0.0000 (  5047 PWs)   bands (ev):

   -98.0885 -98.0884 -98.0826 -98.0246 -98.0245 -97.9865 -56.8937 -56.8712
   -56.8711 -56.8635 -56.8622 -56.8596 -56.8596 -56.8587 -56.8586 -56.8542
   -56.8437 -56.8436 -56.8299 -56.8267 -56.8264 -56.8263 -56.8260 -56.8260
   -36.5714 -36.5706  -9.4453  -9.4334  -9.3703  -9.3703  -9.3662  -9.3662
     0.7218   0.7652   0.7652   0.8431   0.9116   0.9357   0.9613   0.9613
     0.9872   0.9873   1.0580   1.0756   1.0756   1.2334   1.2834   1.2835
     1.3286   1.3286   1.3341   1.3807   1.3807   1.4280   1.4280   1.5074
     1.5074   1.5915   1.6068   1.6069   1.6639   1.6770   9.8738  14.1149
    14.1150  14.4116  16.1488  16.1489  16.7254  17.9506  19.3773  20.3223
[...]
        k(   22) = (   0.2082358   0.3206000   0.1879581), wk =   0.0380952
        k(   23) = (   0.2082358   0.3206000   0.3759162), wk =   0.0380952
        k(   24) = (   0.2082358   0.3206000   0.5638743), wk =   0.0380952
        k(   25) = (   0.2082358   0.5209750   0.0000000), wk =   0.0190476
        k(   26) = (   0.2082358   0.5209750   0.1879581), wk =   0.0380952
        k(   27) = (   0.2082358   0.5209750   0.3759162), wk =   0.0380952
        k(   28) = (   0.2082358   0.5209750   0.5638743), wk =   0.0380952
        k(   29) = (   0.2082358  -0.4809000   0.0000000), wk =   0.0190476
        k(   30) = (   0.2082358  -0.4809000   0.1879581), wk =   0.0380952
        k(   31) = (   0.2082358  -0.4809000   0.3759162), wk =   0.0380952
        k(   32) = (   0.2082358  -0.4809000   0.5638743), wk =   0.0380952
        k(   33) = (   0.2082358  -0.2805250   0.0000000), wk =   0.0190476
        k(   34) = (   0.2082358  -0.2805250   0.1879581), wk =   0.0380952
        k(   35) = (   0.2082358  -0.2805250   0.3759162), wk =   0.0380952
        k(   36) = (   0.2082358  -0.2805250   0.5638743), wk =   0.0380952
        k(   37) = (   0.2082358  -0.0801500   0.0000000), wk =   0.0190476
        k(   38) = (   0.2082358  -0.0801500   0.1879581), wk =   0.0380952
        k(   39) = (   0.2082358  -0.0801500   0.3759162), wk =   0.0380952
        k(   40) = (   0.2082358  -0.0801500   0.5638743), wk =   0.0380952
        k(   41) = (   0.4164716   0.2404500   0.0000000), wk =   0.0190476
        k(   42) = (   0.4164716   0.2404500   0.1879581), wk =   0.0380952
        k(   43) = (   0.4164716   0.2404500   0.3759162), wk =   0.0380952
        k(   44) = (   0.4164716   0.2404500   0.5638743), wk =   0.0380952
        k(   45) = (   0.4164716   0.4408250   0.0000000), wk =   0.0190476
        k(   46) = (   0.4164716   0.4408250   0.1879581), wk =   0.0380952
        k(   47) = (   0.4164716   0.4408250   0.3759162), wk =   0.0380952
        k(   48) = (   0.4164716   0.4408250   0.5638743), wk =   0.0380952
        k(   49) = (   0.4164716   0.6412000   0.0000000), wk =   0.0190476
        k(   50) = (   0.4164716   0.6412000   0.1879581), wk =   0.0380952
        k(   51) = (   0.4164716   0.6412000   0.3759162), wk =   0.0380952
        k(   52) = (   0.4164716   0.6412000   0.5638743), wk =   0.0380952
        k(   53) = (   0.4164716  -0.3606750   0.0000000), wk =   0.0190476
        k(   54) = (   0.4164716  -0.3606750   0.1879581), wk =   0.0380952
        k(   55) = (   0.4164716  -0.3606750   0.3759162), wk =   0.0380952
        k(   56) = (   0.4164716  -0.3606750   0.5638743), wk =   0.0380952
        k(   57) = (   0.4164716  -0.1603000   0.0000000), wk =   0.0190476
        k(   58) = (   0.4164716  -0.1603000   0.1879581), wk =   0.0380952
        k(   59) = (   0.4164716  -0.1603000   0.3759162), wk =   0.0380952
        k(   60) = (   0.4164716  -0.1603000   0.5638743), wk =   0.0380952
        k(   61) = (   0.4164716   0.0400750   0.0000000), wk =   0.0190476
        k(   62) = (   0.4164716   0.0400750   0.1879581), wk =   0.0380952
        k(   63) = (   0.4164716   0.0400750   0.3759162), wk =   0.0380952
        k(   64) = (   0.4164716   0.0400750   0.5638743), wk =   0.0380952

[...]

     Threshold (ethr) on eigenvalues was too large:
     Diagonalizing with lowered threshold

     CG style diagonalization
     ethr =  5.51E-08,  avg # of iterations =  3.2

[...]

     The maximum number of steps has been reached.

     End of BFGS Geometry Optimization
Begin final coordinates
     new unit-cell volume =   1053.62822 a.u.^3 (   156.13159 Ang^3 )

CELL_PARAMETERS (alat= 12.01680127)
   0.960449636   0.000000000   0.000000000
  -0.480224818   0.831773784   0.000000000
   0.000000000   0.000000000   0.760047848

ATOMIC_POSITIONS (crystal)
Mg       0.655800334   0.827900167   0.250000000
Mg       0.827900167   0.172099833   0.750000000
Mg       0.344199666   0.172099833   0.750000000
Mg       0.172099833   0.827900167   0.250000000
Mg       0.172099833   0.344199666   0.250000000
Mg       0.827900167   0.655800334   0.750000000
Cd       0.666667000   0.333333000   0.250000000
Cd       0.333333000   0.666667000   0.750000000
End final coordinates

     A final scf calculation at the relaxed structure.
     The G-vectors are recalculated for the final unit cell
     Results may differ from those at the preceding step.

     bravais-lattice index     =            0
     lattice parameter (alat)  =      12.0168  a.u.
     unit-cell volume          =    1053.6282 (a.u.)^3
     number of atoms/cell      =            8
     number of atomic types    =            2
     number of electrons       =       178.00
     number of Kohn-Sham states=          107
     kinetic-energy cutoff     =      40.0000  Ry
     charge density cutoff     =     160.0000  Ry
     convergence threshold     =      1.0E-04
     mixing beta               =       0.7000
     number of iterations used =            8  plain     mixing
     Exchange-correlation      = SLA-PZ-NOGX-NOGC ( 1 1 0 0 0)
     EXX-fraction              =        0.00

     celldm(1)=  12.016801  celldm(2)=   0.000000  celldm(3)=   0.000000
     celldm(4)=   0.000000  celldm(5)=   0.000000  celldm(6)=   0.000000

     crystal axes: (cart. coord. in units of alat)
               a(1) = (   0.960450   0.000000   0.000000 )
               a(2) = (  -0.480225   0.831774   0.000000 )
               a(3) = (   0.000000   0.000000   0.760048 )

     reciprocal axes: (cart. coord. in units 2 pi/alat)
               b(1) = (  1.041179  0.601125  0.000000 )
               b(2) = (  0.000000  1.202250  0.000000 )
               b(3) = (  0.000000  0.000000  1.315707 )

     PseudoPot. # 1 for Yb read from file:
     /home/jld5415/pp.La/Yb.UPF
     MD5 check sum: 3e859b81cc28c53ec6aa3a2e888efcdf
     Pseudo is Norm-conserving, Zval = 24.0
     Generated in analytical, separable form
     Using radial grid of 1269 points,  6 beta functions with:
                l(1) =   0
                l(2) =   0
                l(3) =   1
                l(4) =   1
                l(5) =   2
                l(6) =   3

     PseudoPot. # 2 for Eu read from file:
     /home/jld5415/pp.La/Eu.UPF
     MD5 check sum: 5efdbbfc50c6a10138933a6429836ad2
     Pseudo is Norm-conserving, Zval = 17.0
     Generated in analytical, separable form
     Using radial grid of 1261 points,  6 beta functions with:
                l(1) =   0
                l(2) =   0
                l(3) =   1
                l(4) =   1
                l(5) =   2
                l(6) =   3

     atomic species   valence    mass     pseudopotential
        Mg            24.00    24.30500     Yb( 1.00)
        Cd            17.00   112.41100     Eu( 1.00)

     24 Sym. Ops., with inversion, found (12 have fractional translation)

   Cartesian axes

     site n.     atom                  positions (alat units)
         1           Mg  tau(   1) = (   0.2322850   0.6886257   0.1900120  )
         2           Mg  tau(   2) = (   0.7125098   0.1431481   0.5700359  )
         3           Mg  tau(   3) = (   0.2479398   0.1431481   0.5700359  )
         4           Mg  tau(   4) = (  -0.2322850   0.6886257   0.1900120  )
         5           Mg  tau(   5) = (   0.0000000   0.2862963   0.1900120  )
         6           Mg  tau(   6) = (   0.4802248   0.5454775   0.5700359  )
         7           Cd  tau(   7) = (   0.4802253   0.2772577   0.1900120  )
         8           Cd  tau(   8) = (  -0.0000005   0.5545161   0.5700359  )

     number of k points=    64  gaussian smearing, width (Ry)=  0.1000
                       cart. coord. in units 2pi/alat
        k(    1) = (   0.0000000   0.0000000   0.0000000), wk =   0.0095238
        k(    2) = (   0.0000000   0.0000000   0.1879581), wk =   0.0190476
        k(    3) = (   0.0000000   0.0000000   0.3759162), wk =   0.0190476
        k(    4) = (   0.0000000   0.0000000   0.5638743), wk =   0.0190476
        k(    5) = (   0.0000000   0.2003750   0.0000000), wk =   0.0190476
        k(    6) = (   0.0000000   0.2003750   0.1879581), wk =   0.0380952
        k(    7) = (   0.0000000   0.2003750   0.3759162), wk =   0.0380952
        k(    8) = (   0.0000000   0.2003750   0.5638743), wk =   0.0380952
        k(    9) = (   0.0000000   0.4007500   0.0000000), wk =   0.0190476
        k(   10) = (   0.0000000   0.4007500   0.1879581), wk =   0.0380952
        k(   11) = (   0.0000000   0.4007500   0.3759162), wk =   0.0380952
        k(   12) = (   0.0000000   0.4007500   0.5638743), wk =   0.0380952
        k(   13) = (   0.0000000  -0.6011250   0.0000000), wk =   0.0095238
        k(   14) = (   0.0000000  -0.6011250   0.1879581), wk =   0.0190476
        k(   15) = (   0.0000000  -0.6011250   0.3759162), wk =   0.0190476
        k(   16) = (   0.0000000  -0.6011250   0.5638743), wk =   0.0190476
        k(   17) = (   0.2082358   0.1202250   0.0000000), wk =   0.0190476
        k(   18) = (   0.2082358   0.1202250   0.1879581), wk =   0.0380952
        k(   19) = (   0.2082358   0.1202250   0.3759162), wk =   0.0380952
        k(   20) = (   0.2082358   0.1202250   0.5638743), wk =   0.0380952
        k(   21) = (   0.2082358   0.3206000   0.0000000), wk =   0.0190476
        k(   22) = (   0.2082358   0.3206000   0.1879581), wk =   0.0380952
        k(   23) = (   0.2082358   0.3206000   0.3759162), wk =   0.0380952
        k(   24) = (   0.2082358   0.3206000   0.5638743), wk =   0.0380952
        k(   25) = (   0.2082358   0.5209750   0.0000000), wk =   0.0190476
        k(   26) = (   0.2082358   0.5209750   0.1879581), wk =   0.0380952
        k(   27) = (   0.2082358   0.5209750   0.3759162), wk =   0.0380952
        k(   28) = (   0.2082358   0.5209750   0.5638743), wk =   0.0380952
        k(   29) = (   0.2082358  -0.4809000   0.0000000), wk =   0.0190476
        k(   30) = (   0.2082358  -0.4809000   0.1879581), wk =   0.0380952
        k(   31) = (   0.2082358  -0.4809000   0.3759162), wk =   0.0380952
        k(   32) = (   0.2082358  -0.4809000   0.5638743), wk =   0.0380952
        k(   33) = (   0.2082358  -0.2805250   0.0000000), wk =   0.0190476
        k(   34) = (   0.2082358  -0.2805250   0.1879581), wk =   0.0380952
        k(   35) = (   0.2082358  -0.2805250   0.3759162), wk =   0.0380952
        k(   36) = (   0.2082358  -0.2805250   0.5638743), wk =   0.0380952
        k(   37) = (   0.2082358  -0.0801500   0.0000000), wk =   0.0190476
        k(   38) = (   0.2082358  -0.0801500   0.1879581), wk =   0.0380952
        k(   39) = (   0.2082358  -0.0801500   0.3759162), wk =   0.0380952
        k(   40) = (   0.2082358  -0.0801500   0.5638743), wk =   0.0380952
        k(   41) = (   0.4164716   0.2404500   0.0000000), wk =   0.0190476
        k(   42) = (   0.4164716   0.2404500   0.1879581), wk =   0.0380952
        k(   43) = (   0.4164716   0.2404500   0.3759162), wk =   0.0380952
        k(   44) = (   0.4164716   0.2404500   0.5638743), wk =   0.0380952
        k(   45) = (   0.4164716   0.4408250   0.0000000), wk =   0.0190476
        k(   46) = (   0.4164716   0.4408250   0.1879581), wk =   0.0380952
        k(   47) = (   0.4164716   0.4408250   0.3759162), wk =   0.0380952
        k(   48) = (   0.4164716   0.4408250   0.5638743), wk =   0.0380952
        k(   49) = (   0.4164716   0.6412000   0.0000000), wk =   0.0190476
        k(   50) = (   0.4164716   0.6412000   0.1879581), wk =   0.0380952
        k(   51) = (   0.4164716   0.6412000   0.3759162), wk =   0.0380952
        k(   52) = (   0.4164716   0.6412000   0.5638743), wk =   0.0380952
        k(   53) = (   0.4164716  -0.3606750   0.0000000), wk =   0.0190476
        k(   54) = (   0.4164716  -0.3606750   0.1879581), wk =   0.0380952
        k(   55) = (   0.4164716  -0.3606750   0.3759162), wk =   0.0380952
        k(   56) = (   0.4164716  -0.3606750   0.5638743), wk =   0.0380952
        k(   57) = (   0.4164716  -0.1603000   0.0000000), wk =   0.0190476
        k(   58) = (   0.4164716  -0.1603000   0.1879581), wk =   0.0380952
        k(   59) = (   0.4164716  -0.1603000   0.3759162), wk =   0.0380952
        k(   60) = (   0.4164716  -0.1603000   0.5638743), wk =   0.0380952
        k(   61) = (   0.4164716   0.0400750   0.0000000), wk =   0.0190476
        k(   62) = (   0.4164716   0.0400750   0.1879581), wk =   0.0380952
        k(   63) = (   0.4164716   0.0400750   0.3759162), wk =   0.0380952
        k(   64) = (   0.4164716   0.0400750   0.5638743), wk =   0.0380952

     Largest allocated arrays     est. size (Mb)     dimensions
     Largest temporary arrays     est. size (Mb)     dimensions

     Initial potential from superposition of free atoms

     Starting from uniform charge
     Starting wfc are    0 randomized atomic wfcs

     Writing output data file Prototype-La-hP8-Mg3Cd.save

     Self-consistent Calculation

[...]

     iteration #  9     ecut=    40.00 Ry     beta=0.70
     CG style diagonalization
     c_bands:  1 eigenvalues not converged
     c_bands:  1 eigenvalues not converged
     c_bands:  1 eigenvalues not converged
     c_bands:  2 eigenvalues not converged
     c_bands:  1 eigenvalues not converged
     c_bands:  1 eigenvalues not converged
     c_bands:  2 eigenvalues not converged
     c_bands:  1 eigenvalues not converged
     c_bands:  1 eigenvalues not converged
     c_bands:  1 eigenvalues not converged
     ethr =  3.58E-06,  avg # of iterations =  4.6

[...]

     total energy              =   -2807.11625051 Ry
     Harris-Foulkes estimate   =   -2807.11636424 Ry
     estimated scf accuracy    <       0.00024355 Ry

     iteration # 11     ecut=    40.00 Ry     beta=0.70
     CG style diagonalization
     ethr =  1.37E-07,  avg # of iterations =  3.3

     End of self-consistent calculation

[...]

          k = 0.4165 0.0401 0.5639 (  4501 PWs)   bands (ev):

   -94.3692 -94.3548 -94.3417 -94.3231 -94.3147 -94.3146 -53.1640 -53.1592
   -53.1570 -53.1540 -53.1498 -53.1485 -53.1431 -53.1400 -53.1354 -53.1333
   -53.1307 -53.1297 -53.1284 -53.1246 -53.1210 -53.1202 -53.1196 -53.1180
   -33.0956 -33.0954  -6.1044  -6.1007  -5.9908  -5.9897  -5.9864  -5.9839
     4.2356   4.2470   4.3369   4.3573   4.4146   4.4337   4.5060   4.5554
     4.5710   4.5850   4.6459   4.6580   4.7116   4.8228   4.8398   4.8584
     4.8719   4.9191   4.9493   4.9655   5.0155   5.0544   5.0641   5.0713
     5.1337   5.1503   5.2767   5.2924   5.3361   5.3845  14.5950  15.5423
    16.5953  17.0631  18.0299  18.4377  21.1782  21.7697  21.8646  22.3614
    23.6659  23.7584  24.6657  24.9112  25.2894  25.6281  26.3919  26.4612
    26.5374  26.7187  27.8593  28.0879  28.5441  28.8694  29.5980  30.2609
    30.5834  31.0097  31.6469  31.7356  32.2430  32.4898  32.9848  33.2209
    33.5281  34.4616  34.5882  34.8467  34.9674  35.4949  36.2238  36.3143
    36.5712  36.9198  37.1478

     the Fermi energy is    30.4557 ev

!    total energy              =   -2807.11628142 Ry
     Harris-Foulkes estimate   =   -2807.11628930 Ry
     estimated scf accuracy    <       0.00000884 Ry

     The total energy is the sum of the following terms:

     one-electron contribution =    -794.77802356 Ry
     hartree contribution      =     486.12670355 Ry
     xc contribution           =    -228.81905565 Ry
     ewald contribution        =   -2269.36089932 Ry
     smearing contrib. (-TS)   =      -0.28500644 Ry

     convergence has been achieved in  11 iterations

     Forces acting on atoms (Ry/au):

     atom    1 type  1   force =     0.00695649    0.00401633    0.00000000
     atom    2 type  1   force =     0.00695649   -0.00401633    0.00000000
     atom    3 type  1   force =    -0.00695649   -0.00401633    0.00000000
     atom    4 type  1   force =    -0.00695649    0.00401633    0.00000000
     atom    5 type  1   force =     0.00000000   -0.00803266    0.00000000
     atom    6 type  1   force =     0.00000000    0.00803266    0.00000000
     atom    7 type  2   force =     0.00000000    0.00000000    0.00000000
     atom    8 type  2   force =     0.00000000    0.00000000    0.00000000

     Total force =     0.019676     Total SCF correction =     0.000000

     entering subroutine stress ...

          total   stress  (Ry/bohr**3)                   (kbar)     P=  157.47
   0.00108649   0.00000000   0.00000000        159.83      0.00      0.00
   0.00000000   0.00108649   0.00000000          0.00    159.83      0.00
   0.00000000   0.00000000   0.00103848          0.00      0.00    152.77

     Writing output data file Prototype-La-hP8-Mg3Cd.save

     General routines

     Parallel routines

   This run was terminated on:  13: 2:27  22Mar2018

   JOB DONE.