     Program PWSCF v.5.0.2 starts on 23Mar2018 at  2:16:46

     Current dimensions of program PWSCF are:
     Max number of different atomic species (ntypx) = 10
     Max number of k-points (npk) =  40000
     Max angular momentum in pseudopotentials (lmaxx) =  3
     Waiting for input...
     Reading input from standard input

     Subspace diagonalization in iterative solution of the eigenvalue problem:
     a serial algorithm will be used

     bravais-lattice index     =            0
     lattice parameter (alat)  =      12.0168  a.u.
     unit-cell volume          =    1187.3413 (a.u.)^3
     number of atoms/cell      =            8
     number of atomic types    =            2
     number of electrons       =       164.00
     number of Kohn-Sham states=           98
     kinetic-energy cutoff     =      40.0000  Ry
     charge density cutoff     =     160.0000  Ry
     convergence threshold     =      1.0E-04
     mixing beta               =       0.7000
     number of iterations used =            8  plain     mixing
     Exchange-correlation      = SLA-PZ-NOGX-NOGC ( 1 1 0 0 0)
     EXX-fraction              =        0.00
     nstep                     =           50

     celldm(1)=  12.016801  celldm(2)=   0.000000  celldm(3)=   0.000000
     celldm(4)=   0.000000  celldm(5)=   0.000000  celldm(6)=   0.000000

     crystal axes: (cart. coord. in units of alat)
               a(1) = (   1.000000   0.000000   0.000000 )
               a(2) = (  -0.500000   0.866025   0.000000 )
               a(3) = (   0.000000   0.000000   0.790093 )

     reciprocal axes: (cart. coord. in units 2 pi/alat)
               b(1) = (  1.000000  0.577350  0.000000 )
               b(2) = (  0.000000  1.154701  0.000000 )
               b(3) = (  0.000000  0.000000  1.265674 )

     PseudoPot. # 1 for Dy read from file:
     /home/cwx6513/pp.La/Dy.UPF
     MD5 check sum: 9597327bec62616a94a14d07f3fd9936
     Pseudo is Norm-conserving, Zval = 20.0
     Generated in analytical, separable form
     Using radial grid of 1265 points,  6 beta functions with:
                l(1) =   0
                l(2) =   0
                l(3) =   1
                l(4) =   1
                l(5) =   2
                l(6) =   3

     PseudoPot. # 2 for Er read from file:
     /home/cwx6513/pp.La/Er.UPF
     MD5 check sum: e152ae21b84514339d8526f066caf99b
     Pseudo is Norm-conserving, Zval = 22.0
     Generated in analytical, separable form
     Using radial grid of 1267 points,  6 beta functions with:
                l(1) =   0
                l(2) =   0
                l(3) =   1
                l(4) =   1
                l(5) =   2
                l(6) =   3

     atomic species   valence    mass     pseudopotential
        Mg            20.00    24.30500     Dy( 1.00)
        Cd            22.00   112.41100     Er( 1.00)

     24 Sym. Ops., with inversion, found (12 have fractional translation)

   Cartesian axes

     site n.     atom                  positions (alat units)
         1           Mg  tau(   1) = (   0.2478935   0.7204716   0.1975233  )
         2           Mg  tau(   2) = (   0.7478935   0.1455538   0.5925699  )
         3           Mg  tau(   3) = (   0.2521065   0.1455538   0.5925699  )
         4           Mg  tau(   4) = (  -0.2478935   0.7204716   0.1975233  )
         5           Mg  tau(   5) = (   0.0000000   0.2911075   0.1975233  )
         6           Mg  tau(   6) = (   0.5000000   0.5749179   0.5925699  )
         7           Cd  tau(   7) = (   0.5000005   0.2886748   0.1975233  )
         8           Cd  tau(   8) = (  -0.0000005   0.5773506   0.5925699  )

     number of k points=    64  gaussian smearing, width (Ry)=  0.1000
                       cart. coord. in units 2pi/alat
        k(    1) = (   0.0000000   0.0000000   0.0000000), wk =   0.0095238
        k(    2) = (   0.0000000   0.0000000   0.1808105), wk =   0.0190476
        k(    3) = (   0.0000000   0.0000000   0.3616210), wk =   0.0190476
        k(    4) = (   0.0000000   0.0000000   0.5424315), wk =   0.0190476
        k(    5) = (   0.0000000   0.1924501   0.0000000), wk =   0.0190476
        k(    6) = (   0.0000000   0.1924501   0.1808105), wk =   0.0380952
        k(    7) = (   0.0000000   0.1924501   0.3616210), wk =   0.0380952
        k(    8) = (   0.0000000   0.1924501   0.5424315), wk =   0.0380952
        k(    9) = (   0.0000000   0.3849002   0.0000000), wk =   0.0190476
        k(   10) = (   0.0000000   0.3849002   0.1808105), wk =   0.0380952
        k(   11) = (   0.0000000   0.3849002   0.3616210), wk =   0.0380952
        k(   12) = (   0.0000000   0.3849002   0.5424315), wk =   0.0380952
        k(   13) = (   0.0000000  -0.5773503   0.0000000), wk =   0.0095238
        k(   14) = (   0.0000000  -0.5773503   0.1808105), wk =   0.0190476
        k(   15) = (   0.0000000  -0.5773503   0.3616210), wk =   0.0190476
        k(   16) = (   0.0000000  -0.5773503   0.5424315), wk =   0.0190476
        k(   17) = (   0.2000000   0.1154701   0.0000000), wk =   0.0190476
        k(   18) = (   0.2000000   0.1154701   0.1808105), wk =   0.0380952
        k(   19) = (   0.2000000   0.1154701   0.3616210), wk =   0.0380952
        k(   20) = (   0.2000000   0.1154701   0.5424315), wk =   0.0380952
        k(   21) = (   0.2000000   0.3079201   0.0000000), wk =   0.0190476
        k(   22) = (   0.2000000   0.3079201   0.1808105), wk =   0.0380952
        k(   23) = (   0.2000000   0.3079201   0.3616210), wk =   0.0380952
        k(   24) = (   0.2000000   0.3079201   0.5424315), wk =   0.0380952
        k(   25) = (   0.2000000   0.5003702   0.0000000), wk =   0.0190476
        k(   26) = (   0.2000000   0.5003702   0.1808105), wk =   0.0380952
        k(   27) = (   0.2000000   0.5003702   0.3616210), wk =   0.0380952
        k(   28) = (   0.2000000   0.5003702   0.5424315), wk =   0.0380952
        k(   29) = (   0.2000000  -0.4618802   0.0000000), wk =   0.0190476
        k(   30) = (   0.2000000  -0.4618802   0.1808105), wk =   0.0380952
        k(   31) = (   0.2000000  -0.4618802   0.3616210), wk =   0.0380952
        k(   32) = (   0.2000000  -0.4618802   0.5424315), wk =   0.0380952
        k(   33) = (   0.2000000  -0.2694301   0.0000000), wk =   0.0190476
        k(   34) = (   0.2000000  -0.2694301   0.1808105), wk =   0.0380952
        k(   35) = (   0.2000000  -0.2694301   0.3616210), wk =   0.0380952
        k(   36) = (   0.2000000  -0.2694301   0.5424315), wk =   0.0380952
        k(   37) = (   0.2000000  -0.0769800   0.0000000), wk =   0.0190476
        k(   38) = (   0.2000000  -0.0769800   0.1808105), wk =   0.0380952
        k(   39) = (   0.2000000  -0.0769800   0.3616210), wk =   0.0380952
        k(   40) = (   0.2000000  -0.0769800   0.5424315), wk =   0.0380952
        k(   41) = (   0.4000000   0.2309401   0.0000000), wk =   0.0190476
        k(   42) = (   0.4000000   0.2309401   0.1808105), wk =   0.0380952
        k(   43) = (   0.4000000   0.2309401   0.3616210), wk =   0.0380952
        k(   44) = (   0.4000000   0.2309401   0.5424315), wk =   0.0380952
        k(   45) = (   0.4000000   0.4233902   0.0000000), wk =   0.0190476
        k(   46) = (   0.4000000   0.4233902   0.1808105), wk =   0.0380952
        k(   47) = (   0.4000000   0.4233902   0.3616210), wk =   0.0380952
        k(   48) = (   0.4000000   0.4233902   0.5424315), wk =   0.0380952
        k(   49) = (   0.4000000   0.6158403   0.0000000), wk =   0.0190476
        k(   50) = (   0.4000000   0.6158403   0.1808105), wk =   0.0380952
        k(   51) = (   0.4000000   0.6158403   0.3616210), wk =   0.0380952
        k(   52) = (   0.4000000   0.6158403   0.5424315), wk =   0.0380952
        k(   53) = (   0.4000000  -0.3464102   0.0000000), wk =   0.0190476
        k(   54) = (   0.4000000  -0.3464102   0.1808105), wk =   0.0380952
        k(   55) = (   0.4000000  -0.3464102   0.3616210), wk =   0.0380952
        k(   56) = (   0.4000000  -0.3464102   0.5424315), wk =   0.0380952
        k(   57) = (   0.4000000  -0.1539601   0.0000000), wk =   0.0190476
        k(   58) = (   0.4000000  -0.1539601   0.1808105), wk =   0.0380952
        k(   59) = (   0.4000000  -0.1539601   0.3616210), wk =   0.0380952
        k(   60) = (   0.4000000  -0.1539601   0.5424315), wk =   0.0380952
        k(   61) = (   0.4000000   0.0384900   0.0000000), wk =   0.0190476
        k(   62) = (   0.4000000   0.0384900   0.1808105), wk =   0.0380952
        k(   63) = (   0.4000000   0.0384900   0.3616210), wk =   0.0380952
        k(   64) = (   0.4000000   0.0384900   0.5424315), wk =   0.0380952

     Largest allocated arrays     est. size (Mb)     dimensions
     Largest temporary arrays     est. size (Mb)     dimensions

     Initial potential from superposition of free atoms

     Starting from uniform charge
     Starting wfc are    0 randomized atomic wfcs

     Self-consistent Calculation

     iteration #  1     ecut=    40.00 Ry     beta=0.70
     CG style diagonalization
     c_bands:  3 eigenvalues not converged
     c_bands:  1 eigenvalues not converged
     c_bands:  5 eigenvalues not converged
     c_bands:  4 eigenvalues not converged
     c_bands:  2 eigenvalues not converged
     c_bands:  2 eigenvalues not converged
     c_bands:  4 eigenvalues not converged
     c_bands:  2 eigenvalues not converged
     c_bands:  5 eigenvalues not converged
     c_bands:  4 eigenvalues not converged
     c_bands:  1 eigenvalues not converged
     c_bands:  5 eigenvalues not converged
     c_bands:  5 eigenvalues not converged
     c_bands:  4 eigenvalues not converged
     c_bands:  3 eigenvalues not converged
     c_bands:  5 eigenvalues not converged
     c_bands:  2 eigenvalues not converged
     c_bands:  5 eigenvalues not converged
     c_bands:  4 eigenvalues not converged
     c_bands:  4 eigenvalues not converged
     c_bands:  2 eigenvalues not converged
     c_bands:  4 eigenvalues not converged
     c_bands:  4 eigenvalues not converged
     c_bands:  1 eigenvalues not converged
     c_bands:  5 eigenvalues not converged
     c_bands:  4 eigenvalues not converged
     c_bands:  5 eigenvalues not converged
     c_bands:  3 eigenvalues not converged
     c_bands:  4 eigenvalues not converged
     c_bands:  4 eigenvalues not converged
     c_bands:  3 eigenvalues not converged
     c_bands:  3 eigenvalues not converged
     c_bands:  3 eigenvalues not converged
     c_bands:  5 eigenvalues not converged
     c_bands:  4 eigenvalues not converged
     c_bands:  4 eigenvalues not converged
     c_bands:  4 eigenvalues not converged
     c_bands:  3 eigenvalues not converged
     c_bands:  5 eigenvalues not converged
     c_bands:  5 eigenvalues not converged
     c_bands:  3 eigenvalues not converged
     c_bands:  1 eigenvalues not converged
     c_bands:  4 eigenvalues not converged
     c_bands:  3 eigenvalues not converged
     c_bands:  1 eigenvalues not converged
     c_bands:  3 eigenvalues not converged
     c_bands:  5 eigenvalues not converged
     c_bands:  4 eigenvalues not converged
     c_bands:  2 eigenvalues not converged
     c_bands:  4 eigenvalues not converged
[...]
        k(   13) = (   0.0000000  -0.5794628   0.0000000), wk =   0.0095238
        k(   14) = (   0.0000000  -0.5794628   0.1784949), wk =   0.0190476
        k(   15) = (   0.0000000  -0.5794628   0.3569899), wk =   0.0190476
        k(   16) = (   0.0000000  -0.5794628   0.5354848), wk =   0.0190476
        k(   17) = (   0.2007318   0.1158926   0.0000000), wk =   0.0190476
        k(   18) = (   0.2007318   0.1158926   0.1784949), wk =   0.0380952
        k(   19) = (   0.2007318   0.1158926   0.3569899), wk =   0.0380952
        k(   20) = (   0.2007318   0.1158926   0.5354848), wk =   0.0380952
        k(   21) = (   0.2007318   0.3090468   0.0000000), wk =   0.0190476
        k(   22) = (   0.2007318   0.3090468   0.1784949), wk =   0.0380952
        k(   23) = (   0.2007318   0.3090468   0.3569899), wk =   0.0380952
        k(   24) = (   0.2007318   0.3090468   0.5354848), wk =   0.0380952
        k(   25) = (   0.2007318   0.5022011   0.0000000), wk =   0.0190476
        k(   26) = (   0.2007318   0.5022011   0.1784949), wk =   0.0380952
        k(   27) = (   0.2007318   0.5022011   0.3569899), wk =   0.0380952
        k(   28) = (   0.2007318   0.5022011   0.5354848), wk =   0.0380952
        k(   29) = (   0.2007318  -0.4635702   0.0000000), wk =   0.0190476
        k(   30) = (   0.2007318  -0.4635702   0.1784949), wk =   0.0380952
        k(   31) = (   0.2007318  -0.4635702   0.3569899), wk =   0.0380952
        k(   32) = (   0.2007318  -0.4635702   0.5354848), wk =   0.0380952
        k(   33) = (   0.2007318  -0.2704160   0.0000000), wk =   0.0190476
        k(   34) = (   0.2007318  -0.2704160   0.1784949), wk =   0.0380952
        k(   35) = (   0.2007318  -0.2704160   0.3569899), wk =   0.0380952
        k(   36) = (   0.2007318  -0.2704160   0.5354848), wk =   0.0380952
        k(   37) = (   0.2007318  -0.0772617   0.0000000), wk =   0.0190476
        k(   38) = (   0.2007318  -0.0772617   0.1784949), wk =   0.0380952
        k(   39) = (   0.2007318  -0.0772617   0.3569899), wk =   0.0380952
        k(   40) = (   0.2007318  -0.0772617   0.5354848), wk =   0.0380952
        k(   41) = (   0.4014636   0.2317851   0.0000000), wk =   0.0190476
        k(   42) = (   0.4014636   0.2317851   0.1784949), wk =   0.0380952
        k(   43) = (   0.4014636   0.2317851   0.3569899), wk =   0.0380952
        k(   44) = (   0.4014636   0.2317851   0.5354848), wk =   0.0380952
        k(   45) = (   0.4014636   0.4249394   0.0000000), wk =   0.0190476
        k(   46) = (   0.4014636   0.4249394   0.1784949), wk =   0.0380952
        k(   47) = (   0.4014636   0.4249394   0.3569899), wk =   0.0380952
        k(   48) = (   0.4014636   0.4249394   0.5354848), wk =   0.0380952
        k(   49) = (   0.4014636   0.6180936   0.0000000), wk =   0.0190476
        k(   50) = (   0.4014636   0.6180936   0.1784949), wk =   0.0380952
        k(   51) = (   0.4014636   0.6180936   0.3569899), wk =   0.0380952
        k(   52) = (   0.4014636   0.6180936   0.5354848), wk =   0.0380952
        k(   53) = (   0.4014636  -0.3476777   0.0000000), wk =   0.0190476
        k(   54) = (   0.4014636  -0.3476777   0.1784949), wk =   0.0380952
        k(   55) = (   0.4014636  -0.3476777   0.3569899), wk =   0.0380952
        k(   56) = (   0.4014636  -0.3476777   0.5354848), wk =   0.0380952
        k(   57) = (   0.4014636  -0.1545234   0.0000000), wk =   0.0190476
        k(   58) = (   0.4014636  -0.1545234   0.1784949), wk =   0.0380952
        k(   59) = (   0.4014636  -0.1545234   0.3569899), wk =   0.0380952
        k(   60) = (   0.4014636  -0.1545234   0.5354848), wk =   0.0380952
        k(   61) = (   0.4014636   0.0386309   0.0000000), wk =   0.0190476
        k(   62) = (   0.4014636   0.0386309   0.1784949), wk =   0.0380952
        k(   63) = (   0.4014636   0.0386309   0.3569899), wk =   0.0380952
        k(   64) = (   0.4014636   0.0386309   0.5354848), wk =   0.0380952

[...]

     The maximum number of steps has been reached.

     End of BFGS Geometry Optimization
Begin final coordinates
     new unit-cell volume =   1193.99081 a.u.^3 (   176.93118 Ang^3 )

CELL_PARAMETERS (alat= 12.01680127)
   0.996354335   0.000000000   0.000000000
  -0.498177168   0.862868165   0.000000000
   0.000000000   0.000000000   0.800342880

ATOMIC_POSITIONS (crystal)
Mg       0.668724915   0.834362458   0.250000000
Mg       0.834362458   0.165637542   0.750000000
Mg       0.331275085   0.165637542   0.750000000
Mg       0.165637542   0.834362458   0.250000000
Mg       0.165637542   0.331275085   0.250000000
Mg       0.834362458   0.668724915   0.750000000
Cd       0.666667000   0.333333000   0.250000000
Cd       0.333333000   0.666667000   0.750000000
End final coordinates

     A final scf calculation at the relaxed structure.
     The G-vectors are recalculated for the final unit cell
     Results may differ from those at the preceding step.

     bravais-lattice index     =            0
     lattice parameter (alat)  =      12.0168  a.u.
     unit-cell volume          =    1193.9908 (a.u.)^3
     number of atoms/cell      =            8
     number of atomic types    =            2
     number of electrons       =       164.00
     number of Kohn-Sham states=           98
     kinetic-energy cutoff     =      40.0000  Ry
     charge density cutoff     =     160.0000  Ry
     convergence threshold     =      7.7E-06
     mixing beta               =       0.7000
     number of iterations used =            8  plain     mixing
     Exchange-correlation      = SLA-PZ-NOGX-NOGC ( 1 1 0 0 0)
     EXX-fraction              =        0.00

     celldm(1)=  12.016801  celldm(2)=   0.000000  celldm(3)=   0.000000
     celldm(4)=   0.000000  celldm(5)=   0.000000  celldm(6)=   0.000000

     crystal axes: (cart. coord. in units of alat)
               a(1) = (   0.996354   0.000000   0.000000 )
               a(2) = (  -0.498177   0.862868   0.000000 )
               a(3) = (   0.000000   0.000000   0.800343 )

     reciprocal axes: (cart. coord. in units 2 pi/alat)
               b(1) = (  1.003659  0.579463  0.000000 )
               b(2) = (  0.000000  1.158926  0.000000 )
               b(3) = (  0.000000  0.000000  1.249464 )

     PseudoPot. # 1 for Dy read from file:
     /home/cwx6513/pp.La/Dy.UPF
     MD5 check sum: 9597327bec62616a94a14d07f3fd9936
     Pseudo is Norm-conserving, Zval = 20.0
     Generated in analytical, separable form
     Using radial grid of 1265 points,  6 beta functions with:
                l(1) =   0
                l(2) =   0
                l(3) =   1
                l(4) =   1
                l(5) =   2
                l(6) =   3

     PseudoPot. # 2 for Er read from file:
     /home/cwx6513/pp.La/Er.UPF
     MD5 check sum: e152ae21b84514339d8526f066caf99b
     Pseudo is Norm-conserving, Zval = 22.0
     Generated in analytical, separable form
     Using radial grid of 1267 points,  6 beta functions with:
                l(1) =   0
                l(2) =   0
                l(3) =   1
                l(4) =   1
                l(5) =   2
                l(6) =   3

     atomic species   valence    mass     pseudopotential
        Mg            20.00    24.30500     Dy( 1.00)
        Cd            22.00   112.41100     Er( 1.00)

     24 Sym. Ops., with inversion, found (12 have fractional translation)

   Cartesian axes

     site n.     atom                  positions (alat units)
         1           Mg  tau(   1) = (   0.2506266   0.7199448   0.2000857  )
         2           Mg  tau(   2) = (   0.7488038   0.1429234   0.6002572  )
         3           Mg  tau(   3) = (   0.2475505   0.1429234   0.6002572  )
         4           Mg  tau(   4) = (  -0.2506266   0.7199448   0.2000857  )
         5           Mg  tau(   5) = (   0.0000000   0.2858467   0.2000857  )
         6           Mg  tau(   6) = (   0.4981772   0.5770214   0.6002572  )
         7           Cd  tau(   7) = (   0.4981777   0.2876224   0.2000857  )
         8           Cd  tau(   8) = (  -0.0000005   0.5752457   0.6002572  )

     number of k points=    64  gaussian smearing, width (Ry)=  0.1000
                       cart. coord. in units 2pi/alat
        k(    1) = (   0.0000000   0.0000000   0.0000000), wk =   0.0095238
        k(    2) = (   0.0000000   0.0000000   0.1784949), wk =   0.0190476
        k(    3) = (   0.0000000   0.0000000   0.3569899), wk =   0.0190476
        k(    4) = (   0.0000000   0.0000000   0.5354848), wk =   0.0190476
        k(    5) = (   0.0000000   0.1931543   0.0000000), wk =   0.0190476
        k(    6) = (   0.0000000   0.1931543   0.1784949), wk =   0.0380952
        k(    7) = (   0.0000000   0.1931543   0.3569899), wk =   0.0380952
        k(    8) = (   0.0000000   0.1931543   0.5354848), wk =   0.0380952
        k(    9) = (   0.0000000   0.3863085   0.0000000), wk =   0.0190476
        k(   10) = (   0.0000000   0.3863085   0.1784949), wk =   0.0380952
        k(   11) = (   0.0000000   0.3863085   0.3569899), wk =   0.0380952
        k(   12) = (   0.0000000   0.3863085   0.5354848), wk =   0.0380952
        k(   13) = (   0.0000000  -0.5794628   0.0000000), wk =   0.0095238
        k(   14) = (   0.0000000  -0.5794628   0.1784949), wk =   0.0190476
        k(   15) = (   0.0000000  -0.5794628   0.3569899), wk =   0.0190476
        k(   16) = (   0.0000000  -0.5794628   0.5354848), wk =   0.0190476
        k(   17) = (   0.2007318   0.1158926   0.0000000), wk =   0.0190476
        k(   18) = (   0.2007318   0.1158926   0.1784949), wk =   0.0380952
        k(   19) = (   0.2007318   0.1158926   0.3569899), wk =   0.0380952
        k(   20) = (   0.2007318   0.1158926   0.5354848), wk =   0.0380952
        k(   21) = (   0.2007318   0.3090468   0.0000000), wk =   0.0190476
        k(   22) = (   0.2007318   0.3090468   0.1784949), wk =   0.0380952
        k(   23) = (   0.2007318   0.3090468   0.3569899), wk =   0.0380952
        k(   24) = (   0.2007318   0.3090468   0.5354848), wk =   0.0380952
        k(   25) = (   0.2007318   0.5022011   0.0000000), wk =   0.0190476
        k(   26) = (   0.2007318   0.5022011   0.1784949), wk =   0.0380952
        k(   27) = (   0.2007318   0.5022011   0.3569899), wk =   0.0380952
        k(   28) = (   0.2007318   0.5022011   0.5354848), wk =   0.0380952
        k(   29) = (   0.2007318  -0.4635702   0.0000000), wk =   0.0190476
        k(   30) = (   0.2007318  -0.4635702   0.1784949), wk =   0.0380952
        k(   31) = (   0.2007318  -0.4635702   0.3569899), wk =   0.0380952
        k(   32) = (   0.2007318  -0.4635702   0.5354848), wk =   0.0380952
        k(   33) = (   0.2007318  -0.2704160   0.0000000), wk =   0.0190476
        k(   34) = (   0.2007318  -0.2704160   0.1784949), wk =   0.0380952
        k(   35) = (   0.2007318  -0.2704160   0.3569899), wk =   0.0380952
        k(   36) = (   0.2007318  -0.2704160   0.5354848), wk =   0.0380952
        k(   37) = (   0.2007318  -0.0772617   0.0000000), wk =   0.0190476
        k(   38) = (   0.2007318  -0.0772617   0.1784949), wk =   0.0380952
        k(   39) = (   0.2007318  -0.0772617   0.3569899), wk =   0.0380952
        k(   40) = (   0.2007318  -0.0772617   0.5354848), wk =   0.0380952
        k(   41) = (   0.4014636   0.2317851   0.0000000), wk =   0.0190476
        k(   42) = (   0.4014636   0.2317851   0.1784949), wk =   0.0380952
        k(   43) = (   0.4014636   0.2317851   0.3569899), wk =   0.0380952
        k(   44) = (   0.4014636   0.2317851   0.5354848), wk =   0.0380952
        k(   45) = (   0.4014636   0.4249394   0.0000000), wk =   0.0190476
        k(   46) = (   0.4014636   0.4249394   0.1784949), wk =   0.0380952
        k(   47) = (   0.4014636   0.4249394   0.3569899), wk =   0.0380952
        k(   48) = (   0.4014636   0.4249394   0.5354848), wk =   0.0380952
        k(   49) = (   0.4014636   0.6180936   0.0000000), wk =   0.0190476
        k(   50) = (   0.4014636   0.6180936   0.1784949), wk =   0.0380952
        k(   51) = (   0.4014636   0.6180936   0.3569899), wk =   0.0380952
        k(   52) = (   0.4014636   0.6180936   0.5354848), wk =   0.0380952
        k(   53) = (   0.4014636  -0.3476777   0.0000000), wk =   0.0190476
        k(   54) = (   0.4014636  -0.3476777   0.1784949), wk =   0.0380952
        k(   55) = (   0.4014636  -0.3476777   0.3569899), wk =   0.0380952
        k(   56) = (   0.4014636  -0.3476777   0.5354848), wk =   0.0380952
        k(   57) = (   0.4014636  -0.1545234   0.0000000), wk =   0.0190476
        k(   58) = (   0.4014636  -0.1545234   0.1784949), wk =   0.0380952
        k(   59) = (   0.4014636  -0.1545234   0.3569899), wk =   0.0380952
        k(   60) = (   0.4014636  -0.1545234   0.5354848), wk =   0.0380952
        k(   61) = (   0.4014636   0.0386309   0.0000000), wk =   0.0190476
        k(   62) = (   0.4014636   0.0386309   0.1784949), wk =   0.0380952
        k(   63) = (   0.4014636   0.0386309   0.3569899), wk =   0.0380952
        k(   64) = (   0.4014636   0.0386309   0.5354848), wk =   0.0380952

     Largest allocated arrays     est. size (Mb)     dimensions
     Largest temporary arrays     est. size (Mb)     dimensions

     Initial potential from superposition of free atoms

     Starting from uniform charge
     Starting wfc are    0 randomized atomic wfcs

     Writing output data file Prototype-La-hP8-Mg3Cd.save

     Self-consistent Calculation

[...]

     iteration # 11     ecut=    40.00 Ry     beta=0.70
     CG style diagonalization
     c_bands:  1 eigenvalues not converged
     ethr =  2.62E-07,  avg # of iterations =  4.2

[...]

     total energy              =   -2221.94618433 Ry
     Harris-Foulkes estimate   =   -2221.94619370 Ry
     estimated scf accuracy    <       0.00001581 Ry

     iteration # 13     ecut=    40.00 Ry     beta=0.70
     CG style diagonalization
     ethr =  9.64E-09,  avg # of iterations =  3.3

     End of self-consistent calculation

[...]

          k = 0.4015 0.0386 0.5355 (  5099 PWs)   bands (ev):

   -77.3397 -77.3341 -59.1232 -59.1178 -59.1148 -59.1135 -59.1127 -59.1116
   -39.2829 -39.2758 -39.2711 -39.2692 -39.2641 -39.2618 -26.1272 -26.1221
   -26.1190 -26.1127 -26.0973 -26.0928 -26.0267 -26.0224 -26.0107 -25.9999
   -25.9892 -25.9789 -25.9758 -25.9717 -25.9632 -25.9540 -25.9415 -25.9340
     7.5737   7.5829   7.5903   7.5960   7.6010   7.6073   7.6439   7.6450
     7.6680   7.6724  12.9387  13.0250  13.8075  13.8700  13.9566  14.0751
    14.1470  14.1871  14.2466  14.3039  14.4116  14.4425  14.6122  14.6893
    14.9888  15.0137  15.0795  15.2094  15.3077  15.5241  15.5882  15.6266
    15.7978  15.8089  15.9218  15.9478  16.2628  16.2917  16.3200  16.6191
    16.8282  16.9030  17.9042  18.3289  18.9586  19.4904  21.4223  21.8685
    23.1601  23.6838  25.4916  26.0617  26.4808  26.7749  27.1817  27.7350
    28.6538  29.1095  29.7137  30.1415  30.4592  30.5584  30.6438  30.8405
    31.3651  31.4322

     the Fermi energy is    24.2535 ev

!    total energy              =   -2221.94618787 Ry
     Harris-Foulkes estimate   =   -2221.94618807 Ry
     estimated scf accuracy    <       0.00000025 Ry

     The total energy is the sum of the following terms:

     one-electron contribution =    -570.58264419 Ry
     hartree contribution      =     380.01387073 Ry
     xc contribution           =    -199.00316520 Ry
     ewald contribution        =   -1832.16499227 Ry
     smearing contrib. (-TS)   =      -0.20925694 Ry

     convergence has been achieved in  13 iterations

     Forces acting on atoms (Ry/au):

     atom    1 type  1   force =     0.01013052    0.00584886    0.00000000
     atom    2 type  1   force =     0.01013052   -0.00584886    0.00000000
     atom    3 type  1   force =    -0.01013052   -0.00584886    0.00000000
     atom    4 type  1   force =    -0.01013052    0.00584886    0.00000000
     atom    5 type  1   force =     0.00000000   -0.01169772    0.00000000
     atom    6 type  1   force =     0.00000000    0.01169772    0.00000000
     atom    7 type  2   force =     0.00000000    0.00000000    0.00000000
     atom    8 type  2   force =     0.00000000    0.00000000    0.00000000

     Total force =     0.028653     Total SCF correction =     0.000000

     entering subroutine stress ...

          total   stress  (Ry/bohr**3)                   (kbar)     P= -201.99
  -0.00143919   0.00000000   0.00000000       -211.71      0.00      0.00
   0.00000000  -0.00143919   0.00000000          0.00   -211.71      0.00
   0.00000000   0.00000000  -0.00124082          0.00      0.00   -182.53

     Writing output data file Prototype-La-hP8-Mg3Cd.save

     General routines

     Parallel routines

   This run was terminated on:   3:18:21  23Mar2018

   JOB DONE.