     Program PWSCF v.5.0.2 starts on 22Mar2018 at  0:32:16

     Current dimensions of program PWSCF are:
     Max number of different atomic species (ntypx) = 10
     Max number of k-points (npk) =  40000
     Max angular momentum in pseudopotentials (lmaxx) =  3
     Waiting for input...
     Reading input from standard input

     Subspace diagonalization in iterative solution of the eigenvalue problem:
     a serial algorithm will be used

     bravais-lattice index     =            0
     lattice parameter (alat)  =       7.0151  a.u.
     unit-cell volume          =     862.2778 (a.u.)^3
     number of atoms/cell      =           12
     number of atomic types    =            2
     number of electrons       =       176.00
     number of Kohn-Sham states=          106
     kinetic-energy cutoff     =      40.0000  Ry
     charge density cutoff     =     160.0000  Ry
     convergence threshold     =      1.0E-04
     mixing beta               =       0.7000
     number of iterations used =            8  plain     mixing
     Exchange-correlation      = SLA-PZ-NOGX-NOGC ( 1 1 0 0 0)
     EXX-fraction              =        0.00
     nstep                     =           50

     celldm(1)=   7.015105  celldm(2)=   0.000000  celldm(3)=   0.000000
     celldm(4)=   0.000000  celldm(5)=   0.000000  celldm(6)=   0.000000

     crystal axes: (cart. coord. in units of alat)
               a(1) = (   1.000000   0.000000   0.000000 )
               a(2) = (   0.000000   1.315963   0.000000 )
               a(3) = (   0.000000   0.000000   1.898020 )

     reciprocal axes: (cart. coord. in units 2 pi/alat)
               b(1) = (  1.000000  0.000000  0.000000 )
               b(2) = (  0.000000  0.759900  0.000000 )
               b(3) = (  0.000000  0.000000  0.526865 )

     PseudoPot. # 1 for Ce read from file:
     /home/jld5415/pp.La/Ce.UPF
     MD5 check sum: 44451aa79a44a00cf2bc029dc19922f6
     Pseudo is Norm-conserving, Zval = 12.0
     Generated in analytical, separable form
     Using radial grid of 1255 points,  6 beta functions with:
                l(1) =   0
                l(2) =   0
                l(3) =   1
                l(4) =   1
                l(5) =   2
                l(6) =   3

     PseudoPot. # 2 for Dy read from file:
     /home/jld5415/pp.La/Dy.UPF
     MD5 check sum: 9597327bec62616a94a14d07f3fd9936
     Pseudo is Norm-conserving, Zval = 20.0
     Generated in analytical, separable form
     Using radial grid of 1265 points,  6 beta functions with:
                l(1) =   0
                l(2) =   0
                l(3) =   1
                l(4) =   1
                l(5) =   2
                l(6) =   3

     atomic species   valence    mass     pseudopotential
        Co            12.00    58.93320     Ce( 1.00)
        Si            20.00    28.08550     Dy( 1.00)

      8 Sym. Ops., with inversion, found ( 6 have fractional translation)

   Cartesian axes

     site n.     atom                  positions (alat units)
         1           Co  tau(   1) = (   0.7500000   1.0875135   0.8270358  )
         2           Co  tau(   2) = (   0.2500000   0.2284499   1.0709846  )
         3           Co  tau(   3) = (   0.7500000   0.4295318   0.1219744  )
         4           Co  tau(   4) = (   0.2500000   0.8864316   1.7760460  )
         5           Co  tau(   5) = (   0.2500000   0.7067855   0.5358966  )
         6           Co  tau(   6) = (   0.7500000   0.6091779   1.3621238  )
         7           Co  tau(   7) = (   0.2500000   0.0488038   0.4131136  )
         8           Co  tau(   8) = (   0.7500000   1.2671596   1.4849068  )
         9           Si  tau(   9) = (   0.2500000   0.2669484   1.6960710  )
        10           Si  tau(  10) = (   0.7500000   1.0490149   0.2019494  )
        11           Si  tau(  11) = (   0.2500000   0.9249301   1.1509596  )
        12           Si  tau(  12) = (   0.7500000   0.3910333   0.7470608  )

     number of k points=    12  gaussian smearing, width (Ry)=  0.1000
                       cart. coord. in units 2pi/alat
        k(    1) = (   0.0000000   0.0000000   0.0000000), wk =   0.0833333
        k(    2) = (   0.0000000   0.0000000   0.1317162), wk =   0.1666667
        k(    3) = (   0.0000000   0.0000000  -0.2634324), wk =   0.0833333
        k(    4) = (   0.0000000   0.2532999   0.0000000), wk =   0.1666667
        k(    5) = (   0.0000000   0.2532999   0.1317162), wk =   0.3333333
        k(    6) = (   0.0000000   0.2532999  -0.2634324), wk =   0.1666667
        k(    7) = (  -0.5000000   0.0000000   0.0000000), wk =   0.0833333
        k(    8) = (  -0.5000000   0.0000000   0.1317162), wk =   0.1666667
        k(    9) = (  -0.5000000   0.0000000  -0.2634324), wk =   0.0833333
        k(   10) = (  -0.5000000   0.2532999   0.0000000), wk =   0.1666667
        k(   11) = (  -0.5000000   0.2532999   0.1317162), wk =   0.3333333
        k(   12) = (  -0.5000000   0.2532999  -0.2634324), wk =   0.1666667

     Largest allocated arrays     est. size (Mb)     dimensions
     Largest temporary arrays     est. size (Mb)     dimensions

     Initial potential from superposition of free atoms

     Starting from uniform charge
     Starting wfc are    0 randomized atomic wfcs

     Self-consistent Calculation

     iteration #  1     ecut=    40.00 Ry     beta=0.70
     CG style diagonalization
     ethr =  1.00E-02,  avg # of iterations = 17.4

     total energy              =    -844.55399563 Ry
     Harris-Foulkes estimate   =   -2006.56192310 Ry
     estimated scf accuracy    <    1396.22740463 Ry

     iteration #  2     ecut=    40.00 Ry     beta=0.70
     CG style diagonalization
     c_bands:  4 eigenvalues not converged
     c_bands:  2 eigenvalues not converged
     c_bands:  5 eigenvalues not converged
     c_bands:  1 eigenvalues not converged
     c_bands:  5 eigenvalues not converged
     c_bands:  2 eigenvalues not converged
     c_bands:  1 eigenvalues not converged
     c_bands:  3 eigenvalues not converged
     ethr =  1.00E-02,  avg # of iterations = 15.1

[...]

     End of self-consistent calculation

          k = 0.0000 0.0000 0.0000 (  3675 PWs)   bands (ev):

   -40.3088 -40.2885 -40.2868 -40.2851  -8.0448  -8.0437  -8.0388  -7.9879
    -7.9454  -7.9363  -7.9271  -7.8819  -7.7458  -7.6470  -7.5129  -7.4548
     3.6209   5.5325   6.0338   6.7324   7.3232   7.9648   7.9952   8.3486
    18.1778  18.8987  20.0101  20.1551  20.4285  20.5127  20.9170  21.9409
    21.9567  22.5229  22.8381  22.8606  23.3046  23.8438  24.0349  24.8766
    25.1039  25.1859  26.0224  26.6416  27.4491  28.0514  28.4171  29.1489
    29.6569  30.8164  31.1769  31.2023  31.4098  31.4701  31.8863  32.0251
    32.4373  32.9483  33.4394  33.4474  34.0524  35.2149  35.2228  35.3841
    36.1729  36.1789  36.3527  36.4287  37.0242  39.8362  40.1870  41.3239
    42.0368  42.3074  42.4148  42.4966  42.8805  43.0783  43.4877  43.8187
    44.2494  44.5057  44.9419  45.1733  45.7908  45.8580  46.5990  46.7587
    46.9322  47.7374  48.5157  48.9934  49.2982  49.7604  49.8071  50.3112
    50.6950  51.1349  51.3419  51.7635  51.8231  52.5423  52.8340  52.8740
    53.4417  53.4573

[...]

          k =-0.5000 0.0000 0.0000 (  3722 PWs)   bands (ev):

[...]

     the Fermi energy is    46.8303 ev

!    total energy              =   -1645.52696361 Ry
     Harris-Foulkes estimate   =   -1645.52696464 Ry
     estimated scf accuracy    <       0.00000145 Ry

     The total energy is the sum of the following terms:

     one-electron contribution =     259.02994736 Ry
     hartree contribution      =     137.13585920 Ry
     xc contribution           =    -194.30679816 Ry
     ewald contribution        =   -1847.01880437 Ry
     smearing contrib. (-TS)   =      -0.36716764 Ry

     convergence has been achieved in  11 iterations

     Forces acting on atoms (Ry/au):

     atom    1 type  1   force =     0.00000000   -0.06972027   -0.06800497
     atom    2 type  1   force =     0.00000000    0.06972027    0.06800497
     atom    3 type  1   force =     0.00000000   -0.06972027    0.06800497
     atom    4 type  1   force =     0.00000000    0.06972027   -0.06800497
     atom    5 type  1   force =     0.00000000    0.14977136   -0.30398439
     atom    6 type  1   force =     0.00000000   -0.14977136    0.30398439
     atom    7 type  1   force =     0.00000000    0.14977136    0.30398439
     atom    8 type  1   force =     0.00000000   -0.14977136   -0.30398439
     atom    9 type  2   force =     0.00000000   -0.18026771   -0.02643544
     atom   10 type  2   force =     0.00000000    0.18026771    0.02643544
     atom   11 type  2   force =     0.00000000   -0.18026771    0.02643544
     atom   12 type  2   force =     0.00000000    0.18026771   -0.02643544

     Total force =     0.793773     Total SCF correction =     0.000000

     entering subroutine stress ...

          total   stress  (Ry/bohr**3)                   (kbar)     P= 6724.14
   0.05084006   0.00000000   0.00000000       7478.83      0.00      0.00
   0.00000000   0.04168716   0.00000000          0.00   6132.39      0.00
   0.00000000   0.00000000   0.04460210          0.00      0.00   6561.19

     BFGS Geometry Optimization

     number of scf cycles    =   1
     number of bfgs steps    =   0

     enthalpy new            =   -1645.5269636117 Ry

     new trust radius        =       0.5000000000 bohr
     new conv_thr            =       0.0001000000 Ry

     new unit-cell volume =   1075.77488 a.u.^3 (   159.41339 Ang^3 )

CELL_PARAMETERS (alat=  7.01510508)
   1.085136619   0.000000000   0.000000000
   0.000000000   1.407829724   0.000000000
   0.000000000   0.000000000   2.039784585

ATOMIC_POSITIONS (crystal)
Co       0.750000000   0.825895115   0.435393882
Co       0.250000000   0.174104885   0.564606118
Co       0.750000000   0.325895115   0.064606118
Co       0.250000000   0.674104885   0.935393882
Co       0.250000000   0.538172729   0.280815722
Co       0.750000000   0.461827271   0.719184278
Co       0.250000000   0.038172729   0.219184278
Co       0.750000000   0.961827271   0.780815722
Si       0.250000000   0.201545992   0.893467009
Si       0.750000000   0.798454008   0.106532991
Si       0.250000000   0.701545992   0.606532991
Si       0.750000000   0.298454008   0.393467009

     Writing output data file Prototype-La-oP12-Co2Si.save
     NEW-OLD atomic charge density approx. for the potential
     NEW k-points:
        k(    1) = (   0.0000000   0.0000000   0.0000000), wk =   0.0833333
        k(    2) = (   0.0000000   0.0000000   0.1225620), wk =   0.1666667
        k(    3) = (   0.0000000   0.0000000  -0.2451239), wk =   0.0833333
        k(    4) = (   0.0000000   0.2367711   0.0000000), wk =   0.1666667
        k(    5) = (   0.0000000   0.2367711   0.1225620), wk =   0.3333333
        k(    6) = (   0.0000000   0.2367711  -0.2451239), wk =   0.1666667
        k(    7) = (  -0.4607715   0.0000000   0.0000000), wk =   0.0833333
        k(    8) = (  -0.4607715   0.0000000   0.1225620), wk =   0.1666667
        k(    9) = (  -0.4607715   0.0000000  -0.2451239), wk =   0.0833333
        k(   10) = (  -0.4607715   0.2367711   0.0000000), wk =   0.1666667
        k(   11) = (  -0.4607715   0.2367711   0.1225620), wk =   0.3333333
        k(   12) = (  -0.4607715   0.2367711  -0.2451239), wk =   0.1666667

[...]

     enthalpy old            =   -1645.5269636117 Ry
     enthalpy new            =   -1652.1518132471 Ry

     CASE: enthalpy_new < enthalpy_old

     small trust_radius: resetting bfgs history

     new trust radius        =       3.4689992685 bohr
     new conv_thr            =       0.0001000000 Ry

[...]

          total   stress  (Ry/bohr**3)                   (kbar)     P=-1527.87
  -0.01140856   0.00000000   0.00000000      -1678.26      0.00      0.00
   0.00000000  -0.00964770   0.00000000          0.00  -1419.23      0.00
   0.00000000   0.00000000  -0.01010257          0.00      0.00  -1486.14

     number of scf cycles    =   3
     number of bfgs steps    =   2

     enthalpy old            =   -1652.1518132471 Ry
     enthalpy new            =   -1640.2585553307 Ry

     CASE: enthalpy_new > enthalpy_old

     new trust radius        =       1.4594846892 bohr

     trust_radius < trust_radius_min

     resetting bfgs history

     Message from routine bfgs:
     history already reset at previous step: stopping
     new conv_thr            =       0.0001000000 Ry

     new unit-cell volume =   1263.56703 a.u.^3 (   187.24131 Ang^3 )

[...]

ATOMIC_POSITIONS (crystal)
Co       0.750000000   0.825369283   0.435192129
Co       0.250000000   0.174630717   0.564807871
Co       0.750000000   0.325369283   0.064807871
Co       0.250000000   0.674630717   0.935192129
Co       0.250000000   0.538885298   0.279838959
Co       0.750000000   0.461114702   0.720161041
Co       0.250000000   0.038885298   0.220161041
Co       0.750000000   0.961114702   0.779838959
Si       0.250000000   0.200418020   0.893405896
Si       0.750000000   0.799581980   0.106594104
Si       0.250000000   0.700418020   0.606594104
Si       0.750000000   0.299581980   0.393405896

     Writing output data file Prototype-La-oP12-Co2Si.save
     NEW-OLD atomic charge density approx. for the potential
     NEW k-points:
        k(    1) = (   0.0000000   0.0000000   0.0000000), wk =   0.0833333
        k(    2) = (   0.0000000   0.0000000   0.1164241), wk =   0.1666667
        k(    3) = (   0.0000000   0.0000000  -0.2328482), wk =   0.0833333
        k(    4) = (   0.0000000   0.2259723   0.0000000), wk =   0.1666667
        k(    5) = (   0.0000000   0.2259723   0.1164241), wk =   0.3333333
        k(    6) = (   0.0000000   0.2259723  -0.2328482), wk =   0.1666667
        k(    7) = (  -0.4327079   0.0000000   0.0000000), wk =   0.0833333
        k(    8) = (  -0.4327079   0.0000000   0.1164241), wk =   0.1666667
        k(    9) = (  -0.4327079   0.0000000  -0.2328482), wk =   0.0833333
        k(   10) = (  -0.4327079   0.2259723   0.0000000), wk =   0.1666667
        k(   11) = (  -0.4327079   0.2259723   0.1164241), wk =   0.3333333
        k(   12) = (  -0.4327079   0.2259723  -0.2328482), wk =   0.1666667

[...]

     The maximum number of steps has been reached.

     End of BFGS Geometry Optimization
Begin final coordinates
     new unit-cell volume =   1263.56703 a.u.^3 (   187.24131 Ang^3 )

CELL_PARAMETERS (alat=  7.01510508)
   1.155513829   0.000000000   0.000000000
   0.000000000   1.475106943   0.000000000
   0.000000000   0.000000000   2.147321574

ATOMIC_POSITIONS (crystal)
Co       0.750000000   0.825369283   0.435192129
Co       0.250000000   0.174630717   0.564807871
Co       0.750000000   0.325369283   0.064807871
Co       0.250000000   0.674630717   0.935192129
Co       0.250000000   0.538885298   0.279838959
Co       0.750000000   0.461114702   0.720161041
Co       0.250000000   0.038885298   0.220161041
Co       0.750000000   0.961114702   0.779838959
Si       0.250000000   0.200418020   0.893405896
Si       0.750000000   0.799581980   0.106594104
Si       0.250000000   0.700418020   0.606594104
Si       0.750000000   0.299581980   0.393405896
End final coordinates

     A final scf calculation at the relaxed structure.
     The G-vectors are recalculated for the final unit cell
     Results may differ from those at the preceding step.

     bravais-lattice index     =            0
     lattice parameter (alat)  =       7.0151  a.u.
     unit-cell volume          =    1263.5670 (a.u.)^3
     number of atoms/cell      =           12
     number of atomic types    =            2
     number of electrons       =       176.00
     number of Kohn-Sham states=          106
     kinetic-energy cutoff     =      40.0000  Ry
     charge density cutoff     =     160.0000  Ry
     convergence threshold     =      1.0E-04
     mixing beta               =       0.7000
     number of iterations used =            8  plain     mixing
     Exchange-correlation      = SLA-PZ-NOGX-NOGC ( 1 1 0 0 0)
     EXX-fraction              =        0.00

     celldm(1)=   7.015105  celldm(2)=   0.000000  celldm(3)=   0.000000
     celldm(4)=   0.000000  celldm(5)=   0.000000  celldm(6)=   0.000000

     crystal axes: (cart. coord. in units of alat)
               a(1) = (   1.155514   0.000000   0.000000 )
               a(2) = (   0.000000   1.475107   0.000000 )
               a(3) = (   0.000000   0.000000   2.147322 )

     reciprocal axes: (cart. coord. in units 2 pi/alat)
               b(1) = (  0.865416  0.000000  0.000000 )
               b(2) = (  0.000000  0.677917  0.000000 )
               b(3) = (  0.000000  0.000000  0.465696 )

     PseudoPot. # 1 for Ce read from file:
     /home/jld5415/pp.La/Ce.UPF
     MD5 check sum: 44451aa79a44a00cf2bc029dc19922f6
     Pseudo is Norm-conserving, Zval = 12.0
     Generated in analytical, separable form
     Using radial grid of 1255 points,  6 beta functions with:
                l(1) =   0
                l(2) =   0
                l(3) =   1
                l(4) =   1
                l(5) =   2
                l(6) =   3

     PseudoPot. # 2 for Dy read from file:
     /home/jld5415/pp.La/Dy.UPF
     MD5 check sum: 9597327bec62616a94a14d07f3fd9936
     Pseudo is Norm-conserving, Zval = 20.0
     Generated in analytical, separable form
     Using radial grid of 1265 points,  6 beta functions with:
                l(1) =   0
                l(2) =   0
                l(3) =   1
                l(4) =   1
                l(5) =   2
                l(6) =   3

     atomic species   valence    mass     pseudopotential
        Co            12.00    58.93320     Ce( 1.00)
        Si            20.00    28.08550     Dy( 1.00)

      8 Sym. Ops., with inversion, found ( 6 have fractional translation)

   Cartesian axes

     site n.     atom                  positions (alat units)
         1           Co  tau(   1) = (   0.8666354   1.2175080   0.9344974  )
         2           Co  tau(   2) = (   0.2888785   0.2575990   1.2128241  )
         3           Co  tau(   3) = (   0.8666354   0.4799545   0.1391633  )
         4           Co  tau(   4) = (   0.2888785   0.9951525   2.0081582  )
         5           Co  tau(   5) = (   0.2888785   0.7949134   0.6009042  )
         6           Co  tau(   6) = (   0.8666354   0.6801935   1.5464173  )
         7           Co  tau(   7) = (   0.2888785   0.0573600   0.4727566  )
         8           Co  tau(   8) = (   0.8666354   1.4177470   1.6745650  )
         9           Si  tau(   9) = (   0.2888785   0.2956380   1.9184298  )
        10           Si  tau(  10) = (   0.8666354   1.1794689   0.2288918  )
        11           Si  tau(  11) = (   0.2888785   1.0331915   1.3025526  )
        12           Si  tau(  12) = (   0.8666354   0.4419155   0.8447690  )

     number of k points=    12  gaussian smearing, width (Ry)=  0.1000
                       cart. coord. in units 2pi/alat
        k(    1) = (   0.0000000   0.0000000   0.0000000), wk =   0.0833333
        k(    2) = (   0.0000000   0.0000000   0.1164241), wk =   0.1666667
        k(    3) = (   0.0000000   0.0000000  -0.2328482), wk =   0.0833333
        k(    4) = (   0.0000000   0.2259723   0.0000000), wk =   0.1666667
        k(    5) = (   0.0000000   0.2259723   0.1164241), wk =   0.3333333
        k(    6) = (   0.0000000   0.2259723  -0.2328482), wk =   0.1666667
        k(    7) = (  -0.4327079   0.0000000   0.0000000), wk =   0.0833333
        k(    8) = (  -0.4327079   0.0000000   0.1164241), wk =   0.1666667
        k(    9) = (  -0.4327079   0.0000000  -0.2328482), wk =   0.0833333
        k(   10) = (  -0.4327079   0.2259723   0.0000000), wk =   0.1666667
        k(   11) = (  -0.4327079   0.2259723   0.1164241), wk =   0.3333333
        k(   12) = (  -0.4327079   0.2259723  -0.2328482), wk =   0.1666667

     Largest allocated arrays     est. size (Mb)     dimensions
     Largest temporary arrays     est. size (Mb)     dimensions

     Initial potential from superposition of free atoms

     Starting from uniform charge
     Starting wfc are    0 randomized atomic wfcs

     Writing output data file Prototype-La-oP12-Co2Si.save

     Self-consistent Calculation

[...]

     iteration #  8     ecut=    40.00 Ry     beta=0.70
     CG style diagonalization
     ethr =  1.03E-04,  avg # of iterations =  3.4

[...]

     total energy              =   -1656.43319474 Ry
     Harris-Foulkes estimate   =   -1656.43458544 Ry
     estimated scf accuracy    <       0.00276872 Ry

     iteration # 11     ecut=    40.00 Ry     beta=0.70
     CG style diagonalization
     c_bands:  1 eigenvalues not converged
     c_bands:  1 eigenvalues not converged
     c_bands:  1 eigenvalues not converged
     ethr =  1.57E-06,  avg # of iterations =  3.6

     End of self-consistent calculation

[...]

          k = 0.0000 0.2260-0.2328 (  5402 PWs)   bands (ev):

[...]

          k =-0.4327 0.2260-0.2328 (  5424 PWs)   bands (ev):

   -53.0900 -53.0900 -53.0888 -53.0888 -20.2482 -20.2482 -20.2393 -20.2393
   -20.2071 -20.2071 -20.2052 -20.2052 -20.0642 -20.0642 -20.0546 -20.0546
    -6.9169  -6.9169  -6.6751  -6.6751  -6.4418  -6.4418  -6.2580  -6.2580
     8.5553   8.5553   9.0255   9.0255   9.2411   9.2411   9.5644   9.5644
     9.6279   9.6279  10.8434  10.8434  11.3502  11.3502  11.6834  11.6834
    12.1123  12.1123  12.1176  12.1176  12.5354  12.5354  12.7260  12.7260
    19.9310  19.9310  20.1003  20.1003  20.4128  20.4128  20.5099  20.5099
    20.8901  20.8901  21.0587  21.0587  21.3015  21.3015  21.3479  21.3479
    21.4935  21.4935  21.6444  21.6444  25.5014  25.5014  26.7534  26.7534
    28.3969  28.3969  28.4005  28.4005  28.6132  28.6132  28.9911  28.9911
    29.0275  29.0276  30.1324  30.1324  30.4651  30.4651  31.0011  31.0011
    31.4352  31.4352  31.9518  31.9518  32.3178  32.3178  33.5447  33.5447
    33.6578  33.6578  34.0255  34.0257  34.7449  34.7450  35.9127  35.9138
    35.9219  35.9223

     the Fermi energy is    31.3907 ev

!    total energy              =   -1656.43355543 Ry
     Harris-Foulkes estimate   =   -1656.43364608 Ry
     estimated scf accuracy    <       0.00009783 Ry

     The total energy is the sum of the following terms:

     one-electron contribution =     -39.69202557 Ry
     hartree contribution      =     194.90550499 Ry
     xc contribution           =    -184.04248889 Ry
     ewald contribution        =   -1627.09251945 Ry
     smearing contrib. (-TS)   =      -0.51202651 Ry

     convergence has been achieved in  11 iterations

     Forces acting on atoms (Ry/au):

     atom    1 type  1   force =     0.00000000   -0.03808820   -0.00621045
     atom    2 type  1   force =     0.00000000    0.03808820    0.00621045
     atom    3 type  1   force =     0.00000000   -0.03808820    0.00621045
     atom    4 type  1   force =     0.00000000    0.03808820   -0.00621045
     atom    5 type  1   force =     0.00000000    0.05791356   -0.12489638
     atom    6 type  1   force =     0.00000000   -0.05791356    0.12489638
     atom    7 type  1   force =     0.00000000    0.05791356    0.12489638
     atom    8 type  1   force =     0.00000000   -0.05791356   -0.12489638
     atom    9 type  2   force =     0.00000000   -0.07365577    0.00556865
     atom   10 type  2   force =     0.00000000    0.07365577   -0.00556865
     atom   11 type  2   force =     0.00000000   -0.07365577   -0.00556865
     atom   12 type  2   force =     0.00000000    0.07365577    0.00556865

     Total force =     0.321861     Total SCF correction =     0.000000

     entering subroutine stress ...

          total   stress  (Ry/bohr**3)                   (kbar)     P= 1586.08
   0.01182545   0.00000000   0.00000000       1739.58      0.00      0.00
   0.00000000   0.01003176   0.00000000          0.00   1475.72      0.00
   0.00000000   0.00000000   0.01048874          0.00      0.00   1542.95

     Writing output data file Prototype-La-oP12-Co2Si.save

     General routines

     Parallel routines

   This run was terminated on:   0:51:30  22Mar2018

   JOB DONE.