     Program PWSCF v.5.0.2 starts on 22Mar2018 at 16:17:19

     Current dimensions of program PWSCF are:
     Max number of different atomic species (ntypx) = 10
     Max number of k-points (npk) =  40000
     Max angular momentum in pseudopotentials (lmaxx) =  3
     Waiting for input...
     Reading input from standard input

     Subspace diagonalization in iterative solution of the eigenvalue problem:
     a serial algorithm will be used

     bravais-lattice index     =            0
     lattice parameter (alat)  =       7.0151  a.u.
     unit-cell volume          =     862.2778 (a.u.)^3
     number of atoms/cell      =           12
     number of atomic types    =            2
     number of electrons       =       152.00
     number of Kohn-Sham states=           91
     kinetic-energy cutoff     =      40.0000  Ry
     charge density cutoff     =     160.0000  Ry
     convergence threshold     =      1.0E-04
     mixing beta               =       0.7000
     number of iterations used =            8  plain     mixing
     Exchange-correlation      = SLA-PZ-NOGX-NOGC ( 1 1 0 0 0)
     EXX-fraction              =        0.00
     nstep                     =           50

     celldm(1)=   7.015105  celldm(2)=   0.000000  celldm(3)=   0.000000
     celldm(4)=   0.000000  celldm(5)=   0.000000  celldm(6)=   0.000000

     crystal axes: (cart. coord. in units of alat)
               a(1) = (   1.000000   0.000000   0.000000 )
               a(2) = (   0.000000   1.315963   0.000000 )
               a(3) = (   0.000000   0.000000   1.898020 )

     reciprocal axes: (cart. coord. in units 2 pi/alat)
               b(1) = (  1.000000  0.000000  0.000000 )
               b(2) = (  0.000000  0.759900  0.000000 )
               b(3) = (  0.000000  0.000000  0.526865 )

     PseudoPot. # 1 for Pr read from file:
     /home/cwx6513/pp.La/Pr.UPF
     MD5 check sum: 70e2b4b153859e92c8c91247dfc63203
     Pseudo is Norm-conserving, Zval = 13.0
     Generated in analytical, separable form
     Using radial grid of 1255 points,  6 beta functions with:
                l(1) =   0
                l(2) =   0
                l(3) =   1
                l(4) =   1
                l(5) =   2
                l(6) =   3

     PseudoPot. # 2 for Ce read from file:
     /home/cwx6513/pp.La/Ce.UPF
     MD5 check sum: 44451aa79a44a00cf2bc029dc19922f6
     Pseudo is Norm-conserving, Zval = 12.0
     Generated in analytical, separable form
     Using radial grid of 1255 points,  6 beta functions with:
                l(1) =   0
                l(2) =   0
                l(3) =   1
                l(4) =   1
                l(5) =   2
                l(6) =   3

     atomic species   valence    mass     pseudopotential
        Co            13.00    58.93320     Pr( 1.00)
        Si            12.00    28.08550     Ce( 1.00)

      8 Sym. Ops., with inversion, found ( 6 have fractional translation)

   Cartesian axes

     site n.     atom                  positions (alat units)
         1           Co  tau(   1) = (   0.7500000   1.0875135   0.8270358  )
         2           Co  tau(   2) = (   0.2500000   0.2284499   1.0709846  )
         3           Co  tau(   3) = (   0.7500000   0.4295318   0.1219744  )
         4           Co  tau(   4) = (   0.2500000   0.8864316   1.7760460  )
         5           Co  tau(   5) = (   0.2500000   0.7067855   0.5358966  )
         6           Co  tau(   6) = (   0.7500000   0.6091779   1.3621238  )
         7           Co  tau(   7) = (   0.2500000   0.0488038   0.4131136  )
         8           Co  tau(   8) = (   0.7500000   1.2671596   1.4849068  )
         9           Si  tau(   9) = (   0.2500000   0.2669484   1.6960710  )
        10           Si  tau(  10) = (   0.7500000   1.0490149   0.2019494  )
        11           Si  tau(  11) = (   0.2500000   0.9249301   1.1509596  )
        12           Si  tau(  12) = (   0.7500000   0.3910333   0.7470608  )

     number of k points=    12  gaussian smearing, width (Ry)=  0.1000
                       cart. coord. in units 2pi/alat
        k(    1) = (   0.0000000   0.0000000   0.0000000), wk =   0.0833333
        k(    2) = (   0.0000000   0.0000000   0.1317162), wk =   0.1666667
        k(    3) = (   0.0000000   0.0000000  -0.2634324), wk =   0.0833333
        k(    4) = (   0.0000000   0.2532999   0.0000000), wk =   0.1666667
        k(    5) = (   0.0000000   0.2532999   0.1317162), wk =   0.3333333
        k(    6) = (   0.0000000   0.2532999  -0.2634324), wk =   0.1666667
        k(    7) = (  -0.5000000   0.0000000   0.0000000), wk =   0.0833333
        k(    8) = (  -0.5000000   0.0000000   0.1317162), wk =   0.1666667
        k(    9) = (  -0.5000000   0.0000000  -0.2634324), wk =   0.0833333
        k(   10) = (  -0.5000000   0.2532999   0.0000000), wk =   0.1666667
        k(   11) = (  -0.5000000   0.2532999   0.1317162), wk =   0.3333333
        k(   12) = (  -0.5000000   0.2532999  -0.2634324), wk =   0.1666667

     Largest allocated arrays     est. size (Mb)     dimensions
     Largest temporary arrays     est. size (Mb)     dimensions

     Initial potential from superposition of free atoms

     starting charge  103.92434, renormalised to  152.00000
     Starting wfc are  160 randomized atomic wfcs

     Self-consistent Calculation

     iteration #  1     ecut=    40.00 Ry     beta=0.70
     CG style diagonalization
     c_bands:  5 eigenvalues not converged
     c_bands:  4 eigenvalues not converged
     c_bands:  2 eigenvalues not converged
     ethr =  1.00E-02,  avg # of iterations = 14.7

     total energy              =    -392.74215658 Ry
     Harris-Foulkes estimate   =   -1354.23902118 Ry
     estimated scf accuracy    <    1175.89466612 Ry

[...]

     iteration #  4     ecut=    40.00 Ry     beta=0.70
     CG style diagonalization
     ethr =  1.00E-02,  avg # of iterations =  4.0

[...]

     End of self-consistent calculation

          k = 0.0000 0.0000 0.0000 (  3675 PWs)   bands (ev):

    -4.2931  -2.1104  -2.0431  -0.5802   0.0300   0.0470   0.4769   0.6841
     4.1554   4.5016   4.6056   6.6068  12.5322  13.9669  14.4781  14.8427
    15.0231  15.1607  15.2707  15.3489  16.0914  16.8219  16.8236  17.2067
    17.8360  18.2686  18.4085  18.7165  18.7894  19.2421  19.7276  20.3667
    20.5338  20.7112  21.7906  22.0389  22.8845  23.9303  23.9721  24.7553
    25.4626  25.8135  25.8506  25.9229  26.6530  26.8623  27.4513  27.8646
    33.3245  33.7192  34.8161  35.0307  35.3326  35.3753  35.7545  36.3180
    36.8757  37.2287  38.3495  38.6200  39.4719  39.6112  40.2114  41.3746
    41.8101  41.8765  42.1851  42.3892  42.7213  43.0585  43.1321  43.6871
    44.3559  44.4416  45.0618  45.4043  45.9925  46.0350  46.1765  46.6093
    46.8282  48.1512  48.2066  48.2323  48.2620  48.4893  48.7876  49.3506
    49.5313  49.7872  50.4370

[...]

          k =-0.5000 0.0000 0.0000 (  3722 PWs)   bands (ev):

[...]

     the Fermi energy is    44.7082 ev

!    total energy              =   -1040.49761456 Ry
     Harris-Foulkes estimate   =   -1040.49762422 Ry
     estimated scf accuracy    <       0.00001353 Ry

     The total energy is the sum of the following terms:

     one-electron contribution =     423.34554812 Ry
     hartree contribution      =      23.54405636 Ry
     xc contribution           =    -151.24630055 Ry
     ewald contribution        =   -1335.77558997 Ry
     smearing contrib. (-TS)   =      -0.36532851 Ry

     convergence has been achieved in  11 iterations

     Forces acting on atoms (Ry/au):

     atom    1 type  1   force =     0.00000000   -0.03740348   -0.05547923
     atom    2 type  1   force =     0.00000000    0.03740348    0.05547923
     atom    3 type  1   force =     0.00000000   -0.03740348    0.05547923
     atom    4 type  1   force =     0.00000000    0.03740348   -0.05547923
     atom    5 type  1   force =     0.00000000    0.09188634   -0.21284672
     atom    6 type  1   force =     0.00000000   -0.09188634    0.21284672
     atom    7 type  1   force =     0.00000000    0.09188634    0.21284672
     atom    8 type  1   force =     0.00000000   -0.09188634   -0.21284672
     atom    9 type  2   force =     0.00000000   -0.17522308    0.02671968
     atom   10 type  2   force =     0.00000000    0.17522308   -0.02671968
     atom   11 type  2   force =     0.00000000   -0.17522308   -0.02671968
     atom   12 type  2   force =     0.00000000    0.17522308    0.02671968

     Total force =     0.598802     Total SCF correction =     0.012060

     entering subroutine stress ...

          total   stress  (Ry/bohr**3)                   (kbar)     P= 6219.98
   0.04275110   0.00000000   0.00000000       6288.90      0.00      0.00
   0.00000000   0.04135103   0.00000000          0.00   6082.95      0.00
   0.00000000   0.00000000   0.04274553          0.00      0.00   6288.08

     BFGS Geometry Optimization

     number of scf cycles    =   1
     number of bfgs steps    =   0

     enthalpy new            =   -1040.4976145572 Ry

     new trust radius        =       0.5000000000 bohr
     new conv_thr            =       0.0001000000 Ry

     new unit-cell volume =   1098.95198 a.u.^3 (   162.84788 Ang^3 )

CELL_PARAMETERS (alat=  7.01510508)
   1.085136619   0.000000000   0.000000000
   0.000000000   1.424330924   0.000000000
   0.000000000   0.000000000   2.059590366

ATOMIC_POSITIONS (crystal)
Co       0.750000000   0.826078252   0.435404087
Co       0.250000000   0.173921748   0.564595913
Co       0.750000000   0.326078252   0.064595913
Co       0.250000000   0.673921748   0.935404087
Co       0.250000000   0.537878870   0.281071611
Co       0.750000000   0.462121130   0.718928389
Co       0.250000000   0.037878870   0.218928389
Co       0.750000000   0.962121130   0.781071611
Si       0.250000000   0.201342033   0.893759855
Si       0.750000000   0.798657967   0.106240145
Si       0.250000000   0.701342033   0.606240145
Si       0.750000000   0.298657967   0.393759855

     Writing output data file Prototype-La-oP12-Co2Si.save
     NEW-OLD atomic charge density approx. for the potential
     NEW k-points:
        k(    1) = (   0.0000000   0.0000000   0.0000000), wk =   0.0833333
        k(    2) = (   0.0000000   0.0000000   0.1213834), wk =   0.1666667
        k(    3) = (   0.0000000   0.0000000  -0.2427667), wk =   0.0833333
        k(    4) = (   0.0000000   0.2340280   0.0000000), wk =   0.1666667
        k(    5) = (   0.0000000   0.2340280   0.1213834), wk =   0.3333333
        k(    6) = (   0.0000000   0.2340280  -0.2427667), wk =   0.1666667
        k(    7) = (  -0.4607715   0.0000000   0.0000000), wk =   0.0833333
        k(    8) = (  -0.4607715   0.0000000   0.1213834), wk =   0.1666667
        k(    9) = (  -0.4607715   0.0000000  -0.2427667), wk =   0.0833333
        k(   10) = (  -0.4607715   0.2340280   0.0000000), wk =   0.1666667
        k(   11) = (  -0.4607715   0.2340280   0.1213834), wk =   0.3333333
        k(   12) = (  -0.4607715   0.2340280  -0.2427667), wk =   0.1666667
     Check: negative starting charge=   -0.011923

     negative rho (up, down):  0.124E-01 0.000E+00
     extrapolated charge  174.38151, renormalised to  152.00000

[...]

     negative rho (up, down):  0.260E-02 0.000E+00

[...]

     enthalpy old            =   -1040.4976145572 Ry
     enthalpy new            =   -1046.9323090419 Ry

     CASE: enthalpy_new < enthalpy_old

     small trust_radius: resetting bfgs history

     new trust radius        =       2.7093903042 bohr
     new conv_thr            =       0.0001000000 Ry

[...]

     Writing output data file Prototype-La-oP12-Co2Si.save
     Check: negative starting charge=   -0.011923
     NEW-OLD atomic charge density approx. for the potential
     NEW k-points:
        k(    1) = (   0.0000000   0.0000000   0.0000000), wk =   0.0833333
        k(    2) = (   0.0000000   0.0000000   0.0865797), wk =   0.1666667
        k(    3) = (   0.0000000   0.0000000  -0.1731594), wk =   0.0833333
        k(    4) = (   0.0000000   0.1690976   0.0000000), wk =   0.1666667
        k(    5) = (   0.0000000   0.1690976   0.0865797), wk =   0.3333333
        k(    6) = (   0.0000000   0.1690976  -0.1731594), wk =   0.1666667
        k(    7) = (  -0.3271013   0.0000000   0.0000000), wk =   0.0833333
        k(    8) = (  -0.3271013   0.0000000   0.0865797), wk =   0.1666667
        k(    9) = (  -0.3271013   0.0000000  -0.1731594), wk =   0.0833333
        k(   10) = (  -0.3271013   0.1690976   0.0000000), wk =   0.1666667
        k(   11) = (  -0.3271013   0.1690976   0.0865797), wk =   0.3333333
        k(   12) = (  -0.3271013   0.1690976  -0.1731594), wk =   0.1666667
     Check: negative starting charge=   -0.015560

[...]

     Total force =     0.033590     Total SCF correction =     0.001853

[...]

          total   stress  (Ry/bohr**3)                   (kbar)     P=-1091.62
  -0.00744094   0.00000000   0.00000000      -1094.60      0.00      0.00
   0.00000000  -0.00736104   0.00000000          0.00  -1082.85      0.00
   0.00000000   0.00000000  -0.00746012          0.00      0.00  -1097.42

     number of scf cycles    =   3
     number of bfgs steps    =   2

     enthalpy old            =   -1046.9323090419 Ry
     enthalpy new            =   -1040.7397903408 Ry

     CASE: enthalpy_new > enthalpy_old

     new trust radius        =       1.2280921008 bohr

     trust_radius < trust_radius_min

     resetting bfgs history

     Message from routine bfgs:
     history already reset at previous step: stopping
     new conv_thr            =       0.0001000000 Ry

     new unit-cell volume =   1315.22602 a.u.^3 (   194.89639 Ang^3 )

[...]

ATOMIC_POSITIONS (crystal)
Co       0.750000000   0.826063421   0.435297907
Co       0.250000000   0.173936579   0.564702093
Co       0.750000000   0.326063421   0.064702093
Co       0.250000000   0.673936579   0.935297907
Co       0.250000000   0.538210234   0.280265725
Co       0.750000000   0.461789766   0.719734275
Co       0.250000000   0.038210234   0.219734275
Co       0.750000000   0.961789766   0.780265725
Si       0.250000000   0.200220451   0.894014445
Si       0.750000000   0.799779549   0.105985555
Si       0.250000000   0.700220451   0.605985555
Si       0.750000000   0.299779549   0.394014445

     Writing output data file Prototype-La-oP12-Co2Si.save
     Check: negative starting charge=   -0.015560
     NEW-OLD atomic charge density approx. for the potential
     NEW k-points:
        k(    1) = (   0.0000000   0.0000000   0.0000000), wk =   0.0833333
        k(    2) = (   0.0000000   0.0000000   0.1142312), wk =   0.1666667
        k(    3) = (   0.0000000   0.0000000  -0.2284624), wk =   0.0833333
        k(    4) = (   0.0000000   0.2211397   0.0000000), wk =   0.1666667
        k(    5) = (   0.0000000   0.2211397   0.1142312), wk =   0.3333333
        k(    6) = (   0.0000000   0.2211397  -0.2284624), wk =   0.1666667
        k(    7) = (  -0.4329516   0.0000000   0.0000000), wk =   0.0833333
        k(    8) = (  -0.4329516   0.0000000   0.1142312), wk =   0.1666667
        k(    9) = (  -0.4329516   0.0000000  -0.2284624), wk =   0.0833333
        k(   10) = (  -0.4329516   0.2211397   0.0000000), wk =   0.1666667
        k(   11) = (  -0.4329516   0.2211397   0.1142312), wk =   0.3333333
        k(   12) = (  -0.4329516   0.2211397  -0.2284624), wk =   0.1666667
     Check: negative starting charge=   -0.025543

     negative rho (up, down):  0.513E+02 0.000E+00
     extrapolated charge   18.58351, renormalised to  152.00000

[...]

     Total force =     0.186676     Total SCF correction =     0.029852
     SCF correction compared to forces is large: reduce conv_thr to get better values

[...]

     The maximum number of steps has been reached.

     End of BFGS Geometry Optimization
Begin final coordinates
     new unit-cell volume =   1315.22602 a.u.^3 (   194.89639 Ang^3 )

CELL_PARAMETERS (alat=  7.01510508)
   1.154863455   0.000000000   0.000000000
   0.000000000   1.507342607   0.000000000
   0.000000000   0.000000000   2.188543766

ATOMIC_POSITIONS (crystal)
Co       0.750000000   0.826063421   0.435297907
Co       0.250000000   0.173936579   0.564702093
Co       0.750000000   0.326063421   0.064702093
Co       0.250000000   0.673936579   0.935297907
Co       0.250000000   0.538210234   0.280265725
Co       0.750000000   0.461789766   0.719734275
Co       0.250000000   0.038210234   0.219734275
Co       0.750000000   0.961789766   0.780265725
Si       0.250000000   0.200220451   0.894014445
Si       0.750000000   0.799779549   0.105985555
Si       0.250000000   0.700220451   0.605985555
Si       0.750000000   0.299779549   0.394014445
End final coordinates

     A final scf calculation at the relaxed structure.
     The G-vectors are recalculated for the final unit cell
     Results may differ from those at the preceding step.

     bravais-lattice index     =            0
     lattice parameter (alat)  =       7.0151  a.u.
     unit-cell volume          =    1315.2260 (a.u.)^3
     number of atoms/cell      =           12
     number of atomic types    =            2
     number of electrons       =       152.00
     number of Kohn-Sham states=           91
     kinetic-energy cutoff     =      40.0000  Ry
     charge density cutoff     =     160.0000  Ry
     convergence threshold     =      1.0E-04
     mixing beta               =       0.7000
     number of iterations used =            8  plain     mixing
     Exchange-correlation      = SLA-PZ-NOGX-NOGC ( 1 1 0 0 0)
     EXX-fraction              =        0.00

     celldm(1)=   7.015105  celldm(2)=   0.000000  celldm(3)=   0.000000
     celldm(4)=   0.000000  celldm(5)=   0.000000  celldm(6)=   0.000000

     crystal axes: (cart. coord. in units of alat)
               a(1) = (   1.154863   0.000000   0.000000 )
               a(2) = (   0.000000   1.507343   0.000000 )
               a(3) = (   0.000000   0.000000   2.188544 )

     reciprocal axes: (cart. coord. in units 2 pi/alat)
               b(1) = (  0.865903  0.000000  0.000000 )
               b(2) = (  0.000000  0.663419  0.000000 )
               b(3) = (  0.000000  0.000000  0.456925 )

     PseudoPot. # 1 for Pr read from file:
     /home/cwx6513/pp.La/Pr.UPF
     MD5 check sum: 70e2b4b153859e92c8c91247dfc63203
     Pseudo is Norm-conserving, Zval = 13.0
     Generated in analytical, separable form
     Using radial grid of 1255 points,  6 beta functions with:
                l(1) =   0
                l(2) =   0
                l(3) =   1
                l(4) =   1
                l(5) =   2
                l(6) =   3

     PseudoPot. # 2 for Ce read from file:
     /home/cwx6513/pp.La/Ce.UPF
     MD5 check sum: 44451aa79a44a00cf2bc029dc19922f6
     Pseudo is Norm-conserving, Zval = 12.0
     Generated in analytical, separable form
     Using radial grid of 1255 points,  6 beta functions with:
                l(1) =   0
                l(2) =   0
                l(3) =   1
                l(4) =   1
                l(5) =   2
                l(6) =   3

     atomic species   valence    mass     pseudopotential
        Co            13.00    58.93320     Pr( 1.00)
        Si            12.00    28.08550     Ce( 1.00)

      8 Sym. Ops., with inversion, found ( 6 have fractional translation)

   Cartesian axes

     site n.     atom                  positions (alat units)
         1           Co  tau(   1) = (   0.8661476   1.2451606   0.9526685  )
         2           Co  tau(   2) = (   0.2887159   0.2621820   1.2358752  )
         3           Co  tau(   3) = (   0.8661476   0.4914893   0.1416034  )
         4           Co  tau(   4) = (   0.2887159   1.0158533   2.0469404  )
         5           Co  tau(   5) = (   0.2887159   0.8112672   0.6133738  )
         6           Co  tau(   6) = (   0.8661476   0.6960754   1.5751700  )
         7           Co  tau(   7) = (   0.2887159   0.0575959   0.4808981  )
         8           Co  tau(   8) = (   0.8661476   1.4497467   1.7076457  )
         9           Si  tau(   9) = (   0.2887159   0.3018008   1.9565897  )
        10           Si  tau(  10) = (   0.8661476   1.2055418   0.2319540  )
        11           Si  tau(  11) = (   0.2887159   1.0554721   1.3262259  )
        12           Si  tau(  12) = (   0.8661476   0.4518705   0.8623179  )

     number of k points=    12  gaussian smearing, width (Ry)=  0.1000
                       cart. coord. in units 2pi/alat
        k(    1) = (   0.0000000   0.0000000   0.0000000), wk =   0.0833333
        k(    2) = (   0.0000000   0.0000000   0.1142312), wk =   0.1666667
        k(    3) = (   0.0000000   0.0000000  -0.2284624), wk =   0.0833333
        k(    4) = (   0.0000000   0.2211397   0.0000000), wk =   0.1666667
        k(    5) = (   0.0000000   0.2211397   0.1142312), wk =   0.3333333
        k(    6) = (   0.0000000   0.2211397  -0.2284624), wk =   0.1666667
        k(    7) = (  -0.4329516   0.0000000   0.0000000), wk =   0.0833333
        k(    8) = (  -0.4329516   0.0000000   0.1142312), wk =   0.1666667
        k(    9) = (  -0.4329516   0.0000000  -0.2284624), wk =   0.0833333
        k(   10) = (  -0.4329516   0.2211397   0.0000000), wk =   0.1666667
        k(   11) = (  -0.4329516   0.2211397   0.1142312), wk =   0.3333333
        k(   12) = (  -0.4329516   0.2211397  -0.2284624), wk =   0.1666667

     Largest allocated arrays     est. size (Mb)     dimensions
     Largest temporary arrays     est. size (Mb)     dimensions

     Initial potential from superposition of free atoms
     Check: negative starting charge=   -0.001062

     starting charge  103.92434, renormalised to  152.00000

     negative rho (up, down):  0.155E-02 0.000E+00
     Starting wfc are  160 randomized atomic wfcs

     Writing output data file Prototype-La-oP12-Co2Si.save

     Self-consistent Calculation

[...]

     negative rho (up, down):  0.684E-04 0.000E+00

[...]

     iteration # 11     ecut=    40.00 Ry     beta=0.70
     CG style diagonalization
     c_bands:  1 eigenvalues not converged
     ethr =  3.84E-06,  avg # of iterations =  3.8

     total energy              =   -1050.20394971 Ry
     Harris-Foulkes estimate   =   -1050.20401120 Ry
     estimated scf accuracy    <       0.00015162 Ry

     iteration # 12     ecut=    40.00 Ry     beta=0.70
     CG style diagonalization
     ethr =  9.97E-08,  avg # of iterations =  4.8

     End of self-consistent calculation

[...]

          k = 0.0000 0.2211-0.2285 (  5592 PWs)   bands (ev):

[...]

          k =-0.4330 0.2211-0.2285 (  5620 PWs)   bands (ev):

   -14.3774 -14.3774 -14.2832 -14.2832 -14.0527 -14.0527 -13.9057 -13.9057
    -9.2193  -9.2193  -9.2193  -9.2193   3.0126   3.0126   3.6237   3.6237
     3.7195   3.7195   4.0468   4.0468   4.9017   4.9017   4.9225   4.9225
     5.4473   5.4473   6.1270   6.1270   6.2880   6.2880   6.3009   6.3009
     6.7424   6.7424   6.7648   6.7648   8.9707   8.9707   9.2929   9.2929
     9.5373   9.5373   9.8131   9.8131  10.0909  10.0909  10.1712  10.1712
    23.4939  23.4939  24.3714  24.3714  24.4060  24.4060  25.0555  25.0555
    25.3640  25.3640  25.5730  25.5730  25.9038  25.9038  26.1732  26.1732
    26.3805  26.3805  26.6838  26.6838  27.2022  27.2022  27.6413  27.6413
    27.6725  27.6725  28.5322  28.5322  28.9152  28.9152  29.3449  29.3449
    29.4869  29.4869  30.5166  30.5166  30.6532  30.6532  30.9262  30.9262
    32.0550  32.0655  32.1263

     the Fermi energy is    28.9215 ev

!    total energy              =   -1050.20403289 Ry
     Harris-Foulkes estimate   =   -1050.20410381 Ry
     estimated scf accuracy    <       0.00008598 Ry

     The total energy is the sum of the following terms:

     one-electron contribution =     199.13235075 Ry
     hartree contribution      =      51.93831517 Ry
     xc contribution           =    -140.03009048 Ry
     ewald contribution        =   -1160.68312238 Ry
     smearing contrib. (-TS)   =      -0.56148596 Ry

     convergence has been achieved in  12 iterations

     Forces acting on atoms (Ry/au):

     atom    1 type  1   force =     0.00000000    0.00569407   -0.00031696
     atom    2 type  1   force =     0.00000000   -0.00569407    0.00031696
     atom    3 type  1   force =     0.00000000    0.00569407    0.00031696
     atom    4 type  1   force =     0.00000000   -0.00569407   -0.00031696
     atom    5 type  1   force =     0.00000000    0.00585648   -0.06033146
     atom    6 type  1   force =     0.00000000   -0.00585648    0.06033146
     atom    7 type  1   force =     0.00000000    0.00585648    0.06033146
     atom    8 type  1   force =     0.00000000   -0.00585648   -0.06033146
     atom    9 type  2   force =     0.00000000   -0.07398911    0.03577356
     atom   10 type  2   force =     0.00000000    0.07398911   -0.03577356
     atom   11 type  2   force =     0.00000000   -0.07398911   -0.03577356
     atom   12 type  2   force =     0.00000000    0.07398911    0.03577356

     Total force =     0.204557     Total SCF correction =     0.026422
     SCF correction compared to forces is large: reduce conv_thr to get better values

     entering subroutine stress ...

          total   stress  (Ry/bohr**3)                   (kbar)     P= 1169.97
   0.00833055   0.00000000   0.00000000       1225.47      0.00      0.00
   0.00000000   0.00764036   0.00000000          0.00   1123.94      0.00
   0.00000000   0.00000000   0.00788892          0.00      0.00   1160.50

     Writing output data file Prototype-La-oP12-Co2Si.save

     General routines

     Parallel routines

   This run was terminated on:  16:37:31  22Mar2018

   JOB DONE.