     Program PWSCF v.5.0.2 starts on 22Mar2018 at 12:11:35

     Current dimensions of program PWSCF are:
     Max number of different atomic species (ntypx) = 10
     Max number of k-points (npk) =  40000
     Max angular momentum in pseudopotentials (lmaxx) =  3
     Waiting for input...
     Reading input from standard input

     Subspace diagonalization in iterative solution of the eigenvalue problem:
     a serial algorithm will be used

     bravais-lattice index     =            0
     lattice parameter (alat)  =       8.5346  a.u.
     unit-cell volume          =     621.6493 (a.u.)^3
     number of atoms/cell      =            8
     number of atomic types    =            2
     number of electrons       =       172.00
     number of Kohn-Sham states=          103
     kinetic-energy cutoff     =      40.0000  Ry
     charge density cutoff     =     160.0000  Ry
     convergence threshold     =      1.0E-04
     mixing beta               =       0.7000
     number of iterations used =            8  plain     mixing
     Exchange-correlation      = SLA-PZ-NOGX-NOGC ( 1 1 0 0 0)
     EXX-fraction              =        0.00
     nstep                     =           50

     celldm(1)=   8.534573  celldm(2)=   0.000000  celldm(3)=   0.000000
     celldm(4)=   0.000000  celldm(5)=   0.000000  celldm(6)=   0.000000

     crystal axes: (cart. coord. in units of alat)
               a(1) = (   1.000000   0.000000   0.000000 )
               a(2) = (   0.000000   1.000000   0.000000 )
               a(3) = (   0.000000   0.000000   1.000000 )

     reciprocal axes: (cart. coord. in units 2 pi/alat)
               b(1) = (  1.000000  0.000000  0.000000 )
               b(2) = (  0.000000  1.000000  0.000000 )
               b(3) = (  0.000000  0.000000  1.000000 )

     PseudoPot. # 1 for Yb read from file:
     /home/jld5415/pp.La/Yb.UPF
     MD5 check sum: 3e859b81cc28c53ec6aa3a2e888efcdf
     Pseudo is Norm-conserving, Zval = 24.0
     Generated in analytical, separable form
     Using radial grid of 1269 points,  6 beta functions with:
                l(1) =   0
                l(2) =   0
                l(3) =   1
                l(4) =   1
                l(5) =   2
                l(6) =   3

     PseudoPot. # 2 for Nd read from file:
     /home/jld5415/pp.La/Nd.UPF
     MD5 check sum: c66c5b6abe7b5840ced9b1e244e3bed6
     Pseudo is Norm-conserving, Zval = 14.0
     Generated in analytical, separable form
     Using radial grid of 1257 points,  6 beta functions with:
                l(1) =   0
                l(2) =   0
                l(3) =   1
                l(4) =   1
                l(5) =   2
                l(6) =   3

     atomic species   valence    mass     pseudopotential
        Cr            24.00    51.99610     Yb( 1.00)
        Si            14.00    28.08550     Nd( 1.00)

     48 Sym. Ops., with inversion, found (24 have fractional translation)

   Cartesian axes

     site n.     atom                  positions (alat units)
         1           Cr  tau(   1) = (   0.0000000   0.5000000   0.2500000  )
         2           Cr  tau(   2) = (   0.0000000   0.5000000   0.7500000  )
         3           Cr  tau(   3) = (   0.5000000   0.7500000   0.0000000  )
         4           Cr  tau(   4) = (   0.5000000   0.2500000   0.0000000  )
         5           Cr  tau(   5) = (   0.7500000   0.0000000   0.5000000  )
         6           Cr  tau(   6) = (   0.2500000   0.0000000   0.5000000  )
         7           Si  tau(   7) = (   0.5000000   0.5000000   0.5000000  )
         8           Si  tau(   8) = (   0.0000000   0.0000000   0.0000000  )

     number of k points=    48  gaussian smearing, width (Ry)=  0.1000
                       cart. coord. in units 2pi/alat
        k(    1) = (   0.0000000   0.0000000   0.0000000), wk =   0.0095238
        k(    2) = (   0.0000000   0.0000000   0.1428571), wk =   0.0190476
        k(    3) = (   0.0000000   0.0000000   0.2857143), wk =   0.0190476
        k(    4) = (   0.0000000   0.0000000   0.4285714), wk =   0.0190476
        k(    5) = (   0.0000000   0.1666667   0.0000000), wk =   0.0190476
        k(    6) = (   0.0000000   0.1666667   0.1428571), wk =   0.0380952
        k(    7) = (   0.0000000   0.1666667   0.2857143), wk =   0.0380952
        k(    8) = (   0.0000000   0.1666667   0.4285714), wk =   0.0380952
        k(    9) = (   0.0000000   0.3333333   0.0000000), wk =   0.0190476
        k(   10) = (   0.0000000   0.3333333   0.1428571), wk =   0.0380952
        k(   11) = (   0.0000000   0.3333333   0.2857143), wk =   0.0380952
        k(   12) = (   0.0000000   0.3333333   0.4285714), wk =   0.0380952
        k(   13) = (   0.0000000  -0.5000000   0.0000000), wk =   0.0095238
        k(   14) = (   0.0000000  -0.5000000   0.1428571), wk =   0.0190476
        k(   15) = (   0.0000000  -0.5000000   0.2857143), wk =   0.0190476
        k(   16) = (   0.0000000  -0.5000000   0.4285714), wk =   0.0190476
        k(   17) = (   0.2000000   0.0000000   0.0000000), wk =   0.0190476
        k(   18) = (   0.2000000   0.0000000   0.1428571), wk =   0.0380952
        k(   19) = (   0.2000000   0.0000000   0.2857143), wk =   0.0380952
        k(   20) = (   0.2000000   0.0000000   0.4285714), wk =   0.0380952
        k(   21) = (   0.2000000   0.1666667   0.0000000), wk =   0.0380952
        k(   22) = (   0.2000000   0.1666667   0.1428571), wk =   0.0761905
        k(   23) = (   0.2000000   0.1666667   0.2857143), wk =   0.0761905
        k(   24) = (   0.2000000   0.1666667   0.4285714), wk =   0.0761905
        k(   25) = (   0.2000000   0.3333333   0.0000000), wk =   0.0380952
        k(   26) = (   0.2000000   0.3333333   0.1428571), wk =   0.0761905
        k(   27) = (   0.2000000   0.3333333   0.2857143), wk =   0.0761905
        k(   28) = (   0.2000000   0.3333333   0.4285714), wk =   0.0761905
        k(   29) = (   0.2000000  -0.5000000   0.0000000), wk =   0.0190476
        k(   30) = (   0.2000000  -0.5000000   0.1428571), wk =   0.0380952
        k(   31) = (   0.2000000  -0.5000000   0.2857143), wk =   0.0380952
        k(   32) = (   0.2000000  -0.5000000   0.4285714), wk =   0.0380952
        k(   33) = (   0.4000000   0.0000000   0.0000000), wk =   0.0190476
        k(   34) = (   0.4000000   0.0000000   0.1428571), wk =   0.0380952
        k(   35) = (   0.4000000   0.0000000   0.2857143), wk =   0.0380952
        k(   36) = (   0.4000000   0.0000000   0.4285714), wk =   0.0380952
        k(   37) = (   0.4000000   0.1666667   0.0000000), wk =   0.0380952
        k(   38) = (   0.4000000   0.1666667   0.1428571), wk =   0.0761905
        k(   39) = (   0.4000000   0.1666667   0.2857143), wk =   0.0761905
        k(   40) = (   0.4000000   0.1666667   0.4285714), wk =   0.0761905
        k(   41) = (   0.4000000   0.3333333   0.0000000), wk =   0.0380952
        k(   42) = (   0.4000000   0.3333333   0.1428571), wk =   0.0761905
        k(   43) = (   0.4000000   0.3333333   0.2857143), wk =   0.0761905
        k(   44) = (   0.4000000   0.3333333   0.4285714), wk =   0.0761905
        k(   45) = (   0.4000000  -0.5000000   0.0000000), wk =   0.0190476
        k(   46) = (   0.4000000  -0.5000000   0.1428571), wk =   0.0380952
        k(   47) = (   0.4000000  -0.5000000   0.2857143), wk =   0.0380952
        k(   48) = (   0.4000000  -0.5000000   0.4285714), wk =   0.0380952

     Largest allocated arrays     est. size (Mb)     dimensions
     Largest temporary arrays     est. size (Mb)     dimensions

     Initial potential from superposition of free atoms

     Starting from uniform charge
     Starting wfc are    0 randomized atomic wfcs

     Self-consistent Calculation

     iteration #  1     ecut=    40.00 Ry     beta=0.70
     CG style diagonalization
     c_bands:  1 eigenvalues not converged
     c_bands:  1 eigenvalues not converged
     c_bands:  1 eigenvalues not converged
     ethr =  1.00E-02,  avg # of iterations = 17.8

     total energy              =   -2086.96891348 Ry
     Harris-Foulkes estimate   =   -3290.02221086 Ry
     estimated scf accuracy    <    1470.01093630 Ry

[...]

     iteration #  4     ecut=    40.00 Ry     beta=0.70
     CG style diagonalization
     ethr =  1.00E-02,  avg # of iterations =  4.3

[...]

     End of self-consistent calculation

          k = 0.0000 0.0000 0.0000 (  2601 PWs)   bands (ev):

   -73.8362 -73.8362 -73.6040 -73.4401 -73.4401 -73.4401 -33.6669 -33.6669
   -33.6119 -32.6672 -32.6672 -32.6672 -32.5050 -32.5050 -32.5050 -32.4443
   -32.4443 -32.4443 -32.4064 -32.4064 -32.4064 -32.3416 -32.3416 -32.3416
     2.0791   2.1275  19.7192  19.7432  19.7432  19.9715  19.9715  19.9715
    20.0815  20.0815  20.0815  23.1520  23.1520  23.1520  23.2199  23.9897
    23.9897  24.0553  24.0553  24.0553  24.9125  24.9764  24.9764  24.9764
    26.0221  26.0221  26.1947  26.1947  26.1947  26.2380  26.2380  26.2380
    26.5938  26.5938  26.5938  27.8524  27.8524  27.8524  28.8264  34.2930
    34.2930  40.7364  40.7364  41.0840  41.0840  41.0840  42.1325  42.1325
    42.1325  43.7382  43.7382  43.7382  43.8795  45.9447  45.9447  45.9447
    50.1257  50.1257  50.1257  52.1923  52.1923  52.5730  52.5730  54.0814
    54.4704  54.4704  54.4704  56.5297  56.5298  56.5298  56.6089  57.3227
    57.4105  57.4106  57.4107  58.2987  58.2988  58.2989  59.4789

[...]

     the Fermi energy is    52.8904 ev

!    total energy              =   -2668.04221074 Ry
     Harris-Foulkes estimate   =   -2668.04222928 Ry
     estimated scf accuracy    <       0.00002007 Ry

     The total energy is the sum of the following terms:

     one-electron contribution =    -212.20494941 Ry
     hartree contribution      =     321.76832713 Ry
     xc contribution           =    -228.41976291 Ry
     ewald contribution        =   -2548.89162337 Ry
     smearing contrib. (-TS)   =      -0.29420218 Ry

     convergence has been achieved in  10 iterations

     Forces acting on atoms (Ry/au):

     atom    1 type  1   force =     0.00000000    0.00000000    0.00000000
     atom    2 type  1   force =     0.00000000    0.00000000    0.00000000
     atom    3 type  1   force =     0.00000000    0.00000000    0.00000000
     atom    4 type  1   force =     0.00000000    0.00000000    0.00000000
     atom    5 type  1   force =     0.00000000    0.00000000    0.00000000
     atom    6 type  1   force =     0.00000000    0.00000000    0.00000000
     atom    7 type  2   force =     0.00000000    0.00000000    0.00000000
     atom    8 type  2   force =     0.00000000    0.00000000    0.00000000

     Total force =     0.000000     Total SCF correction =     0.000000

     entering subroutine stress ...

          total   stress  (Ry/bohr**3)                   (kbar)     P= 5600.31
   0.03807013   0.00000000   0.00000000       5600.31      0.00      0.00
   0.00000000   0.03807013   0.00000000          0.00   5600.31      0.00
   0.00000000   0.00000000   0.03807013          0.00      0.00   5600.31

     BFGS Geometry Optimization

     number of scf cycles    =   1
     number of bfgs steps    =   0

     enthalpy new            =   -2668.0422107377 Ry

[...]

     number of scf cycles    =   3
     number of bfgs steps    =   2

     enthalpy old            =   -2672.1463111739 Ry
     enthalpy new            =   -2668.1035813272 Ry

     CASE: enthalpy_new > enthalpy_old

     new trust radius        =       0.1743346964 bohr

     trust_radius < trust_radius_min

     resetting bfgs history

     Message from routine bfgs:
     history already reset at previous step: stopping
     new conv_thr            =       0.0000010000 Ry

     new unit-cell volume =   1045.64537 a.u.^3 (   154.94866 Ang^3 )

[...]

ATOMIC_POSITIONS (crystal)
Cr       0.000000000   0.500000000   0.250000000
Cr       0.000000000   0.500000000   0.750000000
Cr       0.500000000   0.750000000   0.000000000
Cr       0.500000000   0.250000000   0.000000000
Cr       0.750000000   0.000000000   0.500000000
Cr       0.250000000   0.000000000   0.500000000
Si       0.500000000   0.500000000   0.500000000
Si       0.000000000   0.000000000   0.000000000

     Writing output data file Prototype-La-cP8-Cr3Si.save
     NEW-OLD atomic charge density approx. for the potential
     NEW k-points:
        k(    1) = (   0.0000000   0.0000000   0.0000000), wk =   0.0095238
        k(    2) = (   0.0000000   0.0000000   0.1201219), wk =   0.0190476
        k(    3) = (   0.0000000   0.0000000   0.2402439), wk =   0.0190476
        k(    4) = (   0.0000000   0.0000000   0.3603658), wk =   0.0190476
        k(    5) = (   0.0000000   0.1401422   0.0000000), wk =   0.0190476
        k(    6) = (   0.0000000   0.1401422   0.1201219), wk =   0.0380952
        k(    7) = (   0.0000000   0.1401422   0.2402439), wk =   0.0380952
        k(    8) = (   0.0000000   0.1401422   0.3603658), wk =   0.0380952
        k(    9) = (   0.0000000   0.2802845   0.0000000), wk =   0.0190476
        k(   10) = (   0.0000000   0.2802845   0.1201219), wk =   0.0380952
        k(   11) = (   0.0000000   0.2802845   0.2402439), wk =   0.0380952
        k(   12) = (   0.0000000   0.2802845   0.3603658), wk =   0.0380952
        k(   13) = (   0.0000000  -0.4204267   0.0000000), wk =   0.0095238
        k(   14) = (   0.0000000  -0.4204267   0.1201219), wk =   0.0190476
        k(   15) = (   0.0000000  -0.4204267   0.2402439), wk =   0.0190476
        k(   16) = (   0.0000000  -0.4204267   0.3603658), wk =   0.0190476
        k(   17) = (   0.1681707   0.0000000   0.0000000), wk =   0.0190476
        k(   18) = (   0.1681707   0.0000000   0.1201219), wk =   0.0380952
        k(   19) = (   0.1681707   0.0000000   0.2402439), wk =   0.0380952
        k(   20) = (   0.1681707   0.0000000   0.3603658), wk =   0.0380952
        k(   21) = (   0.1681707   0.1401422   0.0000000), wk =   0.0380952
        k(   22) = (   0.1681707   0.1401422   0.1201219), wk =   0.0761905
        k(   23) = (   0.1681707   0.1401422   0.2402439), wk =   0.0761905
        k(   24) = (   0.1681707   0.1401422   0.3603658), wk =   0.0761905
        k(   25) = (   0.1681707   0.2802845   0.0000000), wk =   0.0380952
        k(   26) = (   0.1681707   0.2802845   0.1201219), wk =   0.0761905
        k(   27) = (   0.1681707   0.2802845   0.2402439), wk =   0.0761905
        k(   28) = (   0.1681707   0.2802845   0.3603658), wk =   0.0761905
        k(   29) = (   0.1681707  -0.4204267   0.0000000), wk =   0.0190476
        k(   30) = (   0.1681707  -0.4204267   0.1201219), wk =   0.0380952
        k(   31) = (   0.1681707  -0.4204267   0.2402439), wk =   0.0380952
        k(   32) = (   0.1681707  -0.4204267   0.3603658), wk =   0.0380952
        k(   33) = (   0.3363414   0.0000000   0.0000000), wk =   0.0190476
        k(   34) = (   0.3363414   0.0000000   0.1201219), wk =   0.0380952
        k(   35) = (   0.3363414   0.0000000   0.2402439), wk =   0.0380952
        k(   36) = (   0.3363414   0.0000000   0.3603658), wk =   0.0380952
        k(   37) = (   0.3363414   0.1401422   0.0000000), wk =   0.0380952
        k(   38) = (   0.3363414   0.1401422   0.1201219), wk =   0.0761905
        k(   39) = (   0.3363414   0.1401422   0.2402439), wk =   0.0761905
        k(   40) = (   0.3363414   0.1401422   0.3603658), wk =   0.0761905
        k(   41) = (   0.3363414   0.2802845   0.0000000), wk =   0.0380952
        k(   42) = (   0.3363414   0.2802845   0.1201219), wk =   0.0761905
        k(   43) = (   0.3363414   0.2802845   0.2402439), wk =   0.0761905
        k(   44) = (   0.3363414   0.2802845   0.3603658), wk =   0.0761905
        k(   45) = (   0.3363414  -0.4204267   0.0000000), wk =   0.0190476
        k(   46) = (   0.3363414  -0.4204267   0.1201219), wk =   0.0380952
        k(   47) = (   0.3363414  -0.4204267   0.2402439), wk =   0.0380952
        k(   48) = (   0.3363414  -0.4204267   0.3603658), wk =   0.0380952

[...]

          total   stress  (Ry/bohr**3)                   (kbar)     P=-1462.49
  -0.00994178   0.00000000   0.00000000      -1462.49      0.00      0.00
   0.00000000  -0.00994178   0.00000000          0.00  -1462.49      0.00
   0.00000000   0.00000000  -0.00994178          0.00      0.00  -1462.49

     The maximum number of steps has been reached.

     End of BFGS Geometry Optimization
Begin final coordinates
     new unit-cell volume =   1045.64537 a.u.^3 (   154.94866 Ang^3 )

CELL_PARAMETERS (alat=  8.53457320)
   1.189267815   0.000000000   0.000000000
   0.000000000   1.189267815   0.000000000
   0.000000000   0.000000000   1.189267815

ATOMIC_POSITIONS (crystal)
Cr       0.000000000   0.500000000   0.250000000
Cr       0.000000000   0.500000000   0.750000000
Cr       0.500000000   0.750000000   0.000000000
Cr       0.500000000   0.250000000   0.000000000
Cr       0.750000000   0.000000000   0.500000000
Cr       0.250000000   0.000000000   0.500000000
Si       0.500000000   0.500000000   0.500000000
Si       0.000000000   0.000000000   0.000000000
End final coordinates

     A final scf calculation at the relaxed structure.
     The G-vectors are recalculated for the final unit cell
     Results may differ from those at the preceding step.

     bravais-lattice index     =            0
     lattice parameter (alat)  =       8.5346  a.u.
     unit-cell volume          =    1045.6454 (a.u.)^3
     number of atoms/cell      =            8
     number of atomic types    =            2
     number of electrons       =       172.00
     number of Kohn-Sham states=          103
     kinetic-energy cutoff     =      40.0000  Ry
     charge density cutoff     =     160.0000  Ry
     convergence threshold     =      1.0E-06
     mixing beta               =       0.7000
     number of iterations used =            8  plain     mixing
     Exchange-correlation      = SLA-PZ-NOGX-NOGC ( 1 1 0 0 0)
     EXX-fraction              =        0.00

     celldm(1)=   8.534573  celldm(2)=   0.000000  celldm(3)=   0.000000
     celldm(4)=   0.000000  celldm(5)=   0.000000  celldm(6)=   0.000000

     crystal axes: (cart. coord. in units of alat)
               a(1) = (   1.189268   0.000000   0.000000 )
               a(2) = (   0.000000   1.189268   0.000000 )
               a(3) = (   0.000000   0.000000   1.189268 )

     reciprocal axes: (cart. coord. in units 2 pi/alat)
               b(1) = (  0.840853  0.000000  0.000000 )
               b(2) = (  0.000000  0.840853  0.000000 )
               b(3) = (  0.000000  0.000000  0.840853 )

     PseudoPot. # 1 for Yb read from file:
     /home/jld5415/pp.La/Yb.UPF
     MD5 check sum: 3e859b81cc28c53ec6aa3a2e888efcdf
     Pseudo is Norm-conserving, Zval = 24.0
     Generated in analytical, separable form
     Using radial grid of 1269 points,  6 beta functions with:
                l(1) =   0
                l(2) =   0
                l(3) =   1
                l(4) =   1
                l(5) =   2
                l(6) =   3

     PseudoPot. # 2 for Nd read from file:
     /home/jld5415/pp.La/Nd.UPF
     MD5 check sum: c66c5b6abe7b5840ced9b1e244e3bed6
     Pseudo is Norm-conserving, Zval = 14.0
     Generated in analytical, separable form
     Using radial grid of 1257 points,  6 beta functions with:
                l(1) =   0
                l(2) =   0
                l(3) =   1
                l(4) =   1
                l(5) =   2
                l(6) =   3

     atomic species   valence    mass     pseudopotential
        Cr            24.00    51.99610     Yb( 1.00)
        Si            14.00    28.08550     Nd( 1.00)

     48 Sym. Ops., with inversion, found (24 have fractional translation)

   Cartesian axes

     site n.     atom                  positions (alat units)
         1           Cr  tau(   1) = (   0.0000000   0.5946339   0.2973170  )
         2           Cr  tau(   2) = (   0.0000000   0.5946339   0.8919509  )
         3           Cr  tau(   3) = (   0.5946339   0.8919509   0.0000000  )
         4           Cr  tau(   4) = (   0.5946339   0.2973170   0.0000000  )
         5           Cr  tau(   5) = (   0.8919509   0.0000000   0.5946339  )
         6           Cr  tau(   6) = (   0.2973170   0.0000000   0.5946339  )
         7           Si  tau(   7) = (   0.5946339   0.5946339   0.5946339  )
         8           Si  tau(   8) = (   0.0000000   0.0000000   0.0000000  )

     number of k points=    48  gaussian smearing, width (Ry)=  0.1000
                       cart. coord. in units 2pi/alat
        k(    1) = (   0.0000000   0.0000000   0.0000000), wk =   0.0095238
        k(    2) = (   0.0000000   0.0000000   0.1201219), wk =   0.0190476
        k(    3) = (   0.0000000   0.0000000   0.2402439), wk =   0.0190476
        k(    4) = (   0.0000000   0.0000000   0.3603658), wk =   0.0190476
        k(    5) = (   0.0000000   0.1401422   0.0000000), wk =   0.0190476
        k(    6) = (   0.0000000   0.1401422   0.1201219), wk =   0.0380952
        k(    7) = (   0.0000000   0.1401422   0.2402439), wk =   0.0380952
        k(    8) = (   0.0000000   0.1401422   0.3603658), wk =   0.0380952
        k(    9) = (   0.0000000   0.2802845   0.0000000), wk =   0.0190476
        k(   10) = (   0.0000000   0.2802845   0.1201219), wk =   0.0380952
        k(   11) = (   0.0000000   0.2802845   0.2402439), wk =   0.0380952
        k(   12) = (   0.0000000   0.2802845   0.3603658), wk =   0.0380952
        k(   13) = (   0.0000000  -0.4204267   0.0000000), wk =   0.0095238
        k(   14) = (   0.0000000  -0.4204267   0.1201219), wk =   0.0190476
        k(   15) = (   0.0000000  -0.4204267   0.2402439), wk =   0.0190476
        k(   16) = (   0.0000000  -0.4204267   0.3603658), wk =   0.0190476
        k(   17) = (   0.1681707   0.0000000   0.0000000), wk =   0.0190476
        k(   18) = (   0.1681707   0.0000000   0.1201219), wk =   0.0380952
        k(   19) = (   0.1681707   0.0000000   0.2402439), wk =   0.0380952
        k(   20) = (   0.1681707   0.0000000   0.3603658), wk =   0.0380952
        k(   21) = (   0.1681707   0.1401422   0.0000000), wk =   0.0380952
        k(   22) = (   0.1681707   0.1401422   0.1201219), wk =   0.0761905
        k(   23) = (   0.1681707   0.1401422   0.2402439), wk =   0.0761905
        k(   24) = (   0.1681707   0.1401422   0.3603658), wk =   0.0761905
        k(   25) = (   0.1681707   0.2802845   0.0000000), wk =   0.0380952
        k(   26) = (   0.1681707   0.2802845   0.1201219), wk =   0.0761905
        k(   27) = (   0.1681707   0.2802845   0.2402439), wk =   0.0761905
        k(   28) = (   0.1681707   0.2802845   0.3603658), wk =   0.0761905
        k(   29) = (   0.1681707  -0.4204267   0.0000000), wk =   0.0190476
        k(   30) = (   0.1681707  -0.4204267   0.1201219), wk =   0.0380952
        k(   31) = (   0.1681707  -0.4204267   0.2402439), wk =   0.0380952
        k(   32) = (   0.1681707  -0.4204267   0.3603658), wk =   0.0380952
        k(   33) = (   0.3363414   0.0000000   0.0000000), wk =   0.0190476
        k(   34) = (   0.3363414   0.0000000   0.1201219), wk =   0.0380952
        k(   35) = (   0.3363414   0.0000000   0.2402439), wk =   0.0380952
        k(   36) = (   0.3363414   0.0000000   0.3603658), wk =   0.0380952
        k(   37) = (   0.3363414   0.1401422   0.0000000), wk =   0.0380952
        k(   38) = (   0.3363414   0.1401422   0.1201219), wk =   0.0761905
        k(   39) = (   0.3363414   0.1401422   0.2402439), wk =   0.0761905
        k(   40) = (   0.3363414   0.1401422   0.3603658), wk =   0.0761905
        k(   41) = (   0.3363414   0.2802845   0.0000000), wk =   0.0380952
        k(   42) = (   0.3363414   0.2802845   0.1201219), wk =   0.0761905
        k(   43) = (   0.3363414   0.2802845   0.2402439), wk =   0.0761905
        k(   44) = (   0.3363414   0.2802845   0.3603658), wk =   0.0761905
        k(   45) = (   0.3363414  -0.4204267   0.0000000), wk =   0.0190476
        k(   46) = (   0.3363414  -0.4204267   0.1201219), wk =   0.0380952
        k(   47) = (   0.3363414  -0.4204267   0.2402439), wk =   0.0380952
        k(   48) = (   0.3363414  -0.4204267   0.3603658), wk =   0.0380952

     Largest allocated arrays     est. size (Mb)     dimensions
     Largest temporary arrays     est. size (Mb)     dimensions

     Initial potential from superposition of free atoms

     Starting from uniform charge
     Starting wfc are    0 randomized atomic wfcs

     Writing output data file Prototype-La-cP8-Cr3Si.save

     Self-consistent Calculation

[...]

     negative rho (up, down):  0.981E-06 0.000E+00

[...]

     iteration # 10     ecut=    40.00 Ry     beta=0.70
     CG style diagonalization
     c_bands:  1 eigenvalues not converged
     ethr =  2.03E-07,  avg # of iterations =  4.5

[...]

     total energy              =   -2677.43990372 Ry
     Harris-Foulkes estimate   =   -2677.43991206 Ry
     estimated scf accuracy    <       0.00001681 Ry

     iteration # 12     ecut=    40.00 Ry     beta=0.70
     CG style diagonalization
     ethr =  9.77E-09,  avg # of iterations =  3.9

     End of self-consistent calculation

[...]

          k = 0.3363-0.4204 0.3604 (  4484 PWs)   bands (ev):

   -94.2454 -94.2381 -94.2355 -94.2352 -94.2333 -94.2289 -53.1853 -53.1805
   -53.1626 -53.1626 -53.1400 -53.1320 -52.9728 -52.9726 -52.9712 -52.9708
   -52.9705 -52.9697 -52.9687 -52.9684 -52.9665 -52.9660 -52.9641 -52.9634
   -17.7291 -17.7291   3.3420   3.3436   3.3733   3.3735   3.4114   3.4176
     4.1328   4.2362   4.4971   4.4996   4.6298   4.6312   4.6682   4.6781
     4.7415   4.7849   4.7853   4.7876   4.7971   4.8209   4.8930   4.8938
     5.0353   5.0364   5.1100   5.1195   5.1205   5.1328   5.1549   5.1578
     5.2360   5.2455   5.2639   5.2680   5.3269   5.3397  16.1069  16.1140
    16.7129  16.7136  17.2334  17.2462  21.7856  21.7858  25.2664  25.2923
    25.4745  25.4869  26.0562  26.2697  26.6000  26.7405  27.4718  27.4813
    27.5345  27.6174  28.3713  28.4708  28.7441  29.1273  31.2968  31.5407
    32.0567  32.1204  32.5048  32.6388  34.2417  34.2517  34.3841  34.3900
    34.7323  34.7581  35.5867  35.7097  36.0273  36.2803  36.5711

     the Fermi energy is    30.8273 ev

!    total energy              =   -2677.43990963 Ry
     Harris-Foulkes estimate   =   -2677.43991018 Ry
     estimated scf accuracy    <       0.00000066 Ry

     The total energy is the sum of the following terms:

     one-electron contribution =    -797.99571971 Ry
     hartree contribution      =     483.06243578 Ry
     xc contribution           =    -218.95158418 Ry
     ewald contribution        =   -2143.24443343 Ry
     smearing contrib. (-TS)   =      -0.31060809 Ry

     convergence has been achieved in  12 iterations

     Forces acting on atoms (Ry/au):

     atom    1 type  1   force =     0.00000000    0.00000000    0.00000000
     atom    2 type  1   force =     0.00000000    0.00000000    0.00000000
     atom    3 type  1   force =     0.00000000    0.00000000    0.00000000
     atom    4 type  1   force =     0.00000000    0.00000000    0.00000000
     atom    5 type  1   force =     0.00000000    0.00000000    0.00000000
     atom    6 type  1   force =     0.00000000    0.00000000    0.00000000
     atom    7 type  2   force =     0.00000000    0.00000000    0.00000000
     atom    8 type  2   force =     0.00000000    0.00000000    0.00000000

     Total force =     0.000000     Total SCF correction =     0.000000

     entering subroutine stress ...

          total   stress  (Ry/bohr**3)                   (kbar)     P=  283.83
   0.00192941   0.00000000   0.00000000        283.83      0.00      0.00
   0.00000000   0.00192941   0.00000000          0.00    283.83      0.00
   0.00000000   0.00000000   0.00192941          0.00      0.00    283.83

     Writing output data file Prototype-La-cP8-Cr3Si.save

     General routines

     Parallel routines

   This run was terminated on:  13:14:14  22Mar2018

   JOB DONE.