     Program PWSCF v.5.0.2 starts on 22Mar2018 at 12:11:37

     Current dimensions of program PWSCF are:
     Max number of different atomic species (ntypx) = 10
     Max number of k-points (npk) =  40000
     Max angular momentum in pseudopotentials (lmaxx) =  3
     Waiting for input...
     Reading input from standard input

     Subspace diagonalization in iterative solution of the eigenvalue problem:
     a serial algorithm will be used

     bravais-lattice index     =            0
     lattice parameter (alat)  =      12.0168  a.u.
     unit-cell volume          =    1187.3413 (a.u.)^3
     number of atoms/cell      =            8
     number of atomic types    =            2
     number of electrons       =       172.00
     number of Kohn-Sham states=          103
     kinetic-energy cutoff     =      40.0000  Ry
     charge density cutoff     =     160.0000  Ry
     convergence threshold     =      1.0E-04
     mixing beta               =       0.7000
     number of iterations used =            8  plain     mixing
     Exchange-correlation      = SLA-PZ-NOGX-NOGC ( 1 1 0 0 0)
     EXX-fraction              =        0.00
     nstep                     =           50

     celldm(1)=  12.016801  celldm(2)=   0.000000  celldm(3)=   0.000000
     celldm(4)=   0.000000  celldm(5)=   0.000000  celldm(6)=   0.000000

     crystal axes: (cart. coord. in units of alat)
               a(1) = (   1.000000   0.000000   0.000000 )
               a(2) = (  -0.500000   0.866025   0.000000 )
               a(3) = (   0.000000   0.000000   0.790093 )

     reciprocal axes: (cart. coord. in units 2 pi/alat)
               b(1) = (  1.000000  0.577350  0.000000 )
               b(2) = (  0.000000  1.154701  0.000000 )
               b(3) = (  0.000000  0.000000  1.265674 )

     PseudoPot. # 1 for Yb read from file:
     /home/jld5415/pp.La/Yb.UPF
     MD5 check sum: 3e859b81cc28c53ec6aa3a2e888efcdf
     Pseudo is Norm-conserving, Zval = 24.0
     Generated in analytical, separable form
     Using radial grid of 1269 points,  6 beta functions with:
                l(1) =   0
                l(2) =   0
                l(3) =   1
                l(4) =   1
                l(5) =   2
                l(6) =   3

     PseudoPot. # 2 for Nd read from file:
     /home/jld5415/pp.La/Nd.UPF
     MD5 check sum: c66c5b6abe7b5840ced9b1e244e3bed6
     Pseudo is Norm-conserving, Zval = 14.0
     Generated in analytical, separable form
     Using radial grid of 1257 points,  6 beta functions with:
                l(1) =   0
                l(2) =   0
                l(3) =   1
                l(4) =   1
                l(5) =   2
                l(6) =   3

     atomic species   valence    mass     pseudopotential
        Mg            24.00    24.30500     Yb( 1.00)
        Cd            14.00   112.41100     Nd( 1.00)

     24 Sym. Ops., with inversion, found (12 have fractional translation)

   Cartesian axes

     site n.     atom                  positions (alat units)
         1           Mg  tau(   1) = (   0.2478935   0.7204716   0.1975233  )
         2           Mg  tau(   2) = (   0.7478935   0.1455538   0.5925699  )
         3           Mg  tau(   3) = (   0.2521065   0.1455538   0.5925699  )
         4           Mg  tau(   4) = (  -0.2478935   0.7204716   0.1975233  )
         5           Mg  tau(   5) = (   0.0000000   0.2911075   0.1975233  )
         6           Mg  tau(   6) = (   0.5000000   0.5749179   0.5925699  )
         7           Cd  tau(   7) = (   0.5000005   0.2886748   0.1975233  )
         8           Cd  tau(   8) = (  -0.0000005   0.5773506   0.5925699  )

     number of k points=    64  gaussian smearing, width (Ry)=  0.1000
                       cart. coord. in units 2pi/alat
        k(    1) = (   0.0000000   0.0000000   0.0000000), wk =   0.0095238
        k(    2) = (   0.0000000   0.0000000   0.1808105), wk =   0.0190476
        k(    3) = (   0.0000000   0.0000000   0.3616210), wk =   0.0190476
        k(    4) = (   0.0000000   0.0000000   0.5424315), wk =   0.0190476
        k(    5) = (   0.0000000   0.1924501   0.0000000), wk =   0.0190476
        k(    6) = (   0.0000000   0.1924501   0.1808105), wk =   0.0380952
        k(    7) = (   0.0000000   0.1924501   0.3616210), wk =   0.0380952
        k(    8) = (   0.0000000   0.1924501   0.5424315), wk =   0.0380952
        k(    9) = (   0.0000000   0.3849002   0.0000000), wk =   0.0190476
        k(   10) = (   0.0000000   0.3849002   0.1808105), wk =   0.0380952
        k(   11) = (   0.0000000   0.3849002   0.3616210), wk =   0.0380952
        k(   12) = (   0.0000000   0.3849002   0.5424315), wk =   0.0380952
        k(   13) = (   0.0000000  -0.5773503   0.0000000), wk =   0.0095238
        k(   14) = (   0.0000000  -0.5773503   0.1808105), wk =   0.0190476
        k(   15) = (   0.0000000  -0.5773503   0.3616210), wk =   0.0190476
        k(   16) = (   0.0000000  -0.5773503   0.5424315), wk =   0.0190476
        k(   17) = (   0.2000000   0.1154701   0.0000000), wk =   0.0190476
        k(   18) = (   0.2000000   0.1154701   0.1808105), wk =   0.0380952
        k(   19) = (   0.2000000   0.1154701   0.3616210), wk =   0.0380952
        k(   20) = (   0.2000000   0.1154701   0.5424315), wk =   0.0380952
        k(   21) = (   0.2000000   0.3079201   0.0000000), wk =   0.0190476
        k(   22) = (   0.2000000   0.3079201   0.1808105), wk =   0.0380952
        k(   23) = (   0.2000000   0.3079201   0.3616210), wk =   0.0380952
        k(   24) = (   0.2000000   0.3079201   0.5424315), wk =   0.0380952
        k(   25) = (   0.2000000   0.5003702   0.0000000), wk =   0.0190476
        k(   26) = (   0.2000000   0.5003702   0.1808105), wk =   0.0380952
        k(   27) = (   0.2000000   0.5003702   0.3616210), wk =   0.0380952
        k(   28) = (   0.2000000   0.5003702   0.5424315), wk =   0.0380952
        k(   29) = (   0.2000000  -0.4618802   0.0000000), wk =   0.0190476
        k(   30) = (   0.2000000  -0.4618802   0.1808105), wk =   0.0380952
        k(   31) = (   0.2000000  -0.4618802   0.3616210), wk =   0.0380952
        k(   32) = (   0.2000000  -0.4618802   0.5424315), wk =   0.0380952
        k(   33) = (   0.2000000  -0.2694301   0.0000000), wk =   0.0190476
        k(   34) = (   0.2000000  -0.2694301   0.1808105), wk =   0.0380952
        k(   35) = (   0.2000000  -0.2694301   0.3616210), wk =   0.0380952
        k(   36) = (   0.2000000  -0.2694301   0.5424315), wk =   0.0380952
        k(   37) = (   0.2000000  -0.0769800   0.0000000), wk =   0.0190476
        k(   38) = (   0.2000000  -0.0769800   0.1808105), wk =   0.0380952
        k(   39) = (   0.2000000  -0.0769800   0.3616210), wk =   0.0380952
        k(   40) = (   0.2000000  -0.0769800   0.5424315), wk =   0.0380952
        k(   41) = (   0.4000000   0.2309401   0.0000000), wk =   0.0190476
        k(   42) = (   0.4000000   0.2309401   0.1808105), wk =   0.0380952
        k(   43) = (   0.4000000   0.2309401   0.3616210), wk =   0.0380952
        k(   44) = (   0.4000000   0.2309401   0.5424315), wk =   0.0380952
        k(   45) = (   0.4000000   0.4233902   0.0000000), wk =   0.0190476
        k(   46) = (   0.4000000   0.4233902   0.1808105), wk =   0.0380952
        k(   47) = (   0.4000000   0.4233902   0.3616210), wk =   0.0380952
        k(   48) = (   0.4000000   0.4233902   0.5424315), wk =   0.0380952
        k(   49) = (   0.4000000   0.6158403   0.0000000), wk =   0.0190476
        k(   50) = (   0.4000000   0.6158403   0.1808105), wk =   0.0380952
        k(   51) = (   0.4000000   0.6158403   0.3616210), wk =   0.0380952
        k(   52) = (   0.4000000   0.6158403   0.5424315), wk =   0.0380952
        k(   53) = (   0.4000000  -0.3464102   0.0000000), wk =   0.0190476
        k(   54) = (   0.4000000  -0.3464102   0.1808105), wk =   0.0380952
        k(   55) = (   0.4000000  -0.3464102   0.3616210), wk =   0.0380952
        k(   56) = (   0.4000000  -0.3464102   0.5424315), wk =   0.0380952
        k(   57) = (   0.4000000  -0.1539601   0.0000000), wk =   0.0190476
        k(   58) = (   0.4000000  -0.1539601   0.1808105), wk =   0.0380952
        k(   59) = (   0.4000000  -0.1539601   0.3616210), wk =   0.0380952
        k(   60) = (   0.4000000  -0.1539601   0.5424315), wk =   0.0380952
        k(   61) = (   0.4000000   0.0384900   0.0000000), wk =   0.0190476
        k(   62) = (   0.4000000   0.0384900   0.1808105), wk =   0.0380952
        k(   63) = (   0.4000000   0.0384900   0.3616210), wk =   0.0380952
        k(   64) = (   0.4000000   0.0384900   0.5424315), wk =   0.0380952

     Largest allocated arrays     est. size (Mb)     dimensions
     Largest temporary arrays     est. size (Mb)     dimensions

     Initial potential from superposition of free atoms

     Starting from uniform charge
     Starting wfc are    0 randomized atomic wfcs

     Self-consistent Calculation

     iteration #  1     ecut=    40.00 Ry     beta=0.70
     CG style diagonalization
     c_bands:  4 eigenvalues not converged
     c_bands:  3 eigenvalues not converged
     c_bands:  4 eigenvalues not converged
     c_bands:  1 eigenvalues not converged
     c_bands:  3 eigenvalues not converged
     c_bands:  3 eigenvalues not converged
     c_bands:  4 eigenvalues not converged
     c_bands:  2 eigenvalues not converged
     c_bands:  2 eigenvalues not converged
     c_bands:  2 eigenvalues not converged
     c_bands:  4 eigenvalues not converged
     c_bands:  4 eigenvalues not converged
     c_bands:  1 eigenvalues not converged
     c_bands:  5 eigenvalues not converged
     c_bands:  5 eigenvalues not converged
     c_bands:  4 eigenvalues not converged
     c_bands:  2 eigenvalues not converged
     c_bands:  3 eigenvalues not converged
     c_bands:  3 eigenvalues not converged
     c_bands:  1 eigenvalues not converged
     c_bands:  1 eigenvalues not converged
     c_bands:  2 eigenvalues not converged
     c_bands:  3 eigenvalues not converged
     c_bands:  3 eigenvalues not converged
     c_bands:  2 eigenvalues not converged
     c_bands:  4 eigenvalues not converged
     c_bands:  3 eigenvalues not converged
     c_bands:  3 eigenvalues not converged
     c_bands:  3 eigenvalues not converged
     c_bands:  2 eigenvalues not converged
     c_bands:  5 eigenvalues not converged
     c_bands:  2 eigenvalues not converged
     c_bands:  5 eigenvalues not converged
     c_bands:  1 eigenvalues not converged
     c_bands:  4 eigenvalues not converged
     c_bands:  5 eigenvalues not converged
     c_bands:  4 eigenvalues not converged
     c_bands:  3 eigenvalues not converged
     c_bands:  2 eigenvalues not converged
     c_bands:  3 eigenvalues not converged
     c_bands:  3 eigenvalues not converged
     c_bands:  3 eigenvalues not converged
     c_bands:  2 eigenvalues not converged
     c_bands:  1 eigenvalues not converged
     c_bands:  4 eigenvalues not converged
     c_bands:  1 eigenvalues not converged
     c_bands:  3 eigenvalues not converged
     c_bands:  4 eigenvalues not converged
     c_bands:  3 eigenvalues not converged
     c_bands:  2 eigenvalues not converged
[...]
        k(   13) = (   0.0000000  -0.5746233   0.0000000), wk =   0.0095238
        k(   14) = (   0.0000000  -0.5746233   0.1801760), wk =   0.0190476
        k(   15) = (   0.0000000  -0.5746233   0.3603521), wk =   0.0190476
        k(   16) = (   0.0000000  -0.5746233   0.5405281), wk =   0.0190476
        k(   17) = (   0.1990553   0.1149247   0.0000000), wk =   0.0190476
        k(   18) = (   0.1990553   0.1149247   0.1801760), wk =   0.0380952
        k(   19) = (   0.1990553   0.1149247   0.3603521), wk =   0.0380952
        k(   20) = (   0.1990553   0.1149247   0.5405281), wk =   0.0380952
        k(   21) = (   0.1990553   0.3064658   0.0000000), wk =   0.0190476
        k(   22) = (   0.1990553   0.3064658   0.1801760), wk =   0.0380952
        k(   23) = (   0.1990553   0.3064658   0.3603521), wk =   0.0380952
        k(   24) = (   0.1990553   0.3064658   0.5405281), wk =   0.0380952
        k(   25) = (   0.1990553   0.4980068   0.0000000), wk =   0.0190476
        k(   26) = (   0.1990553   0.4980068   0.1801760), wk =   0.0380952
        k(   27) = (   0.1990553   0.4980068   0.3603521), wk =   0.0380952
        k(   28) = (   0.1990553   0.4980068   0.5405281), wk =   0.0380952
        k(   29) = (   0.1990553  -0.4596986   0.0000000), wk =   0.0190476
        k(   30) = (   0.1990553  -0.4596986   0.1801760), wk =   0.0380952
        k(   31) = (   0.1990553  -0.4596986   0.3603521), wk =   0.0380952
        k(   32) = (   0.1990553  -0.4596986   0.5405281), wk =   0.0380952
        k(   33) = (   0.1990553  -0.2681575   0.0000000), wk =   0.0190476
        k(   34) = (   0.1990553  -0.2681575   0.1801760), wk =   0.0380952
        k(   35) = (   0.1990553  -0.2681575   0.3603521), wk =   0.0380952
        k(   36) = (   0.1990553  -0.2681575   0.5405281), wk =   0.0380952
        k(   37) = (   0.1990553  -0.0766164   0.0000000), wk =   0.0190476
        k(   38) = (   0.1990553  -0.0766164   0.1801760), wk =   0.0380952
        k(   39) = (   0.1990553  -0.0766164   0.3603521), wk =   0.0380952
        k(   40) = (   0.1990553  -0.0766164   0.5405281), wk =   0.0380952
        k(   41) = (   0.3981107   0.2298493   0.0000000), wk =   0.0190476
        k(   42) = (   0.3981107   0.2298493   0.1801760), wk =   0.0380952
        k(   43) = (   0.3981107   0.2298493   0.3603521), wk =   0.0380952
        k(   44) = (   0.3981107   0.2298493   0.5405281), wk =   0.0380952
        k(   45) = (   0.3981107   0.4213904   0.0000000), wk =   0.0190476
        k(   46) = (   0.3981107   0.4213904   0.1801760), wk =   0.0380952
        k(   47) = (   0.3981107   0.4213904   0.3603521), wk =   0.0380952
        k(   48) = (   0.3981107   0.4213904   0.5405281), wk =   0.0380952
        k(   49) = (   0.3981107   0.6129315   0.0000000), wk =   0.0190476
        k(   50) = (   0.3981107   0.6129315   0.1801760), wk =   0.0380952
        k(   51) = (   0.3981107   0.6129315   0.3603521), wk =   0.0380952
        k(   52) = (   0.3981107   0.6129315   0.5405281), wk =   0.0380952
        k(   53) = (   0.3981107  -0.3447740   0.0000000), wk =   0.0190476
        k(   54) = (   0.3981107  -0.3447740   0.1801760), wk =   0.0380952
        k(   55) = (   0.3981107  -0.3447740   0.3603521), wk =   0.0380952
        k(   56) = (   0.3981107  -0.3447740   0.5405281), wk =   0.0380952
        k(   57) = (   0.3981107  -0.1532329   0.0000000), wk =   0.0190476
        k(   58) = (   0.3981107  -0.1532329   0.1801760), wk =   0.0380952
        k(   59) = (   0.3981107  -0.1532329   0.3603521), wk =   0.0380952
        k(   60) = (   0.3981107  -0.1532329   0.5405281), wk =   0.0380952
        k(   61) = (   0.3981107   0.0383082   0.0000000), wk =   0.0190476
        k(   62) = (   0.3981107   0.0383082   0.1801760), wk =   0.0380952
        k(   63) = (   0.3981107   0.0383082   0.3603521), wk =   0.0380952
        k(   64) = (   0.3981107   0.0383082   0.5405281), wk =   0.0380952

[...]

     The maximum number of steps has been reached.

     End of BFGS Geometry Optimization
Begin final coordinates
     new unit-cell volume =   1202.85847 a.u.^3 (   178.24523 Ang^3 )

CELL_PARAMETERS (alat= 12.01680127)
   1.004745695   0.000000000   0.000000000
  -0.502372848   0.870135296   0.000000000
   0.000000000   0.000000000   0.792875417

ATOMIC_POSITIONS (crystal)
Mg       0.654210913   0.827105457   0.250000000
Mg       0.827105457   0.172894543   0.750000000
Mg       0.345789087   0.172894543   0.750000000
Mg       0.172894543   0.827105457   0.250000000
Mg       0.172894543   0.345789087   0.250000000
Mg       0.827105457   0.654210913   0.750000000
Cd       0.666667000   0.333333000   0.250000000
Cd       0.333333000   0.666667000   0.750000000
End final coordinates

     A final scf calculation at the relaxed structure.
     The G-vectors are recalculated for the final unit cell
     Results may differ from those at the preceding step.

     bravais-lattice index     =            0
     lattice parameter (alat)  =      12.0168  a.u.
     unit-cell volume          =    1202.8585 (a.u.)^3
     number of atoms/cell      =            8
     number of atomic types    =            2
     number of electrons       =       172.00
     number of Kohn-Sham states=          103
     kinetic-energy cutoff     =      40.0000  Ry
     charge density cutoff     =     160.0000  Ry
     convergence threshold     =      1.8E-06
     mixing beta               =       0.7000
     number of iterations used =            8  plain     mixing
     Exchange-correlation      = SLA-PZ-NOGX-NOGC ( 1 1 0 0 0)
     EXX-fraction              =        0.00

     celldm(1)=  12.016801  celldm(2)=   0.000000  celldm(3)=   0.000000
     celldm(4)=   0.000000  celldm(5)=   0.000000  celldm(6)=   0.000000

     crystal axes: (cart. coord. in units of alat)
               a(1) = (   1.004746   0.000000   0.000000 )
               a(2) = (  -0.502373   0.870135   0.000000 )
               a(3) = (   0.000000   0.000000   0.792875 )

     reciprocal axes: (cart. coord. in units 2 pi/alat)
               b(1) = (  0.995277  0.574623  0.000000 )
               b(2) = (  0.000000  1.149247  0.000000 )
               b(3) = (  0.000000  0.000000  1.261232 )

     PseudoPot. # 1 for Yb read from file:
     /home/jld5415/pp.La/Yb.UPF
     MD5 check sum: 3e859b81cc28c53ec6aa3a2e888efcdf
     Pseudo is Norm-conserving, Zval = 24.0
     Generated in analytical, separable form
     Using radial grid of 1269 points,  6 beta functions with:
                l(1) =   0
                l(2) =   0
                l(3) =   1
                l(4) =   1
                l(5) =   2
                l(6) =   3

     PseudoPot. # 2 for Nd read from file:
     /home/jld5415/pp.La/Nd.UPF
     MD5 check sum: c66c5b6abe7b5840ced9b1e244e3bed6
     Pseudo is Norm-conserving, Zval = 14.0
     Generated in analytical, separable form
     Using radial grid of 1257 points,  6 beta functions with:
                l(1) =   0
                l(2) =   0
                l(3) =   1
                l(4) =   1
                l(5) =   2
                l(6) =   3

     atomic species   valence    mass     pseudopotential
        Mg            24.00    24.30500     Yb( 1.00)
        Cd            14.00   112.41100     Nd( 1.00)

     24 Sym. Ops., with inversion, found (12 have fractional translation)

   Cartesian axes

     site n.     atom                  positions (alat units)
         1           Mg  tau(   1) = (   0.2418003   0.7196937   0.1982189  )
         2           Mg  tau(   2) = (   0.7441731   0.1504416   0.5946566  )
         3           Mg  tau(   3) = (   0.2605726   0.1504416   0.5946566  )
         4           Mg  tau(   4) = (  -0.2418003   0.7196937   0.1982189  )
         5           Mg  tau(   5) = (   0.0000000   0.3008833   0.1982189  )
         6           Mg  tau(   6) = (   0.5023728   0.5692520   0.5946566  )
         7           Cd  tau(   7) = (   0.5023733   0.2900448   0.1982189  )
         8           Cd  tau(   8) = (  -0.0000005   0.5800905   0.5946566  )

     number of k points=    64  gaussian smearing, width (Ry)=  0.1000
                       cart. coord. in units 2pi/alat
        k(    1) = (   0.0000000   0.0000000   0.0000000), wk =   0.0095238
        k(    2) = (   0.0000000   0.0000000   0.1801760), wk =   0.0190476
        k(    3) = (   0.0000000   0.0000000   0.3603521), wk =   0.0190476
        k(    4) = (   0.0000000   0.0000000   0.5405281), wk =   0.0190476
        k(    5) = (   0.0000000   0.1915411   0.0000000), wk =   0.0190476
        k(    6) = (   0.0000000   0.1915411   0.1801760), wk =   0.0380952
        k(    7) = (   0.0000000   0.1915411   0.3603521), wk =   0.0380952
        k(    8) = (   0.0000000   0.1915411   0.5405281), wk =   0.0380952
        k(    9) = (   0.0000000   0.3830822   0.0000000), wk =   0.0190476
        k(   10) = (   0.0000000   0.3830822   0.1801760), wk =   0.0380952
        k(   11) = (   0.0000000   0.3830822   0.3603521), wk =   0.0380952
        k(   12) = (   0.0000000   0.3830822   0.5405281), wk =   0.0380952
        k(   13) = (   0.0000000  -0.5746233   0.0000000), wk =   0.0095238
        k(   14) = (   0.0000000  -0.5746233   0.1801760), wk =   0.0190476
        k(   15) = (   0.0000000  -0.5746233   0.3603521), wk =   0.0190476
        k(   16) = (   0.0000000  -0.5746233   0.5405281), wk =   0.0190476
        k(   17) = (   0.1990553   0.1149247   0.0000000), wk =   0.0190476
        k(   18) = (   0.1990553   0.1149247   0.1801760), wk =   0.0380952
        k(   19) = (   0.1990553   0.1149247   0.3603521), wk =   0.0380952
        k(   20) = (   0.1990553   0.1149247   0.5405281), wk =   0.0380952
        k(   21) = (   0.1990553   0.3064658   0.0000000), wk =   0.0190476
        k(   22) = (   0.1990553   0.3064658   0.1801760), wk =   0.0380952
        k(   23) = (   0.1990553   0.3064658   0.3603521), wk =   0.0380952
        k(   24) = (   0.1990553   0.3064658   0.5405281), wk =   0.0380952
        k(   25) = (   0.1990553   0.4980068   0.0000000), wk =   0.0190476
        k(   26) = (   0.1990553   0.4980068   0.1801760), wk =   0.0380952
        k(   27) = (   0.1990553   0.4980068   0.3603521), wk =   0.0380952
        k(   28) = (   0.1990553   0.4980068   0.5405281), wk =   0.0380952
        k(   29) = (   0.1990553  -0.4596986   0.0000000), wk =   0.0190476
        k(   30) = (   0.1990553  -0.4596986   0.1801760), wk =   0.0380952
        k(   31) = (   0.1990553  -0.4596986   0.3603521), wk =   0.0380952
        k(   32) = (   0.1990553  -0.4596986   0.5405281), wk =   0.0380952
        k(   33) = (   0.1990553  -0.2681575   0.0000000), wk =   0.0190476
        k(   34) = (   0.1990553  -0.2681575   0.1801760), wk =   0.0380952
        k(   35) = (   0.1990553  -0.2681575   0.3603521), wk =   0.0380952
        k(   36) = (   0.1990553  -0.2681575   0.5405281), wk =   0.0380952
        k(   37) = (   0.1990553  -0.0766164   0.0000000), wk =   0.0190476
        k(   38) = (   0.1990553  -0.0766164   0.1801760), wk =   0.0380952
        k(   39) = (   0.1990553  -0.0766164   0.3603521), wk =   0.0380952
        k(   40) = (   0.1990553  -0.0766164   0.5405281), wk =   0.0380952
        k(   41) = (   0.3981107   0.2298493   0.0000000), wk =   0.0190476
        k(   42) = (   0.3981107   0.2298493   0.1801760), wk =   0.0380952
        k(   43) = (   0.3981107   0.2298493   0.3603521), wk =   0.0380952
        k(   44) = (   0.3981107   0.2298493   0.5405281), wk =   0.0380952
        k(   45) = (   0.3981107   0.4213904   0.0000000), wk =   0.0190476
        k(   46) = (   0.3981107   0.4213904   0.1801760), wk =   0.0380952
        k(   47) = (   0.3981107   0.4213904   0.3603521), wk =   0.0380952
        k(   48) = (   0.3981107   0.4213904   0.5405281), wk =   0.0380952
        k(   49) = (   0.3981107   0.6129315   0.0000000), wk =   0.0190476
        k(   50) = (   0.3981107   0.6129315   0.1801760), wk =   0.0380952
        k(   51) = (   0.3981107   0.6129315   0.3603521), wk =   0.0380952
        k(   52) = (   0.3981107   0.6129315   0.5405281), wk =   0.0380952
        k(   53) = (   0.3981107  -0.3447740   0.0000000), wk =   0.0190476
        k(   54) = (   0.3981107  -0.3447740   0.1801760), wk =   0.0380952
        k(   55) = (   0.3981107  -0.3447740   0.3603521), wk =   0.0380952
        k(   56) = (   0.3981107  -0.3447740   0.5405281), wk =   0.0380952
        k(   57) = (   0.3981107  -0.1532329   0.0000000), wk =   0.0190476
        k(   58) = (   0.3981107  -0.1532329   0.1801760), wk =   0.0380952
        k(   59) = (   0.3981107  -0.1532329   0.3603521), wk =   0.0380952
        k(   60) = (   0.3981107  -0.1532329   0.5405281), wk =   0.0380952
        k(   61) = (   0.3981107   0.0383082   0.0000000), wk =   0.0190476
        k(   62) = (   0.3981107   0.0383082   0.1801760), wk =   0.0380952
        k(   63) = (   0.3981107   0.0383082   0.3603521), wk =   0.0380952
        k(   64) = (   0.3981107   0.0383082   0.5405281), wk =   0.0380952

     Largest allocated arrays     est. size (Mb)     dimensions
     Largest temporary arrays     est. size (Mb)     dimensions

     Initial potential from superposition of free atoms

     Starting from uniform charge
     Starting wfc are    0 randomized atomic wfcs

     Writing output data file Prototype-La-hP8-Mg3Cd.save

     Self-consistent Calculation

[...]

     iteration # 13     ecut=    40.00 Ry     beta=0.70
     CG style diagonalization
     c_bands:  1 eigenvalues not converged
     ethr =  1.39E-06,  avg # of iterations =  3.0

[...]

     total energy              =   -2678.42451707 Ry
     Harris-Foulkes estimate   =   -2678.42456773 Ry
     estimated scf accuracy    <       0.00008786 Ry

     iteration # 17     ecut=    40.00 Ry     beta=0.70
     CG style diagonalization
     ethr =  5.11E-08,  avg # of iterations =  3.6

     End of self-consistent calculation

[...]

          k = 0.3981 0.0383 0.5405 (  5132 PWs)   bands (ev):

   -98.4074 -98.3959 -98.3823 -98.3777 -98.3711 -98.3643 -57.1952 -57.1938
   -57.1888 -57.1848 -57.1846 -57.1837 -57.1766 -57.1731 -57.1688 -57.1656
   -57.1644 -57.1633 -57.1574 -57.1564 -57.1538 -57.1525 -57.1514 -57.1476
   -22.0212 -22.0207  -0.7425  -0.7399  -0.6140  -0.6017  -0.5620  -0.5574
     0.5152   0.5226   0.5824   0.5891   0.6411   0.6494   0.7498   0.7645
     0.7692   0.8009   0.8138   0.8398   0.8448   0.9596   0.9642   0.9787
     1.0096   1.0131   1.0343   1.0382   1.0547   1.0658   1.0771   1.0891
     1.1458   1.1483   1.2288   1.2362   1.2576   1.2815  11.6889  12.4795
    13.3634  13.7633  14.5550  14.8995  18.0894  18.6139  18.7013  19.1591
    20.4130  20.4665  21.6344  22.1918  22.4642  22.4892  23.8363  23.9846
    24.1839  24.2867  24.6915  25.0988  25.4689  25.6474  26.4025  27.0010
    27.2950  27.4735  27.8647  28.0613  28.4643  28.6752  29.2515  29.3231
    29.5980  30.7381  30.8792  31.0227  31.3287  31.8982  32.2519

     the Fermi energy is    26.0187 ev

!    total energy              =   -2678.42453892 Ry
     Harris-Foulkes estimate   =   -2678.42454015 Ry
     estimated scf accuracy    <       0.00000153 Ry

     The total energy is the sum of the following terms:

     one-electron contribution =    -935.53909345 Ry
     hartree contribution      =     525.26907364 Ry
     xc contribution           =    -217.18206659 Ry
     ewald contribution        =   -2050.60351139 Ry
     smearing contrib. (-TS)   =      -0.36894114 Ry

     convergence has been achieved in  17 iterations

     Forces acting on atoms (Ry/au):

     atom    1 type  1   force =     0.01196020    0.00690523    0.00000000
     atom    2 type  1   force =     0.01196020   -0.00690523    0.00000000
     atom    3 type  1   force =    -0.01196020   -0.00690523    0.00000000
     atom    4 type  1   force =    -0.01196020    0.00690523    0.00000000
     atom    5 type  1   force =     0.00000000   -0.01381045    0.00000000
     atom    6 type  1   force =     0.00000000    0.01381045    0.00000000
     atom    7 type  2   force =     0.00000000    0.00000000    0.00000000
     atom    8 type  2   force =     0.00000000    0.00000000    0.00000000

     Total force =     0.033829     Total SCF correction =     0.000000

     entering subroutine stress ...

          total   stress  (Ry/bohr**3)                   (kbar)     P= -171.50
  -0.00111366   0.00000000   0.00000000       -163.83      0.00      0.00
   0.00000000  -0.00111366   0.00000000          0.00   -163.83      0.00
   0.00000000   0.00000000  -0.00127011          0.00      0.00   -186.84

     Writing output data file Prototype-La-hP8-Mg3Cd.save

     General routines

     Parallel routines

   This run was terminated on:  14: 0:18  22Mar2018

   JOB DONE.