     Program PWSCF v.5.0.2 starts on 22Mar2018 at 12:11:38

     Current dimensions of program PWSCF are:
     Max number of different atomic species (ntypx) = 10
     Max number of k-points (npk) =  40000
     Max angular momentum in pseudopotentials (lmaxx) =  3
     Waiting for input...
     Reading input from standard input

     Subspace diagonalization in iterative solution of the eigenvalue problem:
     a serial algorithm will be used

     bravais-lattice index     =            0
     lattice parameter (alat)  =       7.0151  a.u.
     unit-cell volume          =     862.2778 (a.u.)^3
     number of atoms/cell      =           12
     number of atomic types    =            2
     number of electrons       =       248.00
     number of Kohn-Sham states=          149
     kinetic-energy cutoff     =      40.0000  Ry
     charge density cutoff     =     160.0000  Ry
     convergence threshold     =      1.0E-04
     mixing beta               =       0.7000
     number of iterations used =            8  plain     mixing
     Exchange-correlation      = SLA-PZ-NOGX-NOGC ( 1 1 0 0 0)
     EXX-fraction              =        0.00
     nstep                     =           50

     celldm(1)=   7.015105  celldm(2)=   0.000000  celldm(3)=   0.000000
     celldm(4)=   0.000000  celldm(5)=   0.000000  celldm(6)=   0.000000

     crystal axes: (cart. coord. in units of alat)
               a(1) = (   1.000000   0.000000   0.000000 )
               a(2) = (   0.000000   1.315963   0.000000 )
               a(3) = (   0.000000   0.000000   1.898020 )

     reciprocal axes: (cart. coord. in units 2 pi/alat)
               b(1) = (  1.000000  0.000000  0.000000 )
               b(2) = (  0.000000  0.759900  0.000000 )
               b(3) = (  0.000000  0.000000  0.526865 )

     PseudoPot. # 1 for Yb read from file:
     /home/jld5415/pp.La/Yb.UPF
     MD5 check sum: 3e859b81cc28c53ec6aa3a2e888efcdf
     Pseudo is Norm-conserving, Zval = 24.0
     Generated in analytical, separable form
     Using radial grid of 1269 points,  6 beta functions with:
                l(1) =   0
                l(2) =   0
                l(3) =   1
                l(4) =   1
                l(5) =   2
                l(6) =   3

     PseudoPot. # 2 for Nd read from file:
     /home/jld5415/pp.La/Nd.UPF
     MD5 check sum: c66c5b6abe7b5840ced9b1e244e3bed6
     Pseudo is Norm-conserving, Zval = 14.0
     Generated in analytical, separable form
     Using radial grid of 1257 points,  6 beta functions with:
                l(1) =   0
                l(2) =   0
                l(3) =   1
                l(4) =   1
                l(5) =   2
                l(6) =   3

     atomic species   valence    mass     pseudopotential
        Co            24.00    58.93320     Yb( 1.00)
        Si            14.00    28.08550     Nd( 1.00)

      8 Sym. Ops., with inversion, found ( 6 have fractional translation)

   Cartesian axes

     site n.     atom                  positions (alat units)
         1           Co  tau(   1) = (   0.7500000   1.0875135   0.8270358  )
         2           Co  tau(   2) = (   0.2500000   0.2284499   1.0709846  )
         3           Co  tau(   3) = (   0.7500000   0.4295318   0.1219744  )
         4           Co  tau(   4) = (   0.2500000   0.8864316   1.7760460  )
         5           Co  tau(   5) = (   0.2500000   0.7067855   0.5358966  )
         6           Co  tau(   6) = (   0.7500000   0.6091779   1.3621238  )
         7           Co  tau(   7) = (   0.2500000   0.0488038   0.4131136  )
         8           Co  tau(   8) = (   0.7500000   1.2671596   1.4849068  )
         9           Si  tau(   9) = (   0.2500000   0.2669484   1.6960710  )
        10           Si  tau(  10) = (   0.7500000   1.0490149   0.2019494  )
        11           Si  tau(  11) = (   0.2500000   0.9249301   1.1509596  )
        12           Si  tau(  12) = (   0.7500000   0.3910333   0.7470608  )

     number of k points=    12  gaussian smearing, width (Ry)=  0.1000
                       cart. coord. in units 2pi/alat
        k(    1) = (   0.0000000   0.0000000   0.0000000), wk =   0.0833333
        k(    2) = (   0.0000000   0.0000000   0.1317162), wk =   0.1666667
        k(    3) = (   0.0000000   0.0000000  -0.2634324), wk =   0.0833333
        k(    4) = (   0.0000000   0.2532999   0.0000000), wk =   0.1666667
        k(    5) = (   0.0000000   0.2532999   0.1317162), wk =   0.3333333
        k(    6) = (   0.0000000   0.2532999  -0.2634324), wk =   0.1666667
        k(    7) = (  -0.5000000   0.0000000   0.0000000), wk =   0.0833333
        k(    8) = (  -0.5000000   0.0000000   0.1317162), wk =   0.1666667
        k(    9) = (  -0.5000000   0.0000000  -0.2634324), wk =   0.0833333
        k(   10) = (  -0.5000000   0.2532999   0.0000000), wk =   0.1666667
        k(   11) = (  -0.5000000   0.2532999   0.1317162), wk =   0.3333333
        k(   12) = (  -0.5000000   0.2532999  -0.2634324), wk =   0.1666667

     Largest allocated arrays     est. size (Mb)     dimensions
     Largest temporary arrays     est. size (Mb)     dimensions

     Initial potential from superposition of free atoms

     Starting from uniform charge
     Starting wfc are    0 randomized atomic wfcs

     Self-consistent Calculation

     iteration #  1     ecut=    40.00 Ry     beta=0.70
     CG style diagonalization
     ethr =  1.00E-02,  avg # of iterations = 17.0

     total energy              =   -2680.21084320 Ry
     Harris-Foulkes estimate   =   -4523.14115298 Ry
     estimated scf accuracy    <    2248.95427493 Ry

     iteration #  2     ecut=    40.00 Ry     beta=0.70
     CG style diagonalization
     c_bands:  4 eigenvalues not converged
     c_bands:  2 eigenvalues not converged
     c_bands:  2 eigenvalues not converged
     c_bands:  3 eigenvalues not converged
     c_bands:  2 eigenvalues not converged
     ethr =  1.00E-02,  avg # of iterations = 15.9

[...]

     End of self-consistent calculation

          k = 0.0000 0.0000 0.0000 (  3675 PWs)   bands (ev):

   -70.7748 -70.7618 -70.7241 -70.7222 -70.7035 -70.6950 -70.6434 -70.6353
   -30.0734 -29.9975 -29.9917 -29.9360 -29.9028 -29.8670 -29.8575 -29.8554
   -29.8091 -29.7726 -29.7607 -29.7444 -29.7427 -29.7249 -29.6853 -29.6687
   -29.6643 -29.6518 -29.6404 -29.6278 -29.5996 -29.5334 -29.5124 -29.4903
     4.0485   4.3099   4.3352   4.4540  20.7304  21.3082  21.4556  21.7336
    21.9469  22.2441  22.3742  22.5935  22.7966  23.2841  23.8985  24.4838
    24.5815  24.5830  24.7869  25.0011  25.0981  25.2628  25.4219  25.6665
    26.3390  26.3822  26.3950  26.4116  26.5324  26.5706  26.8915  26.9712
    27.0862  27.2465  27.4723  27.4993  27.6554  27.6817  27.6913  27.7376
    27.7489  28.0762  28.1487  28.5487  29.1566  29.1912  29.3211  29.3245
    29.5367  30.0017  30.1658  30.3981  30.5099  31.1124  31.2193  31.4905
    32.9454  36.6425  38.1961  38.2687  41.0464  41.8522  42.2301  42.8459
    43.3597  43.9526  44.2194  44.8775  46.0318  46.2422  46.2932  46.6206
    47.1540  47.3139  47.5883  47.7329  48.0811  48.6234  50.0056  50.2590
    50.5500  51.3286  51.8625  51.9065  53.3421  53.4843  53.4932  55.3314
    55.3640  55.3681  55.5297  55.5355  55.9066  55.9688  56.3135  57.0751
    57.2897  57.2913  57.5795  58.4779  58.5745  59.0203  59.3269  59.3764
    59.6155  59.9049  59.9289  60.0378  60.1746  60.2699  60.4036  60.9759
    61.4202  61.7033  62.0994  62.2367  62.2983

[...]

          k =-0.5000 0.0000 0.0000 (  3722 PWs)   bands (ev):

[...]

     the Fermi energy is    55.5546 ev

!    total energy              =   -3700.63441733 Ry
     Harris-Foulkes estimate   =   -3700.63446292 Ry
     estimated scf accuracy    <       0.00005487 Ry

     The total energy is the sum of the following terms:

     one-electron contribution =    -122.22691799 Ry
     hartree contribution      =     408.63299905 Ry
     xc contribution           =    -326.58851402 Ry
     ewald contribution        =   -3660.06438051 Ry
     smearing contrib. (-TS)   =      -0.38760386 Ry

     convergence has been achieved in  10 iterations

     Forces acting on atoms (Ry/au):

     atom    1 type  1   force =     0.00000000   -0.12594005   -0.12402105
     atom    2 type  1   force =     0.00000000    0.12594005    0.12402105
     atom    3 type  1   force =     0.00000000   -0.12594005    0.12402105
     atom    4 type  1   force =     0.00000000    0.12594005   -0.12402105
     atom    5 type  1   force =     0.00000000    0.13408904   -0.07317910
     atom    6 type  1   force =     0.00000000   -0.13408904    0.07317910
     atom    7 type  1   force =     0.00000000    0.13408904    0.07317910
     atom    8 type  1   force =     0.00000000   -0.13408904   -0.07317910
     atom    9 type  2   force =     0.00000000   -0.23563607    0.00219033
     atom   10 type  2   force =     0.00000000    0.23563607   -0.00219033
     atom   11 type  2   force =     0.00000000   -0.23563607   -0.00219033
     atom   12 type  2   force =     0.00000000    0.23563607    0.00219033

     Total force =     0.663645     Total SCF correction =     0.000000

     entering subroutine stress ...

          total   stress  (Ry/bohr**3)                   (kbar)     P= 7259.39
   0.05130336   0.00000000   0.00000000       7546.98      0.00      0.00
   0.00000000   0.04709515   0.00000000          0.00   6927.93      0.00
   0.00000000   0.00000000   0.04964657          0.00      0.00   7303.26

     BFGS Geometry Optimization

     number of scf cycles    =   1
     number of bfgs steps    =   0

     enthalpy new            =   -3700.6344173305 Ry

     new trust radius        =       0.5000000000 bohr
     new conv_thr            =       0.0001000000 Ry

     new unit-cell volume =   1091.92991 a.u.^3 (   161.80732 Ang^3 )

CELL_PARAMETERS (alat=  7.01510508)
   1.085136619   0.000000000   0.000000000
   0.000000000   1.418810116   0.000000000
   0.000000000   0.000000000   2.054392998

ATOMIC_POSITIONS (crystal)
Co       0.750000000   0.825495442   0.435117712
Co       0.250000000   0.174504558   0.564882288
Co       0.750000000   0.325495442   0.064882288
Co       0.250000000   0.674504558   0.935117712
Co       0.250000000   0.538050153   0.281980177
Co       0.750000000   0.461949847   0.718019823
Co       0.250000000   0.038050153   0.218019823
Co       0.750000000   0.961949847   0.781980177
Si       0.250000000   0.201159684   0.893610920
Si       0.750000000   0.798840316   0.106389080
Si       0.250000000   0.701159684   0.606389080
Si       0.750000000   0.298840316   0.393610920

     Writing output data file Prototype-La-oP12-Co2Si.save
     NEW-OLD atomic charge density approx. for the potential
     NEW k-points:
        k(    1) = (   0.0000000   0.0000000   0.0000000), wk =   0.0833333
        k(    2) = (   0.0000000   0.0000000   0.1216904), wk =   0.1666667
        k(    3) = (   0.0000000   0.0000000  -0.2433809), wk =   0.0833333
        k(    4) = (   0.0000000   0.2349387   0.0000000), wk =   0.1666667
        k(    5) = (   0.0000000   0.2349387   0.1216904), wk =   0.3333333
        k(    6) = (   0.0000000   0.2349387  -0.2433809), wk =   0.1666667
        k(    7) = (  -0.4607715   0.0000000   0.0000000), wk =   0.0833333
        k(    8) = (  -0.4607715   0.0000000   0.1216904), wk =   0.1666667
        k(    9) = (  -0.4607715   0.0000000  -0.2433809), wk =   0.0833333
        k(   10) = (  -0.4607715   0.2349387   0.0000000), wk =   0.1666667
        k(   11) = (  -0.4607715   0.2349387   0.1216904), wk =   0.3333333
        k(   12) = (  -0.4607715   0.2349387  -0.2433809), wk =   0.1666667

[...]

     enthalpy old            =   -3700.6344173305 Ry
     enthalpy new            =   -3707.6756126573 Ry

     CASE: enthalpy_new < enthalpy_old

     small trust_radius: resetting bfgs history

     new trust radius        =       2.6302421566 bohr
     new conv_thr            =       0.0001000000 Ry

[...]

          total   stress  (Ry/bohr**3)                   (kbar)     P=-5670.41
  -0.03929767   0.00000000   0.00000000      -5780.89      0.00      0.00
   0.00000000  -0.03750415   0.00000000          0.00  -5517.05      0.00
   0.00000000   0.00000000  -0.03883814          0.00      0.00  -5713.29

     number of scf cycles    =   3
     number of bfgs steps    =   2

     enthalpy old            =   -3707.6756126573 Ry
     enthalpy new            =   -3667.6340629035 Ry

     CASE: enthalpy_new > enthalpy_old

     new trust radius        =       0.5236629701 bohr

     trust_radius < trust_radius_min

     resetting bfgs history

     Message from routine bfgs:
     history already reset at previous step: stopping
     new conv_thr            =       0.0001000000 Ry

     new unit-cell volume =   1312.57015 a.u.^3 (   194.50283 Ang^3 )

[...]

ATOMIC_POSITIONS (crystal)
Co       0.750000000   0.825054192   0.434807147
Co       0.250000000   0.174945808   0.565192853
Co       0.750000000   0.325054192   0.065192853
Co       0.250000000   0.674945808   0.934807147
Co       0.250000000   0.538933446   0.281791810
Co       0.750000000   0.461066554   0.718208190
Co       0.250000000   0.038933446   0.218208190
Co       0.750000000   0.961066554   0.781791810
Si       0.250000000   0.199605008   0.893972837
Si       0.750000000   0.800394992   0.106027163
Si       0.250000000   0.699605008   0.606027163
Si       0.750000000   0.300394992   0.393972837

     Writing output data file Prototype-La-oP12-Co2Si.save
     NEW-OLD atomic charge density approx. for the potential
     NEW k-points:
        k(    1) = (   0.0000000   0.0000000   0.0000000), wk =   0.0833333
        k(    2) = (   0.0000000   0.0000000   0.1143428), wk =   0.1666667
        k(    3) = (   0.0000000   0.0000000  -0.2286855), wk =   0.0833333
        k(    4) = (   0.0000000   0.2213228   0.0000000), wk =   0.1666667
        k(    5) = (   0.0000000   0.2213228   0.1143428), wk =   0.3333333
        k(    6) = (   0.0000000   0.2213228  -0.2286855), wk =   0.1666667
        k(    7) = (  -0.4330458   0.0000000   0.0000000), wk =   0.0833333
        k(    8) = (  -0.4330458   0.0000000   0.1143428), wk =   0.1666667
        k(    9) = (  -0.4330458   0.0000000  -0.2286855), wk =   0.0833333
        k(   10) = (  -0.4330458   0.2213228   0.0000000), wk =   0.1666667
        k(   11) = (  -0.4330458   0.2213228   0.1143428), wk =   0.3333333
        k(   12) = (  -0.4330458   0.2213228  -0.2286855), wk =   0.1666667

[...]

     The maximum number of steps has been reached.

     End of BFGS Geometry Optimization
Begin final coordinates
     new unit-cell volume =   1312.57015 a.u.^3 (   194.50283 Ang^3 )

CELL_PARAMETERS (alat=  7.01510508)
   1.154612173   0.000000000   0.000000000
   0.000000000   1.506095701   0.000000000
   0.000000000   0.000000000   2.186408375

ATOMIC_POSITIONS (crystal)
Co       0.750000000   0.825054192   0.434807147
Co       0.250000000   0.174945808   0.565192853
Co       0.750000000   0.325054192   0.065192853
Co       0.250000000   0.674945808   0.934807147
Co       0.250000000   0.538933446   0.281791810
Co       0.750000000   0.461066554   0.718208190
Co       0.250000000   0.038933446   0.218208190
Co       0.750000000   0.961066554   0.781791810
Si       0.250000000   0.199605008   0.893972837
Si       0.750000000   0.800394992   0.106027163
Si       0.250000000   0.699605008   0.606027163
Si       0.750000000   0.300394992   0.393972837
End final coordinates

     A final scf calculation at the relaxed structure.
     The G-vectors are recalculated for the final unit cell
     Results may differ from those at the preceding step.

     bravais-lattice index     =            0
     lattice parameter (alat)  =       7.0151  a.u.
     unit-cell volume          =    1312.5702 (a.u.)^3
     number of atoms/cell      =           12
     number of atomic types    =            2
     number of electrons       =       248.00
     number of Kohn-Sham states=          149
     kinetic-energy cutoff     =      40.0000  Ry
     charge density cutoff     =     160.0000  Ry
     convergence threshold     =      1.0E-04
     mixing beta               =       0.7000
     number of iterations used =            8  plain     mixing
     Exchange-correlation      = SLA-PZ-NOGX-NOGC ( 1 1 0 0 0)
     EXX-fraction              =        0.00

     celldm(1)=   7.015105  celldm(2)=   0.000000  celldm(3)=   0.000000
     celldm(4)=   0.000000  celldm(5)=   0.000000  celldm(6)=   0.000000

     crystal axes: (cart. coord. in units of alat)
               a(1) = (   1.154612   0.000000   0.000000 )
               a(2) = (   0.000000   1.506096   0.000000 )
               a(3) = (   0.000000   0.000000   2.186408 )

     reciprocal axes: (cart. coord. in units 2 pi/alat)
               b(1) = (  0.866092  0.000000  0.000000 )
               b(2) = (  0.000000  0.663968  0.000000 )
               b(3) = (  0.000000  0.000000  0.457371 )

     PseudoPot. # 1 for Yb read from file:
     /home/jld5415/pp.La/Yb.UPF
     MD5 check sum: 3e859b81cc28c53ec6aa3a2e888efcdf
     Pseudo is Norm-conserving, Zval = 24.0
     Generated in analytical, separable form
     Using radial grid of 1269 points,  6 beta functions with:
                l(1) =   0
                l(2) =   0
                l(3) =   1
                l(4) =   1
                l(5) =   2
                l(6) =   3

     PseudoPot. # 2 for Nd read from file:
     /home/jld5415/pp.La/Nd.UPF
     MD5 check sum: c66c5b6abe7b5840ced9b1e244e3bed6
     Pseudo is Norm-conserving, Zval = 14.0
     Generated in analytical, separable form
     Using radial grid of 1257 points,  6 beta functions with:
                l(1) =   0
                l(2) =   0
                l(3) =   1
                l(4) =   1
                l(5) =   2
                l(6) =   3

     atomic species   valence    mass     pseudopotential
        Co            24.00    58.93320     Yb( 1.00)
        Si            14.00    28.08550     Nd( 1.00)

      8 Sym. Ops., with inversion, found ( 6 have fractional translation)

   Cartesian axes

     site n.     atom                  positions (alat units)
         1           Co  tau(   1) = (   0.8659591   1.2426106   0.9506660  )
         2           Co  tau(   2) = (   0.2886530   0.2634851   1.2357424  )
         3           Co  tau(   3) = (   0.8659591   0.4895627   0.1425382  )
         4           Co  tau(   4) = (   0.2886530   1.0165330   2.0438702  )
         5           Co  tau(   5) = (   0.2886530   0.8116853   0.6161120  )
         6           Co  tau(   6) = (   0.8659591   0.6944104   1.5702964  )
         7           Co  tau(   7) = (   0.2886530   0.0586375   0.4770922  )
         8           Co  tau(   8) = (   0.8659591   1.4474582   1.7093162  )
         9           Si  tau(   9) = (   0.2886530   0.3006242   1.9545897  )
        10           Si  tau(  10) = (   0.8659591   1.2054715   0.2318187  )
        11           Si  tau(  11) = (   0.2886530   1.0536721   1.3250229  )
        12           Si  tau(  12) = (   0.8659591   0.4524236   0.8613855  )

     number of k points=    12  gaussian smearing, width (Ry)=  0.1000
                       cart. coord. in units 2pi/alat
        k(    1) = (   0.0000000   0.0000000   0.0000000), wk =   0.0833333
        k(    2) = (   0.0000000   0.0000000   0.1143428), wk =   0.1666667
        k(    3) = (   0.0000000   0.0000000  -0.2286855), wk =   0.0833333
        k(    4) = (   0.0000000   0.2213228   0.0000000), wk =   0.1666667
        k(    5) = (   0.0000000   0.2213228   0.1143428), wk =   0.3333333
        k(    6) = (   0.0000000   0.2213228  -0.2286855), wk =   0.1666667
        k(    7) = (  -0.4330458   0.0000000   0.0000000), wk =   0.0833333
        k(    8) = (  -0.4330458   0.0000000   0.1143428), wk =   0.1666667
        k(    9) = (  -0.4330458   0.0000000  -0.2286855), wk =   0.0833333
        k(   10) = (  -0.4330458   0.2213228   0.0000000), wk =   0.1666667
        k(   11) = (  -0.4330458   0.2213228   0.1143428), wk =   0.3333333
        k(   12) = (  -0.4330458   0.2213228  -0.2286855), wk =   0.1666667

     Largest allocated arrays     est. size (Mb)     dimensions
     Largest temporary arrays     est. size (Mb)     dimensions

     Initial potential from superposition of free atoms

     Starting from uniform charge
     Starting wfc are    0 randomized atomic wfcs

     Writing output data file Prototype-La-oP12-Co2Si.save

     Self-consistent Calculation

[...]

     iteration #  9     ecut=    40.00 Ry     beta=0.70
     CG style diagonalization
     c_bands:  1 eigenvalues not converged
     c_bands:  1 eigenvalues not converged
     c_bands:  1 eigenvalues not converged
     c_bands:  1 eigenvalues not converged
     c_bands:  1 eigenvalues not converged
     ethr =  3.37E-06,  avg # of iterations =  4.4

[...]

     total energy              =   -3714.94259194 Ry
     Harris-Foulkes estimate   =   -3714.94268169 Ry
     estimated scf accuracy    <       0.00016838 Ry

     iteration # 11     ecut=    40.00 Ry     beta=0.70
     CG style diagonalization
     ethr =  6.79E-08,  avg # of iterations =  4.2

     End of self-consistent calculation

[...]

          k = 0.0000 0.2213-0.2287 (  5590 PWs)   bands (ev):

[...]

          k =-0.4330 0.2213-0.2287 (  5596 PWs)   bands (ev):

   -88.8764 -88.8764 -88.8736 -88.8736 -88.8037 -88.8037 -88.7968 -88.7968
   -47.7478 -47.7478 -47.7229 -47.7229 -47.7223 -47.7223 -47.7187 -47.7187
   -47.6889 -47.6889 -47.6857 -47.6857 -47.6684 -47.6684 -47.6627 -47.6627
   -47.6560 -47.6560 -47.6538 -47.6538 -47.6349 -47.6349 -47.6321 -47.6321
   -12.3802 -12.3802 -12.3702 -12.3702   7.6733   7.6733   7.7275   7.7275
     7.8055   7.8055   7.8940   7.8940   8.0678   8.0678   8.1139   8.1139
     9.3616   9.3616   9.5861   9.5861   9.5939   9.5939   9.7360   9.7360
     9.7492   9.7492   9.8858   9.8858   9.9709   9.9709  10.0449  10.0449
    10.1109  10.1109  10.1777  10.1777  10.2062  10.2062  10.2896  10.2896
    10.3691  10.3691  10.5665  10.5665  10.5937  10.5937  10.6581  10.6581
    10.8790  10.8790  10.9020  10.9020  11.1001  11.1001  11.1974  11.1974
    20.9827  20.9827  21.5814  21.5814  22.7930  22.7930  23.1839  23.1839
    27.2758  27.2758  27.4926  27.4926  28.2411  28.2411  28.2456  28.2456
    29.0701  29.0701  30.5779  30.5779  31.2217  31.2217  31.7475  31.7475
    31.9026  31.9026  32.6737  32.6737  34.2898  34.2898  34.4007  34.4007
    35.7429  35.7429  36.0775  36.0775  37.0926  37.0926  37.3307  37.3307
    38.0102  38.0102  38.8073  38.8074  38.9996  38.9997  39.7703  39.7703
    40.5595  40.5596  40.8305  40.8305  41.0590  41.0592  41.7561  41.7563
    42.0863  42.0865  42.2526  42.2529  42.7801

     the Fermi energy is    36.2782 ev

!    total energy              =   -3714.94266487 Ry
     Harris-Foulkes estimate   =   -3714.94267772 Ry
     estimated scf accuracy    <       0.00001514 Ry

     The total energy is the sum of the following terms:

     one-electron contribution =    -798.38669905 Ry
     hartree contribution      =     579.74127936 Ry
     xc contribution           =    -313.54368778 Ry
     ewald contribution        =   -3182.34535521 Ry
     smearing contrib. (-TS)   =      -0.40820219 Ry

     convergence has been achieved in  11 iterations

     Forces acting on atoms (Ry/au):

     atom    1 type  1   force =     0.00000000   -0.00905035   -0.01341027
     atom    2 type  1   force =     0.00000000    0.00905035    0.01341027
     atom    3 type  1   force =     0.00000000   -0.00905035    0.01341027
     atom    4 type  1   force =     0.00000000    0.00905035   -0.01341027
     atom    5 type  1   force =     0.00000000    0.04382897   -0.00718846
     atom    6 type  1   force =     0.00000000   -0.04382897    0.00718846
     atom    7 type  1   force =     0.00000000    0.04382897    0.00718846
     atom    8 type  1   force =     0.00000000   -0.04382897   -0.00718846
     atom    9 type  2   force =     0.00000000   -0.07077865    0.04246190
     atom   10 type  2   force =     0.00000000    0.07077865   -0.04246190
     atom   11 type  2   force =     0.00000000   -0.07077865   -0.04246190
     atom   12 type  2   force =     0.00000000    0.07077865    0.04246190

     Total force =     0.190232     Total SCF correction =     0.000000

     entering subroutine stress ...

          total   stress  (Ry/bohr**3)                   (kbar)     P= 1163.68
   0.00793685   0.00000000   0.00000000       1167.55      0.00      0.00
   0.00000000   0.00794067   0.00000000          0.00   1168.11      0.00
   0.00000000   0.00000000   0.00785418          0.00      0.00   1155.39

     Writing output data file Prototype-La-oP12-Co2Si.save

     General routines

     Parallel routines

   This run was terminated on:  12:45:58  22Mar2018

   JOB DONE.