     Program PWSCF v.5.0.2 starts on 22Mar2018 at 18:47:17

     Current dimensions of program PWSCF are:
     Max number of different atomic species (ntypx) = 10
     Max number of k-points (npk) =  40000
     Max angular momentum in pseudopotentials (lmaxx) =  3
     Waiting for input...
     Reading input from standard input

     Subspace diagonalization in iterative solution of the eigenvalue problem:
     a serial algorithm will be used

     bravais-lattice index     =            0
     lattice parameter (alat)  =      12.0168  a.u.
     unit-cell volume          =    1187.3413 (a.u.)^3
     number of atoms/cell      =            8
     number of atomic types    =            2
     number of electrons       =       142.00
     number of Kohn-Sham states=           85
     kinetic-energy cutoff     =      40.0000  Ry
     charge density cutoff     =     160.0000  Ry
     convergence threshold     =      1.0E-04
     mixing beta               =       0.7000
     number of iterations used =            8  plain     mixing
     Exchange-correlation      = SLA-PZ-NOGX-NOGC ( 1 1 0 0 0)
     EXX-fraction              =        0.00
     nstep                     =           50

     celldm(1)=  12.016801  celldm(2)=   0.000000  celldm(3)=   0.000000
     celldm(4)=   0.000000  celldm(5)=   0.000000  celldm(6)=   0.000000

     crystal axes: (cart. coord. in units of alat)
               a(1) = (   1.000000   0.000000   0.000000 )
               a(2) = (  -0.500000   0.866025   0.000000 )
               a(3) = (   0.000000   0.000000   0.790093 )

     reciprocal axes: (cart. coord. in units 2 pi/alat)
               b(1) = (  1.000000  0.577350  0.000000 )
               b(2) = (  0.000000  1.154701  0.000000 )
               b(3) = (  0.000000  0.000000  1.265674 )

     PseudoPot. # 1 for Sm read from file:
     /home/cwx6513/pp.La/Sm.UPF
     MD5 check sum: 5079e8b144a06bfcdbc14fb02b96ab09
     Pseudo is Norm-conserving, Zval = 16.0
     Generated in analytical, separable form
     Using radial grid of 1259 points,  6 beta functions with:
                l(1) =   0
                l(2) =   0
                l(3) =   1
                l(4) =   1
                l(5) =   2
                l(6) =   3

     PseudoPot. # 2 for Tm read from file:
     /home/cwx6513/pp.La/Tm.UPF
     MD5 check sum: 245516e0878b5372ceeb9443ded2c4e1
     Pseudo is Norm-conserving, Zval = 23.0
     Generated in analytical, separable form
     Using radial grid of 1269 points,  6 beta functions with:
                l(1) =   0
                l(2) =   0
                l(3) =   1
                l(4) =   1
                l(5) =   2
                l(6) =   3

     atomic species   valence    mass     pseudopotential
        Mg            16.00    24.30500     Sm( 1.00)
        Cd            23.00   112.41100     Tm( 1.00)

     24 Sym. Ops., with inversion, found (12 have fractional translation)

   Cartesian axes

     site n.     atom                  positions (alat units)
         1           Mg  tau(   1) = (   0.2478935   0.7204716   0.1975233  )
         2           Mg  tau(   2) = (   0.7478935   0.1455538   0.5925699  )
         3           Mg  tau(   3) = (   0.2521065   0.1455538   0.5925699  )
         4           Mg  tau(   4) = (  -0.2478935   0.7204716   0.1975233  )
         5           Mg  tau(   5) = (   0.0000000   0.2911075   0.1975233  )
         6           Mg  tau(   6) = (   0.5000000   0.5749179   0.5925699  )
         7           Cd  tau(   7) = (   0.5000005   0.2886748   0.1975233  )
         8           Cd  tau(   8) = (  -0.0000005   0.5773506   0.5925699  )

     number of k points=    64  gaussian smearing, width (Ry)=  0.1000
                       cart. coord. in units 2pi/alat
        k(    1) = (   0.0000000   0.0000000   0.0000000), wk =   0.0095238
        k(    2) = (   0.0000000   0.0000000   0.1808105), wk =   0.0190476
        k(    3) = (   0.0000000   0.0000000   0.3616210), wk =   0.0190476
        k(    4) = (   0.0000000   0.0000000   0.5424315), wk =   0.0190476
        k(    5) = (   0.0000000   0.1924501   0.0000000), wk =   0.0190476
        k(    6) = (   0.0000000   0.1924501   0.1808105), wk =   0.0380952
        k(    7) = (   0.0000000   0.1924501   0.3616210), wk =   0.0380952
        k(    8) = (   0.0000000   0.1924501   0.5424315), wk =   0.0380952
        k(    9) = (   0.0000000   0.3849002   0.0000000), wk =   0.0190476
        k(   10) = (   0.0000000   0.3849002   0.1808105), wk =   0.0380952
        k(   11) = (   0.0000000   0.3849002   0.3616210), wk =   0.0380952
        k(   12) = (   0.0000000   0.3849002   0.5424315), wk =   0.0380952
        k(   13) = (   0.0000000  -0.5773503   0.0000000), wk =   0.0095238
        k(   14) = (   0.0000000  -0.5773503   0.1808105), wk =   0.0190476
        k(   15) = (   0.0000000  -0.5773503   0.3616210), wk =   0.0190476
        k(   16) = (   0.0000000  -0.5773503   0.5424315), wk =   0.0190476
        k(   17) = (   0.2000000   0.1154701   0.0000000), wk =   0.0190476
        k(   18) = (   0.2000000   0.1154701   0.1808105), wk =   0.0380952
        k(   19) = (   0.2000000   0.1154701   0.3616210), wk =   0.0380952
        k(   20) = (   0.2000000   0.1154701   0.5424315), wk =   0.0380952
        k(   21) = (   0.2000000   0.3079201   0.0000000), wk =   0.0190476
        k(   22) = (   0.2000000   0.3079201   0.1808105), wk =   0.0380952
        k(   23) = (   0.2000000   0.3079201   0.3616210), wk =   0.0380952
        k(   24) = (   0.2000000   0.3079201   0.5424315), wk =   0.0380952
        k(   25) = (   0.2000000   0.5003702   0.0000000), wk =   0.0190476
        k(   26) = (   0.2000000   0.5003702   0.1808105), wk =   0.0380952
        k(   27) = (   0.2000000   0.5003702   0.3616210), wk =   0.0380952
        k(   28) = (   0.2000000   0.5003702   0.5424315), wk =   0.0380952
        k(   29) = (   0.2000000  -0.4618802   0.0000000), wk =   0.0190476
        k(   30) = (   0.2000000  -0.4618802   0.1808105), wk =   0.0380952
        k(   31) = (   0.2000000  -0.4618802   0.3616210), wk =   0.0380952
        k(   32) = (   0.2000000  -0.4618802   0.5424315), wk =   0.0380952
        k(   33) = (   0.2000000  -0.2694301   0.0000000), wk =   0.0190476
        k(   34) = (   0.2000000  -0.2694301   0.1808105), wk =   0.0380952
        k(   35) = (   0.2000000  -0.2694301   0.3616210), wk =   0.0380952
        k(   36) = (   0.2000000  -0.2694301   0.5424315), wk =   0.0380952
        k(   37) = (   0.2000000  -0.0769800   0.0000000), wk =   0.0190476
        k(   38) = (   0.2000000  -0.0769800   0.1808105), wk =   0.0380952
        k(   39) = (   0.2000000  -0.0769800   0.3616210), wk =   0.0380952
        k(   40) = (   0.2000000  -0.0769800   0.5424315), wk =   0.0380952
        k(   41) = (   0.4000000   0.2309401   0.0000000), wk =   0.0190476
        k(   42) = (   0.4000000   0.2309401   0.1808105), wk =   0.0380952
        k(   43) = (   0.4000000   0.2309401   0.3616210), wk =   0.0380952
        k(   44) = (   0.4000000   0.2309401   0.5424315), wk =   0.0380952
        k(   45) = (   0.4000000   0.4233902   0.0000000), wk =   0.0190476
        k(   46) = (   0.4000000   0.4233902   0.1808105), wk =   0.0380952
        k(   47) = (   0.4000000   0.4233902   0.3616210), wk =   0.0380952
        k(   48) = (   0.4000000   0.4233902   0.5424315), wk =   0.0380952
        k(   49) = (   0.4000000   0.6158403   0.0000000), wk =   0.0190476
        k(   50) = (   0.4000000   0.6158403   0.1808105), wk =   0.0380952
        k(   51) = (   0.4000000   0.6158403   0.3616210), wk =   0.0380952
        k(   52) = (   0.4000000   0.6158403   0.5424315), wk =   0.0380952
        k(   53) = (   0.4000000  -0.3464102   0.0000000), wk =   0.0190476
        k(   54) = (   0.4000000  -0.3464102   0.1808105), wk =   0.0380952
        k(   55) = (   0.4000000  -0.3464102   0.3616210), wk =   0.0380952
        k(   56) = (   0.4000000  -0.3464102   0.5424315), wk =   0.0380952
        k(   57) = (   0.4000000  -0.1539601   0.0000000), wk =   0.0190476
        k(   58) = (   0.4000000  -0.1539601   0.1808105), wk =   0.0380952
        k(   59) = (   0.4000000  -0.1539601   0.3616210), wk =   0.0380952
        k(   60) = (   0.4000000  -0.1539601   0.5424315), wk =   0.0380952
        k(   61) = (   0.4000000   0.0384900   0.0000000), wk =   0.0190476
        k(   62) = (   0.4000000   0.0384900   0.1808105), wk =   0.0380952
        k(   63) = (   0.4000000   0.0384900   0.3616210), wk =   0.0380952
        k(   64) = (   0.4000000   0.0384900   0.5424315), wk =   0.0380952

     Largest allocated arrays     est. size (Mb)     dimensions
     Largest temporary arrays     est. size (Mb)     dimensions

     Initial potential from superposition of free atoms

     Starting from uniform charge
     Starting wfc are    0 randomized atomic wfcs

     Self-consistent Calculation

     iteration #  1     ecut=    40.00 Ry     beta=0.70
     CG style diagonalization
     c_bands:  4 eigenvalues not converged
     c_bands:  5 eigenvalues not converged
     c_bands:  5 eigenvalues not converged
     c_bands:  5 eigenvalues not converged
     c_bands:  4 eigenvalues not converged
     c_bands:  5 eigenvalues not converged
     c_bands:  5 eigenvalues not converged
     c_bands:  4 eigenvalues not converged
     c_bands:  4 eigenvalues not converged
     c_bands:  5 eigenvalues not converged
     c_bands:  5 eigenvalues not converged
     c_bands:  5 eigenvalues not converged
     c_bands:  4 eigenvalues not converged
     c_bands:  5 eigenvalues not converged
     c_bands:  5 eigenvalues not converged
     c_bands:  5 eigenvalues not converged
     c_bands:  4 eigenvalues not converged
     c_bands:  4 eigenvalues not converged
     c_bands:  5 eigenvalues not converged
     ethr =  1.00E-02,  avg # of iterations = 15.4

     total energy              =    -805.08750908 Ry
     Harris-Foulkes estimate   =   -2206.90192081 Ry
     estimated scf accuracy    <    1664.33882754 Ry

     iteration #  2     ecut=    40.00 Ry     beta=0.70
     CG style diagonalization
     ethr =  1.00E-02,  avg # of iterations = 17.9

[...]

     End of self-consistent calculation

          k = 0.0000 0.0000 0.0000 (  5047 PWs)   bands (ev):

   -88.9046 -88.8973 -47.5260 -47.5203 -47.5147 -47.5147 -47.5057 -47.5057
   -35.0047 -34.9083 -34.9082 -34.8916 -34.8527 -34.8527 -10.5163 -10.5161
   -10.3336 -10.2607 -10.2606 -10.2402 -10.2401 -10.1974 -10.1973 -10.0215
    -9.8661  -9.8660  -9.7385  -9.7260  -9.7259  -9.7210  -9.7092  -9.7092
     1.6658   1.6658   1.6677   1.6693   1.6693   1.6731   1.6866   1.6866
     1.7080   1.7080  11.3065  12.2001  16.3906  17.2324  17.5854  17.5855
    17.6252  17.6252  17.6479  18.2902  18.2903  18.2904  18.3931  18.3932
    19.2415  19.8477  19.8477  19.9650  19.9650  19.9978  21.0228  21.2840
    21.2840  21.5829  21.5829  22.1200  22.1200  22.1307  22.1774  22.1774
    22.3285  23.7476  24.0437  24.0438  24.1939  24.2318  24.7911  24.7912
    25.8184  26.2816  27.0033  28.0318  28.0319

[...]

     the Fermi energy is    22.3589 ev

!    total energy              =   -1644.68286949 Ry
[...]
        k(   13) = (   0.0000000  -0.5879668   0.0000000), wk =   0.0095238
        k(   14) = (   0.0000000  -0.5879668   0.1819377), wk =   0.0190476
        k(   15) = (   0.0000000  -0.5879668   0.3638754), wk =   0.0190476
        k(   16) = (   0.0000000  -0.5879668   0.5458131), wk =   0.0190476
        k(   17) = (   0.2036777   0.1175934   0.0000000), wk =   0.0190476
        k(   18) = (   0.2036777   0.1175934   0.1819377), wk =   0.0380952
        k(   19) = (   0.2036777   0.1175934   0.3638754), wk =   0.0380952
        k(   20) = (   0.2036777   0.1175934   0.5458131), wk =   0.0380952
        k(   21) = (   0.2036777   0.3135823   0.0000000), wk =   0.0190476
        k(   22) = (   0.2036777   0.3135823   0.1819377), wk =   0.0380952
        k(   23) = (   0.2036777   0.3135823   0.3638754), wk =   0.0380952
        k(   24) = (   0.2036777   0.3135823   0.5458131), wk =   0.0380952
        k(   25) = (   0.2036777   0.5095712   0.0000000), wk =   0.0190476
        k(   26) = (   0.2036777   0.5095712   0.1819377), wk =   0.0380952
        k(   27) = (   0.2036777   0.5095712   0.3638754), wk =   0.0380952
        k(   28) = (   0.2036777   0.5095712   0.5458131), wk =   0.0380952
        k(   29) = (   0.2036777  -0.4703734   0.0000000), wk =   0.0190476
        k(   30) = (   0.2036777  -0.4703734   0.1819377), wk =   0.0380952
        k(   31) = (   0.2036777  -0.4703734   0.3638754), wk =   0.0380952
        k(   32) = (   0.2036777  -0.4703734   0.5458131), wk =   0.0380952
        k(   33) = (   0.2036777  -0.2743845   0.0000000), wk =   0.0190476
        k(   34) = (   0.2036777  -0.2743845   0.1819377), wk =   0.0380952
        k(   35) = (   0.2036777  -0.2743845   0.3638754), wk =   0.0380952
        k(   36) = (   0.2036777  -0.2743845   0.5458131), wk =   0.0380952
        k(   37) = (   0.2036777  -0.0783956   0.0000000), wk =   0.0190476
        k(   38) = (   0.2036777  -0.0783956   0.1819377), wk =   0.0380952
        k(   39) = (   0.2036777  -0.0783956   0.3638754), wk =   0.0380952
        k(   40) = (   0.2036777  -0.0783956   0.5458131), wk =   0.0380952
        k(   41) = (   0.4073553   0.2351867   0.0000000), wk =   0.0190476
        k(   42) = (   0.4073553   0.2351867   0.1819377), wk =   0.0380952
        k(   43) = (   0.4073553   0.2351867   0.3638754), wk =   0.0380952
        k(   44) = (   0.4073553   0.2351867   0.5458131), wk =   0.0380952
        k(   45) = (   0.4073553   0.4311756   0.0000000), wk =   0.0190476
        k(   46) = (   0.4073553   0.4311756   0.1819377), wk =   0.0380952
        k(   47) = (   0.4073553   0.4311756   0.3638754), wk =   0.0380952
        k(   48) = (   0.4073553   0.4311756   0.5458131), wk =   0.0380952
        k(   49) = (   0.4073553   0.6271645   0.0000000), wk =   0.0190476
        k(   50) = (   0.4073553   0.6271645   0.1819377), wk =   0.0380952
        k(   51) = (   0.4073553   0.6271645   0.3638754), wk =   0.0380952
        k(   52) = (   0.4073553   0.6271645   0.5458131), wk =   0.0380952
        k(   53) = (   0.4073553  -0.3527801   0.0000000), wk =   0.0190476
        k(   54) = (   0.4073553  -0.3527801   0.1819377), wk =   0.0380952
        k(   55) = (   0.4073553  -0.3527801   0.3638754), wk =   0.0380952
        k(   56) = (   0.4073553  -0.3527801   0.5458131), wk =   0.0380952
        k(   57) = (   0.4073553  -0.1567911   0.0000000), wk =   0.0190476
        k(   58) = (   0.4073553  -0.1567911   0.1819377), wk =   0.0380952
        k(   59) = (   0.4073553  -0.1567911   0.3638754), wk =   0.0380952
        k(   60) = (   0.4073553  -0.1567911   0.5458131), wk =   0.0380952
        k(   61) = (   0.4073553   0.0391978   0.0000000), wk =   0.0190476
        k(   62) = (   0.4073553   0.0391978   0.1819377), wk =   0.0380952
        k(   63) = (   0.4073553   0.0391978   0.3638754), wk =   0.0380952
        k(   64) = (   0.4073553   0.0391978   0.5458131), wk =   0.0380952

[...]

     The maximum number of steps has been reached.

     End of BFGS Geometry Optimization
Begin final coordinates
     new unit-cell volume =   1137.75750 a.u.^3 (   168.59827 Ang^3 )

CELL_PARAMETERS (alat= 12.01680127)
   0.981943722   0.000000000   0.000000000
  -0.490971861   0.850388209   0.000000000
   0.000000000   0.000000000   0.785198107

ATOMIC_POSITIONS (crystal)
Mg       0.670775238   0.835387619   0.250000000
Mg       0.835387619   0.164612381   0.750000000
Mg       0.329224762   0.164612381   0.750000000
Mg       0.164612381   0.835387619   0.250000000
Mg       0.164612381   0.329224762   0.250000000
Mg       0.835387619   0.670775238   0.750000000
Cd       0.666667000   0.333333000   0.250000000
Cd       0.333333000   0.666667000   0.750000000
End final coordinates

     A final scf calculation at the relaxed structure.
     The G-vectors are recalculated for the final unit cell
     Results may differ from those at the preceding step.

     bravais-lattice index     =            0
     lattice parameter (alat)  =      12.0168  a.u.
     unit-cell volume          =    1137.7575 (a.u.)^3
     number of atoms/cell      =            8
     number of atomic types    =            2
     number of electrons       =       142.00
     number of Kohn-Sham states=           85
     kinetic-energy cutoff     =      40.0000  Ry
     charge density cutoff     =     160.0000  Ry
     convergence threshold     =      2.0E-05
     mixing beta               =       0.7000
     number of iterations used =            8  plain     mixing
     Exchange-correlation      = SLA-PZ-NOGX-NOGC ( 1 1 0 0 0)
     EXX-fraction              =        0.00

     celldm(1)=  12.016801  celldm(2)=   0.000000  celldm(3)=   0.000000
     celldm(4)=   0.000000  celldm(5)=   0.000000  celldm(6)=   0.000000

     crystal axes: (cart. coord. in units of alat)
               a(1) = (   0.981944   0.000000   0.000000 )
               a(2) = (  -0.490972   0.850388   0.000000 )
               a(3) = (   0.000000   0.000000   0.785198 )

     reciprocal axes: (cart. coord. in units 2 pi/alat)
               b(1) = (  1.018388  0.587967  0.000000 )
               b(2) = (  0.000000  1.175934  0.000000 )
               b(3) = (  0.000000  0.000000  1.273564 )

     PseudoPot. # 1 for Sm read from file:
     /home/cwx6513/pp.La/Sm.UPF
     MD5 check sum: 5079e8b144a06bfcdbc14fb02b96ab09
     Pseudo is Norm-conserving, Zval = 16.0
     Generated in analytical, separable form
     Using radial grid of 1259 points,  6 beta functions with:
                l(1) =   0
                l(2) =   0
                l(3) =   1
                l(4) =   1
                l(5) =   2
                l(6) =   3

     PseudoPot. # 2 for Tm read from file:
     /home/cwx6513/pp.La/Tm.UPF
     MD5 check sum: 245516e0878b5372ceeb9443ded2c4e1
     Pseudo is Norm-conserving, Zval = 23.0
     Generated in analytical, separable form
     Using radial grid of 1269 points,  6 beta functions with:
                l(1) =   0
                l(2) =   0
                l(3) =   1
                l(4) =   1
                l(5) =   2
                l(6) =   3

     atomic species   valence    mass     pseudopotential
        Mg            16.00    24.30500     Sm( 1.00)
        Cd            23.00   112.41100     Tm( 1.00)

     24 Sym. Ops., with inversion, found (12 have fractional translation)

   Cartesian axes

     site n.     atom                  positions (alat units)
         1           Mg  tau(   1) = (   0.2485117   0.7104038   0.1962995  )
         2           Mg  tau(   2) = (   0.7394836   0.1399844   0.5888986  )
         3           Mg  tau(   3) = (   0.2424601   0.1399844   0.5888986  )
         4           Mg  tau(   4) = (  -0.2485117   0.7104038   0.1962995  )
         5           Mg  tau(   5) = (   0.0000000   0.2799689   0.1962995  )
         6           Mg  tau(   6) = (   0.4909719   0.5704194   0.5888986  )
         7           Cd  tau(   7) = (   0.4909724   0.2834625   0.1962995  )
         8           Cd  tau(   8) = (  -0.0000005   0.5669258   0.5888986  )

     number of k points=    64  gaussian smearing, width (Ry)=  0.1000
                       cart. coord. in units 2pi/alat
        k(    1) = (   0.0000000   0.0000000   0.0000000), wk =   0.0095238
        k(    2) = (   0.0000000   0.0000000   0.1819377), wk =   0.0190476
        k(    3) = (   0.0000000   0.0000000   0.3638754), wk =   0.0190476
        k(    4) = (   0.0000000   0.0000000   0.5458131), wk =   0.0190476
        k(    5) = (   0.0000000   0.1959889   0.0000000), wk =   0.0190476
        k(    6) = (   0.0000000   0.1959889   0.1819377), wk =   0.0380952
        k(    7) = (   0.0000000   0.1959889   0.3638754), wk =   0.0380952
        k(    8) = (   0.0000000   0.1959889   0.5458131), wk =   0.0380952
        k(    9) = (   0.0000000   0.3919778   0.0000000), wk =   0.0190476
        k(   10) = (   0.0000000   0.3919778   0.1819377), wk =   0.0380952
        k(   11) = (   0.0000000   0.3919778   0.3638754), wk =   0.0380952
        k(   12) = (   0.0000000   0.3919778   0.5458131), wk =   0.0380952
        k(   13) = (   0.0000000  -0.5879668   0.0000000), wk =   0.0095238
        k(   14) = (   0.0000000  -0.5879668   0.1819377), wk =   0.0190476
        k(   15) = (   0.0000000  -0.5879668   0.3638754), wk =   0.0190476
        k(   16) = (   0.0000000  -0.5879668   0.5458131), wk =   0.0190476
        k(   17) = (   0.2036777   0.1175934   0.0000000), wk =   0.0190476
        k(   18) = (   0.2036777   0.1175934   0.1819377), wk =   0.0380952
        k(   19) = (   0.2036777   0.1175934   0.3638754), wk =   0.0380952
        k(   20) = (   0.2036777   0.1175934   0.5458131), wk =   0.0380952
        k(   21) = (   0.2036777   0.3135823   0.0000000), wk =   0.0190476
        k(   22) = (   0.2036777   0.3135823   0.1819377), wk =   0.0380952
        k(   23) = (   0.2036777   0.3135823   0.3638754), wk =   0.0380952
        k(   24) = (   0.2036777   0.3135823   0.5458131), wk =   0.0380952
        k(   25) = (   0.2036777   0.5095712   0.0000000), wk =   0.0190476
        k(   26) = (   0.2036777   0.5095712   0.1819377), wk =   0.0380952
        k(   27) = (   0.2036777   0.5095712   0.3638754), wk =   0.0380952
        k(   28) = (   0.2036777   0.5095712   0.5458131), wk =   0.0380952
        k(   29) = (   0.2036777  -0.4703734   0.0000000), wk =   0.0190476
        k(   30) = (   0.2036777  -0.4703734   0.1819377), wk =   0.0380952
        k(   31) = (   0.2036777  -0.4703734   0.3638754), wk =   0.0380952
        k(   32) = (   0.2036777  -0.4703734   0.5458131), wk =   0.0380952
        k(   33) = (   0.2036777  -0.2743845   0.0000000), wk =   0.0190476
        k(   34) = (   0.2036777  -0.2743845   0.1819377), wk =   0.0380952
        k(   35) = (   0.2036777  -0.2743845   0.3638754), wk =   0.0380952
        k(   36) = (   0.2036777  -0.2743845   0.5458131), wk =   0.0380952
        k(   37) = (   0.2036777  -0.0783956   0.0000000), wk =   0.0190476
        k(   38) = (   0.2036777  -0.0783956   0.1819377), wk =   0.0380952
        k(   39) = (   0.2036777  -0.0783956   0.3638754), wk =   0.0380952
        k(   40) = (   0.2036777  -0.0783956   0.5458131), wk =   0.0380952
        k(   41) = (   0.4073553   0.2351867   0.0000000), wk =   0.0190476
        k(   42) = (   0.4073553   0.2351867   0.1819377), wk =   0.0380952
        k(   43) = (   0.4073553   0.2351867   0.3638754), wk =   0.0380952
        k(   44) = (   0.4073553   0.2351867   0.5458131), wk =   0.0380952
        k(   45) = (   0.4073553   0.4311756   0.0000000), wk =   0.0190476
        k(   46) = (   0.4073553   0.4311756   0.1819377), wk =   0.0380952
        k(   47) = (   0.4073553   0.4311756   0.3638754), wk =   0.0380952
        k(   48) = (   0.4073553   0.4311756   0.5458131), wk =   0.0380952
        k(   49) = (   0.4073553   0.6271645   0.0000000), wk =   0.0190476
        k(   50) = (   0.4073553   0.6271645   0.1819377), wk =   0.0380952
        k(   51) = (   0.4073553   0.6271645   0.3638754), wk =   0.0380952
        k(   52) = (   0.4073553   0.6271645   0.5458131), wk =   0.0380952
        k(   53) = (   0.4073553  -0.3527801   0.0000000), wk =   0.0190476
        k(   54) = (   0.4073553  -0.3527801   0.1819377), wk =   0.0380952
        k(   55) = (   0.4073553  -0.3527801   0.3638754), wk =   0.0380952
        k(   56) = (   0.4073553  -0.3527801   0.5458131), wk =   0.0380952
        k(   57) = (   0.4073553  -0.1567911   0.0000000), wk =   0.0190476
        k(   58) = (   0.4073553  -0.1567911   0.1819377), wk =   0.0380952
        k(   59) = (   0.4073553  -0.1567911   0.3638754), wk =   0.0380952
        k(   60) = (   0.4073553  -0.1567911   0.5458131), wk =   0.0380952
        k(   61) = (   0.4073553   0.0391978   0.0000000), wk =   0.0190476
        k(   62) = (   0.4073553   0.0391978   0.1819377), wk =   0.0380952
        k(   63) = (   0.4073553   0.0391978   0.3638754), wk =   0.0380952
        k(   64) = (   0.4073553   0.0391978   0.5458131), wk =   0.0380952

     Largest allocated arrays     est. size (Mb)     dimensions
     Largest temporary arrays     est. size (Mb)     dimensions

     Initial potential from superposition of free atoms

     Starting from uniform charge
     Starting wfc are    0 randomized atomic wfcs

     Writing output data file Prototype-La-hP8-Mg3Cd.save

     Self-consistent Calculation

[...]

     iteration #  9     ecut=    40.00 Ry     beta=0.70
     CG style diagonalization
     c_bands:  1 eigenvalues not converged
     c_bands:  1 eigenvalues not converged
     c_bands:  1 eigenvalues not converged
     c_bands:  1 eigenvalues not converged
     c_bands:  1 eigenvalues not converged
     ethr =  1.52E-06,  avg # of iterations =  3.5

     total energy              =   -1644.66369886 Ry
     Harris-Foulkes estimate   =   -1644.66375582 Ry
     estimated scf accuracy    <       0.00010380 Ry

     iteration # 10     ecut=    40.00 Ry     beta=0.70
     CG style diagonalization
     ethr =  7.31E-08,  avg # of iterations =  4.5

     End of self-consistent calculation

[...]

          k = 0.4074 0.0392 0.5458 (  4858 PWs)   bands (ev):

   -87.7396 -87.7359 -46.3600 -46.3564 -46.3534 -46.3497 -46.3411 -46.3381
   -33.8123 -33.7839 -33.7577 -33.7454 -33.7339 -33.7243  -9.3800  -9.3522
    -9.3356  -9.3211  -9.2537  -9.2374  -8.9803  -8.9144  -8.8592  -8.8435
    -8.7786  -8.7301  -8.6924  -8.6800  -8.6592  -8.6141  -8.5799  -8.5720
     2.8130   2.8168   2.8188   2.8222   2.8277   2.8296   2.8362   2.8393
     2.8498   2.8535  13.2647  13.3481  17.5080  17.6130  18.3029  18.3484
    18.4960  18.7138  19.0336  19.1278  19.3322  19.5773  19.7100  19.8355
    19.9845  20.0193  20.4829  20.5758  20.9634  21.0987  21.2724  22.0517
    22.1411  22.3361  22.6950  22.7529  22.8564  22.9183  23.1921  23.3403
    23.9381  23.9924  24.2762  24.5400  24.9192  25.0599  26.0566  26.1024
    27.1890  27.4555  29.4341  30.1361  30.9211

     the Fermi energy is    23.5671 ev

!    total energy              =   -1644.66375324 Ry
     Harris-Foulkes estimate   =   -1644.66376279 Ry
     estimated scf accuracy    <       0.00001149 Ry

     The total energy is the sum of the following terms:

     one-electron contribution =    -318.80144888 Ry
     hartree contribution      =     247.43755670 Ry
     xc contribution           =    -157.76910881 Ry
     ewald contribution        =   -1415.00758424 Ry
     smearing contrib. (-TS)   =      -0.52316802 Ry

     convergence has been achieved in  10 iterations

     Forces acting on atoms (Ry/au):

     atom    1 type  1   force =     0.01400531    0.00808597    0.00000000
     atom    2 type  1   force =     0.01400531   -0.00808597    0.00000000
     atom    3 type  1   force =    -0.01400531   -0.00808597    0.00000000
     atom    4 type  1   force =    -0.01400531    0.00808597    0.00000000
     atom    5 type  1   force =     0.00000000   -0.01617194    0.00000000
     atom    6 type  1   force =     0.00000000    0.01617194    0.00000000
     atom    7 type  2   force =     0.00000000    0.00000000    0.00000000
     atom    8 type  2   force =     0.00000000    0.00000000    0.00000000

     Total force =     0.039613     Total SCF correction =     0.000000

     entering subroutine stress ...

          total   stress  (Ry/bohr**3)                   (kbar)     P= -259.68
  -0.00177654   0.00000000   0.00000000       -261.34      0.00      0.00
   0.00000000  -0.00177654   0.00000000          0.00   -261.34      0.00
   0.00000000   0.00000000  -0.00174263          0.00      0.00   -256.35

     Writing output data file Prototype-La-hP8-Mg3Cd.save

     General routines

     Parallel routines

   This run was terminated on:  19:31:26  22Mar2018

   JOB DONE.