     Program PWSCF v.5.0.2 starts on 22Mar2018 at 17:33: 2

     Current dimensions of program PWSCF are:
     Max number of different atomic species (ntypx) = 10
     Max number of k-points (npk) =  40000
     Max angular momentum in pseudopotentials (lmaxx) =  3
     Waiting for input...
     Reading input from standard input

     Subspace diagonalization in iterative solution of the eigenvalue problem:
     a serial algorithm will be used

     bravais-lattice index     =            0
     lattice parameter (alat)  =       8.5346  a.u.
     unit-cell volume          =     621.6493 (a.u.)^3
     number of atoms/cell      =            8
     number of atomic types    =            2
     number of electrons       =       126.00
     number of Kohn-Sham states=           76
     kinetic-energy cutoff     =      40.0000  Ry
     charge density cutoff     =     160.0000  Ry
     convergence threshold     =      1.0E-04
     mixing beta               =       0.7000
     number of iterations used =            8  plain     mixing
     Exchange-correlation      = SLA-PZ-NOGX-NOGC ( 1 1 0 0 0)
     EXX-fraction              =        0.00
     nstep                     =           50

     celldm(1)=   8.534573  celldm(2)=   0.000000  celldm(3)=   0.000000
     celldm(4)=   0.000000  celldm(5)=   0.000000  celldm(6)=   0.000000

     crystal axes: (cart. coord. in units of alat)
               a(1) = (   1.000000   0.000000   0.000000 )
               a(2) = (   0.000000   1.000000   0.000000 )
               a(3) = (   0.000000   0.000000   1.000000 )

     reciprocal axes: (cart. coord. in units 2 pi/alat)
               b(1) = (  1.000000  0.000000  0.000000 )
               b(2) = (  0.000000  1.000000  0.000000 )
               b(3) = (  0.000000  0.000000  1.000000 )

     PseudoPot. # 1 for Nd read from file:
     /home/cwx6513/pp.La/Nd.UPF
     MD5 check sum: c66c5b6abe7b5840ced9b1e244e3bed6
     Pseudo is Norm-conserving, Zval = 14.0
     Generated in analytical, separable form
     Using radial grid of 1257 points,  6 beta functions with:
                l(1) =   0
                l(2) =   0
                l(3) =   1
                l(4) =   1
                l(5) =   2
                l(6) =   3

     PseudoPot. # 2 for Ho read from file:
     /home/cwx6513/pp.La/Ho.UPF
     MD5 check sum: f307ee11bce99f5b724fa279e3790763
     Pseudo is Norm-conserving, Zval = 21.0
     Generated in analytical, separable form
     Using radial grid of 1265 points,  6 beta functions with:
                l(1) =   0
                l(2) =   0
                l(3) =   1
                l(4) =   1
                l(5) =   2
                l(6) =   3

     atomic species   valence    mass     pseudopotential
        Cr            14.00    51.99610     Nd( 1.00)
        Si            21.00    28.08550     Ho( 1.00)

     48 Sym. Ops., with inversion, found (24 have fractional translation)

   Cartesian axes

     site n.     atom                  positions (alat units)
         1           Cr  tau(   1) = (   0.0000000   0.5000000   0.2500000  )
         2           Cr  tau(   2) = (   0.0000000   0.5000000   0.7500000  )
         3           Cr  tau(   3) = (   0.5000000   0.7500000   0.0000000  )
         4           Cr  tau(   4) = (   0.5000000   0.2500000   0.0000000  )
         5           Cr  tau(   5) = (   0.7500000   0.0000000   0.5000000  )
         6           Cr  tau(   6) = (   0.2500000   0.0000000   0.5000000  )
         7           Si  tau(   7) = (   0.5000000   0.5000000   0.5000000  )
         8           Si  tau(   8) = (   0.0000000   0.0000000   0.0000000  )

     number of k points=    48  gaussian smearing, width (Ry)=  0.1000
                       cart. coord. in units 2pi/alat
        k(    1) = (   0.0000000   0.0000000   0.0000000), wk =   0.0095238
        k(    2) = (   0.0000000   0.0000000   0.1428571), wk =   0.0190476
        k(    3) = (   0.0000000   0.0000000   0.2857143), wk =   0.0190476
        k(    4) = (   0.0000000   0.0000000   0.4285714), wk =   0.0190476
        k(    5) = (   0.0000000   0.1666667   0.0000000), wk =   0.0190476
        k(    6) = (   0.0000000   0.1666667   0.1428571), wk =   0.0380952
        k(    7) = (   0.0000000   0.1666667   0.2857143), wk =   0.0380952
        k(    8) = (   0.0000000   0.1666667   0.4285714), wk =   0.0380952
        k(    9) = (   0.0000000   0.3333333   0.0000000), wk =   0.0190476
        k(   10) = (   0.0000000   0.3333333   0.1428571), wk =   0.0380952
        k(   11) = (   0.0000000   0.3333333   0.2857143), wk =   0.0380952
        k(   12) = (   0.0000000   0.3333333   0.4285714), wk =   0.0380952
        k(   13) = (   0.0000000  -0.5000000   0.0000000), wk =   0.0095238
        k(   14) = (   0.0000000  -0.5000000   0.1428571), wk =   0.0190476
        k(   15) = (   0.0000000  -0.5000000   0.2857143), wk =   0.0190476
        k(   16) = (   0.0000000  -0.5000000   0.4285714), wk =   0.0190476
        k(   17) = (   0.2000000   0.0000000   0.0000000), wk =   0.0190476
        k(   18) = (   0.2000000   0.0000000   0.1428571), wk =   0.0380952
        k(   19) = (   0.2000000   0.0000000   0.2857143), wk =   0.0380952
        k(   20) = (   0.2000000   0.0000000   0.4285714), wk =   0.0380952
        k(   21) = (   0.2000000   0.1666667   0.0000000), wk =   0.0380952
        k(   22) = (   0.2000000   0.1666667   0.1428571), wk =   0.0761905
        k(   23) = (   0.2000000   0.1666667   0.2857143), wk =   0.0761905
        k(   24) = (   0.2000000   0.1666667   0.4285714), wk =   0.0761905
        k(   25) = (   0.2000000   0.3333333   0.0000000), wk =   0.0380952
        k(   26) = (   0.2000000   0.3333333   0.1428571), wk =   0.0761905
        k(   27) = (   0.2000000   0.3333333   0.2857143), wk =   0.0761905
        k(   28) = (   0.2000000   0.3333333   0.4285714), wk =   0.0761905
        k(   29) = (   0.2000000  -0.5000000   0.0000000), wk =   0.0190476
        k(   30) = (   0.2000000  -0.5000000   0.1428571), wk =   0.0380952
        k(   31) = (   0.2000000  -0.5000000   0.2857143), wk =   0.0380952
        k(   32) = (   0.2000000  -0.5000000   0.4285714), wk =   0.0380952
        k(   33) = (   0.4000000   0.0000000   0.0000000), wk =   0.0190476
        k(   34) = (   0.4000000   0.0000000   0.1428571), wk =   0.0380952
        k(   35) = (   0.4000000   0.0000000   0.2857143), wk =   0.0380952
        k(   36) = (   0.4000000   0.0000000   0.4285714), wk =   0.0380952
        k(   37) = (   0.4000000   0.1666667   0.0000000), wk =   0.0380952
        k(   38) = (   0.4000000   0.1666667   0.1428571), wk =   0.0761905
        k(   39) = (   0.4000000   0.1666667   0.2857143), wk =   0.0761905
        k(   40) = (   0.4000000   0.1666667   0.4285714), wk =   0.0761905
        k(   41) = (   0.4000000   0.3333333   0.0000000), wk =   0.0380952
        k(   42) = (   0.4000000   0.3333333   0.1428571), wk =   0.0761905
        k(   43) = (   0.4000000   0.3333333   0.2857143), wk =   0.0761905
        k(   44) = (   0.4000000   0.3333333   0.4285714), wk =   0.0761905
        k(   45) = (   0.4000000  -0.5000000   0.0000000), wk =   0.0190476
        k(   46) = (   0.4000000  -0.5000000   0.1428571), wk =   0.0380952
        k(   47) = (   0.4000000  -0.5000000   0.2857143), wk =   0.0380952
        k(   48) = (   0.4000000  -0.5000000   0.4285714), wk =   0.0380952

     Largest allocated arrays     est. size (Mb)     dimensions
     Largest temporary arrays     est. size (Mb)     dimensions

     Initial potential from superposition of free atoms

     Starting from uniform charge
     Starting wfc are    0 randomized atomic wfcs

     Self-consistent Calculation

     iteration #  1     ecut=    40.00 Ry     beta=0.70
     CG style diagonalization
     c_bands:  2 eigenvalues not converged
     c_bands:  1 eigenvalues not converged
     c_bands:  2 eigenvalues not converged
     c_bands:  1 eigenvalues not converged
     c_bands:  3 eigenvalues not converged
     c_bands:  1 eigenvalues not converged
     c_bands:  2 eigenvalues not converged
     c_bands:  1 eigenvalues not converged
     c_bands:  2 eigenvalues not converged
     c_bands:  2 eigenvalues not converged
     c_bands:  1 eigenvalues not converged
     c_bands:  1 eigenvalues not converged
     c_bands:  1 eigenvalues not converged
     c_bands:  1 eigenvalues not converged
     c_bands:  1 eigenvalues not converged
     c_bands:  2 eigenvalues not converged
     c_bands:  2 eigenvalues not converged
     c_bands:  1 eigenvalues not converged
     c_bands:  1 eigenvalues not converged
     c_bands:  1 eigenvalues not converged
     c_bands:  2 eigenvalues not converged
     c_bands:  2 eigenvalues not converged
     c_bands:  2 eigenvalues not converged
     c_bands:  4 eigenvalues not converged
     c_bands:  1 eigenvalues not converged
     c_bands:  2 eigenvalues not converged
     c_bands:  2 eigenvalues not converged
     c_bands:  1 eigenvalues not converged
     c_bands:  1 eigenvalues not converged
     c_bands:  1 eigenvalues not converged
     c_bands:  2 eigenvalues not converged
     c_bands:  1 eigenvalues not converged
     c_bands:  3 eigenvalues not converged
     c_bands:  1 eigenvalues not converged
     c_bands:  1 eigenvalues not converged
     c_bands:  1 eigenvalues not converged
     c_bands:  1 eigenvalues not converged
     c_bands:  3 eigenvalues not converged
     c_bands:  1 eigenvalues not converged
     c_bands:  1 eigenvalues not converged
     c_bands:  1 eigenvalues not converged
     c_bands:  1 eigenvalues not converged
     ethr =  1.00E-02,  avg # of iterations = 12.2

     total energy              =    -799.02287262 Ry
     Harris-Foulkes estimate   =   -1486.14545150 Ry
     estimated scf accuracy    <     825.72820872 Ry

[...]

     iteration #  4     ecut=    40.00 Ry     beta=0.70
     CG style diagonalization
     ethr =  1.00E-02,  avg # of iterations =  3.6

[...]

     End of self-consistent calculation

          k = 0.0000 0.0000 0.0000 (  2601 PWs)   bands (ev):

   -49.7253 -49.6909 -14.2714 -14.2714 -14.2714 -14.2142 -14.2142 -14.2142
    -7.0684  -5.7166  -5.7166  -3.2125  -3.2125  -3.2125  10.2857  10.2857
    11.4320  13.6151  13.6151  13.6151  16.0291  16.0291  16.0291  17.3383
    17.3383  17.3383  17.7622  17.7622  17.7622  22.2095  22.2095  22.2095
    28.2454  28.2454  29.1832  29.1832  29.5489  29.5489  29.5489  30.0032
    30.0032  30.0032  32.7071  33.3575  33.6964  33.6964  33.6964  35.6322
    37.0912  37.0912  37.0912  38.3749  38.3749  38.9007  41.4723  41.4723
    41.4723  41.7968  41.7968  44.4484  44.4484  44.4484  44.4829  44.4829
    44.4829  47.9510  49.0187  49.0188  49.3910  49.3910  49.3912  49.5960
    49.5960  49.5962  50.8936  50.8939

[...]

     the Fermi energy is    44.7883 ev

!    total energy              =   -1243.01162992 Ry
     Harris-Foulkes estimate   =   -1243.01163588 Ry
     estimated scf accuracy    <       0.00000680 Ry

     The total energy is the sum of the following terms:

     one-electron contribution =     166.15479590 Ry
     hartree contribution      =      96.53491207 Ry
[...]

     new trust radius        =       1.0242541608 bohr
     new conv_thr            =       0.0000010000 Ry

[...]

          total   stress  (Ry/bohr**3)                   (kbar)     P=-1342.19
  -0.00912405   0.00000000   0.00000000      -1342.19      0.00      0.00
   0.00000000  -0.00912405   0.00000000          0.00  -1342.19      0.00
   0.00000000   0.00000000  -0.00912405          0.00      0.00  -1342.19

     number of scf cycles    =   3
     number of bfgs steps    =   2

     enthalpy old            =   -1246.8497394996 Ry
     enthalpy new            =   -1244.8905088184 Ry

     CASE: enthalpy_new > enthalpy_old

     new trust radius        =       0.3425762516 bohr

     trust_radius < trust_radius_min

     resetting bfgs history

     Message from routine bfgs:
     history already reset at previous step: stopping
     new conv_thr            =       0.0000010000 Ry

     new unit-cell volume =   1043.20946 a.u.^3 (   154.58769 Ang^3 )

[...]

ATOMIC_POSITIONS (crystal)
Cr       0.000000000   0.500000000   0.250000000
Cr       0.000000000   0.500000000   0.750000000
Cr       0.500000000   0.750000000   0.000000000
Cr       0.500000000   0.250000000   0.000000000
Cr       0.750000000   0.000000000   0.500000000
Cr       0.250000000   0.000000000   0.500000000
Si       0.500000000   0.500000000   0.500000000
Si       0.000000000   0.000000000   0.000000000

     Writing output data file Prototype-La-cP8-Cr3Si.save
     NEW-OLD atomic charge density approx. for the potential
     NEW k-points:
        k(    1) = (   0.0000000   0.0000000   0.0000000), wk =   0.0095238
        k(    2) = (   0.0000000   0.0000000   0.1202154), wk =   0.0190476
        k(    3) = (   0.0000000   0.0000000   0.2404307), wk =   0.0190476
        k(    4) = (   0.0000000   0.0000000   0.3606461), wk =   0.0190476
        k(    5) = (   0.0000000   0.1402512   0.0000000), wk =   0.0190476
        k(    6) = (   0.0000000   0.1402512   0.1202154), wk =   0.0380952
        k(    7) = (   0.0000000   0.1402512   0.2404307), wk =   0.0380952
        k(    8) = (   0.0000000   0.1402512   0.3606461), wk =   0.0380952
        k(    9) = (   0.0000000   0.2805025   0.0000000), wk =   0.0190476
        k(   10) = (   0.0000000   0.2805025   0.1202154), wk =   0.0380952
        k(   11) = (   0.0000000   0.2805025   0.2404307), wk =   0.0380952
        k(   12) = (   0.0000000   0.2805025   0.3606461), wk =   0.0380952
        k(   13) = (   0.0000000  -0.4207537   0.0000000), wk =   0.0095238
        k(   14) = (   0.0000000  -0.4207537   0.1202154), wk =   0.0190476
        k(   15) = (   0.0000000  -0.4207537   0.2404307), wk =   0.0190476
        k(   16) = (   0.0000000  -0.4207537   0.3606461), wk =   0.0190476
        k(   17) = (   0.1683015   0.0000000   0.0000000), wk =   0.0190476
        k(   18) = (   0.1683015   0.0000000   0.1202154), wk =   0.0380952
        k(   19) = (   0.1683015   0.0000000   0.2404307), wk =   0.0380952
        k(   20) = (   0.1683015   0.0000000   0.3606461), wk =   0.0380952
        k(   21) = (   0.1683015   0.1402512   0.0000000), wk =   0.0380952
        k(   22) = (   0.1683015   0.1402512   0.1202154), wk =   0.0761905
        k(   23) = (   0.1683015   0.1402512   0.2404307), wk =   0.0761905
        k(   24) = (   0.1683015   0.1402512   0.3606461), wk =   0.0761905
        k(   25) = (   0.1683015   0.2805025   0.0000000), wk =   0.0380952
        k(   26) = (   0.1683015   0.2805025   0.1202154), wk =   0.0761905
        k(   27) = (   0.1683015   0.2805025   0.2404307), wk =   0.0761905
        k(   28) = (   0.1683015   0.2805025   0.3606461), wk =   0.0761905
        k(   29) = (   0.1683015  -0.4207537   0.0000000), wk =   0.0190476
        k(   30) = (   0.1683015  -0.4207537   0.1202154), wk =   0.0380952
        k(   31) = (   0.1683015  -0.4207537   0.2404307), wk =   0.0380952
        k(   32) = (   0.1683015  -0.4207537   0.3606461), wk =   0.0380952
        k(   33) = (   0.3366030   0.0000000   0.0000000), wk =   0.0190476
        k(   34) = (   0.3366030   0.0000000   0.1202154), wk =   0.0380952
        k(   35) = (   0.3366030   0.0000000   0.2404307), wk =   0.0380952
        k(   36) = (   0.3366030   0.0000000   0.3606461), wk =   0.0380952
        k(   37) = (   0.3366030   0.1402512   0.0000000), wk =   0.0380952
        k(   38) = (   0.3366030   0.1402512   0.1202154), wk =   0.0761905
        k(   39) = (   0.3366030   0.1402512   0.2404307), wk =   0.0761905
        k(   40) = (   0.3366030   0.1402512   0.3606461), wk =   0.0761905
        k(   41) = (   0.3366030   0.2805025   0.0000000), wk =   0.0380952
        k(   42) = (   0.3366030   0.2805025   0.1202154), wk =   0.0761905
        k(   43) = (   0.3366030   0.2805025   0.2404307), wk =   0.0761905
        k(   44) = (   0.3366030   0.2805025   0.3606461), wk =   0.0761905
        k(   45) = (   0.3366030  -0.4207537   0.0000000), wk =   0.0190476
        k(   46) = (   0.3366030  -0.4207537   0.1202154), wk =   0.0380952
        k(   47) = (   0.3366030  -0.4207537   0.2404307), wk =   0.0380952
        k(   48) = (   0.3366030  -0.4207537   0.3606461), wk =   0.0380952

[...]

     The maximum number of steps has been reached.

     End of BFGS Geometry Optimization
Begin final coordinates
     new unit-cell volume =   1043.20946 a.u.^3 (   154.58769 Ang^3 )

CELL_PARAMETERS (alat=  8.53457320)
   1.188343601   0.000000000   0.000000000
   0.000000000   1.188343601   0.000000000
   0.000000000   0.000000000   1.188343601

ATOMIC_POSITIONS (crystal)
Cr       0.000000000   0.500000000   0.250000000
Cr       0.000000000   0.500000000   0.750000000
Cr       0.500000000   0.750000000   0.000000000
Cr       0.500000000   0.250000000   0.000000000
Cr       0.750000000   0.000000000   0.500000000
Cr       0.250000000   0.000000000   0.500000000
Si       0.500000000   0.500000000   0.500000000
Si       0.000000000   0.000000000   0.000000000
End final coordinates

     A final scf calculation at the relaxed structure.
     The G-vectors are recalculated for the final unit cell
     Results may differ from those at the preceding step.

     bravais-lattice index     =            0
     lattice parameter (alat)  =       8.5346  a.u.
     unit-cell volume          =    1043.2095 (a.u.)^3
     number of atoms/cell      =            8
     number of atomic types    =            2
     number of electrons       =       126.00
     number of Kohn-Sham states=           76
     kinetic-energy cutoff     =      40.0000  Ry
     charge density cutoff     =     160.0000  Ry
     convergence threshold     =      1.0E-06
     mixing beta               =       0.7000
     number of iterations used =            8  plain     mixing
     Exchange-correlation      = SLA-PZ-NOGX-NOGC ( 1 1 0 0 0)
     EXX-fraction              =        0.00

     celldm(1)=   8.534573  celldm(2)=   0.000000  celldm(3)=   0.000000
     celldm(4)=   0.000000  celldm(5)=   0.000000  celldm(6)=   0.000000

     crystal axes: (cart. coord. in units of alat)
               a(1) = (   1.188344   0.000000   0.000000 )
               a(2) = (   0.000000   1.188344   0.000000 )
               a(3) = (   0.000000   0.000000   1.188344 )

     reciprocal axes: (cart. coord. in units 2 pi/alat)
               b(1) = (  0.841507  0.000000  0.000000 )
               b(2) = (  0.000000  0.841507  0.000000 )
               b(3) = (  0.000000  0.000000  0.841507 )

     PseudoPot. # 1 for Nd read from file:
     /home/cwx6513/pp.La/Nd.UPF
     MD5 check sum: c66c5b6abe7b5840ced9b1e244e3bed6
     Pseudo is Norm-conserving, Zval = 14.0
     Generated in analytical, separable form
     Using radial grid of 1257 points,  6 beta functions with:
                l(1) =   0
                l(2) =   0
                l(3) =   1
                l(4) =   1
                l(5) =   2
                l(6) =   3

     PseudoPot. # 2 for Ho read from file:
     /home/cwx6513/pp.La/Ho.UPF
     MD5 check sum: f307ee11bce99f5b724fa279e3790763
     Pseudo is Norm-conserving, Zval = 21.0
     Generated in analytical, separable form
     Using radial grid of 1265 points,  6 beta functions with:
                l(1) =   0
                l(2) =   0
                l(3) =   1
                l(4) =   1
                l(5) =   2
                l(6) =   3

     atomic species   valence    mass     pseudopotential
        Cr            14.00    51.99610     Nd( 1.00)
        Si            21.00    28.08550     Ho( 1.00)

     48 Sym. Ops., with inversion, found (24 have fractional translation)

   Cartesian axes

     site n.     atom                  positions (alat units)
         1           Cr  tau(   1) = (   0.0000000   0.5941718   0.2970859  )
         2           Cr  tau(   2) = (   0.0000000   0.5941718   0.8912577  )
         3           Cr  tau(   3) = (   0.5941718   0.8912577   0.0000000  )
         4           Cr  tau(   4) = (   0.5941718   0.2970859   0.0000000  )
         5           Cr  tau(   5) = (   0.8912577   0.0000000   0.5941718  )
         6           Cr  tau(   6) = (   0.2970859   0.0000000   0.5941718  )
         7           Si  tau(   7) = (   0.5941718   0.5941718   0.5941718  )
         8           Si  tau(   8) = (   0.0000000   0.0000000   0.0000000  )

     number of k points=    48  gaussian smearing, width (Ry)=  0.1000
                       cart. coord. in units 2pi/alat
        k(    1) = (   0.0000000   0.0000000   0.0000000), wk =   0.0095238
        k(    2) = (   0.0000000   0.0000000   0.1202154), wk =   0.0190476
        k(    3) = (   0.0000000   0.0000000   0.2404307), wk =   0.0190476
        k(    4) = (   0.0000000   0.0000000   0.3606461), wk =   0.0190476
        k(    5) = (   0.0000000   0.1402512   0.0000000), wk =   0.0190476
        k(    6) = (   0.0000000   0.1402512   0.1202154), wk =   0.0380952
        k(    7) = (   0.0000000   0.1402512   0.2404307), wk =   0.0380952
        k(    8) = (   0.0000000   0.1402512   0.3606461), wk =   0.0380952
        k(    9) = (   0.0000000   0.2805025   0.0000000), wk =   0.0190476
        k(   10) = (   0.0000000   0.2805025   0.1202154), wk =   0.0380952
        k(   11) = (   0.0000000   0.2805025   0.2404307), wk =   0.0380952
        k(   12) = (   0.0000000   0.2805025   0.3606461), wk =   0.0380952
        k(   13) = (   0.0000000  -0.4207537   0.0000000), wk =   0.0095238
        k(   14) = (   0.0000000  -0.4207537   0.1202154), wk =   0.0190476
        k(   15) = (   0.0000000  -0.4207537   0.2404307), wk =   0.0190476
        k(   16) = (   0.0000000  -0.4207537   0.3606461), wk =   0.0190476
        k(   17) = (   0.1683015   0.0000000   0.0000000), wk =   0.0190476
        k(   18) = (   0.1683015   0.0000000   0.1202154), wk =   0.0380952
        k(   19) = (   0.1683015   0.0000000   0.2404307), wk =   0.0380952
        k(   20) = (   0.1683015   0.0000000   0.3606461), wk =   0.0380952
        k(   21) = (   0.1683015   0.1402512   0.0000000), wk =   0.0380952
        k(   22) = (   0.1683015   0.1402512   0.1202154), wk =   0.0761905
        k(   23) = (   0.1683015   0.1402512   0.2404307), wk =   0.0761905
        k(   24) = (   0.1683015   0.1402512   0.3606461), wk =   0.0761905
        k(   25) = (   0.1683015   0.2805025   0.0000000), wk =   0.0380952
        k(   26) = (   0.1683015   0.2805025   0.1202154), wk =   0.0761905
        k(   27) = (   0.1683015   0.2805025   0.2404307), wk =   0.0761905
        k(   28) = (   0.1683015   0.2805025   0.3606461), wk =   0.0761905
        k(   29) = (   0.1683015  -0.4207537   0.0000000), wk =   0.0190476
        k(   30) = (   0.1683015  -0.4207537   0.1202154), wk =   0.0380952
        k(   31) = (   0.1683015  -0.4207537   0.2404307), wk =   0.0380952
        k(   32) = (   0.1683015  -0.4207537   0.3606461), wk =   0.0380952
        k(   33) = (   0.3366030   0.0000000   0.0000000), wk =   0.0190476
        k(   34) = (   0.3366030   0.0000000   0.1202154), wk =   0.0380952
        k(   35) = (   0.3366030   0.0000000   0.2404307), wk =   0.0380952
        k(   36) = (   0.3366030   0.0000000   0.3606461), wk =   0.0380952
        k(   37) = (   0.3366030   0.1402512   0.0000000), wk =   0.0380952
        k(   38) = (   0.3366030   0.1402512   0.1202154), wk =   0.0761905
        k(   39) = (   0.3366030   0.1402512   0.2404307), wk =   0.0761905
        k(   40) = (   0.3366030   0.1402512   0.3606461), wk =   0.0761905
        k(   41) = (   0.3366030   0.2805025   0.0000000), wk =   0.0380952
        k(   42) = (   0.3366030   0.2805025   0.1202154), wk =   0.0761905
        k(   43) = (   0.3366030   0.2805025   0.2404307), wk =   0.0761905
        k(   44) = (   0.3366030   0.2805025   0.3606461), wk =   0.0761905
        k(   45) = (   0.3366030  -0.4207537   0.0000000), wk =   0.0190476
        k(   46) = (   0.3366030  -0.4207537   0.1202154), wk =   0.0380952
        k(   47) = (   0.3366030  -0.4207537   0.2404307), wk =   0.0380952
        k(   48) = (   0.3366030  -0.4207537   0.3606461), wk =   0.0380952

     Largest allocated arrays     est. size (Mb)     dimensions
     Largest temporary arrays     est. size (Mb)     dimensions

     Initial potential from superposition of free atoms

     Starting from uniform charge
     Starting wfc are    0 randomized atomic wfcs

     Writing output data file Prototype-La-cP8-Cr3Si.save

     Self-consistent Calculation

[...]

     iteration #  8     ecut=    40.00 Ry     beta=0.70
     CG style diagonalization
     c_bands:  1 eigenvalues not converged
     c_bands:  1 eigenvalues not converged
     c_bands:  1 eigenvalues not converged
     c_bands:  1 eigenvalues not converged
     c_bands:  1 eigenvalues not converged
     c_bands:  1 eigenvalues not converged
     ethr =  9.80E-07,  avg # of iterations =  4.4

[...]

     total energy              =   -1249.48590995 Ry
     Harris-Foulkes estimate   =   -1249.48591455 Ry
     estimated scf accuracy    <       0.00000845 Ry

     iteration # 10     ecut=    40.00 Ry     beta=0.70
     CG style diagonalization
     ethr =  6.70E-09,  avg # of iterations =  4.6

     End of self-consistent calculation

[...]

          k = 0.3366-0.4208 0.3606 (  4470 PWs)   bands (ev):

   -66.2993 -66.2993 -30.4636 -30.4635 -30.4592 -30.4591 -30.4584 -30.4583
   -22.6541 -22.6302 -22.5563 -22.5555 -22.4841 -22.4584  -1.9406  -1.7980
    -1.5409  -1.5336  -1.4273  -1.4237  -1.1619  -1.0985  -0.8711  -0.8421
    -0.7600  -0.7455  -0.6423  -0.6321  -0.6030  -0.5891  -0.5860  -0.5531
    13.2087  13.2149  13.2416  13.2430  13.2615  13.2742  13.2813  13.2835
    13.2979  13.3075  18.6353  18.6358  20.9980  21.0823  21.4472  21.4749
    21.5804  21.6124  22.4494  22.4557  22.6752  22.6785  22.7739  22.8537
    23.9930  24.1397  24.2031  24.4259  24.4462  24.4861  25.0231  25.0990
    25.7096  25.7573  26.7016  26.7566  26.8537  26.9222  27.1727  27.3315
    27.3665  27.5598  28.1354  28.2985

     the Fermi energy is    25.4061 ev

!    total energy              =   -1249.48591443 Ry
     Harris-Foulkes estimate   =   -1249.48591494 Ry
     estimated scf accuracy    <       0.00000061 Ry

     The total energy is the sum of the following terms:

     one-electron contribution =    -128.73869297 Ry
     hartree contribution      =     159.98136659 Ry
     xc contribution           =    -131.41837400 Ry
     ewald contribution        =   -1148.95342944 Ry
     smearing contrib. (-TS)   =      -0.35678461 Ry

     convergence has been achieved in  10 iterations

     Forces acting on atoms (Ry/au):

     atom    1 type  1   force =     0.00000000    0.00000000    0.00000000
     atom    2 type  1   force =     0.00000000    0.00000000    0.00000000
     atom    3 type  1   force =     0.00000000    0.00000000    0.00000000
     atom    4 type  1   force =     0.00000000    0.00000000    0.00000000
     atom    5 type  1   force =     0.00000000    0.00000000    0.00000000
     atom    6 type  1   force =     0.00000000    0.00000000    0.00000000
     atom    7 type  2   force =     0.00000000    0.00000000    0.00000000
     atom    8 type  2   force =     0.00000000    0.00000000    0.00000000

     Total force =     0.000000     Total SCF correction =     0.000000

     entering subroutine stress ...

          total   stress  (Ry/bohr**3)                   (kbar)     P=  215.76
   0.00146669   0.00000000   0.00000000        215.76      0.00      0.00
   0.00000000   0.00146669   0.00000000          0.00    215.76      0.00
   0.00000000   0.00000000   0.00146669          0.00      0.00    215.76

     Writing output data file Prototype-La-cP8-Cr3Si.save

     General routines

     Parallel routines

   This run was terminated on:  17:52:16  22Mar2018

   JOB DONE.