     Program PWSCF v.5.0.2 starts on 23Mar2018 at  0:54:33

     Current dimensions of program PWSCF are:
     Max number of different atomic species (ntypx) = 10
     Max number of k-points (npk) =  40000
     Max angular momentum in pseudopotentials (lmaxx) =  3
     Waiting for input...
     Reading input from standard input

     Subspace diagonalization in iterative solution of the eigenvalue problem:
     a serial algorithm will be used

     bravais-lattice index     =            0
     lattice parameter (alat)  =       8.5346  a.u.
     unit-cell volume          =     621.6493 (a.u.)^3
     number of atoms/cell      =            8
     number of atomic types    =            2
     number of electrons       =       170.00
     number of Kohn-Sham states=          102
     kinetic-energy cutoff     =      40.0000  Ry
     charge density cutoff     =     160.0000  Ry
     convergence threshold     =      1.0E-04
     mixing beta               =       0.7000
     number of iterations used =            8  plain     mixing
     Exchange-correlation      = SLA-PZ-NOGX-NOGC ( 1 1 0 0 0)
     EXX-fraction              =        0.00
     nstep                     =           50

     celldm(1)=   8.534573  celldm(2)=   0.000000  celldm(3)=   0.000000
     celldm(4)=   0.000000  celldm(5)=   0.000000  celldm(6)=   0.000000

     crystal axes: (cart. coord. in units of alat)
               a(1) = (   1.000000   0.000000   0.000000 )
               a(2) = (   0.000000   1.000000   0.000000 )
               a(3) = (   0.000000   0.000000   1.000000 )

     reciprocal axes: (cart. coord. in units 2 pi/alat)
               b(1) = (  1.000000  0.000000  0.000000 )
               b(2) = (  0.000000  1.000000  0.000000 )
               b(3) = (  0.000000  0.000000  1.000000 )

     PseudoPot. # 1 for Ho read from file:
     /home/cwx6513/pp.La/Ho.UPF
     MD5 check sum: f307ee11bce99f5b724fa279e3790763
     Pseudo is Norm-conserving, Zval = 21.0
     Generated in analytical, separable form
     Using radial grid of 1265 points,  6 beta functions with:
                l(1) =   0
                l(2) =   0
                l(3) =   1
                l(4) =   1
                l(5) =   2
                l(6) =   3

     PseudoPot. # 2 for Er read from file:
     /home/cwx6513/pp.La/Er.UPF
     MD5 check sum: e152ae21b84514339d8526f066caf99b
     Pseudo is Norm-conserving, Zval = 22.0
     Generated in analytical, separable form
     Using radial grid of 1267 points,  6 beta functions with:
                l(1) =   0
                l(2) =   0
                l(3) =   1
                l(4) =   1
                l(5) =   2
                l(6) =   3

     atomic species   valence    mass     pseudopotential
        Cr            21.00    51.99610     Ho( 1.00)
        Si            22.00    28.08550     Er( 1.00)

     48 Sym. Ops., with inversion, found (24 have fractional translation)

   Cartesian axes

     site n.     atom                  positions (alat units)
         1           Cr  tau(   1) = (   0.0000000   0.5000000   0.2500000  )
         2           Cr  tau(   2) = (   0.0000000   0.5000000   0.7500000  )
         3           Cr  tau(   3) = (   0.5000000   0.7500000   0.0000000  )
         4           Cr  tau(   4) = (   0.5000000   0.2500000   0.0000000  )
         5           Cr  tau(   5) = (   0.7500000   0.0000000   0.5000000  )
         6           Cr  tau(   6) = (   0.2500000   0.0000000   0.5000000  )
         7           Si  tau(   7) = (   0.5000000   0.5000000   0.5000000  )
         8           Si  tau(   8) = (   0.0000000   0.0000000   0.0000000  )

     number of k points=    48  gaussian smearing, width (Ry)=  0.1000
                       cart. coord. in units 2pi/alat
        k(    1) = (   0.0000000   0.0000000   0.0000000), wk =   0.0095238
        k(    2) = (   0.0000000   0.0000000   0.1428571), wk =   0.0190476
        k(    3) = (   0.0000000   0.0000000   0.2857143), wk =   0.0190476
        k(    4) = (   0.0000000   0.0000000   0.4285714), wk =   0.0190476
        k(    5) = (   0.0000000   0.1666667   0.0000000), wk =   0.0190476
        k(    6) = (   0.0000000   0.1666667   0.1428571), wk =   0.0380952
        k(    7) = (   0.0000000   0.1666667   0.2857143), wk =   0.0380952
        k(    8) = (   0.0000000   0.1666667   0.4285714), wk =   0.0380952
        k(    9) = (   0.0000000   0.3333333   0.0000000), wk =   0.0190476
        k(   10) = (   0.0000000   0.3333333   0.1428571), wk =   0.0380952
        k(   11) = (   0.0000000   0.3333333   0.2857143), wk =   0.0380952
        k(   12) = (   0.0000000   0.3333333   0.4285714), wk =   0.0380952
        k(   13) = (   0.0000000  -0.5000000   0.0000000), wk =   0.0095238
        k(   14) = (   0.0000000  -0.5000000   0.1428571), wk =   0.0190476
        k(   15) = (   0.0000000  -0.5000000   0.2857143), wk =   0.0190476
        k(   16) = (   0.0000000  -0.5000000   0.4285714), wk =   0.0190476
        k(   17) = (   0.2000000   0.0000000   0.0000000), wk =   0.0190476
        k(   18) = (   0.2000000   0.0000000   0.1428571), wk =   0.0380952
        k(   19) = (   0.2000000   0.0000000   0.2857143), wk =   0.0380952
        k(   20) = (   0.2000000   0.0000000   0.4285714), wk =   0.0380952
        k(   21) = (   0.2000000   0.1666667   0.0000000), wk =   0.0380952
        k(   22) = (   0.2000000   0.1666667   0.1428571), wk =   0.0761905
        k(   23) = (   0.2000000   0.1666667   0.2857143), wk =   0.0761905
        k(   24) = (   0.2000000   0.1666667   0.4285714), wk =   0.0761905
        k(   25) = (   0.2000000   0.3333333   0.0000000), wk =   0.0380952
        k(   26) = (   0.2000000   0.3333333   0.1428571), wk =   0.0761905
        k(   27) = (   0.2000000   0.3333333   0.2857143), wk =   0.0761905
        k(   28) = (   0.2000000   0.3333333   0.4285714), wk =   0.0761905
        k(   29) = (   0.2000000  -0.5000000   0.0000000), wk =   0.0190476
        k(   30) = (   0.2000000  -0.5000000   0.1428571), wk =   0.0380952
        k(   31) = (   0.2000000  -0.5000000   0.2857143), wk =   0.0380952
        k(   32) = (   0.2000000  -0.5000000   0.4285714), wk =   0.0380952
        k(   33) = (   0.4000000   0.0000000   0.0000000), wk =   0.0190476
        k(   34) = (   0.4000000   0.0000000   0.1428571), wk =   0.0380952
        k(   35) = (   0.4000000   0.0000000   0.2857143), wk =   0.0380952
        k(   36) = (   0.4000000   0.0000000   0.4285714), wk =   0.0380952
        k(   37) = (   0.4000000   0.1666667   0.0000000), wk =   0.0380952
        k(   38) = (   0.4000000   0.1666667   0.1428571), wk =   0.0761905
        k(   39) = (   0.4000000   0.1666667   0.2857143), wk =   0.0761905
        k(   40) = (   0.4000000   0.1666667   0.4285714), wk =   0.0761905
        k(   41) = (   0.4000000   0.3333333   0.0000000), wk =   0.0380952
        k(   42) = (   0.4000000   0.3333333   0.1428571), wk =   0.0761905
        k(   43) = (   0.4000000   0.3333333   0.2857143), wk =   0.0761905
        k(   44) = (   0.4000000   0.3333333   0.4285714), wk =   0.0761905
        k(   45) = (   0.4000000  -0.5000000   0.0000000), wk =   0.0190476
        k(   46) = (   0.4000000  -0.5000000   0.1428571), wk =   0.0380952
        k(   47) = (   0.4000000  -0.5000000   0.2857143), wk =   0.0380952
        k(   48) = (   0.4000000  -0.5000000   0.4285714), wk =   0.0380952

     Largest allocated arrays     est. size (Mb)     dimensions
     Largest temporary arrays     est. size (Mb)     dimensions

     Initial potential from superposition of free atoms

     Starting from uniform charge
     Starting wfc are    0 randomized atomic wfcs

     Self-consistent Calculation

     iteration #  1     ecut=    40.00 Ry     beta=0.70
     CG style diagonalization
     c_bands:  4 eigenvalues not converged
     ethr =  1.00E-02,  avg # of iterations = 15.8

     total energy              =   -2133.31902497 Ry
     Harris-Foulkes estimate   =   -2757.42474733 Ry
     estimated scf accuracy    <     791.99297879 Ry

[...]

     iteration #  3     ecut=    40.00 Ry     beta=0.70
     CG style diagonalization
     ethr =  1.00E-02,  avg # of iterations =  8.9

[...]

     End of self-consistent calculation

          k = 0.0000 0.0000 0.0000 (  2601 PWs)   bands (ev):

   -52.4613 -52.4168 -44.1345 -44.1215 -44.1215 -43.6018 -43.6018 -43.6018
   -14.8268 -14.8268 -14.8268 -14.7754 -14.7754 -14.7754 -10.5250 -10.5250
   -10.2950  -8.6829  -8.6829  -8.6829  -8.0860  -8.0860  -8.0860  -8.0818
    -8.0818  -8.0818  -7.9067  -7.9067  -7.9067  -7.1606  -7.1606  -7.1606
    27.8767  27.8767  29.0487  29.6427  29.6427  29.6427  29.7233  29.7233
    29.7233  29.7700  30.1443  30.1443  30.7395  30.7395  30.7395  30.8218
    30.8218  31.0616  31.6415  31.6415  31.6415  31.9085  34.8689  34.8689
    34.8689  35.4436  35.4436  35.8761  35.8761  35.8761  36.5576  36.5576
    36.5576  37.5423  37.5423  38.3559  38.3559  38.3559  38.8297  38.8297
    38.8297  44.4006  44.4006  44.4006  46.2650  46.2650  47.0099  48.6661
    52.2683  52.2683  52.2683  52.5359  52.5359  52.5359  52.9268  52.9268
    52.9268  53.4889  53.4889  54.0171  54.0171  54.0171  54.5763  54.5763
    54.5763  56.3147  56.3146  56.3146  57.1553  60.0195

[...]

     the Fermi energy is    52.9786 ev

!    total energy              =   -2408.77168603 Ry
     Harris-Foulkes estimate   =   -2408.77176599 Ry
     estimated scf accuracy    <       0.00009871 Ry

     The total energy is the sum of the following terms:

     one-electron contribution =      19.84690385 Ry
     hartree contribution      =     232.36003782 Ry
     xc contribution           =    -220.62545787 Ry
     ewald contribution        =   -2440.05164720 Ry
     smearing contrib. (-TS)   =      -0.30152263 Ry

     convergence has been achieved in   7 iterations

     Forces acting on atoms (Ry/au):

     atom    1 type  1   force =     0.00000000    0.00000000    0.00000000
     atom    2 type  1   force =     0.00000000    0.00000000    0.00000000
     atom    3 type  1   force =     0.00000000    0.00000000    0.00000000
     atom    4 type  1   force =     0.00000000    0.00000000    0.00000000
     atom    5 type  1   force =     0.00000000    0.00000000    0.00000000
     atom    6 type  1   force =     0.00000000    0.00000000    0.00000000
     atom    7 type  2   force =     0.00000000    0.00000000    0.00000000
     atom    8 type  2   force =     0.00000000    0.00000000    0.00000000

     Total force =     0.000000     Total SCF correction =     0.000000

     entering subroutine stress ...

          total   stress  (Ry/bohr**3)                   (kbar)     P= 5878.42
   0.03996068   0.00000000   0.00000000       5878.42      0.00      0.00
   0.00000000   0.03996068   0.00000000          0.00   5878.42      0.00
   0.00000000   0.00000000   0.03996068          0.00      0.00   5878.42

     BFGS Geometry Optimization

     number of scf cycles    =   1
     number of bfgs steps    =   0

     enthalpy new            =   -2408.7716860303 Ry

     new trust radius        =       0.5000000000 bohr
     new conv_thr            =       0.0001000000 Ry

[...]
  -0.01371525   0.00000000   0.00000000      -2017.58      0.00      0.00
   0.00000000  -0.01371525   0.00000000          0.00  -2017.58      0.00
   0.00000000   0.00000000  -0.01371525          0.00      0.00  -2017.58

     number of scf cycles    =   3
     number of bfgs steps    =   2

     enthalpy old            =   -2413.1248203816 Ry
     enthalpy new            =   -2409.7929199895 Ry

     CASE: enthalpy_new > enthalpy_old

     new trust radius        =       0.2632424500 bohr

     trust_radius < trust_radius_min

     resetting bfgs history

     Message from routine bfgs:
     history already reset at previous step: stopping
     new conv_thr            =       0.0000010000 Ry

     new unit-cell volume =   1043.41898 a.u.^3 (   154.61874 Ang^3 )

[...]

ATOMIC_POSITIONS (crystal)
Cr       0.000000000   0.500000000   0.250000000
Cr       0.000000000   0.500000000   0.750000000
Cr       0.500000000   0.750000000   0.000000000
Cr       0.500000000   0.250000000   0.000000000
Cr       0.750000000   0.000000000   0.500000000
Cr       0.250000000   0.000000000   0.500000000
Si       0.500000000   0.500000000   0.500000000
Si       0.000000000   0.000000000   0.000000000

     Writing output data file Prototype-La-cP8-Cr3Si.save
     NEW-OLD atomic charge density approx. for the potential
     NEW k-points:
        k(    1) = (   0.0000000   0.0000000   0.0000000), wk =   0.0095238
        k(    2) = (   0.0000000   0.0000000   0.1202073), wk =   0.0190476
        k(    3) = (   0.0000000   0.0000000   0.2404146), wk =   0.0190476
        k(    4) = (   0.0000000   0.0000000   0.3606219), wk =   0.0190476
        k(    5) = (   0.0000000   0.1402419   0.0000000), wk =   0.0190476
        k(    6) = (   0.0000000   0.1402419   0.1202073), wk =   0.0380952
        k(    7) = (   0.0000000   0.1402419   0.2404146), wk =   0.0380952
        k(    8) = (   0.0000000   0.1402419   0.3606219), wk =   0.0380952
        k(    9) = (   0.0000000   0.2804837   0.0000000), wk =   0.0190476
        k(   10) = (   0.0000000   0.2804837   0.1202073), wk =   0.0380952
        k(   11) = (   0.0000000   0.2804837   0.2404146), wk =   0.0380952
        k(   12) = (   0.0000000   0.2804837   0.3606219), wk =   0.0380952
        k(   13) = (   0.0000000  -0.4207256   0.0000000), wk =   0.0095238
        k(   14) = (   0.0000000  -0.4207256   0.1202073), wk =   0.0190476
        k(   15) = (   0.0000000  -0.4207256   0.2404146), wk =   0.0190476
        k(   16) = (   0.0000000  -0.4207256   0.3606219), wk =   0.0190476
        k(   17) = (   0.1682902   0.0000000   0.0000000), wk =   0.0190476
        k(   18) = (   0.1682902   0.0000000   0.1202073), wk =   0.0380952
        k(   19) = (   0.1682902   0.0000000   0.2404146), wk =   0.0380952
        k(   20) = (   0.1682902   0.0000000   0.3606219), wk =   0.0380952
        k(   21) = (   0.1682902   0.1402419   0.0000000), wk =   0.0380952
        k(   22) = (   0.1682902   0.1402419   0.1202073), wk =   0.0761905
        k(   23) = (   0.1682902   0.1402419   0.2404146), wk =   0.0761905
        k(   24) = (   0.1682902   0.1402419   0.3606219), wk =   0.0761905
        k(   25) = (   0.1682902   0.2804837   0.0000000), wk =   0.0380952
        k(   26) = (   0.1682902   0.2804837   0.1202073), wk =   0.0761905
        k(   27) = (   0.1682902   0.2804837   0.2404146), wk =   0.0761905
        k(   28) = (   0.1682902   0.2804837   0.3606219), wk =   0.0761905
        k(   29) = (   0.1682902  -0.4207256   0.0000000), wk =   0.0190476
        k(   30) = (   0.1682902  -0.4207256   0.1202073), wk =   0.0380952
        k(   31) = (   0.1682902  -0.4207256   0.2404146), wk =   0.0380952
        k(   32) = (   0.1682902  -0.4207256   0.3606219), wk =   0.0380952
        k(   33) = (   0.3365805   0.0000000   0.0000000), wk =   0.0190476
        k(   34) = (   0.3365805   0.0000000   0.1202073), wk =   0.0380952
        k(   35) = (   0.3365805   0.0000000   0.2404146), wk =   0.0380952
        k(   36) = (   0.3365805   0.0000000   0.3606219), wk =   0.0380952
        k(   37) = (   0.3365805   0.1402419   0.0000000), wk =   0.0380952
        k(   38) = (   0.3365805   0.1402419   0.1202073), wk =   0.0761905
        k(   39) = (   0.3365805   0.1402419   0.2404146), wk =   0.0761905
        k(   40) = (   0.3365805   0.1402419   0.3606219), wk =   0.0761905
        k(   41) = (   0.3365805   0.2804837   0.0000000), wk =   0.0380952
        k(   42) = (   0.3365805   0.2804837   0.1202073), wk =   0.0761905
        k(   43) = (   0.3365805   0.2804837   0.2404146), wk =   0.0761905
        k(   44) = (   0.3365805   0.2804837   0.3606219), wk =   0.0761905
        k(   45) = (   0.3365805  -0.4207256   0.0000000), wk =   0.0190476
        k(   46) = (   0.3365805  -0.4207256   0.1202073), wk =   0.0380952
        k(   47) = (   0.3365805  -0.4207256   0.2404146), wk =   0.0380952
        k(   48) = (   0.3365805  -0.4207256   0.3606219), wk =   0.0380952

[...]

     The maximum number of steps has been reached.

     End of BFGS Geometry Optimization
Begin final coordinates
     new unit-cell volume =   1043.41898 a.u.^3 (   154.61874 Ang^3 )

CELL_PARAMETERS (alat=  8.53457320)
   1.188423151   0.000000000   0.000000000
   0.000000000   1.188423151   0.000000000
   0.000000000   0.000000000   1.188423151

ATOMIC_POSITIONS (crystal)
Cr       0.000000000   0.500000000   0.250000000
Cr       0.000000000   0.500000000   0.750000000
Cr       0.500000000   0.750000000   0.000000000
Cr       0.500000000   0.250000000   0.000000000
Cr       0.750000000   0.000000000   0.500000000
Cr       0.250000000   0.000000000   0.500000000
Si       0.500000000   0.500000000   0.500000000
Si       0.000000000   0.000000000   0.000000000
End final coordinates

     A final scf calculation at the relaxed structure.
     The G-vectors are recalculated for the final unit cell
     Results may differ from those at the preceding step.

     bravais-lattice index     =            0
     lattice parameter (alat)  =       8.5346  a.u.
     unit-cell volume          =    1043.4190 (a.u.)^3
     number of atoms/cell      =            8
     number of atomic types    =            2
     number of electrons       =       170.00
     number of Kohn-Sham states=          102
     kinetic-energy cutoff     =      40.0000  Ry
     charge density cutoff     =     160.0000  Ry
     convergence threshold     =      1.0E-06
     mixing beta               =       0.7000
     number of iterations used =            8  plain     mixing
     Exchange-correlation      = SLA-PZ-NOGX-NOGC ( 1 1 0 0 0)
     EXX-fraction              =        0.00

     celldm(1)=   8.534573  celldm(2)=   0.000000  celldm(3)=   0.000000
     celldm(4)=   0.000000  celldm(5)=   0.000000  celldm(6)=   0.000000

     crystal axes: (cart. coord. in units of alat)
               a(1) = (   1.188423   0.000000   0.000000 )
               a(2) = (   0.000000   1.188423   0.000000 )
               a(3) = (   0.000000   0.000000   1.188423 )

     reciprocal axes: (cart. coord. in units 2 pi/alat)
               b(1) = (  0.841451  0.000000  0.000000 )
               b(2) = (  0.000000  0.841451  0.000000 )
               b(3) = (  0.000000  0.000000  0.841451 )

     PseudoPot. # 1 for Ho read from file:
     /home/cwx6513/pp.La/Ho.UPF
     MD5 check sum: f307ee11bce99f5b724fa279e3790763
     Pseudo is Norm-conserving, Zval = 21.0
     Generated in analytical, separable form
     Using radial grid of 1265 points,  6 beta functions with:
                l(1) =   0
                l(2) =   0
                l(3) =   1
                l(4) =   1
                l(5) =   2
                l(6) =   3

     PseudoPot. # 2 for Er read from file:
     /home/cwx6513/pp.La/Er.UPF
     MD5 check sum: e152ae21b84514339d8526f066caf99b
     Pseudo is Norm-conserving, Zval = 22.0
     Generated in analytical, separable form
     Using radial grid of 1267 points,  6 beta functions with:
                l(1) =   0
                l(2) =   0
                l(3) =   1
                l(4) =   1
                l(5) =   2
                l(6) =   3

     atomic species   valence    mass     pseudopotential
        Cr            21.00    51.99610     Ho( 1.00)
        Si            22.00    28.08550     Er( 1.00)

     48 Sym. Ops., with inversion, found (24 have fractional translation)

   Cartesian axes

     site n.     atom                  positions (alat units)
         1           Cr  tau(   1) = (   0.0000000   0.5942116   0.2971058  )
         2           Cr  tau(   2) = (   0.0000000   0.5942116   0.8913174  )
         3           Cr  tau(   3) = (   0.5942116   0.8913174   0.0000000  )
         4           Cr  tau(   4) = (   0.5942116   0.2971058   0.0000000  )
         5           Cr  tau(   5) = (   0.8913174   0.0000000   0.5942116  )
         6           Cr  tau(   6) = (   0.2971058   0.0000000   0.5942116  )
         7           Si  tau(   7) = (   0.5942116   0.5942116   0.5942116  )
         8           Si  tau(   8) = (   0.0000000   0.0000000   0.0000000  )

     number of k points=    48  gaussian smearing, width (Ry)=  0.1000
                       cart. coord. in units 2pi/alat
        k(    1) = (   0.0000000   0.0000000   0.0000000), wk =   0.0095238
        k(    2) = (   0.0000000   0.0000000   0.1202073), wk =   0.0190476
        k(    3) = (   0.0000000   0.0000000   0.2404146), wk =   0.0190476
        k(    4) = (   0.0000000   0.0000000   0.3606219), wk =   0.0190476
        k(    5) = (   0.0000000   0.1402419   0.0000000), wk =   0.0190476
        k(    6) = (   0.0000000   0.1402419   0.1202073), wk =   0.0380952
        k(    7) = (   0.0000000   0.1402419   0.2404146), wk =   0.0380952
        k(    8) = (   0.0000000   0.1402419   0.3606219), wk =   0.0380952
        k(    9) = (   0.0000000   0.2804837   0.0000000), wk =   0.0190476
        k(   10) = (   0.0000000   0.2804837   0.1202073), wk =   0.0380952
        k(   11) = (   0.0000000   0.2804837   0.2404146), wk =   0.0380952
        k(   12) = (   0.0000000   0.2804837   0.3606219), wk =   0.0380952
        k(   13) = (   0.0000000  -0.4207256   0.0000000), wk =   0.0095238
        k(   14) = (   0.0000000  -0.4207256   0.1202073), wk =   0.0190476
        k(   15) = (   0.0000000  -0.4207256   0.2404146), wk =   0.0190476
        k(   16) = (   0.0000000  -0.4207256   0.3606219), wk =   0.0190476
        k(   17) = (   0.1682902   0.0000000   0.0000000), wk =   0.0190476
        k(   18) = (   0.1682902   0.0000000   0.1202073), wk =   0.0380952
        k(   19) = (   0.1682902   0.0000000   0.2404146), wk =   0.0380952
        k(   20) = (   0.1682902   0.0000000   0.3606219), wk =   0.0380952
        k(   21) = (   0.1682902   0.1402419   0.0000000), wk =   0.0380952
        k(   22) = (   0.1682902   0.1402419   0.1202073), wk =   0.0761905
        k(   23) = (   0.1682902   0.1402419   0.2404146), wk =   0.0761905
        k(   24) = (   0.1682902   0.1402419   0.3606219), wk =   0.0761905
        k(   25) = (   0.1682902   0.2804837   0.0000000), wk =   0.0380952
        k(   26) = (   0.1682902   0.2804837   0.1202073), wk =   0.0761905
        k(   27) = (   0.1682902   0.2804837   0.2404146), wk =   0.0761905
        k(   28) = (   0.1682902   0.2804837   0.3606219), wk =   0.0761905
        k(   29) = (   0.1682902  -0.4207256   0.0000000), wk =   0.0190476
        k(   30) = (   0.1682902  -0.4207256   0.1202073), wk =   0.0380952
        k(   31) = (   0.1682902  -0.4207256   0.2404146), wk =   0.0380952
        k(   32) = (   0.1682902  -0.4207256   0.3606219), wk =   0.0380952
        k(   33) = (   0.3365805   0.0000000   0.0000000), wk =   0.0190476
        k(   34) = (   0.3365805   0.0000000   0.1202073), wk =   0.0380952
        k(   35) = (   0.3365805   0.0000000   0.2404146), wk =   0.0380952
        k(   36) = (   0.3365805   0.0000000   0.3606219), wk =   0.0380952
        k(   37) = (   0.3365805   0.1402419   0.0000000), wk =   0.0380952
        k(   38) = (   0.3365805   0.1402419   0.1202073), wk =   0.0761905
        k(   39) = (   0.3365805   0.1402419   0.2404146), wk =   0.0761905
        k(   40) = (   0.3365805   0.1402419   0.3606219), wk =   0.0761905
        k(   41) = (   0.3365805   0.2804837   0.0000000), wk =   0.0380952
        k(   42) = (   0.3365805   0.2804837   0.1202073), wk =   0.0761905
        k(   43) = (   0.3365805   0.2804837   0.2404146), wk =   0.0761905
        k(   44) = (   0.3365805   0.2804837   0.3606219), wk =   0.0761905
        k(   45) = (   0.3365805  -0.4207256   0.0000000), wk =   0.0190476
        k(   46) = (   0.3365805  -0.4207256   0.1202073), wk =   0.0380952
        k(   47) = (   0.3365805  -0.4207256   0.2404146), wk =   0.0380952
        k(   48) = (   0.3365805  -0.4207256   0.3606219), wk =   0.0380952

     Largest allocated arrays     est. size (Mb)     dimensions
     Largest temporary arrays     est. size (Mb)     dimensions

     Initial potential from superposition of free atoms

     Starting from uniform charge
     Starting wfc are    0 randomized atomic wfcs

     Writing output data file Prototype-La-cP8-Cr3Si.save

     Self-consistent Calculation

[...]

     iteration #  8     ecut=    40.00 Ry     beta=0.70
     CG style diagonalization
     c_bands:  1 eigenvalues not converged
     c_bands:  1 eigenvalues not converged
     c_bands:  1 eigenvalues not converged
     c_bands:  1 eigenvalues not converged
     c_bands:  1 eigenvalues not converged
     ethr =  8.95E-06,  avg # of iterations =  3.3

[...]

     total energy              =   -2418.67615519 Ry
     Harris-Foulkes estimate   =   -2418.67616722 Ry
     estimated scf accuracy    <       0.00002089 Ry

     iteration # 11     ecut=    40.00 Ry     beta=0.70
     CG style diagonalization
     ethr =  1.23E-08,  avg # of iterations =  4.2

     End of self-consistent calculation

[...]

          k = 0.3366-0.4207 0.3606 (  4472 PWs)   bands (ev):

   -72.4027 -72.4027 -63.2643 -63.2591 -63.2554 -63.2546 -63.2521 -63.2482
   -34.3871 -34.3871 -34.3820 -34.3819 -34.3806 -34.3806 -27.6700 -27.6474
   -27.5764 -27.5760 -27.5011 -27.4746 -27.4322 -27.4319 -27.4110 -27.4081
   -27.4002 -27.3950 -27.3902 -27.3870 -27.3859 -27.3763 -27.3752 -27.3738
    12.0016  12.0018  12.0159  12.0162  12.0658  12.0776  12.0975  12.1031
    12.1131  12.1138  15.1007  15.1345  15.1998  15.3269  15.4822  15.4953
    15.6591  15.6944  15.8275  15.8316  16.0337  16.0467  16.1126  16.1411
    16.1628  16.1673  16.2474  16.2520  16.4682  16.4706  16.5703  16.5947
    16.6349  16.7641  16.9827  17.0149  17.0804  17.0892  17.1263  17.1588
    19.6557  19.6692  20.6105  20.7542  21.0134  21.1650  22.0651  22.0981
    30.5834  30.6102  31.0411  31.3831  31.6918  32.0307  32.6389  32.6902
    32.8126  32.9159  33.3525  33.4500  33.5290  33.6186  33.9049  33.9941
    34.2005  34.2900  34.7354  34.8924  34.9384  35.0223

     the Fermi energy is    29.8836 ev

!    total energy              =   -2418.67616626 Ry
     Harris-Foulkes estimate   =   -2418.67616673 Ry
     estimated scf accuracy    <       0.00000064 Ry

     The total energy is the sum of the following terms:

     one-electron contribution =    -540.30708528 Ry
     hartree contribution      =     387.42761123 Ry
     xc contribution           =    -212.39488103 Ry
     ewald contribution        =   -2053.18420820 Ry
     smearing contrib. (-TS)   =      -0.21760298 Ry

     convergence has been achieved in  11 iterations

     Forces acting on atoms (Ry/au):

     atom    1 type  1   force =     0.00000000    0.00000000    0.00000000
     atom    2 type  1   force =     0.00000000    0.00000000    0.00000000
     atom    3 type  1   force =     0.00000000    0.00000000    0.00000000
     atom    4 type  1   force =     0.00000000    0.00000000    0.00000000
     atom    5 type  1   force =     0.00000000    0.00000000    0.00000000
     atom    6 type  1   force =     0.00000000    0.00000000    0.00000000
     atom    7 type  2   force =     0.00000000    0.00000000    0.00000000
     atom    8 type  2   force =     0.00000000    0.00000000    0.00000000

     Total force =     0.000000     Total SCF correction =     0.000000

     entering subroutine stress ...

          total   stress  (Ry/bohr**3)                   (kbar)     P=  303.76
   0.00206494   0.00000000   0.00000000        303.76      0.00      0.00
   0.00000000   0.00206494   0.00000000          0.00    303.76      0.00
   0.00000000   0.00000000   0.00206494          0.00      0.00    303.76

     Writing output data file Prototype-La-cP8-Cr3Si.save

     General routines

     Parallel routines

   This run was terminated on:   1:23:50  23Mar2018

   JOB DONE.