     Program PWSCF v.5.0.2 starts on 23Mar2018 at  0:54:34

     Current dimensions of program PWSCF are:
     Max number of different atomic species (ntypx) = 10
     Max number of k-points (npk) =  40000
     Max angular momentum in pseudopotentials (lmaxx) =  3
     Waiting for input...
     Reading input from standard input

     Subspace diagonalization in iterative solution of the eigenvalue problem:
     a serial algorithm will be used

     bravais-lattice index     =            0
     lattice parameter (alat)  =      12.0168  a.u.
     unit-cell volume          =    1187.3413 (a.u.)^3
     number of atoms/cell      =            8
     number of atomic types    =            2
     number of electrons       =       170.00
     number of Kohn-Sham states=          102
     kinetic-energy cutoff     =      40.0000  Ry
     charge density cutoff     =     160.0000  Ry
     convergence threshold     =      1.0E-04
     mixing beta               =       0.7000
     number of iterations used =            8  plain     mixing
     Exchange-correlation      = SLA-PZ-NOGX-NOGC ( 1 1 0 0 0)
     EXX-fraction              =        0.00
     nstep                     =           50

     celldm(1)=  12.016801  celldm(2)=   0.000000  celldm(3)=   0.000000
     celldm(4)=   0.000000  celldm(5)=   0.000000  celldm(6)=   0.000000

     crystal axes: (cart. coord. in units of alat)
               a(1) = (   1.000000   0.000000   0.000000 )
               a(2) = (  -0.500000   0.866025   0.000000 )
               a(3) = (   0.000000   0.000000   0.790093 )

     reciprocal axes: (cart. coord. in units 2 pi/alat)
               b(1) = (  1.000000  0.577350  0.000000 )
               b(2) = (  0.000000  1.154701  0.000000 )
               b(3) = (  0.000000  0.000000  1.265674 )

     PseudoPot. # 1 for Ho read from file:
     /home/cwx6513/pp.La/Ho.UPF
     MD5 check sum: f307ee11bce99f5b724fa279e3790763
     Pseudo is Norm-conserving, Zval = 21.0
     Generated in analytical, separable form
     Using radial grid of 1265 points,  6 beta functions with:
                l(1) =   0
                l(2) =   0
                l(3) =   1
                l(4) =   1
                l(5) =   2
                l(6) =   3

     PseudoPot. # 2 for Er read from file:
     /home/cwx6513/pp.La/Er.UPF
     MD5 check sum: e152ae21b84514339d8526f066caf99b
     Pseudo is Norm-conserving, Zval = 22.0
     Generated in analytical, separable form
     Using radial grid of 1267 points,  6 beta functions with:
                l(1) =   0
                l(2) =   0
                l(3) =   1
                l(4) =   1
                l(5) =   2
                l(6) =   3

     atomic species   valence    mass     pseudopotential
        Mg            21.00    24.30500     Ho( 1.00)
        Cd            22.00   112.41100     Er( 1.00)

     24 Sym. Ops., with inversion, found (12 have fractional translation)

   Cartesian axes

     site n.     atom                  positions (alat units)
         1           Mg  tau(   1) = (   0.2478935   0.7204716   0.1975233  )
         2           Mg  tau(   2) = (   0.7478935   0.1455538   0.5925699  )
         3           Mg  tau(   3) = (   0.2521065   0.1455538   0.5925699  )
         4           Mg  tau(   4) = (  -0.2478935   0.7204716   0.1975233  )
         5           Mg  tau(   5) = (   0.0000000   0.2911075   0.1975233  )
         6           Mg  tau(   6) = (   0.5000000   0.5749179   0.5925699  )
         7           Cd  tau(   7) = (   0.5000005   0.2886748   0.1975233  )
         8           Cd  tau(   8) = (  -0.0000005   0.5773506   0.5925699  )

     number of k points=    64  gaussian smearing, width (Ry)=  0.1000
                       cart. coord. in units 2pi/alat
        k(    1) = (   0.0000000   0.0000000   0.0000000), wk =   0.0095238
        k(    2) = (   0.0000000   0.0000000   0.1808105), wk =   0.0190476
        k(    3) = (   0.0000000   0.0000000   0.3616210), wk =   0.0190476
        k(    4) = (   0.0000000   0.0000000   0.5424315), wk =   0.0190476
        k(    5) = (   0.0000000   0.1924501   0.0000000), wk =   0.0190476
        k(    6) = (   0.0000000   0.1924501   0.1808105), wk =   0.0380952
        k(    7) = (   0.0000000   0.1924501   0.3616210), wk =   0.0380952
        k(    8) = (   0.0000000   0.1924501   0.5424315), wk =   0.0380952
        k(    9) = (   0.0000000   0.3849002   0.0000000), wk =   0.0190476
        k(   10) = (   0.0000000   0.3849002   0.1808105), wk =   0.0380952
        k(   11) = (   0.0000000   0.3849002   0.3616210), wk =   0.0380952
        k(   12) = (   0.0000000   0.3849002   0.5424315), wk =   0.0380952
        k(   13) = (   0.0000000  -0.5773503   0.0000000), wk =   0.0095238
        k(   14) = (   0.0000000  -0.5773503   0.1808105), wk =   0.0190476
        k(   15) = (   0.0000000  -0.5773503   0.3616210), wk =   0.0190476
        k(   16) = (   0.0000000  -0.5773503   0.5424315), wk =   0.0190476
        k(   17) = (   0.2000000   0.1154701   0.0000000), wk =   0.0190476
        k(   18) = (   0.2000000   0.1154701   0.1808105), wk =   0.0380952
        k(   19) = (   0.2000000   0.1154701   0.3616210), wk =   0.0380952
        k(   20) = (   0.2000000   0.1154701   0.5424315), wk =   0.0380952
        k(   21) = (   0.2000000   0.3079201   0.0000000), wk =   0.0190476
        k(   22) = (   0.2000000   0.3079201   0.1808105), wk =   0.0380952
        k(   23) = (   0.2000000   0.3079201   0.3616210), wk =   0.0380952
        k(   24) = (   0.2000000   0.3079201   0.5424315), wk =   0.0380952
        k(   25) = (   0.2000000   0.5003702   0.0000000), wk =   0.0190476
        k(   26) = (   0.2000000   0.5003702   0.1808105), wk =   0.0380952
        k(   27) = (   0.2000000   0.5003702   0.3616210), wk =   0.0380952
        k(   28) = (   0.2000000   0.5003702   0.5424315), wk =   0.0380952
        k(   29) = (   0.2000000  -0.4618802   0.0000000), wk =   0.0190476
        k(   30) = (   0.2000000  -0.4618802   0.1808105), wk =   0.0380952
        k(   31) = (   0.2000000  -0.4618802   0.3616210), wk =   0.0380952
        k(   32) = (   0.2000000  -0.4618802   0.5424315), wk =   0.0380952
        k(   33) = (   0.2000000  -0.2694301   0.0000000), wk =   0.0190476
        k(   34) = (   0.2000000  -0.2694301   0.1808105), wk =   0.0380952
        k(   35) = (   0.2000000  -0.2694301   0.3616210), wk =   0.0380952
        k(   36) = (   0.2000000  -0.2694301   0.5424315), wk =   0.0380952
        k(   37) = (   0.2000000  -0.0769800   0.0000000), wk =   0.0190476
        k(   38) = (   0.2000000  -0.0769800   0.1808105), wk =   0.0380952
        k(   39) = (   0.2000000  -0.0769800   0.3616210), wk =   0.0380952
        k(   40) = (   0.2000000  -0.0769800   0.5424315), wk =   0.0380952
        k(   41) = (   0.4000000   0.2309401   0.0000000), wk =   0.0190476
        k(   42) = (   0.4000000   0.2309401   0.1808105), wk =   0.0380952
        k(   43) = (   0.4000000   0.2309401   0.3616210), wk =   0.0380952
        k(   44) = (   0.4000000   0.2309401   0.5424315), wk =   0.0380952
        k(   45) = (   0.4000000   0.4233902   0.0000000), wk =   0.0190476
        k(   46) = (   0.4000000   0.4233902   0.1808105), wk =   0.0380952
        k(   47) = (   0.4000000   0.4233902   0.3616210), wk =   0.0380952
        k(   48) = (   0.4000000   0.4233902   0.5424315), wk =   0.0380952
        k(   49) = (   0.4000000   0.6158403   0.0000000), wk =   0.0190476
        k(   50) = (   0.4000000   0.6158403   0.1808105), wk =   0.0380952
        k(   51) = (   0.4000000   0.6158403   0.3616210), wk =   0.0380952
        k(   52) = (   0.4000000   0.6158403   0.5424315), wk =   0.0380952
        k(   53) = (   0.4000000  -0.3464102   0.0000000), wk =   0.0190476
        k(   54) = (   0.4000000  -0.3464102   0.1808105), wk =   0.0380952
        k(   55) = (   0.4000000  -0.3464102   0.3616210), wk =   0.0380952
        k(   56) = (   0.4000000  -0.3464102   0.5424315), wk =   0.0380952
        k(   57) = (   0.4000000  -0.1539601   0.0000000), wk =   0.0190476
        k(   58) = (   0.4000000  -0.1539601   0.1808105), wk =   0.0380952
        k(   59) = (   0.4000000  -0.1539601   0.3616210), wk =   0.0380952
        k(   60) = (   0.4000000  -0.1539601   0.5424315), wk =   0.0380952
        k(   61) = (   0.4000000   0.0384900   0.0000000), wk =   0.0190476
        k(   62) = (   0.4000000   0.0384900   0.1808105), wk =   0.0380952
        k(   63) = (   0.4000000   0.0384900   0.3616210), wk =   0.0380952
        k(   64) = (   0.4000000   0.0384900   0.5424315), wk =   0.0380952

     Largest allocated arrays     est. size (Mb)     dimensions
     Largest temporary arrays     est. size (Mb)     dimensions

     Initial potential from superposition of free atoms

     Starting from uniform charge
     Starting wfc are    0 randomized atomic wfcs

     Self-consistent Calculation

     iteration #  1     ecut=    40.00 Ry     beta=0.70
     CG style diagonalization
     ethr =  1.00E-02,  avg # of iterations = 17.3

     total energy              =   -2050.02072878 Ry
     Harris-Foulkes estimate   =   -3068.89394829 Ry
     estimated scf accuracy    <    1275.20503766 Ry

     iteration #  2     ecut=    40.00 Ry     beta=0.70
     CG style diagonalization
     c_bands:  1 eigenvalues not converged
     c_bands:  1 eigenvalues not converged
     ethr =  1.00E-02,  avg # of iterations =  8.7

[...]

     End of self-consistent calculation

          k = 0.0000 0.0000 0.0000 (  5047 PWs)   bands (ev):

   -76.1878 -76.1819 -66.8712 -66.8698 -66.8697 -66.8530 -66.8529 -66.8481
   -38.1614 -38.1550 -38.1322 -38.1322 -38.1231 -38.1231 -31.1444 -31.1031
   -31.0827 -31.0747 -31.0747 -31.0495 -31.0495 -31.0453 -31.0452 -31.0135
   -30.9820 -30.9820 -30.9481 -30.9480 -30.9395 -30.9377 -30.9377 -30.9289
     8.5126   8.5162   8.5181   8.5181   8.5359   8.5359   8.6186   8.6186
     8.7015   8.7015  11.4285  11.5393  11.5894  11.8773  11.8773  11.9076
    11.9581  12.1318  12.1318  12.2356  12.2844  12.2845  12.5855  12.5855
    12.8258  12.9510  12.9510  12.9942  13.2783  13.2783  13.4151  13.4152
    13.6237  13.6237  13.7089  13.7090  13.8218  13.8219  14.0208  14.1976
    14.2213  18.6638  19.0323  19.0324  19.0563  19.5883  19.6633  19.6634
    21.3294  24.7946  24.7947  25.0762  25.1328  25.2782  25.9197  25.9198
    26.4194  26.4195  27.7183  27.7183  28.0843  29.0821  29.0822  29.3859
    31.2936  31.3777  31.5435  31.5436  32.7502  32.9313

[...]

     the Fermi energy is    25.4731 ev

!    total energy              =   -2419.74613083 Ry
     Harris-Foulkes estimate   =   -2419.74614417 Ry
     estimated scf accuracy    <       0.00001453 Ry

     The total energy is the sum of the following terms:

     one-electron contribution =    -664.33979322 Ry
     hartree contribution      =     426.20011738 Ry
     xc contribution           =    -210.99207057 Ry
     ewald contribution        =   -1970.38761147 Ry
     smearing contrib. (-TS)   =      -0.22677295 Ry

     convergence has been achieved in  11 iterations

     Forces acting on atoms (Ry/au):

[...]
        k(   18) = (   0.2065345   0.1192428   0.1843443), wk =   0.0380952
        k(   19) = (   0.2065345   0.1192428   0.3686887), wk =   0.0380952
        k(   20) = (   0.2065345   0.1192428   0.5530330), wk =   0.0380952
        k(   21) = (   0.2065345   0.3179807   0.0000000), wk =   0.0190476
        k(   22) = (   0.2065345   0.3179807   0.1843443), wk =   0.0380952
        k(   23) = (   0.2065345   0.3179807   0.3686887), wk =   0.0380952
        k(   24) = (   0.2065345   0.3179807   0.5530330), wk =   0.0380952
        k(   25) = (   0.2065345   0.5167187   0.0000000), wk =   0.0190476
        k(   26) = (   0.2065345   0.5167187   0.1843443), wk =   0.0380952
        k(   27) = (   0.2065345   0.5167187   0.3686887), wk =   0.0380952
        k(   28) = (   0.2065345   0.5167187   0.5530330), wk =   0.0380952
        k(   29) = (   0.2065345  -0.4769711   0.0000000), wk =   0.0190476
        k(   30) = (   0.2065345  -0.4769711   0.1843443), wk =   0.0380952
        k(   31) = (   0.2065345  -0.4769711   0.3686887), wk =   0.0380952
        k(   32) = (   0.2065345  -0.4769711   0.5530330), wk =   0.0380952
        k(   33) = (   0.2065345  -0.2782331   0.0000000), wk =   0.0190476
        k(   34) = (   0.2065345  -0.2782331   0.1843443), wk =   0.0380952
        k(   35) = (   0.2065345  -0.2782331   0.3686887), wk =   0.0380952
        k(   36) = (   0.2065345  -0.2782331   0.5530330), wk =   0.0380952
        k(   37) = (   0.2065345  -0.0794952   0.0000000), wk =   0.0190476
        k(   38) = (   0.2065345  -0.0794952   0.1843443), wk =   0.0380952
        k(   39) = (   0.2065345  -0.0794952   0.3686887), wk =   0.0380952
        k(   40) = (   0.2065345  -0.0794952   0.5530330), wk =   0.0380952
        k(   41) = (   0.4130691   0.2384855   0.0000000), wk =   0.0190476
        k(   42) = (   0.4130691   0.2384855   0.1843443), wk =   0.0380952
        k(   43) = (   0.4130691   0.2384855   0.3686887), wk =   0.0380952
        k(   44) = (   0.4130691   0.2384855   0.5530330), wk =   0.0380952
        k(   45) = (   0.4130691   0.4372235   0.0000000), wk =   0.0190476
        k(   46) = (   0.4130691   0.4372235   0.1843443), wk =   0.0380952
        k(   47) = (   0.4130691   0.4372235   0.3686887), wk =   0.0380952
        k(   48) = (   0.4130691   0.4372235   0.5530330), wk =   0.0380952
        k(   49) = (   0.4130691   0.6359615   0.0000000), wk =   0.0190476
        k(   50) = (   0.4130691   0.6359615   0.1843443), wk =   0.0380952
        k(   51) = (   0.4130691   0.6359615   0.3686887), wk =   0.0380952
        k(   52) = (   0.4130691   0.6359615   0.5530330), wk =   0.0380952
        k(   53) = (   0.4130691  -0.3577283   0.0000000), wk =   0.0190476
        k(   54) = (   0.4130691  -0.3577283   0.1843443), wk =   0.0380952
        k(   55) = (   0.4130691  -0.3577283   0.3686887), wk =   0.0380952
        k(   56) = (   0.4130691  -0.3577283   0.5530330), wk =   0.0380952
        k(   57) = (   0.4130691  -0.1589904   0.0000000), wk =   0.0190476
        k(   58) = (   0.4130691  -0.1589904   0.1843443), wk =   0.0380952
        k(   59) = (   0.4130691  -0.1589904   0.3686887), wk =   0.0380952
        k(   60) = (   0.4130691  -0.1589904   0.5530330), wk =   0.0380952
        k(   61) = (   0.4130691   0.0397476   0.0000000), wk =   0.0190476
        k(   62) = (   0.4130691   0.0397476   0.1843443), wk =   0.0380952
        k(   63) = (   0.4130691   0.0397476   0.3686887), wk =   0.0380952
        k(   64) = (   0.4130691   0.0397476   0.5530330), wk =   0.0380952

[...]

     Threshold (ethr) on eigenvalues was too large:
     Diagonalizing with lowered threshold

     CG style diagonalization
     ethr =  5.61E-09,  avg # of iterations =  3.4

[...]

     The maximum number of steps has been reached.

     End of BFGS Geometry Optimization
Begin final coordinates
     new unit-cell volume =   1092.05371 a.u.^3 (   161.82566 Ang^3 )

CELL_PARAMETERS (alat= 12.01680127)
   0.968361010   0.000000000   0.000000000
  -0.484180505   0.838625234   0.000000000
   0.000000000   0.000000000   0.774947250

ATOMIC_POSITIONS (crystal)
Mg       0.665013747   0.832506873   0.250000000
Mg       0.832506873   0.167493127   0.750000000
Mg       0.334986253   0.167493127   0.750000000
Mg       0.167493127   0.832506873   0.250000000
Mg       0.167493127   0.334986253   0.250000000
Mg       0.832506873   0.665013747   0.750000000
Cd       0.666667000   0.333333000   0.250000000
Cd       0.333333000   0.666667000   0.750000000
End final coordinates

     A final scf calculation at the relaxed structure.
     The G-vectors are recalculated for the final unit cell
     Results may differ from those at the preceding step.

     bravais-lattice index     =            0
     lattice parameter (alat)  =      12.0168  a.u.
     unit-cell volume          =    1092.0537 (a.u.)^3
     number of atoms/cell      =            8
     number of atomic types    =            2
     number of electrons       =       170.00
     number of Kohn-Sham states=          102
     kinetic-energy cutoff     =      40.0000  Ry
     charge density cutoff     =     160.0000  Ry
     convergence threshold     =      1.0E-04
     mixing beta               =       0.7000
     number of iterations used =            8  plain     mixing
     Exchange-correlation      = SLA-PZ-NOGX-NOGC ( 1 1 0 0 0)
     EXX-fraction              =        0.00

     celldm(1)=  12.016801  celldm(2)=   0.000000  celldm(3)=   0.000000
     celldm(4)=   0.000000  celldm(5)=   0.000000  celldm(6)=   0.000000

     crystal axes: (cart. coord. in units of alat)
               a(1) = (   0.968361   0.000000   0.000000 )
               a(2) = (  -0.484181   0.838625   0.000000 )
               a(3) = (   0.000000   0.000000   0.774947 )

     reciprocal axes: (cart. coord. in units 2 pi/alat)
               b(1) = (  1.032673  0.596214  0.000000 )
               b(2) = (  0.000000  1.192428  0.000000 )
               b(3) = (  0.000000  0.000000  1.290410 )

     PseudoPot. # 1 for Ho read from file:
     /home/cwx6513/pp.La/Ho.UPF
     MD5 check sum: f307ee11bce99f5b724fa279e3790763
     Pseudo is Norm-conserving, Zval = 21.0
     Generated in analytical, separable form
     Using radial grid of 1265 points,  6 beta functions with:
                l(1) =   0
                l(2) =   0
                l(3) =   1
                l(4) =   1
                l(5) =   2
                l(6) =   3

     PseudoPot. # 2 for Er read from file:
     /home/cwx6513/pp.La/Er.UPF
     MD5 check sum: e152ae21b84514339d8526f066caf99b
     Pseudo is Norm-conserving, Zval = 22.0
     Generated in analytical, separable form
     Using radial grid of 1267 points,  6 beta functions with:
                l(1) =   0
                l(2) =   0
                l(3) =   1
                l(4) =   1
                l(5) =   2
                l(6) =   3

     atomic species   valence    mass     pseudopotential
        Mg            21.00    24.30500     Ho( 1.00)
        Cd            22.00   112.41100     Er( 1.00)

     24 Sym. Ops., with inversion, found (12 have fractional translation)

   Cartesian axes

     site n.     atom                  positions (alat units)
         1           Mg  tau(   1) = (   0.2408898   0.6981613   0.1937368  )
         2           Mg  tau(   2) = (   0.7250703   0.1404640   0.5812104  )
         3           Mg  tau(   3) = (   0.2432907   0.1404640   0.5812104  )
         4           Mg  tau(   4) = (  -0.2408898   0.6981613   0.1937368  )
         5           Mg  tau(   5) = (   0.0000000   0.2809279   0.1937368  )
         6           Mg  tau(   6) = (   0.4841805   0.5576973   0.5812104  )
         7           Cd  tau(   7) = (   0.4841810   0.2795415   0.1937368  )
         8           Cd  tau(   8) = (  -0.0000005   0.5590838   0.5812104  )

     number of k points=    64  gaussian smearing, width (Ry)=  0.1000
                       cart. coord. in units 2pi/alat
        k(    1) = (   0.0000000   0.0000000   0.0000000), wk =   0.0095238
        k(    2) = (   0.0000000   0.0000000   0.1843443), wk =   0.0190476
        k(    3) = (   0.0000000   0.0000000   0.3686887), wk =   0.0190476
        k(    4) = (   0.0000000   0.0000000   0.5530330), wk =   0.0190476
        k(    5) = (   0.0000000   0.1987380   0.0000000), wk =   0.0190476
        k(    6) = (   0.0000000   0.1987380   0.1843443), wk =   0.0380952
        k(    7) = (   0.0000000   0.1987380   0.3686887), wk =   0.0380952
        k(    8) = (   0.0000000   0.1987380   0.5530330), wk =   0.0380952
        k(    9) = (   0.0000000   0.3974759   0.0000000), wk =   0.0190476
        k(   10) = (   0.0000000   0.3974759   0.1843443), wk =   0.0380952
        k(   11) = (   0.0000000   0.3974759   0.3686887), wk =   0.0380952
        k(   12) = (   0.0000000   0.3974759   0.5530330), wk =   0.0380952
        k(   13) = (   0.0000000  -0.5962139   0.0000000), wk =   0.0095238
        k(   14) = (   0.0000000  -0.5962139   0.1843443), wk =   0.0190476
        k(   15) = (   0.0000000  -0.5962139   0.3686887), wk =   0.0190476
        k(   16) = (   0.0000000  -0.5962139   0.5530330), wk =   0.0190476
        k(   17) = (   0.2065345   0.1192428   0.0000000), wk =   0.0190476
        k(   18) = (   0.2065345   0.1192428   0.1843443), wk =   0.0380952
        k(   19) = (   0.2065345   0.1192428   0.3686887), wk =   0.0380952
        k(   20) = (   0.2065345   0.1192428   0.5530330), wk =   0.0380952
        k(   21) = (   0.2065345   0.3179807   0.0000000), wk =   0.0190476
        k(   22) = (   0.2065345   0.3179807   0.1843443), wk =   0.0380952
        k(   23) = (   0.2065345   0.3179807   0.3686887), wk =   0.0380952
        k(   24) = (   0.2065345   0.3179807   0.5530330), wk =   0.0380952
        k(   25) = (   0.2065345   0.5167187   0.0000000), wk =   0.0190476
        k(   26) = (   0.2065345   0.5167187   0.1843443), wk =   0.0380952
        k(   27) = (   0.2065345   0.5167187   0.3686887), wk =   0.0380952
        k(   28) = (   0.2065345   0.5167187   0.5530330), wk =   0.0380952
        k(   29) = (   0.2065345  -0.4769711   0.0000000), wk =   0.0190476
        k(   30) = (   0.2065345  -0.4769711   0.1843443), wk =   0.0380952
        k(   31) = (   0.2065345  -0.4769711   0.3686887), wk =   0.0380952
        k(   32) = (   0.2065345  -0.4769711   0.5530330), wk =   0.0380952
        k(   33) = (   0.2065345  -0.2782331   0.0000000), wk =   0.0190476
        k(   34) = (   0.2065345  -0.2782331   0.1843443), wk =   0.0380952
        k(   35) = (   0.2065345  -0.2782331   0.3686887), wk =   0.0380952
        k(   36) = (   0.2065345  -0.2782331   0.5530330), wk =   0.0380952
        k(   37) = (   0.2065345  -0.0794952   0.0000000), wk =   0.0190476
        k(   38) = (   0.2065345  -0.0794952   0.1843443), wk =   0.0380952
        k(   39) = (   0.2065345  -0.0794952   0.3686887), wk =   0.0380952
        k(   40) = (   0.2065345  -0.0794952   0.5530330), wk =   0.0380952
        k(   41) = (   0.4130691   0.2384855   0.0000000), wk =   0.0190476
        k(   42) = (   0.4130691   0.2384855   0.1843443), wk =   0.0380952
        k(   43) = (   0.4130691   0.2384855   0.3686887), wk =   0.0380952
        k(   44) = (   0.4130691   0.2384855   0.5530330), wk =   0.0380952
        k(   45) = (   0.4130691   0.4372235   0.0000000), wk =   0.0190476
        k(   46) = (   0.4130691   0.4372235   0.1843443), wk =   0.0380952
        k(   47) = (   0.4130691   0.4372235   0.3686887), wk =   0.0380952
        k(   48) = (   0.4130691   0.4372235   0.5530330), wk =   0.0380952
        k(   49) = (   0.4130691   0.6359615   0.0000000), wk =   0.0190476
        k(   50) = (   0.4130691   0.6359615   0.1843443), wk =   0.0380952
        k(   51) = (   0.4130691   0.6359615   0.3686887), wk =   0.0380952
        k(   52) = (   0.4130691   0.6359615   0.5530330), wk =   0.0380952
        k(   53) = (   0.4130691  -0.3577283   0.0000000), wk =   0.0190476
        k(   54) = (   0.4130691  -0.3577283   0.1843443), wk =   0.0380952
        k(   55) = (   0.4130691  -0.3577283   0.3686887), wk =   0.0380952
        k(   56) = (   0.4130691  -0.3577283   0.5530330), wk =   0.0380952
        k(   57) = (   0.4130691  -0.1589904   0.0000000), wk =   0.0190476
        k(   58) = (   0.4130691  -0.1589904   0.1843443), wk =   0.0380952
        k(   59) = (   0.4130691  -0.1589904   0.3686887), wk =   0.0380952
        k(   60) = (   0.4130691  -0.1589904   0.5530330), wk =   0.0380952
        k(   61) = (   0.4130691   0.0397476   0.0000000), wk =   0.0190476
        k(   62) = (   0.4130691   0.0397476   0.1843443), wk =   0.0380952
        k(   63) = (   0.4130691   0.0397476   0.3686887), wk =   0.0380952
        k(   64) = (   0.4130691   0.0397476   0.5530330), wk =   0.0380952

     Largest allocated arrays     est. size (Mb)     dimensions
     Largest temporary arrays     est. size (Mb)     dimensions

     Initial potential from superposition of free atoms

     Starting from uniform charge
     Starting wfc are    0 randomized atomic wfcs

     Writing output data file Prototype-La-hP8-Mg3Cd.save

     Self-consistent Calculation

[...]

     iteration # 10     ecut=    40.00 Ry     beta=0.70
     CG style diagonalization
     c_bands:  1 eigenvalues not converged
     c_bands:  2 eigenvalues not converged
     c_bands:  1 eigenvalues not converged
     c_bands:  1 eigenvalues not converged
     c_bands:  1 eigenvalues not converged
     ethr =  6.47E-07,  avg # of iterations =  3.8

     total energy              =   -2419.22033160 Ry
     Harris-Foulkes estimate   =   -2419.22048149 Ry
     estimated scf accuracy    <       0.00025747 Ry

     iteration # 11     ecut=    40.00 Ry     beta=0.70
     CG style diagonalization
     ethr =  1.51E-07,  avg # of iterations =  3.6

     End of self-consistent calculation

[...]

          k = 0.4131 0.0397 0.5530 (  4654 PWs)   bands (ev):

   -73.7810 -73.7771 -64.5428 -64.5414 -64.5371 -64.5322 -64.5296 -64.5251
   -35.7547 -35.7532 -35.7516 -35.7476 -35.7434 -35.7418 -28.8097 -28.8047
   -28.7926 -28.7915 -28.7740 -28.7651 -28.7334 -28.7178 -28.7016 -28.6961
   -28.6848 -28.6715 -28.6536 -28.6503 -28.6474 -28.6434 -28.6369 -28.6323
    10.7683  10.7905  10.7966  10.8101  10.8341  10.8482  10.9057  10.9234
    10.9628  10.9883  13.5224  13.6834  13.8755  13.8982  14.1072  14.1593
    14.2196  14.2665  14.3401  14.3897  14.6517  14.6959  14.7889  14.8110
    15.0084  15.0377  15.1301  15.3713  15.3958  15.4594  15.5102  15.5987
    15.6979  15.7157  15.7868  15.8011  16.1397  16.2036  16.3812  16.5355
    16.7376  17.9291  19.2192  19.7736  20.4552  21.0066  23.2181  23.8142
    25.0048  25.6877  27.5606  28.0937  28.6092  28.9900  29.1736  30.0561
    31.0674  31.5740  32.2520  32.6013  32.8735  32.9692  33.0428  33.4572
    33.8011  33.9195  34.0912  34.2941  34.3720  34.4575

     the Fermi energy is    28.1792 ev

!    total energy              =   -2419.22039477 Ry
     Harris-Foulkes estimate   =   -2419.22040377 Ry
     estimated scf accuracy    <       0.00000976 Ry

     The total energy is the sum of the following terms:

     one-electron contribution =    -579.20914797 Ry
     hartree contribution      =     398.48778801 Ry
     xc contribution           =    -211.80608529 Ry
     ewald contribution        =   -2026.47326362 Ry
     smearing contrib. (-TS)   =      -0.21968592 Ry

     convergence has been achieved in  11 iterations

     Forces acting on atoms (Ry/au):

     atom    1 type  1   force =     0.01276639    0.00737068    0.00000000
     atom    2 type  1   force =     0.01276639   -0.00737068    0.00000000
     atom    3 type  1   force =    -0.01276639   -0.00737068    0.00000000
     atom    4 type  1   force =    -0.01276639    0.00737068    0.00000000
     atom    5 type  1   force =     0.00000000   -0.01474136    0.00000000
     atom    6 type  1   force =     0.00000000    0.01474136    0.00000000
     atom    7 type  2   force =     0.00000000    0.00000000    0.00000000
     atom    8 type  2   force =     0.00000000    0.00000000    0.00000000

     Total force =     0.036109     Total SCF correction =     0.000000

     entering subroutine stress ...

          total   stress  (Ry/bohr**3)                   (kbar)     P=   74.80
   0.00034764   0.00000000   0.00000000         51.14      0.00      0.00
   0.00000000   0.00034764   0.00000000          0.00     51.14      0.00
   0.00000000   0.00000000   0.00083013          0.00      0.00    122.12

     Writing output data file Prototype-La-hP8-Mg3Cd.save

     General routines

     Parallel routines

   This run was terminated on:   2:45: 1  23Mar2018

   JOB DONE.