     Program PWSCF v.5.0.2 starts on 23Mar2018 at  0:54:34

     Current dimensions of program PWSCF are:
     Max number of different atomic species (ntypx) = 10
     Max number of k-points (npk) =  40000
     Max angular momentum in pseudopotentials (lmaxx) =  3
     Waiting for input...
     Reading input from standard input

     Subspace diagonalization in iterative solution of the eigenvalue problem:
     a serial algorithm will be used

     bravais-lattice index     =            0
     lattice parameter (alat)  =       7.0151  a.u.
     unit-cell volume          =     862.2778 (a.u.)^3
     number of atoms/cell      =           12
     number of atomic types    =            2
     number of electrons       =       256.00
     number of Kohn-Sham states=          154
     kinetic-energy cutoff     =      40.0000  Ry
     charge density cutoff     =     160.0000  Ry
     convergence threshold     =      1.0E-04
     mixing beta               =       0.7000
     number of iterations used =            8  plain     mixing
     Exchange-correlation      = SLA-PZ-NOGX-NOGC ( 1 1 0 0 0)
     EXX-fraction              =        0.00
     nstep                     =           50

     celldm(1)=   7.015105  celldm(2)=   0.000000  celldm(3)=   0.000000
     celldm(4)=   0.000000  celldm(5)=   0.000000  celldm(6)=   0.000000

     crystal axes: (cart. coord. in units of alat)
               a(1) = (   1.000000   0.000000   0.000000 )
               a(2) = (   0.000000   1.315963   0.000000 )
               a(3) = (   0.000000   0.000000   1.898020 )

     reciprocal axes: (cart. coord. in units 2 pi/alat)
               b(1) = (  1.000000  0.000000  0.000000 )
               b(2) = (  0.000000  0.759900  0.000000 )
               b(3) = (  0.000000  0.000000  0.526865 )

     PseudoPot. # 1 for Ho read from file:
     /home/cwx6513/pp.La/Ho.UPF
     MD5 check sum: f307ee11bce99f5b724fa279e3790763
     Pseudo is Norm-conserving, Zval = 21.0
     Generated in analytical, separable form
     Using radial grid of 1265 points,  6 beta functions with:
                l(1) =   0
                l(2) =   0
                l(3) =   1
                l(4) =   1
                l(5) =   2
                l(6) =   3

     PseudoPot. # 2 for Er read from file:
     /home/cwx6513/pp.La/Er.UPF
     MD5 check sum: e152ae21b84514339d8526f066caf99b
     Pseudo is Norm-conserving, Zval = 22.0
     Generated in analytical, separable form
     Using radial grid of 1267 points,  6 beta functions with:
                l(1) =   0
                l(2) =   0
                l(3) =   1
                l(4) =   1
                l(5) =   2
                l(6) =   3

     atomic species   valence    mass     pseudopotential
        Co            21.00    58.93320     Ho( 1.00)
        Si            22.00    28.08550     Er( 1.00)

      8 Sym. Ops., with inversion, found ( 6 have fractional translation)

   Cartesian axes

     site n.     atom                  positions (alat units)
         1           Co  tau(   1) = (   0.7500000   1.0875135   0.8270358  )
         2           Co  tau(   2) = (   0.2500000   0.2284499   1.0709846  )
         3           Co  tau(   3) = (   0.7500000   0.4295318   0.1219744  )
         4           Co  tau(   4) = (   0.2500000   0.8864316   1.7760460  )
         5           Co  tau(   5) = (   0.2500000   0.7067855   0.5358966  )
         6           Co  tau(   6) = (   0.7500000   0.6091779   1.3621238  )
         7           Co  tau(   7) = (   0.2500000   0.0488038   0.4131136  )
         8           Co  tau(   8) = (   0.7500000   1.2671596   1.4849068  )
         9           Si  tau(   9) = (   0.2500000   0.2669484   1.6960710  )
        10           Si  tau(  10) = (   0.7500000   1.0490149   0.2019494  )
        11           Si  tau(  11) = (   0.2500000   0.9249301   1.1509596  )
        12           Si  tau(  12) = (   0.7500000   0.3910333   0.7470608  )

     number of k points=    12  gaussian smearing, width (Ry)=  0.1000
                       cart. coord. in units 2pi/alat
        k(    1) = (   0.0000000   0.0000000   0.0000000), wk =   0.0833333
        k(    2) = (   0.0000000   0.0000000   0.1317162), wk =   0.1666667
        k(    3) = (   0.0000000   0.0000000  -0.2634324), wk =   0.0833333
        k(    4) = (   0.0000000   0.2532999   0.0000000), wk =   0.1666667
        k(    5) = (   0.0000000   0.2532999   0.1317162), wk =   0.3333333
        k(    6) = (   0.0000000   0.2532999  -0.2634324), wk =   0.1666667
        k(    7) = (  -0.5000000   0.0000000   0.0000000), wk =   0.0833333
        k(    8) = (  -0.5000000   0.0000000   0.1317162), wk =   0.1666667
        k(    9) = (  -0.5000000   0.0000000  -0.2634324), wk =   0.0833333
        k(   10) = (  -0.5000000   0.2532999   0.0000000), wk =   0.1666667
        k(   11) = (  -0.5000000   0.2532999   0.1317162), wk =   0.3333333
        k(   12) = (  -0.5000000   0.2532999  -0.2634324), wk =   0.1666667

     Largest allocated arrays     est. size (Mb)     dimensions
     Largest temporary arrays     est. size (Mb)     dimensions

     Initial potential from superposition of free atoms

     Starting from uniform charge
     Starting wfc are    0 randomized atomic wfcs

     Self-consistent Calculation

     iteration #  1     ecut=    40.00 Ry     beta=0.70
     CG style diagonalization
     c_bands:  5 eigenvalues not converged
     ethr =  1.00E-02,  avg # of iterations = 15.5

     total energy              =   -3291.10155925 Ry
     Harris-Foulkes estimate   =   -4130.27035897 Ry
     estimated scf accuracy    <    1074.18074071 Ry

[...]

     iteration #  3     ecut=    40.00 Ry     beta=0.70
     CG style diagonalization
     ethr =  1.00E-02,  avg # of iterations =  7.9

[...]

     End of self-consistent calculation

          k = 0.0000 0.0000 0.0000 (  3675 PWs)   bands (ev):

   -48.9521 -48.9511 -48.9374 -48.9245 -40.1938 -40.1379 -40.1101 -40.0988
   -39.9558 -39.8809 -39.7836 -39.7832 -11.7569 -11.6566 -11.6298 -11.5867
   -11.5774 -11.5737 -11.4924 -11.4712 -11.2726 -11.2566 -11.1600 -11.1080
    -5.5213  -5.2961  -5.2097  -5.0622  -5.0211  -4.9920  -4.9742  -4.8937
    -4.7575  -4.6825  -4.6343  -4.6298  -4.5068  -4.4343  -4.3746  -4.3604
    -4.3570  -4.2626  -4.2278  -4.1290  -4.0317  -3.9266  -3.7885  -3.7258
    30.3747  30.6416  30.7209  30.7793  31.1512  31.2260  31.2309  31.2900
    31.6065  31.7838  31.8598  31.9210  32.2873  32.4755  32.7494  32.8025
    32.9182  33.5870  33.8860  33.9316  34.2251  34.8795  35.0144  35.3966
    35.7054  35.7818  35.8242  35.8739  36.5618  36.5803  36.6198  36.9041
    36.9150  37.1717  37.2299  37.6469  38.0666  38.4506  38.5253  38.5354
    38.6023  38.8091  38.8710  39.4351  40.0808  40.1314  40.1387  40.1389
    41.0715  41.1959  41.4366  41.4734  41.6005  41.6510  41.9359  42.2561
    42.2661  42.3150  42.6801  42.7011  42.7886  43.1537  43.1816  47.3180
    47.6790  47.8225  48.1082  48.8100  51.8475  52.0362  53.4815  53.8231
    56.0182  56.1363  56.1409  56.1889  56.2079  56.4064  56.4412  56.9685
    57.0886  57.5103  57.6446  57.7131  57.7709  57.8119  58.6808  58.7858
    58.8933  58.9035  58.9047  59.2672  59.6068  59.6986  59.7353  60.3917
    60.4897  60.6752  61.1213  61.1441  61.6264  61.6554  62.4106  62.7492
    62.9179  62.9210

[...]

          k =-0.5000 0.0000 0.0000 (  3722 PWs)   bands (ev):

[...]

     the Fermi energy is    57.1120 ev

!    total energy              =   -3644.30865333 Ry
     Harris-Foulkes estimate   =   -3644.30865722 Ry
     estimated scf accuracy    <       0.00000485 Ry

     The total energy is the sum of the following terms:

     one-electron contribution =     152.60577381 Ry
     hartree contribution      =     323.92474040 Ry
     xc contribution           =    -335.66177076 Ry
     ewald contribution        =   -3784.64516966 Ry
     smearing contrib. (-TS)   =      -0.53222712 Ry

     convergence has been achieved in  10 iterations

     Forces acting on atoms (Ry/au):

     atom    1 type  1   force =     0.00000000   -0.05675329   -0.06907722
     atom    2 type  1   force =     0.00000000    0.05675329    0.06907722
     atom    3 type  1   force =     0.00000000   -0.05675329    0.06907722
     atom    4 type  1   force =     0.00000000    0.05675329   -0.06907722
     atom    5 type  1   force =     0.00000000    0.12080127   -0.24775371
     atom    6 type  1   force =     0.00000000   -0.12080127    0.24775371
     atom    7 type  1   force =     0.00000000    0.12080127    0.24775371
     atom    8 type  1   force =     0.00000000   -0.12080127   -0.24775371
     atom    9 type  2   force =     0.00000000   -0.22019015    0.03568544
     atom   10 type  2   force =     0.00000000    0.22019015   -0.03568544
     atom   11 type  2   force =     0.00000000   -0.22019015   -0.03568544
     atom   12 type  2   force =     0.00000000    0.22019015    0.03568544

     Total force =     0.731367     Total SCF correction =     0.000000

     entering subroutine stress ...

          total   stress  (Ry/bohr**3)                   (kbar)     P= 7654.85
   0.05560405   0.00000000   0.00000000       8179.64      0.00      0.00
   0.00000000   0.04903711   0.00000000          0.00   7213.61      0.00
   0.00000000   0.00000000   0.05146861          0.00      0.00   7571.29

     BFGS Geometry Optimization

     number of scf cycles    =   1
     number of bfgs steps    =   0

     enthalpy new            =   -3644.3086533320 Ry

     new trust radius        =       0.5000000000 bohr
     new conv_thr            =       0.0001000000 Ry

     new unit-cell volume =   1085.21558 a.u.^3 (   160.81235 Ang^3 )

CELL_PARAMETERS (alat=  7.01510508)
   1.085136619   0.000000000   0.000000000
   0.000000000   1.414768321   0.000000000
   0.000000000   0.000000000   2.047593442

ATOMIC_POSITIONS (crystal)
Co       0.750000000   0.826024484   0.435418262
Co       0.250000000   0.173975516   0.564581738
Co       0.750000000   0.326024484   0.064581738
Co       0.250000000   0.673975516   0.935418262
Co       0.250000000   0.537887426   0.281205393
Co       0.750000000   0.462112574   0.718794607
Co       0.250000000   0.037887426   0.218794607
Co       0.750000000   0.962112574   0.781205393
Si       0.250000000   0.201393203   0.893764144
Si       0.750000000   0.798606797   0.106235856
Si       0.250000000   0.701393203   0.606235856
Si       0.750000000   0.298606797   0.393764144

     Writing output data file Prototype-La-oP12-Co2Si.save
     NEW-OLD atomic charge density approx. for the potential
     NEW k-points:
        k(    1) = (   0.0000000   0.0000000   0.0000000), wk =   0.0833333
        k(    2) = (   0.0000000   0.0000000   0.1220946), wk =   0.1666667
        k(    3) = (   0.0000000   0.0000000  -0.2441891), wk =   0.0833333
        k(    4) = (   0.0000000   0.2356098   0.0000000), wk =   0.1666667
        k(    5) = (   0.0000000   0.2356098   0.1220946), wk =   0.3333333
        k(    6) = (   0.0000000   0.2356098  -0.2441891), wk =   0.1666667
        k(    7) = (  -0.4607715   0.0000000   0.0000000), wk =   0.0833333
        k(    8) = (  -0.4607715   0.0000000   0.1220946), wk =   0.1666667
        k(    9) = (  -0.4607715   0.0000000  -0.2441891), wk =   0.0833333
        k(   10) = (  -0.4607715   0.2356098   0.0000000), wk =   0.1666667
        k(   11) = (  -0.4607715   0.2356098   0.1220946), wk =   0.3333333
        k(   12) = (  -0.4607715   0.2356098  -0.2441891), wk =   0.1666667

[...]

     enthalpy old            =   -3644.3086533321 Ry
     enthalpy new            =   -3651.9432298037 Ry

     CASE: enthalpy_new < enthalpy_old

     small trust_radius: resetting bfgs history

     new trust radius        =       3.5901107268 bohr
     new conv_thr            =       0.0001000000 Ry

[...]

          total   stress  (Ry/bohr**3)                   (kbar)     P=-4116.15
  -0.03231285   0.00000000   0.00000000      -4753.38      0.00      0.00
   0.00000000  -0.02497469   0.00000000          0.00  -3673.90      0.00
   0.00000000   0.00000000  -0.02665552          0.00      0.00  -3921.16

     number of scf cycles    =   3
     number of bfgs steps    =   2

     enthalpy old            =   -3651.9432298037 Ry
     enthalpy new            =   -3612.8727028546 Ry

     CASE: enthalpy_new > enthalpy_old

     new trust radius        =       0.9149421331 bohr

     trust_radius < trust_radius_min

     resetting bfgs history

     Message from routine bfgs:
     history already reset at previous step: stopping
     new conv_thr            =       0.0001000000 Ry

     new unit-cell volume =   1267.06571 a.u.^3 (   187.75976 Ang^3 )

[...]

ATOMIC_POSITIONS (crystal)
Co       0.750000000   0.825755855   0.435168474
Co       0.250000000   0.174244145   0.564831526
Co       0.750000000   0.325755855   0.064831526
Co       0.250000000   0.674244145   0.935168474
Co       0.250000000   0.538440697   0.280454287
Co       0.750000000   0.461559303   0.719545713
Co       0.250000000   0.038440697   0.219545713
Co       0.750000000   0.961559303   0.780454287
Si       0.250000000   0.200481269   0.893873831
Si       0.750000000   0.799518731   0.106126169
Si       0.250000000   0.700481269   0.606126169
Si       0.750000000   0.299518731   0.393873831

     Writing output data file Prototype-La-oP12-Co2Si.save
     NEW-OLD atomic charge density approx. for the potential
     NEW k-points:
        k(    1) = (   0.0000000   0.0000000   0.0000000), wk =   0.0833333
        k(    2) = (   0.0000000   0.0000000   0.1163523), wk =   0.1666667
        k(    3) = (   0.0000000   0.0000000  -0.2327045), wk =   0.0833333
        k(    4) = (   0.0000000   0.2255576   0.0000000), wk =   0.1666667
        k(    5) = (   0.0000000   0.2255576   0.1163523), wk =   0.3333333
        k(    6) = (   0.0000000   0.2255576  -0.2327045), wk =   0.1666667
        k(    7) = (  -0.4325734   0.0000000   0.0000000), wk =   0.0833333
        k(    8) = (  -0.4325734   0.0000000   0.1163523), wk =   0.1666667
        k(    9) = (  -0.4325734   0.0000000  -0.2327045), wk =   0.0833333
        k(   10) = (  -0.4325734   0.2255576   0.0000000), wk =   0.1666667
        k(   11) = (  -0.4325734   0.2255576   0.1163523), wk =   0.3333333
        k(   12) = (  -0.4325734   0.2255576  -0.2327045), wk =   0.1666667

[...]

     The maximum number of steps has been reached.

     End of BFGS Geometry Optimization
Begin final coordinates
     new unit-cell volume =   1267.06571 a.u.^3 (   187.75976 Ang^3 )

CELL_PARAMETERS (alat=  7.01510508)
   1.155873158   0.000000000   0.000000000
   0.000000000   1.477819133   0.000000000
   0.000000000   0.000000000   2.148647296

ATOMIC_POSITIONS (crystal)
Co       0.750000000   0.825755855   0.435168474
Co       0.250000000   0.174244145   0.564831526
Co       0.750000000   0.325755855   0.064831526
Co       0.250000000   0.674244145   0.935168474
Co       0.250000000   0.538440697   0.280454287
Co       0.750000000   0.461559303   0.719545713
Co       0.250000000   0.038440697   0.219545713
Co       0.750000000   0.961559303   0.780454287
Si       0.250000000   0.200481269   0.893873831
Si       0.750000000   0.799518731   0.106126169
Si       0.250000000   0.700481269   0.606126169
Si       0.750000000   0.299518731   0.393873831
End final coordinates

     A final scf calculation at the relaxed structure.
     The G-vectors are recalculated for the final unit cell
     Results may differ from those at the preceding step.

     bravais-lattice index     =            0
     lattice parameter (alat)  =       7.0151  a.u.
     unit-cell volume          =    1267.0657 (a.u.)^3
     number of atoms/cell      =           12
     number of atomic types    =            2
     number of electrons       =       256.00
     number of Kohn-Sham states=          154
     kinetic-energy cutoff     =      40.0000  Ry
     charge density cutoff     =     160.0000  Ry
     convergence threshold     =      1.0E-04
     mixing beta               =       0.7000
     number of iterations used =            8  plain     mixing
     Exchange-correlation      = SLA-PZ-NOGX-NOGC ( 1 1 0 0 0)
     EXX-fraction              =        0.00

     celldm(1)=   7.015105  celldm(2)=   0.000000  celldm(3)=   0.000000
     celldm(4)=   0.000000  celldm(5)=   0.000000  celldm(6)=   0.000000

     crystal axes: (cart. coord. in units of alat)
               a(1) = (   1.155873   0.000000   0.000000 )
               a(2) = (   0.000000   1.477819   0.000000 )
               a(3) = (   0.000000   0.000000   2.148647 )

     reciprocal axes: (cart. coord. in units 2 pi/alat)
               b(1) = (  0.865147  0.000000  0.000000 )
               b(2) = (  0.000000  0.676673  0.000000 )
               b(3) = (  0.000000  0.000000  0.465409 )

     PseudoPot. # 1 for Ho read from file:
     /home/cwx6513/pp.La/Ho.UPF
     MD5 check sum: f307ee11bce99f5b724fa279e3790763
     Pseudo is Norm-conserving, Zval = 21.0
     Generated in analytical, separable form
     Using radial grid of 1265 points,  6 beta functions with:
                l(1) =   0
                l(2) =   0
                l(3) =   1
                l(4) =   1
                l(5) =   2
                l(6) =   3

     PseudoPot. # 2 for Er read from file:
     /home/cwx6513/pp.La/Er.UPF
     MD5 check sum: e152ae21b84514339d8526f066caf99b
     Pseudo is Norm-conserving, Zval = 22.0
     Generated in analytical, separable form
     Using radial grid of 1267 points,  6 beta functions with:
                l(1) =   0
                l(2) =   0
                l(3) =   1
                l(4) =   1
                l(5) =   2
                l(6) =   3

     atomic species   valence    mass     pseudopotential
        Co            21.00    58.93320     Ho( 1.00)
        Si            22.00    28.08550     Er( 1.00)

      8 Sym. Ops., with inversion, found ( 6 have fractional translation)

   Cartesian axes

     site n.     atom                  positions (alat units)
         1           Co  tau(   1) = (   0.8669049   1.2203178   0.9350236  )
         2           Co  tau(   2) = (   0.2889683   0.2575013   1.2136237  )
         3           Co  tau(   3) = (   0.8669049   0.4814082   0.1393001  )
         4           Co  tau(   4) = (   0.2889683   0.9964109   2.0093472  )
         5           Co  tau(   5) = (   0.2889683   0.7957180   0.6025973  )
         6           Co  tau(   6) = (   0.8669049   0.6821012   1.5460500  )
         7           Co  tau(   7) = (   0.2889683   0.0568084   0.4717263  )
         8           Co  tau(   8) = (   0.8669049   1.4210107   1.6769210  )
         9           Si  tau(   9) = (   0.2889683   0.2962751   1.9206196  )
        10           Si  tau(  10) = (   0.8669049   1.1815441   0.2280277  )
        11           Si  tau(  11) = (   0.2889683   1.0351846   1.3023514  )
        12           Si  tau(  12) = (   0.8669049   0.4426345   0.8462959  )

     number of k points=    12  gaussian smearing, width (Ry)=  0.1000
                       cart. coord. in units 2pi/alat
        k(    1) = (   0.0000000   0.0000000   0.0000000), wk =   0.0833333
        k(    2) = (   0.0000000   0.0000000   0.1163523), wk =   0.1666667
        k(    3) = (   0.0000000   0.0000000  -0.2327045), wk =   0.0833333
        k(    4) = (   0.0000000   0.2255576   0.0000000), wk =   0.1666667
        k(    5) = (   0.0000000   0.2255576   0.1163523), wk =   0.3333333
        k(    6) = (   0.0000000   0.2255576  -0.2327045), wk =   0.1666667
        k(    7) = (  -0.4325734   0.0000000   0.0000000), wk =   0.0833333
        k(    8) = (  -0.4325734   0.0000000   0.1163523), wk =   0.1666667
        k(    9) = (  -0.4325734   0.0000000  -0.2327045), wk =   0.0833333
        k(   10) = (  -0.4325734   0.2255576   0.0000000), wk =   0.1666667
        k(   11) = (  -0.4325734   0.2255576   0.1163523), wk =   0.3333333
        k(   12) = (  -0.4325734   0.2255576  -0.2327045), wk =   0.1666667

     Largest allocated arrays     est. size (Mb)     dimensions
     Largest temporary arrays     est. size (Mb)     dimensions

     Initial potential from superposition of free atoms

     Starting from uniform charge
     Starting wfc are    0 randomized atomic wfcs

     Writing output data file Prototype-La-oP12-Co2Si.save

     Self-consistent Calculation

[...]

     iteration #  9     ecut=    40.00 Ry     beta=0.70
     CG style diagonalization
     c_bands:  1 eigenvalues not converged
     c_bands:  1 eigenvalues not converged
     c_bands:  1 eigenvalues not converged
     c_bands:  1 eigenvalues not converged
     ethr =  1.08E-06,  avg # of iterations =  3.9

     total energy              =   -3659.78907003 Ry
     Harris-Foulkes estimate   =   -3659.78931039 Ry
     estimated scf accuracy    <       0.00043613 Ry

     iteration # 10     ecut=    40.00 Ry     beta=0.70
     CG style diagonalization
     ethr =  1.70E-07,  avg # of iterations =  3.7

     End of self-consistent calculation

[...]

          k = 0.0000 0.2256-0.2327 (  5418 PWs)   bands (ev):

[...]

          k =-0.4326 0.2256-0.2327 (  5432 PWs)   bands (ev):

   -65.3115 -65.3115 -65.3057 -65.3057 -56.1740 -56.1740 -56.1683 -56.1683
   -55.9801 -55.9801 -55.9686 -55.9687 -27.4532 -27.4532 -27.4492 -27.4492
   -27.4420 -27.4420 -27.4392 -27.4392 -27.3240 -27.3240 -27.3141 -27.3141
   -20.5677 -20.5677 -20.5411 -20.5411 -20.5221 -20.5221 -20.5057 -20.5057
   -20.4390 -20.4390 -20.4187 -20.4187 -20.3610 -20.3610 -20.2544 -20.2544
   -20.2466 -20.2466 -20.2328 -20.2328 -20.2018 -20.2018 -20.1553 -20.1553
    17.9039  17.9039  18.0127  18.0127  18.1426  18.1426  18.2471  18.2471
    18.3181  18.3181  18.3577  18.3577  18.4780  18.4780  18.4871  18.4871
    18.9049  18.9049  19.0652  19.0652  20.9457  20.9457  21.3443  21.3443
    21.5274  21.5274  21.8225  21.8225  21.9111  21.9111  22.0921  22.0921
    22.1186  22.1186  22.5392  22.5392  22.5632  22.5632  22.8422  22.8422
    22.9788  22.9788  23.3678  23.3678  23.3688  23.3688  23.5194  23.5194
    23.5756  23.5756  23.8560  23.8560  24.0986  24.0986  24.4787  24.4787
    24.7923  24.7923  24.9877  24.9877  26.2138  26.2138  26.3357  26.3357
    28.2480  28.2480  28.4141  28.4141  31.0844  31.0844  33.6059  33.6059
    34.8371  34.8371  34.9641  34.9641  36.9181  36.9181  37.5064  37.5064
    39.9238  39.9238  41.1808  41.1808  41.4643  41.4644  41.8030  41.8030
    41.8539  41.8540  42.1422  42.1422  42.5100  42.5100  42.5273  42.5274
    43.3072  43.3073  43.4136  43.4137  43.5301  43.5301  43.9152  43.9153
    44.3874  44.3876

     the Fermi energy is    37.9629 ev

!    total energy              =   -3659.78918184 Ry
     Harris-Foulkes estimate   =   -3659.78919435 Ry
     estimated scf accuracy    <       0.00001548 Ry

     The total energy is the sum of the following terms:

     one-electron contribution =    -493.92102403 Ry
     hartree contribution      =     489.59851591 Ry
     xc contribution           =    -324.75270789 Ry
     ewald contribution        =   -3330.38701278 Ry
     smearing contrib. (-TS)   =      -0.32695305 Ry

     convergence has been achieved in  10 iterations

     Forces acting on atoms (Ry/au):

     atom    1 type  1   force =     0.00000000   -0.04477222    0.01012635
     atom    2 type  1   force =     0.00000000    0.04477222   -0.01012635
     atom    3 type  1   force =     0.00000000   -0.04477222   -0.01012635
     atom    4 type  1   force =     0.00000000    0.04477222    0.01012635
     atom    5 type  1   force =     0.00000000    0.03892198   -0.08283657
     atom    6 type  1   force =     0.00000000   -0.03892198    0.08283657
     atom    7 type  1   force =     0.00000000    0.03892198    0.08283657
     atom    8 type  1   force =     0.00000000   -0.03892198   -0.08283657
     atom    9 type  2   force =     0.00000000   -0.08157874    0.03942426
     atom   10 type  2   force =     0.00000000    0.08157874   -0.03942426
     atom   11 type  2   force =     0.00000000   -0.08157874   -0.03942426
     atom   12 type  2   force =     0.00000000    0.08157874    0.03942426

     Total force =     0.273447     Total SCF correction =     0.000000

     entering subroutine stress ...

          total   stress  (Ry/bohr**3)                   (kbar)     P= 1662.85
   0.01293808   0.00000000   0.00000000       1903.26      0.00      0.00
   0.00000000   0.01021863   0.00000000          0.00   1503.21      0.00
   0.00000000   0.00000000   0.01075477          0.00      0.00   1582.08

     Writing output data file Prototype-La-oP12-Co2Si.save

     General routines

     Parallel routines

   This run was terminated on:   1:15:28  23Mar2018

   JOB DONE.