     Program PWSCF v.5.0.2 starts on 21Mar2018 at 22:59: 8

     Current dimensions of program PWSCF are:
     Max number of different atomic species (ntypx) = 10
     Max number of k-points (npk) =  40000
     Max angular momentum in pseudopotentials (lmaxx) =  3
     Waiting for input...
     Reading input from standard input

     bravais-lattice index     =            0
     lattice parameter (alat)  =       6.8773  a.u.
     unit-cell volume          =     449.8643 (a.u.)^3
     number of atoms/cell      =            2
     number of atomic types    =            1
     number of electrons       =        36.00
     number of Kohn-Sham states=           22
     kinetic-energy cutoff     =      40.0000  Ry
     charge density cutoff     =     160.0000  Ry
     convergence threshold     =      1.0E-04
     mixing beta               =       0.7000
     number of iterations used =            8  plain     mixing
     Exchange-correlation      = SLA-PZ-NOGX-NOGC ( 1 1 0 0 0)
     EXX-fraction              =        0.00
     nstep                     =           50

     celldm(1)=   6.877258  celldm(2)=   0.000000  celldm(3)=   0.000000
     celldm(4)=   0.000000  celldm(5)=   0.000000  celldm(6)=   0.000000

     crystal axes: (cart. coord. in units of alat)
               a(1) = (   1.000000   0.000000   0.000000 )
               a(2) = (  -0.500000   0.866025   0.000000 )
               a(3) = (   0.000000   0.000000   1.597000 )

     reciprocal axes: (cart. coord. in units 2 pi/alat)
               b(1) = (  1.000000  0.577350  0.000000 )
               b(2) = (  0.000000  1.154701  0.000000 )
               b(3) = (  0.000000  0.000000  0.626174 )

     PseudoPot. # 1 for Gd read from file:
     /home/cwx6513/pp.La/Gd.UPF
     MD5 check sum: 09a8be538722f05520810cb6aac0efd2
     Pseudo is Norm-conserving, Zval = 18.0
     Generated in analytical, separable form
     Using radial grid of 1263 points,  6 beta functions with:
                l(1) =   0
                l(2) =   0
                l(3) =   1
                l(4) =   1
                l(5) =   2
                l(6) =   3

     atomic species   valence    mass     pseudopotential
        Gd            18.00   157.25000     Gd( 1.00)

     12 Sym. Ops., with inversion, found
          (note: 12 additional sym.ops. were found but ignored
           their fractional translations are incommensurate with FFT grid)

   Cartesian axes

     site n.     atom                  positions (alat units)
         1           Gd  tau(   1) = (  -0.0000005   0.5773506   1.1977501  )
         2           Gd  tau(   2) = (   0.5000005   0.2886748   0.3992500  )

     number of k points=   106  gaussian smearing, width (Ry)=  0.1000

     Number of k-points >= 100: set verbosity='high' to print them.

     Largest allocated arrays     est. size (Mb)     dimensions
     Largest temporary arrays     est. size (Mb)     dimensions

     Initial potential from superposition of free atoms

     Starting from uniform charge
     Starting wfc are    0 randomized atomic wfcs

     Self-consistent Calculation

     iteration #  1     ecut=    40.00 Ry     beta=0.70
     CG style diagonalization
     ethr =  1.00E-02,  avg # of iterations = 11.4

     total energy              =    -370.86374759 Ry
     Harris-Foulkes estimate   =    -516.48788785 Ry
     estimated scf accuracy    <     191.17181451 Ry

[...]

     negative rho (up, down):  0.359E+00 0.000E+00

[...]

     End of self-consistent calculation

     Number of k-points >= 100: set verbosity='high' to print the bands.

     the Fermi energy is    11.1690 ev

!    total energy              =    -402.60279413 Ry
     Harris-Foulkes estimate   =    -402.60279804 Ry
     estimated scf accuracy    <       0.00001128 Ry

     The total energy is the sum of the following terms:

     one-electron contribution =    -135.95186864 Ry
     hartree contribution      =      80.53335799 Ry
     xc contribution           =     -39.29978615 Ry
     ewald contribution        =    -307.71335391 Ry
     smearing contrib. (-TS)   =      -0.17114342 Ry

     convergence has been achieved in  12 iterations

     Forces acting on atoms (Ry/au):

     atom    1 type  1   force =     0.00000000    0.00000000    0.00293181
     atom    2 type  1   force =     0.00000000    0.00000000   -0.00293181

     Total force =     0.004146     Total SCF correction =     0.000000

     entering subroutine stress ...

          total   stress  (Ry/bohr**3)                   (kbar)     P= -405.17
  -0.00275023   0.00000000   0.00000000       -404.57      0.00      0.00
   0.00000000  -0.00275023   0.00000000          0.00   -404.57      0.00
   0.00000000   0.00000000  -0.00276232          0.00      0.00   -406.35

     BFGS Geometry Optimization

     number of scf cycles    =   1
     number of bfgs steps    =   0

     enthalpy new            =    -402.6027941297 Ry

     new trust radius        =       0.2929441318 bohr
     new conv_thr            =       0.0001000000 Ry

     new unit-cell volume =    363.18799 a.u.^3 (    53.81891 Ang^3 )

CELL_PARAMETERS (alat=  6.87725816)
   0.931244333   0.000000000   0.000000000
  -0.465622167   0.806481250   0.000000000
   0.000000000   0.000000000   1.486714513

ATOMIC_POSITIONS (crystal)
Gd       0.333333000   0.666667000   0.750266941
Gd       0.666667000   0.333333000   0.249733059

     Writing output data file Element-Gd.q.save
     NEW-OLD atomic charge density approx. for the potential
     NEW k-points: (use verbosity='high' to print them)

[...]

     iteration #  1     ecut=    40.00 Ry     beta=0.70
     CG style diagonalization
     c_bands:  1 eigenvalues not converged
     c_bands:  3 eigenvalues not converged
     c_bands:  1 eigenvalues not converged
     c_bands:  1 eigenvalues not converged
     c_bands:  2 eigenvalues not converged
     c_bands:  1 eigenvalues not converged
     c_bands:  1 eigenvalues not converged
     c_bands:  1 eigenvalues not converged
     c_bands:  1 eigenvalues not converged
     c_bands:  1 eigenvalues not converged
     c_bands:  1 eigenvalues not converged
     c_bands:  2 eigenvalues not converged
     c_bands:  2 eigenvalues not converged
     c_bands:  2 eigenvalues not converged
     c_bands:  4 eigenvalues not converged
     c_bands:  4 eigenvalues not converged
     c_bands:  4 eigenvalues not converged
     c_bands:  4 eigenvalues not converged
     c_bands:  5 eigenvalues not converged
     c_bands:  3 eigenvalues not converged
     c_bands:  5 eigenvalues not converged
     c_bands:  3 eigenvalues not converged
     c_bands:  4 eigenvalues not converged
     c_bands:  2 eigenvalues not converged
     c_bands:  3 eigenvalues not converged
     c_bands:  4 eigenvalues not converged
     c_bands:  3 eigenvalues not converged
     c_bands:  4 eigenvalues not converged
     c_bands:  4 eigenvalues not converged
     c_bands:  2 eigenvalues not converged
     c_bands:  3 eigenvalues not converged
     c_bands:  3 eigenvalues not converged
     c_bands:  1 eigenvalues not converged
     c_bands:  3 eigenvalues not converged
     c_bands:  5 eigenvalues not converged
     c_bands:  5 eigenvalues not converged
     c_bands:  2 eigenvalues not converged
     c_bands:  5 eigenvalues not converged
     c_bands:  4 eigenvalues not converged
     c_bands:  3 eigenvalues not converged
     c_bands:  5 eigenvalues not converged
     c_bands:  2 eigenvalues not converged
     c_bands:  2 eigenvalues not converged
     c_bands:  1 eigenvalues not converged
     c_bands:  3 eigenvalues not converged
     c_bands:  2 eigenvalues not converged
     c_bands:  5 eigenvalues not converged
     c_bands:  3 eigenvalues not converged
     c_bands:  4 eigenvalues not converged
     c_bands:  2 eigenvalues not converged
     c_bands:  2 eigenvalues not converged
     c_bands:  1 eigenvalues not converged
     c_bands:  2 eigenvalues not converged
     c_bands:  1 eigenvalues not converged
     c_bands:  1 eigenvalues not converged
     c_bands:  1 eigenvalues not converged
     c_bands:  3 eigenvalues not converged
     c_bands:  1 eigenvalues not converged
     c_bands:  3 eigenvalues not converged
     c_bands:  4 eigenvalues not converged
[...]
     c_bands:  1 eigenvalues not converged
     c_bands:  4 eigenvalues not converged
     c_bands:  2 eigenvalues not converged
     c_bands:  3 eigenvalues not converged
     c_bands:  5 eigenvalues not converged
     c_bands:  5 eigenvalues not converged
     c_bands:  5 eigenvalues not converged
     c_bands:  5 eigenvalues not converged
     c_bands:  2 eigenvalues not converged
     c_bands:  1 eigenvalues not converged
     c_bands:  5 eigenvalues not converged
     c_bands:  2 eigenvalues not converged
     c_bands:  4 eigenvalues not converged
     c_bands:  3 eigenvalues not converged
     c_bands:  2 eigenvalues not converged
     ethr =  1.00E-06,  avg # of iterations = 14.3

[...]

     enthalpy old            =    -402.6027941297 Ry
     enthalpy new            =    -402.8159490464 Ry

     CASE: enthalpy_new < enthalpy_old

     small trust_radius: resetting bfgs history

[...]

     number of scf cycles    =   3
     number of bfgs steps    =   2

     enthalpy old            =    -402.8159490464 Ry
     enthalpy new            =    -402.9025974906 Ry

     CASE: enthalpy_new < enthalpy_old

     Message from routine bfgs:
     history already reset at previous step: stopping
     small trust_radius: resetting bfgs history

     new trust radius        =       0.1016858239 bohr
     new conv_thr            =       0.0000179769 Ry

     new unit-cell volume =    285.91438 a.u.^3 (    42.36814 Ang^3 )

[...]

ATOMIC_POSITIONS (crystal)
Gd       0.333333000   0.666667000   0.750951439
Gd       0.666667000   0.333333000   0.249048561

     Writing output data file Element-Gd.q.save
     NEW-OLD atomic charge density approx. for the potential
     NEW k-points: (use verbosity='high' to print them)

[...]

     The maximum number of steps has been reached.

     End of BFGS Geometry Optimization
Begin final coordinates
     new unit-cell volume =    285.91438 a.u.^3 (    42.36814 Ang^3 )

CELL_PARAMETERS (alat=  6.87725816)
   0.857661749   0.000000000   0.000000000
  -0.428830875   0.742756863   0.000000000
   0.000000000   0.000000000   1.379835461

ATOMIC_POSITIONS (crystal)
Gd       0.333333000   0.666667000   0.750951439
Gd       0.666667000   0.333333000   0.249048561
End final coordinates

     A final scf calculation at the relaxed structure.
     The G-vectors are recalculated for the final unit cell
     Results may differ from those at the preceding step.

     bravais-lattice index     =            0
     lattice parameter (alat)  =       6.8773  a.u.
     unit-cell volume          =     285.9144 (a.u.)^3
     number of atoms/cell      =            2
     number of atomic types    =            1
     number of electrons       =        36.00
     number of Kohn-Sham states=           22
     kinetic-energy cutoff     =      40.0000  Ry
     charge density cutoff     =     160.0000  Ry
     convergence threshold     =      1.8E-05
     mixing beta               =       0.7000
     number of iterations used =            8  plain     mixing
     Exchange-correlation      = SLA-PZ-NOGX-NOGC ( 1 1 0 0 0)
     EXX-fraction              =        0.00

     celldm(1)=   6.877258  celldm(2)=   0.000000  celldm(3)=   0.000000
     celldm(4)=   0.000000  celldm(5)=   0.000000  celldm(6)=   0.000000

     crystal axes: (cart. coord. in units of alat)
               a(1) = (   0.857662   0.000000   0.000000 )
               a(2) = (  -0.428831   0.742757   0.000000 )
               a(3) = (   0.000000   0.000000   1.379835 )

     reciprocal axes: (cart. coord. in units 2 pi/alat)
               b(1) = (  1.165961  0.673168  0.000000 )
               b(2) = (  0.000000  1.346336  0.000000 )
               b(3) = (  0.000000  0.000000  0.724724 )

     PseudoPot. # 1 for Gd read from file:
     /home/cwx6513/pp.La/Gd.UPF
     MD5 check sum: 09a8be538722f05520810cb6aac0efd2
     Pseudo is Norm-conserving, Zval = 18.0
     Generated in analytical, separable form
     Using radial grid of 1263 points,  6 beta functions with:
                l(1) =   0
                l(2) =   0
                l(3) =   1
                l(4) =   1
                l(5) =   2
                l(6) =   3

     atomic species   valence    mass     pseudopotential
        Gd            18.00   157.25000     Gd( 1.00)

     12 Sym. Ops., with inversion, found
          (note: 12 additional sym.ops. were found but ignored
           their fractional translations are incommensurate with FFT grid)

   Cartesian axes

     site n.     atom                  positions (alat units)
         1           Gd  tau(   1) = (  -0.0000004   0.4951715   1.0361894  )
         2           Gd  tau(   2) = (   0.4288313   0.2475854   0.3436460  )

     number of k points=   106  gaussian smearing, width (Ry)=  0.1000

     Number of k-points >= 100: set verbosity='high' to print them.

     Largest allocated arrays     est. size (Mb)     dimensions
     Largest temporary arrays     est. size (Mb)     dimensions

     Initial potential from superposition of free atoms

     Starting from uniform charge
     Starting wfc are    0 randomized atomic wfcs

     Writing output data file Element-Gd.q.save

     Self-consistent Calculation

[...]

     iteration #  7     ecut=    40.00 Ry     beta=0.70
     CG style diagonalization
     c_bands:  1 eigenvalues not converged
     c_bands:  1 eigenvalues not converged
     ethr =  3.09E-05,  avg # of iterations =  4.1

[...]

     total energy              =    -402.76824203 Ry
     Harris-Foulkes estimate   =    -402.76826797 Ry
     estimated scf accuracy    <       0.00004099 Ry

     iteration # 11     ecut=    40.00 Ry     beta=0.70
     CG style diagonalization
     ethr =  1.14E-07,  avg # of iterations =  3.7

     End of self-consistent calculation

     Number of k-points >= 100: set verbosity='high' to print the bands.

     the Fermi energy is    21.3153 ev

!    total energy              =    -402.76825491 Ry
     Harris-Foulkes estimate   =    -402.76825936 Ry
     estimated scf accuracy    <       0.00000500 Ry

     The total energy is the sum of the following terms:

     one-electron contribution =     -59.34460417 Ry
     hartree contribution      =      54.52703306 Ry
     xc contribution           =     -39.91364106 Ry
     ewald contribution        =    -357.91020635 Ry
     smearing contrib. (-TS)   =      -0.12683638 Ry

     convergence has been achieved in  11 iterations

     Forces acting on atoms (Ry/au):

     atom    1 type  1   force =     0.00000000    0.00000000    0.00790119
     atom    2 type  1   force =     0.00000000    0.00000000   -0.00790119

     Total force =     0.011174     Total SCF correction =     0.000000

     entering subroutine stress ...

          total   stress  (Ry/bohr**3)                   (kbar)     P= -287.48
  -0.00202035   0.00000000   0.00000000       -297.20      0.00      0.00
   0.00000000  -0.00202035   0.00000000          0.00   -297.20      0.00
   0.00000000   0.00000000  -0.00182197          0.00      0.00   -268.02

     Writing output data file Element-Gd.q.save

     General routines

     Parallel routines

   This run was terminated on:  23: 1:57  21Mar2018

   JOB DONE.