     Program PWSCF v.5.0.2 starts on 22Mar2018 at 18:43:51

     Current dimensions of program PWSCF are:
     Max number of different atomic species (ntypx) = 10
     Max number of k-points (npk) =  40000
     Max angular momentum in pseudopotentials (lmaxx) =  3
     Waiting for input...
     Reading input from standard input

     Subspace diagonalization in iterative solution of the eigenvalue problem:
     a serial algorithm will be used

     bravais-lattice index     =            0
     lattice parameter (alat)  =       9.9235  a.u.
     unit-cell volume          =    1361.0366 (a.u.)^3
     number of atoms/cell      =           12
     number of atomic types    =            2
     number of electrons       =       208.00
     number of Kohn-Sham states=          125
     kinetic-energy cutoff     =      40.0000  Ry
     charge density cutoff     =     160.0000  Ry
     convergence threshold     =      1.0E-04
     mixing beta               =       0.7000
     number of iterations used =            8  plain     mixing
     Exchange-correlation      = SLA-PZ-NOGX-NOGC ( 1 1 0 0 0)
     EXX-fraction              =        0.00
     nstep                     =           50

     celldm(1)=   9.923489  celldm(2)=   0.000000  celldm(3)=   0.000000
     celldm(4)=   0.000000  celldm(5)=   0.000000  celldm(6)=   0.000000

     crystal axes: (cart. coord. in units of alat)
               a(1) = (   1.000000   0.000000   0.000000 )
               a(2) = (  -0.500000   0.866025   0.000000 )
               a(3) = (   0.000000   0.000000   1.608222 )

     reciprocal axes: (cart. coord. in units 2 pi/alat)
               b(1) = (  1.000000  0.577350  0.000000 )
               b(2) = (  0.000000  1.154701  0.000000 )
               b(3) = (  0.000000  0.000000  0.621805 )

     PseudoPot. # 1 for Sm read from file:
     /home/cwx6513/pp.La/Sm.UPF
     MD5 check sum: 5079e8b144a06bfcdbc14fb02b96ab09
     Pseudo is Norm-conserving, Zval = 16.0
     Generated in analytical, separable form
     Using radial grid of 1259 points,  6 beta functions with:
                l(1) =   0
                l(2) =   0
                l(3) =   1
                l(4) =   1
                l(5) =   2
                l(6) =   3

     PseudoPot. # 2 for Gd read from file:
     /home/cwx6513/pp.La/Gd.UPF
     MD5 check sum: 09a8be538722f05520810cb6aac0efd2
     Pseudo is Norm-conserving, Zval = 18.0
     Generated in analytical, separable form
     Using radial grid of 1263 points,  6 beta functions with:
                l(1) =   0
                l(2) =   0
                l(3) =   1
                l(4) =   1
                l(5) =   2
                l(6) =   3

     atomic species   valence    mass     pseudopotential
        Mg            16.00    24.30500     Sm( 1.00)
        Zn            18.00    65.39000     Gd( 1.00)

     24 Sym. Ops., with inversion, found (12 have fractional translation)

   Cartesian axes

     site n.     atom                  positions (alat units)
         1           Mg  tau(   1) = (  -0.0000005   0.5773506   0.1003820  )
         2           Mg  tau(   2) = (   0.5000005   0.2886748   0.9044931  )
         3           Mg  tau(   3) = (   0.5000005   0.2886748   1.5078402  )
         4           Mg  tau(   4) = (  -0.0000005   0.5773506   0.7037291  )
         5           Zn  tau(   5) = (   0.0000000   0.0000000   0.0000000  )
         6           Zn  tau(   6) = (   0.0000000   0.0000000   0.8041111  )
         7           Zn  tau(   7) = (   0.0000000   0.2950739   1.2061667  )
         8           Zn  tau(   8) = (   0.7444585   0.1475370   0.4020556  )
         9           Zn  tau(   9) = (   0.2555415   0.1475370   0.4020556  )
        10           Zn  tau(  10) = (   0.2444585   0.7184884   1.2061667  )
        11           Zn  tau(  11) = (  -0.2444585   0.7184884   1.2061667  )
        12           Zn  tau(  12) = (   0.5000000   0.5709515   0.4020556  )

     number of k points=    12  gaussian smearing, width (Ry)=  0.1000
                       cart. coord. in units 2pi/alat
        k(    1) = (   0.0000000   0.0000000   0.0000000), wk =   0.0833333
        k(    2) = (   0.0000000   0.0000000   0.1554512), wk =   0.1666667
        k(    3) = (   0.0000000   0.0000000  -0.3109023), wk =   0.0833333
        k(    4) = (   0.0000000   0.3849002   0.0000000), wk =   0.1666667
        k(    5) = (   0.0000000   0.3849002   0.1554512), wk =   0.3333333
        k(    6) = (   0.0000000   0.3849002  -0.3109023), wk =   0.1666667
        k(    7) = (  -0.5000000  -0.2886751   0.0000000), wk =   0.0833333
        k(    8) = (  -0.5000000  -0.2886751   0.1554512), wk =   0.1666667
        k(    9) = (  -0.5000000  -0.2886751  -0.3109023), wk =   0.0833333
        k(   10) = (  -0.5000000   0.0962250   0.0000000), wk =   0.1666667
        k(   11) = (  -0.5000000   0.0962250   0.1554512), wk =   0.3333333
        k(   12) = (  -0.5000000   0.0962250  -0.3109023), wk =   0.1666667

     Largest allocated arrays     est. size (Mb)     dimensions
     Largest temporary arrays     est. size (Mb)     dimensions

     Initial potential from superposition of free atoms

     Starting from uniform charge
     Starting wfc are    0 randomized atomic wfcs

     Self-consistent Calculation

     iteration #  1     ecut=    40.00 Ry     beta=0.70
     CG style diagonalization
     ethr =  1.00E-02,  avg # of iterations = 18.1

     total energy              =   -1869.92630286 Ry
     Harris-Foulkes estimate   =   -2660.06763526 Ry
     estimated scf accuracy    <     985.05843323 Ry

[...]

     iteration #  3     ecut=    40.00 Ry     beta=0.70
     CG style diagonalization
     c_bands:  2 eigenvalues not converged
     c_bands:  3 eigenvalues not converged
     c_bands:  4 eigenvalues not converged
     c_bands:  1 eigenvalues not converged
     c_bands:  2 eigenvalues not converged
     c_bands:  1 eigenvalues not converged
     c_bands:  1 eigenvalues not converged
     c_bands:  2 eigenvalues not converged
     c_bands:  1 eigenvalues not converged
     ethr =  1.00E-02,  avg # of iterations = 11.6

[...]

     End of self-consistent calculation

          k = 0.0000 0.0000 0.0000 (  5769 PWs)   bands (ev):

   -40.5723 -40.4906 -40.1633 -40.1531 -40.1530 -40.1512 -40.1512 -40.0692
   -28.4810 -28.4598 -28.4222 -28.3977 -13.4143 -13.0649 -12.4930 -11.9911
   -11.9911 -11.9102 -11.9102 -11.7484 -11.7484 -11.4954 -11.2349 -11.1962
   -11.1962 -11.1062 -11.1062 -10.5947 -10.5875 -10.5791 -10.5622 -10.5622
   -10.5477 -10.5477 -10.4850 -10.4850  -3.7821  -3.7731  -3.7571  -3.7570
    -3.7514  -3.7514  -3.4998  -3.4600  -3.4597  -3.4597  -3.4488  -3.4488
    17.8210  18.5990  18.8878  19.9305  19.9305  20.3269  20.4459  20.4460
    20.5736  20.6909  20.6909  21.1589  21.2300  21.2301  21.7115  21.8283
    21.8283  22.6609  22.9427  22.9427  22.9871  22.9871  23.5928  24.1367
    24.1367  24.5000  25.1785  25.1785  25.2537  25.2537  25.3235  25.3235
    25.5777  25.5778  25.6818  25.6818  25.7055  25.8103  25.9258  26.1133
    26.1134  26.1841  26.3637  26.3638  26.4335  26.4335  27.0061  27.6990
    28.1821  28.1821  28.3729  28.3729  29.1636  29.1636  29.3650  29.3650
    29.7055  29.7055  29.7120  29.9909  29.9910  30.5090  30.5167  31.8497
    31.9238  33.7844  33.7845  34.0164  34.7057  35.2240  35.2241  36.0307
    36.2550  36.7852  37.0758  37.0758  37.3858

[...]

          k =-0.5000-0.2887 0.0000 (  5800 PWs)   bands (ev):

[...]

     the Fermi energy is    29.0419 ev

!    total energy              =   -2215.98365881 Ry
     Harris-Foulkes estimate   =   -2215.98366707 Ry
     estimated scf accuracy    <       0.00000877 Ry

     The total energy is the sum of the following terms:

     one-electron contribution =    -115.72768542 Ry
     hartree contribution      =     252.40520705 Ry
     xc contribution           =    -229.01879119 Ry
     ewald contribution        =   -2122.95473885 Ry
     smearing contrib. (-TS)   =      -0.68765041 Ry

     convergence has been achieved in  13 iterations

     Forces acting on atoms (Ry/au):

     atom    1 type  1   force =     0.00000000    0.00000000    0.00283228
     atom    2 type  1   force =     0.00000000    0.00000000    0.00283228
     atom    3 type  1   force =     0.00000000    0.00000000   -0.00283228
     atom    4 type  1   force =     0.00000000    0.00000000   -0.00283228
     atom    5 type  2   force =     0.00000000    0.00000000    0.00000000
     atom    6 type  2   force =     0.00000000    0.00000000    0.00000000
     atom    7 type  2   force =     0.00000000    0.04272695    0.00000000
     atom    8 type  2   force =    -0.03700263    0.02136348    0.00000000
     atom    9 type  2   force =     0.03700263    0.02136348    0.00000000
     atom   10 type  2   force =    -0.03700263   -0.02136348    0.00000000
     atom   11 type  2   force =     0.03700263   -0.02136348    0.00000000
     atom   12 type  2   force =     0.00000000   -0.04272695    0.00000000

     Total force =     0.104812     Total SCF correction =     0.000000

     entering subroutine stress ...

          total   stress  (Ry/bohr**3)                   (kbar)     P=  629.95
   0.00420064   0.00000000   0.00000000        617.94      0.00      0.00
   0.00000000   0.00420064   0.00000000          0.00    617.94      0.00
   0.00000000   0.00000000   0.00444561          0.00      0.00    653.97

     BFGS Geometry Optimization

     number of scf cycles    =   1
     number of bfgs steps    =   0

     enthalpy new            =   -2215.9836588141 Ry

     new trust radius        =       0.5000000000 bohr
     new conv_thr            =       0.0001000000 Ry

     new unit-cell volume =   1645.33360 a.u.^3 (   243.81328 Ang^3 )

CELL_PARAMETERS (alat=  9.92348860)
   1.064030913   0.000000000   0.000000000
  -0.532015456   0.921477801   0.000000000
   0.000000000   0.000000000   1.717203317

ATOMIC_POSITIONS (crystal)
Mg       0.333333000   0.666667000   0.062526208
Mg       0.666667000   0.333333000   0.562526208
Mg       0.666667000   0.333333000   0.937473792
Mg       0.333333000   0.666667000   0.437473792
Zn       0.000000000   0.000000000   0.000000000
Zn       0.000000000   0.000000000   0.500000000
Zn       0.171876692   0.343753383   0.750000000
Zn       0.828123308   0.171876692   0.250000000
Zn       0.343753383   0.171876692   0.250000000
Zn       0.656246617   0.828123308   0.750000000
Zn       0.171876692   0.828123308   0.750000000
Zn       0.828123308   0.656246617   0.250000000

     Writing output data file Prototype-La-hP12-MgZn2.save
     NEW-OLD atomic charge density approx. for the potential
     NEW k-points:
        k(    1) = (   0.0000000   0.0000000   0.0000000), wk =   0.0833333
        k(    2) = (   0.0000000   0.0000000   0.1455856), wk =   0.1666667
        k(    3) = (   0.0000000   0.0000000  -0.2911711), wk =   0.0833333
        k(    4) = (   0.0000000   0.3617378   0.0000000), wk =   0.1666667
        k(    5) = (   0.0000000   0.3617378   0.1455856), wk =   0.3333333
        k(    6) = (   0.0000000   0.3617378  -0.2911711), wk =   0.1666667
        k(    7) = (  -0.4699112  -0.2713033   0.0000000), wk =   0.0833333
        k(    8) = (  -0.4699112  -0.2713033   0.1455856), wk =   0.1666667
        k(    9) = (  -0.4699112  -0.2713033  -0.2911711), wk =   0.0833333
        k(   10) = (  -0.4699112   0.0904344   0.0000000), wk =   0.1666667
        k(   11) = (  -0.4699112   0.0904344   0.1455856), wk =   0.3333333
        k(   12) = (  -0.4699112   0.0904344  -0.2911711), wk =   0.1666667

[...]

     enthalpy old            =   -2215.9836588141 Ry
     enthalpy new            =   -2216.1729114860 Ry

     CASE: enthalpy_new < enthalpy_old

     small trust_radius: resetting bfgs history

     new trust radius        =       0.4242476324 bohr
     new conv_thr            =       0.0000200511 Ry

[...]

     number of scf cycles    =   3
     number of bfgs steps    =   2

     enthalpy old            =   -2216.1729114860 Ry
     enthalpy new            =   -2216.1463638204 Ry

     CASE: enthalpy_new > enthalpy_old

     new trust radius        =       0.1968012557 bohr

     trust_radius < trust_radius_min

     resetting bfgs history

     Message from routine bfgs:
     history already reset at previous step: stopping
     new conv_thr            =       0.0000200511 Ry

     new unit-cell volume =   1394.23382 a.u.^3 (   206.60413 Ang^3 )

[...]

ATOMIC_POSITIONS (crystal)
Mg       0.333333000   0.666667000   0.062494195
Mg       0.666667000   0.333333000   0.562494195
Mg       0.666667000   0.333333000   0.937505805
Mg       0.333333000   0.666667000   0.437505805
Zn       0.000000000   0.000000000   0.000000000
Zn       0.000000000   0.000000000   0.500000000
Zn       0.170661092   0.341322184   0.750000000
Zn       0.829338908   0.170661092   0.250000000
Zn       0.341322184   0.170661092   0.250000000
Zn       0.658677816   0.829338908   0.750000000
Zn       0.170661092   0.829338908   0.750000000
Zn       0.829338908   0.658677816   0.250000000

     Writing output data file Prototype-La-hP12-MgZn2.save
     NEW-OLD atomic charge density approx. for the potential
     NEW k-points:
        k(    1) = (   0.0000000   0.0000000   0.0000000), wk =   0.0833333
        k(    2) = (   0.0000000   0.0000000   0.1540506), wk =   0.1666667
        k(    3) = (   0.0000000   0.0000000  -0.3081012), wk =   0.0833333
        k(    4) = (   0.0000000   0.3820151   0.0000000), wk =   0.1666667
        k(    5) = (   0.0000000   0.3820151   0.1540506), wk =   0.3333333
        k(    6) = (   0.0000000   0.3820151  -0.3081012), wk =   0.1666667
        k(    7) = (  -0.4962521  -0.2865113   0.0000000), wk =   0.0833333
        k(    8) = (  -0.4962521  -0.2865113   0.1540506), wk =   0.1666667
        k(    9) = (  -0.4962521  -0.2865113  -0.3081012), wk =   0.0833333
        k(   10) = (  -0.4962521   0.0955038   0.0000000), wk =   0.1666667
        k(   11) = (  -0.4962521   0.0955038   0.1540506), wk =   0.3333333
        k(   12) = (  -0.4962521   0.0955038  -0.3081012), wk =   0.1666667

[...]

     The maximum number of steps has been reached.

     End of BFGS Geometry Optimization
Begin final coordinates
     new unit-cell volume =   1394.23382 a.u.^3 (   206.60413 Ang^3 )

CELL_PARAMETERS (alat=  9.92348860)
   1.007552379   0.000000000   0.000000000
  -0.503776189   0.872565956   0.000000000
   0.000000000   0.000000000   1.622843310

ATOMIC_POSITIONS (crystal)
Mg       0.333333000   0.666667000   0.062494195
Mg       0.666667000   0.333333000   0.562494195
Mg       0.666667000   0.333333000   0.937505805
Mg       0.333333000   0.666667000   0.437505805
Zn       0.000000000   0.000000000   0.000000000
Zn       0.000000000   0.000000000   0.500000000
Zn       0.170661092   0.341322184   0.750000000
Zn       0.829338908   0.170661092   0.250000000
Zn       0.341322184   0.170661092   0.250000000
Zn       0.658677816   0.829338908   0.750000000
Zn       0.170661092   0.829338908   0.750000000
Zn       0.829338908   0.658677816   0.250000000
End final coordinates

     A final scf calculation at the relaxed structure.
     The G-vectors are recalculated for the final unit cell
     Results may differ from those at the preceding step.

     bravais-lattice index     =            0
     lattice parameter (alat)  =       9.9235  a.u.
     unit-cell volume          =    1394.2338 (a.u.)^3
     number of atoms/cell      =           12
     number of atomic types    =            2
     number of electrons       =       208.00
     number of Kohn-Sham states=          125
     kinetic-energy cutoff     =      40.0000  Ry
     charge density cutoff     =     160.0000  Ry
     convergence threshold     =      2.0E-05
     mixing beta               =       0.7000
     number of iterations used =            8  plain     mixing
     Exchange-correlation      = SLA-PZ-NOGX-NOGC ( 1 1 0 0 0)
     EXX-fraction              =        0.00

     celldm(1)=   9.923489  celldm(2)=   0.000000  celldm(3)=   0.000000
     celldm(4)=   0.000000  celldm(5)=   0.000000  celldm(6)=   0.000000

     crystal axes: (cart. coord. in units of alat)
               a(1) = (   1.007552   0.000000   0.000000 )
               a(2) = (  -0.503776   0.872566   0.000000 )
               a(3) = (   0.000000   0.000000   1.622843 )

     reciprocal axes: (cart. coord. in units 2 pi/alat)
               b(1) = (  0.992504  0.573023  0.000000 )
               b(2) = (  0.000000  1.146045  0.000000 )
               b(3) = (  0.000000  0.000000  0.616202 )

     PseudoPot. # 1 for Sm read from file:
     /home/cwx6513/pp.La/Sm.UPF
     MD5 check sum: 5079e8b144a06bfcdbc14fb02b96ab09
     Pseudo is Norm-conserving, Zval = 16.0
     Generated in analytical, separable form
     Using radial grid of 1259 points,  6 beta functions with:
                l(1) =   0
                l(2) =   0
                l(3) =   1
                l(4) =   1
                l(5) =   2
                l(6) =   3

     PseudoPot. # 2 for Gd read from file:
     /home/cwx6513/pp.La/Gd.UPF
     MD5 check sum: 09a8be538722f05520810cb6aac0efd2
     Pseudo is Norm-conserving, Zval = 18.0
     Generated in analytical, separable form
     Using radial grid of 1263 points,  6 beta functions with:
                l(1) =   0
                l(2) =   0
                l(3) =   1
                l(4) =   1
                l(5) =   2
                l(6) =   3

     atomic species   valence    mass     pseudopotential
        Mg            16.00    24.30500     Sm( 1.00)
        Zn            18.00    65.39000     Gd( 1.00)

     24 Sym. Ops., with inversion, found (12 have fractional translation)

   Cartesian axes

     site n.     atom                  positions (alat units)
         1           Mg  tau(   1) = (  -0.0000005   0.5817109   0.1014183  )
         2           Mg  tau(   2) = (   0.5037767   0.2908550   0.9128399  )
         3           Mg  tau(   3) = (   0.5037767   0.2908550   1.5214250  )
         4           Mg  tau(   4) = (  -0.0000005   0.5817109   0.7100034  )
         5           Zn  tau(   5) = (   0.0000000   0.0000000   0.0000000  )
         6           Zn  tau(   6) = (   0.0000000   0.0000000   0.8114217  )
         7           Zn  tau(   7) = (   0.0000000   0.2978261   1.2171325  )
         8           Zn  tau(   8) = (   0.7496274   0.1489131   0.4057108  )
         9           Zn  tau(   9) = (   0.2579250   0.1489131   0.4057108  )
        10           Zn  tau(  10) = (   0.2458512   0.7236529   1.2171325  )
        11           Zn  tau(  11) = (  -0.2458512   0.7236529   1.2171325  )
        12           Zn  tau(  12) = (   0.5037762   0.5747398   0.4057108  )

     number of k points=    12  gaussian smearing, width (Ry)=  0.1000
                       cart. coord. in units 2pi/alat
        k(    1) = (   0.0000000   0.0000000   0.0000000), wk =   0.0833333
        k(    2) = (   0.0000000   0.0000000   0.1540506), wk =   0.1666667
        k(    3) = (   0.0000000   0.0000000  -0.3081012), wk =   0.0833333
        k(    4) = (   0.0000000   0.3820151   0.0000000), wk =   0.1666667
        k(    5) = (   0.0000000   0.3820151   0.1540506), wk =   0.3333333
        k(    6) = (   0.0000000   0.3820151  -0.3081012), wk =   0.1666667
        k(    7) = (  -0.4962521  -0.2865113   0.0000000), wk =   0.0833333
        k(    8) = (  -0.4962521  -0.2865113   0.1540506), wk =   0.1666667
        k(    9) = (  -0.4962521  -0.2865113  -0.3081012), wk =   0.0833333
        k(   10) = (  -0.4962521   0.0955038   0.0000000), wk =   0.1666667
        k(   11) = (  -0.4962521   0.0955038   0.1540506), wk =   0.3333333
        k(   12) = (  -0.4962521   0.0955038  -0.3081012), wk =   0.1666667

     Largest allocated arrays     est. size (Mb)     dimensions
     Largest temporary arrays     est. size (Mb)     dimensions

     Initial potential from superposition of free atoms

     Starting from uniform charge
     Starting wfc are    0 randomized atomic wfcs

     Writing output data file Prototype-La-hP12-MgZn2.save

     Self-consistent Calculation

[...]

     iteration # 11     ecut=    40.00 Ry     beta=0.70
     CG style diagonalization
     c_bands:  1 eigenvalues not converged
     c_bands:  1 eigenvalues not converged
     c_bands:  1 eigenvalues not converged
     ethr =  1.58E-06,  avg # of iterations =  3.2

[...]

     total energy              =   -2216.19770003 Ry
     Harris-Foulkes estimate   =   -2216.19778093 Ry
     estimated scf accuracy    <       0.00033276 Ry

     iteration # 13     ecut=    40.00 Ry     beta=0.70
     CG style diagonalization
     ethr =  1.60E-07,  avg # of iterations =  3.1

     End of self-consistent calculation

[...]

          k = 0.0000 0.3820-0.3081 (  5950 PWs)   bands (ev):

[...]

          k =-0.4963 0.0955-0.3081 (  5964 PWs)   bands (ev):

   -41.1401 -41.1401 -41.0319 -41.0318 -40.8935 -40.8935 -40.8150 -40.8150
   -29.2684 -29.2683 -29.2400 -29.2399 -13.3640 -13.3640 -12.8716 -12.8715
   -12.4493 -12.4493 -12.3771 -12.3771 -12.2687 -12.2686 -12.1758 -12.1758
   -11.9785 -11.9785 -11.7501 -11.7501 -11.5661 -11.5661 -11.4738 -11.4738
   -11.3780 -11.3780 -11.3429 -11.3429  -4.5687  -4.5687  -4.5614  -4.5614
    -4.4729  -4.4729  -4.3530  -4.3529  -4.2566  -4.2565  -4.2499  -4.2499
    18.9788  18.9788  19.7920  19.7920  20.2741  20.2741  20.4183  20.4183
    20.6434  20.6434  20.7930  20.7930  21.2295  21.2295  21.3796  21.3796
    21.5640  21.5640  21.9431  21.9431  22.2464  22.2464  22.7280  22.7280
    22.8719  22.8719  23.1563  23.1563  23.4275  23.4276  23.9887  23.9887
    24.1956  24.1956  24.4310  24.4310  24.8710  24.8710  25.0860  25.0860
    25.6093  25.6093  26.0861  26.0861  26.2441  26.2441  26.4418  26.4418
    26.8566  26.8566  27.2234  27.2234  27.4218  27.4218  27.7365  27.7365
    28.1974  28.1974  28.5280  28.5280  28.7507  28.7507  29.0252  29.0252
    30.2689  30.2689  32.0238  32.0238  33.8848  33.8849  35.2215  35.2215
    35.9043  35.9043  36.1994  36.1994  38.0210

     the Fermi energy is    28.1876 ev

!    total energy              =   -2216.19772419 Ry
     Harris-Foulkes estimate   =   -2216.19773459 Ry
     estimated scf accuracy    <       0.00001106 Ry

     The total energy is the sum of the following terms:

     one-electron contribution =    -139.01844373 Ry
     hartree contribution      =     258.22321805 Ry
     xc contribution           =    -228.51772470 Ry
     ewald contribution        =   -2106.17451988 Ry
     smearing contrib. (-TS)   =      -0.71025393 Ry

     convergence has been achieved in  13 iterations

     Forces acting on atoms (Ry/au):

     atom    1 type  1   force =     0.00000000    0.00000000    0.00199056
     atom    2 type  1   force =     0.00000000    0.00000000    0.00199056
     atom    3 type  1   force =     0.00000000    0.00000000   -0.00199056
     atom    4 type  1   force =     0.00000000    0.00000000   -0.00199056
     atom    5 type  2   force =     0.00000000    0.00000000    0.00000000
     atom    6 type  2   force =     0.00000000    0.00000000    0.00000000
     atom    7 type  2   force =     0.00000000    0.02590531    0.00000000
     atom    8 type  2   force =    -0.02243465    0.01295265    0.00000000
     atom    9 type  2   force =     0.02243465    0.01295265    0.00000000
     atom   10 type  2   force =    -0.02243465   -0.01295265    0.00000000
     atom   11 type  2   force =     0.02243465   -0.01295265    0.00000000
     atom   12 type  2   force =     0.00000000   -0.02590531    0.00000000

     Total force =     0.063580     Total SCF correction =     0.000000

     entering subroutine stress ...

          total   stress  (Ry/bohr**3)                   (kbar)     P=  501.91
   0.00336399   0.00000000   0.00000000        494.86      0.00      0.00
   0.00000000   0.00336399   0.00000000          0.00    494.86      0.00
   0.00000000   0.00000000   0.00350774          0.00      0.00    516.01

     Writing output data file Prototype-La-hP12-MgZn2.save

     General routines

     Parallel routines

   This run was terminated on:  19: 5:57  22Mar2018

   JOB DONE.