     Program PWSCF v.5.0.2 starts on 23Mar2018 at  2:19:48

     Current dimensions of program PWSCF are:
     Max number of different atomic species (ntypx) = 10
     Max number of k-points (npk) =  40000
     Max angular momentum in pseudopotentials (lmaxx) =  3
     Waiting for input...
     Reading input from standard input

     Subspace diagonalization in iterative solution of the eigenvalue problem:
     a serial algorithm will be used

     bravais-lattice index     =            0
     lattice parameter (alat)  =       8.5346  a.u.
     unit-cell volume          =     621.6493 (a.u.)^3
     number of atoms/cell      =            8
     number of atomic types    =            2
     number of electrons       =       158.00
     number of Kohn-Sham states=           95
     kinetic-energy cutoff     =      40.0000  Ry
     charge density cutoff     =     160.0000  Ry
     convergence threshold     =      1.0E-04
     mixing beta               =       0.7000
     number of iterations used =            8  plain     mixing
     Exchange-correlation      = SLA-PZ-NOGX-NOGC ( 1 1 0 0 0)
     EXX-fraction              =        0.00
     nstep                     =           50

     celldm(1)=   8.534573  celldm(2)=   0.000000  celldm(3)=   0.000000
     celldm(4)=   0.000000  celldm(5)=   0.000000  celldm(6)=   0.000000

     crystal axes: (cart. coord. in units of alat)
               a(1) = (   1.000000   0.000000   0.000000 )
               a(2) = (   0.000000   1.000000   0.000000 )
               a(3) = (   0.000000   0.000000   1.000000 )

     reciprocal axes: (cart. coord. in units 2 pi/alat)
               b(1) = (  1.000000  0.000000  0.000000 )
               b(2) = (  0.000000  1.000000  0.000000 )
               b(3) = (  0.000000  0.000000  1.000000 )

     PseudoPot. # 1 for Dy read from file:
     /home/cwx6513/pp.La/Dy.UPF
     MD5 check sum: 9597327bec62616a94a14d07f3fd9936
     Pseudo is Norm-conserving, Zval = 20.0
     Generated in analytical, separable form
     Using radial grid of 1265 points,  6 beta functions with:
                l(1) =   0
                l(2) =   0
                l(3) =   1
                l(4) =   1
                l(5) =   2
                l(6) =   3

     PseudoPot. # 2 for Tb read from file:
     /home/cwx6513/pp.La/Tb.UPF
     MD5 check sum: 3d6088a3f0cf7fd2e110c43f7f8e95c2
     Pseudo is Norm-conserving, Zval = 19.0
     Generated in analytical, separable form
     Using radial grid of 1263 points,  6 beta functions with:
                l(1) =   0
                l(2) =   0
                l(3) =   1
                l(4) =   1
                l(5) =   2
                l(6) =   3

     atomic species   valence    mass     pseudopotential
        Cr            20.00    51.99610     Dy( 1.00)
        Si            19.00    28.08550     Tb( 1.00)

     48 Sym. Ops., with inversion, found (24 have fractional translation)

   Cartesian axes

     site n.     atom                  positions (alat units)
         1           Cr  tau(   1) = (   0.0000000   0.5000000   0.2500000  )
         2           Cr  tau(   2) = (   0.0000000   0.5000000   0.7500000  )
         3           Cr  tau(   3) = (   0.5000000   0.7500000   0.0000000  )
         4           Cr  tau(   4) = (   0.5000000   0.2500000   0.0000000  )
         5           Cr  tau(   5) = (   0.7500000   0.0000000   0.5000000  )
         6           Cr  tau(   6) = (   0.2500000   0.0000000   0.5000000  )
         7           Si  tau(   7) = (   0.5000000   0.5000000   0.5000000  )
         8           Si  tau(   8) = (   0.0000000   0.0000000   0.0000000  )

     number of k points=    48  gaussian smearing, width (Ry)=  0.1000
                       cart. coord. in units 2pi/alat
        k(    1) = (   0.0000000   0.0000000   0.0000000), wk =   0.0095238
        k(    2) = (   0.0000000   0.0000000   0.1428571), wk =   0.0190476
        k(    3) = (   0.0000000   0.0000000   0.2857143), wk =   0.0190476
        k(    4) = (   0.0000000   0.0000000   0.4285714), wk =   0.0190476
        k(    5) = (   0.0000000   0.1666667   0.0000000), wk =   0.0190476
        k(    6) = (   0.0000000   0.1666667   0.1428571), wk =   0.0380952
        k(    7) = (   0.0000000   0.1666667   0.2857143), wk =   0.0380952
        k(    8) = (   0.0000000   0.1666667   0.4285714), wk =   0.0380952
        k(    9) = (   0.0000000   0.3333333   0.0000000), wk =   0.0190476
        k(   10) = (   0.0000000   0.3333333   0.1428571), wk =   0.0380952
        k(   11) = (   0.0000000   0.3333333   0.2857143), wk =   0.0380952
        k(   12) = (   0.0000000   0.3333333   0.4285714), wk =   0.0380952
        k(   13) = (   0.0000000  -0.5000000   0.0000000), wk =   0.0095238
        k(   14) = (   0.0000000  -0.5000000   0.1428571), wk =   0.0190476
        k(   15) = (   0.0000000  -0.5000000   0.2857143), wk =   0.0190476
        k(   16) = (   0.0000000  -0.5000000   0.4285714), wk =   0.0190476
        k(   17) = (   0.2000000   0.0000000   0.0000000), wk =   0.0190476
        k(   18) = (   0.2000000   0.0000000   0.1428571), wk =   0.0380952
        k(   19) = (   0.2000000   0.0000000   0.2857143), wk =   0.0380952
        k(   20) = (   0.2000000   0.0000000   0.4285714), wk =   0.0380952
        k(   21) = (   0.2000000   0.1666667   0.0000000), wk =   0.0380952
        k(   22) = (   0.2000000   0.1666667   0.1428571), wk =   0.0761905
        k(   23) = (   0.2000000   0.1666667   0.2857143), wk =   0.0761905
        k(   24) = (   0.2000000   0.1666667   0.4285714), wk =   0.0761905
        k(   25) = (   0.2000000   0.3333333   0.0000000), wk =   0.0380952
        k(   26) = (   0.2000000   0.3333333   0.1428571), wk =   0.0761905
        k(   27) = (   0.2000000   0.3333333   0.2857143), wk =   0.0761905
        k(   28) = (   0.2000000   0.3333333   0.4285714), wk =   0.0761905
        k(   29) = (   0.2000000  -0.5000000   0.0000000), wk =   0.0190476
        k(   30) = (   0.2000000  -0.5000000   0.1428571), wk =   0.0380952
        k(   31) = (   0.2000000  -0.5000000   0.2857143), wk =   0.0380952
        k(   32) = (   0.2000000  -0.5000000   0.4285714), wk =   0.0380952
        k(   33) = (   0.4000000   0.0000000   0.0000000), wk =   0.0190476
        k(   34) = (   0.4000000   0.0000000   0.1428571), wk =   0.0380952
        k(   35) = (   0.4000000   0.0000000   0.2857143), wk =   0.0380952
        k(   36) = (   0.4000000   0.0000000   0.4285714), wk =   0.0380952
        k(   37) = (   0.4000000   0.1666667   0.0000000), wk =   0.0380952
        k(   38) = (   0.4000000   0.1666667   0.1428571), wk =   0.0761905
        k(   39) = (   0.4000000   0.1666667   0.2857143), wk =   0.0761905
        k(   40) = (   0.4000000   0.1666667   0.4285714), wk =   0.0761905
        k(   41) = (   0.4000000   0.3333333   0.0000000), wk =   0.0380952
        k(   42) = (   0.4000000   0.3333333   0.1428571), wk =   0.0761905
        k(   43) = (   0.4000000   0.3333333   0.2857143), wk =   0.0761905
        k(   44) = (   0.4000000   0.3333333   0.4285714), wk =   0.0761905
        k(   45) = (   0.4000000  -0.5000000   0.0000000), wk =   0.0190476
        k(   46) = (   0.4000000  -0.5000000   0.1428571), wk =   0.0380952
        k(   47) = (   0.4000000  -0.5000000   0.2857143), wk =   0.0380952
        k(   48) = (   0.4000000  -0.5000000   0.4285714), wk =   0.0380952

     Largest allocated arrays     est. size (Mb)     dimensions
     Largest temporary arrays     est. size (Mb)     dimensions

     Initial potential from superposition of free atoms

     Starting from uniform charge
     Starting wfc are    0 randomized atomic wfcs

     Self-consistent Calculation

     iteration #  1     ecut=    40.00 Ry     beta=0.70
     CG style diagonalization
     c_bands:  5 eigenvalues not converged
     c_bands:  4 eigenvalues not converged
     c_bands:  2 eigenvalues not converged
     c_bands:  4 eigenvalues not converged
     c_bands:  3 eigenvalues not converged
     c_bands:  4 eigenvalues not converged
     c_bands:  5 eigenvalues not converged
     c_bands:  2 eigenvalues not converged
     c_bands:  4 eigenvalues not converged
     c_bands:  4 eigenvalues not converged
     c_bands:  1 eigenvalues not converged
     c_bands:  3 eigenvalues not converged
     c_bands:  4 eigenvalues not converged
     c_bands:  1 eigenvalues not converged
     c_bands:  3 eigenvalues not converged
     c_bands:  4 eigenvalues not converged
     c_bands:  3 eigenvalues not converged
     c_bands:  2 eigenvalues not converged
     c_bands:  5 eigenvalues not converged
     c_bands:  2 eigenvalues not converged
     c_bands:  3 eigenvalues not converged
     c_bands:  5 eigenvalues not converged
     c_bands:  5 eigenvalues not converged
     c_bands:  1 eigenvalues not converged
     c_bands:  4 eigenvalues not converged
     c_bands:  1 eigenvalues not converged
     c_bands:  4 eigenvalues not converged
     c_bands:  2 eigenvalues not converged
     c_bands:  4 eigenvalues not converged
     c_bands:  1 eigenvalues not converged
     c_bands:  2 eigenvalues not converged
     c_bands:  1 eigenvalues not converged
     ethr =  1.00E-02,  avg # of iterations = 12.8

     total energy              =   -1891.24746564 Ry
     Harris-Foulkes estimate   =   -2256.75104099 Ry
     estimated scf accuracy    <     477.20043300 Ry

[...]

     iteration #  3     ecut=    40.00 Ry     beta=0.70
     CG style diagonalization
     ethr =  1.00E-02,  avg # of iterations =  4.0

[...]

     End of self-consistent calculation

          k = 0.0000 0.0000 0.0000 (  2601 PWs)   bands (ev):

   -37.9345 -37.8046 -37.8046 -37.1685 -37.1685 -37.1685 -30.2686 -30.2233
    -7.3402  -7.3402  -7.0093  -5.5026  -5.5026  -5.5026  -4.5964  -4.5964
    -4.5964  -4.4897  -4.4897  -4.4897  -4.2402  -4.2402  -4.2402  -3.2145
    -3.2145  -3.2145   0.9970   0.9970   0.9970   1.0516   1.0516   1.0516
    29.3877  29.3877  29.8628  30.2259  30.2259  30.2259  31.2216  32.3755
    32.7751  32.7751  32.7751  32.9009  32.9929  32.9929  32.9929  33.2669
    33.2669  35.6177  35.6177  36.4268  36.4268  36.4268  37.2110  37.2110
    37.2110  37.8633  37.8633  37.8633  37.9263  37.9263  37.9263  39.0813
    39.0813  39.7357  39.7357  40.6618  40.6618  40.6618  42.3655  42.3655
    42.3655  46.4830  46.4830  46.4830  50.1125  50.1125  50.6834  50.9512
    52.2066  52.2066  52.2066  52.7458  52.7458  52.7458  55.7313  55.7314
    55.7315  56.2864  56.2849  56.2879  56.3173  56.4800  56.4716

[...]

     the Fermi energy is    50.4443 ev

!    total energy              =   -2014.23366266 Ry
     Harris-Foulkes estimate   =   -2014.23369304 Ry
     estimated scf accuracy    <       0.00003518 Ry

     The total energy is the sum of the following terms:

     one-electron contribution =     119.67560987 Ry
     hartree contribution      =     170.48732230 Ry
     xc contribution           =    -196.46433792 Ry
     ewald contribution        =   -2107.81653104 Ry
     smearing contrib. (-TS)   =      -0.11572587 Ry

     convergence has been achieved in   7 iterations

     Forces acting on atoms (Ry/au):

[...]
   0.00000000   0.00000000  -0.00857332          0.00      0.00  -1261.18

     number of scf cycles    =   3
     number of bfgs steps    =   2

     enthalpy old            =   -2017.9859444985 Ry
     enthalpy new            =   -2016.8021597057 Ry

     CASE: enthalpy_new > enthalpy_old

     new trust radius        =       0.1820888694 bohr

     trust_radius < trust_radius_min

     resetting bfgs history

     Message from routine bfgs:
     history already reset at previous step: stopping
     new conv_thr            =       0.0000010000 Ry

     new unit-cell volume =   1049.74154 a.u.^3 (   155.55565 Ang^3 )

[...]

ATOMIC_POSITIONS (crystal)
Cr       0.000000000   0.500000000   0.250000000
Cr       0.000000000   0.500000000   0.750000000
Cr       0.500000000   0.750000000   0.000000000
Cr       0.500000000   0.250000000   0.000000000
Cr       0.750000000   0.000000000   0.500000000
Cr       0.250000000   0.000000000   0.500000000
Si       0.500000000   0.500000000   0.500000000
Si       0.000000000   0.000000000   0.000000000

     Writing output data file Prototype-La-cP8-Cr3Si.save
     NEW-OLD atomic charge density approx. for the potential
     NEW k-points:
        k(    1) = (   0.0000000   0.0000000   0.0000000), wk =   0.0095238
        k(    2) = (   0.0000000   0.0000000   0.1199655), wk =   0.0190476
        k(    3) = (   0.0000000   0.0000000   0.2399310), wk =   0.0190476
        k(    4) = (   0.0000000   0.0000000   0.3598964), wk =   0.0190476
        k(    5) = (   0.0000000   0.1399597   0.0000000), wk =   0.0190476
        k(    6) = (   0.0000000   0.1399597   0.1199655), wk =   0.0380952
        k(    7) = (   0.0000000   0.1399597   0.2399310), wk =   0.0380952
        k(    8) = (   0.0000000   0.1399597   0.3598964), wk =   0.0380952
        k(    9) = (   0.0000000   0.2799195   0.0000000), wk =   0.0190476
        k(   10) = (   0.0000000   0.2799195   0.1199655), wk =   0.0380952
        k(   11) = (   0.0000000   0.2799195   0.2399310), wk =   0.0380952
        k(   12) = (   0.0000000   0.2799195   0.3598964), wk =   0.0380952
        k(   13) = (   0.0000000  -0.4198792   0.0000000), wk =   0.0095238
        k(   14) = (   0.0000000  -0.4198792   0.1199655), wk =   0.0190476
        k(   15) = (   0.0000000  -0.4198792   0.2399310), wk =   0.0190476
        k(   16) = (   0.0000000  -0.4198792   0.3598964), wk =   0.0190476
        k(   17) = (   0.1679517   0.0000000   0.0000000), wk =   0.0190476
        k(   18) = (   0.1679517   0.0000000   0.1199655), wk =   0.0380952
        k(   19) = (   0.1679517   0.0000000   0.2399310), wk =   0.0380952
        k(   20) = (   0.1679517   0.0000000   0.3598964), wk =   0.0380952
        k(   21) = (   0.1679517   0.1399597   0.0000000), wk =   0.0380952
        k(   22) = (   0.1679517   0.1399597   0.1199655), wk =   0.0761905
        k(   23) = (   0.1679517   0.1399597   0.2399310), wk =   0.0761905
        k(   24) = (   0.1679517   0.1399597   0.3598964), wk =   0.0761905
        k(   25) = (   0.1679517   0.2799195   0.0000000), wk =   0.0380952
        k(   26) = (   0.1679517   0.2799195   0.1199655), wk =   0.0761905
        k(   27) = (   0.1679517   0.2799195   0.2399310), wk =   0.0761905
        k(   28) = (   0.1679517   0.2799195   0.3598964), wk =   0.0761905
        k(   29) = (   0.1679517  -0.4198792   0.0000000), wk =   0.0190476
        k(   30) = (   0.1679517  -0.4198792   0.1199655), wk =   0.0380952
        k(   31) = (   0.1679517  -0.4198792   0.2399310), wk =   0.0380952
        k(   32) = (   0.1679517  -0.4198792   0.3598964), wk =   0.0380952
        k(   33) = (   0.3359034   0.0000000   0.0000000), wk =   0.0190476
        k(   34) = (   0.3359034   0.0000000   0.1199655), wk =   0.0380952
        k(   35) = (   0.3359034   0.0000000   0.2399310), wk =   0.0380952
        k(   36) = (   0.3359034   0.0000000   0.3598964), wk =   0.0380952
        k(   37) = (   0.3359034   0.1399597   0.0000000), wk =   0.0380952
        k(   38) = (   0.3359034   0.1399597   0.1199655), wk =   0.0761905
        k(   39) = (   0.3359034   0.1399597   0.2399310), wk =   0.0761905
        k(   40) = (   0.3359034   0.1399597   0.3598964), wk =   0.0761905
        k(   41) = (   0.3359034   0.2799195   0.0000000), wk =   0.0380952
        k(   42) = (   0.3359034   0.2799195   0.1199655), wk =   0.0761905
        k(   43) = (   0.3359034   0.2799195   0.2399310), wk =   0.0761905
        k(   44) = (   0.3359034   0.2799195   0.3598964), wk =   0.0761905
        k(   45) = (   0.3359034  -0.4198792   0.0000000), wk =   0.0190476
        k(   46) = (   0.3359034  -0.4198792   0.1199655), wk =   0.0380952
        k(   47) = (   0.3359034  -0.4198792   0.2399310), wk =   0.0380952
        k(   48) = (   0.3359034  -0.4198792   0.3598964), wk =   0.0380952

[...]

     The maximum number of steps has been reached.

     End of BFGS Geometry Optimization
Begin final coordinates
     new unit-cell volume =   1049.74154 a.u.^3 (   155.55565 Ang^3 )

CELL_PARAMETERS (alat=  8.53457320)
   1.190818723   0.000000000   0.000000000
   0.000000000   1.190818723   0.000000000
   0.000000000   0.000000000   1.190818723

ATOMIC_POSITIONS (crystal)
Cr       0.000000000   0.500000000   0.250000000
Cr       0.000000000   0.500000000   0.750000000
Cr       0.500000000   0.750000000   0.000000000
Cr       0.500000000   0.250000000   0.000000000
Cr       0.750000000   0.000000000   0.500000000
Cr       0.250000000   0.000000000   0.500000000
Si       0.500000000   0.500000000   0.500000000
Si       0.000000000   0.000000000   0.000000000
End final coordinates

     A final scf calculation at the relaxed structure.
     The G-vectors are recalculated for the final unit cell
     Results may differ from those at the preceding step.

     bravais-lattice index     =            0
     lattice parameter (alat)  =       8.5346  a.u.
     unit-cell volume          =    1049.7415 (a.u.)^3
     number of atoms/cell      =            8
     number of atomic types    =            2
     number of electrons       =       158.00
     number of Kohn-Sham states=           95
     kinetic-energy cutoff     =      40.0000  Ry
     charge density cutoff     =     160.0000  Ry
     convergence threshold     =      1.0E-06
     mixing beta               =       0.7000
     number of iterations used =            8  plain     mixing
     Exchange-correlation      = SLA-PZ-NOGX-NOGC ( 1 1 0 0 0)
     EXX-fraction              =        0.00

     celldm(1)=   8.534573  celldm(2)=   0.000000  celldm(3)=   0.000000
     celldm(4)=   0.000000  celldm(5)=   0.000000  celldm(6)=   0.000000

     crystal axes: (cart. coord. in units of alat)
               a(1) = (   1.190819   0.000000   0.000000 )
               a(2) = (   0.000000   1.190819   0.000000 )
               a(3) = (   0.000000   0.000000   1.190819 )

     reciprocal axes: (cart. coord. in units 2 pi/alat)
               b(1) = (  0.839758  0.000000  0.000000 )
               b(2) = (  0.000000  0.839758  0.000000 )
               b(3) = (  0.000000  0.000000  0.839758 )

     PseudoPot. # 1 for Dy read from file:
     /home/cwx6513/pp.La/Dy.UPF
     MD5 check sum: 9597327bec62616a94a14d07f3fd9936
     Pseudo is Norm-conserving, Zval = 20.0
     Generated in analytical, separable form
     Using radial grid of 1265 points,  6 beta functions with:
                l(1) =   0
                l(2) =   0
                l(3) =   1
                l(4) =   1
                l(5) =   2
                l(6) =   3

     PseudoPot. # 2 for Tb read from file:
     /home/cwx6513/pp.La/Tb.UPF
     MD5 check sum: 3d6088a3f0cf7fd2e110c43f7f8e95c2
     Pseudo is Norm-conserving, Zval = 19.0
     Generated in analytical, separable form
     Using radial grid of 1263 points,  6 beta functions with:
                l(1) =   0
                l(2) =   0
                l(3) =   1
                l(4) =   1
                l(5) =   2
                l(6) =   3

     atomic species   valence    mass     pseudopotential
        Cr            20.00    51.99610     Dy( 1.00)
        Si            19.00    28.08550     Tb( 1.00)

     48 Sym. Ops., with inversion, found (24 have fractional translation)

   Cartesian axes

     site n.     atom                  positions (alat units)
         1           Cr  tau(   1) = (   0.0000000   0.5954094   0.2977047  )
         2           Cr  tau(   2) = (   0.0000000   0.5954094   0.8931140  )
         3           Cr  tau(   3) = (   0.5954094   0.8931140   0.0000000  )
         4           Cr  tau(   4) = (   0.5954094   0.2977047   0.0000000  )
         5           Cr  tau(   5) = (   0.8931140   0.0000000   0.5954094  )
         6           Cr  tau(   6) = (   0.2977047   0.0000000   0.5954094  )
         7           Si  tau(   7) = (   0.5954094   0.5954094   0.5954094  )
         8           Si  tau(   8) = (   0.0000000   0.0000000   0.0000000  )

     number of k points=    48  gaussian smearing, width (Ry)=  0.1000
                       cart. coord. in units 2pi/alat
        k(    1) = (   0.0000000   0.0000000   0.0000000), wk =   0.0095238
        k(    2) = (   0.0000000   0.0000000   0.1199655), wk =   0.0190476
        k(    3) = (   0.0000000   0.0000000   0.2399310), wk =   0.0190476
        k(    4) = (   0.0000000   0.0000000   0.3598964), wk =   0.0190476
        k(    5) = (   0.0000000   0.1399597   0.0000000), wk =   0.0190476
        k(    6) = (   0.0000000   0.1399597   0.1199655), wk =   0.0380952
        k(    7) = (   0.0000000   0.1399597   0.2399310), wk =   0.0380952
        k(    8) = (   0.0000000   0.1399597   0.3598964), wk =   0.0380952
        k(    9) = (   0.0000000   0.2799195   0.0000000), wk =   0.0190476
        k(   10) = (   0.0000000   0.2799195   0.1199655), wk =   0.0380952
        k(   11) = (   0.0000000   0.2799195   0.2399310), wk =   0.0380952
        k(   12) = (   0.0000000   0.2799195   0.3598964), wk =   0.0380952
        k(   13) = (   0.0000000  -0.4198792   0.0000000), wk =   0.0095238
        k(   14) = (   0.0000000  -0.4198792   0.1199655), wk =   0.0190476
        k(   15) = (   0.0000000  -0.4198792   0.2399310), wk =   0.0190476
        k(   16) = (   0.0000000  -0.4198792   0.3598964), wk =   0.0190476
        k(   17) = (   0.1679517   0.0000000   0.0000000), wk =   0.0190476
        k(   18) = (   0.1679517   0.0000000   0.1199655), wk =   0.0380952
        k(   19) = (   0.1679517   0.0000000   0.2399310), wk =   0.0380952
        k(   20) = (   0.1679517   0.0000000   0.3598964), wk =   0.0380952
        k(   21) = (   0.1679517   0.1399597   0.0000000), wk =   0.0380952
        k(   22) = (   0.1679517   0.1399597   0.1199655), wk =   0.0761905
        k(   23) = (   0.1679517   0.1399597   0.2399310), wk =   0.0761905
        k(   24) = (   0.1679517   0.1399597   0.3598964), wk =   0.0761905
        k(   25) = (   0.1679517   0.2799195   0.0000000), wk =   0.0380952
        k(   26) = (   0.1679517   0.2799195   0.1199655), wk =   0.0761905
        k(   27) = (   0.1679517   0.2799195   0.2399310), wk =   0.0761905
        k(   28) = (   0.1679517   0.2799195   0.3598964), wk =   0.0761905
        k(   29) = (   0.1679517  -0.4198792   0.0000000), wk =   0.0190476
        k(   30) = (   0.1679517  -0.4198792   0.1199655), wk =   0.0380952
        k(   31) = (   0.1679517  -0.4198792   0.2399310), wk =   0.0380952
        k(   32) = (   0.1679517  -0.4198792   0.3598964), wk =   0.0380952
        k(   33) = (   0.3359034   0.0000000   0.0000000), wk =   0.0190476
        k(   34) = (   0.3359034   0.0000000   0.1199655), wk =   0.0380952
        k(   35) = (   0.3359034   0.0000000   0.2399310), wk =   0.0380952
        k(   36) = (   0.3359034   0.0000000   0.3598964), wk =   0.0380952
        k(   37) = (   0.3359034   0.1399597   0.0000000), wk =   0.0380952
        k(   38) = (   0.3359034   0.1399597   0.1199655), wk =   0.0761905
        k(   39) = (   0.3359034   0.1399597   0.2399310), wk =   0.0761905
        k(   40) = (   0.3359034   0.1399597   0.3598964), wk =   0.0761905
        k(   41) = (   0.3359034   0.2799195   0.0000000), wk =   0.0380952
        k(   42) = (   0.3359034   0.2799195   0.1199655), wk =   0.0761905
        k(   43) = (   0.3359034   0.2799195   0.2399310), wk =   0.0761905
        k(   44) = (   0.3359034   0.2799195   0.3598964), wk =   0.0761905
        k(   45) = (   0.3359034  -0.4198792   0.0000000), wk =   0.0190476
        k(   46) = (   0.3359034  -0.4198792   0.1199655), wk =   0.0380952
        k(   47) = (   0.3359034  -0.4198792   0.2399310), wk =   0.0380952
        k(   48) = (   0.3359034  -0.4198792   0.3598964), wk =   0.0380952

     Largest allocated arrays     est. size (Mb)     dimensions
     Largest temporary arrays     est. size (Mb)     dimensions

     Initial potential from superposition of free atoms

     Starting from uniform charge
     Starting wfc are    0 randomized atomic wfcs

     Writing output data file Prototype-La-cP8-Cr3Si.save

     Self-consistent Calculation

[...]

     iteration #  8     ecut=    40.00 Ry     beta=0.70
     CG style diagonalization
     c_bands:  1 eigenvalues not converged
     c_bands:  1 eigenvalues not converged
     c_bands:  1 eigenvalues not converged
     c_bands:  1 eigenvalues not converged
     c_bands:  1 eigenvalues not converged
     c_bands:  1 eigenvalues not converged
     c_bands:  1 eigenvalues not converged
     c_bands:  1 eigenvalues not converged
     c_bands:  1 eigenvalues not converged
     ethr =  2.29E-07,  avg # of iterations =  4.4

[...]

     total energy              =   -2021.92655484 Ry
     Harris-Foulkes estimate   =   -2021.92655666 Ry
     estimated scf accuracy    <       0.00000294 Ry

     iteration # 11     ecut=    40.00 Ry     beta=0.70
     CG style diagonalization
     ethr =  1.41E-09,  avg # of iterations =  3.5

     End of self-consistent calculation

[...]

          k = 0.3359-0.4199 0.3599 (  4510 PWs)   bands (ev):

   -56.6400 -56.6374 -56.6285 -56.6281 -56.6187 -56.6165 -49.2247 -49.2247
   -23.8236 -23.7884 -23.7010 -23.7006 -23.6115 -23.5759 -23.5592 -23.5572
   -23.5181 -23.5117 -23.5072 -23.5034 -23.4991 -23.4899 -23.4807 -23.4787
   -23.4706 -23.4706 -17.6080 -17.6079 -17.6062 -17.6062 -17.6026 -17.6024
    16.0244  16.0477  16.0897  16.1480  16.2409  16.2497  16.2694  16.3856
    16.5161  16.5250  16.5639  16.5831  16.6201  16.6471  16.6725  16.7171
    17.1043  17.1114  17.3361  17.3612  17.4977  17.5179  17.9080  18.0394
    18.1468  18.1970  18.3548  18.3784  18.5164  18.5423  20.1997  20.2077
    20.3076  20.3435  20.5339  20.5414  21.1987  21.2026  21.2562  21.2577
    21.7097  21.8413  22.4968  22.7313  22.8043  23.1045  23.8070  23.8824
    31.3988  31.6163  32.2125  32.3540  32.8313  33.0854  33.7212  34.0071
    34.2855  34.2965  34.6605  34.7275  34.7709  34.9015  35.3668

     the Fermi energy is    26.9339 ev

!    total energy              =   -2021.92655545 Ry
     Harris-Foulkes estimate   =   -2021.92655547 Ry
     estimated scf accuracy    <       0.00000002 Ry

     The total energy is the sum of the following terms:

     one-electron contribution =    -361.36759115 Ry
     hartree contribution      =     297.97561390 Ry
     xc contribution           =    -188.34252965 Ry
     ewald contribution        =   -1770.05659292 Ry
     smearing contrib. (-TS)   =      -0.13545564 Ry

     convergence has been achieved in  11 iterations

     Forces acting on atoms (Ry/au):

     atom    1 type  1   force =     0.00000000    0.00000000    0.00000000
     atom    2 type  1   force =     0.00000000    0.00000000    0.00000000
     atom    3 type  1   force =     0.00000000    0.00000000    0.00000000
     atom    4 type  1   force =     0.00000000    0.00000000    0.00000000
     atom    5 type  1   force =     0.00000000    0.00000000    0.00000000
     atom    6 type  1   force =     0.00000000    0.00000000    0.00000000
     atom    7 type  2   force =     0.00000000    0.00000000    0.00000000
     atom    8 type  2   force =     0.00000000    0.00000000    0.00000000

     Total force =     0.000000     Total SCF correction =     0.000000

     entering subroutine stress ...

          total   stress  (Ry/bohr**3)                   (kbar)     P=    9.51
   0.00006467   0.00000000   0.00000000          9.51      0.00      0.00
   0.00000000   0.00006467   0.00000000          0.00      9.51      0.00
   0.00000000   0.00000000   0.00006467          0.00      0.00      9.51

     Writing output data file Prototype-La-cP8-Cr3Si.save

     General routines

     Parallel routines

   This run was terminated on:   2:46:37  23Mar2018

   JOB DONE.