     Program PWSCF v.5.0.2 starts on 22Mar2018 at 16:18:51

     Current dimensions of program PWSCF are:
     Max number of different atomic species (ntypx) = 10
     Max number of k-points (npk) =  40000
     Max angular momentum in pseudopotentials (lmaxx) =  3
     Waiting for input...
     Reading input from standard input

     Subspace diagonalization in iterative solution of the eigenvalue problem:
     a serial algorithm will be used

     bravais-lattice index     =            0
     lattice parameter (alat)  =       9.9235  a.u.
     unit-cell volume          =    1361.0366 (a.u.)^3
     number of atoms/cell      =           12
     number of atomic types    =            2
     number of electrons       =       196.00
     number of Kohn-Sham states=          118
     kinetic-energy cutoff     =      40.0000  Ry
     charge density cutoff     =     160.0000  Ry
     convergence threshold     =      1.0E-04
     mixing beta               =       0.7000
     number of iterations used =            8  plain     mixing
     Exchange-correlation      = SLA-PZ-NOGX-NOGC ( 1 1 0 0 0)
     EXX-fraction              =        0.00
     nstep                     =           50

     celldm(1)=   9.923489  celldm(2)=   0.000000  celldm(3)=   0.000000
     celldm(4)=   0.000000  celldm(5)=   0.000000  celldm(6)=   0.000000

     crystal axes: (cart. coord. in units of alat)
               a(1) = (   1.000000   0.000000   0.000000 )
               a(2) = (  -0.500000   0.866025   0.000000 )
               a(3) = (   0.000000   0.000000   1.608222 )

     reciprocal axes: (cart. coord. in units 2 pi/alat)
               b(1) = (  1.000000  0.577350  0.000000 )
               b(2) = (  0.000000  1.154701  0.000000 )
               b(3) = (  0.000000  0.000000  0.621805 )

     PseudoPot. # 1 for Pr read from file:
     /home/cwx6513/pp.La/Pr.UPF
     MD5 check sum: 70e2b4b153859e92c8c91247dfc63203
     Pseudo is Norm-conserving, Zval = 13.0
     Generated in analytical, separable form
     Using radial grid of 1255 points,  6 beta functions with:
                l(1) =   0
                l(2) =   0
                l(3) =   1
                l(4) =   1
                l(5) =   2
                l(6) =   3

     PseudoPot. # 2 for Gd read from file:
     /home/cwx6513/pp.La/Gd.UPF
     MD5 check sum: 09a8be538722f05520810cb6aac0efd2
     Pseudo is Norm-conserving, Zval = 18.0
     Generated in analytical, separable form
     Using radial grid of 1263 points,  6 beta functions with:
                l(1) =   0
                l(2) =   0
                l(3) =   1
                l(4) =   1
                l(5) =   2
                l(6) =   3

     atomic species   valence    mass     pseudopotential
        Mg            13.00    24.30500     Pr( 1.00)
        Zn            18.00    65.39000     Gd( 1.00)

     24 Sym. Ops., with inversion, found (12 have fractional translation)

   Cartesian axes

     site n.     atom                  positions (alat units)
         1           Mg  tau(   1) = (  -0.0000005   0.5773506   0.1003820  )
         2           Mg  tau(   2) = (   0.5000005   0.2886748   0.9044931  )
         3           Mg  tau(   3) = (   0.5000005   0.2886748   1.5078402  )
         4           Mg  tau(   4) = (  -0.0000005   0.5773506   0.7037291  )
         5           Zn  tau(   5) = (   0.0000000   0.0000000   0.0000000  )
         6           Zn  tau(   6) = (   0.0000000   0.0000000   0.8041111  )
         7           Zn  tau(   7) = (   0.0000000   0.2950739   1.2061667  )
         8           Zn  tau(   8) = (   0.7444585   0.1475370   0.4020556  )
         9           Zn  tau(   9) = (   0.2555415   0.1475370   0.4020556  )
        10           Zn  tau(  10) = (   0.2444585   0.7184884   1.2061667  )
        11           Zn  tau(  11) = (  -0.2444585   0.7184884   1.2061667  )
        12           Zn  tau(  12) = (   0.5000000   0.5709515   0.4020556  )

     number of k points=    12  gaussian smearing, width (Ry)=  0.1000
                       cart. coord. in units 2pi/alat
        k(    1) = (   0.0000000   0.0000000   0.0000000), wk =   0.0833333
        k(    2) = (   0.0000000   0.0000000   0.1554512), wk =   0.1666667
        k(    3) = (   0.0000000   0.0000000  -0.3109023), wk =   0.0833333
        k(    4) = (   0.0000000   0.3849002   0.0000000), wk =   0.1666667
        k(    5) = (   0.0000000   0.3849002   0.1554512), wk =   0.3333333
        k(    6) = (   0.0000000   0.3849002  -0.3109023), wk =   0.1666667
        k(    7) = (  -0.5000000  -0.2886751   0.0000000), wk =   0.0833333
        k(    8) = (  -0.5000000  -0.2886751   0.1554512), wk =   0.1666667
        k(    9) = (  -0.5000000  -0.2886751  -0.3109023), wk =   0.0833333
        k(   10) = (  -0.5000000   0.0962250   0.0000000), wk =   0.1666667
        k(   11) = (  -0.5000000   0.0962250   0.1554512), wk =   0.3333333
        k(   12) = (  -0.5000000   0.0962250  -0.3109023), wk =   0.1666667

     Largest allocated arrays     est. size (Mb)     dimensions
     Largest temporary arrays     est. size (Mb)     dimensions

     Initial potential from superposition of free atoms
     Check: negative starting charge=   -0.002087

     starting charge   51.96217, renormalised to  196.00000

     negative rho (up, down):  0.787E-02 0.000E+00
     Starting wfc are   80 randomized atomic wfcs

     Self-consistent Calculation

     iteration #  1     ecut=    40.00 Ry     beta=0.70
     CG style diagonalization
     c_bands:  1 eigenvalues not converged
     c_bands:  1 eigenvalues not converged
     c_bands:  1 eigenvalues not converged
     ethr =  1.00E-02,  avg # of iterations = 32.2

     negative rho (up, down):  0.234E-02 0.000E+00

     total energy              =   -1319.50457555 Ry
     Harris-Foulkes estimate   =   -5475.59638990 Ry
     estimated scf accuracy    <    4851.06340992 Ry

[...]

     iteration #  5     ecut=    40.00 Ry     beta=0.70
     CG style diagonalization
     ethr =  1.00E-02,  avg # of iterations =  5.1

[...]

     End of self-consistent calculation

          k = 0.0000 0.0000 0.0000 (  5769 PWs)   bands (ev):

   -40.6501 -40.5807 -40.2426 -40.2426 -40.2407 -40.2407 -40.1750 -40.0931
   -14.1226 -14.0832 -13.9235 -13.8087 -13.4449 -13.1269 -12.5399 -12.1075
   -12.1075 -12.0343 -12.0343 -11.8342 -11.8342 -11.5441 -11.3039 -11.3039
   -11.2361 -11.1794 -11.1794 -10.7380 -10.7309 -10.6499 -10.6499 -10.6257
   -10.6256 -10.6249 -10.5645 -10.5645   5.5041   5.5110   5.5371   5.5372
     5.5485   5.5485   6.2937   6.3277   6.3277   6.3288   6.3834   6.3834
    17.7438  18.5184  18.9109  19.7978  19.7978  20.2897  20.2897  20.6565
    20.7985  20.7985  20.9838  21.1755  21.1755  21.4065  21.8813  21.8813
    22.0183  23.1402  23.1402  23.2567  23.2833  23.2834  24.3427  24.3620
    24.3620  24.5528  25.5114  25.5114  25.5497  25.5497  25.6218  25.6218
    25.6498  25.9364  26.2277  26.2957  26.2958  26.7196  26.7197  26.8153
    26.8153  27.2923  27.4541  27.4541  27.6868  27.6868  28.7231  29.0225
    29.0225  29.2668  29.4028  29.4028  30.2356  30.2356  30.3908  30.3989
    30.7928  30.7929  32.5410  32.5448  32.6451  32.7780  32.7780  32.9926
    32.9927  35.9510  35.9512  36.0609  36.5782  36.7659

[...]

          k =-0.5000-0.2887 0.0000 (  5800 PWs)   bands (ev):

[...]

     the Fermi energy is    29.2273 ev

!    total energy              =   -1981.34390472 Ry
     Harris-Foulkes estimate   =   -1981.34392343 Ry
     estimated scf accuracy    <       0.00002051 Ry

     The total energy is the sum of the following terms:

     one-electron contribution =    -136.25645477 Ry
     hartree contribution      =     251.77922015 Ry
     xc contribution           =    -210.62032915 Ry
     ewald contribution        =   -1885.67505394 Ry
     smearing contrib. (-TS)   =      -0.57128700 Ry

     convergence has been achieved in  12 iterations

     Forces acting on atoms (Ry/au):

     atom    1 type  1   force =     0.00000000    0.00000000    0.00446379
     atom    2 type  1   force =     0.00000000    0.00000000    0.00446379
     atom    3 type  1   force =     0.00000000    0.00000000   -0.00446379
     atom    4 type  1   force =     0.00000000    0.00000000   -0.00446379
     atom    5 type  2   force =     0.00000000    0.00000000    0.00000000
     atom    6 type  2   force =     0.00000000    0.00000000    0.00000000
     atom    7 type  2   force =     0.00000000    0.03175234    0.00000000
     atom    8 type  2   force =    -0.02749833    0.01587617    0.00000000
     atom    9 type  2   force =     0.02749833    0.01587617    0.00000000
     atom   10 type  2   force =    -0.02749833   -0.01587617    0.00000000
     atom   11 type  2   force =     0.02749833   -0.01587617    0.00000000
     atom   12 type  2   force =     0.00000000   -0.03175234    0.00000000

     Total force =     0.078288     Total SCF correction =     0.000360

     entering subroutine stress ...

          total   stress  (Ry/bohr**3)                   (kbar)     P=  847.64
   0.00565361   0.00000000   0.00000000        831.67      0.00      0.00
   0.00000000   0.00565361   0.00000000          0.00    831.67      0.00
   0.00000000   0.00000000   0.00597926          0.00      0.00    879.58

     BFGS Geometry Optimization

     number of scf cycles    =   1
     number of bfgs steps    =   0

     enthalpy new            =   -1981.3439047226 Ry

     new trust radius        =       0.5000000000 bohr
     new conv_thr            =       0.0001000000 Ry

     new unit-cell volume =   1645.46756 a.u.^3 (   243.83313 Ang^3 )

CELL_PARAMETERS (alat=  9.92348860)
   1.064074226   0.000000000   0.000000000
  -0.532037113   0.921515311   0.000000000
   0.000000000   0.000000000   1.717203317

ATOMIC_POSITIONS (crystal)
Mg       0.333333000   0.666667000   0.062544797
Mg       0.666667000   0.333333000   0.562544797
Mg       0.666667000   0.333333000   0.937455203
Mg       0.333333000   0.666667000   0.437455203
Zn       0.000000000   0.000000000   0.000000000
Zn       0.000000000   0.000000000   0.500000000
Zn       0.171198468   0.342396936   0.750000000
Zn       0.828801532   0.171198468   0.250000000
Zn       0.342396936   0.171198468   0.250000000
Zn       0.657603064   0.828801532   0.750000000
Zn       0.171198468   0.828801532   0.750000000
Zn       0.828801532   0.657603064   0.250000000

     Writing output data file Prototype-La-hP12-MgZn2.save
     Check: negative starting charge=   -0.002087
     NEW-OLD atomic charge density approx. for the potential
     NEW k-points:
        k(    1) = (   0.0000000   0.0000000   0.0000000), wk =   0.0833333
        k(    2) = (   0.0000000   0.0000000   0.1455856), wk =   0.1666667
        k(    3) = (   0.0000000   0.0000000  -0.2911711), wk =   0.0833333
        k(    4) = (   0.0000000   0.3617231   0.0000000), wk =   0.1666667
        k(    5) = (   0.0000000   0.3617231   0.1455856), wk =   0.3333333
        k(    6) = (   0.0000000   0.3617231  -0.2911711), wk =   0.1666667
        k(    7) = (  -0.4698920  -0.2712923   0.0000000), wk =   0.0833333
        k(    8) = (  -0.4698920  -0.2712923   0.1455856), wk =   0.1666667
        k(    9) = (  -0.4698920  -0.2712923  -0.2911711), wk =   0.0833333
        k(   10) = (  -0.4698920   0.0904308   0.0000000), wk =   0.1666667
        k(   11) = (  -0.4698920   0.0904308   0.1455856), wk =   0.3333333
        k(   12) = (  -0.4698920   0.0904308  -0.2911711), wk =   0.1666667
     Check: negative starting charge=   -0.006878

     negative rho (up, down):  0.455E-02 0.000E+00
     extrapolated charge  204.98204, renormalised to  196.00000

[...]

     enthalpy old            =   -1981.3439047226 Ry
     enthalpy new            =   -1981.8847161174 Ry

     CASE: enthalpy_new < enthalpy_old

     small trust_radius: resetting bfgs history

     new trust radius        =       0.2196006454 bohr
     new conv_thr            =       0.0000236466 Ry

[...]

     Writing output data file Prototype-La-hP12-MgZn2.save
     Check: negative starting charge=   -0.006878
     NEW-OLD atomic charge density approx. for the potential
     NEW k-points:
        k(    1) = (   0.0000000   0.0000000   0.0000000), wk =   0.0833333
        k(    2) = (   0.0000000   0.0000000   0.1495770), wk =   0.1666667
        k(    3) = (   0.0000000   0.0000000  -0.2991539), wk =   0.0833333
        k(    4) = (   0.0000000   0.3717866   0.0000000), wk =   0.1666667
        k(    5) = (   0.0000000   0.3717866   0.1495770), wk =   0.3333333
        k(    6) = (   0.0000000   0.3717866  -0.2991539), wk =   0.1666667
        k(    7) = (  -0.4829650  -0.2788400   0.0000000), wk =   0.0833333
        k(    8) = (  -0.4829650  -0.2788400   0.1495770), wk =   0.1666667
        k(    9) = (  -0.4829650  -0.2788400  -0.2991539), wk =   0.0833333
        k(   10) = (  -0.4829650   0.0929467   0.0000000), wk =   0.1666667
        k(   11) = (  -0.4829650   0.0929467   0.1495770), wk =   0.3333333
        k(   12) = (  -0.4829650   0.0929467  -0.2991539), wk =   0.1666667
     Check: negative starting charge=   -0.004603

     negative rho (up, down):  0.717E-01 0.000E+00
     extrapolated charge  191.56350, renormalised to  196.00000

[...]

     number of scf cycles    =   3
     number of bfgs steps    =   2

     enthalpy old            =   -1981.8847161174 Ry
     enthalpy new            =   -1981.8734782170 Ry

     CASE: enthalpy_new > enthalpy_old

     new trust radius        =       0.1006163801 bohr

     trust_radius < trust_radius_min

     resetting bfgs history

     Message from routine bfgs:
     history already reset at previous step: stopping
     new conv_thr            =       0.0000236466 Ry

     new unit-cell volume =   1512.54662 a.u.^3 (   224.13628 Ang^3 )

[...]

ATOMIC_POSITIONS (crystal)
Mg       0.333333000   0.666667000   0.062596928
Mg       0.666667000   0.333333000   0.562596928
Mg       0.666667000   0.333333000   0.937403072
Mg       0.333333000   0.666667000   0.437403072
Zn       0.000000000   0.000000000   0.000000000
Zn       0.000000000   0.000000000   0.500000000
Zn       0.169832605   0.339665210   0.750000000
Zn       0.830167395   0.169832605   0.250000000
Zn       0.339665210   0.169832605   0.250000000
Zn       0.660334790   0.830167395   0.750000000
Zn       0.169832605   0.830167395   0.750000000
Zn       0.830167395   0.660334790   0.250000000

     Writing output data file Prototype-La-hP12-MgZn2.save
     Check: negative starting charge=   -0.004603
     NEW-OLD atomic charge density approx. for the potential
     NEW k-points:
        k(    1) = (   0.0000000   0.0000000   0.0000000), wk =   0.0833333
        k(    2) = (   0.0000000   0.0000000   0.1496928), wk =   0.1666667
        k(    3) = (   0.0000000   0.0000000  -0.2993856), wk =   0.0833333
        k(    4) = (   0.0000000   0.3720704   0.0000000), wk =   0.1666667
        k(    5) = (   0.0000000   0.3720704   0.1496928), wk =   0.3333333
        k(    6) = (   0.0000000   0.3720704  -0.2993856), wk =   0.1666667
        k(    7) = (  -0.4833337  -0.2790528   0.0000000), wk =   0.0833333
        k(    8) = (  -0.4833337  -0.2790528   0.1496928), wk =   0.1666667
        k(    9) = (  -0.4833337  -0.2790528  -0.2993856), wk =   0.0833333
        k(   10) = (  -0.4833337   0.0930176   0.0000000), wk =   0.1666667
        k(   11) = (  -0.4833337   0.0930176   0.1496928), wk =   0.3333333
        k(   12) = (  -0.4833337   0.0930176  -0.2993856), wk =   0.1666667
     Check: negative starting charge=   -0.004543
     extrapolated charge  195.88034, renormalised to  196.00000

[...]

     The maximum number of steps has been reached.

     End of BFGS Geometry Optimization
Begin final coordinates
     new unit-cell volume =   1512.54662 a.u.^3 (   224.13628 Ang^3 )

CELL_PARAMETERS (alat=  9.92348860)
   1.034482025   0.000000000   0.000000000
  -0.517241012   0.895887713   0.000000000
   0.000000000   0.000000000   1.670087073

ATOMIC_POSITIONS (crystal)
Mg       0.333333000   0.666667000   0.062596928
Mg       0.666667000   0.333333000   0.562596928
Mg       0.666667000   0.333333000   0.937403072
Mg       0.333333000   0.666667000   0.437403072
Zn       0.000000000   0.000000000   0.000000000
Zn       0.000000000   0.000000000   0.500000000
Zn       0.169832605   0.339665210   0.750000000
Zn       0.830167395   0.169832605   0.250000000
Zn       0.339665210   0.169832605   0.250000000
Zn       0.660334790   0.830167395   0.750000000
Zn       0.169832605   0.830167395   0.750000000
Zn       0.830167395   0.660334790   0.250000000
End final coordinates

     A final scf calculation at the relaxed structure.
     The G-vectors are recalculated for the final unit cell
     Results may differ from those at the preceding step.

     bravais-lattice index     =            0
     lattice parameter (alat)  =       9.9235  a.u.
     unit-cell volume          =    1512.5466 (a.u.)^3
     number of atoms/cell      =           12
     number of atomic types    =            2
     number of electrons       =       196.00
     number of Kohn-Sham states=          118
     kinetic-energy cutoff     =      40.0000  Ry
     charge density cutoff     =     160.0000  Ry
     convergence threshold     =      2.4E-05
     mixing beta               =       0.7000
     number of iterations used =            8  plain     mixing
     Exchange-correlation      = SLA-PZ-NOGX-NOGC ( 1 1 0 0 0)
     EXX-fraction              =        0.00

     celldm(1)=   9.923489  celldm(2)=   0.000000  celldm(3)=   0.000000
     celldm(4)=   0.000000  celldm(5)=   0.000000  celldm(6)=   0.000000

     crystal axes: (cart. coord. in units of alat)
               a(1) = (   1.034482   0.000000   0.000000 )
               a(2) = (  -0.517241   0.895888   0.000000 )
               a(3) = (   0.000000   0.000000   1.670087 )

     reciprocal axes: (cart. coord. in units 2 pi/alat)
               b(1) = (  0.966667  0.558106  0.000000 )
               b(2) = (  0.000000  1.116211  0.000000 )
               b(3) = (  0.000000  0.000000  0.598771 )

     PseudoPot. # 1 for Pr read from file:
     /home/cwx6513/pp.La/Pr.UPF
     MD5 check sum: 70e2b4b153859e92c8c91247dfc63203
     Pseudo is Norm-conserving, Zval = 13.0
     Generated in analytical, separable form
     Using radial grid of 1255 points,  6 beta functions with:
                l(1) =   0
                l(2) =   0
                l(3) =   1
                l(4) =   1
                l(5) =   2
                l(6) =   3

     PseudoPot. # 2 for Gd read from file:
     /home/cwx6513/pp.La/Gd.UPF
     MD5 check sum: 09a8be538722f05520810cb6aac0efd2
     Pseudo is Norm-conserving, Zval = 18.0
     Generated in analytical, separable form
     Using radial grid of 1263 points,  6 beta functions with:
                l(1) =   0
                l(2) =   0
                l(3) =   1
                l(4) =   1
                l(5) =   2
                l(6) =   3

     atomic species   valence    mass     pseudopotential
        Mg            13.00    24.30500     Pr( 1.00)
        Zn            18.00    65.39000     Gd( 1.00)

     24 Sym. Ops., with inversion, found (12 have fractional translation)

   Cartesian axes

     site n.     atom                  positions (alat units)
         1           Mg  tau(   1) = (  -0.0000005   0.5972588   0.1045423  )
         2           Mg  tau(   2) = (   0.5172415   0.2986289   0.9395859  )
         3           Mg  tau(   3) = (   0.5172415   0.2986289   1.5655448  )
         4           Mg  tau(   4) = (  -0.0000005   0.5972588   0.7305012  )
         5           Zn  tau(   5) = (   0.0000000   0.0000000   0.0000000  )
         6           Zn  tau(   6) = (   0.0000000   0.0000000   0.8350435  )
         7           Zn  tau(   7) = (   0.0000000   0.3043019   1.2525653  )
         8           Zn  tau(   8) = (   0.7709489   0.1521509   0.4175218  )
         9           Zn  tau(   9) = (   0.2635332   0.1521509   0.4175218  )
        10           Zn  tau(  10) = (   0.2537078   0.7437368   1.2525653  )
        11           Zn  tau(  11) = (  -0.2537078   0.7437368   1.2525653  )
        12           Zn  tau(  12) = (   0.5172410   0.5915858   0.4175218  )

     number of k points=    12  gaussian smearing, width (Ry)=  0.1000
                       cart. coord. in units 2pi/alat
        k(    1) = (   0.0000000   0.0000000   0.0000000), wk =   0.0833333
        k(    2) = (   0.0000000   0.0000000   0.1496928), wk =   0.1666667
        k(    3) = (   0.0000000   0.0000000  -0.2993856), wk =   0.0833333
        k(    4) = (   0.0000000   0.3720704   0.0000000), wk =   0.1666667
        k(    5) = (   0.0000000   0.3720704   0.1496928), wk =   0.3333333
        k(    6) = (   0.0000000   0.3720704  -0.2993856), wk =   0.1666667
        k(    7) = (  -0.4833337  -0.2790528   0.0000000), wk =   0.0833333
        k(    8) = (  -0.4833337  -0.2790528   0.1496928), wk =   0.1666667
        k(    9) = (  -0.4833337  -0.2790528  -0.2993856), wk =   0.0833333
        k(   10) = (  -0.4833337   0.0930176   0.0000000), wk =   0.1666667
        k(   11) = (  -0.4833337   0.0930176   0.1496928), wk =   0.3333333
        k(   12) = (  -0.4833337   0.0930176  -0.2993856), wk =   0.1666667

     Largest allocated arrays     est. size (Mb)     dimensions
     Largest temporary arrays     est. size (Mb)     dimensions

     Initial potential from superposition of free atoms
     Check: negative starting charge=   -0.001152

     starting charge   51.96217, renormalised to  196.00000

     negative rho (up, down):  0.434E-02 0.000E+00
     Starting wfc are   80 randomized atomic wfcs

     Writing output data file Prototype-La-hP12-MgZn2.save

     Self-consistent Calculation

[...]

     negative rho (up, down):  0.973E-04 0.000E+00

[...]

     iteration # 13     ecut=    40.00 Ry     beta=0.70
     CG style diagonalization
     c_bands:  1 eigenvalues not converged
     ethr =  4.23E-08,  avg # of iterations =  3.1

     total energy              =   -1982.26935115 Ry
     Harris-Foulkes estimate   =   -1982.26937185 Ry
     estimated scf accuracy    <       0.00006386 Ry

     iteration # 14     ecut=    40.00 Ry     beta=0.70
     CG style diagonalization
     ethr =  3.26E-08,  avg # of iterations =  3.3

     End of self-consistent calculation

[...]

          k = 0.0000 0.3721-0.2994 (  6482 PWs)   bands (ev):

[...]

          k =-0.4833 0.0930-0.2994 (  6452 PWs)   bands (ev):

   -43.3838 -43.3837 -43.3050 -43.3049 -43.2148 -43.2148 -43.0986 -43.0986
   -17.5499 -17.5499 -17.4652 -17.4652 -15.3008 -15.3008 -14.9089 -14.9089
   -14.6099 -14.6099 -14.5369 -14.5369 -14.4567 -14.4567 -14.4038 -14.4038
   -14.2637 -14.2637 -14.0801 -14.0801 -13.9210 -13.9210 -13.8413 -13.8413
   -13.7546 -13.7545 -13.7243 -13.7243   2.1911   2.1911   2.2128   2.2129
     2.4031   2.4031   2.6809   2.6809   2.8929   2.8930   2.9052   2.9053
    17.2018  17.2018  18.0217  18.0217  18.3915  18.3915  18.5958  18.5958
    18.8030  18.8031  18.9496  18.9496  19.3857  19.3857  19.4946  19.4946
    19.7850  19.7850  20.1066  20.1066  20.3454  20.3454  20.7749  20.7749
    20.9562  20.9562  21.1290  21.1290  21.5575  21.5575  22.0790  22.0790
    22.2159  22.2159  22.3569  22.3569  22.7080  22.7080  23.1554  23.1554
    23.5349  23.5349  24.4970  24.4970  24.8641  24.8641  25.1612  25.1613
    25.5006  25.5006  25.9356  25.9356  26.2452  26.2452  26.8663  26.8664
    27.3910  27.3910  28.0485  28.0485  28.3912  28.3912  28.5843  28.5843
    29.4617  29.4617  30.3957  30.3957  32.2195  32.2196

     the Fermi energy is    25.7880 ev

!    total energy              =   -1982.26936215 Ry
     Harris-Foulkes estimate   =   -1982.26936265 Ry
     estimated scf accuracy    <       0.00000055 Ry

     The total energy is the sum of the following terms:

     one-electron contribution =    -228.25124074 Ry
     hartree contribution      =     275.20712278 Ry
     xc contribution           =    -208.51557145 Ry
     ewald contribution        =   -1820.07062536 Ry
     smearing contrib. (-TS)   =      -0.63904737 Ry

     convergence has been achieved in  14 iterations

     Forces acting on atoms (Ry/au):

     atom    1 type  1   force =     0.00000000    0.00000000    0.00018793
     atom    2 type  1   force =     0.00000000    0.00000000    0.00018793
     atom    3 type  1   force =     0.00000000    0.00000000   -0.00018793
     atom    4 type  1   force =     0.00000000    0.00000000   -0.00018793
     atom    5 type  2   force =     0.00000000    0.00000000    0.00000000
     atom    6 type  2   force =     0.00000000    0.00000000    0.00000000
     atom    7 type  2   force =     0.00000000    0.03008079    0.00000000
     atom    8 type  2   force =    -0.02605073    0.01504039    0.00000000
     atom    9 type  2   force =     0.02605073    0.01504039    0.00000000
     atom   10 type  2   force =    -0.02605073   -0.01504039    0.00000000
     atom   11 type  2   force =     0.02605073   -0.01504039    0.00000000
     atom   12 type  2   force =     0.00000000   -0.03008079    0.00000000

     Total force =     0.073684     Total SCF correction =     0.000112

     entering subroutine stress ...

          total   stress  (Ry/bohr**3)                   (kbar)     P=  328.64
   0.00217269   0.00000000   0.00000000        319.61      0.00      0.00
   0.00000000   0.00217269   0.00000000          0.00    319.61      0.00
   0.00000000   0.00000000   0.00235680          0.00      0.00    346.70

     Writing output data file Prototype-La-hP12-MgZn2.save

     General routines

     Parallel routines

   This run was terminated on:  16:53: 1  22Mar2018

   JOB DONE.