     Program PWSCF v.5.0.2 starts on 22Mar2018 at 16:18:54

     Current dimensions of program PWSCF are:
     Max number of different atomic species (ntypx) = 10
     Max number of k-points (npk) =  40000
     Max angular momentum in pseudopotentials (lmaxx) =  3
     Waiting for input...
     Reading input from standard input

     Subspace diagonalization in iterative solution of the eigenvalue problem:
     a serial algorithm will be used

     bravais-lattice index     =            0
     lattice parameter (alat)  =       7.0151  a.u.
     unit-cell volume          =     862.2778 (a.u.)^3
     number of atoms/cell      =           12
     number of atomic types    =            2
     number of electrons       =       176.00
     number of Kohn-Sham states=          106
     kinetic-energy cutoff     =      40.0000  Ry
     charge density cutoff     =     160.0000  Ry
     convergence threshold     =      1.0E-04
     mixing beta               =       0.7000
     number of iterations used =            8  plain     mixing
     Exchange-correlation      = SLA-PZ-NOGX-NOGC ( 1 1 0 0 0)
     EXX-fraction              =        0.00
     nstep                     =           50

     celldm(1)=   7.015105  celldm(2)=   0.000000  celldm(3)=   0.000000
     celldm(4)=   0.000000  celldm(5)=   0.000000  celldm(6)=   0.000000

     crystal axes: (cart. coord. in units of alat)
               a(1) = (   1.000000   0.000000   0.000000 )
               a(2) = (   0.000000   1.315963   0.000000 )
               a(3) = (   0.000000   0.000000   1.898020 )

     reciprocal axes: (cart. coord. in units 2 pi/alat)
               b(1) = (  1.000000  0.000000  0.000000 )
               b(2) = (  0.000000  0.759900  0.000000 )
               b(3) = (  0.000000  0.000000  0.526865 )

     PseudoPot. # 1 for Pr read from file:
     /home/cwx6513/pp.La/Pr.UPF
     MD5 check sum: 70e2b4b153859e92c8c91247dfc63203
     Pseudo is Norm-conserving, Zval = 13.0
     Generated in analytical, separable form
     Using radial grid of 1255 points,  6 beta functions with:
                l(1) =   0
                l(2) =   0
                l(3) =   1
                l(4) =   1
                l(5) =   2
                l(6) =   3

     PseudoPot. # 2 for Gd read from file:
     /home/cwx6513/pp.La/Gd.UPF
     MD5 check sum: 09a8be538722f05520810cb6aac0efd2
     Pseudo is Norm-conserving, Zval = 18.0
     Generated in analytical, separable form
     Using radial grid of 1263 points,  6 beta functions with:
                l(1) =   0
                l(2) =   0
                l(3) =   1
                l(4) =   1
                l(5) =   2
                l(6) =   3

     atomic species   valence    mass     pseudopotential
        Co            13.00    58.93320     Pr( 1.00)
        Si            18.00    28.08550     Gd( 1.00)

      8 Sym. Ops., with inversion, found ( 6 have fractional translation)

   Cartesian axes

     site n.     atom                  positions (alat units)
         1           Co  tau(   1) = (   0.7500000   1.0875135   0.8270358  )
         2           Co  tau(   2) = (   0.2500000   0.2284499   1.0709846  )
         3           Co  tau(   3) = (   0.7500000   0.4295318   0.1219744  )
         4           Co  tau(   4) = (   0.2500000   0.8864316   1.7760460  )
         5           Co  tau(   5) = (   0.2500000   0.7067855   0.5358966  )
         6           Co  tau(   6) = (   0.7500000   0.6091779   1.3621238  )
         7           Co  tau(   7) = (   0.2500000   0.0488038   0.4131136  )
         8           Co  tau(   8) = (   0.7500000   1.2671596   1.4849068  )
         9           Si  tau(   9) = (   0.2500000   0.2669484   1.6960710  )
        10           Si  tau(  10) = (   0.7500000   1.0490149   0.2019494  )
        11           Si  tau(  11) = (   0.2500000   0.9249301   1.1509596  )
        12           Si  tau(  12) = (   0.7500000   0.3910333   0.7470608  )

     number of k points=    12  gaussian smearing, width (Ry)=  0.1000
                       cart. coord. in units 2pi/alat
        k(    1) = (   0.0000000   0.0000000   0.0000000), wk =   0.0833333
        k(    2) = (   0.0000000   0.0000000   0.1317162), wk =   0.1666667
        k(    3) = (   0.0000000   0.0000000  -0.2634324), wk =   0.0833333
        k(    4) = (   0.0000000   0.2532999   0.0000000), wk =   0.1666667
        k(    5) = (   0.0000000   0.2532999   0.1317162), wk =   0.3333333
        k(    6) = (   0.0000000   0.2532999  -0.2634324), wk =   0.1666667
        k(    7) = (  -0.5000000   0.0000000   0.0000000), wk =   0.0833333
        k(    8) = (  -0.5000000   0.0000000   0.1317162), wk =   0.1666667
        k(    9) = (  -0.5000000   0.0000000  -0.2634324), wk =   0.0833333
        k(   10) = (  -0.5000000   0.2532999   0.0000000), wk =   0.1666667
        k(   11) = (  -0.5000000   0.2532999   0.1317162), wk =   0.3333333
        k(   12) = (  -0.5000000   0.2532999  -0.2634324), wk =   0.1666667

     Largest allocated arrays     est. size (Mb)     dimensions
     Largest temporary arrays     est. size (Mb)     dimensions

     Initial potential from superposition of free atoms

     starting charge  103.92434, renormalised to  176.00000
     Starting wfc are  160 randomized atomic wfcs

     Self-consistent Calculation

     iteration #  1     ecut=    40.00 Ry     beta=0.70
     CG style diagonalization
     ethr =  1.00E-02,  avg # of iterations = 17.5

     total energy              =    -275.45105780 Ry
     Harris-Foulkes estimate   =   -2491.39875126 Ry
     estimated scf accuracy    <    2657.99576754 Ry

     iteration #  2     ecut=    40.00 Ry     beta=0.70
     CG style diagonalization
     c_bands:  5 eigenvalues not converged
     ethr =  1.00E-02,  avg # of iterations = 19.3

[...]

     End of self-consistent calculation

          k = 0.0000 0.0000 0.0000 (  3675 PWs)   bands (ev):

   -25.9319 -25.8737 -25.8555 -25.8267  -0.7476  -0.6485  -0.2437   0.8926
     1.0557   1.2518   1.6900   1.9110   2.0251   2.0474   2.1127   2.1232
     2.1315   2.6369   2.6727   4.0945   4.2199   4.2323   4.5788   4.6885
    16.5225  17.1930  17.8102  18.2540  18.7605  19.0249  19.2080  19.7697
    20.3509  20.5759  20.7490  20.8384  21.0436  21.5733  22.1004  22.3681
    22.6146  22.6395  23.0923  23.7489  24.8132  25.0721  25.4825  26.0923
    32.1599  32.6788  33.4523  33.8193  33.8920  33.9857  34.3525  34.4694
    35.0070  35.8332  36.0589  36.3639  36.6108  37.5455  38.3920  38.5210
    38.5325  38.9658  39.6556  40.0500  40.1370  41.4463  41.4888  42.2134
    42.3485  42.4175  43.0113  43.1959  43.4719  43.8134  44.0577  44.1368
    44.9781  45.2379  45.5420  45.7982  45.9802  46.5887  46.7567  46.8473
    47.3243  47.9922  48.1543  48.4378  48.8448  49.5817  49.6876  50.2731
    50.4573  50.8736  51.4277  52.1525  52.1856  52.8320  53.1175  53.2011
    53.2547  53.7801

[...]

          k =-0.5000 0.0000 0.0000 (  3722 PWs)   bands (ev):

[...]

     the Fermi energy is    46.9176 ev

!    total energy              =   -1536.50235503 Ry
     Harris-Foulkes estimate   =   -1536.50240774 Ry
     estimated scf accuracy    <       0.00007412 Ry

     The total energy is the sum of the following terms:

     one-electron contribution =     378.30935145 Ry
     hartree contribution      =      85.89902388 Ry
     xc contribution           =    -189.99391190 Ry
     ewald contribution        =   -1810.32766095 Ry
     smearing contrib. (-TS)   =      -0.38915750 Ry

     convergence has been achieved in  10 iterations

     Forces acting on atoms (Ry/au):

     atom    1 type  1   force =     0.00000000   -0.06775593   -0.09854439
     atom    2 type  1   force =     0.00000000    0.06775593    0.09854439
     atom    3 type  1   force =     0.00000000   -0.06775593    0.09854439
     atom    4 type  1   force =     0.00000000    0.06775593   -0.09854439
     atom    5 type  1   force =     0.00000000    0.14025918   -0.25286017
     atom    6 type  1   force =     0.00000000   -0.14025918    0.25286017
     atom    7 type  1   force =     0.00000000    0.14025918    0.25286017
     atom    8 type  1   force =     0.00000000   -0.14025918   -0.25286017
     atom    9 type  2   force =     0.00000000   -0.14250168   -0.02536586
     atom   10 type  2   force =     0.00000000    0.14250168    0.02536586
     atom   11 type  2   force =     0.00000000   -0.14250168    0.02536586
     atom   12 type  2   force =     0.00000000    0.14250168   -0.02536586

     Total force =     0.689530     Total SCF correction =     0.037096

     entering subroutine stress ...

          total   stress  (Ry/bohr**3)                   (kbar)     P= 6536.45
   0.04805058   0.00000000   0.00000000       7068.48      0.00      0.00
   0.00000000   0.04143638   0.00000000          0.00   6095.50      0.00
   0.00000000   0.00000000   0.04381473          0.00      0.00   6445.37

     BFGS Geometry Optimization

     number of scf cycles    =   1
     number of bfgs steps    =   0

     enthalpy new            =   -1536.5023550250 Ry

     new trust radius        =       0.5000000000 bohr
     new conv_thr            =       0.0001000000 Ry

     new unit-cell volume =   1082.35713 a.u.^3 (   160.38878 Ang^3 )

CELL_PARAMETERS (alat=  7.01510508)
   1.085136619   0.000000000   0.000000000
   0.000000000   1.412578122   0.000000000
   0.000000000   0.000000000   2.045366533

ATOMIC_POSITIONS (crystal)
Co       0.750000000   0.825880828   0.435211465
Co       0.250000000   0.174119172   0.564788535
Co       0.750000000   0.325880828   0.064788535
Co       0.250000000   0.674119172   0.935211465
Co       0.250000000   0.538162790   0.280999068
Co       0.750000000   0.461837210   0.719000932
Co       0.250000000   0.038162790   0.219000932
Co       0.750000000   0.961837210   0.780999068
Si       0.250000000   0.201759994   0.893464982
Si       0.750000000   0.798240006   0.106535018
Si       0.250000000   0.701759994   0.606535018
Si       0.750000000   0.298240006   0.393464982

     Writing output data file Prototype-La-oP12-Co2Si.save
     NEW-OLD atomic charge density approx. for the potential
     NEW k-points:
        k(    1) = (   0.0000000   0.0000000   0.0000000), wk =   0.0833333
        k(    2) = (   0.0000000   0.0000000   0.1222275), wk =   0.1666667
        k(    3) = (   0.0000000   0.0000000  -0.2444550), wk =   0.0833333
        k(    4) = (   0.0000000   0.2359751   0.0000000), wk =   0.1666667
        k(    5) = (   0.0000000   0.2359751   0.1222275), wk =   0.3333333
        k(    6) = (   0.0000000   0.2359751  -0.2444550), wk =   0.1666667
        k(    7) = (  -0.4607715   0.0000000   0.0000000), wk =   0.0833333
        k(    8) = (  -0.4607715   0.0000000   0.1222275), wk =   0.1666667
        k(    9) = (  -0.4607715   0.0000000  -0.2444550), wk =   0.0833333
        k(   10) = (  -0.4607715   0.2359751   0.0000000), wk =   0.1666667
        k(   11) = (  -0.4607715   0.2359751   0.1222275), wk =   0.3333333
        k(   12) = (  -0.4607715   0.2359751  -0.2444550), wk =   0.1666667
     Check: negative starting charge=   -0.010778

     negative rho (up, down):  0.112E-01 0.000E+00
     extrapolated charge  197.13128, renormalised to  176.00000

[...]

     negative rho (up, down):  0.237E-02 0.000E+00

[...]

     enthalpy old            =   -1536.5023550250 Ry
     enthalpy new            =   -1542.9113755479 Ry

     CASE: enthalpy_new < enthalpy_old

     small trust_radius: resetting bfgs history

     new trust radius        =       3.0192231674 bohr
     new conv_thr            =       0.0001000000 Ry

[...]

     Writing output data file Prototype-La-oP12-Co2Si.save
     Check: negative starting charge=   -0.010778
     NEW-OLD atomic charge density approx. for the potential
     NEW k-points:
        k(    1) = (   0.0000000   0.0000000   0.0000000), wk =   0.0833333
        k(    2) = (   0.0000000   0.0000000   0.0860871), wk =   0.1666667
        k(    3) = (   0.0000000   0.0000000  -0.1721743), wk =   0.0833333
        k(    4) = (   0.0000000   0.1685563   0.0000000), wk =   0.1666667
        k(    5) = (   0.0000000   0.1685563   0.0860871), wk =   0.3333333
        k(    6) = (   0.0000000   0.1685563  -0.1721743), wk =   0.1666667
        k(    7) = (  -0.3158436   0.0000000   0.0000000), wk =   0.0833333
        k(    8) = (  -0.3158436   0.0000000   0.0860871), wk =   0.1666667
        k(    9) = (  -0.3158436   0.0000000  -0.1721743), wk =   0.0833333
        k(   10) = (  -0.3158436   0.1685563   0.0000000), wk =   0.1666667
        k(   11) = (  -0.3158436   0.1685563   0.0860871), wk =   0.3333333
        k(   12) = (  -0.3158436   0.1685563  -0.1721743), wk =   0.1666667
     Check: negative starting charge=   -0.024145

[...]

     Total force =     0.027815     Total SCF correction =     0.003798
     SCF correction compared to forces is large: reduce conv_thr to get better values

[...]

          total   stress  (Ry/bohr**3)                   (kbar)     P=-1246.74
  -0.00884706   0.00000000   0.00000000      -1301.45      0.00      0.00
   0.00000000  -0.00819331   0.00000000          0.00  -1205.28      0.00
   0.00000000   0.00000000  -0.00838515          0.00      0.00  -1233.50

     number of scf cycles    =   3
     number of bfgs steps    =   2

     enthalpy old            =   -1542.9113755479 Ry
     enthalpy new            =   -1532.8841779436 Ry

     CASE: enthalpy_new > enthalpy_old

     new trust radius        =       1.2400595599 bohr

     trust_radius < trust_radius_min

     resetting bfgs history

     Message from routine bfgs:
     history already reset at previous step: stopping
     new conv_thr            =       0.0001000000 Ry

     new unit-cell volume =   1281.49884 a.u.^3 (   189.89853 Ang^3 )

[...]

ATOMIC_POSITIONS (crystal)
Co       0.750000000   0.825379632   0.434883601
Co       0.250000000   0.174620368   0.565116399
Co       0.750000000   0.325379632   0.065116399
Co       0.250000000   0.674620368   0.934883601
Co       0.250000000   0.538828319   0.280062514
Co       0.750000000   0.461171681   0.719937486
Co       0.250000000   0.038828319   0.219937486
Co       0.750000000   0.961171681   0.780062514
Si       0.250000000   0.200912604   0.893389798
Si       0.750000000   0.799087396   0.106610202
Si       0.250000000   0.700912604   0.606610202
Si       0.750000000   0.299087396   0.393389798

     Writing output data file Prototype-La-oP12-Co2Si.save
     Check: negative starting charge=   -0.024145
     NEW-OLD atomic charge density approx. for the potential
     NEW k-points:
        k(    1) = (   0.0000000   0.0000000   0.0000000), wk =   0.0833333
        k(    2) = (   0.0000000   0.0000000   0.1157003), wk =   0.1666667
        k(    3) = (   0.0000000   0.0000000  -0.2314005), wk =   0.0833333
        k(    4) = (   0.0000000   0.2242559   0.0000000), wk =   0.1666667
        k(    5) = (   0.0000000   0.2242559   0.1157003), wk =   0.3333333
        k(    6) = (   0.0000000   0.2242559  -0.2314005), wk =   0.1666667
        k(    7) = (  -0.4326084   0.0000000   0.0000000), wk =   0.0833333
        k(    8) = (  -0.4326084   0.0000000   0.1157003), wk =   0.1666667
        k(    9) = (  -0.4326084   0.0000000  -0.2314005), wk =   0.0833333
        k(   10) = (  -0.4326084   0.2242559   0.0000000), wk =   0.1666667
        k(   11) = (  -0.4326084   0.2242559   0.1157003), wk =   0.3333333
        k(   12) = (  -0.4326084   0.2242559  -0.2314005), wk =   0.1666667
     Check: negative starting charge=   -0.023133

     negative rho (up, down):  0.644E+02 0.000E+00
     extrapolated charge   25.39668, renormalised to  176.00000

[...]

     The maximum number of steps has been reached.

     End of BFGS Geometry Optimization
Begin final coordinates
     new unit-cell volume =   1281.49884 a.u.^3 (   189.89853 Ang^3 )

CELL_PARAMETERS (alat=  7.01510508)
   1.155779760   0.000000000   0.000000000
   0.000000000   1.486397331   0.000000000
   0.000000000   0.000000000   2.160755734

ATOMIC_POSITIONS (crystal)
Co       0.750000000   0.825379632   0.434883601
Co       0.250000000   0.174620368   0.565116399
Co       0.750000000   0.325379632   0.065116399
Co       0.250000000   0.674620368   0.934883601
Co       0.250000000   0.538828319   0.280062514
Co       0.750000000   0.461171681   0.719937486
Co       0.250000000   0.038828319   0.219937486
Co       0.750000000   0.961171681   0.780062514
Si       0.250000000   0.200912604   0.893389798
Si       0.750000000   0.799087396   0.106610202
Si       0.250000000   0.700912604   0.606610202
Si       0.750000000   0.299087396   0.393389798
End final coordinates

     A final scf calculation at the relaxed structure.
     The G-vectors are recalculated for the final unit cell
     Results may differ from those at the preceding step.

     bravais-lattice index     =            0
     lattice parameter (alat)  =       7.0151  a.u.
     unit-cell volume          =    1281.4988 (a.u.)^3
     number of atoms/cell      =           12
     number of atomic types    =            2
     number of electrons       =       176.00
     number of Kohn-Sham states=          106
     kinetic-energy cutoff     =      40.0000  Ry
     charge density cutoff     =     160.0000  Ry
     convergence threshold     =      1.0E-04
     mixing beta               =       0.7000
     number of iterations used =            8  plain     mixing
     Exchange-correlation      = SLA-PZ-NOGX-NOGC ( 1 1 0 0 0)
     EXX-fraction              =        0.00

     celldm(1)=   7.015105  celldm(2)=   0.000000  celldm(3)=   0.000000
     celldm(4)=   0.000000  celldm(5)=   0.000000  celldm(6)=   0.000000

     crystal axes: (cart. coord. in units of alat)
               a(1) = (   1.155780   0.000000   0.000000 )
               a(2) = (   0.000000   1.486397   0.000000 )
               a(3) = (   0.000000   0.000000   2.160756 )

     reciprocal axes: (cart. coord. in units 2 pi/alat)
               b(1) = (  0.865217  0.000000  0.000000 )
               b(2) = (  0.000000  0.672768  0.000000 )
               b(3) = (  0.000000  0.000000  0.462801 )

     PseudoPot. # 1 for Pr read from file:
     /home/cwx6513/pp.La/Pr.UPF
     MD5 check sum: 70e2b4b153859e92c8c91247dfc63203
     Pseudo is Norm-conserving, Zval = 13.0
     Generated in analytical, separable form
     Using radial grid of 1255 points,  6 beta functions with:
                l(1) =   0
                l(2) =   0
                l(3) =   1
                l(4) =   1
                l(5) =   2
                l(6) =   3

     PseudoPot. # 2 for Gd read from file:
     /home/cwx6513/pp.La/Gd.UPF
     MD5 check sum: 09a8be538722f05520810cb6aac0efd2
     Pseudo is Norm-conserving, Zval = 18.0
     Generated in analytical, separable form
     Using radial grid of 1263 points,  6 beta functions with:
                l(1) =   0
                l(2) =   0
                l(3) =   1
                l(4) =   1
                l(5) =   2
                l(6) =   3

     atomic species   valence    mass     pseudopotential
        Co            13.00    58.93320     Pr( 1.00)
        Si            18.00    28.08550     Gd( 1.00)

      8 Sym. Ops., with inversion, found ( 6 have fractional translation)

   Cartesian axes

     site n.     atom                  positions (alat units)
         1           Co  tau(   1) = (   0.8668348   1.2268421   0.9396772  )
         2           Co  tau(   2) = (   0.2889449   0.2595552   1.2210785  )
         3           Co  tau(   3) = (   0.8668348   0.4836434   0.1407006  )
         4           Co  tau(   4) = (   0.2889449   1.0027539   2.0200551  )
         5           Co  tau(   5) = (   0.2889449   0.8009130   0.6051467  )
         6           Co  tau(   6) = (   0.8668348   0.6854844   1.5556091  )
         7           Co  tau(   7) = (   0.2889449   0.0577143   0.4752312  )
         8           Co  tau(   8) = (   0.8668348   1.4286830   1.6855245  )
         9           Si  tau(   9) = (   0.2889449   0.2986360   1.9303971  )
        10           Si  tau(  10) = (   0.8668348   1.1877614   0.2303586  )
        11           Si  tau(  11) = (   0.2889449   1.0418346   1.3107365  )
        12           Si  tau(  12) = (   0.8668348   0.4445627   0.8500193  )

     number of k points=    12  gaussian smearing, width (Ry)=  0.1000
                       cart. coord. in units 2pi/alat
        k(    1) = (   0.0000000   0.0000000   0.0000000), wk =   0.0833333
        k(    2) = (   0.0000000   0.0000000   0.1157003), wk =   0.1666667
        k(    3) = (   0.0000000   0.0000000  -0.2314005), wk =   0.0833333
        k(    4) = (   0.0000000   0.2242559   0.0000000), wk =   0.1666667
        k(    5) = (   0.0000000   0.2242559   0.1157003), wk =   0.3333333
        k(    6) = (   0.0000000   0.2242559  -0.2314005), wk =   0.1666667
        k(    7) = (  -0.4326084   0.0000000   0.0000000), wk =   0.0833333
        k(    8) = (  -0.4326084   0.0000000   0.1157003), wk =   0.1666667
        k(    9) = (  -0.4326084   0.0000000  -0.2314005), wk =   0.0833333
        k(   10) = (  -0.4326084   0.2242559   0.0000000), wk =   0.1666667
        k(   11) = (  -0.4326084   0.2242559   0.1157003), wk =   0.3333333
        k(   12) = (  -0.4326084   0.2242559  -0.2314005), wk =   0.1666667

     Largest allocated arrays     est. size (Mb)     dimensions
     Largest temporary arrays     est. size (Mb)     dimensions

     Initial potential from superposition of free atoms
     Check: negative starting charge=   -0.000974

     starting charge  103.92434, renormalised to  176.00000

     negative rho (up, down):  0.165E-02 0.000E+00
     Starting wfc are  160 randomized atomic wfcs

     Writing output data file Prototype-La-oP12-Co2Si.save

     Self-consistent Calculation

[...]

     negative rho (up, down):  0.614E-04 0.000E+00

[...]

     iteration # 10     ecut=    40.00 Ry     beta=0.70
     CG style diagonalization
     c_bands:  1 eigenvalues not converged
     ethr =  1.14E-05,  avg # of iterations =  3.9

[...]

     total energy              =   -1546.76924276 Ry
     Harris-Foulkes estimate   =   -1546.76930114 Ry
     estimated scf accuracy    <       0.00010649 Ry

     iteration # 12     ecut=    40.00 Ry     beta=0.70
     CG style diagonalization
     ethr =  6.05E-08,  avg # of iterations =  3.7

     End of self-consistent calculation

[...]

          k = 0.0000 0.2243-0.2314 (  5474 PWs)   bands (ev):

[...]

          k =-0.4326 0.2243-0.2314 (  5504 PWs)   bands (ev):

   -39.3137 -39.3137 -39.3108 -39.3108 -12.9393 -12.9393 -12.7720 -12.7720
   -12.3233 -12.3233 -12.1361 -12.1361 -10.5736 -10.5736 -10.5681 -10.5681
   -10.4640 -10.4640 -10.4155 -10.4155 -10.1965 -10.1965 -10.1841 -10.1841
     5.5955   5.5955   5.9972   5.9972   6.1904   6.1904   6.4387   6.4387
     6.5063   6.5063   7.2949   7.2949   7.7237   7.7237   8.0225   8.0225
     8.2649   8.2649   8.2910   8.2910   8.5835   8.5835   8.7218   8.7218
    22.5107  22.5107  22.8804  22.8804  23.1089  23.1089  23.4378  23.4378
    23.7203  23.7203  23.9137  23.9137  24.2038  24.2038  24.3203  24.3203
    24.9937  24.9937  25.0230  25.0230  26.5313  26.5313  27.0062  27.0062
    27.5293  27.5293  27.8607  27.8607  27.8865  27.8865  28.4573  28.4573
    28.5302  28.5302  29.4807  29.4807  29.6549  29.6549  30.4114  30.4114
    30.5449  30.5449  31.2732  31.2732  31.5049  31.5049  32.2117  32.2117
    32.3891  32.3891  32.8962  32.8962  33.6648  33.6648  34.7922  34.7924
    35.2059  35.2061

     the Fermi energy is    30.7417 ev

!    total energy              =   -1546.76927067 Ry
     Harris-Foulkes estimate   =   -1546.76927727 Ry
     estimated scf accuracy    <       0.00000843 Ry

     The total energy is the sum of the following terms:

     one-electron contribution =      82.44519697 Ry
     hartree contribution      =     137.35369607 Ry
     xc contribution           =    -178.86593289 Ry
     ewald contribution        =   -1587.13215178 Ry
     smearing contrib. (-TS)   =      -0.57007904 Ry

     convergence has been achieved in  12 iterations

     Forces acting on atoms (Ry/au):

     atom    1 type  1   force =     0.00000000   -0.03406976   -0.02145733
     atom    2 type  1   force =     0.00000000    0.03406976    0.02145733
     atom    3 type  1   force =     0.00000000   -0.03406976    0.02145733
     atom    4 type  1   force =     0.00000000    0.03406976   -0.02145733
     atom    5 type  1   force =     0.00000000    0.03610149   -0.08377956
     atom    6 type  1   force =     0.00000000   -0.03610149    0.08377956
     atom    7 type  1   force =     0.00000000    0.03610149    0.08377956
     atom    8 type  1   force =     0.00000000   -0.03610149   -0.08377956
     atom    9 type  2   force =     0.00000000   -0.05798337    0.00358877
     atom   10 type  2   force =     0.00000000    0.05798337   -0.00358877
     atom   11 type  2   force =     0.00000000   -0.05798337   -0.00358877
     atom   12 type  2   force =     0.00000000    0.05798337    0.00358877

     Total force =     0.230811     Total SCF correction =     0.001591

     entering subroutine stress ...

          total   stress  (Ry/bohr**3)                   (kbar)     P= 1297.26
   0.00950249   0.00000000   0.00000000       1397.86      0.00      0.00
   0.00000000   0.00832744   0.00000000          0.00   1225.01      0.00
   0.00000000   0.00000000   0.00862576          0.00      0.00   1268.89

     Writing output data file Prototype-La-oP12-Co2Si.save

     General routines

     Parallel routines

   This run was terminated on:  16:36:51  22Mar2018

   JOB DONE.