     Program PWSCF v.5.0.2 starts on 22Mar2018 at 17:38:19

     Current dimensions of program PWSCF are:
     Max number of different atomic species (ntypx) = 10
     Max number of k-points (npk) =  40000
     Max angular momentum in pseudopotentials (lmaxx) =  3
     Waiting for input...
     Reading input from standard input

     Subspace diagonalization in iterative solution of the eigenvalue problem:
     a serial algorithm will be used

     bravais-lattice index     =            0
     lattice parameter (alat)  =       7.0151  a.u.
     unit-cell volume          =     862.2778 (a.u.)^3
     number of atoms/cell      =           12
     number of atomic types    =            2
     number of electrons       =       204.00
     number of Kohn-Sham states=          122
     kinetic-energy cutoff     =      40.0000  Ry
     charge density cutoff     =     160.0000  Ry
     convergence threshold     =      1.0E-04
     mixing beta               =       0.7000
     number of iterations used =            8  plain     mixing
     Exchange-correlation      = SLA-PZ-NOGX-NOGC ( 1 1 0 0 0)
     EXX-fraction              =        0.00
     nstep                     =           50

     celldm(1)=   7.015105  celldm(2)=   0.000000  celldm(3)=   0.000000
     celldm(4)=   0.000000  celldm(5)=   0.000000  celldm(6)=   0.000000

     crystal axes: (cart. coord. in units of alat)
               a(1) = (   1.000000   0.000000   0.000000 )
               a(2) = (   0.000000   1.315963   0.000000 )
               a(3) = (   0.000000   0.000000   1.898020 )

     reciprocal axes: (cart. coord. in units 2 pi/alat)
               b(1) = (  1.000000  0.000000  0.000000 )
               b(2) = (  0.000000  0.759900  0.000000 )
               b(3) = (  0.000000  0.000000  0.526865 )

     PseudoPot. # 1 for Tb read from file:
     /home/cwx6513/pp.La/Tb.UPF
     MD5 check sum: 3d6088a3f0cf7fd2e110c43f7f8e95c2
     Pseudo is Norm-conserving, Zval = 19.0
     Generated in analytical, separable form
     Using radial grid of 1263 points,  6 beta functions with:
                l(1) =   0
                l(2) =   0
                l(3) =   1
                l(4) =   1
                l(5) =   2
                l(6) =   3

     PseudoPot. # 2 for Pr read from file:
     /home/cwx6513/pp.La/Pr.UPF
     MD5 check sum: 70e2b4b153859e92c8c91247dfc63203
     Pseudo is Norm-conserving, Zval = 13.0
     Generated in analytical, separable form
     Using radial grid of 1255 points,  6 beta functions with:
                l(1) =   0
                l(2) =   0
                l(3) =   1
                l(4) =   1
                l(5) =   2
                l(6) =   3

     atomic species   valence    mass     pseudopotential
        Co            19.00    58.93320     Tb( 1.00)
        Si            13.00    28.08550     Pr( 1.00)

      8 Sym. Ops., with inversion, found ( 6 have fractional translation)

   Cartesian axes

     site n.     atom                  positions (alat units)
         1           Co  tau(   1) = (   0.7500000   1.0875135   0.8270358  )
         2           Co  tau(   2) = (   0.2500000   0.2284499   1.0709846  )
         3           Co  tau(   3) = (   0.7500000   0.4295318   0.1219744  )
         4           Co  tau(   4) = (   0.2500000   0.8864316   1.7760460  )
         5           Co  tau(   5) = (   0.2500000   0.7067855   0.5358966  )
         6           Co  tau(   6) = (   0.7500000   0.6091779   1.3621238  )
         7           Co  tau(   7) = (   0.2500000   0.0488038   0.4131136  )
         8           Co  tau(   8) = (   0.7500000   1.2671596   1.4849068  )
         9           Si  tau(   9) = (   0.2500000   0.2669484   1.6960710  )
        10           Si  tau(  10) = (   0.7500000   1.0490149   0.2019494  )
        11           Si  tau(  11) = (   0.2500000   0.9249301   1.1509596  )
        12           Si  tau(  12) = (   0.7500000   0.3910333   0.7470608  )

     number of k points=    12  gaussian smearing, width (Ry)=  0.1000
                       cart. coord. in units 2pi/alat
        k(    1) = (   0.0000000   0.0000000   0.0000000), wk =   0.0833333
        k(    2) = (   0.0000000   0.0000000   0.1317162), wk =   0.1666667
        k(    3) = (   0.0000000   0.0000000  -0.2634324), wk =   0.0833333
        k(    4) = (   0.0000000   0.2532999   0.0000000), wk =   0.1666667
        k(    5) = (   0.0000000   0.2532999   0.1317162), wk =   0.3333333
        k(    6) = (   0.0000000   0.2532999  -0.2634324), wk =   0.1666667
        k(    7) = (  -0.5000000   0.0000000   0.0000000), wk =   0.0833333
        k(    8) = (  -0.5000000   0.0000000   0.1317162), wk =   0.1666667
        k(    9) = (  -0.5000000   0.0000000  -0.2634324), wk =   0.0833333
        k(   10) = (  -0.5000000   0.2532999   0.0000000), wk =   0.1666667
        k(   11) = (  -0.5000000   0.2532999   0.1317162), wk =   0.3333333
        k(   12) = (  -0.5000000   0.2532999  -0.2634324), wk =   0.1666667

     Largest allocated arrays     est. size (Mb)     dimensions
     Largest temporary arrays     est. size (Mb)     dimensions

     Initial potential from superposition of free atoms
     Check: negative starting charge=   -0.001196

     starting charge   51.96217, renormalised to  204.00000

     negative rho (up, down):  0.469E-02 0.000E+00
     Starting wfc are   80 randomized atomic wfcs

     Self-consistent Calculation

     iteration #  1     ecut=    40.00 Ry     beta=0.70
     CG style diagonalization
     c_bands:  1 eigenvalues not converged
     ethr =  1.00E-02,  avg # of iterations = 30.9

     negative rho (up, down):  0.139E-02 0.000E+00

     total energy              =   -1540.78036387 Ry
     Harris-Foulkes estimate   =   -4520.65076077 Ry
     estimated scf accuracy    <    3543.26168386 Ry

[...]

     iteration #  5     ecut=    40.00 Ry     beta=0.70
     CG style diagonalization
     ethr =  1.00E-02,  avg # of iterations =  3.9

[...]

     End of self-consistent calculation

          k = 0.0000 0.0000 0.0000 (  3675 PWs)   bands (ev):

   -30.4630 -30.2005 -30.1887 -30.0721 -30.0006 -29.8667 -29.8110 -29.7956
    -1.1562  -0.6216  -0.4220  -0.3311  -0.0310   0.0430   0.3231   0.4629
     0.5776   0.6220   0.6501   1.0456   1.1335   1.1635   1.1676   1.2294
     1.4739   1.4841   1.6072   1.6408   1.6677   1.9394   2.2468   2.3488
     4.2755   5.0614   5.3991   5.4646  21.6152  22.0927  22.2193  22.2590
    22.6602  22.8485  22.9514  23.1509  23.2914  23.3204  23.9718  24.4386
    32.1647  32.3344  32.5890  32.8480  33.0320  33.0569  33.3619  33.9224
    34.4373  35.1779  35.2780  35.7331  35.9247  36.2448  36.3460  37.1515
    37.3287  37.6618  37.7140  37.8753  37.8897  37.9141  38.7594  38.7882
    39.0341  39.1648  39.3761  40.1330  40.4667  40.6957  40.9931  41.6369
    41.7210  41.8625  41.8946  42.3529  42.5504  42.5904  42.6207  43.1035
    43.9815  44.0258  45.6698  46.0383  46.8453  47.0817  47.4774  47.7438
    47.7471  48.4298  48.4839  48.5844  49.9461  50.5480  51.0064  51.1404
    51.3120  51.9277  52.2440  52.5436  52.6766  53.1141  53.2186  54.1545
    54.7003  54.7450  54.8740  55.3421  55.8797  55.9570  55.9915  56.1095
    56.9756  57.4036

[...]

          k =-0.5000 0.0000 0.0000 (  3722 PWs)   bands (ev):

[...]

     the Fermi energy is    49.8560 ev

!    total energy              =   -2192.90552005 Ry
     Harris-Foulkes estimate   =   -2192.90557364 Ry
     estimated scf accuracy    <       0.00006158 Ry

     The total energy is the sum of the following terms:

     one-electron contribution =     335.74367910 Ry
     hartree contribution      =     153.64389710 Ry
     xc contribution           =    -238.44261665 Ry
     ewald contribution        =   -2443.47791472 Ry
     smearing contrib. (-TS)   =      -0.37256488 Ry

     convergence has been achieved in  10 iterations

     Forces acting on atoms (Ry/au):

     atom    1 type  1   force =     0.00000000   -0.09072148   -0.11229758
     atom    2 type  1   force =     0.00000000    0.09072148    0.11229758
     atom    3 type  1   force =     0.00000000   -0.09072148    0.11229758
     atom    4 type  1   force =     0.00000000    0.09072148   -0.11229758
     atom    5 type  1   force =     0.00000000    0.16236375   -0.25603108
     atom    6 type  1   force =     0.00000000   -0.16236375    0.25603108
     atom    7 type  1   force =     0.00000000    0.16236375    0.25603108
     atom    8 type  1   force =     0.00000000   -0.16236375   -0.25603108
     atom    9 type  2   force =     0.00000000   -0.19733564   -0.02188652
     atom   10 type  2   force =     0.00000000    0.19733564    0.02188652
     atom   11 type  2   force =     0.00000000   -0.19733564    0.02188652
     atom   12 type  2   force =     0.00000000    0.19733564   -0.02188652

     Total force =     0.780193     Total SCF correction =     0.028691

     entering subroutine stress ...

          total   stress  (Ry/bohr**3)                   (kbar)     P= 6649.27
   0.04774607   0.00000000   0.00000000       7023.69      0.00      0.00
   0.00000000   0.04228951   0.00000000          0.00   6221.00      0.00
   0.00000000   0.00000000   0.04556694          0.00      0.00   6703.13

     BFGS Geometry Optimization

     number of scf cycles    =   1
     number of bfgs steps    =   0

     enthalpy new            =   -2192.9055200538 Ry

     new trust radius        =       0.5000000000 bohr
     new conv_thr            =       0.0001000000 Ry

     new unit-cell volume =   1088.00527 a.u.^3 (   161.22575 Ang^3 )

CELL_PARAMETERS (alat=  7.01510508)
   1.085136619   0.000000000   0.000000000
   0.000000000   1.415196184   0.000000000
   0.000000000   0.000000000   2.052236416

ATOMIC_POSITIONS (crystal)
Co       0.750000000   0.825700076   0.435134447
Co       0.250000000   0.174299924   0.564865553
Co       0.750000000   0.325700076   0.064865553
Co       0.250000000   0.674299924   0.935134447
Co       0.250000000   0.538340440   0.280973498
Co       0.750000000   0.461659560   0.719026502
Co       0.250000000   0.038340440   0.219026502
Co       0.750000000   0.961659560   0.780973498
Si       0.250000000   0.201329364   0.893482759
Si       0.750000000   0.798670636   0.106517241
Si       0.250000000   0.701329364   0.606517241
Si       0.750000000   0.298670636   0.393482759

     Writing output data file Prototype-La-oP12-Co2Si.save
     Check: negative starting charge=   -0.001196
     NEW-OLD atomic charge density approx. for the potential
     NEW k-points:
        k(    1) = (   0.0000000   0.0000000   0.0000000), wk =   0.0833333
        k(    2) = (   0.0000000   0.0000000   0.1218183), wk =   0.1666667
        k(    3) = (   0.0000000   0.0000000  -0.2436366), wk =   0.0833333
        k(    4) = (   0.0000000   0.2355386   0.0000000), wk =   0.1666667
        k(    5) = (   0.0000000   0.2355386   0.1218183), wk =   0.3333333
        k(    6) = (   0.0000000   0.2355386  -0.2436366), wk =   0.1666667
        k(    7) = (  -0.4607715   0.0000000   0.0000000), wk =   0.0833333
        k(    8) = (  -0.4607715   0.0000000   0.1218183), wk =   0.1666667
        k(    9) = (  -0.4607715   0.0000000  -0.2436366), wk =   0.0833333
        k(   10) = (  -0.4607715   0.2355386   0.0000000), wk =   0.1666667
        k(   11) = (  -0.4607715   0.2355386   0.1218183), wk =   0.3333333
        k(   12) = (  -0.4607715   0.2355386  -0.2436366), wk =   0.1666667
     Check: negative starting charge=   -0.006336

     negative rho (up, down):  0.526E-02 0.000E+00
     extrapolated charge  214.78054, renormalised to  204.00000

[...]

     enthalpy old            =   -2192.9055200538 Ry
     enthalpy new            =   -2199.1263944552 Ry

     CASE: enthalpy_new < enthalpy_old

     small trust_radius: resetting bfgs history

     new trust radius        =       2.4529049449 bohr
     new conv_thr            =       0.0001000000 Ry

[...]

     Total force =     0.027180     Total SCF correction =     0.006870
     SCF correction compared to forces is large: reduce conv_thr to get better values

[...]

          total   stress  (Ry/bohr**3)                   (kbar)     P=-1598.65
  -0.01138133   0.00000000   0.00000000      -1674.25      0.00      0.00
   0.00000000  -0.01034264   0.00000000          0.00  -1521.45      0.00
   0.00000000   0.00000000  -0.01087833          0.00      0.00  -1600.26

     number of scf cycles    =   3
     number of bfgs steps    =   2

     enthalpy old            =   -2199.1263944553 Ry
     enthalpy new            =   -2188.9739377004 Ry

     CASE: enthalpy_new > enthalpy_old

     new trust radius        =       0.8505818371 bohr

     trust_radius < trust_radius_min

     resetting bfgs history

     Message from routine bfgs:
     history already reset at previous step: stopping
     new conv_thr            =       0.0001000000 Ry

     new unit-cell volume =   1294.79986 a.u.^3 (   191.86954 Ang^3 )

[...]

ATOMIC_POSITIONS (crystal)
Co       0.750000000   0.825196669   0.434788641
Co       0.250000000   0.174803331   0.565211359
Co       0.750000000   0.325196669   0.065211359
Co       0.250000000   0.674803331   0.934788641
Co       0.250000000   0.539575280   0.279620836
Co       0.750000000   0.460424720   0.720379164
Co       0.250000000   0.039575280   0.220379164
Co       0.750000000   0.960424720   0.779620836
Si       0.250000000   0.199810412   0.893554292
Si       0.750000000   0.800189588   0.106445708
Si       0.250000000   0.699810412   0.606445708
Si       0.750000000   0.300189588   0.393554292

     Writing output data file Prototype-La-oP12-Co2Si.save
     Check: negative starting charge=   -0.009739
     NEW-OLD atomic charge density approx. for the potential
     NEW k-points:
        k(    1) = (   0.0000000   0.0000000   0.0000000), wk =   0.0833333
        k(    2) = (   0.0000000   0.0000000   0.1149225), wk =   0.1666667
        k(    3) = (   0.0000000   0.0000000  -0.2298450), wk =   0.0833333
        k(    4) = (   0.0000000   0.2237730   0.0000000), wk =   0.1666667
        k(    5) = (   0.0000000   0.2237730   0.1149225), wk =   0.3333333
        k(    6) = (   0.0000000   0.2237730  -0.2298450), wk =   0.1666667
        k(    7) = (  -0.4319922   0.0000000   0.0000000), wk =   0.0833333
        k(    8) = (  -0.4319922   0.0000000   0.1149225), wk =   0.1666667
        k(    9) = (  -0.4319922   0.0000000  -0.2298450), wk =   0.0833333
        k(   10) = (  -0.4319922   0.2237730   0.0000000), wk =   0.1666667
        k(   11) = (  -0.4319922   0.2237730   0.1149225), wk =   0.3333333
        k(   12) = (  -0.4319922   0.2237730  -0.2298450), wk =   0.1666667
     Check: negative starting charge=   -0.011943

     negative rho (up, down):  0.171E+02 0.000E+00
     extrapolated charge  149.60881, renormalised to  204.00000

[...]

     The maximum number of steps has been reached.

     End of BFGS Geometry Optimization
Begin final coordinates
     new unit-cell volume =   1294.79986 a.u.^3 (   191.86954 Ang^3 )

CELL_PARAMETERS (alat=  7.01510508)
   1.157428403   0.000000000   0.000000000
   0.000000000   1.489604469   0.000000000
   0.000000000   0.000000000   2.175379332

ATOMIC_POSITIONS (crystal)
Co       0.750000000   0.825196669   0.434788641
Co       0.250000000   0.174803331   0.565211359
Co       0.750000000   0.325196669   0.065211359
Co       0.250000000   0.674803331   0.934788641
Co       0.250000000   0.539575280   0.279620836
Co       0.750000000   0.460424720   0.720379164
Co       0.250000000   0.039575280   0.220379164
Co       0.750000000   0.960424720   0.779620836
Si       0.250000000   0.199810412   0.893554292
Si       0.750000000   0.800189588   0.106445708
Si       0.250000000   0.699810412   0.606445708
Si       0.750000000   0.300189588   0.393554292
End final coordinates

     A final scf calculation at the relaxed structure.
     The G-vectors are recalculated for the final unit cell
     Results may differ from those at the preceding step.

     bravais-lattice index     =            0
     lattice parameter (alat)  =       7.0151  a.u.
     unit-cell volume          =    1294.7999 (a.u.)^3
     number of atoms/cell      =           12
     number of atomic types    =            2
     number of electrons       =       204.00
     number of Kohn-Sham states=          122
     kinetic-energy cutoff     =      40.0000  Ry
     charge density cutoff     =     160.0000  Ry
     convergence threshold     =      1.0E-04
     mixing beta               =       0.7000
     number of iterations used =            8  plain     mixing
     Exchange-correlation      = SLA-PZ-NOGX-NOGC ( 1 1 0 0 0)
     EXX-fraction              =        0.00

     celldm(1)=   7.015105  celldm(2)=   0.000000  celldm(3)=   0.000000
     celldm(4)=   0.000000  celldm(5)=   0.000000  celldm(6)=   0.000000

     crystal axes: (cart. coord. in units of alat)
               a(1) = (   1.157428   0.000000   0.000000 )
               a(2) = (   0.000000   1.489604   0.000000 )
               a(3) = (   0.000000   0.000000   2.175379 )

     reciprocal axes: (cart. coord. in units 2 pi/alat)
               b(1) = (  0.863984  0.000000  0.000000 )
               b(2) = (  0.000000  0.671319  0.000000 )
               b(3) = (  0.000000  0.000000  0.459690 )

     PseudoPot. # 1 for Tb read from file:
     /home/cwx6513/pp.La/Tb.UPF
     MD5 check sum: 3d6088a3f0cf7fd2e110c43f7f8e95c2
     Pseudo is Norm-conserving, Zval = 19.0
     Generated in analytical, separable form
     Using radial grid of 1263 points,  6 beta functions with:
                l(1) =   0
                l(2) =   0
                l(3) =   1
                l(4) =   1
                l(5) =   2
                l(6) =   3

     PseudoPot. # 2 for Pr read from file:
     /home/cwx6513/pp.La/Pr.UPF
     MD5 check sum: 70e2b4b153859e92c8c91247dfc63203
     Pseudo is Norm-conserving, Zval = 13.0
     Generated in analytical, separable form
     Using radial grid of 1255 points,  6 beta functions with:
                l(1) =   0
                l(2) =   0
                l(3) =   1
                l(4) =   1
                l(5) =   2
                l(6) =   3

     atomic species   valence    mass     pseudopotential
        Co            19.00    58.93320     Tb( 1.00)
        Si            13.00    28.08550     Pr( 1.00)

      8 Sym. Ops., with inversion, found ( 6 have fractional translation)

   Cartesian axes

     site n.     atom                  positions (alat units)
         1           Co  tau(   1) = (   0.8680713   1.2292166   0.9458302  )
         2           Co  tau(   2) = (   0.2893571   0.2603878   1.2295491  )
         3           Co  tau(   3) = (   0.8680713   0.4844144   0.1418594  )
         4           Co  tau(   4) = (   0.2893571   1.0051901   2.0335199  )
         5           Co  tau(   5) = (   0.2893571   0.8037537   0.6082814  )
         6           Co  tau(   6) = (   0.8680713   0.6858507   1.5670979  )
         7           Co  tau(   7) = (   0.2893571   0.0589515   0.4794083  )
         8           Co  tau(   8) = (   0.8680713   1.4306530   1.6959711  )
         9           Si  tau(   9) = (   0.2893571   0.2976385   1.9438195  )
        10           Si  tau(  10) = (   0.8680713   1.1919660   0.2315598  )
        11           Si  tau(  11) = (   0.2893571   1.0424407   1.3192495  )
        12           Si  tau(  12) = (   0.8680713   0.4471638   0.8561299  )

     number of k points=    12  gaussian smearing, width (Ry)=  0.1000
                       cart. coord. in units 2pi/alat
        k(    1) = (   0.0000000   0.0000000   0.0000000), wk =   0.0833333
        k(    2) = (   0.0000000   0.0000000   0.1149225), wk =   0.1666667
        k(    3) = (   0.0000000   0.0000000  -0.2298450), wk =   0.0833333
        k(    4) = (   0.0000000   0.2237730   0.0000000), wk =   0.1666667
        k(    5) = (   0.0000000   0.2237730   0.1149225), wk =   0.3333333
        k(    6) = (   0.0000000   0.2237730  -0.2298450), wk =   0.1666667
        k(    7) = (  -0.4319922   0.0000000   0.0000000), wk =   0.0833333
        k(    8) = (  -0.4319922   0.0000000   0.1149225), wk =   0.1666667
        k(    9) = (  -0.4319922   0.0000000  -0.2298450), wk =   0.0833333
        k(   10) = (  -0.4319922   0.2237730   0.0000000), wk =   0.1666667
        k(   11) = (  -0.4319922   0.2237730   0.1149225), wk =   0.3333333
        k(   12) = (  -0.4319922   0.2237730  -0.2298450), wk =   0.1666667

     Largest allocated arrays     est. size (Mb)     dimensions
     Largest temporary arrays     est. size (Mb)     dimensions

     Initial potential from superposition of free atoms
     Check: negative starting charge=   -0.001086

     starting charge   51.96217, renormalised to  204.00000

     negative rho (up, down):  0.426E-02 0.000E+00
     Starting wfc are   80 randomized atomic wfcs

     Writing output data file Prototype-La-oP12-Co2Si.save

     Self-consistent Calculation

[...]

     negative rho (up, down):  0.193E-03 0.000E+00

[...]

     iteration #  9     ecut=    40.00 Ry     beta=0.70
     CG style diagonalization
     ethr =  2.40E-05,  avg # of iterations =  3.8

[...]

     total energy              =   -2204.48026478 Ry
     Harris-Foulkes estimate   =   -2204.48060389 Ry
     estimated scf accuracy    <       0.00072174 Ry

     iteration # 11     ecut=    40.00 Ry     beta=0.70
     CG style diagonalization
     c_bands:  1 eigenvalues not converged
     ethr =  3.54E-07,  avg # of iterations =  3.3

     End of self-consistent calculation

[...]

          k = 0.0000 0.2238-0.2298 (  5506 PWs)   bands (ev):

[...]

          k =-0.4320 0.2238-0.2298 (  5532 PWs)   bands (ev):

   -45.1339 -45.1339 -45.1316 -45.1316 -44.9708 -44.9708 -44.9404 -44.9404
   -14.0350 -14.0350 -13.9569 -13.9569 -13.8182 -13.8182 -13.7546 -13.7546
   -13.6826 -13.6826 -13.5688 -13.5688 -13.4770 -13.4770 -13.3742 -13.3742
   -13.3738 -13.3738 -13.3339 -13.3339 -13.2492 -13.2492 -13.1913 -13.1913
   -11.5105 -11.5105 -11.4645 -11.4645   7.4557   7.4557   7.5719   7.5719
     7.7339   7.7339   7.7409   7.7409   7.9819   7.9819   8.0096   8.0096
    21.3130  21.3130  21.7831  21.7831  21.9324  21.9324  22.3471  22.3471
    22.3764  22.3764  22.5638  22.5638  22.5956  22.5956  23.1489  23.1489
    23.1721  23.1721  23.3422  23.3422  23.3966  23.3966  23.8682  23.8682
    23.9997  23.9997  24.3455  24.3455  24.4127  24.4127  24.6371  24.6371
    24.9559  24.9559  25.7454  25.7454  25.7961  25.7961  26.2785  26.2785
    26.8545  26.8545  27.2478  27.2478  29.1317  29.1317  30.0036  30.0036
    30.5341  30.5341  30.6871  30.6871  31.2733  31.2733  31.7757  31.7757
    32.5078  32.5078  32.7161  32.7161  33.2633  33.2633  33.4689  33.4689
    35.2747  35.2748  35.8934  35.8935  36.4626  36.4627  38.1173  38.1174
    38.5515  38.5516

     the Fermi energy is    31.7774 ev

!    total energy              =   -2204.48036563 Ry
     Harris-Foulkes estimate   =   -2204.48039291 Ry
     estimated scf accuracy    <       0.00003012 Ry

     The total energy is the sum of the following terms:

     one-electron contribution =     -88.74904590 Ry
     hartree contribution      =     246.11173706 Ry
     xc contribution           =    -227.18237190 Ry
     ewald contribution        =   -2134.13176819 Ry
     smearing contrib. (-TS)   =      -0.52891669 Ry

     convergence has been achieved in  11 iterations

     Forces acting on atoms (Ry/au):

     atom    1 type  1   force =     0.00000000   -0.03536212    0.00641417
     atom    2 type  1   force =     0.00000000    0.03536212   -0.00641417
     atom    3 type  1   force =     0.00000000   -0.03536212   -0.00641417
     atom    4 type  1   force =     0.00000000    0.03536212    0.00641417
     atom    5 type  1   force =     0.00000000    0.05543270   -0.08240706
     atom    6 type  1   force =     0.00000000   -0.05543270    0.08240706
     atom    7 type  1   force =     0.00000000    0.05543270    0.08240706
     atom    8 type  1   force =     0.00000000   -0.05543270   -0.08240706
     atom    9 type  2   force =     0.00000000   -0.06565015    0.01424750
     atom   10 type  2   force =     0.00000000    0.06565015   -0.01424750
     atom   11 type  2   force =     0.00000000   -0.06565015   -0.01424750
     atom   12 type  2   force =     0.00000000    0.06565015    0.01424750

     Total force =     0.250346     Total SCF correction =     0.008935

     entering subroutine stress ...

          total   stress  (Ry/bohr**3)                   (kbar)     P=  967.32
   0.00717954   0.00000000   0.00000000       1056.15      0.00      0.00
   0.00000000   0.00610294   0.00000000          0.00    897.77      0.00
   0.00000000   0.00000000   0.00644464          0.00      0.00    948.04

     Writing output data file Prototype-La-oP12-Co2Si.save

     General routines

     Parallel routines

   This run was terminated on:  18: 3: 1  22Mar2018

   JOB DONE.