     Program PWSCF v.5.0.2 starts on 22Mar2018 at 17:38:20

     Current dimensions of program PWSCF are:
     Max number of different atomic species (ntypx) = 10
     Max number of k-points (npk) =  40000
     Max angular momentum in pseudopotentials (lmaxx) =  3
     Waiting for input...
     Reading input from standard input

     Subspace diagonalization in iterative solution of the eigenvalue problem:
     a serial algorithm will be used

     bravais-lattice index     =            0
     lattice parameter (alat)  =       8.8008  a.u.
     unit-cell volume          =    1116.9454 (a.u.)^3
     number of atoms/cell      =           16
     number of atomic types    =            2
     number of electrons       =       280.00
     number of Kohn-Sham states=          168
     kinetic-energy cutoff     =      40.0000  Ry
     charge density cutoff     =     160.0000  Ry
     convergence threshold     =      1.0E-04
     mixing beta               =       0.7000
     number of iterations used =            8  plain     mixing
     Exchange-correlation      = SLA-PZ-NOGX-NOGC ( 1 1 0 0 0)
     EXX-fraction              =        0.00
     nstep                     =           50

     celldm(1)=   8.800765  celldm(2)=   0.000000  celldm(3)=   0.000000
     celldm(4)=   0.000000  celldm(5)=   0.000000  celldm(6)=   0.000000

     crystal axes: (cart. coord. in units of alat)
               a(1) = (   1.000000   0.000000   0.000000 )
               a(2) = (   0.000000   1.083771   0.000000 )
               a(3) = (   0.000000   0.000000   1.511935 )

     reciprocal axes: (cart. coord. in units 2 pi/alat)
               b(1) = (  1.000000  0.000000  0.000000 )
               b(2) = (  0.000000  0.922704  0.000000 )
               b(3) = (  0.000000  0.000000  0.661404 )

     PseudoPot. # 1 for Tb read from file:
     /home/jld5415/pp.La/Tb.UPF
     MD5 check sum: 3d6088a3f0cf7fd2e110c43f7f8e95c2
     Pseudo is Norm-conserving, Zval = 19.0
     Generated in analytical, separable form
     Using radial grid of 1263 points,  6 beta functions with:
                l(1) =   0
                l(2) =   0
                l(3) =   1
                l(4) =   1
                l(5) =   2
                l(6) =   3

     PseudoPot. # 2 for Pr read from file:
     /home/jld5415/pp.La/Pr.UPF
     MD5 check sum: 70e2b4b153859e92c8c91247dfc63203
     Pseudo is Norm-conserving, Zval = 13.0
     Generated in analytical, separable form
     Using radial grid of 1255 points,  6 beta functions with:
                l(1) =   0
                l(2) =   0
                l(3) =   1
                l(4) =   1
                l(5) =   2
                l(6) =   3

     atomic species   valence    mass     pseudopotential
        Fe            19.00    55.84500     Tb( 1.00)
        C             13.00    12.01070     Pr( 1.00)

      8 Sym. Ops., with inversion, found ( 6 have fractional translation)

   Cartesian axes

     site n.     atom                  positions (alat units)
         1           Fe  tau(   1) = (   0.3472940   0.1827628   1.3947267  )
         2           Fe  tau(   2) = (   0.1527060   0.7246484   0.8731757  )
         3           Fe  tau(   3) = (   0.8472940   0.3591227   0.6387592  )
         4           Fe  tau(   4) = (   0.3396640   0.4879235   0.3779837  )
         5           Fe  tau(   5) = (   0.1527060   0.7246484   1.3947267  )
         6           Fe  tau(   6) = (   0.3472940   0.1827628   0.8731757  )
         7           Fe  tau(   7) = (   0.1603360   1.0298091   0.3779837  )
         8           Fe  tau(   8) = (   0.6527060   0.9010083   0.6387592  )
         9           Fe  tau(   9) = (   0.8472940   0.3591227   0.1172082  )
        10           Fe  tau(  10) = (   0.6603360   0.5958476   1.1339512  )
        11           Fe  tau(  11) = (   0.6527060   0.9010083   0.1172082  )
        12           Fe  tau(  12) = (   0.8396640   0.0539620   1.1339512  )
        13           C   tau(  13) = (   0.0000000   0.0000000   0.0000000  )
        14           C   tau(  14) = (   0.5000000   0.5418856   0.0000000  )
        15           C   tau(  15) = (   0.5000000   0.5418856   0.7559674  )
        16           C   tau(  16) = (   0.0000000   0.0000000   0.7559674  )

     number of k points=    12  gaussian smearing, width (Ry)=  0.1000
                       cart. coord. in units 2pi/alat
        k(    1) = (   0.0000000   0.0000000   0.0000000), wk =   0.0833333
        k(    2) = (   0.0000000   0.0000000   0.1653510), wk =   0.1666667
        k(    3) = (   0.0000000   0.0000000  -0.3307021), wk =   0.0833333
        k(    4) = (   0.0000000   0.3075680   0.0000000), wk =   0.1666667
        k(    5) = (   0.0000000   0.3075680   0.1653510), wk =   0.3333333
        k(    6) = (   0.0000000   0.3075680  -0.3307021), wk =   0.1666667
        k(    7) = (  -0.5000000   0.0000000   0.0000000), wk =   0.0833333
        k(    8) = (  -0.5000000   0.0000000   0.1653510), wk =   0.1666667
        k(    9) = (  -0.5000000   0.0000000  -0.3307021), wk =   0.0833333
        k(   10) = (  -0.5000000   0.3075680   0.0000000), wk =   0.1666667
        k(   11) = (  -0.5000000   0.3075680   0.1653510), wk =   0.3333333
        k(   12) = (  -0.5000000   0.3075680  -0.3307021), wk =   0.1666667

     Largest allocated arrays     est. size (Mb)     dimensions
     Largest temporary arrays     est. size (Mb)     dimensions

     Initial potential from superposition of free atoms
     Check: negative starting charge=   -0.000594

     starting charge   51.96217, renormalised to  280.00000

     negative rho (up, down):  0.320E-02 0.000E+00
     Starting wfc are   80 randomized atomic wfcs

     Self-consistent Calculation

     iteration #  1     ecut=    40.00 Ry     beta=0.70
     CG style diagonalization
     c_bands:  2 eigenvalues not converged
     c_bands:  1 eigenvalues not converged
     ethr =  1.00E-02,  avg # of iterations = 25.2

     negative rho (up, down):  0.944E-03 0.000E+00

     total energy              =   -2303.95754353 Ry
     Harris-Foulkes estimate   =   -6646.27884298 Ry
     estimated scf accuracy    <    5086.81770757 Ry

[...]

     iteration #  4     ecut=    40.00 Ry     beta=0.70
     CG style diagonalization
     ethr =  1.00E-02,  avg # of iterations =  5.8

[...]

     End of self-consistent calculation

          k = 0.0000 0.0000 0.0000 (  4785 PWs)   bands (ev):

   -30.5404 -30.2625 -30.0205 -30.0068 -29.9320 -29.8516 -29.8466 -29.7625
   -29.6274 -29.5261 -29.5068 -29.5044  -7.3814  -6.4514  -4.3927  -2.5876
    -2.3512  -2.3255  -2.2924  -2.1849  -1.7092  -1.4880  -0.4072  -0.2883
    -0.1033   0.3378   0.4521   0.6024   0.7763   0.7891   0.8830   1.2923
     1.3012   1.3900   1.5540   1.7784   2.0474   2.1151   2.2408   2.3390
     2.3650   2.4032   2.6180   2.6217   2.9638   2.9655   3.0020   3.0944
     5.9668   7.6728   8.9576  10.8555  19.2561  19.3656  19.5061  19.9517
    20.3359  20.4850  23.1663  23.3598  23.8887  24.6393  24.7089  25.0075
    31.1031  31.8148  32.2048  32.3379  32.6202  32.7792  32.7994  33.0294
    33.4626  34.2500  34.5070  34.6345  34.7480  34.8039  35.3212  35.4422
    35.5003  35.6553  35.7367  35.8189  36.1659  36.2258  36.4649  36.9202
    36.9877  37.1624  37.3710  37.4818  37.8345  38.3383  38.5060  38.9766
    39.0331  39.0729  39.2918  39.6210  39.8032  39.8778  40.2130  40.2223
    40.3434  40.9579  41.2668  41.2999  41.8086  42.0236  42.6550  43.0256
    43.3994  43.6812  43.8872  44.0607  44.2570  44.3532  44.9291  45.1704
    45.6247  46.1044  46.4139  46.6215  47.0646  47.1547  47.4077  47.4161
    47.8731  48.0540  48.7925  48.9897  49.1925  50.0328  50.1432  50.5672
    51.1543  51.2624  51.6640  52.1370  52.1508  52.6191  52.9373  53.0003
    53.6878  53.8882  54.1426  54.9653  55.0294  55.5531  55.8906  55.9008
    56.0361  56.1681  56.1996  56.4645  57.1144  57.1870  57.2532  57.3193
    57.4997  57.5157  57.5448  58.0160  58.3681  58.5426  58.5445  58.9806

[...]

          k =-0.5000 0.0000 0.0000 (  4798 PWs)   bands (ev):

[...]

     the Fermi energy is    52.1649 ev

!    total energy              =   -3085.95647325 Ry
     Harris-Foulkes estimate   =   -3085.95648763 Ry
     estimated scf accuracy    <       0.00001636 Ry

     The total energy is the sum of the following terms:

     one-electron contribution =     306.91424038 Ry
     hartree contribution      =     292.97257736 Ry
     xc contribution           =    -338.38265198 Ry
     ewald contribution        =   -3346.95423110 Ry
     smearing contrib. (-TS)   =      -0.50640790 Ry

     convergence has been achieved in  11 iterations

     Forces acting on atoms (Ry/au):

     atom    1 type  1   force =     0.94372315   -1.01352628   -1.34150329
     atom    2 type  1   force =    -0.94372315   -1.01352628    1.34150329
     atom    3 type  1   force =     0.94372315    1.01352628   -1.34150329
     atom    4 type  1   force =    -1.62992667   -0.60111655    0.00000000
     atom    5 type  1   force =    -0.94372315   -1.01352628   -1.34150329
     atom    6 type  1   force =     0.94372315   -1.01352628    1.34150329
     atom    7 type  1   force =     1.62992667   -0.60111655    0.00000000
     atom    8 type  1   force =    -0.94372315    1.01352628   -1.34150329
     atom    9 type  1   force =     0.94372315    1.01352628    1.34150329
     atom   10 type  1   force =     1.62992667    0.60111655    0.00000000
     atom   11 type  1   force =    -0.94372315    1.01352628    1.34150329
     atom   12 type  1   force =    -1.62992667    0.60111655    0.00000000
     atom   13 type  2   force =     0.00000000    0.00000000    0.00000000
     atom   14 type  2   force =     0.00000000    0.00000000    0.00000000
     atom   15 type  2   force =     0.00000000    0.00000000    0.00000000
     atom   16 type  2   force =     0.00000000    0.00000000    0.00000000

     Total force =     6.466208     Total SCF correction =     0.000000

     entering subroutine stress ...

          total   stress  (Ry/bohr**3)                   (kbar)     P=11339.85
   0.07727668   0.00000000   0.00000000      11367.79      0.00      0.00
   0.00000000   0.07780439   0.00000000          0.00  11445.42      0.00
   0.00000000   0.00000000   0.07617926          0.00      0.00  11206.35

     BFGS Geometry Optimization

     number of scf cycles    =   1
     number of bfgs steps    =   0

     enthalpy new            =   -3085.9564732457 Ry

     new trust radius        =       0.5000000000 bohr
     new conv_thr            =       0.0001000000 Ry

     new unit-cell volume =   1384.14867 a.u.^3 (   205.10967 Ang^3 )

CELL_PARAMETERS (alat=  8.80076499)
   1.074296506   0.000000000   0.000000000
   0.000000000   1.164841411   0.000000000
   0.000000000   0.000000000   1.622671109

ATOMIC_POSITIONS (crystal)
Fe       0.351417862   0.164549449   0.918600800
Fe       0.148582138   0.664549449   0.581399200
Fe       0.851417862   0.335450551   0.418600800
Fe       0.332541580   0.447785290   0.250000000
Fe       0.148582138   0.664549449   0.918600800
Fe       0.351417862   0.164549449   0.581399200
Fe       0.167458420   0.947785290   0.250000000
[...]
        k(    7) = (  -0.4654209   0.0000000   0.0000000), wk =   0.0833333
        k(    8) = (  -0.4654209   0.0000000   0.1540670), wk =   0.1666667
        k(    9) = (  -0.4654209   0.0000000  -0.3081339), wk =   0.0833333
        k(   10) = (  -0.4654209   0.2861620   0.0000000), wk =   0.1666667
        k(   11) = (  -0.4654209   0.2861620   0.1540670), wk =   0.3333333
        k(   12) = (  -0.4654209   0.2861620  -0.3081339), wk =   0.1666667
     Check: negative starting charge=   -0.004912

     negative rho (up, down):  0.440E-02 0.000E+00
     extrapolated charge  290.03105, renormalised to  280.00000

[...]

          total   stress  (Ry/bohr**3)                   (kbar)     P= 4899.26
   0.03372839   0.00000000   0.00000000       4961.62      0.00      0.00
   0.00000000   0.03289114   0.00000000          0.00   4838.45      0.00
   0.00000000   0.00000000   0.03329401          0.00      0.00   4897.72

[...]

     enthalpy old            =   -3085.9564732457 Ry
     enthalpy new            =   -3101.3129661755 Ry

     CASE: enthalpy_new < enthalpy_old

     small trust_radius: resetting bfgs history

     new trust radius        =       6.2741799558 bohr
     new conv_thr            =       0.0001000000 Ry

[...]

     Writing output data file Prototype-La-oP16-Fe3C.save
     Check: negative starting charge=   -0.004912
     NEW-OLD atomic charge density approx. for the potential
     NEW k-points:
        k(    1) = (   0.0000000   0.0000000   0.0000000), wk =   0.0833333
        k(    2) = (   0.0000000   0.0000000   0.0840816), wk =   0.1666667
        k(    3) = (   0.0000000   0.0000000  -0.1681632), wk =   0.0833333
        k(    4) = (   0.0000000   0.1570353   0.0000000), wk =   0.1666667
        k(    5) = (   0.0000000   0.1570353   0.0840816), wk =   0.3333333
        k(    6) = (   0.0000000   0.1570353  -0.1681632), wk =   0.1666667
        k(    7) = (  -0.2525056   0.0000000   0.0000000), wk =   0.0833333
        k(    8) = (  -0.2525056   0.0000000   0.0840816), wk =   0.1666667
        k(    9) = (  -0.2525056   0.0000000  -0.1681632), wk =   0.0833333
        k(   10) = (  -0.2525056   0.1570353   0.0000000), wk =   0.1666667
        k(   11) = (  -0.2525056   0.1570353   0.0840816), wk =   0.3333333
        k(   12) = (  -0.2525056   0.1570353  -0.1681632), wk =   0.1666667
     Check: negative starting charge=   -0.863416
     extrapolated charge  323.51932, renormalised to  280.00000

[...]

          total   stress  (Ry/bohr**3)                   (kbar)     P=-2137.80
  -0.01477326   0.00000000   0.00000000      -2173.22      0.00      0.00
   0.00000000  -0.01433649   0.00000000          0.00  -2108.97      0.00
   0.00000000   0.00000000  -0.01448768          0.00      0.00  -2131.21

     number of scf cycles    =   3
     number of bfgs steps    =   2

     enthalpy old            =   -3101.3129661755 Ry
     enthalpy new            =   -3033.3793931613 Ry

     CASE: enthalpy_new > enthalpy_old

     new trust radius        =       2.7709526503 bohr

     trust_radius < trust_radius_min

     resetting bfgs history

     Message from routine bfgs:
     history already reset at previous step: stopping
     new conv_thr            =       0.0001000000 Ry

     new unit-cell volume =   1596.55621 a.u.^3 (   236.58522 Ang^3 )

[...]

ATOMIC_POSITIONS (crystal)
Fe       0.353291954   0.162669952   0.916837815
Fe       0.146708046   0.662669952   0.583162185
Fe       0.853291954   0.337330048   0.416837815
Fe       0.329334925   0.446653352   0.250000000
Fe       0.146708046   0.662669952   0.916837815
Fe       0.353291954   0.162669952   0.583162185
Fe       0.170665075   0.946653352   0.250000000
Fe       0.646708046   0.837330048   0.416837815
Fe       0.853291954   0.337330048   0.083162185
Fe       0.670665075   0.553346648   0.750000000
Fe       0.646708046   0.837330048   0.083162185
Fe       0.829334925   0.053346648   0.750000000
C        0.000000000   0.000000000   0.000000000
C        0.500000000   0.500000000   0.000000000
C        0.500000000   0.500000000   0.500000000
C        0.000000000   0.000000000   0.500000000

     Writing output data file Prototype-La-oP16-Fe3C.save
     Check: negative starting charge=   -0.863416
     NEW-OLD atomic charge density approx. for the potential
     NEW k-points:
        k(    1) = (   0.0000000   0.0000000   0.0000000), wk =   0.0833333
        k(    2) = (   0.0000000   0.0000000   0.1469118), wk =   0.1666667
        k(    3) = (   0.0000000   0.0000000  -0.2938236), wk =   0.0833333
        k(    4) = (   0.0000000   0.2731630   0.0000000), wk =   0.1666667
        k(    5) = (   0.0000000   0.2731630   0.1469118), wk =   0.3333333
        k(    6) = (   0.0000000   0.2731630  -0.2938236), wk =   0.1666667
        k(    7) = (  -0.4432893   0.0000000   0.0000000), wk =   0.0833333
        k(    8) = (  -0.4432893   0.0000000   0.1469118), wk =   0.1666667
        k(    9) = (  -0.4432893   0.0000000  -0.2938236), wk =   0.0833333
        k(   10) = (  -0.4432893   0.2731630   0.0000000), wk =   0.1666667
        k(   11) = (  -0.4432893   0.2731630   0.1469118), wk =   0.3333333
        k(   12) = (  -0.4432893   0.2731630  -0.2938236), wk =   0.1666667
     Check: negative starting charge=   -0.009414

     negative rho (up, down):  0.177E+03 0.000E+00
     extrapolated charge   54.70434, renormalised to  280.00000

[...]

     The maximum number of steps has been reached.

     End of BFGS Geometry Optimization
Begin final coordinates
     new unit-cell volume =   1596.55621 a.u.^3 (   236.58522 Ang^3 )

CELL_PARAMETERS (alat=  8.80076499)
   1.127931540   0.000000000   0.000000000
   0.000000000   1.220272633   0.000000000
   0.000000000   0.000000000   1.701701293

ATOMIC_POSITIONS (crystal)
Fe       0.353291954   0.162669952   0.916837815
Fe       0.146708046   0.662669952   0.583162185
Fe       0.853291954   0.337330048   0.416837815
Fe       0.329334925   0.446653352   0.250000000
Fe       0.146708046   0.662669952   0.916837815
Fe       0.353291954   0.162669952   0.583162185
Fe       0.170665075   0.946653352   0.250000000
Fe       0.646708046   0.837330048   0.416837815
Fe       0.853291954   0.337330048   0.083162185
Fe       0.670665075   0.553346648   0.750000000
Fe       0.646708046   0.837330048   0.083162185
Fe       0.829334925   0.053346648   0.750000000
C        0.000000000   0.000000000   0.000000000
C        0.500000000   0.500000000   0.000000000
C        0.500000000   0.500000000   0.500000000
C        0.000000000   0.000000000   0.500000000
End final coordinates

     A final scf calculation at the relaxed structure.
     The G-vectors are recalculated for the final unit cell
     Results may differ from those at the preceding step.

     bravais-lattice index     =            0
     lattice parameter (alat)  =       8.8008  a.u.
     unit-cell volume          =    1596.5562 (a.u.)^3
     number of atoms/cell      =           16
     number of atomic types    =            2
     number of electrons       =       280.00
     number of Kohn-Sham states=          168
     kinetic-energy cutoff     =      40.0000  Ry
     charge density cutoff     =     160.0000  Ry
     convergence threshold     =      1.0E-04
     mixing beta               =       0.7000
     number of iterations used =            8  plain     mixing
     Exchange-correlation      = SLA-PZ-NOGX-NOGC ( 1 1 0 0 0)
     EXX-fraction              =        0.00

     celldm(1)=   8.800765  celldm(2)=   0.000000  celldm(3)=   0.000000
     celldm(4)=   0.000000  celldm(5)=   0.000000  celldm(6)=   0.000000

     crystal axes: (cart. coord. in units of alat)
               a(1) = (   1.127932   0.000000   0.000000 )
               a(2) = (   0.000000   1.220273   0.000000 )
               a(3) = (   0.000000   0.000000   1.701701 )

     reciprocal axes: (cart. coord. in units 2 pi/alat)
               b(1) = (  0.886579  0.000000  0.000000 )
               b(2) = (  0.000000  0.819489  0.000000 )
               b(3) = (  0.000000  0.000000  0.587647 )

     PseudoPot. # 1 for Tb read from file:
     /home/jld5415/pp.La/Tb.UPF
     MD5 check sum: 3d6088a3f0cf7fd2e110c43f7f8e95c2
     Pseudo is Norm-conserving, Zval = 19.0
     Generated in analytical, separable form
     Using radial grid of 1263 points,  6 beta functions with:
                l(1) =   0
                l(2) =   0
                l(3) =   1
                l(4) =   1
                l(5) =   2
                l(6) =   3

     PseudoPot. # 2 for Pr read from file:
     /home/jld5415/pp.La/Pr.UPF
     MD5 check sum: 70e2b4b153859e92c8c91247dfc63203
     Pseudo is Norm-conserving, Zval = 13.0
     Generated in analytical, separable form
     Using radial grid of 1255 points,  6 beta functions with:
                l(1) =   0
                l(2) =   0
                l(3) =   1
                l(4) =   1
                l(5) =   2
                l(6) =   3

     atomic species   valence    mass     pseudopotential
        Fe            19.00    55.84500     Tb( 1.00)
        C             13.00    12.01070     Pr( 1.00)

      8 Sym. Ops., with inversion, found ( 6 have fractional translation)

   Cartesian axes

     site n.     atom                  positions (alat units)
         1           Fe  tau(   1) = (   0.3984891   0.1985017   1.5601841  )
         2           Fe  tau(   2) = (   0.1654766   0.8086380   0.9923678  )
         3           Fe  tau(   3) = (   0.9624549   0.4116346   0.7093334  )
         4           Fe  tau(   4) = (   0.3714672   0.5450389   0.4254253  )
         5           Fe  tau(   5) = (   0.1654766   0.8086380   1.5601841  )
         6           Fe  tau(   6) = (   0.3984891   0.1985017   0.9923678  )
         7           Fe  tau(   7) = (   0.1924985   1.1551752   0.4254253  )
         8           Fe  tau(   8) = (   0.7294424   1.0217709   0.7093334  )
         9           Fe  tau(   9) = (   0.9624549   0.4116346   0.1415172  )
        10           Fe  tau(  10) = (   0.7564643   0.6752338   1.2762760  )
        11           Fe  tau(  11) = (   0.7294424   1.0217709   0.1415172  )
        12           Fe  tau(  12) = (   0.9354330   0.0650975   1.2762760  )
        13           C   tau(  13) = (   0.0000000   0.0000000   0.0000000  )
        14           C   tau(  14) = (   0.5639658   0.6101363   0.0000000  )
        15           C   tau(  15) = (   0.5639658   0.6101363   0.8508506  )
        16           C   tau(  16) = (   0.0000000   0.0000000   0.8508506  )

     number of k points=    12  gaussian smearing, width (Ry)=  0.1000
                       cart. coord. in units 2pi/alat
        k(    1) = (   0.0000000   0.0000000   0.0000000), wk =   0.0833333
        k(    2) = (   0.0000000   0.0000000   0.1469118), wk =   0.1666667
        k(    3) = (   0.0000000   0.0000000  -0.2938236), wk =   0.0833333
        k(    4) = (   0.0000000   0.2731630   0.0000000), wk =   0.1666667
        k(    5) = (   0.0000000   0.2731630   0.1469118), wk =   0.3333333
        k(    6) = (   0.0000000   0.2731630  -0.2938236), wk =   0.1666667
        k(    7) = (  -0.4432893   0.0000000   0.0000000), wk =   0.0833333
        k(    8) = (  -0.4432893   0.0000000   0.1469118), wk =   0.1666667
        k(    9) = (  -0.4432893   0.0000000  -0.2938236), wk =   0.0833333
        k(   10) = (  -0.4432893   0.2731630   0.0000000), wk =   0.1666667
        k(   11) = (  -0.4432893   0.2731630   0.1469118), wk =   0.3333333
        k(   12) = (  -0.4432893   0.2731630  -0.2938236), wk =   0.1666667

     Largest allocated arrays     est. size (Mb)     dimensions
     Largest temporary arrays     est. size (Mb)     dimensions

     Initial potential from superposition of free atoms
     Check: negative starting charge=   -0.001191

     starting charge   51.96217, renormalised to  280.00000

     negative rho (up, down):  0.642E-02 0.000E+00
     Starting wfc are   80 randomized atomic wfcs

     Writing output data file Prototype-La-oP16-Fe3C.save

     Self-consistent Calculation

[...]

     negative rho (up, down):  0.312E-05 0.000E+00

[...]

     iteration #  8     ecut=    40.00 Ry     beta=0.70
     CG style diagonalization
     ethr =  1.27E-04,  avg # of iterations =  3.9

[...]

     total energy              =   -3111.64191816 Ry
     Harris-Foulkes estimate   =   -3111.64464183 Ry
     estimated scf accuracy    <       0.00564246 Ry

     iteration # 11     ecut=    40.00 Ry     beta=0.70
     CG style diagonalization
     c_bands:  1 eigenvalues not converged
     ethr =  1.34E-06,  avg # of iterations =  3.6

     End of self-consistent calculation

[...]

          k = 0.0000 0.2732-0.2938 (  6800 PWs)   bands (ev):

[...]

          k =-0.4433 0.2732-0.2938 (  6844 PWs)   bands (ev):

   -43.2530 -43.2530 -43.2360 -43.2360 -43.1770 -43.1770 -43.1625 -43.1625
   -42.8679 -42.8679 -42.8510 -42.8510 -14.7044 -14.7044 -14.7031 -14.7031
   -12.9453 -12.9453 -12.9194 -12.9194 -12.5125 -12.5125 -12.4520 -12.4520
   -11.9687 -11.9687 -11.9458 -11.9458 -11.7234 -11.7234 -11.7169 -11.7169
   -11.5671 -11.5671 -11.5265 -11.5265 -11.3815 -11.3815 -11.3667 -11.3667
   -11.1019 -11.1019 -11.0391 -11.0391 -10.9451 -10.9451 -10.8454 -10.8454
    -8.1839  -8.1839  -8.1799  -8.1799   7.9584   7.9584   7.9591   7.9591
     8.5826   8.5826   8.5869   8.5869   9.0940   9.0940   9.1027   9.1027
    21.3492  21.3492  21.4187  21.4187  22.0334  22.0334  22.4865  22.4865
    22.4940  22.4940  22.8386  22.8386  23.4643  23.4643  23.6536  23.6536
    23.9363  23.9363  24.3855  24.3855  24.4786  24.4786  24.9421  24.9421
    25.2060  25.2060  25.2848  25.2848  25.4884  25.4884  25.7776  25.7776
    25.9386  25.9386  26.0090  26.0090  26.4214  26.4214  26.5540  26.5540
    27.1426  27.1426  27.2405  27.2405  27.6355  27.6355  27.6661  27.6661
    28.1174  28.1174  28.3224  28.3224  28.4139  28.4139  28.5296  28.5296
    29.0506  29.0506  29.0827  29.0827  30.4113  30.4113  30.5565  30.5565
    32.4210  32.4210  32.4934  32.4934  34.2042  34.2042  34.3111  34.3111
    34.7288  34.7288  34.8251  34.8251  35.7490  35.7490  35.9186  35.9186
    36.7499  36.7499  37.2613  37.2613  37.6775  37.6775  38.0613  38.0613
    38.5581  38.5581  38.6624  38.6624  40.0162  40.0163  40.6483  40.6485
    41.1746  41.1746  41.5500  41.5500  41.5587  41.5588  42.2657  42.2660

     the Fermi energy is    35.4510 ev

!    total energy              =   -3111.64291057 Ry
     Harris-Foulkes estimate   =   -3111.64297530 Ry
     estimated scf accuracy    <       0.00007473 Ry

     The total energy is the sum of the following terms:

     one-electron contribution =    -197.33878162 Ry
     hartree contribution      =     397.03330594 Ry
     xc contribution           =    -323.04269267 Ry
     ewald contribution        =   -2987.72332313 Ry
     smearing contrib. (-TS)   =      -0.57141909 Ry

     convergence has been achieved in  11 iterations

     Forces acting on atoms (Ry/au):

     atom    1 type  1   force =     0.39078692   -0.42071484   -0.49857184
     atom    2 type  1   force =    -0.39078692   -0.42071484    0.49857184
     atom    3 type  1   force =     0.39078692    0.42071484   -0.49857184
     atom    4 type  1   force =    -0.66923045   -0.25059217    0.00000000
     atom    5 type  1   force =    -0.39078692   -0.42071484   -0.49857184
     atom    6 type  1   force =     0.39078692   -0.42071484    0.49857184
     atom    7 type  1   force =     0.66923045   -0.25059217    0.00000000
     atom    8 type  1   force =    -0.39078692    0.42071484   -0.49857184
     atom    9 type  1   force =     0.39078692    0.42071484    0.49857184
     atom   10 type  1   force =     0.66923045    0.25059217    0.00000000
     atom   11 type  1   force =    -0.39078692    0.42071484    0.49857184
     atom   12 type  1   force =    -0.66923045    0.25059217    0.00000000
     atom   13 type  2   force =     0.00000000    0.00000000    0.00000000
     atom   14 type  2   force =     0.00000000    0.00000000    0.00000000
     atom   15 type  2   force =     0.00000000    0.00000000    0.00000000
     atom   16 type  2   force =     0.00000000    0.00000000    0.00000000

     Total force =     2.582436     Total SCF correction =     0.000000

     entering subroutine stress ...

          total   stress  (Ry/bohr**3)                   (kbar)     P= 2997.61
   0.02065291   0.00000000   0.00000000       3038.15      0.00      0.00
   0.00000000   0.01999477   0.00000000          0.00   2941.33      0.00
   0.00000000   0.00000000   0.02048429          0.00      0.00   3013.34

     Writing output data file Prototype-La-oP16-Fe3C.save

     General routines

     Parallel routines

   This run was terminated on:  18:44:30  22Mar2018

   JOB DONE.