     Program PWSCF v.5.0.2 starts on 22Mar2018 at 17:36:52

     Current dimensions of program PWSCF are:
     Max number of different atomic species (ntypx) = 10
     Max number of k-points (npk) =  40000
     Max angular momentum in pseudopotentials (lmaxx) =  3
     Waiting for input...
     Reading input from standard input

     Subspace diagonalization in iterative solution of the eigenvalue problem:
     a serial algorithm will be used

     bravais-lattice index     =            0
     lattice parameter (alat)  =      12.0168  a.u.
     unit-cell volume          =    1187.3413 (a.u.)^3
     number of atoms/cell      =            8
     number of atomic types    =            2
     number of electrons       =       140.00
     number of Kohn-Sham states=           84
     kinetic-energy cutoff     =      40.0000  Ry
     charge density cutoff     =     160.0000  Ry
     convergence threshold     =      1.0E-04
     mixing beta               =       0.7000
     number of iterations used =            8  plain     mixing
     Exchange-correlation      = SLA-PZ-NOGX-NOGC ( 1 1 0 0 0)
     EXX-fraction              =        0.00
     nstep                     =           50

     celldm(1)=  12.016801  celldm(2)=   0.000000  celldm(3)=   0.000000
     celldm(4)=   0.000000  celldm(5)=   0.000000  celldm(6)=   0.000000

     crystal axes: (cart. coord. in units of alat)
               a(1) = (   1.000000   0.000000   0.000000 )
               a(2) = (  -0.500000   0.866025   0.000000 )
               a(3) = (   0.000000   0.000000   0.790093 )

     reciprocal axes: (cart. coord. in units 2 pi/alat)
               b(1) = (  1.000000  0.577350  0.000000 )
               b(2) = (  0.000000  1.154701  0.000000 )
               b(3) = (  0.000000  0.000000  1.265674 )

     PseudoPot. # 1 for Tb read from file:
     /home/cwx6513/pp.La/Tb.UPF
     MD5 check sum: 3d6088a3f0cf7fd2e110c43f7f8e95c2
     Pseudo is Norm-conserving, Zval = 19.0
     Generated in analytical, separable form
     Using radial grid of 1263 points,  6 beta functions with:
                l(1) =   0
                l(2) =   0
                l(3) =   1
                l(4) =   1
                l(5) =   2
                l(6) =   3

     PseudoPot. # 2 for Pr read from file:
     /home/cwx6513/pp.La/Pr.UPF
     MD5 check sum: 70e2b4b153859e92c8c91247dfc63203
     Pseudo is Norm-conserving, Zval = 13.0
     Generated in analytical, separable form
     Using radial grid of 1255 points,  6 beta functions with:
                l(1) =   0
                l(2) =   0
                l(3) =   1
                l(4) =   1
                l(5) =   2
                l(6) =   3

     atomic species   valence    mass     pseudopotential
        Mg            19.00    24.30500     Tb( 1.00)
        Cd            13.00   112.41100     Pr( 1.00)

     24 Sym. Ops., with inversion, found (12 have fractional translation)

   Cartesian axes

     site n.     atom                  positions (alat units)
         1           Mg  tau(   1) = (   0.2478935   0.7204716   0.1975233  )
         2           Mg  tau(   2) = (   0.7478935   0.1455538   0.5925699  )
         3           Mg  tau(   3) = (   0.2521065   0.1455538   0.5925699  )
         4           Mg  tau(   4) = (  -0.2478935   0.7204716   0.1975233  )
         5           Mg  tau(   5) = (   0.0000000   0.2911075   0.1975233  )
         6           Mg  tau(   6) = (   0.5000000   0.5749179   0.5925699  )
         7           Cd  tau(   7) = (   0.5000005   0.2886748   0.1975233  )
         8           Cd  tau(   8) = (  -0.0000005   0.5773506   0.5925699  )

     number of k points=    64  gaussian smearing, width (Ry)=  0.1000
                       cart. coord. in units 2pi/alat
        k(    1) = (   0.0000000   0.0000000   0.0000000), wk =   0.0095238
        k(    2) = (   0.0000000   0.0000000   0.1808105), wk =   0.0190476
        k(    3) = (   0.0000000   0.0000000   0.3616210), wk =   0.0190476
        k(    4) = (   0.0000000   0.0000000   0.5424315), wk =   0.0190476
        k(    5) = (   0.0000000   0.1924501   0.0000000), wk =   0.0190476
        k(    6) = (   0.0000000   0.1924501   0.1808105), wk =   0.0380952
        k(    7) = (   0.0000000   0.1924501   0.3616210), wk =   0.0380952
        k(    8) = (   0.0000000   0.1924501   0.5424315), wk =   0.0380952
        k(    9) = (   0.0000000   0.3849002   0.0000000), wk =   0.0190476
        k(   10) = (   0.0000000   0.3849002   0.1808105), wk =   0.0380952
        k(   11) = (   0.0000000   0.3849002   0.3616210), wk =   0.0380952
        k(   12) = (   0.0000000   0.3849002   0.5424315), wk =   0.0380952
        k(   13) = (   0.0000000  -0.5773503   0.0000000), wk =   0.0095238
        k(   14) = (   0.0000000  -0.5773503   0.1808105), wk =   0.0190476
        k(   15) = (   0.0000000  -0.5773503   0.3616210), wk =   0.0190476
        k(   16) = (   0.0000000  -0.5773503   0.5424315), wk =   0.0190476
        k(   17) = (   0.2000000   0.1154701   0.0000000), wk =   0.0190476
        k(   18) = (   0.2000000   0.1154701   0.1808105), wk =   0.0380952
        k(   19) = (   0.2000000   0.1154701   0.3616210), wk =   0.0380952
        k(   20) = (   0.2000000   0.1154701   0.5424315), wk =   0.0380952
        k(   21) = (   0.2000000   0.3079201   0.0000000), wk =   0.0190476
        k(   22) = (   0.2000000   0.3079201   0.1808105), wk =   0.0380952
        k(   23) = (   0.2000000   0.3079201   0.3616210), wk =   0.0380952
        k(   24) = (   0.2000000   0.3079201   0.5424315), wk =   0.0380952
        k(   25) = (   0.2000000   0.5003702   0.0000000), wk =   0.0190476
        k(   26) = (   0.2000000   0.5003702   0.1808105), wk =   0.0380952
        k(   27) = (   0.2000000   0.5003702   0.3616210), wk =   0.0380952
        k(   28) = (   0.2000000   0.5003702   0.5424315), wk =   0.0380952
        k(   29) = (   0.2000000  -0.4618802   0.0000000), wk =   0.0190476
        k(   30) = (   0.2000000  -0.4618802   0.1808105), wk =   0.0380952
        k(   31) = (   0.2000000  -0.4618802   0.3616210), wk =   0.0380952
        k(   32) = (   0.2000000  -0.4618802   0.5424315), wk =   0.0380952
        k(   33) = (   0.2000000  -0.2694301   0.0000000), wk =   0.0190476
        k(   34) = (   0.2000000  -0.2694301   0.1808105), wk =   0.0380952
        k(   35) = (   0.2000000  -0.2694301   0.3616210), wk =   0.0380952
        k(   36) = (   0.2000000  -0.2694301   0.5424315), wk =   0.0380952
        k(   37) = (   0.2000000  -0.0769800   0.0000000), wk =   0.0190476
        k(   38) = (   0.2000000  -0.0769800   0.1808105), wk =   0.0380952
        k(   39) = (   0.2000000  -0.0769800   0.3616210), wk =   0.0380952
        k(   40) = (   0.2000000  -0.0769800   0.5424315), wk =   0.0380952
        k(   41) = (   0.4000000   0.2309401   0.0000000), wk =   0.0190476
        k(   42) = (   0.4000000   0.2309401   0.1808105), wk =   0.0380952
        k(   43) = (   0.4000000   0.2309401   0.3616210), wk =   0.0380952
        k(   44) = (   0.4000000   0.2309401   0.5424315), wk =   0.0380952
        k(   45) = (   0.4000000   0.4233902   0.0000000), wk =   0.0190476
        k(   46) = (   0.4000000   0.4233902   0.1808105), wk =   0.0380952
        k(   47) = (   0.4000000   0.4233902   0.3616210), wk =   0.0380952
        k(   48) = (   0.4000000   0.4233902   0.5424315), wk =   0.0380952
        k(   49) = (   0.4000000   0.6158403   0.0000000), wk =   0.0190476
        k(   50) = (   0.4000000   0.6158403   0.1808105), wk =   0.0380952
        k(   51) = (   0.4000000   0.6158403   0.3616210), wk =   0.0380952
        k(   52) = (   0.4000000   0.6158403   0.5424315), wk =   0.0380952
        k(   53) = (   0.4000000  -0.3464102   0.0000000), wk =   0.0190476
        k(   54) = (   0.4000000  -0.3464102   0.1808105), wk =   0.0380952
        k(   55) = (   0.4000000  -0.3464102   0.3616210), wk =   0.0380952
        k(   56) = (   0.4000000  -0.3464102   0.5424315), wk =   0.0380952
        k(   57) = (   0.4000000  -0.1539601   0.0000000), wk =   0.0190476
        k(   58) = (   0.4000000  -0.1539601   0.1808105), wk =   0.0380952
        k(   59) = (   0.4000000  -0.1539601   0.3616210), wk =   0.0380952
        k(   60) = (   0.4000000  -0.1539601   0.5424315), wk =   0.0380952
        k(   61) = (   0.4000000   0.0384900   0.0000000), wk =   0.0190476
        k(   62) = (   0.4000000   0.0384900   0.1808105), wk =   0.0380952
        k(   63) = (   0.4000000   0.0384900   0.3616210), wk =   0.0380952
        k(   64) = (   0.4000000   0.0384900   0.5424315), wk =   0.0380952

     Largest allocated arrays     est. size (Mb)     dimensions
     Largest temporary arrays     est. size (Mb)     dimensions

     Initial potential from superposition of free atoms
     Check: negative starting charge=   -0.001098

     starting charge   25.98109, renormalised to  140.00000

     negative rho (up, down):  0.592E-02 0.000E+00
     Starting wfc are   40 randomized atomic wfcs

     Self-consistent Calculation

     iteration #  1     ecut=    40.00 Ry     beta=0.70
     CG style diagonalization
     c_bands:  5 eigenvalues not converged
     c_bands:  1 eigenvalues not converged
     c_bands:  5 eigenvalues not converged
     c_bands:  1 eigenvalues not converged
     c_bands:  1 eigenvalues not converged
     c_bands:  1 eigenvalues not converged
     c_bands:  1 eigenvalues not converged
     ethr =  1.00E-02,  avg # of iterations = 31.7

     negative rho (up, down):  0.176E-02 0.000E+00

     total energy              =   -1237.70750624 Ry
     Harris-Foulkes estimate   =   -4700.85137946 Ry
     estimated scf accuracy    <    4010.33662848 Ry

[...]

     iteration #  4     ecut=    40.00 Ry     beta=0.70
     CG style diagonalization
     ethr =  1.00E-02,  avg # of iterations =  7.4

[...]

     End of self-consistent calculation

          k = 0.0000 0.0000 0.0000 (  5047 PWs)   bands (ev):

   -53.4900 -53.4734 -53.4707 -53.4707 -53.4644 -53.4644 -22.0629 -22.0382
   -22.0223 -21.8930 -21.8929 -21.8636 -21.8635 -21.8477 -21.8477 -21.8427
   -21.8043 -21.7841 -21.7226 -21.7226 -21.6558 -21.6375 -21.6343 -21.6343
   -21.6272 -21.6272  -1.9293  -1.8894  -1.8522  -1.8522  -1.8122  -1.8122
    13.5458  13.8825  13.8825  13.8903  13.9401  14.2601  14.5018  14.5019
    14.5341  14.5341  14.6000  15.2899  15.6155  15.6155  15.9963  16.0935
    16.0936  16.4552  16.4568  16.4569  16.5795  16.5795  16.8431  16.8431
    17.0894  17.0894  17.4295  17.4295  18.1409  18.4181  18.4369  19.2602
    19.5116  21.0530  21.0530  21.2297  21.2297  21.6671  21.9242  21.9242
    22.7907  22.7907  24.4214  24.4214  25.0077  25.1409  25.1410  25.2373
    27.4219  27.4220  27.4415  28.3550

[...]

     the Fermi energy is    21.5744 ev

!    total energy              =   -1562.53675150 Ry
     Harris-Foulkes estimate   =   -1562.53675263 Ry
     estimated scf accuracy    <       0.00000168 Ry

     The total energy is the sum of the following terms:

     one-electron contribution =    -295.78074400 Ry
     hartree contribution      =     239.28829096 Ry
     xc contribution           =    -154.58080548 Ry
[...]
        k(   17) = (   0.2018921   0.1165624   0.0000000), wk =   0.0190476
        k(   18) = (   0.2018921   0.1165624   0.1792232), wk =   0.0380952
        k(   19) = (   0.2018921   0.1165624   0.3584464), wk =   0.0380952
        k(   20) = (   0.2018921   0.1165624   0.5376697), wk =   0.0380952
        k(   21) = (   0.2018921   0.3108332   0.0000000), wk =   0.0190476
        k(   22) = (   0.2018921   0.3108332   0.1792232), wk =   0.0380952
        k(   23) = (   0.2018921   0.3108332   0.3584464), wk =   0.0380952
        k(   24) = (   0.2018921   0.3108332   0.5376697), wk =   0.0380952
        k(   25) = (   0.2018921   0.5051039   0.0000000), wk =   0.0190476
        k(   26) = (   0.2018921   0.5051039   0.1792232), wk =   0.0380952
        k(   27) = (   0.2018921   0.5051039   0.3584464), wk =   0.0380952
        k(   28) = (   0.2018921   0.5051039   0.5376697), wk =   0.0380952
        k(   29) = (   0.2018921  -0.4662497   0.0000000), wk =   0.0190476
        k(   30) = (   0.2018921  -0.4662497   0.1792232), wk =   0.0380952
        k(   31) = (   0.2018921  -0.4662497   0.3584464), wk =   0.0380952
        k(   32) = (   0.2018921  -0.4662497   0.5376697), wk =   0.0380952
        k(   33) = (   0.2018921  -0.2719790   0.0000000), wk =   0.0190476
        k(   34) = (   0.2018921  -0.2719790   0.1792232), wk =   0.0380952
        k(   35) = (   0.2018921  -0.2719790   0.3584464), wk =   0.0380952
        k(   36) = (   0.2018921  -0.2719790   0.5376697), wk =   0.0380952
        k(   37) = (   0.2018921  -0.0777083   0.0000000), wk =   0.0190476
        k(   38) = (   0.2018921  -0.0777083   0.1792232), wk =   0.0380952
        k(   39) = (   0.2018921  -0.0777083   0.3584464), wk =   0.0380952
        k(   40) = (   0.2018921  -0.0777083   0.5376697), wk =   0.0380952
        k(   41) = (   0.4037841   0.2331249   0.0000000), wk =   0.0190476
        k(   42) = (   0.4037841   0.2331249   0.1792232), wk =   0.0380952
        k(   43) = (   0.4037841   0.2331249   0.3584464), wk =   0.0380952
        k(   44) = (   0.4037841   0.2331249   0.5376697), wk =   0.0380952
        k(   45) = (   0.4037841   0.4273956   0.0000000), wk =   0.0190476
        k(   46) = (   0.4037841   0.4273956   0.1792232), wk =   0.0380952
        k(   47) = (   0.4037841   0.4273956   0.3584464), wk =   0.0380952
        k(   48) = (   0.4037841   0.4273956   0.5376697), wk =   0.0380952
        k(   49) = (   0.4037841   0.6216663   0.0000000), wk =   0.0190476
        k(   50) = (   0.4037841   0.6216663   0.1792232), wk =   0.0380952
        k(   51) = (   0.4037841   0.6216663   0.3584464), wk =   0.0380952
        k(   52) = (   0.4037841   0.6216663   0.5376697), wk =   0.0380952
        k(   53) = (   0.4037841  -0.3496873   0.0000000), wk =   0.0190476
        k(   54) = (   0.4037841  -0.3496873   0.1792232), wk =   0.0380952
        k(   55) = (   0.4037841  -0.3496873   0.3584464), wk =   0.0380952
        k(   56) = (   0.4037841  -0.3496873   0.5376697), wk =   0.0380952
        k(   57) = (   0.4037841  -0.1554166   0.0000000), wk =   0.0190476
        k(   58) = (   0.4037841  -0.1554166   0.1792232), wk =   0.0380952
        k(   59) = (   0.4037841  -0.1554166   0.3584464), wk =   0.0380952
        k(   60) = (   0.4037841  -0.1554166   0.5376697), wk =   0.0380952
        k(   61) = (   0.4037841   0.0388541   0.0000000), wk =   0.0190476
        k(   62) = (   0.4037841   0.0388541   0.1792232), wk =   0.0380952
        k(   63) = (   0.4037841   0.0388541   0.3584464), wk =   0.0380952
        k(   64) = (   0.4037841   0.0388541   0.5376697), wk =   0.0380952
     Check: negative starting charge=   -0.001048
     extrapolated charge  139.73132, renormalised to  140.00000

[...]

     The maximum number of steps has been reached.

     End of BFGS Geometry Optimization
Begin final coordinates
     new unit-cell volume =   1175.51043 a.u.^3 (   174.19267 Ang^3 )

CELL_PARAMETERS (alat= 12.01680127)
   0.990628384   0.000000000   0.000000000
  -0.495314192   0.857909347   0.000000000
   0.000000000   0.000000000   0.797090593

ATOMIC_POSITIONS (crystal)
Mg       0.667823658   0.833911829   0.250000000
Mg       0.833911829   0.166088171   0.750000000
Mg       0.332176342   0.166088171   0.750000000
Mg       0.166088171   0.833911829   0.250000000
Mg       0.166088171   0.332176342   0.250000000
Mg       0.833911829   0.667823658   0.750000000
Cd       0.666667000   0.333333000   0.250000000
Cd       0.333333000   0.666667000   0.750000000
End final coordinates

     A final scf calculation at the relaxed structure.
     The G-vectors are recalculated for the final unit cell
     Results may differ from those at the preceding step.

     bravais-lattice index     =            0
     lattice parameter (alat)  =      12.0168  a.u.
     unit-cell volume          =    1175.5104 (a.u.)^3
     number of atoms/cell      =            8
     number of atomic types    =            2
     number of electrons       =       140.00
     number of Kohn-Sham states=           84
     kinetic-energy cutoff     =      40.0000  Ry
     charge density cutoff     =     160.0000  Ry
     convergence threshold     =      3.1E-05
     mixing beta               =       0.7000
     number of iterations used =            8  plain     mixing
     Exchange-correlation      = SLA-PZ-NOGX-NOGC ( 1 1 0 0 0)
     EXX-fraction              =        0.00

     celldm(1)=  12.016801  celldm(2)=   0.000000  celldm(3)=   0.000000
     celldm(4)=   0.000000  celldm(5)=   0.000000  celldm(6)=   0.000000

     crystal axes: (cart. coord. in units of alat)
               a(1) = (   0.990628   0.000000   0.000000 )
               a(2) = (  -0.495314   0.857909   0.000000 )
               a(3) = (   0.000000   0.000000   0.797091 )

     reciprocal axes: (cart. coord. in units 2 pi/alat)
               b(1) = (  1.009460  0.582812  0.000000 )
               b(2) = (  0.000000  1.165624  0.000000 )
               b(3) = (  0.000000  0.000000  1.254563 )

     PseudoPot. # 1 for Tb read from file:
     /home/cwx6513/pp.La/Tb.UPF
     MD5 check sum: 3d6088a3f0cf7fd2e110c43f7f8e95c2
     Pseudo is Norm-conserving, Zval = 19.0
     Generated in analytical, separable form
     Using radial grid of 1263 points,  6 beta functions with:
                l(1) =   0
                l(2) =   0
                l(3) =   1
                l(4) =   1
                l(5) =   2
                l(6) =   3

     PseudoPot. # 2 for Pr read from file:
     /home/cwx6513/pp.La/Pr.UPF
     MD5 check sum: 70e2b4b153859e92c8c91247dfc63203
     Pseudo is Norm-conserving, Zval = 13.0
     Generated in analytical, separable form
     Using radial grid of 1255 points,  6 beta functions with:
                l(1) =   0
                l(2) =   0
                l(3) =   1
                l(4) =   1
                l(5) =   2
                l(6) =   3

     atomic species   valence    mass     pseudopotential
        Mg            19.00    24.30500     Tb( 1.00)
        Cd            13.00   112.41100     Pr( 1.00)

     24 Sym. Ops., with inversion, found (12 have fractional translation)

   Cartesian axes

     site n.     atom                  positions (alat units)
         1           Mg  tau(   1) = (   0.2485167   0.7154208   0.1992726  )
         2           Mg  tau(   2) = (   0.7438309   0.1424886   0.5978179  )
         3           Mg  tau(   3) = (   0.2467975   0.1424886   0.5978179  )
         4           Mg  tau(   4) = (  -0.2485167   0.7154208   0.1992726  )
         5           Mg  tau(   5) = (   0.0000000   0.2849772   0.1992726  )
         6           Mg  tau(   6) = (   0.4953142   0.5729322   0.5978179  )
         7           Cd  tau(   7) = (   0.4953147   0.2859695   0.1992726  )
         8           Cd  tau(   8) = (  -0.0000005   0.5719399   0.5978179  )

     number of k points=    64  gaussian smearing, width (Ry)=  0.1000
                       cart. coord. in units 2pi/alat
        k(    1) = (   0.0000000   0.0000000   0.0000000), wk =   0.0095238
        k(    2) = (   0.0000000   0.0000000   0.1792232), wk =   0.0190476
        k(    3) = (   0.0000000   0.0000000   0.3584464), wk =   0.0190476
        k(    4) = (   0.0000000   0.0000000   0.5376697), wk =   0.0190476
        k(    5) = (   0.0000000   0.1942707   0.0000000), wk =   0.0190476
        k(    6) = (   0.0000000   0.1942707   0.1792232), wk =   0.0380952
        k(    7) = (   0.0000000   0.1942707   0.3584464), wk =   0.0380952
        k(    8) = (   0.0000000   0.1942707   0.5376697), wk =   0.0380952
        k(    9) = (   0.0000000   0.3885414   0.0000000), wk =   0.0190476
        k(   10) = (   0.0000000   0.3885414   0.1792232), wk =   0.0380952
        k(   11) = (   0.0000000   0.3885414   0.3584464), wk =   0.0380952
        k(   12) = (   0.0000000   0.3885414   0.5376697), wk =   0.0380952
        k(   13) = (   0.0000000  -0.5828122   0.0000000), wk =   0.0095238
        k(   14) = (   0.0000000  -0.5828122   0.1792232), wk =   0.0190476
        k(   15) = (   0.0000000  -0.5828122   0.3584464), wk =   0.0190476
        k(   16) = (   0.0000000  -0.5828122   0.5376697), wk =   0.0190476
        k(   17) = (   0.2018921   0.1165624   0.0000000), wk =   0.0190476
        k(   18) = (   0.2018921   0.1165624   0.1792232), wk =   0.0380952
        k(   19) = (   0.2018921   0.1165624   0.3584464), wk =   0.0380952
        k(   20) = (   0.2018921   0.1165624   0.5376697), wk =   0.0380952
        k(   21) = (   0.2018921   0.3108332   0.0000000), wk =   0.0190476
        k(   22) = (   0.2018921   0.3108332   0.1792232), wk =   0.0380952
        k(   23) = (   0.2018921   0.3108332   0.3584464), wk =   0.0380952
        k(   24) = (   0.2018921   0.3108332   0.5376697), wk =   0.0380952
        k(   25) = (   0.2018921   0.5051039   0.0000000), wk =   0.0190476
        k(   26) = (   0.2018921   0.5051039   0.1792232), wk =   0.0380952
        k(   27) = (   0.2018921   0.5051039   0.3584464), wk =   0.0380952
        k(   28) = (   0.2018921   0.5051039   0.5376697), wk =   0.0380952
        k(   29) = (   0.2018921  -0.4662497   0.0000000), wk =   0.0190476
        k(   30) = (   0.2018921  -0.4662497   0.1792232), wk =   0.0380952
        k(   31) = (   0.2018921  -0.4662497   0.3584464), wk =   0.0380952
        k(   32) = (   0.2018921  -0.4662497   0.5376697), wk =   0.0380952
        k(   33) = (   0.2018921  -0.2719790   0.0000000), wk =   0.0190476
        k(   34) = (   0.2018921  -0.2719790   0.1792232), wk =   0.0380952
        k(   35) = (   0.2018921  -0.2719790   0.3584464), wk =   0.0380952
        k(   36) = (   0.2018921  -0.2719790   0.5376697), wk =   0.0380952
        k(   37) = (   0.2018921  -0.0777083   0.0000000), wk =   0.0190476
        k(   38) = (   0.2018921  -0.0777083   0.1792232), wk =   0.0380952
        k(   39) = (   0.2018921  -0.0777083   0.3584464), wk =   0.0380952
        k(   40) = (   0.2018921  -0.0777083   0.5376697), wk =   0.0380952
        k(   41) = (   0.4037841   0.2331249   0.0000000), wk =   0.0190476
        k(   42) = (   0.4037841   0.2331249   0.1792232), wk =   0.0380952
        k(   43) = (   0.4037841   0.2331249   0.3584464), wk =   0.0380952
        k(   44) = (   0.4037841   0.2331249   0.5376697), wk =   0.0380952
        k(   45) = (   0.4037841   0.4273956   0.0000000), wk =   0.0190476
        k(   46) = (   0.4037841   0.4273956   0.1792232), wk =   0.0380952
        k(   47) = (   0.4037841   0.4273956   0.3584464), wk =   0.0380952
        k(   48) = (   0.4037841   0.4273956   0.5376697), wk =   0.0380952
        k(   49) = (   0.4037841   0.6216663   0.0000000), wk =   0.0190476
        k(   50) = (   0.4037841   0.6216663   0.1792232), wk =   0.0380952
        k(   51) = (   0.4037841   0.6216663   0.3584464), wk =   0.0380952
        k(   52) = (   0.4037841   0.6216663   0.5376697), wk =   0.0380952
        k(   53) = (   0.4037841  -0.3496873   0.0000000), wk =   0.0190476
        k(   54) = (   0.4037841  -0.3496873   0.1792232), wk =   0.0380952
        k(   55) = (   0.4037841  -0.3496873   0.3584464), wk =   0.0380952
        k(   56) = (   0.4037841  -0.3496873   0.5376697), wk =   0.0380952
        k(   57) = (   0.4037841  -0.1554166   0.0000000), wk =   0.0190476
        k(   58) = (   0.4037841  -0.1554166   0.1792232), wk =   0.0380952
        k(   59) = (   0.4037841  -0.1554166   0.3584464), wk =   0.0380952
        k(   60) = (   0.4037841  -0.1554166   0.5376697), wk =   0.0380952
        k(   61) = (   0.4037841   0.0388541   0.0000000), wk =   0.0190476
        k(   62) = (   0.4037841   0.0388541   0.1792232), wk =   0.0380952
        k(   63) = (   0.4037841   0.0388541   0.3584464), wk =   0.0380952
        k(   64) = (   0.4037841   0.0388541   0.5376697), wk =   0.0380952

     Largest allocated arrays     est. size (Mb)     dimensions
     Largest temporary arrays     est. size (Mb)     dimensions

     Initial potential from superposition of free atoms
     Check: negative starting charge=   -0.000328

     starting charge   25.98109, renormalised to  140.00000

     negative rho (up, down):  0.177E-02 0.000E+00
     Starting wfc are   40 randomized atomic wfcs

     Writing output data file Prototype-La-hP8-Mg3Cd.save

     Self-consistent Calculation

[...]

     negative rho (up, down):  0.562E-04 0.000E+00

[...]

     iteration # 13     ecut=    40.00 Ry     beta=0.70
     CG style diagonalization
     c_bands:  1 eigenvalues not converged
     c_bands:  1 eigenvalues not converged
     c_bands:  1 eigenvalues not converged
     c_bands:  1 eigenvalues not converged
     c_bands:  1 eigenvalues not converged
     ethr =  4.23E-07,  avg # of iterations =  4.6

[...]

     total energy              =   -1562.52342636 Ry
     Harris-Foulkes estimate   =   -1562.52350638 Ry
     estimated scf accuracy    <       0.00026519 Ry

     iteration # 15     ecut=    40.00 Ry     beta=0.70
     CG style diagonalization
     ethr =  1.89E-07,  avg # of iterations =  3.3

     End of self-consistent calculation

[...]

          k = 0.4038 0.0389 0.5377 (  5021 PWs)   bands (ev):

   -53.2527 -53.2448 -53.2413 -53.2383 -53.2362 -53.2350 -21.8633 -21.8467
   -21.7114 -21.7049 -21.6788 -21.6688 -21.5998 -21.5848 -21.5571 -21.5366
   -21.5048 -21.4896 -21.4842 -21.4744 -21.4714 -21.4666 -21.4484 -21.4338
   -21.4190 -21.4122  -1.6224  -1.6178  -1.5624  -1.5585  -1.5487  -1.5449
    14.4295  14.4740  14.6095  14.7071  14.7101  14.8739  14.9448  15.0814
    15.1059  15.1689  15.3436  15.5512  15.6373  15.7281  15.9007  16.0288
    16.1379  16.2803  16.4900  16.6614  16.7370  16.8310  16.9570  17.0423
    17.0961  17.1637  17.5405  17.6068  17.8061  18.1603  18.3351  18.4288
    19.2317  19.9341  20.2165  20.6737  21.5513  21.7035  21.8355  22.0258
    22.8491  23.0899  23.2259  23.4923  24.0160  24.2825  25.8235  26.0304
    27.6123  27.9509  29.0134  29.8915

     the Fermi energy is    21.8650 ev

!    total energy              =   -1562.52345063 Ry
     Harris-Foulkes estimate   =   -1562.52346130 Ry
     estimated scf accuracy    <       0.00001148 Ry

     The total energy is the sum of the following terms:

     one-electron contribution =    -290.77079912 Ry
     hartree contribution      =     238.09920298 Ry
     xc contribution           =    -154.66305975 Ry
     ewald contribution        =   -1354.79572995 Ry
     smearing contrib. (-TS)   =      -0.39306478 Ry

     convergence has been achieved in  15 iterations

     Forces acting on atoms (Ry/au):

     atom    1 type  1   force =     0.00633832    0.00365943    0.00000000
     atom    2 type  1   force =     0.00633832   -0.00365943    0.00000000
     atom    3 type  1   force =    -0.00633832   -0.00365943    0.00000000
     atom    4 type  1   force =    -0.00633832    0.00365943    0.00000000
     atom    5 type  1   force =     0.00000000   -0.00731886    0.00000000
     atom    6 type  1   force =     0.00000000    0.00731886    0.00000000
     atom    7 type  2   force =     0.00000000    0.00000000    0.00000000
     atom    8 type  2   force =     0.00000000    0.00000000    0.00000000

     Total force =     0.017927     Total SCF correction =     0.000000

     entering subroutine stress ...

          total   stress  (Ry/bohr**3)                   (kbar)     P= -330.93
  -0.00226466   0.00000000   0.00000000       -333.14      0.00      0.00
   0.00000000  -0.00226466   0.00000000          0.00   -333.14      0.00
   0.00000000   0.00000000  -0.00221949          0.00      0.00   -326.50

     Writing output data file Prototype-La-hP8-Mg3Cd.save

     General routines

     Parallel routines

   This run was terminated on:  18:49:19  22Mar2018

   JOB DONE.