     Program PWSCF v.5.0.2 starts on 22Mar2018 at 17:36:52

     Current dimensions of program PWSCF are:
     Max number of different atomic species (ntypx) = 10
     Max number of k-points (npk) =  40000
     Max angular momentum in pseudopotentials (lmaxx) =  3
     Waiting for input...
     Reading input from standard input

     Subspace diagonalization in iterative solution of the eigenvalue problem:
     a serial algorithm will be used

     bravais-lattice index     =            0
     lattice parameter (alat)  =       9.9235  a.u.
     unit-cell volume          =    1361.0366 (a.u.)^3
     number of atoms/cell      =           12
     number of atomic types    =            2
     number of electrons       =       180.00
     number of Kohn-Sham states=          108
     kinetic-energy cutoff     =      40.0000  Ry
     charge density cutoff     =     160.0000  Ry
     convergence threshold     =      1.0E-04
     mixing beta               =       0.7000
     number of iterations used =            8  plain     mixing
     Exchange-correlation      = SLA-PZ-NOGX-NOGC ( 1 1 0 0 0)
     EXX-fraction              =        0.00
     nstep                     =           50

     celldm(1)=   9.923489  celldm(2)=   0.000000  celldm(3)=   0.000000
     celldm(4)=   0.000000  celldm(5)=   0.000000  celldm(6)=   0.000000

     crystal axes: (cart. coord. in units of alat)
               a(1) = (   1.000000   0.000000   0.000000 )
               a(2) = (  -0.500000   0.866025   0.000000 )
               a(3) = (   0.000000   0.000000   1.608222 )

     reciprocal axes: (cart. coord. in units 2 pi/alat)
               b(1) = (  1.000000  0.577350  0.000000 )
               b(2) = (  0.000000  1.154701  0.000000 )
               b(3) = (  0.000000  0.000000  0.621805 )

     PseudoPot. # 1 for Tb read from file:
     /home/cwx6513/pp.La/Tb.UPF
     MD5 check sum: 3d6088a3f0cf7fd2e110c43f7f8e95c2
     Pseudo is Norm-conserving, Zval = 19.0
     Generated in analytical, separable form
     Using radial grid of 1263 points,  6 beta functions with:
                l(1) =   0
                l(2) =   0
                l(3) =   1
                l(4) =   1
                l(5) =   2
                l(6) =   3

     PseudoPot. # 2 for Pr read from file:
     /home/cwx6513/pp.La/Pr.UPF
     MD5 check sum: 70e2b4b153859e92c8c91247dfc63203
     Pseudo is Norm-conserving, Zval = 13.0
     Generated in analytical, separable form
     Using radial grid of 1255 points,  6 beta functions with:
                l(1) =   0
                l(2) =   0
                l(3) =   1
                l(4) =   1
                l(5) =   2
                l(6) =   3

     atomic species   valence    mass     pseudopotential
        Mg            19.00    24.30500     Tb( 1.00)
        Zn            13.00    65.39000     Pr( 1.00)

     24 Sym. Ops., with inversion, found (12 have fractional translation)

   Cartesian axes

     site n.     atom                  positions (alat units)
         1           Mg  tau(   1) = (  -0.0000005   0.5773506   0.1003820  )
         2           Mg  tau(   2) = (   0.5000005   0.2886748   0.9044931  )
         3           Mg  tau(   3) = (   0.5000005   0.2886748   1.5078402  )
         4           Mg  tau(   4) = (  -0.0000005   0.5773506   0.7037291  )
         5           Zn  tau(   5) = (   0.0000000   0.0000000   0.0000000  )
         6           Zn  tau(   6) = (   0.0000000   0.0000000   0.8041111  )
         7           Zn  tau(   7) = (   0.0000000   0.2950739   1.2061667  )
         8           Zn  tau(   8) = (   0.7444585   0.1475370   0.4020556  )
         9           Zn  tau(   9) = (   0.2555415   0.1475370   0.4020556  )
        10           Zn  tau(  10) = (   0.2444585   0.7184884   1.2061667  )
        11           Zn  tau(  11) = (  -0.2444585   0.7184884   1.2061667  )
        12           Zn  tau(  12) = (   0.5000000   0.5709515   0.4020556  )

     number of k points=    12  gaussian smearing, width (Ry)=  0.1000
                       cart. coord. in units 2pi/alat
        k(    1) = (   0.0000000   0.0000000   0.0000000), wk =   0.0833333
        k(    2) = (   0.0000000   0.0000000   0.1554512), wk =   0.1666667
        k(    3) = (   0.0000000   0.0000000  -0.3109023), wk =   0.0833333
        k(    4) = (   0.0000000   0.3849002   0.0000000), wk =   0.1666667
        k(    5) = (   0.0000000   0.3849002   0.1554512), wk =   0.3333333
        k(    6) = (   0.0000000   0.3849002  -0.3109023), wk =   0.1666667
        k(    7) = (  -0.5000000  -0.2886751   0.0000000), wk =   0.0833333
        k(    8) = (  -0.5000000  -0.2886751   0.1554512), wk =   0.1666667
        k(    9) = (  -0.5000000  -0.2886751  -0.3109023), wk =   0.0833333
        k(   10) = (  -0.5000000   0.0962250   0.0000000), wk =   0.1666667
        k(   11) = (  -0.5000000   0.0962250   0.1554512), wk =   0.3333333
        k(   12) = (  -0.5000000   0.0962250  -0.3109023), wk =   0.1666667

     Largest allocated arrays     est. size (Mb)     dimensions
     Largest temporary arrays     est. size (Mb)     dimensions

     Initial potential from superposition of free atoms
     Check: negative starting charge=   -0.000695

     starting charge  103.92434, renormalised to  180.00000

     negative rho (up, down):  0.120E-02 0.000E+00
     Starting wfc are  160 randomized atomic wfcs

     Self-consistent Calculation

     iteration #  1     ecut=    40.00 Ry     beta=0.70
     CG style diagonalization
     ethr =  1.00E-02,  avg # of iterations = 20.1

     negative rho (up, down):  0.338E-03 0.000E+00

     total energy              =     123.88508748 Ry
     Harris-Foulkes estimate   =   -3527.31780315 Ry
     estimated scf accuracy    <    4296.41787757 Ry

[...]

     iteration #  3     ecut=    40.00 Ry     beta=0.70
     CG style diagonalization
     c_bands:  2 eigenvalues not converged
     ethr =  1.00E-02,  avg # of iterations =  9.6

[...]

     End of self-consistent calculation

          k = 0.0000 0.0000 0.0000 (  5769 PWs)   bands (ev):

   -47.0730 -47.0689 -47.0670 -47.0567 -16.1163 -15.9342 -15.5107 -15.5107
   -15.5055 -15.4753 -15.4753 -15.3967 -15.3687 -15.3687 -15.3680 -15.3651
   -15.3651 -15.2700 -14.5071 -14.0282 -14.0282 -14.0164 -14.0163 -13.9547
     0.0152   0.9458   1.9818   3.2149   3.2150   3.4765   3.4766   3.7175
     3.7176   4.5443   5.5152   5.5152   5.6184   5.6184   6.1354   7.4749
     7.5366   7.5435   7.6140   7.6141   8.0694   8.0694   8.2581   8.2582
    19.6923  20.3116  20.8648  20.8649  21.1293  21.2353  21.4604  21.4604
    21.4635  21.4636  21.7130  21.7131  21.7314  22.1562  22.1562  22.1889
    22.2104  22.7063  22.7064  22.7187  22.7188  22.7395  22.7396  23.0486
    23.0486  23.0553  24.5407  24.6704  24.6704  24.7934  24.7934  25.1915
    25.8726  26.3271  26.3271  27.1557  27.9129  27.9129  28.0293  28.0293
    28.0481  28.0481  29.3605  30.7562  30.8867  30.9587  31.0619  31.0619
    31.1354  32.2535  32.5764  32.5764  32.5881  32.5883  32.8313  32.8314
    33.2383  33.2384  34.1284  34.9522

[...]

          k =-0.5000-0.2887 0.0000 (  5800 PWs)   bands (ev):

[...]

     the Fermi energy is    28.9283 ev

!    total energy              =   -1659.16041116 Ry
     Harris-Foulkes estimate   =   -1659.16044763 Ry
     estimated scf accuracy    <       0.00004294 Ry

     The total energy is the sum of the following terms:

     one-electron contribution =       2.36662225 Ry
     hartree contribution      =     167.54383815 Ry
     xc contribution           =    -185.80399844 Ry
     ewald contribution        =   -1642.82054622 Ry
     smearing contrib. (-TS)   =      -0.44632690 Ry

     convergence has been achieved in  12 iterations

     Forces acting on atoms (Ry/au):

     atom    1 type  1   force =     0.00000000    0.00000000    0.02228572
     atom    2 type  1   force =     0.00000000    0.00000000    0.02228572
     atom    3 type  1   force =     0.00000000    0.00000000   -0.02228572
     atom    4 type  1   force =     0.00000000    0.00000000   -0.02228572
     atom    5 type  2   force =     0.00000000    0.00000000    0.00000000
     atom    6 type  2   force =     0.00000000    0.00000000    0.00000000
     atom    7 type  2   force =     0.00000000    0.04355148    0.00000000
     atom    8 type  2   force =    -0.03771669    0.02177574    0.00000000
     atom    9 type  2   force =     0.03771669    0.02177574    0.00000000
     atom   10 type  2   force =    -0.03771669   -0.02177574    0.00000000
     atom   11 type  2   force =     0.03771669   -0.02177574    0.00000000
     atom   12 type  2   force =     0.00000000   -0.04355148    0.00000000

     Total force =     0.115616     Total SCF correction =     0.023015
     SCF correction compared to forces is large: reduce conv_thr to get better values

     entering subroutine stress ...

          total   stress  (Ry/bohr**3)                   (kbar)     P=  861.86
   0.00585186   0.00000000   0.00000000        860.84      0.00      0.00
   0.00000000   0.00585186   0.00000000          0.00    860.84      0.00
   0.00000000   0.00000000   0.00587275          0.00      0.00    863.91

     number of scf cycles    =   2
     number of bfgs steps    =   1

     enthalpy old            =   -1659.1604080533 Ry
     enthalpy new            =   -1659.1604111599 Ry

     CASE: enthalpy_new < enthalpy_old

     WARNING: unexpected behaviour in update_inverse_hessian
              resetting bfgs history

     small trust_radius: resetting bfgs history

     new trust radius        =       1.0832940389 bohr
     new conv_thr            =       0.0000010000 Ry

     new unit-cell volume =   2050.96589 a.u.^3 (   303.92178 Ang^3 )

CELL_PARAMETERS (alat=  9.92348860)
   1.146296385   0.000000000   0.000000000
  -0.573148192   0.992721789   0.000000000
   0.000000000   0.000000000   1.844339363

ATOMIC_POSITIONS (crystal)
Mg       0.333333000   0.666667000   0.063814420
Mg       0.666667000   0.333333000   0.563814420
Mg       0.666667000   0.333333000   0.936185580
Mg       0.333333000   0.666667000   0.436185580
Zn       0.000000000   0.000000000   0.000000000
Zn       0.000000000   0.000000000   0.500000000
Zn       0.172894833   0.345789666   0.750000000
Zn       0.827105167   0.172894833   0.250000000
Zn       0.345789666   0.172894833   0.250000000
Zn       0.654210334   0.827105167   0.750000000
Zn       0.172894833   0.827105167   0.750000000
Zn       0.827105167   0.654210334   0.250000000

     Writing output data file Prototype-La-hP12-MgZn2.save
     Check: negative starting charge=   -0.000695
     NEW-OLD atomic charge density approx. for the potential
     NEW k-points:
        k(    1) = (   0.0000000   0.0000000   0.0000000), wk =   0.0833333
        k(    2) = (   0.0000000   0.0000000   0.1355499), wk =   0.1666667
        k(    3) = (   0.0000000   0.0000000  -0.2710998), wk =   0.0833333
        k(    4) = (   0.0000000   0.3357772   0.0000000), wk =   0.1666667
        k(    5) = (   0.0000000   0.3357772   0.1355499), wk =   0.3333333
        k(    6) = (   0.0000000   0.3357772  -0.2710998), wk =   0.1666667
        k(    7) = (  -0.4361874  -0.2518329   0.0000000), wk =   0.0833333
        k(    8) = (  -0.4361874  -0.2518329   0.1355499), wk =   0.1666667
        k(    9) = (  -0.4361874  -0.2518329  -0.2710998), wk =   0.0833333
        k(   10) = (  -0.4361874   0.0839443   0.0000000), wk =   0.1666667
        k(   11) = (  -0.4361874   0.0839443   0.1355499), wk =   0.3333333
        k(   12) = (  -0.4361874   0.0839443  -0.2710998), wk =   0.1666667
     Check: negative starting charge=   -0.018142

     negative rho (up, down):  0.177E-01 0.000E+00
     extrapolated charge  214.95935, renormalised to  180.00000

[...]

     Total force =     0.057360     Total SCF correction =     0.000562

[...]

     number of scf cycles    =   3
     number of bfgs steps    =   2

     enthalpy old            =   -1659.1604111599 Ry
     enthalpy new            =   -1658.6665270115 Ry

     CASE: enthalpy_new > enthalpy_old

     new trust radius        =       0.5083962193 bohr

     trust_radius < trust_radius_min

     resetting bfgs history

     Message from routine bfgs:
     history already reset at previous step: stopping
     new conv_thr            =       0.0000010000 Ry

     new unit-cell volume =   1635.36829 a.u.^3 (   242.33658 Ang^3 )

[...]

ATOMIC_POSITIONS (crystal)
Mg       0.333333000   0.666667000   0.062942566
Mg       0.666667000   0.333333000   0.562942566
Mg       0.666667000   0.333333000   0.937057434
Mg       0.333333000   0.666667000   0.437057434
Zn       0.000000000   0.000000000   0.000000000
Zn       0.000000000   0.000000000   0.500000000
Zn       0.171313702   0.342627405   0.750000000
Zn       0.828686298   0.171313702   0.250000000
Zn       0.342627405   0.171313702   0.250000000
Zn       0.657372595   0.828686298   0.750000000
Zn       0.171313702   0.828686298   0.750000000
Zn       0.828686298   0.657372595   0.250000000

     Writing output data file Prototype-La-hP12-MgZn2.save
     Check: negative starting charge=   -0.018142
     NEW-OLD atomic charge density approx. for the potential
     NEW k-points:
        k(    1) = (   0.0000000   0.0000000   0.0000000), wk =   0.0833333
        k(    2) = (   0.0000000   0.0000000   0.1461959), wk =   0.1666667
        k(    3) = (   0.0000000   0.0000000  -0.2923917), wk =   0.0833333
        k(    4) = (   0.0000000   0.3620801   0.0000000), wk =   0.1666667
        k(    5) = (   0.0000000   0.3620801   0.1461959), wk =   0.3333333
        k(    6) = (   0.0000000   0.3620801  -0.2923917), wk =   0.1666667
        k(    7) = (  -0.4703559  -0.2715601   0.0000000), wk =   0.0833333
        k(    8) = (  -0.4703559  -0.2715601   0.1461959), wk =   0.1666667
        k(    9) = (  -0.4703559  -0.2715601  -0.2923917), wk =   0.0833333
        k(   10) = (  -0.4703559   0.0905200   0.0000000), wk =   0.1666667
        k(   11) = (  -0.4703559   0.0905200   0.1461959), wk =   0.3333333
        k(   12) = (  -0.4703559   0.0905200  -0.2923917), wk =   0.1666667
     Check: negative starting charge=   -0.007150

     negative rho (up, down):  0.203E+01 0.000E+00
     extrapolated charge  153.58961, renormalised to  180.00000

[...]

     The maximum number of steps has been reached.

     End of BFGS Geometry Optimization
Begin final coordinates
     new unit-cell volume =   1635.36829 a.u.^3 (   242.33658 Ang^3 )

CELL_PARAMETERS (alat=  9.92348860)
   1.063024876   0.000000000   0.000000000
  -0.531512438   0.920606548   0.000000000
   0.000000000   0.000000000   1.710034847

ATOMIC_POSITIONS (crystal)
Mg       0.333333000   0.666667000   0.062942566
Mg       0.666667000   0.333333000   0.562942566
Mg       0.666667000   0.333333000   0.937057434
Mg       0.333333000   0.666667000   0.437057434
Zn       0.000000000   0.000000000   0.000000000
Zn       0.000000000   0.000000000   0.500000000
Zn       0.171313702   0.342627405   0.750000000
Zn       0.828686298   0.171313702   0.250000000
Zn       0.342627405   0.171313702   0.250000000
Zn       0.657372595   0.828686298   0.750000000
Zn       0.171313702   0.828686298   0.750000000
Zn       0.828686298   0.657372595   0.250000000
End final coordinates

     A final scf calculation at the relaxed structure.
     The G-vectors are recalculated for the final unit cell
     Results may differ from those at the preceding step.

     bravais-lattice index     =            0
     lattice parameter (alat)  =       9.9235  a.u.
     unit-cell volume          =    1635.3683 (a.u.)^3
     number of atoms/cell      =           12
     number of atomic types    =            2
     number of electrons       =       180.00
     number of Kohn-Sham states=          108
     kinetic-energy cutoff     =      40.0000  Ry
     charge density cutoff     =     160.0000  Ry
     convergence threshold     =      1.0E-06
     mixing beta               =       0.7000
     number of iterations used =            8  plain     mixing
     Exchange-correlation      = SLA-PZ-NOGX-NOGC ( 1 1 0 0 0)
     EXX-fraction              =        0.00

     celldm(1)=   9.923489  celldm(2)=   0.000000  celldm(3)=   0.000000
     celldm(4)=   0.000000  celldm(5)=   0.000000  celldm(6)=   0.000000

     crystal axes: (cart. coord. in units of alat)
               a(1) = (   1.063025   0.000000   0.000000 )
               a(2) = (  -0.531512   0.920607   0.000000 )
               a(3) = (   0.000000   0.000000   1.710035 )

     reciprocal axes: (cart. coord. in units 2 pi/alat)
               b(1) = (  0.940712  0.543120  0.000000 )
               b(2) = (  0.000000  1.086240  0.000000 )
               b(3) = (  0.000000  0.000000  0.584783 )

     PseudoPot. # 1 for Tb read from file:
     /home/cwx6513/pp.La/Tb.UPF
     MD5 check sum: 3d6088a3f0cf7fd2e110c43f7f8e95c2
     Pseudo is Norm-conserving, Zval = 19.0
     Generated in analytical, separable form
     Using radial grid of 1263 points,  6 beta functions with:
                l(1) =   0
                l(2) =   0
                l(3) =   1
                l(4) =   1
                l(5) =   2
                l(6) =   3

     PseudoPot. # 2 for Pr read from file:
     /home/cwx6513/pp.La/Pr.UPF
     MD5 check sum: 70e2b4b153859e92c8c91247dfc63203
     Pseudo is Norm-conserving, Zval = 13.0
     Generated in analytical, separable form
     Using radial grid of 1255 points,  6 beta functions with:
                l(1) =   0
                l(2) =   0
                l(3) =   1
                l(4) =   1
                l(5) =   2
                l(6) =   3

     atomic species   valence    mass     pseudopotential
        Mg            19.00    24.30500     Tb( 1.00)
        Zn            13.00    65.39000     Pr( 1.00)

     24 Sym. Ops., with inversion, found (12 have fractional translation)

   Cartesian axes

     site n.     atom                  positions (alat units)
         1           Mg  tau(   1) = (  -0.0000005   0.6137380   0.1076340  )
         2           Mg  tau(   2) = (   0.5315130   0.3068685   0.9626514  )
         3           Mg  tau(   3) = (   0.5315130   0.3068685   1.6024009  )
         4           Mg  tau(   4) = (  -0.0000005   0.6137380   0.7473834  )
         5           Zn  tau(   5) = (   0.0000000   0.0000000   0.0000000  )
         6           Zn  tau(   6) = (   0.0000000   0.0000000   0.8550174  )
         7           Zn  tau(   7) = (   0.0000000   0.3154250   1.2825261  )
         8           Zn  tau(   8) = (   0.7898588   0.1577125   0.4275087  )
         9           Zn  tau(   9) = (   0.2731661   0.1577125   0.4275087  )
        10           Zn  tau(  10) = (   0.2583463   0.7628940   1.2825261  )
        11           Zn  tau(  11) = (  -0.2583463   0.7628940   1.2825261  )
        12           Zn  tau(  12) = (   0.5315124   0.6051815   0.4275087  )

     number of k points=    12  gaussian smearing, width (Ry)=  0.1000
                       cart. coord. in units 2pi/alat
        k(    1) = (   0.0000000   0.0000000   0.0000000), wk =   0.0833333
        k(    2) = (   0.0000000   0.0000000   0.1461959), wk =   0.1666667
        k(    3) = (   0.0000000   0.0000000  -0.2923917), wk =   0.0833333
        k(    4) = (   0.0000000   0.3620801   0.0000000), wk =   0.1666667
        k(    5) = (   0.0000000   0.3620801   0.1461959), wk =   0.3333333
        k(    6) = (   0.0000000   0.3620801  -0.2923917), wk =   0.1666667
        k(    7) = (  -0.4703559  -0.2715601   0.0000000), wk =   0.0833333
        k(    8) = (  -0.4703559  -0.2715601   0.1461959), wk =   0.1666667
        k(    9) = (  -0.4703559  -0.2715601  -0.2923917), wk =   0.0833333
        k(   10) = (  -0.4703559   0.0905200   0.0000000), wk =   0.1666667
        k(   11) = (  -0.4703559   0.0905200   0.1461959), wk =   0.3333333
        k(   12) = (  -0.4703559   0.0905200  -0.2923917), wk =   0.1666667

     Largest allocated arrays     est. size (Mb)     dimensions
     Largest temporary arrays     est. size (Mb)     dimensions

     Initial potential from superposition of free atoms
     Check: negative starting charge=   -0.001801

     starting charge  103.92434, renormalised to  180.00000

     negative rho (up, down):  0.312E-02 0.000E+00
     Starting wfc are  160 randomized atomic wfcs

     Writing output data file Prototype-La-hP12-MgZn2.save

     Self-consistent Calculation

[...]

     negative rho (up, down):  0.169E-03 0.000E+00

[...]

     iteration # 12     ecut=    40.00 Ry     beta=0.70
     CG style diagonalization
     c_bands:  1 eigenvalues not converged
     c_bands:  1 eigenvalues not converged
     ethr =  1.57E-06,  avg # of iterations =  4.0

[...]

     total energy              =   -1660.65968176 Ry
     Harris-Foulkes estimate   =   -1660.65968213 Ry
     estimated scf accuracy    <       0.00000106 Ry

     iteration # 16     ecut=    40.00 Ry     beta=0.70
     CG style diagonalization
     ethr =  5.90E-10,  avg # of iterations =  4.4

     End of self-consistent calculation

[...]

          k = 0.0000 0.3621-0.2924 (  6992 PWs)   bands (ev):

[...]

          k =-0.4704 0.0905-0.2924 (  6982 PWs)   bands (ev):

   -51.8189 -51.8189 -51.8156 -51.8156 -20.3391 -20.3391 -20.1798 -20.1798
   -20.1561 -20.1561 -20.1268 -20.1268 -20.1043 -20.1043 -20.0998 -20.0998
   -20.0363 -20.0363 -19.8881 -19.8881 -19.4522 -19.4522 -19.3461 -19.3461
    -2.2662  -2.2662  -1.3553  -1.3553  -0.7186  -0.7185  -0.6361  -0.6360
    -0.4225  -0.4225  -0.1694  -0.1694   0.2991   0.2991   0.7830   0.7830
     1.1184   1.1184   1.3574   1.3574   1.8067   1.8067   1.9140   1.9140
    16.5181  16.5181  16.7614  16.7614  16.8440  16.8441  17.0268  17.0268
    17.1155  17.1155  17.3561  17.3561  17.5524  17.5524  17.6571  17.6571
    18.0321  18.0321  18.2760  18.2761  18.9442  18.9442  19.3997  19.3997
    19.9530  19.9530  20.3234  20.3234  20.7379  20.7379  21.1758  21.1759
    21.4286  21.4286  21.7107  21.7107  22.3286  22.3286  22.4569  22.4569
    22.7569  22.7570  23.7757  23.7757  24.0671  24.0672  24.4942  24.4942
    24.8477  24.8477  25.0631  25.0631  25.3640  25.3640  26.0638  26.0639
    26.6625  26.6628  26.9104  26.9107

     the Fermi energy is    23.3873 ev

!    total energy              =   -1660.65968231 Ry
     Harris-Foulkes estimate   =   -1660.65968236 Ry
     estimated scf accuracy    <       0.00000006 Ry

     The total energy is the sum of the following terms:

     one-electron contribution =    -133.72953752 Ry
     hartree contribution      =     201.34781079 Ry
     xc contribution           =    -182.38056566 Ry
     ewald contribution        =   -1545.35193639 Ry
     smearing contrib. (-TS)   =      -0.54545353 Ry

     convergence has been achieved in  16 iterations

     Forces acting on atoms (Ry/au):

     atom    1 type  1   force =     0.00000000    0.00000000    0.01271860
     atom    2 type  1   force =     0.00000000    0.00000000    0.01271860
     atom    3 type  1   force =     0.00000000    0.00000000   -0.01271860
     atom    4 type  1   force =     0.00000000    0.00000000   -0.01271860
     atom    5 type  2   force =     0.00000000    0.00000000    0.00000000
     atom    6 type  2   force =     0.00000000    0.00000000    0.00000000
     atom    7 type  2   force =     0.00000000    0.00263397    0.00000000
     atom    8 type  2   force =    -0.00228108    0.00131698    0.00000000
     atom    9 type  2   force =     0.00228108    0.00131698    0.00000000
     atom   10 type  2   force =    -0.00228108   -0.00131698    0.00000000
     atom   11 type  2   force =     0.00228108   -0.00131698    0.00000000
     atom   12 type  2   force =     0.00000000   -0.00263397    0.00000000

     Total force =     0.026243     Total SCF correction =     0.000996

     entering subroutine stress ...

          total   stress  (Ry/bohr**3)                   (kbar)     P=  137.23
   0.00097695   0.00000000   0.00000000        143.71      0.00      0.00
   0.00000000   0.00097695   0.00000000          0.00    143.71      0.00
   0.00000000   0.00000000   0.00084462          0.00      0.00    124.25

     Writing output data file Prototype-La-hP12-MgZn2.save

     General routines

     Parallel routines

   This run was terminated on:  18:14:33  22Mar2018

   JOB DONE.