     Program PWSCF v.5.0.2 starts on 23Mar2018 at  0:58:49

     Current dimensions of program PWSCF are:
     Max number of different atomic species (ntypx) = 10
     Max number of k-points (npk) =  40000
     Max angular momentum in pseudopotentials (lmaxx) =  3
     Waiting for input...
     Reading input from standard input

     Subspace diagonalization in iterative solution of the eigenvalue problem:
     a serial algorithm will be used

     bravais-lattice index     =            0
     lattice parameter (alat)  =      12.0168  a.u.
     unit-cell volume          =    1187.3413 (a.u.)^3
     number of atoms/cell      =            8
     number of atomic types    =            2
     number of electrons       =       158.00
     number of Kohn-Sham states=           95
     kinetic-energy cutoff     =      40.0000  Ry
     charge density cutoff     =     160.0000  Ry
     convergence threshold     =      1.0E-04
     mixing beta               =       0.7000
     number of iterations used =            8  plain     mixing
     Exchange-correlation      = SLA-PZ-NOGX-NOGC ( 1 1 0 0 0)
     EXX-fraction              =        0.00
     nstep                     =           50

     celldm(1)=  12.016801  celldm(2)=   0.000000  celldm(3)=   0.000000
     celldm(4)=   0.000000  celldm(5)=   0.000000  celldm(6)=   0.000000

     crystal axes: (cart. coord. in units of alat)
               a(1) = (   1.000000   0.000000   0.000000 )
               a(2) = (  -0.500000   0.866025   0.000000 )
               a(3) = (   0.000000   0.000000   0.790093 )

     reciprocal axes: (cart. coord. in units 2 pi/alat)
               b(1) = (  1.000000  0.577350  0.000000 )
               b(2) = (  0.000000  1.154701  0.000000 )
               b(3) = (  0.000000  0.000000  1.265674 )

     PseudoPot. # 1 for Ho read from file:
     /home/cwx6513/pp.La/Ho.UPF
     MD5 check sum: f307ee11bce99f5b724fa279e3790763
     Pseudo is Norm-conserving, Zval = 21.0
     Generated in analytical, separable form
     Using radial grid of 1265 points,  6 beta functions with:
                l(1) =   0
                l(2) =   0
                l(3) =   1
                l(4) =   1
                l(5) =   2
                l(6) =   3

     PseudoPot. # 2 for Sm read from file:
     /home/cwx6513/pp.La/Sm.UPF
     MD5 check sum: 5079e8b144a06bfcdbc14fb02b96ab09
     Pseudo is Norm-conserving, Zval = 16.0
     Generated in analytical, separable form
     Using radial grid of 1259 points,  6 beta functions with:
                l(1) =   0
                l(2) =   0
                l(3) =   1
                l(4) =   1
                l(5) =   2
                l(6) =   3

     atomic species   valence    mass     pseudopotential
        Mg            21.00    24.30500     Ho( 1.00)
        Cd            16.00   112.41100     Sm( 1.00)

     24 Sym. Ops., with inversion, found (12 have fractional translation)

   Cartesian axes

     site n.     atom                  positions (alat units)
         1           Mg  tau(   1) = (   0.2478935   0.7204716   0.1975233  )
         2           Mg  tau(   2) = (   0.7478935   0.1455538   0.5925699  )
         3           Mg  tau(   3) = (   0.2521065   0.1455538   0.5925699  )
         4           Mg  tau(   4) = (  -0.2478935   0.7204716   0.1975233  )
         5           Mg  tau(   5) = (   0.0000000   0.2911075   0.1975233  )
         6           Mg  tau(   6) = (   0.5000000   0.5749179   0.5925699  )
         7           Cd  tau(   7) = (   0.5000005   0.2886748   0.1975233  )
         8           Cd  tau(   8) = (  -0.0000005   0.5773506   0.5925699  )

     number of k points=    64  gaussian smearing, width (Ry)=  0.1000
                       cart. coord. in units 2pi/alat
        k(    1) = (   0.0000000   0.0000000   0.0000000), wk =   0.0095238
        k(    2) = (   0.0000000   0.0000000   0.1808105), wk =   0.0190476
        k(    3) = (   0.0000000   0.0000000   0.3616210), wk =   0.0190476
        k(    4) = (   0.0000000   0.0000000   0.5424315), wk =   0.0190476
        k(    5) = (   0.0000000   0.1924501   0.0000000), wk =   0.0190476
        k(    6) = (   0.0000000   0.1924501   0.1808105), wk =   0.0380952
        k(    7) = (   0.0000000   0.1924501   0.3616210), wk =   0.0380952
        k(    8) = (   0.0000000   0.1924501   0.5424315), wk =   0.0380952
        k(    9) = (   0.0000000   0.3849002   0.0000000), wk =   0.0190476
        k(   10) = (   0.0000000   0.3849002   0.1808105), wk =   0.0380952
        k(   11) = (   0.0000000   0.3849002   0.3616210), wk =   0.0380952
        k(   12) = (   0.0000000   0.3849002   0.5424315), wk =   0.0380952
        k(   13) = (   0.0000000  -0.5773503   0.0000000), wk =   0.0095238
        k(   14) = (   0.0000000  -0.5773503   0.1808105), wk =   0.0190476
        k(   15) = (   0.0000000  -0.5773503   0.3616210), wk =   0.0190476
        k(   16) = (   0.0000000  -0.5773503   0.5424315), wk =   0.0190476
        k(   17) = (   0.2000000   0.1154701   0.0000000), wk =   0.0190476
        k(   18) = (   0.2000000   0.1154701   0.1808105), wk =   0.0380952
        k(   19) = (   0.2000000   0.1154701   0.3616210), wk =   0.0380952
        k(   20) = (   0.2000000   0.1154701   0.5424315), wk =   0.0380952
        k(   21) = (   0.2000000   0.3079201   0.0000000), wk =   0.0190476
        k(   22) = (   0.2000000   0.3079201   0.1808105), wk =   0.0380952
        k(   23) = (   0.2000000   0.3079201   0.3616210), wk =   0.0380952
        k(   24) = (   0.2000000   0.3079201   0.5424315), wk =   0.0380952
        k(   25) = (   0.2000000   0.5003702   0.0000000), wk =   0.0190476
        k(   26) = (   0.2000000   0.5003702   0.1808105), wk =   0.0380952
        k(   27) = (   0.2000000   0.5003702   0.3616210), wk =   0.0380952
        k(   28) = (   0.2000000   0.5003702   0.5424315), wk =   0.0380952
        k(   29) = (   0.2000000  -0.4618802   0.0000000), wk =   0.0190476
        k(   30) = (   0.2000000  -0.4618802   0.1808105), wk =   0.0380952
        k(   31) = (   0.2000000  -0.4618802   0.3616210), wk =   0.0380952
        k(   32) = (   0.2000000  -0.4618802   0.5424315), wk =   0.0380952
        k(   33) = (   0.2000000  -0.2694301   0.0000000), wk =   0.0190476
        k(   34) = (   0.2000000  -0.2694301   0.1808105), wk =   0.0380952
        k(   35) = (   0.2000000  -0.2694301   0.3616210), wk =   0.0380952
        k(   36) = (   0.2000000  -0.2694301   0.5424315), wk =   0.0380952
        k(   37) = (   0.2000000  -0.0769800   0.0000000), wk =   0.0190476
        k(   38) = (   0.2000000  -0.0769800   0.1808105), wk =   0.0380952
        k(   39) = (   0.2000000  -0.0769800   0.3616210), wk =   0.0380952
        k(   40) = (   0.2000000  -0.0769800   0.5424315), wk =   0.0380952
        k(   41) = (   0.4000000   0.2309401   0.0000000), wk =   0.0190476
        k(   42) = (   0.4000000   0.2309401   0.1808105), wk =   0.0380952
        k(   43) = (   0.4000000   0.2309401   0.3616210), wk =   0.0380952
        k(   44) = (   0.4000000   0.2309401   0.5424315), wk =   0.0380952
        k(   45) = (   0.4000000   0.4233902   0.0000000), wk =   0.0190476
        k(   46) = (   0.4000000   0.4233902   0.1808105), wk =   0.0380952
        k(   47) = (   0.4000000   0.4233902   0.3616210), wk =   0.0380952
        k(   48) = (   0.4000000   0.4233902   0.5424315), wk =   0.0380952
        k(   49) = (   0.4000000   0.6158403   0.0000000), wk =   0.0190476
        k(   50) = (   0.4000000   0.6158403   0.1808105), wk =   0.0380952
        k(   51) = (   0.4000000   0.6158403   0.3616210), wk =   0.0380952
        k(   52) = (   0.4000000   0.6158403   0.5424315), wk =   0.0380952
        k(   53) = (   0.4000000  -0.3464102   0.0000000), wk =   0.0190476
        k(   54) = (   0.4000000  -0.3464102   0.1808105), wk =   0.0380952
        k(   55) = (   0.4000000  -0.3464102   0.3616210), wk =   0.0380952
        k(   56) = (   0.4000000  -0.3464102   0.5424315), wk =   0.0380952
        k(   57) = (   0.4000000  -0.1539601   0.0000000), wk =   0.0190476
        k(   58) = (   0.4000000  -0.1539601   0.1808105), wk =   0.0380952
        k(   59) = (   0.4000000  -0.1539601   0.3616210), wk =   0.0380952
        k(   60) = (   0.4000000  -0.1539601   0.5424315), wk =   0.0380952
        k(   61) = (   0.4000000   0.0384900   0.0000000), wk =   0.0190476
        k(   62) = (   0.4000000   0.0384900   0.1808105), wk =   0.0380952
        k(   63) = (   0.4000000   0.0384900   0.3616210), wk =   0.0380952
        k(   64) = (   0.4000000   0.0384900   0.5424315), wk =   0.0380952

     Largest allocated arrays     est. size (Mb)     dimensions
     Largest temporary arrays     est. size (Mb)     dimensions

     Initial potential from superposition of free atoms

     Starting from uniform charge
     Starting wfc are    0 randomized atomic wfcs

     Self-consistent Calculation

     iteration #  1     ecut=    40.00 Ry     beta=0.70
     CG style diagonalization
     c_bands:  2 eigenvalues not converged
     c_bands:  1 eigenvalues not converged
     c_bands:  1 eigenvalues not converged
     c_bands:  1 eigenvalues not converged
     c_bands:  1 eigenvalues not converged
     c_bands:  1 eigenvalues not converged
     c_bands:  1 eigenvalues not converged
     c_bands:  2 eigenvalues not converged
     c_bands:  2 eigenvalues not converged
     c_bands:  1 eigenvalues not converged
     c_bands:  1 eigenvalues not converged
     c_bands:  1 eigenvalues not converged
     c_bands:  1 eigenvalues not converged
     c_bands:  1 eigenvalues not converged
     c_bands:  2 eigenvalues not converged
     c_bands:  2 eigenvalues not converged
     c_bands:  2 eigenvalues not converged
     c_bands:  1 eigenvalues not converged
     c_bands:  1 eigenvalues not converged
     c_bands:  1 eigenvalues not converged
     c_bands:  1 eigenvalues not converged
     c_bands:  1 eigenvalues not converged
     c_bands:  1 eigenvalues not converged
     c_bands:  1 eigenvalues not converged
     c_bands:  1 eigenvalues not converged
     c_bands:  1 eigenvalues not converged
     c_bands:  1 eigenvalues not converged
     c_bands:  1 eigenvalues not converged
     c_bands:  1 eigenvalues not converged
     c_bands:  1 eigenvalues not converged
     ethr =  1.00E-02,  avg # of iterations = 13.0

     total energy              =   -1523.27935245 Ry
     Harris-Foulkes estimate   =   -2631.92622043 Ry
     estimated scf accuracy    <    1369.42067366 Ry

[...]

     iteration #  4     ecut=    40.00 Ry     beta=0.70
     CG style diagonalization
     ethr =  1.00E-02,  avg # of iterations =  6.6

[...]

     End of self-consistent calculation

          k = 0.0000 0.0000 0.0000 (  5047 PWs)   bands (ev):

   -68.2336 -68.2322 -68.2322 -68.2154 -68.2153 -68.2104 -33.1937 -33.1928
   -32.4851 -32.4607 -32.4401 -32.4144 -32.4143 -32.3906 -32.3906 -32.3716
   -32.3716 -32.3373 -32.3222 -32.3222 -32.3078 -32.3078 -32.2828 -32.2828
   -32.2808 -32.2534  -8.4357  -8.4234  -8.4157  -8.4157  -8.4055  -8.4055
    10.2104  10.3552  10.3553  10.4033  10.5062  10.8501  10.8501  10.8673
[...]
        k(   12) = (   0.0000000   0.3876271   0.5328102), wk =   0.0380952
        k(   13) = (   0.0000000  -0.5814407   0.0000000), wk =   0.0095238
        k(   14) = (   0.0000000  -0.5814407   0.1776034), wk =   0.0190476
        k(   15) = (   0.0000000  -0.5814407   0.3552068), wk =   0.0190476
        k(   16) = (   0.0000000  -0.5814407   0.5328102), wk =   0.0190476
        k(   17) = (   0.2014170   0.1162881   0.0000000), wk =   0.0190476
        k(   18) = (   0.2014170   0.1162881   0.1776034), wk =   0.0380952
        k(   19) = (   0.2014170   0.1162881   0.3552068), wk =   0.0380952
        k(   20) = (   0.2014170   0.1162881   0.5328102), wk =   0.0380952
        k(   21) = (   0.2014170   0.3101017   0.0000000), wk =   0.0190476
        k(   22) = (   0.2014170   0.3101017   0.1776034), wk =   0.0380952
        k(   23) = (   0.2014170   0.3101017   0.3552068), wk =   0.0380952
        k(   24) = (   0.2014170   0.3101017   0.5328102), wk =   0.0380952
        k(   25) = (   0.2014170   0.5039153   0.0000000), wk =   0.0190476
        k(   26) = (   0.2014170   0.5039153   0.1776034), wk =   0.0380952
        k(   27) = (   0.2014170   0.5039153   0.3552068), wk =   0.0380952
        k(   28) = (   0.2014170   0.5039153   0.5328102), wk =   0.0380952
        k(   29) = (   0.2014170  -0.4651526   0.0000000), wk =   0.0190476
        k(   30) = (   0.2014170  -0.4651526   0.1776034), wk =   0.0380952
        k(   31) = (   0.2014170  -0.4651526   0.3552068), wk =   0.0380952
        k(   32) = (   0.2014170  -0.4651526   0.5328102), wk =   0.0380952
        k(   33) = (   0.2014170  -0.2713390   0.0000000), wk =   0.0190476
        k(   34) = (   0.2014170  -0.2713390   0.1776034), wk =   0.0380952
        k(   35) = (   0.2014170  -0.2713390   0.3552068), wk =   0.0380952
        k(   36) = (   0.2014170  -0.2713390   0.5328102), wk =   0.0380952
        k(   37) = (   0.2014170  -0.0775254   0.0000000), wk =   0.0190476
        k(   38) = (   0.2014170  -0.0775254   0.1776034), wk =   0.0380952
        k(   39) = (   0.2014170  -0.0775254   0.3552068), wk =   0.0380952
        k(   40) = (   0.2014170  -0.0775254   0.5328102), wk =   0.0380952
        k(   41) = (   0.4028339   0.2325763   0.0000000), wk =   0.0190476
        k(   42) = (   0.4028339   0.2325763   0.1776034), wk =   0.0380952
        k(   43) = (   0.4028339   0.2325763   0.3552068), wk =   0.0380952
        k(   44) = (   0.4028339   0.2325763   0.5328102), wk =   0.0380952
        k(   45) = (   0.4028339   0.4263899   0.0000000), wk =   0.0190476
        k(   46) = (   0.4028339   0.4263899   0.1776034), wk =   0.0380952
        k(   47) = (   0.4028339   0.4263899   0.3552068), wk =   0.0380952
        k(   48) = (   0.4028339   0.4263899   0.5328102), wk =   0.0380952
        k(   49) = (   0.4028339   0.6202034   0.0000000), wk =   0.0190476
        k(   50) = (   0.4028339   0.6202034   0.1776034), wk =   0.0380952
        k(   51) = (   0.4028339   0.6202034   0.3552068), wk =   0.0380952
        k(   52) = (   0.4028339   0.6202034   0.5328102), wk =   0.0380952
        k(   53) = (   0.4028339  -0.3488644   0.0000000), wk =   0.0190476
        k(   54) = (   0.4028339  -0.3488644   0.1776034), wk =   0.0380952
        k(   55) = (   0.4028339  -0.3488644   0.3552068), wk =   0.0380952
        k(   56) = (   0.4028339  -0.3488644   0.5328102), wk =   0.0380952
        k(   57) = (   0.4028339  -0.1550509   0.0000000), wk =   0.0190476
        k(   58) = (   0.4028339  -0.1550509   0.1776034), wk =   0.0380952
        k(   59) = (   0.4028339  -0.1550509   0.3552068), wk =   0.0380952
        k(   60) = (   0.4028339  -0.1550509   0.5328102), wk =   0.0380952
        k(   61) = (   0.4028339   0.0387627   0.0000000), wk =   0.0190476
        k(   62) = (   0.4028339   0.0387627   0.1776034), wk =   0.0380952
        k(   63) = (   0.4028339   0.0387627   0.3552068), wk =   0.0380952
        k(   64) = (   0.4028339   0.0387627   0.5328102), wk =   0.0380952

[...]

     The maximum number of steps has been reached.

     End of BFGS Geometry Optimization
Begin final coordinates
     new unit-cell volume =   1191.83408 a.u.^3 (   176.61159 Ang^3 )

CELL_PARAMETERS (alat= 12.01680127)
   0.992964996   0.000000000   0.000000000
  -0.496482498   0.859932911   0.000000000
   0.000000000   0.000000000   0.804360351

ATOMIC_POSITIONS (crystal)
Mg       0.661677499   0.830838749   0.250000000
Mg       0.830838749   0.169161251   0.750000000
Mg       0.338322501   0.169161251   0.750000000
Mg       0.169161251   0.830838749   0.250000000
Mg       0.169161251   0.338322501   0.250000000
Mg       0.830838749   0.661677499   0.750000000
Cd       0.666667000   0.333333000   0.250000000
Cd       0.333333000   0.666667000   0.750000000
End final coordinates

     A final scf calculation at the relaxed structure.
     The G-vectors are recalculated for the final unit cell
     Results may differ from those at the preceding step.

     bravais-lattice index     =            0
     lattice parameter (alat)  =      12.0168  a.u.
     unit-cell volume          =    1191.8341 (a.u.)^3
     number of atoms/cell      =            8
     number of atomic types    =            2
     number of electrons       =       158.00
     number of Kohn-Sham states=           95
     kinetic-energy cutoff     =      40.0000  Ry
     charge density cutoff     =     160.0000  Ry
     convergence threshold     =      2.7E-05
     mixing beta               =       0.7000
     number of iterations used =            8  plain     mixing
     Exchange-correlation      = SLA-PZ-NOGX-NOGC ( 1 1 0 0 0)
     EXX-fraction              =        0.00

     celldm(1)=  12.016801  celldm(2)=   0.000000  celldm(3)=   0.000000
     celldm(4)=   0.000000  celldm(5)=   0.000000  celldm(6)=   0.000000

     crystal axes: (cart. coord. in units of alat)
               a(1) = (   0.992965   0.000000   0.000000 )
               a(2) = (  -0.496482   0.859933   0.000000 )
               a(3) = (   0.000000   0.000000   0.804360 )

     reciprocal axes: (cart. coord. in units 2 pi/alat)
               b(1) = (  1.007085  0.581441  0.000000 )
               b(2) = (  0.000000  1.162881  0.000000 )
               b(3) = (  0.000000  0.000000  1.243224 )

     PseudoPot. # 1 for Ho read from file:
     /home/cwx6513/pp.La/Ho.UPF
     MD5 check sum: f307ee11bce99f5b724fa279e3790763
     Pseudo is Norm-conserving, Zval = 21.0
     Generated in analytical, separable form
     Using radial grid of 1265 points,  6 beta functions with:
                l(1) =   0
                l(2) =   0
                l(3) =   1
                l(4) =   1
                l(5) =   2
                l(6) =   3

     PseudoPot. # 2 for Sm read from file:
     /home/cwx6513/pp.La/Sm.UPF
     MD5 check sum: 5079e8b144a06bfcdbc14fb02b96ab09
     Pseudo is Norm-conserving, Zval = 16.0
     Generated in analytical, separable form
     Using radial grid of 1259 points,  6 beta functions with:
                l(1) =   0
                l(2) =   0
                l(3) =   1
                l(4) =   1
                l(5) =   2
                l(6) =   3

     atomic species   valence    mass     pseudopotential
        Mg            21.00    24.30500     Ho( 1.00)
        Cd            16.00   112.41100     Sm( 1.00)

     24 Sym. Ops., with inversion, found (12 have fractional translation)

   Cartesian axes

     site n.     atom                  positions (alat units)
         1           Mg  tau(   1) = (   0.2445257   0.7144656   0.2010901  )
         2           Mg  tau(   2) = (   0.7410082   0.1454673   0.6032703  )
         3           Mg  tau(   3) = (   0.2519568   0.1454673   0.6032703  )
         4           Mg  tau(   4) = (  -0.2445257   0.7144656   0.2010901  )
         5           Mg  tau(   5) = (   0.0000000   0.2909347   0.2010901  )
         6           Mg  tau(   6) = (   0.4964825   0.5689983   0.6032703  )
         7           Cd  tau(   7) = (   0.4964830   0.2866440   0.2010901  )
         8           Cd  tau(   8) = (  -0.0000005   0.5732889   0.6032703  )

     number of k points=    64  gaussian smearing, width (Ry)=  0.1000
                       cart. coord. in units 2pi/alat
        k(    1) = (   0.0000000   0.0000000   0.0000000), wk =   0.0095238
        k(    2) = (   0.0000000   0.0000000   0.1776034), wk =   0.0190476
        k(    3) = (   0.0000000   0.0000000   0.3552068), wk =   0.0190476
        k(    4) = (   0.0000000   0.0000000   0.5328102), wk =   0.0190476
        k(    5) = (   0.0000000   0.1938136   0.0000000), wk =   0.0190476
        k(    6) = (   0.0000000   0.1938136   0.1776034), wk =   0.0380952
        k(    7) = (   0.0000000   0.1938136   0.3552068), wk =   0.0380952
        k(    8) = (   0.0000000   0.1938136   0.5328102), wk =   0.0380952
        k(    9) = (   0.0000000   0.3876271   0.0000000), wk =   0.0190476
        k(   10) = (   0.0000000   0.3876271   0.1776034), wk =   0.0380952
        k(   11) = (   0.0000000   0.3876271   0.3552068), wk =   0.0380952
        k(   12) = (   0.0000000   0.3876271   0.5328102), wk =   0.0380952
        k(   13) = (   0.0000000  -0.5814407   0.0000000), wk =   0.0095238
        k(   14) = (   0.0000000  -0.5814407   0.1776034), wk =   0.0190476
        k(   15) = (   0.0000000  -0.5814407   0.3552068), wk =   0.0190476
        k(   16) = (   0.0000000  -0.5814407   0.5328102), wk =   0.0190476
        k(   17) = (   0.2014170   0.1162881   0.0000000), wk =   0.0190476
        k(   18) = (   0.2014170   0.1162881   0.1776034), wk =   0.0380952
        k(   19) = (   0.2014170   0.1162881   0.3552068), wk =   0.0380952
        k(   20) = (   0.2014170   0.1162881   0.5328102), wk =   0.0380952
        k(   21) = (   0.2014170   0.3101017   0.0000000), wk =   0.0190476
        k(   22) = (   0.2014170   0.3101017   0.1776034), wk =   0.0380952
        k(   23) = (   0.2014170   0.3101017   0.3552068), wk =   0.0380952
        k(   24) = (   0.2014170   0.3101017   0.5328102), wk =   0.0380952
        k(   25) = (   0.2014170   0.5039153   0.0000000), wk =   0.0190476
        k(   26) = (   0.2014170   0.5039153   0.1776034), wk =   0.0380952
        k(   27) = (   0.2014170   0.5039153   0.3552068), wk =   0.0380952
        k(   28) = (   0.2014170   0.5039153   0.5328102), wk =   0.0380952
        k(   29) = (   0.2014170  -0.4651526   0.0000000), wk =   0.0190476
        k(   30) = (   0.2014170  -0.4651526   0.1776034), wk =   0.0380952
        k(   31) = (   0.2014170  -0.4651526   0.3552068), wk =   0.0380952
        k(   32) = (   0.2014170  -0.4651526   0.5328102), wk =   0.0380952
        k(   33) = (   0.2014170  -0.2713390   0.0000000), wk =   0.0190476
        k(   34) = (   0.2014170  -0.2713390   0.1776034), wk =   0.0380952
        k(   35) = (   0.2014170  -0.2713390   0.3552068), wk =   0.0380952
        k(   36) = (   0.2014170  -0.2713390   0.5328102), wk =   0.0380952
        k(   37) = (   0.2014170  -0.0775254   0.0000000), wk =   0.0190476
        k(   38) = (   0.2014170  -0.0775254   0.1776034), wk =   0.0380952
        k(   39) = (   0.2014170  -0.0775254   0.3552068), wk =   0.0380952
        k(   40) = (   0.2014170  -0.0775254   0.5328102), wk =   0.0380952
        k(   41) = (   0.4028339   0.2325763   0.0000000), wk =   0.0190476
        k(   42) = (   0.4028339   0.2325763   0.1776034), wk =   0.0380952
        k(   43) = (   0.4028339   0.2325763   0.3552068), wk =   0.0380952
        k(   44) = (   0.4028339   0.2325763   0.5328102), wk =   0.0380952
        k(   45) = (   0.4028339   0.4263899   0.0000000), wk =   0.0190476
        k(   46) = (   0.4028339   0.4263899   0.1776034), wk =   0.0380952
        k(   47) = (   0.4028339   0.4263899   0.3552068), wk =   0.0380952
        k(   48) = (   0.4028339   0.4263899   0.5328102), wk =   0.0380952
        k(   49) = (   0.4028339   0.6202034   0.0000000), wk =   0.0190476
        k(   50) = (   0.4028339   0.6202034   0.1776034), wk =   0.0380952
        k(   51) = (   0.4028339   0.6202034   0.3552068), wk =   0.0380952
        k(   52) = (   0.4028339   0.6202034   0.5328102), wk =   0.0380952
        k(   53) = (   0.4028339  -0.3488644   0.0000000), wk =   0.0190476
        k(   54) = (   0.4028339  -0.3488644   0.1776034), wk =   0.0380952
        k(   55) = (   0.4028339  -0.3488644   0.3552068), wk =   0.0380952
        k(   56) = (   0.4028339  -0.3488644   0.5328102), wk =   0.0380952
        k(   57) = (   0.4028339  -0.1550509   0.0000000), wk =   0.0190476
        k(   58) = (   0.4028339  -0.1550509   0.1776034), wk =   0.0380952
        k(   59) = (   0.4028339  -0.1550509   0.3552068), wk =   0.0380952
        k(   60) = (   0.4028339  -0.1550509   0.5328102), wk =   0.0380952
        k(   61) = (   0.4028339   0.0387627   0.0000000), wk =   0.0190476
        k(   62) = (   0.4028339   0.0387627   0.1776034), wk =   0.0380952
        k(   63) = (   0.4028339   0.0387627   0.3552068), wk =   0.0380952
        k(   64) = (   0.4028339   0.0387627   0.5328102), wk =   0.0380952

     Largest allocated arrays     est. size (Mb)     dimensions
     Largest temporary arrays     est. size (Mb)     dimensions

     Initial potential from superposition of free atoms

     Starting from uniform charge
     Starting wfc are    0 randomized atomic wfcs

     Writing output data file Prototype-La-hP8-Mg3Cd.save

     Self-consistent Calculation

[...]

     iteration #  7     ecut=    40.00 Ry     beta=0.70
     CG style diagonalization
     ethr =  5.07E-04,  avg # of iterations =  4.1

[...]

     total energy              =   -2064.81117380 Ry
     Harris-Foulkes estimate   =   -2064.81125686 Ry
     estimated scf accuracy    <       0.00014602 Ry

     iteration # 11     ecut=    40.00 Ry     beta=0.70
     CG style diagonalization
     c_bands:  1 eigenvalues not converged
     ethr =  9.24E-08,  avg # of iterations =  3.9

     End of self-consistent calculation

[...]

          k = 0.4028 0.0388 0.5328 (  5090 PWs)   bands (ev):

   -68.3259 -68.3250 -68.3229 -68.3223 -68.3176 -68.3154 -33.3147 -33.3146
   -32.5505 -32.5446 -32.5092 -32.5066 -32.5019 -32.4939 -32.4653 -32.4560
   -32.4439 -32.4370 -32.4328 -32.4287 -32.4130 -32.4037 -32.4019 -32.3952
   -32.3850 -32.3816  -8.5437  -8.5409  -8.5373  -8.5351  -8.5310  -8.5305
    10.4776  10.5048  10.5990  10.6708  10.7124  10.7776  10.7953  10.8716
    10.8823  10.8958  11.0940  11.1506  11.3850  11.4682  11.4952  11.5137
    11.5593  11.7239  11.7527  11.8218  11.8670  11.9149  11.9890  12.0375
    12.0653  12.0856  12.3659  12.3922  12.5459  12.6596  14.5164  15.5733
    16.6639  17.1792  17.8747  18.2904  19.8404  20.1421  20.3012  20.5069
    21.2862  21.5346  21.7541  21.8823  22.3160  22.4809  23.3548  23.5342
    24.4838  24.8906  26.2127  26.8849  27.3029  27.5040  28.4023  28.7148
    29.4665  29.5569  30.2180  30.4188  30.7814  30.9758  31.2562

     the Fermi energy is    23.7361 ev

!    total energy              =   -2064.81120426 Ry
     Harris-Foulkes estimate   =   -2064.81122196 Ry
     estimated scf accuracy    <       0.00001977 Ry

     The total energy is the sum of the following terms:

     one-electron contribution =    -515.35520976 Ry
     hartree contribution      =     349.20358117 Ry
     xc contribution           =    -187.76997474 Ry
     ewald contribution        =   -1710.62133312 Ry
     smearing contrib. (-TS)   =      -0.26826781 Ry

     convergence has been achieved in  11 iterations

     Forces acting on atoms (Ry/au):

     atom    1 type  1   force =    -0.02166619   -0.01250898    0.00000000
     atom    2 type  1   force =    -0.02166619    0.01250898    0.00000000
     atom    3 type  1   force =     0.02166619    0.01250898    0.00000000
     atom    4 type  1   force =     0.02166619   -0.01250898    0.00000000
     atom    5 type  1   force =     0.00000000    0.02501797    0.00000000
     atom    6 type  1   force =     0.00000000   -0.02501797    0.00000000
     atom    7 type  2   force =     0.00000000    0.00000000    0.00000000
     atom    8 type  2   force =     0.00000000    0.00000000    0.00000000

     Total force =     0.061281     Total SCF correction =     0.000000

     entering subroutine stress ...

          total   stress  (Ry/bohr**3)                   (kbar)     P= -289.11
  -0.00204994   0.00000000   0.00000000       -301.56      0.00      0.00
   0.00000000  -0.00204994   0.00000000          0.00   -301.56      0.00
   0.00000000   0.00000000  -0.00179611          0.00      0.00   -264.22

     Writing output data file Prototype-La-hP8-Mg3Cd.save

     General routines

     Parallel routines

   This run was terminated on:   2: 1:50  23Mar2018

   JOB DONE.