     Program PWSCF v.5.0.2 starts on 22Mar2018 at 16: 5:48

     Current dimensions of program PWSCF are:
     Max number of different atomic species (ntypx) = 10
     Max number of k-points (npk) =  40000
     Max angular momentum in pseudopotentials (lmaxx) =  3
     Waiting for input...
     Reading input from standard input

     Subspace diagonalization in iterative solution of the eigenvalue problem:
     a serial algorithm will be used

     bravais-lattice index     =            0
     lattice parameter (alat)  =       8.5346  a.u.
     unit-cell volume          =     621.6493 (a.u.)^3
     number of atoms/cell      =            8
     number of atomic types    =            2
     number of electrons       =       174.00
     number of Kohn-Sham states=          104
     kinetic-energy cutoff     =      40.0000  Ry
     charge density cutoff     =     160.0000  Ry
     convergence threshold     =      1.0E-04
     mixing beta               =       0.7000
     number of iterations used =            8  plain     mixing
     Exchange-correlation      = SLA-PZ-NOGX-NOGC ( 1 1 0 0 0)
     EXX-fraction              =        0.00
     nstep                     =           50

     celldm(1)=   8.534573  celldm(2)=   0.000000  celldm(3)=   0.000000
     celldm(4)=   0.000000  celldm(5)=   0.000000  celldm(6)=   0.000000

     crystal axes: (cart. coord. in units of alat)
               a(1) = (   1.000000   0.000000   0.000000 )
               a(2) = (   0.000000   1.000000   0.000000 )
               a(3) = (   0.000000   0.000000   1.000000 )

     reciprocal axes: (cart. coord. in units 2 pi/alat)
               b(1) = (  1.000000  0.000000  0.000000 )
               b(2) = (  0.000000  1.000000  0.000000 )
               b(3) = (  0.000000  0.000000  1.000000 )

     PseudoPot. # 1 for Tm read from file:
     /home/cwx6513/pp.La/Tm.UPF
     MD5 check sum: 245516e0878b5372ceeb9443ded2c4e1
     Pseudo is Norm-conserving, Zval = 23.0
     Generated in analytical, separable form
     Using radial grid of 1269 points,  6 beta functions with:
                l(1) =   0
                l(2) =   0
                l(3) =   1
                l(4) =   1
                l(5) =   2
                l(6) =   3

     PseudoPot. # 2 for Gd read from file:
     /home/cwx6513/pp.La/Gd.UPF
     MD5 check sum: 09a8be538722f05520810cb6aac0efd2
     Pseudo is Norm-conserving, Zval = 18.0
     Generated in analytical, separable form
     Using radial grid of 1263 points,  6 beta functions with:
                l(1) =   0
                l(2) =   0
                l(3) =   1
                l(4) =   1
                l(5) =   2
                l(6) =   3

     atomic species   valence    mass     pseudopotential
        Cr            23.00    51.99610     Tm( 1.00)
        Si            18.00    28.08550     Gd( 1.00)

     48 Sym. Ops., with inversion, found (24 have fractional translation)

   Cartesian axes

     site n.     atom                  positions (alat units)
         1           Cr  tau(   1) = (   0.0000000   0.5000000   0.2500000  )
         2           Cr  tau(   2) = (   0.0000000   0.5000000   0.7500000  )
         3           Cr  tau(   3) = (   0.5000000   0.7500000   0.0000000  )
         4           Cr  tau(   4) = (   0.5000000   0.2500000   0.0000000  )
         5           Cr  tau(   5) = (   0.7500000   0.0000000   0.5000000  )
         6           Cr  tau(   6) = (   0.2500000   0.0000000   0.5000000  )
         7           Si  tau(   7) = (   0.5000000   0.5000000   0.5000000  )
         8           Si  tau(   8) = (   0.0000000   0.0000000   0.0000000  )

     number of k points=    48  gaussian smearing, width (Ry)=  0.1000
                       cart. coord. in units 2pi/alat
        k(    1) = (   0.0000000   0.0000000   0.0000000), wk =   0.0095238
        k(    2) = (   0.0000000   0.0000000   0.1428571), wk =   0.0190476
        k(    3) = (   0.0000000   0.0000000   0.2857143), wk =   0.0190476
        k(    4) = (   0.0000000   0.0000000   0.4285714), wk =   0.0190476
        k(    5) = (   0.0000000   0.1666667   0.0000000), wk =   0.0190476
        k(    6) = (   0.0000000   0.1666667   0.1428571), wk =   0.0380952
        k(    7) = (   0.0000000   0.1666667   0.2857143), wk =   0.0380952
        k(    8) = (   0.0000000   0.1666667   0.4285714), wk =   0.0380952
        k(    9) = (   0.0000000   0.3333333   0.0000000), wk =   0.0190476
        k(   10) = (   0.0000000   0.3333333   0.1428571), wk =   0.0380952
        k(   11) = (   0.0000000   0.3333333   0.2857143), wk =   0.0380952
        k(   12) = (   0.0000000   0.3333333   0.4285714), wk =   0.0380952
        k(   13) = (   0.0000000  -0.5000000   0.0000000), wk =   0.0095238
        k(   14) = (   0.0000000  -0.5000000   0.1428571), wk =   0.0190476
        k(   15) = (   0.0000000  -0.5000000   0.2857143), wk =   0.0190476
        k(   16) = (   0.0000000  -0.5000000   0.4285714), wk =   0.0190476
        k(   17) = (   0.2000000   0.0000000   0.0000000), wk =   0.0190476
        k(   18) = (   0.2000000   0.0000000   0.1428571), wk =   0.0380952
        k(   19) = (   0.2000000   0.0000000   0.2857143), wk =   0.0380952
        k(   20) = (   0.2000000   0.0000000   0.4285714), wk =   0.0380952
        k(   21) = (   0.2000000   0.1666667   0.0000000), wk =   0.0380952
        k(   22) = (   0.2000000   0.1666667   0.1428571), wk =   0.0761905
        k(   23) = (   0.2000000   0.1666667   0.2857143), wk =   0.0761905
        k(   24) = (   0.2000000   0.1666667   0.4285714), wk =   0.0761905
        k(   25) = (   0.2000000   0.3333333   0.0000000), wk =   0.0380952
        k(   26) = (   0.2000000   0.3333333   0.1428571), wk =   0.0761905
        k(   27) = (   0.2000000   0.3333333   0.2857143), wk =   0.0761905
        k(   28) = (   0.2000000   0.3333333   0.4285714), wk =   0.0761905
        k(   29) = (   0.2000000  -0.5000000   0.0000000), wk =   0.0190476
        k(   30) = (   0.2000000  -0.5000000   0.1428571), wk =   0.0380952
        k(   31) = (   0.2000000  -0.5000000   0.2857143), wk =   0.0380952
        k(   32) = (   0.2000000  -0.5000000   0.4285714), wk =   0.0380952
        k(   33) = (   0.4000000   0.0000000   0.0000000), wk =   0.0190476
        k(   34) = (   0.4000000   0.0000000   0.1428571), wk =   0.0380952
        k(   35) = (   0.4000000   0.0000000   0.2857143), wk =   0.0380952
        k(   36) = (   0.4000000   0.0000000   0.4285714), wk =   0.0380952
        k(   37) = (   0.4000000   0.1666667   0.0000000), wk =   0.0380952
        k(   38) = (   0.4000000   0.1666667   0.1428571), wk =   0.0761905
        k(   39) = (   0.4000000   0.1666667   0.2857143), wk =   0.0761905
        k(   40) = (   0.4000000   0.1666667   0.4285714), wk =   0.0761905
        k(   41) = (   0.4000000   0.3333333   0.0000000), wk =   0.0380952
        k(   42) = (   0.4000000   0.3333333   0.1428571), wk =   0.0761905
        k(   43) = (   0.4000000   0.3333333   0.2857143), wk =   0.0761905
        k(   44) = (   0.4000000   0.3333333   0.4285714), wk =   0.0761905
        k(   45) = (   0.4000000  -0.5000000   0.0000000), wk =   0.0190476
        k(   46) = (   0.4000000  -0.5000000   0.1428571), wk =   0.0380952
        k(   47) = (   0.4000000  -0.5000000   0.2857143), wk =   0.0380952
        k(   48) = (   0.4000000  -0.5000000   0.4285714), wk =   0.0380952

     Largest allocated arrays     est. size (Mb)     dimensions
     Largest temporary arrays     est. size (Mb)     dimensions

     Initial potential from superposition of free atoms

     Starting from uniform charge
     Starting wfc are    0 randomized atomic wfcs

     Self-consistent Calculation

     iteration #  1     ecut=    40.00 Ry     beta=0.70
     CG style diagonalization
     c_bands:  5 eigenvalues not converged
     c_bands:  3 eigenvalues not converged
     c_bands:  3 eigenvalues not converged
     c_bands:  2 eigenvalues not converged
     c_bands:  2 eigenvalues not converged
     c_bands:  1 eigenvalues not converged
     c_bands:  1 eigenvalues not converged
     c_bands:  1 eigenvalues not converged
     c_bands:  2 eigenvalues not converged
     c_bands:  4 eigenvalues not converged
     c_bands:  3 eigenvalues not converged
     c_bands:  4 eigenvalues not converged
     c_bands:  4 eigenvalues not converged
     c_bands:  1 eigenvalues not converged
     c_bands:  1 eigenvalues not converged
     c_bands:  3 eigenvalues not converged
     c_bands:  2 eigenvalues not converged
     c_bands:  3 eigenvalues not converged
     c_bands:  1 eigenvalues not converged
     c_bands:  2 eigenvalues not converged
     c_bands:  2 eigenvalues not converged
     c_bands:  2 eigenvalues not converged
     c_bands:  2 eigenvalues not converged
     c_bands:  5 eigenvalues not converged
     c_bands:  2 eigenvalues not converged
     c_bands:  3 eigenvalues not converged
     c_bands:  5 eigenvalues not converged
     c_bands:  1 eigenvalues not converged
     c_bands:  1 eigenvalues not converged
     c_bands:  4 eigenvalues not converged
     c_bands:  1 eigenvalues not converged
     c_bands:  2 eigenvalues not converged
     c_bands:  2 eigenvalues not converged
     c_bands:  1 eigenvalues not converged
     c_bands:  4 eigenvalues not converged
     c_bands:  3 eigenvalues not converged
     c_bands:  1 eigenvalues not converged
     ethr =  1.00E-02,  avg # of iterations = 13.6

     total energy              =   -2204.34748667 Ry
     Harris-Foulkes estimate   =   -3058.73816239 Ry
     estimated scf accuracy    <    1062.21786650 Ry

[...]

     iteration #  4     ecut=    40.00 Ry     beta=0.70
     CG style diagonalization
     ethr =  1.00E-02,  avg # of iterations =  4.7

[...]

     End of self-consistent calculation

          k = 0.0000 0.0000 0.0000 (  2601 PWs)   bands (ev):

   -61.2697 -61.2697 -61.1438 -60.8722 -60.8722 -60.8722 -21.5867 -21.5499
   -21.5499 -20.6237 -20.4758 -20.1828 -20.1828 -20.1828 -19.8477 -19.8477
   -19.8477 -19.7633 -19.7633 -19.7633 -19.6844 -19.6844 -19.6844 -19.4116
   -19.4116 -19.4116   7.6336   7.6336   7.6336   7.6449   7.6449   7.6449
    23.1350  23.1350  23.1535  24.7898  24.7898  24.7898  26.5828  26.7692
    26.7692  26.7692  27.4291  27.4291  27.5102  27.5102  27.5102  27.6655
    29.0547  29.0547  29.0547  29.0859  30.0086  30.0086  30.1401  30.1401
    30.1401  30.1724  30.1724  30.1724  31.0151  31.0151  31.0151  35.5194
    35.5194  40.5607  40.5607  40.8971  40.8971  40.8971  40.9200  40.9200
    40.9200  41.3149  41.3149  41.3149  45.9457  48.2284  48.2284  48.4549
    48.4549  48.4549  51.5190  51.5190  51.5190  51.5581  51.5581  51.8825
    54.7929  54.7929  54.7929  54.9798  54.9798  54.9798  55.0888  55.3231
    55.3231  55.3231  56.4761  56.4762  56.4762  58.2185  60.3994  60.3971

[...]

     the Fermi energy is    53.2874 ev

!    total energy              =   -2595.90050908 Ry
     Harris-Foulkes estimate   =   -2595.90050968 Ry
     estimated scf accuracy    <       0.00000086 Ry

     The total energy is the sum of the following terms:

     one-electron contribution =     -73.63959564 Ry
[...]

     number of scf cycles    =   3
     number of bfgs steps    =   2

     enthalpy old            =   -2599.9470984410 Ry
     enthalpy new            =   -2597.4492928229 Ry

     CASE: enthalpy_new > enthalpy_old

     new trust radius        =       0.1416998062 bohr

     trust_radius < trust_radius_min

     resetting bfgs history

     Message from routine bfgs:
     history already reset at previous step: stopping
     new conv_thr            =       0.0000010000 Ry

     new unit-cell volume =   1048.79777 a.u.^3 (   155.41579 Ang^3 )

[...]

ATOMIC_POSITIONS (crystal)
Cr       0.000000000   0.500000000   0.250000000
Cr       0.000000000   0.500000000   0.750000000
Cr       0.500000000   0.750000000   0.000000000
Cr       0.500000000   0.250000000   0.000000000
Cr       0.750000000   0.000000000   0.500000000
Cr       0.250000000   0.000000000   0.500000000
Si       0.500000000   0.500000000   0.500000000
Si       0.000000000   0.000000000   0.000000000

     Writing output data file Prototype-La-cP8-Cr3Si.save
     NEW-OLD atomic charge density approx. for the potential
     NEW k-points:
        k(    1) = (   0.0000000   0.0000000   0.0000000), wk =   0.0095238
        k(    2) = (   0.0000000   0.0000000   0.1200015), wk =   0.0190476
        k(    3) = (   0.0000000   0.0000000   0.2400029), wk =   0.0190476
        k(    4) = (   0.0000000   0.0000000   0.3600044), wk =   0.0190476
        k(    5) = (   0.0000000   0.1400017   0.0000000), wk =   0.0190476
        k(    6) = (   0.0000000   0.1400017   0.1200015), wk =   0.0380952
        k(    7) = (   0.0000000   0.1400017   0.2400029), wk =   0.0380952
        k(    8) = (   0.0000000   0.1400017   0.3600044), wk =   0.0380952
        k(    9) = (   0.0000000   0.2800034   0.0000000), wk =   0.0190476
        k(   10) = (   0.0000000   0.2800034   0.1200015), wk =   0.0380952
        k(   11) = (   0.0000000   0.2800034   0.2400029), wk =   0.0380952
        k(   12) = (   0.0000000   0.2800034   0.3600044), wk =   0.0380952
        k(   13) = (   0.0000000  -0.4200051   0.0000000), wk =   0.0095238
        k(   14) = (   0.0000000  -0.4200051   0.1200015), wk =   0.0190476
        k(   15) = (   0.0000000  -0.4200051   0.2400029), wk =   0.0190476
        k(   16) = (   0.0000000  -0.4200051   0.3600044), wk =   0.0190476
        k(   17) = (   0.1680020   0.0000000   0.0000000), wk =   0.0190476
        k(   18) = (   0.1680020   0.0000000   0.1200015), wk =   0.0380952
        k(   19) = (   0.1680020   0.0000000   0.2400029), wk =   0.0380952
        k(   20) = (   0.1680020   0.0000000   0.3600044), wk =   0.0380952
        k(   21) = (   0.1680020   0.1400017   0.0000000), wk =   0.0380952
        k(   22) = (   0.1680020   0.1400017   0.1200015), wk =   0.0761905
        k(   23) = (   0.1680020   0.1400017   0.2400029), wk =   0.0761905
        k(   24) = (   0.1680020   0.1400017   0.3600044), wk =   0.0761905
        k(   25) = (   0.1680020   0.2800034   0.0000000), wk =   0.0380952
        k(   26) = (   0.1680020   0.2800034   0.1200015), wk =   0.0761905
        k(   27) = (   0.1680020   0.2800034   0.2400029), wk =   0.0761905
        k(   28) = (   0.1680020   0.2800034   0.3600044), wk =   0.0761905
        k(   29) = (   0.1680020  -0.4200051   0.0000000), wk =   0.0190476
        k(   30) = (   0.1680020  -0.4200051   0.1200015), wk =   0.0380952
        k(   31) = (   0.1680020  -0.4200051   0.2400029), wk =   0.0380952
        k(   32) = (   0.1680020  -0.4200051   0.3600044), wk =   0.0380952
        k(   33) = (   0.3360041   0.0000000   0.0000000), wk =   0.0190476
        k(   34) = (   0.3360041   0.0000000   0.1200015), wk =   0.0380952
        k(   35) = (   0.3360041   0.0000000   0.2400029), wk =   0.0380952
        k(   36) = (   0.3360041   0.0000000   0.3600044), wk =   0.0380952
        k(   37) = (   0.3360041   0.1400017   0.0000000), wk =   0.0380952
        k(   38) = (   0.3360041   0.1400017   0.1200015), wk =   0.0761905
        k(   39) = (   0.3360041   0.1400017   0.2400029), wk =   0.0761905
        k(   40) = (   0.3360041   0.1400017   0.3600044), wk =   0.0761905
        k(   41) = (   0.3360041   0.2800034   0.0000000), wk =   0.0380952
        k(   42) = (   0.3360041   0.2800034   0.1200015), wk =   0.0761905
        k(   43) = (   0.3360041   0.2800034   0.2400029), wk =   0.0761905
        k(   44) = (   0.3360041   0.2800034   0.3600044), wk =   0.0761905
        k(   45) = (   0.3360041  -0.4200051   0.0000000), wk =   0.0190476
        k(   46) = (   0.3360041  -0.4200051   0.1200015), wk =   0.0380952
        k(   47) = (   0.3360041  -0.4200051   0.2400029), wk =   0.0380952
        k(   48) = (   0.3360041  -0.4200051   0.3600044), wk =   0.0380952

[...]

          total   stress  (Ry/bohr**3)                   (kbar)     P=-1562.53
  -0.01062186   0.00000000   0.00000000      -1562.53      0.00      0.00
   0.00000000  -0.01062186   0.00000000          0.00  -1562.53      0.00
   0.00000000   0.00000000  -0.01062186          0.00      0.00  -1562.53

     The maximum number of steps has been reached.

     End of BFGS Geometry Optimization
Begin final coordinates
     new unit-cell volume =   1048.79777 a.u.^3 (   155.41579 Ang^3 )

CELL_PARAMETERS (alat=  8.53457320)
   1.190461747   0.000000000   0.000000000
   0.000000000   1.190461747   0.000000000
   0.000000000   0.000000000   1.190461747

ATOMIC_POSITIONS (crystal)
Cr       0.000000000   0.500000000   0.250000000
Cr       0.000000000   0.500000000   0.750000000
Cr       0.500000000   0.750000000   0.000000000
Cr       0.500000000   0.250000000   0.000000000
Cr       0.750000000   0.000000000   0.500000000
Cr       0.250000000   0.000000000   0.500000000
Si       0.500000000   0.500000000   0.500000000
Si       0.000000000   0.000000000   0.000000000
End final coordinates

     A final scf calculation at the relaxed structure.
     The G-vectors are recalculated for the final unit cell
     Results may differ from those at the preceding step.

     bravais-lattice index     =            0
     lattice parameter (alat)  =       8.5346  a.u.
     unit-cell volume          =    1048.7978 (a.u.)^3
     number of atoms/cell      =            8
     number of atomic types    =            2
     number of electrons       =       174.00
     number of Kohn-Sham states=          104
     kinetic-energy cutoff     =      40.0000  Ry
     charge density cutoff     =     160.0000  Ry
     convergence threshold     =      1.0E-06
     mixing beta               =       0.7000
     number of iterations used =            8  plain     mixing
     Exchange-correlation      = SLA-PZ-NOGX-NOGC ( 1 1 0 0 0)
     EXX-fraction              =        0.00

     celldm(1)=   8.534573  celldm(2)=   0.000000  celldm(3)=   0.000000
     celldm(4)=   0.000000  celldm(5)=   0.000000  celldm(6)=   0.000000

     crystal axes: (cart. coord. in units of alat)
               a(1) = (   1.190462   0.000000   0.000000 )
               a(2) = (   0.000000   1.190462   0.000000 )
               a(3) = (   0.000000   0.000000   1.190462 )

     reciprocal axes: (cart. coord. in units 2 pi/alat)
               b(1) = (  0.840010  0.000000  0.000000 )
               b(2) = (  0.000000  0.840010  0.000000 )
               b(3) = (  0.000000  0.000000  0.840010 )

     PseudoPot. # 1 for Tm read from file:
     /home/cwx6513/pp.La/Tm.UPF
     MD5 check sum: 245516e0878b5372ceeb9443ded2c4e1
     Pseudo is Norm-conserving, Zval = 23.0
     Generated in analytical, separable form
     Using radial grid of 1269 points,  6 beta functions with:
                l(1) =   0
                l(2) =   0
                l(3) =   1
                l(4) =   1
                l(5) =   2
                l(6) =   3

     PseudoPot. # 2 for Gd read from file:
     /home/cwx6513/pp.La/Gd.UPF
     MD5 check sum: 09a8be538722f05520810cb6aac0efd2
     Pseudo is Norm-conserving, Zval = 18.0
     Generated in analytical, separable form
     Using radial grid of 1263 points,  6 beta functions with:
                l(1) =   0
                l(2) =   0
                l(3) =   1
                l(4) =   1
                l(5) =   2
                l(6) =   3

     atomic species   valence    mass     pseudopotential
        Cr            23.00    51.99610     Tm( 1.00)
        Si            18.00    28.08550     Gd( 1.00)

     48 Sym. Ops., with inversion, found (24 have fractional translation)

   Cartesian axes

     site n.     atom                  positions (alat units)
         1           Cr  tau(   1) = (   0.0000000   0.5952309   0.2976154  )
         2           Cr  tau(   2) = (   0.0000000   0.5952309   0.8928463  )
         3           Cr  tau(   3) = (   0.5952309   0.8928463   0.0000000  )
         4           Cr  tau(   4) = (   0.5952309   0.2976154   0.0000000  )
         5           Cr  tau(   5) = (   0.8928463   0.0000000   0.5952309  )
         6           Cr  tau(   6) = (   0.2976154   0.0000000   0.5952309  )
         7           Si  tau(   7) = (   0.5952309   0.5952309   0.5952309  )
         8           Si  tau(   8) = (   0.0000000   0.0000000   0.0000000  )

     number of k points=    48  gaussian smearing, width (Ry)=  0.1000
                       cart. coord. in units 2pi/alat
        k(    1) = (   0.0000000   0.0000000   0.0000000), wk =   0.0095238
        k(    2) = (   0.0000000   0.0000000   0.1200015), wk =   0.0190476
        k(    3) = (   0.0000000   0.0000000   0.2400029), wk =   0.0190476
        k(    4) = (   0.0000000   0.0000000   0.3600044), wk =   0.0190476
        k(    5) = (   0.0000000   0.1400017   0.0000000), wk =   0.0190476
        k(    6) = (   0.0000000   0.1400017   0.1200015), wk =   0.0380952
        k(    7) = (   0.0000000   0.1400017   0.2400029), wk =   0.0380952
        k(    8) = (   0.0000000   0.1400017   0.3600044), wk =   0.0380952
        k(    9) = (   0.0000000   0.2800034   0.0000000), wk =   0.0190476
        k(   10) = (   0.0000000   0.2800034   0.1200015), wk =   0.0380952
        k(   11) = (   0.0000000   0.2800034   0.2400029), wk =   0.0380952
        k(   12) = (   0.0000000   0.2800034   0.3600044), wk =   0.0380952
        k(   13) = (   0.0000000  -0.4200051   0.0000000), wk =   0.0095238
        k(   14) = (   0.0000000  -0.4200051   0.1200015), wk =   0.0190476
        k(   15) = (   0.0000000  -0.4200051   0.2400029), wk =   0.0190476
        k(   16) = (   0.0000000  -0.4200051   0.3600044), wk =   0.0190476
        k(   17) = (   0.1680020   0.0000000   0.0000000), wk =   0.0190476
        k(   18) = (   0.1680020   0.0000000   0.1200015), wk =   0.0380952
        k(   19) = (   0.1680020   0.0000000   0.2400029), wk =   0.0380952
        k(   20) = (   0.1680020   0.0000000   0.3600044), wk =   0.0380952
        k(   21) = (   0.1680020   0.1400017   0.0000000), wk =   0.0380952
        k(   22) = (   0.1680020   0.1400017   0.1200015), wk =   0.0761905
        k(   23) = (   0.1680020   0.1400017   0.2400029), wk =   0.0761905
        k(   24) = (   0.1680020   0.1400017   0.3600044), wk =   0.0761905
        k(   25) = (   0.1680020   0.2800034   0.0000000), wk =   0.0380952
        k(   26) = (   0.1680020   0.2800034   0.1200015), wk =   0.0761905
        k(   27) = (   0.1680020   0.2800034   0.2400029), wk =   0.0761905
        k(   28) = (   0.1680020   0.2800034   0.3600044), wk =   0.0761905
        k(   29) = (   0.1680020  -0.4200051   0.0000000), wk =   0.0190476
        k(   30) = (   0.1680020  -0.4200051   0.1200015), wk =   0.0380952
        k(   31) = (   0.1680020  -0.4200051   0.2400029), wk =   0.0380952
        k(   32) = (   0.1680020  -0.4200051   0.3600044), wk =   0.0380952
        k(   33) = (   0.3360041   0.0000000   0.0000000), wk =   0.0190476
        k(   34) = (   0.3360041   0.0000000   0.1200015), wk =   0.0380952
        k(   35) = (   0.3360041   0.0000000   0.2400029), wk =   0.0380952
        k(   36) = (   0.3360041   0.0000000   0.3600044), wk =   0.0380952
        k(   37) = (   0.3360041   0.1400017   0.0000000), wk =   0.0380952
        k(   38) = (   0.3360041   0.1400017   0.1200015), wk =   0.0761905
        k(   39) = (   0.3360041   0.1400017   0.2400029), wk =   0.0761905
        k(   40) = (   0.3360041   0.1400017   0.3600044), wk =   0.0761905
        k(   41) = (   0.3360041   0.2800034   0.0000000), wk =   0.0380952
        k(   42) = (   0.3360041   0.2800034   0.1200015), wk =   0.0761905
        k(   43) = (   0.3360041   0.2800034   0.2400029), wk =   0.0761905
        k(   44) = (   0.3360041   0.2800034   0.3600044), wk =   0.0761905
        k(   45) = (   0.3360041  -0.4200051   0.0000000), wk =   0.0190476
        k(   46) = (   0.3360041  -0.4200051   0.1200015), wk =   0.0380952
        k(   47) = (   0.3360041  -0.4200051   0.2400029), wk =   0.0380952
        k(   48) = (   0.3360041  -0.4200051   0.3600044), wk =   0.0380952

     Largest allocated arrays     est. size (Mb)     dimensions
     Largest temporary arrays     est. size (Mb)     dimensions

     Initial potential from superposition of free atoms

     Starting from uniform charge
     Starting wfc are    0 randomized atomic wfcs

     Writing output data file Prototype-La-cP8-Cr3Si.save

     Self-consistent Calculation

[...]

     iteration #  9     ecut=    40.00 Ry     beta=0.70
     CG style diagonalization
     c_bands:  1 eigenvalues not converged
     c_bands:  1 eigenvalues not converged
     ethr =  7.54E-07,  avg # of iterations =  3.4

[...]

     total energy              =   -2605.91825156 Ry
     Harris-Foulkes estimate   =   -2605.91825657 Ry
     estimated scf accuracy    <       0.00000825 Ry

     iteration # 11     ecut=    40.00 Ry     beta=0.70
     CG style diagonalization
     ethr =  4.74E-09,  avg # of iterations =  4.5

     End of self-consistent calculation

[...]

          k = 0.3360-0.4200 0.3600 (  4498 PWs)   bands (ev):

   -81.8839 -81.8800 -81.8772 -81.8763 -81.8759 -81.8724 -40.7267 -40.7133
   -40.6798 -40.6798 -40.6375 -40.6215 -40.5140 -40.5127 -40.5090 -40.5062
   -40.5048 -40.5039 -40.5036 -40.5026 -40.4989 -40.4975 -40.4932 -40.4902
   -39.4035 -39.4035 -10.5239 -10.5239 -10.5226 -10.5226 -10.5201 -10.5200
     7.5409   7.6581   7.9447   7.9472   7.9917   7.9982   8.0242   8.0376
     8.1308   8.1367   8.1861   8.2163   8.2303   8.2419   8.2989   8.3021
     8.4736   8.4736   8.5514   8.5596   8.5644   8.5826   8.6084   8.6455
     8.7171   8.7274   8.7527   8.7551   8.7727   8.7842  16.9733  16.9812
    17.6806  17.6820  18.2568  18.2656  21.8226  21.8227  23.6548  23.6556
    23.6816  23.6820  24.5997  24.6365  24.7306  24.7445  24.7688  24.7903
    28.3816  28.5794  29.3053  29.3850  30.3197  30.7220  31.5821  31.6238
    31.9854  31.9891  32.4678  32.6661  33.0575  33.0901  33.5858  33.6017
    33.7421  33.7820  34.4838  34.4951  35.0965  35.2846  35.3327  35.3944

     the Fermi energy is    30.4639 ev

!    total energy              =   -2605.91825715 Ry
     Harris-Foulkes estimate   =   -2605.91825749 Ry
     estimated scf accuracy    <       0.00000040 Ry

     The total energy is the sum of the following terms:

     one-electron contribution =    -667.90898599 Ry
     hartree contribution      =     441.00800577 Ry
     xc contribution           =    -221.07898170 Ry
     ewald contribution        =   -2157.66723134 Ry
     smearing contrib. (-TS)   =      -0.27106390 Ry

     convergence has been achieved in  11 iterations

     Forces acting on atoms (Ry/au):

     atom    1 type  1   force =     0.00000000    0.00000000    0.00000000
     atom    2 type  1   force =     0.00000000    0.00000000    0.00000000
     atom    3 type  1   force =     0.00000000    0.00000000    0.00000000
     atom    4 type  1   force =     0.00000000    0.00000000    0.00000000
     atom    5 type  1   force =     0.00000000    0.00000000    0.00000000
     atom    6 type  1   force =     0.00000000    0.00000000    0.00000000
     atom    7 type  2   force =     0.00000000    0.00000000    0.00000000
     atom    8 type  2   force =     0.00000000    0.00000000    0.00000000

     Total force =     0.000000     Total SCF correction =     0.000000

     entering subroutine stress ...

          total   stress  (Ry/bohr**3)                   (kbar)     P=  196.08
   0.00133294   0.00000000   0.00000000        196.08      0.00      0.00
   0.00000000   0.00133294   0.00000000          0.00    196.08      0.00
   0.00000000   0.00000000   0.00133294          0.00      0.00    196.08

     Writing output data file Prototype-La-cP8-Cr3Si.save

     General routines

     Parallel routines

   This run was terminated on:  16:37:58  22Mar2018

   JOB DONE.