     Program PWSCF v.5.0.2 starts on 22Mar2018 at 16: 5:51

     Current dimensions of program PWSCF are:
     Max number of different atomic species (ntypx) = 10
     Max number of k-points (npk) =  40000
     Max angular momentum in pseudopotentials (lmaxx) =  3
     Waiting for input...
     Reading input from standard input

     Subspace diagonalization in iterative solution of the eigenvalue problem:
     a serial algorithm will be used

     bravais-lattice index     =            0
     lattice parameter (alat)  =      12.0168  a.u.
     unit-cell volume          =    1187.3413 (a.u.)^3
     number of atoms/cell      =            8
     number of atomic types    =            2
     number of electrons       =       174.00
     number of Kohn-Sham states=          104
     kinetic-energy cutoff     =      40.0000  Ry
     charge density cutoff     =     160.0000  Ry
     convergence threshold     =      1.0E-04
     mixing beta               =       0.7000
     number of iterations used =            8  plain     mixing
     Exchange-correlation      = SLA-PZ-NOGX-NOGC ( 1 1 0 0 0)
     EXX-fraction              =        0.00
     nstep                     =           50

     celldm(1)=  12.016801  celldm(2)=   0.000000  celldm(3)=   0.000000
     celldm(4)=   0.000000  celldm(5)=   0.000000  celldm(6)=   0.000000

     crystal axes: (cart. coord. in units of alat)
               a(1) = (   1.000000   0.000000   0.000000 )
               a(2) = (  -0.500000   0.866025   0.000000 )
               a(3) = (   0.000000   0.000000   0.790093 )

     reciprocal axes: (cart. coord. in units 2 pi/alat)
               b(1) = (  1.000000  0.577350  0.000000 )
               b(2) = (  0.000000  1.154701  0.000000 )
               b(3) = (  0.000000  0.000000  1.265674 )

     PseudoPot. # 1 for Tm read from file:
     /home/cwx6513/pp.La/Tm.UPF
     MD5 check sum: 245516e0878b5372ceeb9443ded2c4e1
     Pseudo is Norm-conserving, Zval = 23.0
     Generated in analytical, separable form
     Using radial grid of 1269 points,  6 beta functions with:
                l(1) =   0
                l(2) =   0
                l(3) =   1
                l(4) =   1
                l(5) =   2
                l(6) =   3

     PseudoPot. # 2 for Gd read from file:
     /home/cwx6513/pp.La/Gd.UPF
     MD5 check sum: 09a8be538722f05520810cb6aac0efd2
     Pseudo is Norm-conserving, Zval = 18.0
     Generated in analytical, separable form
     Using radial grid of 1263 points,  6 beta functions with:
                l(1) =   0
                l(2) =   0
                l(3) =   1
                l(4) =   1
                l(5) =   2
                l(6) =   3

     atomic species   valence    mass     pseudopotential
        Mg            23.00    24.30500     Tm( 1.00)
        Cd            18.00   112.41100     Gd( 1.00)

     24 Sym. Ops., with inversion, found (12 have fractional translation)

   Cartesian axes

     site n.     atom                  positions (alat units)
         1           Mg  tau(   1) = (   0.2478935   0.7204716   0.1975233  )
         2           Mg  tau(   2) = (   0.7478935   0.1455538   0.5925699  )
         3           Mg  tau(   3) = (   0.2521065   0.1455538   0.5925699  )
         4           Mg  tau(   4) = (  -0.2478935   0.7204716   0.1975233  )
         5           Mg  tau(   5) = (   0.0000000   0.2911075   0.1975233  )
         6           Mg  tau(   6) = (   0.5000000   0.5749179   0.5925699  )
         7           Cd  tau(   7) = (   0.5000005   0.2886748   0.1975233  )
         8           Cd  tau(   8) = (  -0.0000005   0.5773506   0.5925699  )

     number of k points=    64  gaussian smearing, width (Ry)=  0.1000
                       cart. coord. in units 2pi/alat
        k(    1) = (   0.0000000   0.0000000   0.0000000), wk =   0.0095238
        k(    2) = (   0.0000000   0.0000000   0.1808105), wk =   0.0190476
        k(    3) = (   0.0000000   0.0000000   0.3616210), wk =   0.0190476
        k(    4) = (   0.0000000   0.0000000   0.5424315), wk =   0.0190476
        k(    5) = (   0.0000000   0.1924501   0.0000000), wk =   0.0190476
        k(    6) = (   0.0000000   0.1924501   0.1808105), wk =   0.0380952
        k(    7) = (   0.0000000   0.1924501   0.3616210), wk =   0.0380952
        k(    8) = (   0.0000000   0.1924501   0.5424315), wk =   0.0380952
        k(    9) = (   0.0000000   0.3849002   0.0000000), wk =   0.0190476
        k(   10) = (   0.0000000   0.3849002   0.1808105), wk =   0.0380952
        k(   11) = (   0.0000000   0.3849002   0.3616210), wk =   0.0380952
        k(   12) = (   0.0000000   0.3849002   0.5424315), wk =   0.0380952
        k(   13) = (   0.0000000  -0.5773503   0.0000000), wk =   0.0095238
        k(   14) = (   0.0000000  -0.5773503   0.1808105), wk =   0.0190476
        k(   15) = (   0.0000000  -0.5773503   0.3616210), wk =   0.0190476
        k(   16) = (   0.0000000  -0.5773503   0.5424315), wk =   0.0190476
        k(   17) = (   0.2000000   0.1154701   0.0000000), wk =   0.0190476
        k(   18) = (   0.2000000   0.1154701   0.1808105), wk =   0.0380952
        k(   19) = (   0.2000000   0.1154701   0.3616210), wk =   0.0380952
        k(   20) = (   0.2000000   0.1154701   0.5424315), wk =   0.0380952
        k(   21) = (   0.2000000   0.3079201   0.0000000), wk =   0.0190476
        k(   22) = (   0.2000000   0.3079201   0.1808105), wk =   0.0380952
        k(   23) = (   0.2000000   0.3079201   0.3616210), wk =   0.0380952
        k(   24) = (   0.2000000   0.3079201   0.5424315), wk =   0.0380952
        k(   25) = (   0.2000000   0.5003702   0.0000000), wk =   0.0190476
        k(   26) = (   0.2000000   0.5003702   0.1808105), wk =   0.0380952
        k(   27) = (   0.2000000   0.5003702   0.3616210), wk =   0.0380952
        k(   28) = (   0.2000000   0.5003702   0.5424315), wk =   0.0380952
        k(   29) = (   0.2000000  -0.4618802   0.0000000), wk =   0.0190476
        k(   30) = (   0.2000000  -0.4618802   0.1808105), wk =   0.0380952
        k(   31) = (   0.2000000  -0.4618802   0.3616210), wk =   0.0380952
        k(   32) = (   0.2000000  -0.4618802   0.5424315), wk =   0.0380952
        k(   33) = (   0.2000000  -0.2694301   0.0000000), wk =   0.0190476
        k(   34) = (   0.2000000  -0.2694301   0.1808105), wk =   0.0380952
        k(   35) = (   0.2000000  -0.2694301   0.3616210), wk =   0.0380952
        k(   36) = (   0.2000000  -0.2694301   0.5424315), wk =   0.0380952
        k(   37) = (   0.2000000  -0.0769800   0.0000000), wk =   0.0190476
        k(   38) = (   0.2000000  -0.0769800   0.1808105), wk =   0.0380952
        k(   39) = (   0.2000000  -0.0769800   0.3616210), wk =   0.0380952
        k(   40) = (   0.2000000  -0.0769800   0.5424315), wk =   0.0380952
        k(   41) = (   0.4000000   0.2309401   0.0000000), wk =   0.0190476
        k(   42) = (   0.4000000   0.2309401   0.1808105), wk =   0.0380952
        k(   43) = (   0.4000000   0.2309401   0.3616210), wk =   0.0380952
        k(   44) = (   0.4000000   0.2309401   0.5424315), wk =   0.0380952
        k(   45) = (   0.4000000   0.4233902   0.0000000), wk =   0.0190476
        k(   46) = (   0.4000000   0.4233902   0.1808105), wk =   0.0380952
        k(   47) = (   0.4000000   0.4233902   0.3616210), wk =   0.0380952
        k(   48) = (   0.4000000   0.4233902   0.5424315), wk =   0.0380952
        k(   49) = (   0.4000000   0.6158403   0.0000000), wk =   0.0190476
        k(   50) = (   0.4000000   0.6158403   0.1808105), wk =   0.0380952
        k(   51) = (   0.4000000   0.6158403   0.3616210), wk =   0.0380952
        k(   52) = (   0.4000000   0.6158403   0.5424315), wk =   0.0380952
        k(   53) = (   0.4000000  -0.3464102   0.0000000), wk =   0.0190476
        k(   54) = (   0.4000000  -0.3464102   0.1808105), wk =   0.0380952
        k(   55) = (   0.4000000  -0.3464102   0.3616210), wk =   0.0380952
        k(   56) = (   0.4000000  -0.3464102   0.5424315), wk =   0.0380952
        k(   57) = (   0.4000000  -0.1539601   0.0000000), wk =   0.0190476
        k(   58) = (   0.4000000  -0.1539601   0.1808105), wk =   0.0380952
        k(   59) = (   0.4000000  -0.1539601   0.3616210), wk =   0.0380952
        k(   60) = (   0.4000000  -0.1539601   0.5424315), wk =   0.0380952
        k(   61) = (   0.4000000   0.0384900   0.0000000), wk =   0.0190476
        k(   62) = (   0.4000000   0.0384900   0.1808105), wk =   0.0380952
        k(   63) = (   0.4000000   0.0384900   0.3616210), wk =   0.0380952
        k(   64) = (   0.4000000   0.0384900   0.5424315), wk =   0.0380952

     Largest allocated arrays     est. size (Mb)     dimensions
     Largest temporary arrays     est. size (Mb)     dimensions

     Initial potential from superposition of free atoms

     Starting from uniform charge
     Starting wfc are    0 randomized atomic wfcs

     Self-consistent Calculation

     iteration #  1     ecut=    40.00 Ry     beta=0.70
     CG style diagonalization
     ethr =  1.00E-02,  avg # of iterations = 18.6

     total energy              =   -2127.67315811 Ry
     Harris-Foulkes estimate   =   -3400.84551795 Ry
     estimated scf accuracy    <    1572.44899889 Ry

     iteration #  2     ecut=    40.00 Ry     beta=0.70
     CG style diagonalization
     c_bands:  3 eigenvalues not converged
     c_bands:  3 eigenvalues not converged
     c_bands:  2 eigenvalues not converged
     c_bands:  4 eigenvalues not converged
     c_bands:  4 eigenvalues not converged
     c_bands:  2 eigenvalues not converged
     c_bands:  4 eigenvalues not converged
     c_bands:  4 eigenvalues not converged
     c_bands:  1 eigenvalues not converged
     c_bands:  2 eigenvalues not converged
     c_bands:  4 eigenvalues not converged
     c_bands:  2 eigenvalues not converged
     c_bands:  4 eigenvalues not converged
     c_bands:  4 eigenvalues not converged
     c_bands:  1 eigenvalues not converged
     c_bands:  3 eigenvalues not converged
     c_bands:  2 eigenvalues not converged
     c_bands:  1 eigenvalues not converged
     c_bands:  2 eigenvalues not converged
     c_bands:  3 eigenvalues not converged
     c_bands:  3 eigenvalues not converged
     c_bands:  4 eigenvalues not converged
     c_bands:  1 eigenvalues not converged
     c_bands:  4 eigenvalues not converged
     c_bands:  5 eigenvalues not converged
     c_bands:  2 eigenvalues not converged
     c_bands:  3 eigenvalues not converged
     c_bands:  5 eigenvalues not converged
     c_bands:  2 eigenvalues not converged
     c_bands:  4 eigenvalues not converged
     c_bands:  5 eigenvalues not converged
     c_bands:  1 eigenvalues not converged
     c_bands:  2 eigenvalues not converged
     c_bands:  1 eigenvalues not converged
     c_bands:  3 eigenvalues not converged
     c_bands:  3 eigenvalues not converged
     c_bands:  3 eigenvalues not converged
     c_bands:  5 eigenvalues not converged
     c_bands:  4 eigenvalues not converged
     c_bands:  4 eigenvalues not converged
     c_bands:  2 eigenvalues not converged
     c_bands:  3 eigenvalues not converged
     c_bands:  3 eigenvalues not converged
[...]
        k(   16) = (   0.0000000  -0.6069213   0.5653643), wk =   0.0190476
        k(   17) = (   0.2102437   0.1213843   0.0000000), wk =   0.0190476
        k(   18) = (   0.2102437   0.1213843   0.1884548), wk =   0.0380952
        k(   19) = (   0.2102437   0.1213843   0.3769095), wk =   0.0380952
        k(   20) = (   0.2102437   0.1213843   0.5653643), wk =   0.0380952
        k(   21) = (   0.2102437   0.3236913   0.0000000), wk =   0.0190476
        k(   22) = (   0.2102437   0.3236913   0.1884548), wk =   0.0380952
        k(   23) = (   0.2102437   0.3236913   0.3769095), wk =   0.0380952
        k(   24) = (   0.2102437   0.3236913   0.5653643), wk =   0.0380952
        k(   25) = (   0.2102437   0.5259984   0.0000000), wk =   0.0190476
        k(   26) = (   0.2102437   0.5259984   0.1884548), wk =   0.0380952
        k(   27) = (   0.2102437   0.5259984   0.3769095), wk =   0.0380952
        k(   28) = (   0.2102437   0.5259984   0.5653643), wk =   0.0380952
        k(   29) = (   0.2102437  -0.4855370   0.0000000), wk =   0.0190476
        k(   30) = (   0.2102437  -0.4855370   0.1884548), wk =   0.0380952
        k(   31) = (   0.2102437  -0.4855370   0.3769095), wk =   0.0380952
        k(   32) = (   0.2102437  -0.4855370   0.5653643), wk =   0.0380952
        k(   33) = (   0.2102437  -0.2832299   0.0000000), wk =   0.0190476
        k(   34) = (   0.2102437  -0.2832299   0.1884548), wk =   0.0380952
        k(   35) = (   0.2102437  -0.2832299   0.3769095), wk =   0.0380952
        k(   36) = (   0.2102437  -0.2832299   0.5653643), wk =   0.0380952
        k(   37) = (   0.2102437  -0.0809228   0.0000000), wk =   0.0190476
        k(   38) = (   0.2102437  -0.0809228   0.1884548), wk =   0.0380952
        k(   39) = (   0.2102437  -0.0809228   0.3769095), wk =   0.0380952
        k(   40) = (   0.2102437  -0.0809228   0.5653643), wk =   0.0380952
        k(   41) = (   0.4204874   0.2427685   0.0000000), wk =   0.0190476
        k(   42) = (   0.4204874   0.2427685   0.1884548), wk =   0.0380952
        k(   43) = (   0.4204874   0.2427685   0.3769095), wk =   0.0380952
        k(   44) = (   0.4204874   0.2427685   0.5653643), wk =   0.0380952
        k(   45) = (   0.4204874   0.4450756   0.0000000), wk =   0.0190476
        k(   46) = (   0.4204874   0.4450756   0.1884548), wk =   0.0380952
        k(   47) = (   0.4204874   0.4450756   0.3769095), wk =   0.0380952
        k(   48) = (   0.4204874   0.4450756   0.5653643), wk =   0.0380952
        k(   49) = (   0.4204874   0.6473827   0.0000000), wk =   0.0190476
        k(   50) = (   0.4204874   0.6473827   0.1884548), wk =   0.0380952
        k(   51) = (   0.4204874   0.6473827   0.3769095), wk =   0.0380952
        k(   52) = (   0.4204874   0.6473827   0.5653643), wk =   0.0380952
        k(   53) = (   0.4204874  -0.3641528   0.0000000), wk =   0.0190476
        k(   54) = (   0.4204874  -0.3641528   0.1884548), wk =   0.0380952
        k(   55) = (   0.4204874  -0.3641528   0.3769095), wk =   0.0380952
        k(   56) = (   0.4204874  -0.3641528   0.5653643), wk =   0.0380952
        k(   57) = (   0.4204874  -0.1618457   0.0000000), wk =   0.0190476
        k(   58) = (   0.4204874  -0.1618457   0.1884548), wk =   0.0380952
        k(   59) = (   0.4204874  -0.1618457   0.3769095), wk =   0.0380952
        k(   60) = (   0.4204874  -0.1618457   0.5653643), wk =   0.0380952
        k(   61) = (   0.4204874   0.0404614   0.0000000), wk =   0.0190476
        k(   62) = (   0.4204874   0.0404614   0.1884548), wk =   0.0380952
        k(   63) = (   0.4204874   0.0404614   0.3769095), wk =   0.0380952
        k(   64) = (   0.4204874   0.0404614   0.5653643), wk =   0.0380952

[...]

     Threshold (ethr) on eigenvalues was too large:
     Diagonalizing with lowered threshold

     CG style diagonalization
     ethr =  4.89E-08,  avg # of iterations =  3.5

[...]

     The maximum number of steps has been reached.

     End of BFGS Geometry Optimization
Begin final coordinates
     new unit-cell volume =   1030.87535 a.u.^3 (   152.75996 Ang^3 )

CELL_PARAMETERS (alat= 12.01680127)
   0.951277069   0.000000000   0.000000000
  -0.475638535   0.823830108   0.000000000
   0.000000000   0.000000000   0.758044726

ATOMIC_POSITIONS (crystal)
Mg       0.659185691   0.829592846   0.250000000
Mg       0.829592846   0.170407154   0.750000000
Mg       0.340814309   0.170407154   0.750000000
Mg       0.170407154   0.829592846   0.250000000
Mg       0.170407154   0.340814309   0.250000000
Mg       0.829592846   0.659185691   0.750000000
Cd       0.666667000   0.333333000   0.250000000
Cd       0.333333000   0.666667000   0.750000000
End final coordinates

     A final scf calculation at the relaxed structure.
     The G-vectors are recalculated for the final unit cell
     Results may differ from those at the preceding step.

     bravais-lattice index     =            0
     lattice parameter (alat)  =      12.0168  a.u.
     unit-cell volume          =    1030.8754 (a.u.)^3
     number of atoms/cell      =            8
     number of atomic types    =            2
     number of electrons       =       174.00
     number of Kohn-Sham states=          104
     kinetic-energy cutoff     =      40.0000  Ry
     charge density cutoff     =     160.0000  Ry
     convergence threshold     =      1.0E-04
     mixing beta               =       0.7000
     number of iterations used =            8  plain     mixing
     Exchange-correlation      = SLA-PZ-NOGX-NOGC ( 1 1 0 0 0)
     EXX-fraction              =        0.00

     celldm(1)=  12.016801  celldm(2)=   0.000000  celldm(3)=   0.000000
     celldm(4)=   0.000000  celldm(5)=   0.000000  celldm(6)=   0.000000

     crystal axes: (cart. coord. in units of alat)
               a(1) = (   0.951277   0.000000   0.000000 )
               a(2) = (  -0.475639   0.823830   0.000000 )
               a(3) = (   0.000000   0.000000   0.758045 )

     reciprocal axes: (cart. coord. in units 2 pi/alat)
               b(1) = (  1.051218  0.606921  0.000000 )
               b(2) = (  0.000000  1.213843  0.000000 )
               b(3) = (  0.000000  0.000000  1.319183 )

     PseudoPot. # 1 for Tm read from file:
     /home/cwx6513/pp.La/Tm.UPF
     MD5 check sum: 245516e0878b5372ceeb9443ded2c4e1
     Pseudo is Norm-conserving, Zval = 23.0
     Generated in analytical, separable form
     Using radial grid of 1269 points,  6 beta functions with:
                l(1) =   0
                l(2) =   0
                l(3) =   1
                l(4) =   1
                l(5) =   2
                l(6) =   3

     PseudoPot. # 2 for Gd read from file:
     /home/cwx6513/pp.La/Gd.UPF
     MD5 check sum: 09a8be538722f05520810cb6aac0efd2
     Pseudo is Norm-conserving, Zval = 18.0
     Generated in analytical, separable form
     Using radial grid of 1263 points,  6 beta functions with:
                l(1) =   0
                l(2) =   0
                l(3) =   1
                l(4) =   1
                l(5) =   2
                l(6) =   3

     atomic species   valence    mass     pseudopotential
        Mg            23.00    24.30500     Tm( 1.00)
        Cd            18.00   112.41100     Gd( 1.00)

     24 Sym. Ops., with inversion, found (12 have fractional translation)

   Cartesian axes

     site n.     atom                  positions (alat units)
         1           Mg  tau(   1) = (   0.2324819   0.6834436   0.1895112  )
         2           Mg  tau(   2) = (   0.7081204   0.1403865   0.5685335  )
         3           Mg  tau(   3) = (   0.2431566   0.1403865   0.5685335  )
         4           Mg  tau(   4) = (  -0.2324819   0.6834436   0.1895112  )
         5           Mg  tau(   5) = (   0.0000000   0.2807731   0.1895112  )
         6           Mg  tau(   6) = (   0.4756385   0.5430570   0.5685335  )
         7           Cd  tau(   7) = (   0.4756390   0.2746098   0.1895112  )
         8           Cd  tau(   8) = (  -0.0000005   0.5492203   0.5685335  )

     number of k points=    64  gaussian smearing, width (Ry)=  0.1000
                       cart. coord. in units 2pi/alat
        k(    1) = (   0.0000000   0.0000000   0.0000000), wk =   0.0095238
        k(    2) = (   0.0000000   0.0000000   0.1884548), wk =   0.0190476
        k(    3) = (   0.0000000   0.0000000   0.3769095), wk =   0.0190476
        k(    4) = (   0.0000000   0.0000000   0.5653643), wk =   0.0190476
        k(    5) = (   0.0000000   0.2023071   0.0000000), wk =   0.0190476
        k(    6) = (   0.0000000   0.2023071   0.1884548), wk =   0.0380952
        k(    7) = (   0.0000000   0.2023071   0.3769095), wk =   0.0380952
        k(    8) = (   0.0000000   0.2023071   0.5653643), wk =   0.0380952
        k(    9) = (   0.0000000   0.4046142   0.0000000), wk =   0.0190476
        k(   10) = (   0.0000000   0.4046142   0.1884548), wk =   0.0380952
        k(   11) = (   0.0000000   0.4046142   0.3769095), wk =   0.0380952
        k(   12) = (   0.0000000   0.4046142   0.5653643), wk =   0.0380952
        k(   13) = (   0.0000000  -0.6069213   0.0000000), wk =   0.0095238
        k(   14) = (   0.0000000  -0.6069213   0.1884548), wk =   0.0190476
        k(   15) = (   0.0000000  -0.6069213   0.3769095), wk =   0.0190476
        k(   16) = (   0.0000000  -0.6069213   0.5653643), wk =   0.0190476
        k(   17) = (   0.2102437   0.1213843   0.0000000), wk =   0.0190476
        k(   18) = (   0.2102437   0.1213843   0.1884548), wk =   0.0380952
        k(   19) = (   0.2102437   0.1213843   0.3769095), wk =   0.0380952
        k(   20) = (   0.2102437   0.1213843   0.5653643), wk =   0.0380952
        k(   21) = (   0.2102437   0.3236913   0.0000000), wk =   0.0190476
        k(   22) = (   0.2102437   0.3236913   0.1884548), wk =   0.0380952
        k(   23) = (   0.2102437   0.3236913   0.3769095), wk =   0.0380952
        k(   24) = (   0.2102437   0.3236913   0.5653643), wk =   0.0380952
        k(   25) = (   0.2102437   0.5259984   0.0000000), wk =   0.0190476
        k(   26) = (   0.2102437   0.5259984   0.1884548), wk =   0.0380952
        k(   27) = (   0.2102437   0.5259984   0.3769095), wk =   0.0380952
        k(   28) = (   0.2102437   0.5259984   0.5653643), wk =   0.0380952
        k(   29) = (   0.2102437  -0.4855370   0.0000000), wk =   0.0190476
        k(   30) = (   0.2102437  -0.4855370   0.1884548), wk =   0.0380952
        k(   31) = (   0.2102437  -0.4855370   0.3769095), wk =   0.0380952
        k(   32) = (   0.2102437  -0.4855370   0.5653643), wk =   0.0380952
        k(   33) = (   0.2102437  -0.2832299   0.0000000), wk =   0.0190476
        k(   34) = (   0.2102437  -0.2832299   0.1884548), wk =   0.0380952
        k(   35) = (   0.2102437  -0.2832299   0.3769095), wk =   0.0380952
        k(   36) = (   0.2102437  -0.2832299   0.5653643), wk =   0.0380952
        k(   37) = (   0.2102437  -0.0809228   0.0000000), wk =   0.0190476
        k(   38) = (   0.2102437  -0.0809228   0.1884548), wk =   0.0380952
        k(   39) = (   0.2102437  -0.0809228   0.3769095), wk =   0.0380952
        k(   40) = (   0.2102437  -0.0809228   0.5653643), wk =   0.0380952
        k(   41) = (   0.4204874   0.2427685   0.0000000), wk =   0.0190476
        k(   42) = (   0.4204874   0.2427685   0.1884548), wk =   0.0380952
        k(   43) = (   0.4204874   0.2427685   0.3769095), wk =   0.0380952
        k(   44) = (   0.4204874   0.2427685   0.5653643), wk =   0.0380952
        k(   45) = (   0.4204874   0.4450756   0.0000000), wk =   0.0190476
        k(   46) = (   0.4204874   0.4450756   0.1884548), wk =   0.0380952
        k(   47) = (   0.4204874   0.4450756   0.3769095), wk =   0.0380952
        k(   48) = (   0.4204874   0.4450756   0.5653643), wk =   0.0380952
        k(   49) = (   0.4204874   0.6473827   0.0000000), wk =   0.0190476
        k(   50) = (   0.4204874   0.6473827   0.1884548), wk =   0.0380952
        k(   51) = (   0.4204874   0.6473827   0.3769095), wk =   0.0380952
        k(   52) = (   0.4204874   0.6473827   0.5653643), wk =   0.0380952
        k(   53) = (   0.4204874  -0.3641528   0.0000000), wk =   0.0190476
        k(   54) = (   0.4204874  -0.3641528   0.1884548), wk =   0.0380952
        k(   55) = (   0.4204874  -0.3641528   0.3769095), wk =   0.0380952
        k(   56) = (   0.4204874  -0.3641528   0.5653643), wk =   0.0380952
        k(   57) = (   0.4204874  -0.1618457   0.0000000), wk =   0.0190476
        k(   58) = (   0.4204874  -0.1618457   0.1884548), wk =   0.0380952
        k(   59) = (   0.4204874  -0.1618457   0.3769095), wk =   0.0380952
        k(   60) = (   0.4204874  -0.1618457   0.5653643), wk =   0.0380952
        k(   61) = (   0.4204874   0.0404614   0.0000000), wk =   0.0190476
        k(   62) = (   0.4204874   0.0404614   0.1884548), wk =   0.0380952
        k(   63) = (   0.4204874   0.0404614   0.3769095), wk =   0.0380952
        k(   64) = (   0.4204874   0.0404614   0.5653643), wk =   0.0380952

     Largest allocated arrays     est. size (Mb)     dimensions
     Largest temporary arrays     est. size (Mb)     dimensions

     Initial potential from superposition of free atoms

     Starting from uniform charge
     Starting wfc are    0 randomized atomic wfcs

     Writing output data file Prototype-La-hP8-Mg3Cd.save

     Self-consistent Calculation

[...]

     iteration #  7     ecut=    40.00 Ry     beta=0.70
     CG style diagonalization
     ethr =  6.28E-04,  avg # of iterations =  4.1

[...]

     total energy              =   -2606.01783694 Ry
     Harris-Foulkes estimate   =   -2606.01859880 Ry
     estimated scf accuracy    <       0.00145725 Ry

     iteration # 11     ecut=    40.00 Ry     beta=0.70
     CG style diagonalization
     c_bands:  1 eigenvalues not converged
     ethr =  6.41E-07,  avg # of iterations =  3.6

     End of self-consistent calculation

[...]

          k = 0.4205 0.0405 0.5654 (  4412 PWs)   bands (ev):

   -81.2853 -81.2790 -81.2654 -81.2589 -81.2520 -81.2484 -40.0014 -39.9971
   -39.9928 -39.9904 -39.9724 -39.9718 -39.9591 -39.9526 -39.9407 -39.9370
   -39.9325 -39.9298 -39.9221 -39.9179 -39.9155 -39.9119 -39.9094 -39.9054
   -38.8714 -38.8706 -10.0422 -10.0398  -9.9840  -9.9818  -9.9797  -9.9791
     8.1875   8.2063   8.3084   8.3508   8.4136   8.4224   8.4891   8.5692
     8.5773   8.5836   8.7137   8.7387   8.8419   8.9715   8.9881   9.0100
     9.0286   9.1269   9.1515   9.1761   9.2450   9.3086   9.3121   9.3358
     9.4008   9.4185   9.5968   9.6199   9.6999   9.7748  16.0699  17.1590
    18.3071  18.8046  19.7413  20.1593  22.4376  22.8260  23.0280  23.2916
    24.1393  24.4227  24.6315  24.7902  25.3058  25.4857  26.1909  26.3146
    26.8917  27.3992  28.7742  29.3817  30.1532  30.2909  31.2661  31.6175
    32.4777  32.7686  33.2500  33.5860  34.1373  34.4304  34.5372  34.6199
    35.2250  35.4311  35.6420  35.9596  36.0341  36.3859  36.8293  37.2262

     the Fermi energy is    30.9222 ev

!    total energy              =   -2606.01806398 Ry
     Harris-Foulkes estimate   =   -2606.01807901 Ry
     estimated scf accuracy    <       0.00001668 Ry

     The total energy is the sum of the following terms:

     one-electron contribution =    -640.93350275 Ry
     hartree contribution      =     431.23418419 Ry
     xc contribution           =    -221.20559687 Ry
     ewald contribution        =   -2174.87572507 Ry
     smearing contrib. (-TS)   =      -0.23742347 Ry

     convergence has been achieved in  11 iterations

     Forces acting on atoms (Ry/au):

     atom    1 type  1   force =    -0.00393977   -0.00227463    0.00000000
     atom    2 type  1   force =    -0.00393977    0.00227463    0.00000000
     atom    3 type  1   force =     0.00393977    0.00227463    0.00000000
     atom    4 type  1   force =     0.00393977   -0.00227463    0.00000000
     atom    5 type  1   force =     0.00000000    0.00454926    0.00000000
     atom    6 type  1   force =     0.00000000   -0.00454926    0.00000000
     atom    7 type  2   force =     0.00000000    0.00000000    0.00000000
     atom    8 type  2   force =     0.00000000    0.00000000    0.00000000

     Total force =     0.011143     Total SCF correction =     0.000000

     entering subroutine stress ...

          total   stress  (Ry/bohr**3)                   (kbar)     P=  204.22
   0.00130951   0.00000000   0.00000000        192.64      0.00      0.00
   0.00000000   0.00130951   0.00000000          0.00    192.64      0.00
   0.00000000   0.00000000   0.00154584          0.00      0.00    227.40

     Writing output data file Prototype-La-hP8-Mg3Cd.save

     General routines

     Parallel routines

   This run was terminated on:  16:56:17  22Mar2018

   JOB DONE.