     Program PWSCF v.5.0.2 starts on 22Mar2018 at 22:45:49

     Current dimensions of program PWSCF are:
     Max number of different atomic species (ntypx) = 10
     Max number of k-points (npk) =  40000
     Max angular momentum in pseudopotentials (lmaxx) =  3
     Waiting for input...
     Reading input from standard input

     Subspace diagonalization in iterative solution of the eigenvalue problem:
     a serial algorithm will be used

     bravais-lattice index     =            0
     lattice parameter (alat)  =       7.0151  a.u.
     unit-cell volume          =     862.2778 (a.u.)^3
     number of atoms/cell      =           12
     number of atomic types    =            2
     number of electrons       =       192.00
     number of Kohn-Sham states=          115
     kinetic-energy cutoff     =      40.0000  Ry
     charge density cutoff     =     160.0000  Ry
     convergence threshold     =      1.0E-04
     mixing beta               =       0.7000
     number of iterations used =            8  plain     mixing
     Exchange-correlation      = SLA-PZ-NOGX-NOGC ( 1 1 0 0 0)
     EXX-fraction              =        0.00
     nstep                     =           50

     celldm(1)=   7.015105  celldm(2)=   0.000000  celldm(3)=   0.000000
     celldm(4)=   0.000000  celldm(5)=   0.000000  celldm(6)=   0.000000

     crystal axes: (cart. coord. in units of alat)
               a(1) = (   1.000000   0.000000   0.000000 )
               a(2) = (   0.000000   1.315963   0.000000 )
               a(3) = (   0.000000   0.000000   1.898020 )

     reciprocal axes: (cart. coord. in units 2 pi/alat)
               b(1) = (  1.000000  0.000000  0.000000 )
               b(2) = (  0.000000  0.759900  0.000000 )
               b(3) = (  0.000000  0.000000  0.526865 )

     PseudoPot. # 1 for Gd read from file:
     /home/cwx6513/pp.La/Gd.UPF
     MD5 check sum: 09a8be538722f05520810cb6aac0efd2
     Pseudo is Norm-conserving, Zval = 18.0
     Generated in analytical, separable form
     Using radial grid of 1263 points,  6 beta functions with:
                l(1) =   0
                l(2) =   0
                l(3) =   1
                l(4) =   1
                l(5) =   2
                l(6) =   3

     PseudoPot. # 2 for Ce read from file:
     /home/cwx6513/pp.La/Ce.UPF
     MD5 check sum: 44451aa79a44a00cf2bc029dc19922f6
     Pseudo is Norm-conserving, Zval = 12.0
     Generated in analytical, separable form
     Using radial grid of 1255 points,  6 beta functions with:
                l(1) =   0
                l(2) =   0
                l(3) =   1
                l(4) =   1
                l(5) =   2
                l(6) =   3

     atomic species   valence    mass     pseudopotential
        Co            18.00    58.93320     Gd( 1.00)
        Si            12.00    28.08550     Ce( 1.00)

      8 Sym. Ops., with inversion, found ( 6 have fractional translation)

   Cartesian axes

     site n.     atom                  positions (alat units)
         1           Co  tau(   1) = (   0.7500000   1.0875135   0.8270358  )
         2           Co  tau(   2) = (   0.2500000   0.2284499   1.0709846  )
         3           Co  tau(   3) = (   0.7500000   0.4295318   0.1219744  )
         4           Co  tau(   4) = (   0.2500000   0.8864316   1.7760460  )
         5           Co  tau(   5) = (   0.2500000   0.7067855   0.5358966  )
         6           Co  tau(   6) = (   0.7500000   0.6091779   1.3621238  )
         7           Co  tau(   7) = (   0.2500000   0.0488038   0.4131136  )
         8           Co  tau(   8) = (   0.7500000   1.2671596   1.4849068  )
         9           Si  tau(   9) = (   0.2500000   0.2669484   1.6960710  )
        10           Si  tau(  10) = (   0.7500000   1.0490149   0.2019494  )
        11           Si  tau(  11) = (   0.2500000   0.9249301   1.1509596  )
        12           Si  tau(  12) = (   0.7500000   0.3910333   0.7470608  )

     number of k points=    12  gaussian smearing, width (Ry)=  0.1000
                       cart. coord. in units 2pi/alat
        k(    1) = (   0.0000000   0.0000000   0.0000000), wk =   0.0833333
        k(    2) = (   0.0000000   0.0000000   0.1317162), wk =   0.1666667
        k(    3) = (   0.0000000   0.0000000  -0.2634324), wk =   0.0833333
        k(    4) = (   0.0000000   0.2532999   0.0000000), wk =   0.1666667
        k(    5) = (   0.0000000   0.2532999   0.1317162), wk =   0.3333333
        k(    6) = (   0.0000000   0.2532999  -0.2634324), wk =   0.1666667
        k(    7) = (  -0.5000000   0.0000000   0.0000000), wk =   0.0833333
        k(    8) = (  -0.5000000   0.0000000   0.1317162), wk =   0.1666667
        k(    9) = (  -0.5000000   0.0000000  -0.2634324), wk =   0.0833333
        k(   10) = (  -0.5000000   0.2532999   0.0000000), wk =   0.1666667
        k(   11) = (  -0.5000000   0.2532999   0.1317162), wk =   0.3333333
        k(   12) = (  -0.5000000   0.2532999  -0.2634324), wk =   0.1666667

     Largest allocated arrays     est. size (Mb)     dimensions
     Largest temporary arrays     est. size (Mb)     dimensions

     Initial potential from superposition of free atoms

     Starting from uniform charge
     Starting wfc are    0 randomized atomic wfcs

     Self-consistent Calculation

     iteration #  1     ecut=    40.00 Ry     beta=0.70
     CG style diagonalization
     c_bands:  4 eigenvalues not converged
     ethr =  1.00E-02,  avg # of iterations = 15.3

     total energy              =   -1701.13823525 Ry
     Harris-Foulkes estimate   =   -2108.15161635 Ry
     estimated scf accuracy    <     520.84416888 Ry

[...]

     iteration #  3     ecut=    40.00 Ry     beta=0.70
     CG style diagonalization
     ethr =  1.00E-02,  avg # of iterations =  8.9

[...]

     End of self-consistent calculation

          k = 0.0000 0.0000 0.0000 (  3675 PWs)   bands (ev):

   -24.7235 -24.3540 -24.3141 -24.1471 -24.0362 -23.8470 -23.7804 -23.7578
     1.5810   2.2273   2.4439   2.5137   2.9270   2.9413   3.3562   3.5017
     3.5872   3.7236   3.7455   4.2447   4.2872   4.3750   4.3996   4.4798
     4.7858   4.8321   4.9148   4.9889   5.0180   5.3475   5.8479   5.9460
     7.8028   8.7430   9.1572   9.2935  22.9493  23.5795  23.7204  23.8400
    24.3039  24.4573  24.6866  24.9141  24.9626  25.1215  25.8275  26.2881
    32.6274  32.6427  32.8430  33.3380  33.4857  33.5931  33.9368  34.4806
    35.0569  35.9623  36.0248  36.4818  36.6472  37.0454  37.1321  37.9085
    38.3136  38.6606  38.7543  38.7793  38.8315  38.8812  39.7908  39.8873
    40.0790  40.2395  40.4159  41.6009  41.9991  42.0326  42.3878  42.8809
    43.2447  43.2628  43.2969  43.7900  43.8689  44.2267  44.5907  44.7758
    45.6644  45.6974  47.4139  47.5301  47.5727  48.2978  48.3503  48.4041
    48.4201  48.8731  49.3235  49.7618  50.9222  51.4985  51.9817  52.0820
    52.2339  52.3095  53.0693  53.1075  53.5069  53.8191  54.0327  54.5380
    55.0090  55.3661  55.4709

[...]

          k =-0.5000 0.0000 0.0000 (  3722 PWs)   bands (ev):

[...]

     the Fermi energy is    48.4555 ev

!    total energy              =   -1907.22737677 Ry
     Harris-Foulkes estimate   =   -1907.22745540 Ry
     estimated scf accuracy    <       0.00008516 Ry

     The total energy is the sum of the following terms:

     one-electron contribution =     356.00325876 Ry
     hartree contribution      =     123.43532857 Ry
     xc contribution           =    -217.51883082 Ry
     ewald contribution        =   -2168.79007708 Ry
     smearing contrib. (-TS)   =      -0.35705620 Ry

     convergence has been achieved in  10 iterations

     Forces acting on atoms (Ry/au):

     atom    1 type  1   force =     0.00000000   -0.08049381   -0.13783720
     atom    2 type  1   force =     0.00000000    0.08049381    0.13783720
     atom    3 type  1   force =     0.00000000   -0.08049381    0.13783720
     atom    4 type  1   force =     0.00000000    0.08049381   -0.13783720
     atom    5 type  1   force =     0.00000000    0.15083177   -0.22276654
     atom    6 type  1   force =     0.00000000   -0.15083177    0.22276654
     atom    7 type  1   force =     0.00000000    0.15083177    0.22276654
     atom    8 type  1   force =     0.00000000   -0.15083177   -0.22276654
     atom    9 type  2   force =     0.00000000   -0.17894355   -0.03889704
     atom   10 type  2   force =     0.00000000    0.17894355    0.03889704
     atom   11 type  2   force =     0.00000000   -0.17894355    0.03889704
     atom   12 type  2   force =     0.00000000    0.17894355   -0.03889704

     Total force =     0.724948     Total SCF correction =     0.000000

     entering subroutine stress ...

          total   stress  (Ry/bohr**3)                   (kbar)     P= 6760.86
   0.04767616   0.00000000   0.00000000       7013.40      0.00      0.00
   0.00000000   0.04337984   0.00000000          0.00   6381.39      0.00
   0.00000000   0.00000000   0.04682220          0.00      0.00   6887.78

     BFGS Geometry Optimization

     number of scf cycles    =   1
     number of bfgs steps    =   0

     enthalpy new            =   -1907.2273767714 Ry

     new trust radius        =       0.5000000000 bohr
     new conv_thr            =       0.0001000000 Ry

     new unit-cell volume =   1092.46697 a.u.^3 (   161.88690 Ang^3 )

CELL_PARAMETERS (alat=  7.01510508)
   1.085136619   0.000000000   0.000000000
   0.000000000   1.417903909   0.000000000
   0.000000000   0.000000000   2.056717067

ATOMIC_POSITIONS (crystal)
Co       0.750000000   0.825778184   0.434996554
Co       0.250000000   0.174221816   0.565003446
Co       0.750000000   0.325778184   0.065003446
Co       0.250000000   0.674221816   0.934996554
Co       0.250000000   0.538253051   0.281149939
Co       0.750000000   0.461746949   0.718850061
Co       0.250000000   0.038253051   0.218850061
Co       0.750000000   0.961746949   0.781149939
Si       0.250000000   0.201469435   0.893391332
Si       0.750000000   0.798530565   0.106608668
Si       0.250000000   0.701469435   0.606608668
Si       0.750000000   0.298530565   0.393391332

     Writing output data file Prototype-La-oP12-Co2Si.save
     NEW-OLD atomic charge density approx. for the potential
     NEW k-points:
        k(    1) = (   0.0000000   0.0000000   0.0000000), wk =   0.0833333
        k(    2) = (   0.0000000   0.0000000   0.1215529), wk =   0.1666667
        k(    3) = (   0.0000000   0.0000000  -0.2431059), wk =   0.0833333
        k(    4) = (   0.0000000   0.2350888   0.0000000), wk =   0.1666667
        k(    5) = (   0.0000000   0.2350888   0.1215529), wk =   0.3333333
        k(    6) = (   0.0000000   0.2350888  -0.2431059), wk =   0.1666667
        k(    7) = (  -0.4607715   0.0000000   0.0000000), wk =   0.0833333
        k(    8) = (  -0.4607715   0.0000000   0.1215529), wk =   0.1666667
        k(    9) = (  -0.4607715   0.0000000  -0.2431059), wk =   0.0833333
        k(   10) = (  -0.4607715   0.2350888   0.0000000), wk =   0.1666667
        k(   11) = (  -0.4607715   0.2350888   0.1215529), wk =   0.3333333
        k(   12) = (  -0.4607715   0.2350888  -0.2431059), wk =   0.1666667

[...]

     enthalpy old            =   -1907.2273767714 Ry
     enthalpy new            =   -1913.9355455848 Ry

     CASE: enthalpy_new < enthalpy_old

     small trust_radius: resetting bfgs history

     new trust radius        =       2.7959148936 bohr
     new conv_thr            =       0.0001000000 Ry

[...]

          total   stress  (Ry/bohr**3)                   (kbar)     P=-1322.84
  -0.00932530   0.00000000   0.00000000      -1371.80      0.00      0.00
   0.00000000  -0.00851915   0.00000000          0.00  -1253.21      0.00
   0.00000000   0.00000000  -0.00913292          0.00      0.00  -1343.50

     number of scf cycles    =   3
     number of bfgs steps    =   2

     enthalpy old            =   -1913.9355455848 Ry
     enthalpy new            =   -1904.3948118269 Ry

     CASE: enthalpy_new > enthalpy_old

     new trust radius        =       1.1302738921 bohr

     trust_radius < trust_radius_min

     resetting bfgs history

     Message from routine bfgs:
     history already reset at previous step: stopping
     new conv_thr            =       0.0001000000 Ry

     new unit-cell volume =   1301.40896 a.u.^3 (   192.84891 Ang^3 )

[...]

ATOMIC_POSITIONS (crystal)
Co       0.750000000   0.825406615   0.434535158
Co       0.250000000   0.174593385   0.565464842
Co       0.750000000   0.325406615   0.065464842
Co       0.250000000   0.674593385   0.934535158
Co       0.250000000   0.539293024   0.280176020
Co       0.750000000   0.460706976   0.719823980
Co       0.250000000   0.039293024   0.219823980
Co       0.750000000   0.960706976   0.780176020
Si       0.250000000   0.200429725   0.893275310
Si       0.750000000   0.799570275   0.106724690
Si       0.250000000   0.700429725   0.606724690
Si       0.750000000   0.299570275   0.393275310

     Writing output data file Prototype-La-oP12-Co2Si.save
     NEW-OLD atomic charge density approx. for the potential
     NEW k-points:
        k(    1) = (   0.0000000   0.0000000   0.0000000), wk =   0.0833333
        k(    2) = (   0.0000000   0.0000000   0.1144005), wk =   0.1666667
        k(    3) = (   0.0000000   0.0000000  -0.2288009), wk =   0.0833333
        k(    4) = (   0.0000000   0.2232694   0.0000000), wk =   0.1666667
        k(    5) = (   0.0000000   0.2232694   0.1144005), wk =   0.3333333
        k(    6) = (   0.0000000   0.2232694  -0.2288009), wk =   0.1666667
        k(    7) = (  -0.4327335   0.0000000   0.0000000), wk =   0.0833333
        k(    8) = (  -0.4327335   0.0000000   0.1144005), wk =   0.1666667
        k(    9) = (  -0.4327335   0.0000000  -0.2288009), wk =   0.0833333
        k(   10) = (  -0.4327335   0.2232694   0.0000000), wk =   0.1666667
        k(   11) = (  -0.4327335   0.2232694   0.1144005), wk =   0.3333333
        k(   12) = (  -0.4327335   0.2232694  -0.2288009), wk =   0.1666667

[...]

     The maximum number of steps has been reached.

     End of BFGS Geometry Optimization
Begin final coordinates
     new unit-cell volume =   1301.40896 a.u.^3 (   192.84891 Ang^3 )

CELL_PARAMETERS (alat=  7.01510508)
   1.155445569   0.000000000   0.000000000
   0.000000000   1.492964710   0.000000000
   0.000000000   0.000000000   2.185305789

ATOMIC_POSITIONS (crystal)
Co       0.750000000   0.825406615   0.434535158
Co       0.250000000   0.174593385   0.565464842
Co       0.750000000   0.325406615   0.065464842
Co       0.250000000   0.674593385   0.934535158
Co       0.250000000   0.539293024   0.280176020
Co       0.750000000   0.460706976   0.719823980
Co       0.250000000   0.039293024   0.219823980
Co       0.750000000   0.960706976   0.780176020
Si       0.250000000   0.200429725   0.893275310
Si       0.750000000   0.799570275   0.106724690
Si       0.250000000   0.700429725   0.606724690
Si       0.750000000   0.299570275   0.393275310
End final coordinates

     A final scf calculation at the relaxed structure.
     The G-vectors are recalculated for the final unit cell
     Results may differ from those at the preceding step.

     bravais-lattice index     =            0
     lattice parameter (alat)  =       7.0151  a.u.
     unit-cell volume          =    1301.4090 (a.u.)^3
     number of atoms/cell      =           12
     number of atomic types    =            2
     number of electrons       =       192.00
     number of Kohn-Sham states=          115
     kinetic-energy cutoff     =      40.0000  Ry
     charge density cutoff     =     160.0000  Ry
     convergence threshold     =      1.0E-04
     mixing beta               =       0.7000
     number of iterations used =            8  plain     mixing
     Exchange-correlation      = SLA-PZ-NOGX-NOGC ( 1 1 0 0 0)
     EXX-fraction              =        0.00

     celldm(1)=   7.015105  celldm(2)=   0.000000  celldm(3)=   0.000000
     celldm(4)=   0.000000  celldm(5)=   0.000000  celldm(6)=   0.000000

     crystal axes: (cart. coord. in units of alat)
               a(1) = (   1.155446   0.000000   0.000000 )
               a(2) = (   0.000000   1.492965   0.000000 )
               a(3) = (   0.000000   0.000000   2.185306 )

     reciprocal axes: (cart. coord. in units 2 pi/alat)
               b(1) = (  0.865467  0.000000  0.000000 )
               b(2) = (  0.000000  0.669808  0.000000 )
               b(3) = (  0.000000  0.000000  0.457602 )

     PseudoPot. # 1 for Gd read from file:
     /home/cwx6513/pp.La/Gd.UPF
     MD5 check sum: 09a8be538722f05520810cb6aac0efd2
     Pseudo is Norm-conserving, Zval = 18.0
     Generated in analytical, separable form
     Using radial grid of 1263 points,  6 beta functions with:
                l(1) =   0
                l(2) =   0
                l(3) =   1
                l(4) =   1
                l(5) =   2
                l(6) =   3

     PseudoPot. # 2 for Ce read from file:
     /home/cwx6513/pp.La/Ce.UPF
     MD5 check sum: 44451aa79a44a00cf2bc029dc19922f6
     Pseudo is Norm-conserving, Zval = 12.0
     Generated in analytical, separable form
     Using radial grid of 1255 points,  6 beta functions with:
                l(1) =   0
                l(2) =   0
                l(3) =   1
                l(4) =   1
                l(5) =   2
                l(6) =   3

     atomic species   valence    mass     pseudopotential
        Co            18.00    58.93320     Gd( 1.00)
        Si            12.00    28.08550     Ce( 1.00)

      8 Sym. Ops., with inversion, found ( 6 have fractional translation)

   Cartesian axes

     site n.     atom                  positions (alat units)
         1           Co  tau(   1) = (   0.8665842   1.2323029   0.9495922  )
         2           Co  tau(   2) = (   0.2888614   0.2606618   1.2357136  )
         3           Co  tau(   3) = (   0.8665842   0.4858206   0.1430607  )
         4           Co  tau(   4) = (   0.2888614   1.0071441   2.0422451  )
         5           Co  tau(   5) = (   0.2888614   0.8051455   0.6122703  )
         6           Co  tau(   6) = (   0.8665842   0.6878193   1.5730355  )
         7           Co  tau(   7) = (   0.2888614   0.0586631   0.4803826  )
         8           Co  tau(   8) = (   0.8665842   1.4343016   1.7049232  )
         9           Si  tau(   9) = (   0.2888614   0.2992345   1.9520797  )
        10           Si  tau(  10) = (   0.8665842   1.1937302   0.2332261  )
        11           Si  tau(  11) = (   0.2888614   1.0457169   1.3258790  )
        12           Si  tau(  12) = (   0.8665842   0.4472478   0.8594268  )

     number of k points=    12  gaussian smearing, width (Ry)=  0.1000
                       cart. coord. in units 2pi/alat
        k(    1) = (   0.0000000   0.0000000   0.0000000), wk =   0.0833333
        k(    2) = (   0.0000000   0.0000000   0.1144005), wk =   0.1666667
        k(    3) = (   0.0000000   0.0000000  -0.2288009), wk =   0.0833333
        k(    4) = (   0.0000000   0.2232694   0.0000000), wk =   0.1666667
        k(    5) = (   0.0000000   0.2232694   0.1144005), wk =   0.3333333
        k(    6) = (   0.0000000   0.2232694  -0.2288009), wk =   0.1666667
        k(    7) = (  -0.4327335   0.0000000   0.0000000), wk =   0.0833333
        k(    8) = (  -0.4327335   0.0000000   0.1144005), wk =   0.1666667
        k(    9) = (  -0.4327335   0.0000000  -0.2288009), wk =   0.0833333
        k(   10) = (  -0.4327335   0.2232694   0.0000000), wk =   0.1666667
        k(   11) = (  -0.4327335   0.2232694   0.1144005), wk =   0.3333333
        k(   12) = (  -0.4327335   0.2232694  -0.2288009), wk =   0.1666667

     Largest allocated arrays     est. size (Mb)     dimensions
     Largest temporary arrays     est. size (Mb)     dimensions

     Initial potential from superposition of free atoms

     Starting from uniform charge
     Starting wfc are    0 randomized atomic wfcs

     Writing output data file Prototype-La-oP12-Co2Si.save

     Self-consistent Calculation

[...]

     iteration #  9     ecut=    40.00 Ry     beta=0.70
     CG style diagonalization
     c_bands:  1 eigenvalues not converged
     c_bands:  1 eigenvalues not converged
     ethr =  1.99E-06,  avg # of iterations =  4.1

[...]

     total energy              =   -1918.16435839 Ry
     Harris-Foulkes estimate   =   -1918.16450505 Ry
     estimated scf accuracy    <       0.00027148 Ry

     iteration # 11     ecut=    40.00 Ry     beta=0.70
     CG style diagonalization
     ethr =  1.41E-07,  avg # of iterations =  3.8

     End of self-consistent calculation

[...]

          k = 0.0000 0.2233-0.2288 (  5538 PWs)   bands (ev):

[...]

          k =-0.4327 0.2233-0.2288 (  5556 PWs)   bands (ev):

   -39.0188 -39.0188 -39.0184 -39.0184 -38.8756 -38.8756 -38.8313 -38.8313
   -10.7359 -10.7359 -10.6435 -10.6435 -10.4795 -10.4795 -10.3740 -10.3740
   -10.3285 -10.3285 -10.1514 -10.1514 -10.0507 -10.0507  -9.9306  -9.9306
    -9.8880  -9.8880  -9.8688  -9.8688  -9.7445  -9.7445  -9.6573  -9.6573
    -7.3277  -7.3277  -7.2662  -7.2662   9.4527   9.4527   9.6166   9.6166
     9.8558   9.8558   9.8967   9.8967  10.1163  10.1163  10.1256  10.1256
    21.9052  21.9052  22.4043  22.4043  22.5321  22.5321  23.0609  23.0609
    23.2056  23.2056  23.3236  23.3236  23.3632  23.3632  23.9438  23.9438
    24.0148  24.0148  24.1489  24.1489  24.2450  24.2450  24.6924  24.6924
    24.8502  24.8502  25.3930  25.3930  25.4626  25.4626  25.7810  25.7810
    26.0160  26.0160  26.9570  26.9570  27.0943  27.0943  27.4792  27.4792
    27.9368  27.9368  28.3273  28.3273  29.9753  29.9753  30.9177  30.9177
    31.1608  31.1608  31.3278  31.3278  32.0908  32.0908  32.4009  32.4009
    33.1424  33.1424  33.5493  33.5494  34.1362  34.1362  34.3804  34.3805
    36.0962  36.0963  36.8306

     the Fermi energy is    30.8922 ev

!    total energy              =   -1918.16441379 Ry
     Harris-Foulkes estimate   =   -1918.16443362 Ry
     estimated scf accuracy    <       0.00002329 Ry

     The total energy is the sum of the following terms:

     one-electron contribution =     -21.34639621 Ry
     hartree contribution      =     200.83570502 Ry
     xc contribution           =    -206.28103120 Ry
     ewald contribution        =   -1890.93752639 Ry
     smearing contrib. (-TS)   =      -0.43516501 Ry

     convergence has been achieved in  11 iterations

     Forces acting on atoms (Ry/au):

     atom    1 type  1   force =     0.00000000   -0.02218921   -0.01491857
     atom    2 type  1   force =     0.00000000    0.02218921    0.01491857
     atom    3 type  1   force =     0.00000000   -0.02218921    0.01491857
     atom    4 type  1   force =     0.00000000    0.02218921   -0.01491857
     atom    5 type  1   force =     0.00000000    0.05751215   -0.07827168
     atom    6 type  1   force =     0.00000000   -0.05751215    0.07827168
     atom    7 type  1   force =     0.00000000    0.05751215    0.07827168
     atom    8 type  1   force =     0.00000000   -0.05751215   -0.07827168
     atom    9 type  2   force =     0.00000000   -0.05715390   -0.00019032
     atom   10 type  2   force =     0.00000000    0.05715390    0.00019032
     atom   11 type  2   force =     0.00000000   -0.05715390    0.00019032
     atom   12 type  2   force =     0.00000000    0.05715390   -0.00019032

     Total force =     0.231652     Total SCF correction =     0.000000

     entering subroutine stress ...

          total   stress  (Ry/bohr**3)                   (kbar)     P= 1149.90
   0.00823611   0.00000000   0.00000000       1211.57      0.00      0.00
   0.00000000   0.00724447   0.00000000          0.00   1065.70      0.00
   0.00000000   0.00000000   0.00797011          0.00      0.00   1172.44

     Writing output data file Prototype-La-oP12-Co2Si.save

     General routines

     Parallel routines

   This run was terminated on:  23: 5:12  22Mar2018

   JOB DONE.