     Program PWSCF v.5.0.2 starts on 23Mar2018 at  2:19:45

     Current dimensions of program PWSCF are:
     Max number of different atomic species (ntypx) = 10
     Max number of k-points (npk) =  40000
     Max angular momentum in pseudopotentials (lmaxx) =  3
     Waiting for input...
     Reading input from standard input

     Subspace diagonalization in iterative solution of the eigenvalue problem:
     a serial algorithm will be used

     bravais-lattice index     =            0
     lattice parameter (alat)  =       9.9235  a.u.
     unit-cell volume          =    1361.0366 (a.u.)^3
     number of atoms/cell      =           12
     number of atomic types    =            2
     number of electrons       =       208.00
     number of Kohn-Sham states=          125
     kinetic-energy cutoff     =      40.0000  Ry
     charge density cutoff     =     160.0000  Ry
     convergence threshold     =      1.0E-04
     mixing beta               =       0.7000
     number of iterations used =            8  plain     mixing
     Exchange-correlation      = SLA-PZ-NOGX-NOGC ( 1 1 0 0 0)
     EXX-fraction              =        0.00
     nstep                     =           50

     celldm(1)=   9.923489  celldm(2)=   0.000000  celldm(3)=   0.000000
     celldm(4)=   0.000000  celldm(5)=   0.000000  celldm(6)=   0.000000

     crystal axes: (cart. coord. in units of alat)
               a(1) = (   1.000000   0.000000   0.000000 )
               a(2) = (  -0.500000   0.866025   0.000000 )
               a(3) = (   0.000000   0.000000   1.608222 )

     reciprocal axes: (cart. coord. in units 2 pi/alat)
               b(1) = (  1.000000  0.577350  0.000000 )
               b(2) = (  0.000000  1.154701  0.000000 )
               b(3) = (  0.000000  0.000000  0.621805 )

     PseudoPot. # 1 for Dy read from file:
     /home/cwx6513/pp.La/Dy.UPF
     MD5 check sum: 9597327bec62616a94a14d07f3fd9936
     Pseudo is Norm-conserving, Zval = 20.0
     Generated in analytical, separable form
     Using radial grid of 1265 points,  6 beta functions with:
                l(1) =   0
                l(2) =   0
                l(3) =   1
                l(4) =   1
                l(5) =   2
                l(6) =   3

     PseudoPot. # 2 for Sm read from file:
     /home/cwx6513/pp.La/Sm.UPF
     MD5 check sum: 5079e8b144a06bfcdbc14fb02b96ab09
     Pseudo is Norm-conserving, Zval = 16.0
     Generated in analytical, separable form
     Using radial grid of 1259 points,  6 beta functions with:
                l(1) =   0
                l(2) =   0
                l(3) =   1
                l(4) =   1
                l(5) =   2
                l(6) =   3

     atomic species   valence    mass     pseudopotential
        Mg            20.00    24.30500     Dy( 1.00)
        Zn            16.00    65.39000     Sm( 1.00)

     24 Sym. Ops., with inversion, found (12 have fractional translation)

   Cartesian axes

     site n.     atom                  positions (alat units)
         1           Mg  tau(   1) = (  -0.0000005   0.5773506   0.1003820  )
         2           Mg  tau(   2) = (   0.5000005   0.2886748   0.9044931  )
         3           Mg  tau(   3) = (   0.5000005   0.2886748   1.5078402  )
         4           Mg  tau(   4) = (  -0.0000005   0.5773506   0.7037291  )
         5           Zn  tau(   5) = (   0.0000000   0.0000000   0.0000000  )
         6           Zn  tau(   6) = (   0.0000000   0.0000000   0.8041111  )
         7           Zn  tau(   7) = (   0.0000000   0.2950739   1.2061667  )
         8           Zn  tau(   8) = (   0.7444585   0.1475370   0.4020556  )
         9           Zn  tau(   9) = (   0.2555415   0.1475370   0.4020556  )
        10           Zn  tau(  10) = (   0.2444585   0.7184884   1.2061667  )
        11           Zn  tau(  11) = (  -0.2444585   0.7184884   1.2061667  )
        12           Zn  tau(  12) = (   0.5000000   0.5709515   0.4020556  )

     number of k points=    12  gaussian smearing, width (Ry)=  0.1000
                       cart. coord. in units 2pi/alat
        k(    1) = (   0.0000000   0.0000000   0.0000000), wk =   0.0833333
        k(    2) = (   0.0000000   0.0000000   0.1554512), wk =   0.1666667
        k(    3) = (   0.0000000   0.0000000  -0.3109023), wk =   0.0833333
        k(    4) = (   0.0000000   0.3849002   0.0000000), wk =   0.1666667
        k(    5) = (   0.0000000   0.3849002   0.1554512), wk =   0.3333333
        k(    6) = (   0.0000000   0.3849002  -0.3109023), wk =   0.1666667
        k(    7) = (  -0.5000000  -0.2886751   0.0000000), wk =   0.0833333
        k(    8) = (  -0.5000000  -0.2886751   0.1554512), wk =   0.1666667
        k(    9) = (  -0.5000000  -0.2886751  -0.3109023), wk =   0.0833333
        k(   10) = (  -0.5000000   0.0962250   0.0000000), wk =   0.1666667
        k(   11) = (  -0.5000000   0.0962250   0.1554512), wk =   0.3333333
        k(   12) = (  -0.5000000   0.0962250  -0.3109023), wk =   0.1666667

     Largest allocated arrays     est. size (Mb)     dimensions
     Largest temporary arrays     est. size (Mb)     dimensions

     Initial potential from superposition of free atoms

     Starting from uniform charge
     Starting wfc are    0 randomized atomic wfcs

     Self-consistent Calculation

     iteration #  1     ecut=    40.00 Ry     beta=0.70
     CG style diagonalization
     ethr =  1.00E-02,  avg # of iterations = 17.1

     total energy              =   -1516.93858069 Ry
     Harris-Foulkes estimate   =   -2648.41182973 Ry
     estimated scf accuracy    <    1393.57506241 Ry

[...]

     iteration #  3     ecut=    40.00 Ry     beta=0.70
     CG style diagonalization
     c_bands:  1 eigenvalues not converged
     c_bands:  1 eigenvalues not converged
     ethr =  1.00E-02,  avg # of iterations = 10.9

[...]

     End of self-consistent calculation

          k = 0.0000 0.0000 0.0000 (  5769 PWs)   bands (ev):

   -53.1561 -53.1559 -53.1452 -53.1427 -28.7956 -28.5862 -28.1787 -27.9448
   -27.9169 -27.9169 -27.9152 -27.9151 -20.1391 -20.1349 -20.1206 -20.1206
   -20.0990 -20.0990 -20.0622 -20.0419 -20.0273 -20.0273 -20.0258 -20.0258
    -6.5911  -6.0370  -5.3446  -4.5460  -4.5460  -4.3908  -4.3908  -4.2766
    -4.2765  -3.8059  -3.3134  -3.3133  -3.2792  -3.2791  -3.2718  -2.3134
    -2.3133  -2.3105  -2.3088  -2.3008  -2.1208  -2.1208  -2.0233  -2.0232
    19.3025  19.5427  19.7803  19.7804  20.0784  20.0784  20.0889  20.3243
    20.4074  20.4074  20.4877  20.4877  20.6220  20.7475  20.7574  20.9760
    20.9760  21.1588  21.2158  21.2158  21.2464  21.2464  21.5044  21.5044
    22.1832  22.1832  22.4727  23.0503  23.0503  23.1566  23.1566  23.7363
    23.8141  24.2283  24.2283  24.5327  25.4972  25.4972  25.9808  25.9808
    25.9864  25.9864  27.0763  27.7175  28.1185  28.1186  28.6018  28.9030
    29.4289  29.7169  29.7169  29.7176  29.7177  29.9181  29.9181  30.1352
    30.1353  30.3217  32.1018  32.1020  32.1407  32.2062  32.2063  33.0891
    33.3594  33.3594  33.4603  34.0854  34.0854  35.2687  35.2689  35.3028
    35.3360  36.0092  36.0211  36.2567  37.0664

[...]

          k =-0.5000-0.2887 0.0000 (  5800 PWs)   bands (ev):

[...]

     the Fermi energy is    29.7657 ev

!    total energy              =   -2253.65916835 Ry
     Harris-Foulkes estimate   =   -2253.65920674 Ry
     estimated scf accuracy    <       0.00004213 Ry

     The total energy is the sum of the following terms:

     one-electron contribution =    -113.56592529 Ry
     hartree contribution      =     250.06581565 Ry
     xc contribution           =    -230.80826171 Ry
     ewald contribution        =   -2158.76941560 Ry
     smearing contrib. (-TS)   =      -0.58138139 Ry

     convergence has been achieved in  11 iterations

     Forces acting on atoms (Ry/au):

     atom    1 type  1   force =     0.00000000    0.00000000    0.02734048
     atom    2 type  1   force =     0.00000000    0.00000000    0.02734048
     atom    3 type  1   force =     0.00000000    0.00000000   -0.02734048
     atom    4 type  1   force =     0.00000000    0.00000000   -0.02734048
     atom    5 type  2   force =     0.00000000    0.00000000    0.00000000
     atom    6 type  2   force =     0.00000000    0.00000000    0.00000000
     atom    7 type  2   force =     0.00000000    0.06590192    0.00000000
     atom    8 type  2   force =    -0.05707273    0.03295096    0.00000000
     atom    9 type  2   force =     0.05707273    0.03295096    0.00000000
     atom   10 type  2   force =    -0.05707273   -0.03295096    0.00000000
     atom   11 type  2   force =     0.05707273   -0.03295096    0.00000000
     atom   12 type  2   force =     0.00000000   -0.06590192    0.00000000

     Total force =     0.170436     Total SCF correction =     0.000000

     entering subroutine stress ...

          total   stress  (Ry/bohr**3)                   (kbar)     P=  775.15
   0.00515901   0.00000000   0.00000000        758.92      0.00      0.00
   0.00000000   0.00515901   0.00000000          0.00    758.92      0.00
   0.00000000   0.00000000   0.00549000          0.00      0.00    807.61

     BFGS Geometry Optimization

     number of scf cycles    =   1
     number of bfgs steps    =   0

     enthalpy new            =   -2253.6591683471 Ry

     new trust radius        =       0.5000000000 bohr
     new conv_thr            =       0.0001000000 Ry

     new unit-cell volume =   1644.24668 a.u.^3 (   243.65222 Ang^3 )

CELL_PARAMETERS (alat=  9.92348860)
   1.063679402   0.000000000   0.000000000
  -0.531839701   0.921173383   0.000000000
   0.000000000   0.000000000   1.717203317

ATOMIC_POSITIONS (crystal)
Mg       0.333333000   0.666667000   0.063263841
Mg       0.666667000   0.333333000   0.563263841
Mg       0.666667000   0.333333000   0.936736159
Mg       0.333333000   0.666667000   0.436736159
Zn       0.000000000   0.000000000   0.000000000
Zn       0.000000000   0.000000000   0.500000000
Zn       0.172254067   0.344508133   0.750000000
Zn       0.827745933   0.172254067   0.250000000
Zn       0.344508133   0.172254067   0.250000000
Zn       0.655491867   0.827745933   0.750000000
Zn       0.172254067   0.827745933   0.750000000
Zn       0.827745933   0.655491867   0.250000000

     Writing output data file Prototype-La-hP12-MgZn2.save
     NEW-OLD atomic charge density approx. for the potential
     NEW k-points:
        k(    1) = (   0.0000000   0.0000000   0.0000000), wk =   0.0833333
        k(    2) = (   0.0000000   0.0000000   0.1455856), wk =   0.1666667
        k(    3) = (   0.0000000   0.0000000  -0.2911711), wk =   0.0833333
        k(    4) = (   0.0000000   0.3618573   0.0000000), wk =   0.1666667
        k(    5) = (   0.0000000   0.3618573   0.1455856), wk =   0.3333333
        k(    6) = (   0.0000000   0.3618573  -0.2911711), wk =   0.1666667
        k(    7) = (  -0.4700664  -0.2713930   0.0000000), wk =   0.0833333
        k(    8) = (  -0.4700664  -0.2713930   0.1455856), wk =   0.1666667
        k(    9) = (  -0.4700664  -0.2713930  -0.2911711), wk =   0.0833333
        k(   10) = (  -0.4700664   0.0904643   0.0000000), wk =   0.1666667
        k(   11) = (  -0.4700664   0.0904643   0.1455856), wk =   0.3333333
        k(   12) = (  -0.4700664   0.0904643  -0.2911711), wk =   0.1666667

[...]

     enthalpy old            =   -2253.6591683471 Ry
     enthalpy new            =   -2254.0943170903 Ry

     CASE: enthalpy_new < enthalpy_old

     small trust_radius: resetting bfgs history

     new trust radius        =       0.2721589178 bohr
     new conv_thr            =       0.0000170217 Ry

[...]

     number of scf cycles    =   3
     number of bfgs steps    =   2

     enthalpy old            =   -2254.0943170903 Ry
     enthalpy new            =   -2254.0823029109 Ry

     CASE: enthalpy_new > enthalpy_old

     new trust radius        =       0.1269517796 bohr

     trust_radius < trust_radius_min

     resetting bfgs history

     Message from routine bfgs:
     history already reset at previous step: stopping
     new conv_thr            =       0.0000170217 Ry

     new unit-cell volume =   1479.50883 a.u.^3 (   219.24059 Ang^3 )

[...]

ATOMIC_POSITIONS (crystal)
Mg       0.333333000   0.666667000   0.064333303
Mg       0.666667000   0.333333000   0.564333303
Mg       0.666667000   0.333333000   0.935666697
Mg       0.333333000   0.666667000   0.435666697
Zn       0.000000000   0.000000000   0.000000000
Zn       0.000000000   0.000000000   0.500000000
Zn       0.171504086   0.343008172   0.750000000
Zn       0.828495914   0.171504086   0.250000000
Zn       0.343008172   0.171504086   0.250000000
Zn       0.656991828   0.828495914   0.750000000
Zn       0.171504086   0.828495914   0.750000000
Zn       0.828495914   0.656991828   0.250000000

     Writing output data file Prototype-La-hP12-MgZn2.save
     NEW-OLD atomic charge density approx. for the potential
     NEW k-points:
        k(    1) = (   0.0000000   0.0000000   0.0000000), wk =   0.0833333
        k(    2) = (   0.0000000   0.0000000   0.1508205), wk =   0.1666667
        k(    3) = (   0.0000000   0.0000000  -0.3016410), wk =   0.0833333
        k(    4) = (   0.0000000   0.3747926   0.0000000), wk =   0.1666667
        k(    5) = (   0.0000000   0.3747926   0.1508205), wk =   0.3333333
        k(    6) = (   0.0000000   0.3747926  -0.3016410), wk =   0.1666667
        k(    7) = (  -0.4868699  -0.2810945   0.0000000), wk =   0.0833333
        k(    8) = (  -0.4868699  -0.2810945   0.1508205), wk =   0.1666667
        k(    9) = (  -0.4868699  -0.2810945  -0.3016410), wk =   0.0833333
        k(   10) = (  -0.4868699   0.0936982   0.0000000), wk =   0.1666667
        k(   11) = (  -0.4868699   0.0936982   0.1508205), wk =   0.3333333
        k(   12) = (  -0.4868699   0.0936982  -0.3016410), wk =   0.1666667

[...]

     The maximum number of steps has been reached.

     End of BFGS Geometry Optimization
Begin final coordinates
     new unit-cell volume =   1479.50883 a.u.^3 (   219.24059 Ang^3 )

CELL_PARAMETERS (alat=  9.92348860)
   1.026968362   0.000000000   0.000000000
  -0.513484181   0.889380690   0.000000000
   0.000000000   0.000000000   1.657599763

ATOMIC_POSITIONS (crystal)
Mg       0.333333000   0.666667000   0.064333303
Mg       0.666667000   0.333333000   0.564333303
Mg       0.666667000   0.333333000   0.935666697
Mg       0.333333000   0.666667000   0.435666697
Zn       0.000000000   0.000000000   0.000000000
Zn       0.000000000   0.000000000   0.500000000
Zn       0.171504086   0.343008172   0.750000000
Zn       0.828495914   0.171504086   0.250000000
Zn       0.343008172   0.171504086   0.250000000
Zn       0.656991828   0.828495914   0.750000000
Zn       0.171504086   0.828495914   0.750000000
Zn       0.828495914   0.656991828   0.250000000
End final coordinates

     A final scf calculation at the relaxed structure.
     The G-vectors are recalculated for the final unit cell
     Results may differ from those at the preceding step.

     bravais-lattice index     =            0
     lattice parameter (alat)  =       9.9235  a.u.
     unit-cell volume          =    1479.5088 (a.u.)^3
     number of atoms/cell      =           12
     number of atomic types    =            2
     number of electrons       =       208.00
     number of Kohn-Sham states=          125
     kinetic-energy cutoff     =      40.0000  Ry
     charge density cutoff     =     160.0000  Ry
     convergence threshold     =      1.7E-05
     mixing beta               =       0.7000
     number of iterations used =            8  plain     mixing
     Exchange-correlation      = SLA-PZ-NOGX-NOGC ( 1 1 0 0 0)
     EXX-fraction              =        0.00

     celldm(1)=   9.923489  celldm(2)=   0.000000  celldm(3)=   0.000000
     celldm(4)=   0.000000  celldm(5)=   0.000000  celldm(6)=   0.000000

     crystal axes: (cart. coord. in units of alat)
               a(1) = (   1.026968   0.000000   0.000000 )
               a(2) = (  -0.513484   0.889381   0.000000 )
               a(3) = (   0.000000   0.000000   1.657600 )

     reciprocal axes: (cart. coord. in units 2 pi/alat)
               b(1) = (  0.973740  0.562189  0.000000 )
               b(2) = (  0.000000  1.124378  0.000000 )
               b(3) = (  0.000000  0.000000  0.603282 )

     PseudoPot. # 1 for Dy read from file:
     /home/cwx6513/pp.La/Dy.UPF
     MD5 check sum: 9597327bec62616a94a14d07f3fd9936
     Pseudo is Norm-conserving, Zval = 20.0
     Generated in analytical, separable form
     Using radial grid of 1265 points,  6 beta functions with:
                l(1) =   0
                l(2) =   0
                l(3) =   1
                l(4) =   1
                l(5) =   2
                l(6) =   3

     PseudoPot. # 2 for Sm read from file:
     /home/cwx6513/pp.La/Sm.UPF
     MD5 check sum: 5079e8b144a06bfcdbc14fb02b96ab09
     Pseudo is Norm-conserving, Zval = 16.0
     Generated in analytical, separable form
     Using radial grid of 1259 points,  6 beta functions with:
                l(1) =   0
                l(2) =   0
                l(3) =   1
                l(4) =   1
                l(5) =   2
                l(6) =   3

     atomic species   valence    mass     pseudopotential
        Mg            20.00    24.30500     Dy( 1.00)
        Zn            16.00    65.39000     Sm( 1.00)

     24 Sym. Ops., with inversion, found (12 have fractional translation)

   Cartesian axes

     site n.     atom                  positions (alat units)
         1           Mg  tau(   1) = (  -0.0000005   0.5929208   0.1066389  )
         2           Mg  tau(   2) = (   0.5134847   0.2964599   0.9354387  )
         3           Mg  tau(   3) = (   0.5134847   0.2964599   1.5509609  )
         4           Mg  tau(   4) = (  -0.0000005   0.5929208   0.7221610  )
         5           Zn  tau(   5) = (   0.0000000   0.0000000   0.0000000  )
         6           Zn  tau(   6) = (   0.0000000   0.0000000   0.8287999  )
         7           Zn  tau(   7) = (   0.0000000   0.3050648   1.2431998  )
         8           Zn  tau(   8) = (   0.7627745   0.1525324   0.4143999  )
         9           Zn  tau(   9) = (   0.2641939   0.1525324   0.4143999  )
        10           Zn  tau(  10) = (   0.2492903   0.7368483   1.2431998  )
        11           Zn  tau(  11) = (  -0.2492903   0.7368483   1.2431998  )
        12           Zn  tau(  12) = (   0.5134842   0.5843158   0.4143999  )

     number of k points=    12  gaussian smearing, width (Ry)=  0.1000
                       cart. coord. in units 2pi/alat
        k(    1) = (   0.0000000   0.0000000   0.0000000), wk =   0.0833333
        k(    2) = (   0.0000000   0.0000000   0.1508205), wk =   0.1666667
        k(    3) = (   0.0000000   0.0000000  -0.3016410), wk =   0.0833333
        k(    4) = (   0.0000000   0.3747926   0.0000000), wk =   0.1666667
        k(    5) = (   0.0000000   0.3747926   0.1508205), wk =   0.3333333
        k(    6) = (   0.0000000   0.3747926  -0.3016410), wk =   0.1666667
        k(    7) = (  -0.4868699  -0.2810945   0.0000000), wk =   0.0833333
        k(    8) = (  -0.4868699  -0.2810945   0.1508205), wk =   0.1666667
        k(    9) = (  -0.4868699  -0.2810945  -0.3016410), wk =   0.0833333
        k(   10) = (  -0.4868699   0.0936982   0.0000000), wk =   0.1666667
        k(   11) = (  -0.4868699   0.0936982   0.1508205), wk =   0.3333333
        k(   12) = (  -0.4868699   0.0936982  -0.3016410), wk =   0.1666667

     Largest allocated arrays     est. size (Mb)     dimensions
     Largest temporary arrays     est. size (Mb)     dimensions

     Initial potential from superposition of free atoms

     Starting from uniform charge
     Starting wfc are    0 randomized atomic wfcs

     Writing output data file Prototype-La-hP12-MgZn2.save

     Self-consistent Calculation

[...]

     iteration #  9     ecut=    40.00 Ry     beta=0.70
     CG style diagonalization
     c_bands:  1 eigenvalues not converged
     c_bands:  2 eigenvalues not converged
     c_bands:  1 eigenvalues not converged
     c_bands:  1 eigenvalues not converged
     ethr =  3.55E-06,  avg # of iterations =  5.3

[...]

     total energy              =   -2254.41344838 Ry
     Harris-Foulkes estimate   =   -2254.41346478 Ry
     estimated scf accuracy    <       0.00003264 Ry

     iteration # 12     ecut=    40.00 Ry     beta=0.70
     CG style diagonalization
     ethr =  1.57E-08,  avg # of iterations =  3.6

     End of self-consistent calculation

[...]

          k = 0.0000 0.3748-0.3016 (  6320 PWs)   bands (ev):

[...]

          k =-0.4869 0.0937-0.3016 (  6324 PWs)   bands (ev):

   -55.6232 -55.6231 -55.6186 -55.6186 -31.0256 -31.0255 -30.8571 -30.8570
   -30.5857 -30.5857 -30.5805 -30.5805 -22.5724 -22.5724 -22.5439 -22.5439
   -22.5337 -22.5337 -22.5126 -22.5125 -22.4984 -22.4984 -22.4916 -22.4915
    -7.7260  -7.7260  -7.1059  -7.1059  -6.5839  -6.5839  -6.5375  -6.5375
    -6.3986  -6.3986  -6.2401  -6.2401  -5.9063  -5.9063  -5.6305  -5.6305
    -5.4410  -5.4410  -5.3201  -5.3201  -5.0936  -5.0936  -5.0275  -5.0275
    17.5726  17.5726  17.7074  17.7074  17.7921  17.7921  17.9876  17.9876
    18.1666  18.1666  18.2359  18.2359  18.5360  18.5360  18.5935  18.5935
    18.9259  18.9259  19.1555  19.1555  20.0348  20.0348  20.3247  20.3247
    20.7772  20.7772  21.2777  21.2777  21.4979  21.4979  21.9080  21.9080
    22.1680  22.1680  22.4937  22.4937  23.0366  23.0366  23.2033  23.2033
    23.4988  23.4988  24.2945  24.2945  24.4396  24.4396  24.9442  24.9442
    25.2688  25.2688  25.5552  25.5552  25.7969  25.7969  26.3840  26.3840
    26.8126  26.8126  27.0441  27.0441  27.4895  27.4895  28.6161  28.6161
    29.4732  29.4732  30.6686  30.6686  31.3192  31.3192  31.8645  31.8645
    32.8361  32.8361  34.0558  34.0559  35.1182

     the Fermi energy is    26.9421 ev

!    total energy              =   -2254.41345574 Ry
     Harris-Foulkes estimate   =   -2254.41345647 Ry
     estimated scf accuracy    <       0.00000084 Ry

     The total energy is the sum of the following terms:

     one-electron contribution =    -196.52842145 Ry
     hartree contribution      =     271.67418039 Ry
     xc contribution           =    -229.10200064 Ry
     ewald contribution        =   -2099.83447141 Ry
     smearing contrib. (-TS)   =      -0.62274262 Ry

     convergence has been achieved in  12 iterations

     Forces acting on atoms (Ry/au):

     atom    1 type  1   force =     0.00000000    0.00000000    0.01022869
     atom    2 type  1   force =     0.00000000    0.00000000    0.01022869
     atom    3 type  1   force =     0.00000000    0.00000000   -0.01022869
     atom    4 type  1   force =     0.00000000    0.00000000   -0.01022869
     atom    5 type  2   force =     0.00000000    0.00000000    0.00000000
     atom    6 type  2   force =     0.00000000    0.00000000    0.00000000
     atom    7 type  2   force =     0.00000000    0.01029684    0.00000000
     atom    8 type  2   force =    -0.00891733    0.00514842    0.00000000
     atom    9 type  2   force =     0.00891733    0.00514842    0.00000000
     atom   10 type  2   force =    -0.00891733   -0.00514842    0.00000000
     atom   11 type  2   force =     0.00891733   -0.00514842    0.00000000
     atom   12 type  2   force =     0.00000000   -0.01029684    0.00000000

     Total force =     0.032475     Total SCF correction =     0.000000

     entering subroutine stress ...

          total   stress  (Ry/bohr**3)                   (kbar)     P=  358.00
   0.00240850   0.00000000   0.00000000        354.30      0.00      0.00
   0.00000000   0.00240850   0.00000000          0.00    354.30      0.00
   0.00000000   0.00000000   0.00248383          0.00      0.00    365.38

     Writing output data file Prototype-La-hP12-MgZn2.save

     General routines

     Parallel routines

   This run was terminated on:   2:46: 1  23Mar2018

   JOB DONE.