     Program PWSCF v.5.0.2 starts on 22Mar2018 at 21:15:10

     Current dimensions of program PWSCF are:
     Max number of different atomic species (ntypx) = 10
     Max number of k-points (npk) =  40000
     Max angular momentum in pseudopotentials (lmaxx) =  3
     Waiting for input...
     Reading input from standard input

     Subspace diagonalization in iterative solution of the eigenvalue problem:
     a serial algorithm will be used

     bravais-lattice index     =            0
     lattice parameter (alat)  =      12.0168  a.u.
     unit-cell volume          =    1187.3413 (a.u.)^3
     number of atoms/cell      =            8
     number of atomic types    =            2
     number of electrons       =       128.00
     number of Kohn-Sham states=           77
     kinetic-energy cutoff     =      40.0000  Ry
     charge density cutoff     =     160.0000  Ry
     convergence threshold     =      1.0E-04
     mixing beta               =       0.7000
     number of iterations used =            8  plain     mixing
     Exchange-correlation      = SLA-PZ-NOGX-NOGC ( 1 1 0 0 0)
     EXX-fraction              =        0.00
     nstep                     =           50

     celldm(1)=  12.016801  celldm(2)=   0.000000  celldm(3)=   0.000000
     celldm(4)=   0.000000  celldm(5)=   0.000000  celldm(6)=   0.000000

     crystal axes: (cart. coord. in units of alat)
               a(1) = (   1.000000   0.000000   0.000000 )
               a(2) = (  -0.500000   0.866025   0.000000 )
               a(3) = (   0.000000   0.000000   0.790093 )

     reciprocal axes: (cart. coord. in units 2 pi/alat)
               b(1) = (  1.000000  0.577350  0.000000 )
               b(2) = (  0.000000  1.154701  0.000000 )
               b(3) = (  0.000000  0.000000  1.265674 )

     PseudoPot. # 1 for Eu read from file:
     /home/cwx6513/pp.La/Eu.UPF
     MD5 check sum: 5efdbbfc50c6a10138933a6429836ad2
     Pseudo is Norm-conserving, Zval = 17.0
     Generated in analytical, separable form
     Using radial grid of 1261 points,  6 beta functions with:
                l(1) =   0
                l(2) =   0
                l(3) =   1
                l(4) =   1
                l(5) =   2
                l(6) =   3

     PseudoPot. # 2 for Pr read from file:
     /home/cwx6513/pp.La/Pr.UPF
     MD5 check sum: 70e2b4b153859e92c8c91247dfc63203
     Pseudo is Norm-conserving, Zval = 13.0
     Generated in analytical, separable form
     Using radial grid of 1255 points,  6 beta functions with:
                l(1) =   0
                l(2) =   0
                l(3) =   1
                l(4) =   1
                l(5) =   2
                l(6) =   3

     atomic species   valence    mass     pseudopotential
        Mg            17.00    24.30500     Eu( 1.00)
        Cd            13.00   112.41100     Pr( 1.00)

     24 Sym. Ops., with inversion, found (12 have fractional translation)

   Cartesian axes

     site n.     atom                  positions (alat units)
         1           Mg  tau(   1) = (   0.2478935   0.7204716   0.1975233  )
         2           Mg  tau(   2) = (   0.7478935   0.1455538   0.5925699  )
         3           Mg  tau(   3) = (   0.2521065   0.1455538   0.5925699  )
         4           Mg  tau(   4) = (  -0.2478935   0.7204716   0.1975233  )
         5           Mg  tau(   5) = (   0.0000000   0.2911075   0.1975233  )
         6           Mg  tau(   6) = (   0.5000000   0.5749179   0.5925699  )
         7           Cd  tau(   7) = (   0.5000005   0.2886748   0.1975233  )
         8           Cd  tau(   8) = (  -0.0000005   0.5773506   0.5925699  )

     number of k points=    64  gaussian smearing, width (Ry)=  0.1000
                       cart. coord. in units 2pi/alat
        k(    1) = (   0.0000000   0.0000000   0.0000000), wk =   0.0095238
        k(    2) = (   0.0000000   0.0000000   0.1808105), wk =   0.0190476
        k(    3) = (   0.0000000   0.0000000   0.3616210), wk =   0.0190476
        k(    4) = (   0.0000000   0.0000000   0.5424315), wk =   0.0190476
        k(    5) = (   0.0000000   0.1924501   0.0000000), wk =   0.0190476
        k(    6) = (   0.0000000   0.1924501   0.1808105), wk =   0.0380952
        k(    7) = (   0.0000000   0.1924501   0.3616210), wk =   0.0380952
        k(    8) = (   0.0000000   0.1924501   0.5424315), wk =   0.0380952
        k(    9) = (   0.0000000   0.3849002   0.0000000), wk =   0.0190476
        k(   10) = (   0.0000000   0.3849002   0.1808105), wk =   0.0380952
        k(   11) = (   0.0000000   0.3849002   0.3616210), wk =   0.0380952
        k(   12) = (   0.0000000   0.3849002   0.5424315), wk =   0.0380952
        k(   13) = (   0.0000000  -0.5773503   0.0000000), wk =   0.0095238
        k(   14) = (   0.0000000  -0.5773503   0.1808105), wk =   0.0190476
        k(   15) = (   0.0000000  -0.5773503   0.3616210), wk =   0.0190476
        k(   16) = (   0.0000000  -0.5773503   0.5424315), wk =   0.0190476
        k(   17) = (   0.2000000   0.1154701   0.0000000), wk =   0.0190476
        k(   18) = (   0.2000000   0.1154701   0.1808105), wk =   0.0380952
        k(   19) = (   0.2000000   0.1154701   0.3616210), wk =   0.0380952
        k(   20) = (   0.2000000   0.1154701   0.5424315), wk =   0.0380952
        k(   21) = (   0.2000000   0.3079201   0.0000000), wk =   0.0190476
        k(   22) = (   0.2000000   0.3079201   0.1808105), wk =   0.0380952
        k(   23) = (   0.2000000   0.3079201   0.3616210), wk =   0.0380952
        k(   24) = (   0.2000000   0.3079201   0.5424315), wk =   0.0380952
        k(   25) = (   0.2000000   0.5003702   0.0000000), wk =   0.0190476
        k(   26) = (   0.2000000   0.5003702   0.1808105), wk =   0.0380952
        k(   27) = (   0.2000000   0.5003702   0.3616210), wk =   0.0380952
        k(   28) = (   0.2000000   0.5003702   0.5424315), wk =   0.0380952
        k(   29) = (   0.2000000  -0.4618802   0.0000000), wk =   0.0190476
        k(   30) = (   0.2000000  -0.4618802   0.1808105), wk =   0.0380952
        k(   31) = (   0.2000000  -0.4618802   0.3616210), wk =   0.0380952
        k(   32) = (   0.2000000  -0.4618802   0.5424315), wk =   0.0380952
        k(   33) = (   0.2000000  -0.2694301   0.0000000), wk =   0.0190476
        k(   34) = (   0.2000000  -0.2694301   0.1808105), wk =   0.0380952
        k(   35) = (   0.2000000  -0.2694301   0.3616210), wk =   0.0380952
        k(   36) = (   0.2000000  -0.2694301   0.5424315), wk =   0.0380952
        k(   37) = (   0.2000000  -0.0769800   0.0000000), wk =   0.0190476
        k(   38) = (   0.2000000  -0.0769800   0.1808105), wk =   0.0380952
        k(   39) = (   0.2000000  -0.0769800   0.3616210), wk =   0.0380952
        k(   40) = (   0.2000000  -0.0769800   0.5424315), wk =   0.0380952
        k(   41) = (   0.4000000   0.2309401   0.0000000), wk =   0.0190476
        k(   42) = (   0.4000000   0.2309401   0.1808105), wk =   0.0380952
        k(   43) = (   0.4000000   0.2309401   0.3616210), wk =   0.0380952
        k(   44) = (   0.4000000   0.2309401   0.5424315), wk =   0.0380952
        k(   45) = (   0.4000000   0.4233902   0.0000000), wk =   0.0190476
        k(   46) = (   0.4000000   0.4233902   0.1808105), wk =   0.0380952
        k(   47) = (   0.4000000   0.4233902   0.3616210), wk =   0.0380952
        k(   48) = (   0.4000000   0.4233902   0.5424315), wk =   0.0380952
        k(   49) = (   0.4000000   0.6158403   0.0000000), wk =   0.0190476
        k(   50) = (   0.4000000   0.6158403   0.1808105), wk =   0.0380952
        k(   51) = (   0.4000000   0.6158403   0.3616210), wk =   0.0380952
        k(   52) = (   0.4000000   0.6158403   0.5424315), wk =   0.0380952
        k(   53) = (   0.4000000  -0.3464102   0.0000000), wk =   0.0190476
        k(   54) = (   0.4000000  -0.3464102   0.1808105), wk =   0.0380952
        k(   55) = (   0.4000000  -0.3464102   0.3616210), wk =   0.0380952
        k(   56) = (   0.4000000  -0.3464102   0.5424315), wk =   0.0380952
        k(   57) = (   0.4000000  -0.1539601   0.0000000), wk =   0.0190476
        k(   58) = (   0.4000000  -0.1539601   0.1808105), wk =   0.0380952
        k(   59) = (   0.4000000  -0.1539601   0.3616210), wk =   0.0380952
        k(   60) = (   0.4000000  -0.1539601   0.5424315), wk =   0.0380952
        k(   61) = (   0.4000000   0.0384900   0.0000000), wk =   0.0190476
        k(   62) = (   0.4000000   0.0384900   0.1808105), wk =   0.0380952
        k(   63) = (   0.4000000   0.0384900   0.3616210), wk =   0.0380952
        k(   64) = (   0.4000000   0.0384900   0.5424315), wk =   0.0380952

     Largest allocated arrays     est. size (Mb)     dimensions
     Largest temporary arrays     est. size (Mb)     dimensions

     Initial potential from superposition of free atoms
     Check: negative starting charge=   -0.001098

     starting charge   25.98109, renormalised to  128.00000

     negative rho (up, down):  0.541E-02 0.000E+00
     Starting wfc are   40 randomized atomic wfcs

     Self-consistent Calculation

     iteration #  1     ecut=    40.00 Ry     beta=0.70
     CG style diagonalization
     c_bands:  1 eigenvalues not converged
     c_bands:  1 eigenvalues not converged
     c_bands:  1 eigenvalues not converged
     c_bands:  1 eigenvalues not converged
     c_bands:  1 eigenvalues not converged
     c_bands:  2 eigenvalues not converged
     c_bands:  2 eigenvalues not converged
     c_bands:  1 eigenvalues not converged
     c_bands:  1 eigenvalues not converged
     c_bands:  1 eigenvalues not converged
     c_bands:  2 eigenvalues not converged
     c_bands:  2 eigenvalues not converged
     c_bands:  1 eigenvalues not converged
     c_bands:  1 eigenvalues not converged
     ethr =  1.00E-02,  avg # of iterations = 26.6

     negative rho (up, down):  0.160E-02 0.000E+00

     total energy              =    -933.95582736 Ry
     Harris-Foulkes estimate   =   -3776.41030884 Ry
     estimated scf accuracy    <    3299.10255005 Ry

[...]

     iteration #  4     ecut=    40.00 Ry     beta=0.70
     CG style diagonalization
     ethr =  1.00E-02,  avg # of iterations =  8.1

[...]

     End of self-consistent calculation

          k = 0.0000 0.0000 0.0000 (  5047 PWs)   bands (ev):

   -41.9864 -41.9267 -41.9266 -41.9169 -41.8928 -41.8928 -22.7710 -22.7677
   -14.9705 -14.9436 -14.8156 -14.7753 -14.7753 -14.7506 -14.7506 -14.7296
   -14.7296 -14.6016 -14.4655 -14.4655 -14.3733 -14.3733 -14.3719 -14.3697
   -14.3618 -14.3618  -2.6029  -2.5983  -2.5983  -2.5754  -2.5743  -2.5743
    14.4123  15.0556  15.0556  15.0816  15.1220  15.7327  15.7327  15.7753
    15.8370  15.8370  16.0028  17.2085  17.5801  17.5801  17.9535  17.9535
    17.9969  18.5314  18.5314  18.5807  18.7880  18.7880  19.0325  19.0326
    19.0400  19.0400  19.3310  19.3310  20.1306  20.1876  21.0590  21.4405
    21.4856  22.4622  22.4623  22.4745  22.8404  22.8404  22.9982  22.9982
    23.7917  23.7918  25.2074  25.2074  25.8952

[...]

     the Fermi energy is    20.7565 ev

!    total energy              =   -1237.12942984 Ry
     Harris-Foulkes estimate   =   -1237.12943045 Ry
     estimated scf accuracy    <       0.00000080 Ry

[...]
        k(   16) = (   0.0000000  -0.6115165   0.5663244), wk =   0.0190476
        k(   17) = (   0.2118355   0.1223033   0.0000000), wk =   0.0190476
        k(   18) = (   0.2118355   0.1223033   0.1887748), wk =   0.0380952
        k(   19) = (   0.2118355   0.1223033   0.3775496), wk =   0.0380952
        k(   20) = (   0.2118355   0.1223033   0.5663244), wk =   0.0380952
        k(   21) = (   0.2118355   0.3261421   0.0000000), wk =   0.0190476
        k(   22) = (   0.2118355   0.3261421   0.1887748), wk =   0.0380952
        k(   23) = (   0.2118355   0.3261421   0.3775496), wk =   0.0380952
        k(   24) = (   0.2118355   0.3261421   0.5663244), wk =   0.0380952
        k(   25) = (   0.2118355   0.5299809   0.0000000), wk =   0.0190476
        k(   26) = (   0.2118355   0.5299809   0.1887748), wk =   0.0380952
        k(   27) = (   0.2118355   0.5299809   0.3775496), wk =   0.0380952
        k(   28) = (   0.2118355   0.5299809   0.5663244), wk =   0.0380952
        k(   29) = (   0.2118355  -0.4892132   0.0000000), wk =   0.0190476
        k(   30) = (   0.2118355  -0.4892132   0.1887748), wk =   0.0380952
        k(   31) = (   0.2118355  -0.4892132   0.3775496), wk =   0.0380952
        k(   32) = (   0.2118355  -0.4892132   0.5663244), wk =   0.0380952
        k(   33) = (   0.2118355  -0.2853744   0.0000000), wk =   0.0190476
        k(   34) = (   0.2118355  -0.2853744   0.1887748), wk =   0.0380952
        k(   35) = (   0.2118355  -0.2853744   0.3775496), wk =   0.0380952
        k(   36) = (   0.2118355  -0.2853744   0.5663244), wk =   0.0380952
        k(   37) = (   0.2118355  -0.0815355   0.0000000), wk =   0.0190476
        k(   38) = (   0.2118355  -0.0815355   0.1887748), wk =   0.0380952
        k(   39) = (   0.2118355  -0.0815355   0.3775496), wk =   0.0380952
        k(   40) = (   0.2118355  -0.0815355   0.5663244), wk =   0.0380952
        k(   41) = (   0.4236710   0.2446066   0.0000000), wk =   0.0190476
        k(   42) = (   0.4236710   0.2446066   0.1887748), wk =   0.0380952
        k(   43) = (   0.4236710   0.2446066   0.3775496), wk =   0.0380952
        k(   44) = (   0.4236710   0.2446066   0.5663244), wk =   0.0380952
        k(   45) = (   0.4236710   0.4484454   0.0000000), wk =   0.0190476
        k(   46) = (   0.4236710   0.4484454   0.1887748), wk =   0.0380952
        k(   47) = (   0.4236710   0.4484454   0.3775496), wk =   0.0380952
        k(   48) = (   0.4236710   0.4484454   0.5663244), wk =   0.0380952
        k(   49) = (   0.4236710   0.6522842   0.0000000), wk =   0.0190476
        k(   50) = (   0.4236710   0.6522842   0.1887748), wk =   0.0380952
        k(   51) = (   0.4236710   0.6522842   0.3775496), wk =   0.0380952
        k(   52) = (   0.4236710   0.6522842   0.5663244), wk =   0.0380952
        k(   53) = (   0.4236710  -0.3669099   0.0000000), wk =   0.0190476
        k(   54) = (   0.4236710  -0.3669099   0.1887748), wk =   0.0380952
        k(   55) = (   0.4236710  -0.3669099   0.3775496), wk =   0.0380952
        k(   56) = (   0.4236710  -0.3669099   0.5663244), wk =   0.0380952
        k(   57) = (   0.4236710  -0.1630711   0.0000000), wk =   0.0190476
        k(   58) = (   0.4236710  -0.1630711   0.1887748), wk =   0.0380952
        k(   59) = (   0.4236710  -0.1630711   0.3775496), wk =   0.0380952
        k(   60) = (   0.4236710  -0.1630711   0.5663244), wk =   0.0380952
        k(   61) = (   0.4236710   0.0407678   0.0000000), wk =   0.0190476
        k(   62) = (   0.4236710   0.0407678   0.1887748), wk =   0.0380952
        k(   63) = (   0.4236710   0.0407678   0.3775496), wk =   0.0380952
        k(   64) = (   0.4236710   0.0407678   0.5663244), wk =   0.0380952

     negative rho (up, down):  0.600E-01 0.000E+00
     extrapolated charge  125.42226, renormalised to  128.00000

[...]

     The maximum number of steps has been reached.

     End of BFGS Geometry Optimization
Begin final coordinates
     new unit-cell volume =   1013.71906 a.u.^3 (   150.21766 Ang^3 )

CELL_PARAMETERS (alat= 12.01680127)
   0.944128720   0.000000000   0.000000000
  -0.472064360   0.817639456   0.000000000
   0.000000000   0.000000000   0.756759577

ATOMIC_POSITIONS (crystal)
Mg       0.666087020   0.833043510   0.250000000
Mg       0.833043510   0.166956490   0.750000000
Mg       0.333912980   0.166956490   0.750000000
Mg       0.166956490   0.833043510   0.250000000
Mg       0.166956490   0.333912980   0.250000000
Mg       0.833043510   0.666087020   0.750000000
Cd       0.666667000   0.333333000   0.250000000
Cd       0.333333000   0.666667000   0.750000000
End final coordinates

     A final scf calculation at the relaxed structure.
     The G-vectors are recalculated for the final unit cell
     Results may differ from those at the preceding step.

     bravais-lattice index     =            0
     lattice parameter (alat)  =      12.0168  a.u.
     unit-cell volume          =    1013.7191 (a.u.)^3
     number of atoms/cell      =            8
     number of atomic types    =            2
     number of electrons       =       128.00
     number of Kohn-Sham states=           77
     kinetic-energy cutoff     =      40.0000  Ry
     charge density cutoff     =     160.0000  Ry
     convergence threshold     =      7.4E-06
     mixing beta               =       0.7000
     number of iterations used =            8  plain     mixing
     Exchange-correlation      = SLA-PZ-NOGX-NOGC ( 1 1 0 0 0)
     EXX-fraction              =        0.00

     celldm(1)=  12.016801  celldm(2)=   0.000000  celldm(3)=   0.000000
     celldm(4)=   0.000000  celldm(5)=   0.000000  celldm(6)=   0.000000

     crystal axes: (cart. coord. in units of alat)
               a(1) = (   0.944129   0.000000   0.000000 )
               a(2) = (  -0.472064   0.817639   0.000000 )
               a(3) = (   0.000000   0.000000   0.756760 )

     reciprocal axes: (cart. coord. in units 2 pi/alat)
               b(1) = (  1.059178  0.611516  0.000000 )
               b(2) = (  0.000000  1.223033  0.000000 )
               b(3) = (  0.000000  0.000000  1.321424 )

     PseudoPot. # 1 for Eu read from file:
     /home/cwx6513/pp.La/Eu.UPF
     MD5 check sum: 5efdbbfc50c6a10138933a6429836ad2
     Pseudo is Norm-conserving, Zval = 17.0
     Generated in analytical, separable form
     Using radial grid of 1261 points,  6 beta functions with:
                l(1) =   0
                l(2) =   0
                l(3) =   1
                l(4) =   1
                l(5) =   2
                l(6) =   3

     PseudoPot. # 2 for Pr read from file:
     /home/cwx6513/pp.La/Pr.UPF
     MD5 check sum: 70e2b4b153859e92c8c91247dfc63203
     Pseudo is Norm-conserving, Zval = 13.0
     Generated in analytical, separable form
     Using radial grid of 1255 points,  6 beta functions with:
                l(1) =   0
                l(2) =   0
                l(3) =   1
                l(4) =   1
                l(5) =   2
                l(6) =   3

     atomic species   valence    mass     pseudopotential
        Mg            17.00    24.30500     Eu( 1.00)
        Cd            13.00   112.41100     Pr( 1.00)

     24 Sym. Ops., with inversion, found (12 have fractional translation)

   Cartesian axes

     site n.     atom                  positions (alat units)
         1           Mg  tau(   1) = (   0.2356217   0.6811292   0.1891899  )
         2           Mg  tau(   2) = (   0.7076861   0.1365102   0.5675697  )
         3           Mg  tau(   3) = (   0.2364426   0.1365102   0.5675697  )
         4           Mg  tau(   4) = (  -0.2356217   0.6811292   0.1891899  )
         5           Mg  tau(   5) = (   0.0000000   0.2730204   0.1891899  )
         6           Mg  tau(   6) = (   0.4720644   0.5446190   0.5675697  )
         7           Cd  tau(   7) = (   0.4720648   0.2725462   0.1891899  )
         8           Cd  tau(   8) = (  -0.0000005   0.5450932   0.5675697  )

     number of k points=    64  gaussian smearing, width (Ry)=  0.1000
                       cart. coord. in units 2pi/alat
        k(    1) = (   0.0000000   0.0000000   0.0000000), wk =   0.0095238
        k(    2) = (   0.0000000   0.0000000   0.1887748), wk =   0.0190476
        k(    3) = (   0.0000000   0.0000000   0.3775496), wk =   0.0190476
        k(    4) = (   0.0000000   0.0000000   0.5663244), wk =   0.0190476
        k(    5) = (   0.0000000   0.2038388   0.0000000), wk =   0.0190476
        k(    6) = (   0.0000000   0.2038388   0.1887748), wk =   0.0380952
        k(    7) = (   0.0000000   0.2038388   0.3775496), wk =   0.0380952
        k(    8) = (   0.0000000   0.2038388   0.5663244), wk =   0.0380952
        k(    9) = (   0.0000000   0.4076777   0.0000000), wk =   0.0190476
        k(   10) = (   0.0000000   0.4076777   0.1887748), wk =   0.0380952
        k(   11) = (   0.0000000   0.4076777   0.3775496), wk =   0.0380952
        k(   12) = (   0.0000000   0.4076777   0.5663244), wk =   0.0380952
        k(   13) = (   0.0000000  -0.6115165   0.0000000), wk =   0.0095238
        k(   14) = (   0.0000000  -0.6115165   0.1887748), wk =   0.0190476
        k(   15) = (   0.0000000  -0.6115165   0.3775496), wk =   0.0190476
        k(   16) = (   0.0000000  -0.6115165   0.5663244), wk =   0.0190476
        k(   17) = (   0.2118355   0.1223033   0.0000000), wk =   0.0190476
        k(   18) = (   0.2118355   0.1223033   0.1887748), wk =   0.0380952
        k(   19) = (   0.2118355   0.1223033   0.3775496), wk =   0.0380952
        k(   20) = (   0.2118355   0.1223033   0.5663244), wk =   0.0380952
        k(   21) = (   0.2118355   0.3261421   0.0000000), wk =   0.0190476
        k(   22) = (   0.2118355   0.3261421   0.1887748), wk =   0.0380952
        k(   23) = (   0.2118355   0.3261421   0.3775496), wk =   0.0380952
        k(   24) = (   0.2118355   0.3261421   0.5663244), wk =   0.0380952
        k(   25) = (   0.2118355   0.5299809   0.0000000), wk =   0.0190476
        k(   26) = (   0.2118355   0.5299809   0.1887748), wk =   0.0380952
        k(   27) = (   0.2118355   0.5299809   0.3775496), wk =   0.0380952
        k(   28) = (   0.2118355   0.5299809   0.5663244), wk =   0.0380952
        k(   29) = (   0.2118355  -0.4892132   0.0000000), wk =   0.0190476
        k(   30) = (   0.2118355  -0.4892132   0.1887748), wk =   0.0380952
        k(   31) = (   0.2118355  -0.4892132   0.3775496), wk =   0.0380952
        k(   32) = (   0.2118355  -0.4892132   0.5663244), wk =   0.0380952
        k(   33) = (   0.2118355  -0.2853744   0.0000000), wk =   0.0190476
        k(   34) = (   0.2118355  -0.2853744   0.1887748), wk =   0.0380952
        k(   35) = (   0.2118355  -0.2853744   0.3775496), wk =   0.0380952
        k(   36) = (   0.2118355  -0.2853744   0.5663244), wk =   0.0380952
        k(   37) = (   0.2118355  -0.0815355   0.0000000), wk =   0.0190476
        k(   38) = (   0.2118355  -0.0815355   0.1887748), wk =   0.0380952
        k(   39) = (   0.2118355  -0.0815355   0.3775496), wk =   0.0380952
        k(   40) = (   0.2118355  -0.0815355   0.5663244), wk =   0.0380952
        k(   41) = (   0.4236710   0.2446066   0.0000000), wk =   0.0190476
        k(   42) = (   0.4236710   0.2446066   0.1887748), wk =   0.0380952
        k(   43) = (   0.4236710   0.2446066   0.3775496), wk =   0.0380952
        k(   44) = (   0.4236710   0.2446066   0.5663244), wk =   0.0380952
        k(   45) = (   0.4236710   0.4484454   0.0000000), wk =   0.0190476
        k(   46) = (   0.4236710   0.4484454   0.1887748), wk =   0.0380952
        k(   47) = (   0.4236710   0.4484454   0.3775496), wk =   0.0380952
        k(   48) = (   0.4236710   0.4484454   0.5663244), wk =   0.0380952
        k(   49) = (   0.4236710   0.6522842   0.0000000), wk =   0.0190476
        k(   50) = (   0.4236710   0.6522842   0.1887748), wk =   0.0380952
        k(   51) = (   0.4236710   0.6522842   0.3775496), wk =   0.0380952
        k(   52) = (   0.4236710   0.6522842   0.5663244), wk =   0.0380952
        k(   53) = (   0.4236710  -0.3669099   0.0000000), wk =   0.0190476
        k(   54) = (   0.4236710  -0.3669099   0.1887748), wk =   0.0380952
        k(   55) = (   0.4236710  -0.3669099   0.3775496), wk =   0.0380952
        k(   56) = (   0.4236710  -0.3669099   0.5663244), wk =   0.0380952
        k(   57) = (   0.4236710  -0.1630711   0.0000000), wk =   0.0190476
        k(   58) = (   0.4236710  -0.1630711   0.1887748), wk =   0.0380952
        k(   59) = (   0.4236710  -0.1630711   0.3775496), wk =   0.0380952
        k(   60) = (   0.4236710  -0.1630711   0.5663244), wk =   0.0380952
        k(   61) = (   0.4236710   0.0407678   0.0000000), wk =   0.0190476
        k(   62) = (   0.4236710   0.0407678   0.1887748), wk =   0.0380952
        k(   63) = (   0.4236710   0.0407678   0.3775496), wk =   0.0380952
        k(   64) = (   0.4236710   0.0407678   0.5663244), wk =   0.0380952

     Largest allocated arrays     est. size (Mb)     dimensions
     Largest temporary arrays     est. size (Mb)     dimensions

     Initial potential from superposition of free atoms
     Check: negative starting charge=   -0.000302

     starting charge   25.98109, renormalised to  128.00000

     negative rho (up, down):  0.149E-02 0.000E+00
     Starting wfc are   40 randomized atomic wfcs

     Writing output data file Prototype-La-hP8-Mg3Cd.save

     Self-consistent Calculation

[...]

     negative rho (up, down):  0.406E-04 0.000E+00

[...]

     iteration # 15     ecut=    40.00 Ry     beta=0.70
     CG style diagonalization
     c_bands:  1 eigenvalues not converged
     c_bands:  1 eigenvalues not converged
     c_bands:  1 eigenvalues not converged
     c_bands:  1 eigenvalues not converged
     ethr =  3.15E-08,  avg # of iterations =  5.9

[...]

     total energy              =   -1236.99024541 Ry
     Harris-Foulkes estimate   =   -1236.99025898 Ry
     estimated scf accuracy    <       0.00003804 Ry

     iteration # 17     ecut=    40.00 Ry     beta=0.70
     CG style diagonalization
     ethr =  2.97E-08,  avg # of iterations =  3.2

     End of self-consistent calculation

[...]

          k = 0.4237 0.0408 0.5663 (  4340 PWs)   bands (ev):

   -37.8624 -37.8362 -37.8064 -37.7913 -37.7797 -37.7696 -18.1435 -18.1434
   -11.0290 -11.0166 -10.9864 -10.9624 -10.9044 -10.8849 -10.6511 -10.5891
   -10.5142 -10.5112 -10.4301 -10.3783 -10.3328 -10.3184 -10.2995 -10.2469
   -10.2149 -10.2075   1.8364   1.8394   1.8880   1.8955   1.9101   1.9116
    18.7914  18.9244  19.0248  19.1971  19.3275  19.4492  19.7811  19.9520
    19.9651  20.0623  20.1710  20.5032  20.5294  20.7186  20.8723  20.9946
    21.5218  21.6693  22.2135  22.4159  22.4855  22.6497  22.6988  22.8229
    23.0093  23.1136  23.7169  23.8020  24.1255  24.1792  24.6231  24.8471
    25.0956  25.6459  26.5071  26.8259  26.9097  26.9903  27.4315  27.7545
    28.1118  28.3343  28.6568  28.9683  29.5779

     the Fermi energy is    25.2624 ev

!    total energy              =   -1236.99025175 Ry
     Harris-Foulkes estimate   =   -1236.99025280 Ry
     estimated scf accuracy    <       0.00000114 Ry

     The total energy is the sum of the following terms:

     one-electron contribution =     -49.12828280 Ry
     hartree contribution      =     129.79795443 Ry
     xc contribution           =    -132.98286717 Ry
     ewald contribution        =   -1184.30505218 Ry
     smearing contrib. (-TS)   =      -0.37200402 Ry

     convergence has been achieved in  17 iterations

     Forces acting on atoms (Ry/au):

     atom    1 type  1   force =     0.01129636    0.00652196    0.00000000
     atom    2 type  1   force =     0.01129636   -0.00652196    0.00000000
     atom    3 type  1   force =    -0.01129636   -0.00652196    0.00000000
     atom    4 type  1   force =    -0.01129636    0.00652196    0.00000000
     atom    5 type  1   force =     0.00000000   -0.01304392    0.00000000
     atom    6 type  1   force =     0.00000000    0.01304392    0.00000000
     atom    7 type  2   force =     0.00000000    0.00000000    0.00000000
     atom    8 type  2   force =     0.00000000    0.00000000    0.00000000

     Total force =     0.031951     Total SCF correction =     0.000000

     entering subroutine stress ...

          total   stress  (Ry/bohr**3)                   (kbar)     P=    0.66
  -0.00005863   0.00000000   0.00000000         -8.62      0.00      0.00
   0.00000000  -0.00005863   0.00000000          0.00     -8.62      0.00
   0.00000000   0.00000000   0.00013062          0.00      0.00     19.21

     Writing output data file Prototype-La-hP8-Mg3Cd.save

     General routines

     Parallel routines

   This run was terminated on:  22:51:24  22Mar2018

   JOB DONE.