     Program PWSCF v.5.0.2 starts on 22Mar2018 at 21:15:12

     Current dimensions of program PWSCF are:
     Max number of different atomic species (ntypx) = 10
     Max number of k-points (npk) =  40000
     Max angular momentum in pseudopotentials (lmaxx) =  3
     Waiting for input...
     Reading input from standard input

     Subspace diagonalization in iterative solution of the eigenvalue problem:
     a serial algorithm will be used

     bravais-lattice index     =            0
     lattice parameter (alat)  =       7.0151  a.u.
     unit-cell volume          =     862.2778 (a.u.)^3
     number of atoms/cell      =           12
     number of atomic types    =            2
     number of electrons       =       188.00
     number of Kohn-Sham states=          113
     kinetic-energy cutoff     =      40.0000  Ry
     charge density cutoff     =     160.0000  Ry
     convergence threshold     =      1.0E-04
     mixing beta               =       0.7000
     number of iterations used =            8  plain     mixing
     Exchange-correlation      = SLA-PZ-NOGX-NOGC ( 1 1 0 0 0)
     EXX-fraction              =        0.00
     nstep                     =           50

     celldm(1)=   7.015105  celldm(2)=   0.000000  celldm(3)=   0.000000
     celldm(4)=   0.000000  celldm(5)=   0.000000  celldm(6)=   0.000000

     crystal axes: (cart. coord. in units of alat)
               a(1) = (   1.000000   0.000000   0.000000 )
               a(2) = (   0.000000   1.315963   0.000000 )
               a(3) = (   0.000000   0.000000   1.898020 )

     reciprocal axes: (cart. coord. in units 2 pi/alat)
               b(1) = (  1.000000  0.000000  0.000000 )
               b(2) = (  0.000000  0.759900  0.000000 )
               b(3) = (  0.000000  0.000000  0.526865 )

     PseudoPot. # 1 for Eu read from file:
     /home/cwx6513/pp.La/Eu.UPF
     MD5 check sum: 5efdbbfc50c6a10138933a6429836ad2
     Pseudo is Norm-conserving, Zval = 17.0
     Generated in analytical, separable form
     Using radial grid of 1261 points,  6 beta functions with:
                l(1) =   0
                l(2) =   0
                l(3) =   1
                l(4) =   1
                l(5) =   2
                l(6) =   3

     PseudoPot. # 2 for Pr read from file:
     /home/cwx6513/pp.La/Pr.UPF
     MD5 check sum: 70e2b4b153859e92c8c91247dfc63203
     Pseudo is Norm-conserving, Zval = 13.0
     Generated in analytical, separable form
     Using radial grid of 1255 points,  6 beta functions with:
                l(1) =   0
                l(2) =   0
                l(3) =   1
                l(4) =   1
                l(5) =   2
                l(6) =   3

     atomic species   valence    mass     pseudopotential
        Co            17.00    58.93320     Eu( 1.00)
        Si            13.00    28.08550     Pr( 1.00)

      8 Sym. Ops., with inversion, found ( 6 have fractional translation)

   Cartesian axes

     site n.     atom                  positions (alat units)
         1           Co  tau(   1) = (   0.7500000   1.0875135   0.8270358  )
         2           Co  tau(   2) = (   0.2500000   0.2284499   1.0709846  )
         3           Co  tau(   3) = (   0.7500000   0.4295318   0.1219744  )
         4           Co  tau(   4) = (   0.2500000   0.8864316   1.7760460  )
         5           Co  tau(   5) = (   0.2500000   0.7067855   0.5358966  )
         6           Co  tau(   6) = (   0.7500000   0.6091779   1.3621238  )
         7           Co  tau(   7) = (   0.2500000   0.0488038   0.4131136  )
         8           Co  tau(   8) = (   0.7500000   1.2671596   1.4849068  )
         9           Si  tau(   9) = (   0.2500000   0.2669484   1.6960710  )
        10           Si  tau(  10) = (   0.7500000   1.0490149   0.2019494  )
        11           Si  tau(  11) = (   0.2500000   0.9249301   1.1509596  )
        12           Si  tau(  12) = (   0.7500000   0.3910333   0.7470608  )

     number of k points=    12  gaussian smearing, width (Ry)=  0.1000
                       cart. coord. in units 2pi/alat
        k(    1) = (   0.0000000   0.0000000   0.0000000), wk =   0.0833333
        k(    2) = (   0.0000000   0.0000000   0.1317162), wk =   0.1666667
        k(    3) = (   0.0000000   0.0000000  -0.2634324), wk =   0.0833333
        k(    4) = (   0.0000000   0.2532999   0.0000000), wk =   0.1666667
        k(    5) = (   0.0000000   0.2532999   0.1317162), wk =   0.3333333
        k(    6) = (   0.0000000   0.2532999  -0.2634324), wk =   0.1666667
        k(    7) = (  -0.5000000   0.0000000   0.0000000), wk =   0.0833333
        k(    8) = (  -0.5000000   0.0000000   0.1317162), wk =   0.1666667
        k(    9) = (  -0.5000000   0.0000000  -0.2634324), wk =   0.0833333
        k(   10) = (  -0.5000000   0.2532999   0.0000000), wk =   0.1666667
        k(   11) = (  -0.5000000   0.2532999   0.1317162), wk =   0.3333333
        k(   12) = (  -0.5000000   0.2532999  -0.2634324), wk =   0.1666667

     Largest allocated arrays     est. size (Mb)     dimensions
     Largest temporary arrays     est. size (Mb)     dimensions

     Initial potential from superposition of free atoms
     Check: negative starting charge=   -0.001196

     starting charge   51.96217, renormalised to  188.00000

     negative rho (up, down):  0.433E-02 0.000E+00
     Starting wfc are   80 randomized atomic wfcs

     Self-consistent Calculation

     iteration #  1     ecut=    40.00 Ry     beta=0.70
     CG style diagonalization
     c_bands:  2 eigenvalues not converged
     c_bands:  2 eigenvalues not converged
     c_bands:  3 eigenvalues not converged
     c_bands:  3 eigenvalues not converged
     c_bands:  1 eigenvalues not converged
     c_bands:  2 eigenvalues not converged
     c_bands:  1 eigenvalues not converged
     c_bands:  2 eigenvalues not converged
     c_bands:  2 eigenvalues not converged
     c_bands:  1 eigenvalues not converged
     c_bands:  1 eigenvalues not converged
     c_bands:  1 eigenvalues not converged
     ethr =  1.00E-02,  avg # of iterations = 25.8

     negative rho (up, down):  0.127E-02 0.000E+00

     total energy              =   -1233.61636796 Ry
     Harris-Foulkes estimate   =   -3588.38417415 Ry
     estimated scf accuracy    <    2806.44138968 Ry

[...]

     iteration #  4     ecut=    40.00 Ry     beta=0.70
     CG style diagonalization
     ethr =  1.00E-02,  avg # of iterations =  5.6

[...]

     End of self-consistent calculation

          k = 0.0000 0.0000 0.0000 (  3675 PWs)   bands (ev):

   -19.0010 -18.4406 -18.4082 -18.1268 -17.9890 -17.7433 -17.7010 -17.6614
     1.3182   1.4768   1.8181   2.5295   5.9593   6.6802   6.6926   6.7303
     7.2060   7.2847   7.3753   7.5429   7.5805   8.3006   8.3993   8.4999
     8.5105   8.5647   8.5907   8.9839   9.1081   9.1884   9.2929   9.4206
     9.6455   9.6627  10.3436  10.6139  20.7718  21.3195  21.5335  21.5384
    21.9271  22.0956  22.3726  22.3964  22.4873  22.7059  23.1222  23.1874
    33.2016  33.4109  33.4714  34.2172  34.2489  34.4880  34.7687  35.1541
    35.4424  36.5103  36.8287  37.2268  37.4982  37.9970  38.4368  38.5032
    39.1319  39.4236  39.7078  39.9323  40.0702  40.2726  40.8076  40.9597
    41.4648  41.5725  42.0751  42.3379  42.4128  42.9728  43.3087  43.7593
    44.1767  44.5297  44.6151  44.6411  44.7261  44.8344  45.6919  46.3738
    46.8368  46.9327  47.5427  47.6186  48.3015  48.3180  48.6596  49.2051
    49.2889  49.4197  49.8173  50.7881  51.1884  51.8864  51.8971  51.9590
    52.2748  52.8782  53.1347  53.2272  53.5937  53.9419  54.5121  54.9778
    55.0333

[...]

          k =-0.5000 0.0000 0.0000 (  3722 PWs)   bands (ev):

[...]

     the Fermi energy is    48.1434 ev

!    total energy              =   -1761.45543263 Ry
     Harris-Foulkes estimate   =   -1761.45545140 Ry
     estimated scf accuracy    <       0.00002177 Ry

     The total energy is the sum of the following terms:

     one-electron contribution =     417.38673754 Ry
     hartree contribution      =      89.75212334 Ry
     xc contribution           =    -208.47401292 Ry
     ewald contribution        =   -2059.70805791 Ry
     smearing contrib. (-TS)   =      -0.41222269 Ry

     convergence has been achieved in  10 iterations

     Forces acting on atoms (Ry/au):

     atom    1 type  1   force =     0.00000000   -0.06522431   -0.13727391
     atom    2 type  1   force =     0.00000000    0.06522431    0.13727391
     atom    3 type  1   force =     0.00000000   -0.06522431    0.13727391
     atom    4 type  1   force =     0.00000000    0.06522431   -0.13727391
     atom    5 type  1   force =     0.00000000    0.16483095   -0.20464309
     atom    6 type  1   force =     0.00000000   -0.16483095    0.20464309
     atom    7 type  1   force =     0.00000000    0.16483095    0.20464309
     atom    8 type  1   force =     0.00000000   -0.16483095   -0.20464309
     atom    9 type  2   force =     0.00000000   -0.14644046   -0.05461399
     atom   10 type  2   force =     0.00000000    0.14644046    0.05461399
     atom   11 type  2   force =     0.00000000   -0.14644046    0.05461399
     atom   12 type  2   force =     0.00000000    0.14644046   -0.05461399

     Total force =     0.682858     Total SCF correction =     0.001905

     entering subroutine stress ...

          total   stress  (Ry/bohr**3)                   (kbar)     P= 6416.84
   0.04495635   0.00000000   0.00000000       6613.31      0.00      0.00
   0.00000000   0.04152567   0.00000000          0.00   6108.64      0.00
   0.00000000   0.00000000   0.04438033          0.00      0.00   6528.57

     BFGS Geometry Optimization

     number of scf cycles    =   1
     number of bfgs steps    =   0

     enthalpy new            =   -1761.4554326348 Ry

     new trust radius        =       0.5000000000 bohr
     new conv_thr            =       0.0001000000 Ry

     new unit-cell volume =   1094.09664 a.u.^3 (   162.12839 Ang^3 )

CELL_PARAMETERS (alat=  7.01510508)
   1.085136619   0.000000000   0.000000000
   0.000000000   1.419450397   0.000000000
   0.000000000   0.000000000   2.057541011

ATOMIC_POSITIONS (crystal)
Co       0.750000000   0.825865799   0.434955023
Co       0.250000000   0.174134201   0.565044977
Co       0.750000000   0.325865799   0.065044977
Co       0.250000000   0.674134201   0.934955023
Co       0.250000000   0.538438528   0.281180747
Co       0.750000000   0.461561472   0.718819253
Co       0.250000000   0.038438528   0.218819253
Co       0.750000000   0.961561472   0.781180747
Si       0.250000000   0.201652376   0.893289291
Si       0.750000000   0.798347624   0.106710709
Si       0.250000000   0.701652376   0.606710709
Si       0.750000000   0.298347624   0.393289291

     Writing output data file Prototype-La-oP12-Co2Si.save
     Check: negative starting charge=   -0.001196
     NEW-OLD atomic charge density approx. for the potential
     NEW k-points:
        k(    1) = (   0.0000000   0.0000000   0.0000000), wk =   0.0833333
        k(    2) = (   0.0000000   0.0000000   0.1215043), wk =   0.1666667
        k(    3) = (   0.0000000   0.0000000  -0.2430085), wk =   0.0833333
        k(    4) = (   0.0000000   0.2348327   0.0000000), wk =   0.1666667
        k(    5) = (   0.0000000   0.2348327   0.1215043), wk =   0.3333333
        k(    6) = (   0.0000000   0.2348327  -0.2430085), wk =   0.1666667
        k(    7) = (  -0.4607715   0.0000000   0.0000000), wk =   0.0833333
        k(    8) = (  -0.4607715   0.0000000   0.1215043), wk =   0.1666667
        k(    9) = (  -0.4607715   0.0000000  -0.2430085), wk =   0.0833333
        k(   10) = (  -0.4607715   0.2348327   0.0000000), wk =   0.1666667
        k(   11) = (  -0.4607715   0.2348327   0.1215043), wk =   0.3333333
        k(   12) = (  -0.4607715   0.2348327  -0.2430085), wk =   0.1666667
     Check: negative starting charge=   -0.006585

     negative rho (up, down):  0.551E-02 0.000E+00
     extrapolated charge  199.00982, renormalised to  188.00000

[...]

     enthalpy old            =   -1761.4554326348 Ry
     enthalpy new            =   -1767.6397476746 Ry

     CASE: enthalpy_new < enthalpy_old

     small trust_radius: resetting bfgs history

     new trust radius        =       2.3613591272 bohr
     new conv_thr            =       0.0000965655 Ry

[...]

     Total force =     0.031300     Total SCF correction =     0.004226
     SCF correction compared to forces is large: reduce conv_thr to get better values

[...]

          total   stress  (Ry/bohr**3)                   (kbar)     P=-1390.39
  -0.00966404   0.00000000   0.00000000      -1421.63      0.00      0.00
   0.00000000  -0.00917648   0.00000000          0.00  -1349.91      0.00
   0.00000000   0.00000000  -0.00951447          0.00      0.00  -1399.63

     number of scf cycles    =   3
     number of bfgs steps    =   2

     enthalpy old            =   -1767.6397476746 Ry
     enthalpy new            =   -1758.4710932001 Ry

     CASE: enthalpy_new > enthalpy_old

     new trust radius        =       0.8461948806 bohr

     trust_radius < trust_radius_min

     resetting bfgs history

     Message from routine bfgs:
     history already reset at previous step: stopping
     new conv_thr            =       0.0000965655 Ry

     new unit-cell volume =   1309.07897 a.u.^3 (   193.98549 Ang^3 )

[...]

ATOMIC_POSITIONS (crystal)
Co       0.750000000   0.825174308   0.434536025
Co       0.250000000   0.174825692   0.565463975
Co       0.750000000   0.325174308   0.065463975
Co       0.250000000   0.674825692   0.934536025
Co       0.250000000   0.539781796   0.280288748
Co       0.750000000   0.460218204   0.719711252
Co       0.250000000   0.039781796   0.219711252
Co       0.750000000   0.960218204   0.780288748
Si       0.250000000   0.200554920   0.893078563
Si       0.750000000   0.799445080   0.106921437
Si       0.250000000   0.700554920   0.606921437
Si       0.750000000   0.299445080   0.393078563

     Writing output data file Prototype-La-oP12-Co2Si.save
     Check: negative starting charge=   -0.031057
     NEW-OLD atomic charge density approx. for the potential
     NEW k-points:
        k(    1) = (   0.0000000   0.0000000   0.0000000), wk =   0.0833333
        k(    2) = (   0.0000000   0.0000000   0.1142486), wk =   0.1666667
        k(    3) = (   0.0000000   0.0000000  -0.2284972), wk =   0.0833333
        k(    4) = (   0.0000000   0.2225253   0.0000000), wk =   0.1666667
        k(    5) = (   0.0000000   0.2225253   0.1142486), wk =   0.3333333
        k(    6) = (   0.0000000   0.2225253  -0.2284972), wk =   0.1666667
        k(    7) = (  -0.4322103   0.0000000   0.0000000), wk =   0.0833333
        k(    8) = (  -0.4322103   0.0000000   0.1142486), wk =   0.1666667
        k(    9) = (  -0.4322103   0.0000000  -0.2284972), wk =   0.0833333
        k(   10) = (  -0.4322103   0.2225253   0.0000000), wk =   0.1666667
        k(   11) = (  -0.4322103   0.2225253   0.1142486), wk =   0.3333333
        k(   12) = (  -0.4322103   0.2225253  -0.2284972), wk =   0.1666667
     Check: negative starting charge=   -0.012840

     negative rho (up, down):  0.160E+02 0.000E+00
     extrapolated charge  135.35370, renormalised to  188.00000

[...]

     The maximum number of steps has been reached.

     End of BFGS Geometry Optimization
Begin final coordinates
     new unit-cell volume =   1309.07897 a.u.^3 (   193.98549 Ang^3 )

CELL_PARAMETERS (alat=  7.01510508)
   1.156844144   0.000000000   0.000000000
   0.000000000   1.497957186   0.000000000
   0.000000000   0.000000000   2.188210270

ATOMIC_POSITIONS (crystal)
Co       0.750000000   0.825174308   0.434536025
Co       0.250000000   0.174825692   0.565463975
Co       0.750000000   0.325174308   0.065463975
Co       0.250000000   0.674825692   0.934536025
Co       0.250000000   0.539781796   0.280288748
Co       0.750000000   0.460218204   0.719711252
Co       0.250000000   0.039781796   0.219711252
Co       0.750000000   0.960218204   0.780288748
Si       0.250000000   0.200554920   0.893078563
Si       0.750000000   0.799445080   0.106921437
Si       0.250000000   0.700554920   0.606921437
Si       0.750000000   0.299445080   0.393078563
End final coordinates

     A final scf calculation at the relaxed structure.
     The G-vectors are recalculated for the final unit cell
     Results may differ from those at the preceding step.

     bravais-lattice index     =            0
     lattice parameter (alat)  =       7.0151  a.u.
     unit-cell volume          =    1309.0790 (a.u.)^3
     number of atoms/cell      =           12
     number of atomic types    =            2
     number of electrons       =       188.00
     number of Kohn-Sham states=          113
     kinetic-energy cutoff     =      40.0000  Ry
     charge density cutoff     =     160.0000  Ry
     convergence threshold     =      9.7E-05
     mixing beta               =       0.7000
     number of iterations used =            8  plain     mixing
     Exchange-correlation      = SLA-PZ-NOGX-NOGC ( 1 1 0 0 0)
     EXX-fraction              =        0.00

     celldm(1)=   7.015105  celldm(2)=   0.000000  celldm(3)=   0.000000
     celldm(4)=   0.000000  celldm(5)=   0.000000  celldm(6)=   0.000000

     crystal axes: (cart. coord. in units of alat)
               a(1) = (   1.156844   0.000000   0.000000 )
               a(2) = (   0.000000   1.497957   0.000000 )
               a(3) = (   0.000000   0.000000   2.188210 )

     reciprocal axes: (cart. coord. in units 2 pi/alat)
               b(1) = (  0.864421  0.000000  0.000000 )
               b(2) = (  0.000000  0.667576  0.000000 )
               b(3) = (  0.000000  0.000000  0.456994 )

     PseudoPot. # 1 for Eu read from file:
     /home/cwx6513/pp.La/Eu.UPF
     MD5 check sum: 5efdbbfc50c6a10138933a6429836ad2
     Pseudo is Norm-conserving, Zval = 17.0
     Generated in analytical, separable form
     Using radial grid of 1261 points,  6 beta functions with:
                l(1) =   0
                l(2) =   0
                l(3) =   1
                l(4) =   1
                l(5) =   2
                l(6) =   3

     PseudoPot. # 2 for Pr read from file:
     /home/cwx6513/pp.La/Pr.UPF
     MD5 check sum: 70e2b4b153859e92c8c91247dfc63203
     Pseudo is Norm-conserving, Zval = 13.0
     Generated in analytical, separable form
     Using radial grid of 1255 points,  6 beta functions with:
                l(1) =   0
                l(2) =   0
                l(3) =   1
                l(4) =   1
                l(5) =   2
                l(6) =   3

     atomic species   valence    mass     pseudopotential
        Co            17.00    58.93320     Eu( 1.00)
        Si            13.00    28.08550     Pr( 1.00)

      8 Sym. Ops., with inversion, found ( 6 have fractional translation)

   Cartesian axes

     site n.     atom                  positions (alat units)
         1           Co  tau(   1) = (   0.8676331   1.2360758   0.9508562  )
         2           Co  tau(   2) = (   0.2892110   0.2618814   1.2373541  )
         3           Co  tau(   3) = (   0.8676331   0.4870972   0.1432489  )
         4           Co  tau(   4) = (   0.2892110   1.0108600   2.0449613  )
         5           Co  tau(   5) = (   0.2892110   0.8085700   0.6133307  )
         6           Co  tau(   6) = (   0.8676331   0.6893872   1.5748796  )
         7           Co  tau(   7) = (   0.2892110   0.0595914   0.4807744  )
         8           Co  tau(   8) = (   0.8676331   1.4383658   1.7074359  )
         9           Si  tau(   9) = (   0.2892110   0.3004227   1.9542437  )
        10           Si  tau(  10) = (   0.8676331   1.1975345   0.2339666  )
        11           Si  tau(  11) = (   0.2892110   1.0494013   1.3280717  )
        12           Si  tau(  12) = (   0.8676331   0.4485559   0.8601385  )

     number of k points=    12  gaussian smearing, width (Ry)=  0.1000
                       cart. coord. in units 2pi/alat
        k(    1) = (   0.0000000   0.0000000   0.0000000), wk =   0.0833333
        k(    2) = (   0.0000000   0.0000000   0.1142486), wk =   0.1666667
        k(    3) = (   0.0000000   0.0000000  -0.2284972), wk =   0.0833333
        k(    4) = (   0.0000000   0.2225253   0.0000000), wk =   0.1666667
        k(    5) = (   0.0000000   0.2225253   0.1142486), wk =   0.3333333
        k(    6) = (   0.0000000   0.2225253  -0.2284972), wk =   0.1666667
        k(    7) = (  -0.4322103   0.0000000   0.0000000), wk =   0.0833333
        k(    8) = (  -0.4322103   0.0000000   0.1142486), wk =   0.1666667
        k(    9) = (  -0.4322103   0.0000000  -0.2284972), wk =   0.0833333
        k(   10) = (  -0.4322103   0.2225253   0.0000000), wk =   0.1666667
        k(   11) = (  -0.4322103   0.2225253   0.1142486), wk =   0.3333333
        k(   12) = (  -0.4322103   0.2225253  -0.2284972), wk =   0.1666667

     Largest allocated arrays     est. size (Mb)     dimensions
     Largest temporary arrays     est. size (Mb)     dimensions

     Initial potential from superposition of free atoms
     Check: negative starting charge=   -0.001038

     starting charge   51.96217, renormalised to  188.00000

     negative rho (up, down):  0.376E-02 0.000E+00
     Starting wfc are   80 randomized atomic wfcs

     Writing output data file Prototype-La-oP12-Co2Si.save

     Self-consistent Calculation

[...]

     negative rho (up, down):  0.163E-03 0.000E+00

[...]

     iteration # 10     ecut=    40.00 Ry     beta=0.70
     CG style diagonalization
     c_bands:  1 eigenvalues not converged
     c_bands:  1 eigenvalues not converged
     c_bands:  1 eigenvalues not converged
     ethr =  2.72E-06,  avg # of iterations =  4.2

[...]

     total energy              =   -1771.76629684 Ry
     Harris-Foulkes estimate   =   -1771.76634989 Ry
     estimated scf accuracy    <       0.00014325 Ry

     iteration # 12     ecut=    40.00 Ry     beta=0.70
     CG style diagonalization
     ethr =  7.62E-08,  avg # of iterations =  3.8

     End of self-consistent calculation

[...]

          k = 0.0000 0.2225-0.2285 (  5568 PWs)   bands (ev):

[...]

          k =-0.4322 0.2225-0.2285 (  5584 PWs)   bands (ev):

   -33.3849 -33.3849 -33.3780 -33.3780 -33.2802 -33.2802 -33.2226 -33.2226
   -13.4207 -13.4207 -13.3847 -13.3847  -6.8501  -6.8501  -6.6450  -6.6450
    -6.6401  -6.6401  -6.5704  -6.5704  -6.4049  -6.4049  -6.2884  -6.2884
    -6.1611  -6.1611  -6.0111  -6.0111  -5.9660  -5.9660  -5.9397  -5.9397
    -5.8247  -5.8247  -5.7387  -5.7387   6.2430   6.2430   6.3577   6.3577
     6.5263   6.5263   6.5465   6.5465   6.6599   6.6599   6.6653   6.6653
    22.4523  22.4523  23.0416  23.0416  23.0799  23.0799  23.6650  23.6650
    23.7031  23.7031  23.9837  23.9837  24.1452  24.1452  24.4906  24.4906
    24.5501  24.5501  24.8565  24.8565  24.9019  24.9019  25.2982  25.2982
    25.4932  25.4932  26.1318  26.1318  26.2121  26.2121  26.5790  26.5790
    26.6368  26.6368  27.7118  27.7118  27.7786  27.7786  28.3239  28.3239
    28.7989  28.7989  28.8343  28.8343  30.1454  30.1454  30.7084  30.7084
    31.1132  31.1132  31.1773  31.1773  31.8363  31.8363  32.0063  32.0063
    32.8336  32.8336  33.3953  33.3953  34.1488  34.1489  34.3133  34.3134
    35.8719

     the Fermi energy is    30.4163 ev

!    total energy              =   -1771.76631495 Ry
     Harris-Foulkes estimate   =   -1771.76633271 Ry
     estimated scf accuracy    <       0.00001987 Ry

     The total energy is the sum of the following terms:

     one-electron contribution =      61.72953860 Ry
     hartree contribution      =     156.05647200 Ry
     xc contribution           =    -196.56937429 Ry
     ewald contribution        =   -1792.46083321 Ry
     smearing contrib. (-TS)   =      -0.52211805 Ry

     convergence has been achieved in  12 iterations

     Forces acting on atoms (Ry/au):

     atom    1 type  1   force =     0.00000000   -0.03872342   -0.02725000
     atom    2 type  1   force =     0.00000000    0.03872342    0.02725000
     atom    3 type  1   force =     0.00000000   -0.03872342    0.02725000
     atom    4 type  1   force =     0.00000000    0.03872342   -0.02725000
     atom    5 type  1   force =     0.00000000    0.05893228   -0.04995504
     atom    6 type  1   force =     0.00000000   -0.05893228    0.04995504
     atom    7 type  1   force =     0.00000000    0.05893228    0.04995504
     atom    8 type  1   force =     0.00000000   -0.05893228   -0.04995504
     atom    9 type  2   force =     0.00000000   -0.04866105   -0.01297183
     atom   10 type  2   force =     0.00000000    0.04866105    0.01297183
     atom   11 type  2   force =     0.00000000   -0.04866105    0.01297183
     atom   12 type  2   force =     0.00000000    0.04866105   -0.01297183

     Total force =     0.207333     Total SCF correction =     0.009857

     entering subroutine stress ...

          total   stress  (Ry/bohr**3)                   (kbar)     P=  865.04
   0.00619553   0.00000000   0.00000000        911.39      0.00      0.00
   0.00000000   0.00545970   0.00000000          0.00    803.15      0.00
   0.00000000   0.00000000   0.00598611          0.00      0.00    880.59

     Writing output data file Prototype-La-oP12-Co2Si.save

     General routines

     Parallel routines

   This run was terminated on:  21:33:45  22Mar2018

   JOB DONE.