     Program PWSCF v.5.0.2 starts on 21Mar2018 at 22:59:10

     Current dimensions of program PWSCF are:
     Max number of different atomic species (ntypx) = 10
     Max number of k-points (npk) =  40000
     Max angular momentum in pseudopotentials (lmaxx) =  3
     Waiting for input...
     Reading input from standard input

     bravais-lattice index     =            0
     lattice parameter (alat)  =       6.8978  a.u.
     unit-cell volume          =     914.6602 (a.u.)^3
     number of atoms/cell      =            4
     number of atomic types    =            1
     number of electrons       =        64.00
     number of Kohn-Sham states=           38
     kinetic-energy cutoff     =      40.0000  Ry
     charge density cutoff     =     160.0000  Ry
     convergence threshold     =      1.0E-04
     mixing beta               =       0.7000
     number of iterations used =            8  plain     mixing
     Exchange-correlation      = SLA-PZ-NOGX-NOGC ( 1 1 0 0 0)
     EXX-fraction              =        0.00
     nstep                     =           50

     celldm(1)=   6.897792  celldm(2)=   0.000000  celldm(3)=   0.000000
     celldm(4)=   0.000000  celldm(5)=   0.000000  celldm(6)=   0.000000

     crystal axes: (cart. coord. in units of alat)
               a(1) = (   1.000000   0.000000   0.000000 )
               a(2) = (  -0.500000   0.866025   0.000000 )
               a(3) = (   0.000000   0.000000   3.218095 )

     reciprocal axes: (cart. coord. in units 2 pi/alat)
               b(1) = (  1.000000  0.577350  0.000000 )
               b(2) = (  0.000000  1.154701  0.000000 )
               b(3) = (  0.000000  0.000000  0.310743 )

     PseudoPot. # 1 for Sm read from file:
     /home/cwx6513/pp.La/Sm.UPF
     MD5 check sum: 5079e8b144a06bfcdbc14fb02b96ab09
     Pseudo is Norm-conserving, Zval = 16.0
     Generated in analytical, separable form
     Using radial grid of 1259 points,  6 beta functions with:
                l(1) =   0
                l(2) =   0
                l(3) =   1
                l(4) =   1
                l(5) =   2
                l(6) =   3

     atomic species   valence    mass     pseudopotential
        Sm            16.00   150.36000     Sm( 1.00)

     24 Sym. Ops., with inversion, found (12 have fractional translation)

   Cartesian axes

     site n.     atom                  positions (alat units)
         1           Sm  tau(   1) = (   0.0000000   0.0000000   0.0000000  )
         2           Sm  tau(   2) = (   0.0000000   0.0000000   1.6090473  )
         3           Sm  tau(   3) = (  -0.0000005   0.5773506   0.8045237  )
         4           Sm  tau(   4) = (   0.5000005   0.2886748   2.4135710  )

     number of k points=    12  gaussian smearing, width (Ry)=  0.1000
                       cart. coord. in units 2pi/alat
        k(    1) = (   0.0000000   0.0000000   0.0000000), wk =   0.0833333
        k(    2) = (   0.0000000   0.0000000   0.0776857), wk =   0.1666667
        k(    3) = (   0.0000000   0.0000000  -0.1553714), wk =   0.0833333
        k(    4) = (   0.0000000   0.3849002   0.0000000), wk =   0.1666667
        k(    5) = (   0.0000000   0.3849002   0.0776857), wk =   0.3333333
        k(    6) = (   0.0000000   0.3849002  -0.1553714), wk =   0.1666667
        k(    7) = (  -0.5000000  -0.2886751   0.0000000), wk =   0.0833333
        k(    8) = (  -0.5000000  -0.2886751   0.0776857), wk =   0.1666667
        k(    9) = (  -0.5000000  -0.2886751  -0.1553714), wk =   0.0833333
        k(   10) = (  -0.5000000   0.0962250   0.0000000), wk =   0.1666667
        k(   11) = (  -0.5000000   0.0962250   0.0776857), wk =   0.3333333
        k(   12) = (  -0.5000000   0.0962250  -0.1553714), wk =   0.1666667

     Largest allocated arrays     est. size (Mb)     dimensions
     Largest temporary arrays     est. size (Mb)     dimensions

     Initial potential from superposition of free atoms

     Starting from uniform charge
     Starting wfc are    0 randomized atomic wfcs

     Self-consistent Calculation

     iteration #  1     ecut=    40.00 Ry     beta=0.70
     CG style diagonalization
     ethr =  1.00E-02,  avg # of iterations =  9.5

     total energy              =    -560.23391248 Ry
     Harris-Foulkes estimate   =    -753.13403553 Ry
     estimated scf accuracy    <     255.62123777 Ry

[...]

     negative rho (up, down):  0.118E-01 0.000E+00

[...]

     iteration #  7     ecut=    40.00 Ry     beta=0.70
     CG style diagonalization
     c_bands:  4 eigenvalues not converged
     c_bands:  4 eigenvalues not converged
     c_bands:  1 eigenvalues not converged
     c_bands:  5 eigenvalues not converged
     c_bands:  5 eigenvalues not converged
     c_bands:  2 eigenvalues not converged
     ethr =  6.30E-06,  avg # of iterations =  7.4

[...]

     End of self-consistent calculation

          k = 0.0000 0.0000 0.0000 (  3879 PWs)   bands (ev):

   -45.4647 -45.4550 -45.4533 -45.4435 -20.5583 -20.4371 -20.4369 -20.3946
   -20.3946 -20.3741 -20.3741 -20.3739 -20.3739 -20.3539 -20.3539 -20.3127
     7.2792   8.3293   8.3298   8.4194  10.0376  10.0376  10.0419  10.0419
    10.1446  10.1625  10.1703  10.2847  10.2847  10.3277  10.3277  10.9791
    10.9791  11.3371  11.3371  11.6399  11.6399  12.1226

[...]

          k =-0.5000-0.2887 0.0000 (  3910 PWs)   bands (ev):

[...]

     the Fermi energy is    11.6044 ev

!    total energy              =    -605.82827105 Ry
     Harris-Foulkes estimate   =    -605.82828070 Ry
     estimated scf accuracy    <       0.00001088 Ry

     The total energy is the sum of the following terms:

     one-electron contribution =    -160.32875179 Ry
     hartree contribution      =     102.14318122 Ry
     xc contribution           =     -63.41998169 Ry
     ewald contribution        =    -483.63382269 Ry
     smearing contrib. (-TS)   =      -0.58889610 Ry

     convergence has been achieved in  11 iterations

     Forces acting on atoms (Ry/au):

     atom    1 type  1   force =     0.00000000    0.00000000    0.00000000
     atom    2 type  1   force =     0.00000000    0.00000000    0.00000000
     atom    3 type  1   force =     0.00000000    0.00000000    0.00000000
     atom    4 type  1   force =     0.00000000    0.00000000    0.00000000

     Total force =     0.000000     Total SCF correction =     0.000000

     entering subroutine stress ...

          total   stress  (Ry/bohr**3)                   (kbar)     P= -355.21
  -0.00238440   0.00000000   0.00000000       -350.76      0.00      0.00
   0.00000000  -0.00238440   0.00000000          0.00   -350.76      0.00
   0.00000000   0.00000000  -0.00247526          0.00      0.00   -364.12

     BFGS Geometry Optimization

     number of scf cycles    =   1
     number of bfgs steps    =   0

     enthalpy new            =    -605.8282710534 Ry

     new trust radius        =       0.3743007991 bohr
     new conv_thr            =       0.0001000000 Ry

     new unit-cell volume =    758.81054 a.u.^3 (   112.44412 Ang^3 )

CELL_PARAMETERS (alat=  6.89779219)
   0.940389879   0.000000000   0.000000000
  -0.470194939   0.814401524   0.000000000
   0.000000000   0.000000000   3.018954116

ATOMIC_POSITIONS (crystal)
Sm       0.000000000   0.000000000   0.000000000
Sm       0.000000000   0.000000000   0.500000000
Sm       0.333333000   0.666667000   0.250000000
Sm       0.666667000   0.333333000   0.750000000

     Writing output data file Element-Sm.q.save
     NEW-OLD atomic charge density approx. for the potential
     NEW k-points:
        k(    1) = (   0.0000000   0.0000000   0.0000000), wk =   0.0833333
        k(    2) = (   0.0000000   0.0000000   0.0828101), wk =   0.1666667
        k(    3) = (   0.0000000   0.0000000  -0.1656203), wk =   0.0833333
        k(    4) = (   0.0000000   0.4092985   0.0000000), wk =   0.1666667
        k(    5) = (   0.0000000   0.4092985   0.0828101), wk =   0.3333333
        k(    6) = (   0.0000000   0.4092985  -0.1656203), wk =   0.1666667
        k(    7) = (  -0.5316944  -0.3069739   0.0000000), wk =   0.0833333
        k(    8) = (  -0.5316944  -0.3069739   0.0828101), wk =   0.1666667
        k(    9) = (  -0.5316944  -0.3069739  -0.1656203), wk =   0.0833333
        k(   10) = (  -0.5316944   0.1023246   0.0000000), wk =   0.1666667
        k(   11) = (  -0.5316944   0.1023246   0.0828101), wk =   0.3333333
        k(   12) = (  -0.5316944   0.1023246  -0.1656203), wk =   0.1666667

[...]

     enthalpy old            =    -605.8282710534 Ry
     enthalpy new            =    -606.2010748268 Ry

     CASE: enthalpy_new < enthalpy_old

     WARNING: bfgs curvature condition failed, Theta= 0.918
     small trust_radius: resetting bfgs history

[...]

     number of scf cycles    =   3
     number of bfgs steps    =   2

     enthalpy old            =    -606.2010748268 Ry
     enthalpy new            =    -606.4643147056 Ry

     CASE: enthalpy_new < enthalpy_old

     Message from routine bfgs:
     history already reset at previous step: stopping
     small trust_radius: resetting bfgs history

     new trust radius        =       0.2215310819 bohr
     new conv_thr            =       0.0000010000 Ry

     new unit-cell volume =    557.16602 a.u.^3 (    82.56349 Ang^3 )

[...]

ATOMIC_POSITIONS (crystal)
Sm       0.000000000   0.000000000   0.000000000
Sm       0.000000000   0.000000000   0.500000000
Sm       0.333333000   0.666667000   0.250000000
Sm       0.666667000   0.333333000   0.750000000

     Writing output data file Element-Sm.q.save
     NEW-OLD atomic charge density approx. for the potential
     NEW k-points:
        k(    1) = (   0.0000000   0.0000000   0.0000000), wk =   0.0833333
        k(    2) = (   0.0000000   0.0000000   0.0923042), wk =   0.1666667
        k(    3) = (   0.0000000   0.0000000  -0.1846084), wk =   0.0833333
        k(    4) = (   0.0000000   0.4524239   0.0000000), wk =   0.1666667
        k(    5) = (   0.0000000   0.4524239   0.0923042), wk =   0.3333333
        k(    6) = (   0.0000000   0.4524239  -0.1846084), wk =   0.1666667
        k(    7) = (  -0.5877158  -0.3393179   0.0000000), wk =   0.0833333
        k(    8) = (  -0.5877158  -0.3393179   0.0923042), wk =   0.1666667
        k(    9) = (  -0.5877158  -0.3393179  -0.1846084), wk =   0.0833333
        k(   10) = (  -0.5877158   0.1131060   0.0000000), wk =   0.1666667
        k(   11) = (  -0.5877158   0.1131060   0.0923042), wk =   0.3333333
        k(   12) = (  -0.5877158   0.1131060  -0.1846084), wk =   0.1666667

[...]

     The maximum number of steps has been reached.

     End of BFGS Geometry Optimization
Begin final coordinates
     new unit-cell volume =    557.16602 a.u.^3 (    82.56349 Ang^3 )

CELL_PARAMETERS (alat=  6.89779219)
   0.850751272   0.000000000   0.000000000
  -0.425375636   0.736772214   0.000000000
   0.000000000   0.000000000   2.708435273

ATOMIC_POSITIONS (crystal)
Sm       0.000000000   0.000000000   0.000000000
Sm       0.000000000   0.000000000   0.500000000
Sm       0.333333000   0.666667000   0.250000000
Sm       0.666667000   0.333333000   0.750000000
End final coordinates

     A final scf calculation at the relaxed structure.
     The G-vectors are recalculated for the final unit cell
     Results may differ from those at the preceding step.

     bravais-lattice index     =            0
     lattice parameter (alat)  =       6.8978  a.u.
     unit-cell volume          =     557.1660 (a.u.)^3
     number of atoms/cell      =            4
     number of atomic types    =            1
     number of electrons       =        64.00
     number of Kohn-Sham states=           38
     kinetic-energy cutoff     =      40.0000  Ry
     charge density cutoff     =     160.0000  Ry
     convergence threshold     =      1.0E-06
     mixing beta               =       0.7000
     number of iterations used =            8  plain     mixing
     Exchange-correlation      = SLA-PZ-NOGX-NOGC ( 1 1 0 0 0)
     EXX-fraction              =        0.00

     celldm(1)=   6.897792  celldm(2)=   0.000000  celldm(3)=   0.000000
     celldm(4)=   0.000000  celldm(5)=   0.000000  celldm(6)=   0.000000

     crystal axes: (cart. coord. in units of alat)
               a(1) = (   0.850751   0.000000   0.000000 )
               a(2) = (  -0.425376   0.736772   0.000000 )
               a(3) = (   0.000000   0.000000   2.708435 )

     reciprocal axes: (cart. coord. in units 2 pi/alat)
               b(1) = (  1.175432  0.678636  0.000000 )
               b(2) = (  0.000000  1.357272  0.000000 )
               b(3) = (  0.000000  0.000000  0.369217 )

     PseudoPot. # 1 for Sm read from file:
     /home/cwx6513/pp.La/Sm.UPF
     MD5 check sum: 5079e8b144a06bfcdbc14fb02b96ab09
     Pseudo is Norm-conserving, Zval = 16.0
     Generated in analytical, separable form
     Using radial grid of 1259 points,  6 beta functions with:
                l(1) =   0
                l(2) =   0
                l(3) =   1
                l(4) =   1
                l(5) =   2
                l(6) =   3

     atomic species   valence    mass     pseudopotential
        Sm            16.00   150.36000     Sm( 1.00)

     24 Sym. Ops., with inversion, found (12 have fractional translation)

   Cartesian axes

     site n.     atom                  positions (alat units)
         1           Sm  tau(   1) = (   0.0000000   0.0000000   0.0000000  )
         2           Sm  tau(   2) = (   0.0000000   0.0000000   1.3542176  )
         3           Sm  tau(   3) = (  -0.0000004   0.4911817   0.6771088  )
         4           Sm  tau(   4) = (   0.4253761   0.2455905   2.0313265  )

     number of k points=    12  gaussian smearing, width (Ry)=  0.1000
                       cart. coord. in units 2pi/alat
        k(    1) = (   0.0000000   0.0000000   0.0000000), wk =   0.0833333
        k(    2) = (   0.0000000   0.0000000   0.0923042), wk =   0.1666667
        k(    3) = (   0.0000000   0.0000000  -0.1846084), wk =   0.0833333
        k(    4) = (   0.0000000   0.4524239   0.0000000), wk =   0.1666667
        k(    5) = (   0.0000000   0.4524239   0.0923042), wk =   0.3333333
        k(    6) = (   0.0000000   0.4524239  -0.1846084), wk =   0.1666667
        k(    7) = (  -0.5877158  -0.3393179   0.0000000), wk =   0.0833333
        k(    8) = (  -0.5877158  -0.3393179   0.0923042), wk =   0.1666667
        k(    9) = (  -0.5877158  -0.3393179  -0.1846084), wk =   0.0833333
        k(   10) = (  -0.5877158   0.1131060   0.0000000), wk =   0.1666667
        k(   11) = (  -0.5877158   0.1131060   0.0923042), wk =   0.3333333
        k(   12) = (  -0.5877158   0.1131060  -0.1846084), wk =   0.1666667

     Largest allocated arrays     est. size (Mb)     dimensions
     Largest temporary arrays     est. size (Mb)     dimensions

     Initial potential from superposition of free atoms

     Starting from uniform charge
     Starting wfc are    0 randomized atomic wfcs

     Writing output data file Element-Sm.q.save

     Self-consistent Calculation

[...]

     iteration #  4     ecut=    40.00 Ry     beta=0.70
     CG style diagonalization
     c_bands:  1 eigenvalues not converged
     ethr =  4.40E-04,  avg # of iterations =  4.4

     negative rho (up, down):  0.137E-03 0.000E+00

[...]

     total energy              =    -606.40725320 Ry
     Harris-Foulkes estimate   =    -606.40725374 Ry
     estimated scf accuracy    <       0.00000138 Ry

     iteration # 12     ecut=    40.00 Ry     beta=0.70
     CG style diagonalization
     ethr =  2.16E-09,  avg # of iterations =  3.6

     End of self-consistent calculation

[...]

          k = 0.0000 0.4524-0.1846 (  2380 PWs)   bands (ev):

[...]

          k =-0.5877 0.1131-0.1846 (  2390 PWs)   bands (ev):

   -34.9711 -34.9711 -34.9171 -34.9171 -10.6605 -10.6605 -10.5790 -10.5790
   -10.1779 -10.1779 -10.0049 -10.0049  -9.9341  -9.9341  -9.7075  -9.7074
    17.1836  17.1836  17.5808  17.5809  17.6422  17.6422  19.0365  19.0365
    19.9239  19.9239  20.5832  20.5832  21.1891  21.1891  22.4764  22.4764
    23.4957  23.4957  24.6485  24.6485  26.4468  26.4468

     the Fermi energy is    22.7139 ev

!    total energy              =    -606.40725343 Ry
     Harris-Foulkes estimate   =    -606.40725346 Ry
     estimated scf accuracy    <       0.00000004 Ry

     The total energy is the sum of the following terms:

     one-electron contribution =     -33.64954817 Ry
     hartree contribution      =      63.18834083 Ry
     xc contribution           =     -65.14392159 Ry
     ewald contribution        =    -570.49088519 Ry
     smearing contrib. (-TS)   =      -0.31123931 Ry

     convergence has been achieved in  12 iterations

     Forces acting on atoms (Ry/au):

     atom    1 type  1   force =     0.00000000    0.00000000    0.00000000
     atom    2 type  1   force =     0.00000000    0.00000000    0.00000000
     atom    3 type  1   force =     0.00000000    0.00000000    0.00000000
     atom    4 type  1   force =     0.00000000    0.00000000    0.00000000

     Total force =     0.000000     Total SCF correction =     0.000000

     entering subroutine stress ...

          total   stress  (Ry/bohr**3)                   (kbar)     P= -146.01
  -0.00093327   0.00000000   0.00000000       -137.29      0.00      0.00
   0.00000000  -0.00093327   0.00000000          0.00   -137.29      0.00
   0.00000000   0.00000000  -0.00111111          0.00      0.00   -163.45

     Writing output data file Element-Sm.q.save

     General routines

     Parallel routines

   This run was terminated on:  23: 0: 5  21Mar2018

   JOB DONE.