     Program PWSCF v.5.0.2 starts on 23Mar2018 at  0:54:28

     Current dimensions of program PWSCF are:
     Max number of different atomic species (ntypx) = 10
     Max number of k-points (npk) =  40000
     Max angular momentum in pseudopotentials (lmaxx) =  3
     Waiting for input...
     Reading input from standard input

     Subspace diagonalization in iterative solution of the eigenvalue problem:
     a serial algorithm will be used

     bravais-lattice index     =            0
     lattice parameter (alat)  =       7.0151  a.u.
     unit-cell volume          =     862.2778 (a.u.)^3
     number of atoms/cell      =           12
     number of atomic types    =            2
     number of electrons       =       216.00
     number of Kohn-Sham states=          130
     kinetic-energy cutoff     =      40.0000  Ry
     charge density cutoff     =     160.0000  Ry
     convergence threshold     =      1.0E-04
     mixing beta               =       0.7000
     number of iterations used =            8  plain     mixing
     Exchange-correlation      = SLA-PZ-NOGX-NOGC ( 1 1 0 0 0)
     EXX-fraction              =        0.00
     nstep                     =           50

     celldm(1)=   7.015105  celldm(2)=   0.000000  celldm(3)=   0.000000
     celldm(4)=   0.000000  celldm(5)=   0.000000  celldm(6)=   0.000000

     crystal axes: (cart. coord. in units of alat)
               a(1) = (   1.000000   0.000000   0.000000 )
               a(2) = (   0.000000   1.315963   0.000000 )
               a(3) = (   0.000000   0.000000   1.898020 )

     reciprocal axes: (cart. coord. in units 2 pi/alat)
               b(1) = (  1.000000  0.000000  0.000000 )
               b(2) = (  0.000000  0.759900  0.000000 )
               b(3) = (  0.000000  0.000000  0.526865 )

     PseudoPot. # 1 for Ho read from file:
     /home/cwx6513/pp.La/Ho.UPF
     MD5 check sum: f307ee11bce99f5b724fa279e3790763
     Pseudo is Norm-conserving, Zval = 21.0
     Generated in analytical, separable form
     Using radial grid of 1265 points,  6 beta functions with:
                l(1) =   0
                l(2) =   0
                l(3) =   1
                l(4) =   1
                l(5) =   2
                l(6) =   3

     PseudoPot. # 2 for Ce read from file:
     /home/cwx6513/pp.La/Ce.UPF
     MD5 check sum: 44451aa79a44a00cf2bc029dc19922f6
     Pseudo is Norm-conserving, Zval = 12.0
     Generated in analytical, separable form
     Using radial grid of 1255 points,  6 beta functions with:
                l(1) =   0
                l(2) =   0
                l(3) =   1
                l(4) =   1
                l(5) =   2
                l(6) =   3

     atomic species   valence    mass     pseudopotential
        Co            21.00    58.93320     Ho( 1.00)
        Si            12.00    28.08550     Ce( 1.00)

      8 Sym. Ops., with inversion, found ( 6 have fractional translation)

   Cartesian axes

     site n.     atom                  positions (alat units)
         1           Co  tau(   1) = (   0.7500000   1.0875135   0.8270358  )
         2           Co  tau(   2) = (   0.2500000   0.2284499   1.0709846  )
         3           Co  tau(   3) = (   0.7500000   0.4295318   0.1219744  )
         4           Co  tau(   4) = (   0.2500000   0.8864316   1.7760460  )
         5           Co  tau(   5) = (   0.2500000   0.7067855   0.5358966  )
         6           Co  tau(   6) = (   0.7500000   0.6091779   1.3621238  )
         7           Co  tau(   7) = (   0.2500000   0.0488038   0.4131136  )
         8           Co  tau(   8) = (   0.7500000   1.2671596   1.4849068  )
         9           Si  tau(   9) = (   0.2500000   0.2669484   1.6960710  )
        10           Si  tau(  10) = (   0.7500000   1.0490149   0.2019494  )
        11           Si  tau(  11) = (   0.2500000   0.9249301   1.1509596  )
        12           Si  tau(  12) = (   0.7500000   0.3910333   0.7470608  )

     number of k points=    12  gaussian smearing, width (Ry)=  0.1000
                       cart. coord. in units 2pi/alat
        k(    1) = (   0.0000000   0.0000000   0.0000000), wk =   0.0833333
        k(    2) = (   0.0000000   0.0000000   0.1317162), wk =   0.1666667
        k(    3) = (   0.0000000   0.0000000  -0.2634324), wk =   0.0833333
        k(    4) = (   0.0000000   0.2532999   0.0000000), wk =   0.1666667
        k(    5) = (   0.0000000   0.2532999   0.1317162), wk =   0.3333333
        k(    6) = (   0.0000000   0.2532999  -0.2634324), wk =   0.1666667
        k(    7) = (  -0.5000000   0.0000000   0.0000000), wk =   0.0833333
        k(    8) = (  -0.5000000   0.0000000   0.1317162), wk =   0.1666667
        k(    9) = (  -0.5000000   0.0000000  -0.2634324), wk =   0.0833333
        k(   10) = (  -0.5000000   0.2532999   0.0000000), wk =   0.1666667
        k(   11) = (  -0.5000000   0.2532999   0.1317162), wk =   0.3333333
        k(   12) = (  -0.5000000   0.2532999  -0.2634324), wk =   0.1666667

     Largest allocated arrays     est. size (Mb)     dimensions
     Largest temporary arrays     est. size (Mb)     dimensions

     Initial potential from superposition of free atoms

     Starting from uniform charge
     Starting wfc are    0 randomized atomic wfcs

     Self-consistent Calculation

     iteration #  1     ecut=    40.00 Ry     beta=0.70
     CG style diagonalization
     c_bands:  1 eigenvalues not converged
     ethr =  1.00E-02,  avg # of iterations = 17.2

     total energy              =   -2009.43550162 Ry
     Harris-Foulkes estimate   =   -3110.33559735 Ry
     estimated scf accuracy    <    1364.08602605 Ry

[...]

     iteration #  4     ecut=    40.00 Ry     beta=0.70
     CG style diagonalization
     ethr =  1.00E-02,  avg # of iterations =  4.3

[...]

     End of self-consistent calculation

          k = 0.0000 0.0000 0.0000 (  3675 PWs)   bands (ev):

   -44.4127 -44.3537 -44.2035 -44.1919 -44.1660 -44.1427 -44.1213 -44.1128
    -9.8905  -9.6716  -9.5136  -9.4144  -9.2770  -9.2104  -9.1895  -9.0124
    -8.9524  -8.9191  -8.8759  -8.7920  -8.7625  -8.6665  -8.6271  -8.5942
    -8.5772  -8.5314  -8.4239  -8.4076  -8.3800  -8.2362  -8.1928  -8.1055
     9.9722  10.5811  10.7090  10.7906  23.8908  24.4358  24.7220  24.8073
    25.2649  25.4760  25.5385  26.1651  26.2090  26.3342  27.2445  28.2125
    29.5141  29.9494  29.9930  30.1788  30.3269  30.4974  30.7683  31.3103
    32.2495  32.4407  32.6225  32.6530  32.7663  32.9136  33.4421  33.8570
    33.9412  34.2421  34.3089  34.5110  34.5501  34.8246  34.8733  34.9810
    35.0738  35.1428  35.8069  36.5915  37.2753  37.2979  37.4276  37.5273
    37.7402  37.9378  38.0418  38.3327  38.3830  39.0003  39.5329  39.5783
    39.9947  40.0826  43.2496  43.7761  44.9259  45.8276  46.4330  46.5121
    47.0925  47.3353  47.9371  48.0453  48.3151  48.6029  50.0064  50.0460
    50.2144  50.5561  50.9568  51.4173  51.4406  52.1516  52.6599  52.8557
    53.3248  53.4146  53.5485  54.0042  54.1925  54.4867  55.5382  56.2680
    56.5114  56.7658  57.1662  57.2122  57.5893  57.8241  57.8262  57.9312
    58.7557  59.2649

[...]

          k =-0.5000 0.0000 0.0000 (  3722 PWs)   bands (ev):

[...]

     the Fermi energy is    51.1163 ev

!    total energy              =   -2640.27266713 Ry
     Harris-Foulkes estimate   =   -2640.27268560 Ry
     estimated scf accuracy    <       0.00002104 Ry

     The total energy is the sum of the following terms:

     one-electron contribution =     156.91790497 Ry
     hartree contribution      =     249.92639888 Ry
     xc contribution           =    -264.96224626 Ry
     ewald contribution        =   -2781.79723089 Ry
     smearing contrib. (-TS)   =      -0.35749383 Ry

     convergence has been achieved in  11 iterations

     Forces acting on atoms (Ry/au):

     atom    1 type  1   force =     0.00000000   -0.07946760   -0.04937852
     atom    2 type  1   force =     0.00000000    0.07946760    0.04937852
     atom    3 type  1   force =     0.00000000   -0.07946760    0.04937852
     atom    4 type  1   force =     0.00000000    0.07946760   -0.04937852
     atom    5 type  1   force =     0.00000000    0.17033137   -0.24657727
     atom    6 type  1   force =     0.00000000   -0.17033137    0.24657727
     atom    7 type  1   force =     0.00000000    0.17033137    0.24657727
     atom    8 type  1   force =     0.00000000   -0.17033137   -0.24657727
     atom    9 type  2   force =     0.00000000   -0.14893802    0.02371015
     atom   10 type  2   force =     0.00000000    0.14893802   -0.02371015
     atom   11 type  2   force =     0.00000000   -0.14893802   -0.02371015
     atom   12 type  2   force =     0.00000000    0.14893802    0.02371015

     Total force =     0.696595     Total SCF correction =     0.000000

     entering subroutine stress ...

          total   stress  (Ry/bohr**3)                   (kbar)     P= 7260.79
   0.05289385   0.00000000   0.00000000       7780.95      0.00      0.00
   0.00000000   0.04665954   0.00000000          0.00   6863.85      0.00
   0.00000000   0.00000000   0.04852019          0.00      0.00   7137.57

     BFGS Geometry Optimization

     number of scf cycles    =   1
     number of bfgs steps    =   0

     enthalpy new            =   -2640.2726671285 Ry

     new trust radius        =       0.5000000000 bohr
     new conv_thr            =       0.0001000000 Ry

     new unit-cell volume =   1084.52388 a.u.^3 (   160.70986 Ang^3 )

CELL_PARAMETERS (alat=  7.01510508)
   1.085136619   0.000000000   0.000000000
   0.000000000   1.414794903   0.000000000
   0.000000000   0.000000000   2.046249890

ATOMIC_POSITIONS (crystal)
Co       0.750000000   0.825846779   0.435497233
Co       0.250000000   0.174153221   0.564502767
Co       0.750000000   0.325846779   0.064502767
Co       0.250000000   0.674153221   0.935497233
Co       0.250000000   0.538273922   0.281152690
Co       0.750000000   0.461726078   0.718847310
Co       0.250000000   0.038273922   0.218847310
Co       0.750000000   0.961726078   0.781152690
Si       0.250000000   0.201815279   0.893714649
Si       0.750000000   0.798184721   0.106285351
Si       0.250000000   0.701815279   0.606285351
Si       0.750000000   0.298184721   0.393714649

     Writing output data file Prototype-La-oP12-Co2Si.save
     NEW-OLD atomic charge density approx. for the potential
     NEW k-points:
        k(    1) = (   0.0000000   0.0000000   0.0000000), wk =   0.0833333
        k(    2) = (   0.0000000   0.0000000   0.1221747), wk =   0.1666667
        k(    3) = (   0.0000000   0.0000000  -0.2443494), wk =   0.0833333
        k(    4) = (   0.0000000   0.2356054   0.0000000), wk =   0.1666667
        k(    5) = (   0.0000000   0.2356054   0.1221747), wk =   0.3333333
        k(    6) = (   0.0000000   0.2356054  -0.2443494), wk =   0.1666667
        k(    7) = (  -0.4607715   0.0000000   0.0000000), wk =   0.0833333
        k(    8) = (  -0.4607715   0.0000000   0.1221747), wk =   0.1666667
        k(    9) = (  -0.4607715   0.0000000  -0.2443494), wk =   0.0833333
        k(   10) = (  -0.4607715   0.2356054   0.0000000), wk =   0.1666667
        k(   11) = (  -0.4607715   0.2356054   0.1221747), wk =   0.3333333
        k(   12) = (  -0.4607715   0.2356054  -0.2443494), wk =   0.1666667

[...]

     enthalpy old            =   -2640.2726671285 Ry
     enthalpy new            =   -2647.3201722540 Ry

     CASE: enthalpy_new < enthalpy_old

     small trust_radius: resetting bfgs history

     new trust radius        =       3.2136129311 bohr
     new conv_thr            =       0.0001000000 Ry

[...]

          total   stress  (Ry/bohr**3)                   (kbar)     P=-2649.69
  -0.01986698   0.00000000   0.00000000      -2922.53      0.00      0.00
   0.00000000  -0.01661109   0.00000000          0.00  -2443.58      0.00
   0.00000000   0.00000000  -0.01755854          0.00      0.00  -2582.95

     number of scf cycles    =   3
     number of bfgs steps    =   2

     enthalpy old            =   -2647.3201722540 Ry
     enthalpy new            =   -2626.2607873203 Ry

     CASE: enthalpy_new > enthalpy_old

     new trust radius        =       1.0419702942 bohr

     trust_radius < trust_radius_min

     resetting bfgs history

     Message from routine bfgs:
     history already reset at previous step: stopping
     new conv_thr            =       0.0001000000 Ry

     new unit-cell volume =   1278.33176 a.u.^3 (   189.42922 Ang^3 )

[...]

ATOMIC_POSITIONS (crystal)
Co       0.750000000   0.825383892   0.435421607
Co       0.250000000   0.174616108   0.564578393
Co       0.750000000   0.325383892   0.064578393
Co       0.250000000   0.674616108   0.935421607
Co       0.250000000   0.539206672   0.280131049
Co       0.750000000   0.460793328   0.719868951
Co       0.250000000   0.039206672   0.219868951
Co       0.750000000   0.960793328   0.780131049
Si       0.250000000   0.201083862   0.893905900
Si       0.750000000   0.798916138   0.106094100
Si       0.250000000   0.701083862   0.606094100
Si       0.750000000   0.298916138   0.393905900

     Writing output data file Prototype-La-oP12-Co2Si.save
     NEW-OLD atomic charge density approx. for the potential
     NEW k-points:
        k(    1) = (   0.0000000   0.0000000   0.0000000), wk =   0.0833333
        k(    2) = (   0.0000000   0.0000000   0.1158381), wk =   0.1666667
        k(    3) = (   0.0000000   0.0000000  -0.2316762), wk =   0.0833333
        k(    4) = (   0.0000000   0.2245138   0.0000000), wk =   0.1666667
        k(    5) = (   0.0000000   0.2245138   0.1158381), wk =   0.3333333
        k(    6) = (   0.0000000   0.2245138  -0.2316762), wk =   0.1666667
        k(    7) = (  -0.4326666   0.0000000   0.0000000), wk =   0.0833333
        k(    8) = (  -0.4326666   0.0000000   0.1158381), wk =   0.1666667
        k(    9) = (  -0.4326666   0.0000000  -0.2316762), wk =   0.0833333
        k(   10) = (  -0.4326666   0.2245138   0.0000000), wk =   0.1666667
        k(   11) = (  -0.4326666   0.2245138   0.1158381), wk =   0.3333333
        k(   12) = (  -0.4326666   0.2245138  -0.2316762), wk =   0.1666667

[...]

     The maximum number of steps has been reached.

     End of BFGS Geometry Optimization
Begin final coordinates
     new unit-cell volume =   1278.33176 a.u.^3 (   189.42922 Ang^3 )

CELL_PARAMETERS (alat=  7.01510508)
   1.155624302   0.000000000   0.000000000
   0.000000000   1.484689850   0.000000000
   0.000000000   0.000000000   2.158184807

ATOMIC_POSITIONS (crystal)
Co       0.750000000   0.825383892   0.435421607
Co       0.250000000   0.174616108   0.564578393
Co       0.750000000   0.325383892   0.064578393
Co       0.250000000   0.674616108   0.935421607
Co       0.250000000   0.539206672   0.280131049
Co       0.750000000   0.460793328   0.719868951
Co       0.250000000   0.039206672   0.219868951
Co       0.750000000   0.960793328   0.780131049
Si       0.250000000   0.201083862   0.893905900
Si       0.750000000   0.798916138   0.106094100
Si       0.250000000   0.701083862   0.606094100
Si       0.750000000   0.298916138   0.393905900
End final coordinates

     A final scf calculation at the relaxed structure.
     The G-vectors are recalculated for the final unit cell
     Results may differ from those at the preceding step.

     bravais-lattice index     =            0
     lattice parameter (alat)  =       7.0151  a.u.
     unit-cell volume          =    1278.3318 (a.u.)^3
     number of atoms/cell      =           12
     number of atomic types    =            2
     number of electrons       =       216.00
     number of Kohn-Sham states=          130
     kinetic-energy cutoff     =      40.0000  Ry
     charge density cutoff     =     160.0000  Ry
     convergence threshold     =      1.0E-04
     mixing beta               =       0.7000
     number of iterations used =            8  plain     mixing
     Exchange-correlation      = SLA-PZ-NOGX-NOGC ( 1 1 0 0 0)
     EXX-fraction              =        0.00

     celldm(1)=   7.015105  celldm(2)=   0.000000  celldm(3)=   0.000000
     celldm(4)=   0.000000  celldm(5)=   0.000000  celldm(6)=   0.000000

     crystal axes: (cart. coord. in units of alat)
               a(1) = (   1.155624   0.000000   0.000000 )
               a(2) = (   0.000000   1.484690   0.000000 )
               a(3) = (   0.000000   0.000000   2.158185 )

     reciprocal axes: (cart. coord. in units 2 pi/alat)
               b(1) = (  0.865333  0.000000  0.000000 )
               b(2) = (  0.000000  0.673541  0.000000 )
               b(3) = (  0.000000  0.000000  0.463352 )

     PseudoPot. # 1 for Ho read from file:
     /home/cwx6513/pp.La/Ho.UPF
     MD5 check sum: f307ee11bce99f5b724fa279e3790763
     Pseudo is Norm-conserving, Zval = 21.0
     Generated in analytical, separable form
     Using radial grid of 1265 points,  6 beta functions with:
                l(1) =   0
                l(2) =   0
                l(3) =   1
                l(4) =   1
                l(5) =   2
                l(6) =   3

     PseudoPot. # 2 for Ce read from file:
     /home/cwx6513/pp.La/Ce.UPF
     MD5 check sum: 44451aa79a44a00cf2bc029dc19922f6
     Pseudo is Norm-conserving, Zval = 12.0
     Generated in analytical, separable form
     Using radial grid of 1255 points,  6 beta functions with:
                l(1) =   0
                l(2) =   0
                l(3) =   1
                l(4) =   1
                l(5) =   2
                l(6) =   3

     atomic species   valence    mass     pseudopotential
        Co            21.00    58.93320     Ho( 1.00)
        Si            12.00    28.08550     Ce( 1.00)

      8 Sym. Ops., with inversion, found ( 6 have fractional translation)

   Cartesian axes

     site n.     atom                  positions (alat units)
         1           Co  tau(   1) = (   0.8667182   1.2254391   0.9397203  )
         2           Co  tau(   2) = (   0.2889061   0.2592508   1.2184645  )
         3           Co  tau(   3) = (   0.8667182   0.4830942   0.1393721  )
         4           Co  tau(   4) = (   0.2889061   1.0015957   2.0188127  )
         5           Co  tau(   5) = (   0.2889061   0.8005547   0.6045746  )
         6           Co  tau(   6) = (   0.8667182   0.6841352   1.5536102  )
         7           Co  tau(   7) = (   0.2889061   0.0582097   0.4745178  )
         8           Co  tau(   8) = (   0.8667182   1.4264801   1.6836670  )
         9           Si  tau(   9) = (   0.2889061   0.2985472   1.9292141  )
        10           Si  tau(  10) = (   0.8667182   1.1861427   0.2289707  )
        11           Si  tau(  11) = (   0.2889061   1.0408921   1.3080631  )
        12           Si  tau(  12) = (   0.8667182   0.4437978   0.8501217  )

     number of k points=    12  gaussian smearing, width (Ry)=  0.1000
                       cart. coord. in units 2pi/alat
        k(    1) = (   0.0000000   0.0000000   0.0000000), wk =   0.0833333
        k(    2) = (   0.0000000   0.0000000   0.1158381), wk =   0.1666667
        k(    3) = (   0.0000000   0.0000000  -0.2316762), wk =   0.0833333
        k(    4) = (   0.0000000   0.2245138   0.0000000), wk =   0.1666667
        k(    5) = (   0.0000000   0.2245138   0.1158381), wk =   0.3333333
        k(    6) = (   0.0000000   0.2245138  -0.2316762), wk =   0.1666667
        k(    7) = (  -0.4326666   0.0000000   0.0000000), wk =   0.0833333
        k(    8) = (  -0.4326666   0.0000000   0.1158381), wk =   0.1666667
        k(    9) = (  -0.4326666   0.0000000  -0.2316762), wk =   0.0833333
        k(   10) = (  -0.4326666   0.2245138   0.0000000), wk =   0.1666667
        k(   11) = (  -0.4326666   0.2245138   0.1158381), wk =   0.3333333
        k(   12) = (  -0.4326666   0.2245138  -0.2316762), wk =   0.1666667

     Largest allocated arrays     est. size (Mb)     dimensions
     Largest temporary arrays     est. size (Mb)     dimensions

     Initial potential from superposition of free atoms

     Starting from uniform charge
     Starting wfc are    0 randomized atomic wfcs

     Writing output data file Prototype-La-oP12-Co2Si.save

     Self-consistent Calculation

[...]

     iteration #  9     ecut=    40.00 Ry     beta=0.70
     CG style diagonalization
     c_bands:  1 eigenvalues not converged
     c_bands:  2 eigenvalues not converged
     c_bands:  1 eigenvalues not converged
     c_bands:  1 eigenvalues not converged
     ethr =  1.79E-06,  avg # of iterations =  4.3

[...]

     total energy              =   -2653.37534602 Ry
     Harris-Foulkes estimate   =   -2653.37541972 Ry
     estimated scf accuracy    <       0.00011330 Ry

     iteration # 11     ecut=    40.00 Ry     beta=0.70
     CG style diagonalization
     ethr =  5.25E-08,  avg # of iterations =  4.3

     End of self-consistent calculation

[...]

          k = 0.0000 0.2245-0.2317 (  5470 PWs)   bands (ev):

[...]

          k =-0.4327 0.2245-0.2317 (  5480 PWs)   bands (ev):

   -59.2990 -59.2990 -59.2921 -59.2921 -59.2760 -59.2760 -59.2719 -59.2719
   -23.7423 -23.7423 -23.6587 -23.6587 -23.6557 -23.6557 -23.6223 -23.6223
   -23.6080 -23.6080 -23.5498 -23.5498 -23.5056 -23.5056 -23.4819 -23.4819
   -23.4602 -23.4602 -23.4592 -23.4592 -23.4362 -23.4362 -23.4166 -23.4166
    -4.2971  -4.2971  -4.2788  -4.2788  11.8832  11.8832  12.1181  12.1181
    12.3855  12.3855  12.4282  12.4282  12.7996  12.7996  12.8466  12.8466
    18.2471  18.2471  18.5920  18.5920  18.8287  18.8287  18.9112  18.9112
    19.0484  19.0484  19.3555  19.3555  19.4074  19.4074  19.7176  19.7176
    19.7424  19.7424  20.0516  20.0516  20.2117  20.2117  20.3568  20.3568
    20.3737  20.3737  20.5588  20.5588  20.6690  20.6690  21.0237  21.0237
    21.0324  21.0324  21.6031  21.6031  21.6915  21.6915  21.7778  21.7778
    25.5447  25.5447  25.6706  25.6706  27.7908  27.7908  28.4880  28.4880
    30.7795  30.7795  30.8077  30.8077  31.2710  31.2710  32.0695  32.0695
    32.8205  32.8205  33.4421  33.4421  33.7634  33.7634  34.2042  34.2042
    34.6374  34.6374  36.1406  36.1406  37.2098  37.2099  37.5326  37.5327
    38.4302  38.4303  39.7100  39.7101  40.3273  40.3273  40.7971  40.7972
    41.0481  41.0481

     the Fermi energy is    33.8033 ev

!    total energy              =   -2653.37539339 Ry
     Harris-Foulkes estimate   =   -2653.37539810 Ry
     estimated scf accuracy    <       0.00000550 Ry

     The total energy is the sum of the following terms:

     one-electron contribution =    -324.27747376 Ry
     hartree contribution      =     365.00171619 Ry
     xc contribution           =    -254.10603040 Ry
     ewald contribution        =   -2439.56228172 Ry
     smearing contrib. (-TS)   =      -0.43132370 Ry

     convergence has been achieved in  11 iterations

     Forces acting on atoms (Ry/au):

     atom    1 type  1   force =     0.00000000   -0.05424072   -0.00783964
     atom    2 type  1   force =     0.00000000    0.05424072    0.00783964
     atom    3 type  1   force =     0.00000000   -0.05424072    0.00783964
     atom    4 type  1   force =     0.00000000    0.05424072   -0.00783964
     atom    5 type  1   force =     0.00000000    0.06331302   -0.10474480
     atom    6 type  1   force =     0.00000000   -0.06331302    0.10474480
     atom    7 type  1   force =     0.00000000    0.06331302    0.10474480
     atom    8 type  1   force =     0.00000000   -0.06331302   -0.10474480
     atom    9 type  2   force =     0.00000000   -0.06012816    0.01191323
     atom   10 type  2   force =     0.00000000    0.06012816   -0.01191323
     atom   11 type  2   force =     0.00000000   -0.06012816   -0.01191323
     atom   12 type  2   force =     0.00000000    0.06012816    0.01191323

     Total force =     0.294896     Total SCF correction =     0.000000

     entering subroutine stress ...

          total   stress  (Ry/bohr**3)                   (kbar)     P= 1454.60
   0.01085517   0.00000000   0.00000000       1596.85      0.00      0.00
   0.00000000   0.00912787   0.00000000          0.00   1342.76      0.00
   0.00000000   0.00000000   0.00968147          0.00      0.00   1424.19

     Writing output data file Prototype-La-oP12-Co2Si.save

     General routines

     Parallel routines

   This run was terminated on:   1:49:42  23Mar2018

   JOB DONE.