     Program PWSCF v.5.0.2 starts on 22Mar2018 at 18:45:39

     Current dimensions of program PWSCF are:
     Max number of different atomic species (ntypx) = 10
     Max number of k-points (npk) =  40000
     Max angular momentum in pseudopotentials (lmaxx) =  3
     Waiting for input...
     Reading input from standard input

     Subspace diagonalization in iterative solution of the eigenvalue problem:
     a serial algorithm will be used

     bravais-lattice index     =            0
     lattice parameter (alat)  =       8.5346  a.u.
     unit-cell volume          =     621.6493 (a.u.)^3
     number of atoms/cell      =            8
     number of atomic types    =            2
     number of electrons       =       134.00
     number of Kohn-Sham states=           80
     kinetic-energy cutoff     =      40.0000  Ry
     charge density cutoff     =     160.0000  Ry
     convergence threshold     =      1.0E-04
     mixing beta               =       0.7000
     number of iterations used =            8  plain     mixing
     Exchange-correlation      = SLA-PZ-NOGX-NOGC ( 1 1 0 0 0)
     EXX-fraction              =        0.00
     nstep                     =           50

     celldm(1)=   8.534573  celldm(2)=   0.000000  celldm(3)=   0.000000
     celldm(4)=   0.000000  celldm(5)=   0.000000  celldm(6)=   0.000000

     crystal axes: (cart. coord. in units of alat)
               a(1) = (   1.000000   0.000000   0.000000 )
               a(2) = (   0.000000   1.000000   0.000000 )
               a(3) = (   0.000000   0.000000   1.000000 )

     reciprocal axes: (cart. coord. in units 2 pi/alat)
               b(1) = (  1.000000  0.000000  0.000000 )
               b(2) = (  0.000000  1.000000  0.000000 )
               b(3) = (  0.000000  0.000000  1.000000 )

     PseudoPot. # 1 for Sm read from file:
     /home/cwx6513/pp.La/Sm.UPF
     MD5 check sum: 5079e8b144a06bfcdbc14fb02b96ab09
     Pseudo is Norm-conserving, Zval = 16.0
     Generated in analytical, separable form
     Using radial grid of 1259 points,  6 beta functions with:
                l(1) =   0
                l(2) =   0
                l(3) =   1
                l(4) =   1
                l(5) =   2
                l(6) =   3

     PseudoPot. # 2 for Tb read from file:
     /home/cwx6513/pp.La/Tb.UPF
     MD5 check sum: 3d6088a3f0cf7fd2e110c43f7f8e95c2
     Pseudo is Norm-conserving, Zval = 19.0
     Generated in analytical, separable form
     Using radial grid of 1263 points,  6 beta functions with:
                l(1) =   0
                l(2) =   0
                l(3) =   1
                l(4) =   1
                l(5) =   2
                l(6) =   3

     atomic species   valence    mass     pseudopotential
        Cr            16.00    51.99610     Sm( 1.00)
        Si            19.00    28.08550     Tb( 1.00)

     48 Sym. Ops., with inversion, found (24 have fractional translation)

   Cartesian axes

     site n.     atom                  positions (alat units)
         1           Cr  tau(   1) = (   0.0000000   0.5000000   0.2500000  )
         2           Cr  tau(   2) = (   0.0000000   0.5000000   0.7500000  )
         3           Cr  tau(   3) = (   0.5000000   0.7500000   0.0000000  )
         4           Cr  tau(   4) = (   0.5000000   0.2500000   0.0000000  )
         5           Cr  tau(   5) = (   0.7500000   0.0000000   0.5000000  )
         6           Cr  tau(   6) = (   0.2500000   0.0000000   0.5000000  )
         7           Si  tau(   7) = (   0.5000000   0.5000000   0.5000000  )
         8           Si  tau(   8) = (   0.0000000   0.0000000   0.0000000  )

     number of k points=    48  gaussian smearing, width (Ry)=  0.1000
                       cart. coord. in units 2pi/alat
        k(    1) = (   0.0000000   0.0000000   0.0000000), wk =   0.0095238
        k(    2) = (   0.0000000   0.0000000   0.1428571), wk =   0.0190476
        k(    3) = (   0.0000000   0.0000000   0.2857143), wk =   0.0190476
        k(    4) = (   0.0000000   0.0000000   0.4285714), wk =   0.0190476
        k(    5) = (   0.0000000   0.1666667   0.0000000), wk =   0.0190476
        k(    6) = (   0.0000000   0.1666667   0.1428571), wk =   0.0380952
        k(    7) = (   0.0000000   0.1666667   0.2857143), wk =   0.0380952
        k(    8) = (   0.0000000   0.1666667   0.4285714), wk =   0.0380952
        k(    9) = (   0.0000000   0.3333333   0.0000000), wk =   0.0190476
        k(   10) = (   0.0000000   0.3333333   0.1428571), wk =   0.0380952
        k(   11) = (   0.0000000   0.3333333   0.2857143), wk =   0.0380952
        k(   12) = (   0.0000000   0.3333333   0.4285714), wk =   0.0380952
        k(   13) = (   0.0000000  -0.5000000   0.0000000), wk =   0.0095238
        k(   14) = (   0.0000000  -0.5000000   0.1428571), wk =   0.0190476
        k(   15) = (   0.0000000  -0.5000000   0.2857143), wk =   0.0190476
        k(   16) = (   0.0000000  -0.5000000   0.4285714), wk =   0.0190476
        k(   17) = (   0.2000000   0.0000000   0.0000000), wk =   0.0190476
        k(   18) = (   0.2000000   0.0000000   0.1428571), wk =   0.0380952
        k(   19) = (   0.2000000   0.0000000   0.2857143), wk =   0.0380952
        k(   20) = (   0.2000000   0.0000000   0.4285714), wk =   0.0380952
        k(   21) = (   0.2000000   0.1666667   0.0000000), wk =   0.0380952
        k(   22) = (   0.2000000   0.1666667   0.1428571), wk =   0.0761905
        k(   23) = (   0.2000000   0.1666667   0.2857143), wk =   0.0761905
        k(   24) = (   0.2000000   0.1666667   0.4285714), wk =   0.0761905
        k(   25) = (   0.2000000   0.3333333   0.0000000), wk =   0.0380952
        k(   26) = (   0.2000000   0.3333333   0.1428571), wk =   0.0761905
        k(   27) = (   0.2000000   0.3333333   0.2857143), wk =   0.0761905
        k(   28) = (   0.2000000   0.3333333   0.4285714), wk =   0.0761905
        k(   29) = (   0.2000000  -0.5000000   0.0000000), wk =   0.0190476
        k(   30) = (   0.2000000  -0.5000000   0.1428571), wk =   0.0380952
        k(   31) = (   0.2000000  -0.5000000   0.2857143), wk =   0.0380952
        k(   32) = (   0.2000000  -0.5000000   0.4285714), wk =   0.0380952
        k(   33) = (   0.4000000   0.0000000   0.0000000), wk =   0.0190476
        k(   34) = (   0.4000000   0.0000000   0.1428571), wk =   0.0380952
        k(   35) = (   0.4000000   0.0000000   0.2857143), wk =   0.0380952
        k(   36) = (   0.4000000   0.0000000   0.4285714), wk =   0.0380952
        k(   37) = (   0.4000000   0.1666667   0.0000000), wk =   0.0380952
        k(   38) = (   0.4000000   0.1666667   0.1428571), wk =   0.0761905
        k(   39) = (   0.4000000   0.1666667   0.2857143), wk =   0.0761905
        k(   40) = (   0.4000000   0.1666667   0.4285714), wk =   0.0761905
        k(   41) = (   0.4000000   0.3333333   0.0000000), wk =   0.0380952
        k(   42) = (   0.4000000   0.3333333   0.1428571), wk =   0.0761905
        k(   43) = (   0.4000000   0.3333333   0.2857143), wk =   0.0761905
        k(   44) = (   0.4000000   0.3333333   0.4285714), wk =   0.0761905
        k(   45) = (   0.4000000  -0.5000000   0.0000000), wk =   0.0190476
        k(   46) = (   0.4000000  -0.5000000   0.1428571), wk =   0.0380952
        k(   47) = (   0.4000000  -0.5000000   0.2857143), wk =   0.0380952
        k(   48) = (   0.4000000  -0.5000000   0.4285714), wk =   0.0380952

     Largest allocated arrays     est. size (Mb)     dimensions
     Largest temporary arrays     est. size (Mb)     dimensions

     Initial potential from superposition of free atoms

     Starting from uniform charge
     Starting wfc are    0 randomized atomic wfcs

     Self-consistent Calculation

     iteration #  1     ecut=    40.00 Ry     beta=0.70
     CG style diagonalization
     c_bands:  1 eigenvalues not converged
     c_bands:  4 eigenvalues not converged
     c_bands:  3 eigenvalues not converged
     c_bands:  4 eigenvalues not converged
     c_bands:  5 eigenvalues not converged
     c_bands:  4 eigenvalues not converged
     c_bands:  1 eigenvalues not converged
     c_bands:  1 eigenvalues not converged
     c_bands:  3 eigenvalues not converged
     c_bands:  5 eigenvalues not converged
     c_bands:  2 eigenvalues not converged
     c_bands:  5 eigenvalues not converged
     c_bands:  4 eigenvalues not converged
     c_bands:  5 eigenvalues not converged
     c_bands:  5 eigenvalues not converged
     c_bands:  4 eigenvalues not converged
     c_bands:  3 eigenvalues not converged
     ethr =  1.00E-02,  avg # of iterations = 13.0

     total energy              =   -1067.56299178 Ry
     Harris-Foulkes estimate   =   -1494.49639131 Ry
     estimated scf accuracy    <     529.04928117 Ry

[...]

     iteration #  4     ecut=    40.00 Ry     beta=0.70
     CG style diagonalization
     ethr =  1.00E-02,  avg # of iterations =  3.6

[...]

     End of self-consistent calculation

          k = 0.0000 0.0000 0.0000 (  2601 PWs)   bands (ev):

   -33.5015 -33.4977 -15.8100 -15.1170 -15.1170 -13.5331 -13.5331 -13.5331
    -2.4650  -2.4650  -2.4650  -2.3900  -2.3900  -2.3900   5.1100   5.1100
     5.9632   8.5246   8.5246   8.5246  10.1440  10.1440  10.1440  10.8031
    10.8031  10.8031  11.0605  11.0605  11.0605  13.8337  13.8337  13.8337
    31.9278  31.9278  32.7854  32.8116  32.8116  32.8116  33.7537  33.7537
    33.7537  34.4832  34.4832  34.7517  34.7756  34.7756  34.7756  34.8129
    35.9306  36.2558  36.2558  36.3340  36.3340  36.3340  40.7861  40.7861
    40.7861  41.1652  41.1652  42.3863  42.3863  42.3863  42.4110  42.4110
    42.4110  45.7188  45.7188  46.6076  46.6076  46.6076  48.2335  48.2335
    48.2335  49.2896  50.6385  50.6385  50.6385  51.2901  51.2901  51.2901

[...]

     the Fermi energy is    45.1080 ev

!    total energy              =   -1362.73259449 Ry
     Harris-Foulkes estimate   =   -1362.73260853 Ry
     estimated scf accuracy    <       0.00001659 Ry

     The total energy is the sum of the following terms:

     one-electron contribution =     225.29845123 Ry
     hartree contribution      =      83.81626758 Ry
     xc contribution           =    -151.19695633 Ry
     ewald contribution        =   -1520.34348464 Ry
     smearing contrib. (-TS)   =      -0.30687234 Ry

     convergence has been achieved in   9 iterations

     Forces acting on atoms (Ry/au):

     atom    1 type  1   force =     0.00000000    0.00000000    0.00000000
     atom    2 type  1   force =     0.00000000    0.00000000    0.00000000
     atom    3 type  1   force =     0.00000000    0.00000000    0.00000000
     atom    4 type  1   force =     0.00000000    0.00000000    0.00000000
     atom    5 type  1   force =     0.00000000    0.00000000    0.00000000
     atom    6 type  1   force =     0.00000000    0.00000000    0.00000000
     atom    7 type  2   force =     0.00000000    0.00000000    0.00000000
     atom    8 type  2   force =     0.00000000    0.00000000    0.00000000

     Total force =     0.000000     Total SCF correction =     0.000000

     entering subroutine stress ...

          total   stress  (Ry/bohr**3)                   (kbar)     P= 4814.28
[...]

[...]

     enthalpy old            =   -1362.7325944904 Ry
     enthalpy new            =   -1366.0614781931 Ry

     CASE: enthalpy_new < enthalpy_old

     small trust_radius: resetting bfgs history

     new trust radius        =       0.6680378601 bohr
     new conv_thr            =       0.0000010000 Ry

[...]

          total   stress  (Ry/bohr**3)                   (kbar)     P=-1036.06
  -0.00704303   0.00000000   0.00000000      -1036.06      0.00      0.00
   0.00000000  -0.00704303   0.00000000          0.00  -1036.06      0.00
   0.00000000   0.00000000  -0.00704303          0.00      0.00  -1036.06

     number of scf cycles    =   3
     number of bfgs steps    =   2

     enthalpy old            =   -1366.0614781931 Ry
     enthalpy new            =   -1365.1678958822 Ry

     CASE: enthalpy_new > enthalpy_old

     new trust radius        =       0.2116257800 bohr

     trust_radius < trust_radius_min

     resetting bfgs history

     Message from routine bfgs:
     history already reset at previous step: stopping
     new conv_thr            =       0.0000010000 Ry

     new unit-cell volume =   1049.56744 a.u.^3 (   155.52985 Ang^3 )

[...]

ATOMIC_POSITIONS (crystal)
Cr       0.000000000   0.500000000   0.250000000
Cr       0.000000000   0.500000000   0.750000000
Cr       0.500000000   0.750000000   0.000000000
Cr       0.500000000   0.250000000   0.000000000
Cr       0.750000000   0.000000000   0.500000000
Cr       0.250000000   0.000000000   0.500000000
Si       0.500000000   0.500000000   0.500000000
Si       0.000000000   0.000000000   0.000000000

     Writing output data file Prototype-La-cP8-Cr3Si.save
     NEW-OLD atomic charge density approx. for the potential
     NEW k-points:
        k(    1) = (   0.0000000   0.0000000   0.0000000), wk =   0.0095238
        k(    2) = (   0.0000000   0.0000000   0.1199721), wk =   0.0190476
        k(    3) = (   0.0000000   0.0000000   0.2399442), wk =   0.0190476
        k(    4) = (   0.0000000   0.0000000   0.3599163), wk =   0.0190476
        k(    5) = (   0.0000000   0.1399675   0.0000000), wk =   0.0190476
        k(    6) = (   0.0000000   0.1399675   0.1199721), wk =   0.0380952
        k(    7) = (   0.0000000   0.1399675   0.2399442), wk =   0.0380952
        k(    8) = (   0.0000000   0.1399675   0.3599163), wk =   0.0380952
        k(    9) = (   0.0000000   0.2799349   0.0000000), wk =   0.0190476
        k(   10) = (   0.0000000   0.2799349   0.1199721), wk =   0.0380952
        k(   11) = (   0.0000000   0.2799349   0.2399442), wk =   0.0380952
        k(   12) = (   0.0000000   0.2799349   0.3599163), wk =   0.0380952
        k(   13) = (   0.0000000  -0.4199024   0.0000000), wk =   0.0095238
        k(   14) = (   0.0000000  -0.4199024   0.1199721), wk =   0.0190476
        k(   15) = (   0.0000000  -0.4199024   0.2399442), wk =   0.0190476
        k(   16) = (   0.0000000  -0.4199024   0.3599163), wk =   0.0190476
        k(   17) = (   0.1679610   0.0000000   0.0000000), wk =   0.0190476
        k(   18) = (   0.1679610   0.0000000   0.1199721), wk =   0.0380952
        k(   19) = (   0.1679610   0.0000000   0.2399442), wk =   0.0380952
        k(   20) = (   0.1679610   0.0000000   0.3599163), wk =   0.0380952
        k(   21) = (   0.1679610   0.1399675   0.0000000), wk =   0.0380952
        k(   22) = (   0.1679610   0.1399675   0.1199721), wk =   0.0761905
        k(   23) = (   0.1679610   0.1399675   0.2399442), wk =   0.0761905
        k(   24) = (   0.1679610   0.1399675   0.3599163), wk =   0.0761905
        k(   25) = (   0.1679610   0.2799349   0.0000000), wk =   0.0380952
        k(   26) = (   0.1679610   0.2799349   0.1199721), wk =   0.0761905
        k(   27) = (   0.1679610   0.2799349   0.2399442), wk =   0.0761905
        k(   28) = (   0.1679610   0.2799349   0.3599163), wk =   0.0761905
        k(   29) = (   0.1679610  -0.4199024   0.0000000), wk =   0.0190476
        k(   30) = (   0.1679610  -0.4199024   0.1199721), wk =   0.0380952
        k(   31) = (   0.1679610  -0.4199024   0.2399442), wk =   0.0380952
        k(   32) = (   0.1679610  -0.4199024   0.3599163), wk =   0.0380952
        k(   33) = (   0.3359219   0.0000000   0.0000000), wk =   0.0190476
        k(   34) = (   0.3359219   0.0000000   0.1199721), wk =   0.0380952
        k(   35) = (   0.3359219   0.0000000   0.2399442), wk =   0.0380952
        k(   36) = (   0.3359219   0.0000000   0.3599163), wk =   0.0380952
        k(   37) = (   0.3359219   0.1399675   0.0000000), wk =   0.0380952
        k(   38) = (   0.3359219   0.1399675   0.1199721), wk =   0.0761905
        k(   39) = (   0.3359219   0.1399675   0.2399442), wk =   0.0761905
        k(   40) = (   0.3359219   0.1399675   0.3599163), wk =   0.0761905
        k(   41) = (   0.3359219   0.2799349   0.0000000), wk =   0.0380952
        k(   42) = (   0.3359219   0.2799349   0.1199721), wk =   0.0761905
        k(   43) = (   0.3359219   0.2799349   0.2399442), wk =   0.0761905
        k(   44) = (   0.3359219   0.2799349   0.3599163), wk =   0.0761905
        k(   45) = (   0.3359219  -0.4199024   0.0000000), wk =   0.0190476
        k(   46) = (   0.3359219  -0.4199024   0.1199721), wk =   0.0380952
        k(   47) = (   0.3359219  -0.4199024   0.2399442), wk =   0.0380952
        k(   48) = (   0.3359219  -0.4199024   0.3599163), wk =   0.0380952

[...]

     The maximum number of steps has been reached.

     End of BFGS Geometry Optimization
Begin final coordinates
     new unit-cell volume =   1049.56744 a.u.^3 (   155.52985 Ang^3 )

CELL_PARAMETERS (alat=  8.53457320)
   1.190752886   0.000000000   0.000000000
   0.000000000   1.190752886   0.000000000
   0.000000000   0.000000000   1.190752886

ATOMIC_POSITIONS (crystal)
Cr       0.000000000   0.500000000   0.250000000
Cr       0.000000000   0.500000000   0.750000000
Cr       0.500000000   0.750000000   0.000000000
Cr       0.500000000   0.250000000   0.000000000
Cr       0.750000000   0.000000000   0.500000000
Cr       0.250000000   0.000000000   0.500000000
Si       0.500000000   0.500000000   0.500000000
Si       0.000000000   0.000000000   0.000000000
End final coordinates

     A final scf calculation at the relaxed structure.
     The G-vectors are recalculated for the final unit cell
     Results may differ from those at the preceding step.

     bravais-lattice index     =            0
     lattice parameter (alat)  =       8.5346  a.u.
     unit-cell volume          =    1049.5674 (a.u.)^3
     number of atoms/cell      =            8
     number of atomic types    =            2
     number of electrons       =       134.00
     number of Kohn-Sham states=           80
     kinetic-energy cutoff     =      40.0000  Ry
     charge density cutoff     =     160.0000  Ry
     convergence threshold     =      1.0E-06
     mixing beta               =       0.7000
     number of iterations used =            8  plain     mixing
     Exchange-correlation      = SLA-PZ-NOGX-NOGC ( 1 1 0 0 0)
     EXX-fraction              =        0.00

     celldm(1)=   8.534573  celldm(2)=   0.000000  celldm(3)=   0.000000
     celldm(4)=   0.000000  celldm(5)=   0.000000  celldm(6)=   0.000000

     crystal axes: (cart. coord. in units of alat)
               a(1) = (   1.190753   0.000000   0.000000 )
               a(2) = (   0.000000   1.190753   0.000000 )
               a(3) = (   0.000000   0.000000   1.190753 )

     reciprocal axes: (cart. coord. in units 2 pi/alat)
               b(1) = (  0.839805  0.000000  0.000000 )
               b(2) = (  0.000000  0.839805  0.000000 )
               b(3) = (  0.000000  0.000000  0.839805 )

     PseudoPot. # 1 for Sm read from file:
     /home/cwx6513/pp.La/Sm.UPF
     MD5 check sum: 5079e8b144a06bfcdbc14fb02b96ab09
     Pseudo is Norm-conserving, Zval = 16.0
     Generated in analytical, separable form
     Using radial grid of 1259 points,  6 beta functions with:
                l(1) =   0
                l(2) =   0
                l(3) =   1
                l(4) =   1
                l(5) =   2
                l(6) =   3

     PseudoPot. # 2 for Tb read from file:
     /home/cwx6513/pp.La/Tb.UPF
     MD5 check sum: 3d6088a3f0cf7fd2e110c43f7f8e95c2
     Pseudo is Norm-conserving, Zval = 19.0
     Generated in analytical, separable form
     Using radial grid of 1263 points,  6 beta functions with:
                l(1) =   0
                l(2) =   0
                l(3) =   1
                l(4) =   1
                l(5) =   2
                l(6) =   3

     atomic species   valence    mass     pseudopotential
        Cr            16.00    51.99610     Sm( 1.00)
        Si            19.00    28.08550     Tb( 1.00)

     48 Sym. Ops., with inversion, found (24 have fractional translation)

   Cartesian axes

     site n.     atom                  positions (alat units)
         1           Cr  tau(   1) = (   0.0000000   0.5953764   0.2976882  )
         2           Cr  tau(   2) = (   0.0000000   0.5953764   0.8930647  )
         3           Cr  tau(   3) = (   0.5953764   0.8930647   0.0000000  )
         4           Cr  tau(   4) = (   0.5953764   0.2976882   0.0000000  )
         5           Cr  tau(   5) = (   0.8930647   0.0000000   0.5953764  )
         6           Cr  tau(   6) = (   0.2976882   0.0000000   0.5953764  )
         7           Si  tau(   7) = (   0.5953764   0.5953764   0.5953764  )
         8           Si  tau(   8) = (   0.0000000   0.0000000   0.0000000  )

     number of k points=    48  gaussian smearing, width (Ry)=  0.1000
                       cart. coord. in units 2pi/alat
        k(    1) = (   0.0000000   0.0000000   0.0000000), wk =   0.0095238
        k(    2) = (   0.0000000   0.0000000   0.1199721), wk =   0.0190476
        k(    3) = (   0.0000000   0.0000000   0.2399442), wk =   0.0190476
        k(    4) = (   0.0000000   0.0000000   0.3599163), wk =   0.0190476
        k(    5) = (   0.0000000   0.1399675   0.0000000), wk =   0.0190476
        k(    6) = (   0.0000000   0.1399675   0.1199721), wk =   0.0380952
        k(    7) = (   0.0000000   0.1399675   0.2399442), wk =   0.0380952
        k(    8) = (   0.0000000   0.1399675   0.3599163), wk =   0.0380952
        k(    9) = (   0.0000000   0.2799349   0.0000000), wk =   0.0190476
        k(   10) = (   0.0000000   0.2799349   0.1199721), wk =   0.0380952
        k(   11) = (   0.0000000   0.2799349   0.2399442), wk =   0.0380952
        k(   12) = (   0.0000000   0.2799349   0.3599163), wk =   0.0380952
        k(   13) = (   0.0000000  -0.4199024   0.0000000), wk =   0.0095238
        k(   14) = (   0.0000000  -0.4199024   0.1199721), wk =   0.0190476
        k(   15) = (   0.0000000  -0.4199024   0.2399442), wk =   0.0190476
        k(   16) = (   0.0000000  -0.4199024   0.3599163), wk =   0.0190476
        k(   17) = (   0.1679610   0.0000000   0.0000000), wk =   0.0190476
        k(   18) = (   0.1679610   0.0000000   0.1199721), wk =   0.0380952
        k(   19) = (   0.1679610   0.0000000   0.2399442), wk =   0.0380952
        k(   20) = (   0.1679610   0.0000000   0.3599163), wk =   0.0380952
        k(   21) = (   0.1679610   0.1399675   0.0000000), wk =   0.0380952
        k(   22) = (   0.1679610   0.1399675   0.1199721), wk =   0.0761905
        k(   23) = (   0.1679610   0.1399675   0.2399442), wk =   0.0761905
        k(   24) = (   0.1679610   0.1399675   0.3599163), wk =   0.0761905
        k(   25) = (   0.1679610   0.2799349   0.0000000), wk =   0.0380952
        k(   26) = (   0.1679610   0.2799349   0.1199721), wk =   0.0761905
        k(   27) = (   0.1679610   0.2799349   0.2399442), wk =   0.0761905
        k(   28) = (   0.1679610   0.2799349   0.3599163), wk =   0.0761905
        k(   29) = (   0.1679610  -0.4199024   0.0000000), wk =   0.0190476
        k(   30) = (   0.1679610  -0.4199024   0.1199721), wk =   0.0380952
        k(   31) = (   0.1679610  -0.4199024   0.2399442), wk =   0.0380952
        k(   32) = (   0.1679610  -0.4199024   0.3599163), wk =   0.0380952
        k(   33) = (   0.3359219   0.0000000   0.0000000), wk =   0.0190476
        k(   34) = (   0.3359219   0.0000000   0.1199721), wk =   0.0380952
        k(   35) = (   0.3359219   0.0000000   0.2399442), wk =   0.0380952
        k(   36) = (   0.3359219   0.0000000   0.3599163), wk =   0.0380952
        k(   37) = (   0.3359219   0.1399675   0.0000000), wk =   0.0380952
        k(   38) = (   0.3359219   0.1399675   0.1199721), wk =   0.0761905
        k(   39) = (   0.3359219   0.1399675   0.2399442), wk =   0.0761905
        k(   40) = (   0.3359219   0.1399675   0.3599163), wk =   0.0761905
        k(   41) = (   0.3359219   0.2799349   0.0000000), wk =   0.0380952
        k(   42) = (   0.3359219   0.2799349   0.1199721), wk =   0.0761905
        k(   43) = (   0.3359219   0.2799349   0.2399442), wk =   0.0761905
        k(   44) = (   0.3359219   0.2799349   0.3599163), wk =   0.0761905
        k(   45) = (   0.3359219  -0.4199024   0.0000000), wk =   0.0190476
        k(   46) = (   0.3359219  -0.4199024   0.1199721), wk =   0.0380952
        k(   47) = (   0.3359219  -0.4199024   0.2399442), wk =   0.0380952
        k(   48) = (   0.3359219  -0.4199024   0.3599163), wk =   0.0380952

     Largest allocated arrays     est. size (Mb)     dimensions
     Largest temporary arrays     est. size (Mb)     dimensions

     Initial potential from superposition of free atoms

     Starting from uniform charge
     Starting wfc are    0 randomized atomic wfcs

     Writing output data file Prototype-La-cP8-Cr3Si.save

     Self-consistent Calculation

[...]

     iteration # 11     ecut=    40.00 Ry     beta=0.70
     CG style diagonalization
     c_bands:  1 eigenvalues not converged
     ethr =  7.46E-08,  avg # of iterations =  3.6

     total energy              =   -1368.27762633 Ry
     Harris-Foulkes estimate   =   -1368.27762744 Ry
     estimated scf accuracy    <       0.00000263 Ry

     iteration # 12     ecut=    40.00 Ry     beta=0.70
     CG style diagonalization
     ethr =  1.96E-09,  avg # of iterations =  4.1

     End of self-consistent calculation

[...]

          k = 0.3359-0.4199 0.3599 (  4506 PWs)   bands (ev):

   -50.7739 -50.7738 -33.1958 -33.1828 -33.1454 -33.1452 -33.1088 -33.0953
   -19.1200 -19.1199 -19.1180 -19.1179 -19.1151 -19.1151  -8.9514  -8.8581
    -8.6199  -8.6169  -8.4751  -8.4732  -8.3957  -8.3321  -8.2201  -8.1966
    -8.1634  -8.1444  -8.1013  -8.0981  -8.0684  -8.0660  -8.0518  -8.0512
    17.3785  17.3978  17.4897  17.5261  17.5910  17.5978  17.6986  17.7091
    17.7514  17.7600  19.0922  19.0928  20.0787  20.0940  20.4766  20.4796
    20.5579  20.5671  20.8578  21.0704  21.3915  21.3981  21.8136  21.8691
    21.9571  22.0460  22.5803  22.6303  23.0838  23.2394  23.3694  23.4175
    23.5660  23.6981  24.0627  24.1782  24.3357  24.4008  24.5215  24.5980
    25.2700  25.3093  26.0672  26.2849  26.4970  26.8345  27.5029  27.6131

     the Fermi energy is    24.4571 ev

!    total energy              =   -1368.27762712 Ry
     Harris-Foulkes estimate   =   -1368.27762734 Ry
     estimated scf accuracy    <       0.00000025 Ry

     The total energy is the sum of the following terms:

     one-electron contribution =    -105.64631347 Ry
     hartree contribution      =     157.15625580 Ry
     xc contribution           =    -142.44393436 Ry
     ewald contribution        =   -1276.79176957 Ry
     smearing contrib. (-TS)   =      -0.55186553 Ry

     convergence has been achieved in  12 iterations

     Forces acting on atoms (Ry/au):

     atom    1 type  1   force =     0.00000000    0.00000000    0.00000000
     atom    2 type  1   force =     0.00000000    0.00000000    0.00000000
     atom    3 type  1   force =     0.00000000    0.00000000    0.00000000
     atom    4 type  1   force =     0.00000000    0.00000000    0.00000000
     atom    5 type  1   force =     0.00000000    0.00000000    0.00000000
     atom    6 type  1   force =     0.00000000    0.00000000    0.00000000
     atom    7 type  2   force =     0.00000000    0.00000000    0.00000000
     atom    8 type  2   force =     0.00000000    0.00000000    0.00000000

     Total force =     0.000000     Total SCF correction =     0.000000

     entering subroutine stress ...

          total   stress  (Ry/bohr**3)                   (kbar)     P=  -44.45
  -0.00030214   0.00000000   0.00000000        -44.45      0.00      0.00
   0.00000000  -0.00030214   0.00000000          0.00    -44.45      0.00
   0.00000000   0.00000000  -0.00030214          0.00      0.00    -44.45

     Writing output data file Prototype-La-cP8-Cr3Si.save

     General routines

     Parallel routines

   This run was terminated on:  19: 7:17  22Mar2018

   JOB DONE.