     Program PWSCF v.5.0.2 starts on 22Mar2018 at 21:34: 5

     Current dimensions of program PWSCF are:
     Max number of different atomic species (ntypx) = 10
     Max number of k-points (npk) =  40000
     Max angular momentum in pseudopotentials (lmaxx) =  3
     Waiting for input...
     Reading input from standard input

     Subspace diagonalization in iterative solution of the eigenvalue problem:
     a serial algorithm will be used

     bravais-lattice index     =            0
     lattice parameter (alat)  =       9.9235  a.u.
     unit-cell volume          =    1361.0366 (a.u.)^3
     number of atoms/cell      =           12
     number of atomic types    =            2
     number of electrons       =       260.00
     number of Kohn-Sham states=          156
     kinetic-energy cutoff     =      40.0000  Ry
     charge density cutoff     =     160.0000  Ry
     convergence threshold     =      1.0E-04
     mixing beta               =       0.7000
     number of iterations used =            8  plain     mixing
     Exchange-correlation      = SLA-PZ-NOGX-NOGC ( 1 1 0 0 0)
     EXX-fraction              =        0.00
     nstep                     =           50

     celldm(1)=   9.923489  celldm(2)=   0.000000  celldm(3)=   0.000000
     celldm(4)=   0.000000  celldm(5)=   0.000000  celldm(6)=   0.000000

     crystal axes: (cart. coord. in units of alat)
               a(1) = (   1.000000   0.000000   0.000000 )
               a(2) = (  -0.500000   0.866025   0.000000 )
               a(3) = (   0.000000   0.000000   1.608222 )

     reciprocal axes: (cart. coord. in units 2 pi/alat)
               b(1) = (  1.000000  0.577350  0.000000 )
               b(2) = (  0.000000  1.154701  0.000000 )
               b(3) = (  0.000000  0.000000  0.621805 )

     PseudoPot. # 1 for Tm read from file:
     /home/cwx6513/pp.La/Tm.UPF
     MD5 check sum: 245516e0878b5372ceeb9443ded2c4e1
     Pseudo is Norm-conserving, Zval = 23.0
     Generated in analytical, separable form
     Using radial grid of 1269 points,  6 beta functions with:
                l(1) =   0
                l(2) =   0
                l(3) =   1
                l(4) =   1
                l(5) =   2
                l(6) =   3

     PseudoPot. # 2 for Ho read from file:
     /home/cwx6513/pp.La/Ho.UPF
     MD5 check sum: f307ee11bce99f5b724fa279e3790763
     Pseudo is Norm-conserving, Zval = 21.0
     Generated in analytical, separable form
     Using radial grid of 1265 points,  6 beta functions with:
                l(1) =   0
                l(2) =   0
                l(3) =   1
                l(4) =   1
                l(5) =   2
                l(6) =   3

     atomic species   valence    mass     pseudopotential
        Mg            23.00    24.30500     Tm( 1.00)
        Zn            21.00    65.39000     Ho( 1.00)

     24 Sym. Ops., with inversion, found (12 have fractional translation)

   Cartesian axes

     site n.     atom                  positions (alat units)
         1           Mg  tau(   1) = (  -0.0000005   0.5773506   0.1003820  )
         2           Mg  tau(   2) = (   0.5000005   0.2886748   0.9044931  )
         3           Mg  tau(   3) = (   0.5000005   0.2886748   1.5078402  )
         4           Mg  tau(   4) = (  -0.0000005   0.5773506   0.7037291  )
         5           Zn  tau(   5) = (   0.0000000   0.0000000   0.0000000  )
         6           Zn  tau(   6) = (   0.0000000   0.0000000   0.8041111  )
         7           Zn  tau(   7) = (   0.0000000   0.2950739   1.2061667  )
         8           Zn  tau(   8) = (   0.7444585   0.1475370   0.4020556  )
         9           Zn  tau(   9) = (   0.2555415   0.1475370   0.4020556  )
        10           Zn  tau(  10) = (   0.2444585   0.7184884   1.2061667  )
        11           Zn  tau(  11) = (  -0.2444585   0.7184884   1.2061667  )
        12           Zn  tau(  12) = (   0.5000000   0.5709515   0.4020556  )

     number of k points=    12  gaussian smearing, width (Ry)=  0.1000
                       cart. coord. in units 2pi/alat
        k(    1) = (   0.0000000   0.0000000   0.0000000), wk =   0.0833333
        k(    2) = (   0.0000000   0.0000000   0.1554512), wk =   0.1666667
        k(    3) = (   0.0000000   0.0000000  -0.3109023), wk =   0.0833333
        k(    4) = (   0.0000000   0.3849002   0.0000000), wk =   0.1666667
        k(    5) = (   0.0000000   0.3849002   0.1554512), wk =   0.3333333
        k(    6) = (   0.0000000   0.3849002  -0.3109023), wk =   0.1666667
        k(    7) = (  -0.5000000  -0.2886751   0.0000000), wk =   0.0833333
        k(    8) = (  -0.5000000  -0.2886751   0.1554512), wk =   0.1666667
        k(    9) = (  -0.5000000  -0.2886751  -0.3109023), wk =   0.0833333
        k(   10) = (  -0.5000000   0.0962250   0.0000000), wk =   0.1666667
        k(   11) = (  -0.5000000   0.0962250   0.1554512), wk =   0.3333333
        k(   12) = (  -0.5000000   0.0962250  -0.3109023), wk =   0.1666667

     Largest allocated arrays     est. size (Mb)     dimensions
     Largest temporary arrays     est. size (Mb)     dimensions

     Initial potential from superposition of free atoms

     Starting from uniform charge
     Starting wfc are    0 randomized atomic wfcs

     Self-consistent Calculation

     iteration #  1     ecut=    40.00 Ry     beta=0.70
     CG style diagonalization
     ethr =  1.00E-02,  avg # of iterations = 17.5

     total energy              =   -3431.10651785 Ry
     Harris-Foulkes estimate   =   -4664.78544974 Ry
     estimated scf accuracy    <    1559.68499568 Ry

     iteration #  2     ecut=    40.00 Ry     beta=0.70
     CG style diagonalization
     c_bands:  2 eigenvalues not converged
     c_bands:  1 eigenvalues not converged
     c_bands:  1 eigenvalues not converged
     ethr =  1.00E-02,  avg # of iterations =  8.9

[...]

     End of self-consistent calculation

          k = 0.0000 0.0000 0.0000 (  5769 PWs)   bands (ev):

   -76.5473 -76.5330 -76.5270 -76.4854 -58.8718 -58.8213 -58.8211 -58.7297
   -58.7153 -58.7153 -58.7067 -58.7067 -35.2776 -35.2614 -35.2603 -35.2602
   -35.2401 -35.2401 -35.2363 -35.2165 -35.2165 -35.2115 -35.2076 -35.2076
   -24.1636 -23.9542 -23.6756 -23.3399 -23.3399 -23.2911 -23.2911 -23.2298
   -23.2297 -23.2011 -23.0547 -22.9528 -22.9527 -22.9361 -22.9360 -22.7226
   -22.7154 -22.7154 -22.6688 -22.6687 -22.6639 -22.6639 -22.6341 -22.6183
    13.2573  13.2573  13.2733  13.2974  13.2974  13.3057  13.4103  13.4103
    13.4447  13.4447  13.6617  13.6617  13.6715  13.7323  13.7554  13.7554
    13.7907  13.7907  13.8239  13.8239  15.4968  16.1444  16.4977  17.6191
    17.6191  17.6656  17.8079  17.8079  17.9244  17.9244  18.0067  18.5598
    18.5599  18.7626  18.9903  19.5665  19.5665  19.7405  19.7405  20.2582
    20.3475  20.4815  20.4815  21.1972  21.1972  21.6368  21.6942  21.7240
    21.7604  21.7604  21.7956  21.8586  21.8587  22.0022  22.0023  22.0990
    22.0991  23.0921  23.0921  23.5190  23.5190  24.2995  24.3009  27.0398
    27.2736  27.6246  28.6596  28.6598  28.9819  29.1635  29.1636  29.5027
    30.7159  30.9282  30.9284  31.4376  32.2262  32.2264  32.3723  32.5880
    32.5881  34.4283  34.4284  36.3642  36.5829  36.7173  37.2242  37.2243
    37.5106  37.5107  38.2461  38.2463  38.4369  38.5796  38.5797  38.6808
    38.8982  38.8982  39.2251  40.6414  40.9117  40.9117  41.0559  41.1688
    42.1712  42.3519  42.3520  43.6880

[...]

          k =-0.5000-0.2887 0.0000 (  5800 PWs)   bands (ev):

[...]

     the Fermi energy is    35.7496 ev

!    total energy              =   -3813.29322596 Ry
     Harris-Foulkes estimate   =   -3813.29324101 Ry
     estimated scf accuracy    <       0.00001674 Ry

     The total energy is the sum of the following terms:

     one-electron contribution =    -709.84096561 Ry
     hartree contribution      =     570.41681012 Ry
     xc contribution           =    -331.73052766 Ry
     ewald contribution        =   -3341.73217720 Ry
     smearing contrib. (-TS)   =      -0.40636561 Ry

     convergence has been achieved in  10 iterations

     Forces acting on atoms (Ry/au):

     atom    1 type  1   force =     0.00000000    0.00000000    0.03589681
     atom    2 type  1   force =     0.00000000    0.00000000    0.03589681
     atom    3 type  1   force =     0.00000000    0.00000000   -0.03589681
     atom    4 type  1   force =     0.00000000    0.00000000   -0.03589681
     atom    5 type  2   force =     0.00000000    0.00000000    0.00000000
     atom    6 type  2   force =     0.00000000    0.00000000    0.00000000
     atom    7 type  2   force =     0.00000000    0.06810176    0.00000000
     atom    8 type  2   force =    -0.05897786    0.03405088    0.00000000
     atom    9 type  2   force =     0.05897786    0.03405088    0.00000000
     atom   10 type  2   force =    -0.05897786   -0.03405088    0.00000000
     atom   11 type  2   force =     0.05897786   -0.03405088    0.00000000
     atom   12 type  2   force =     0.00000000   -0.06810176    0.00000000

     Total force =     0.181608     Total SCF correction =     0.000000

     entering subroutine stress ...

          total   stress  (Ry/bohr**3)                   (kbar)     P= 1141.19
   0.00779014   0.00000000   0.00000000       1145.97      0.00      0.00
   0.00000000   0.00779014   0.00000000          0.00   1145.97      0.00
   0.00000000   0.00000000   0.00769271          0.00      0.00   1131.64

     BFGS Geometry Optimization

     number of scf cycles    =   1
     number of bfgs steps    =   0

     enthalpy new            =   -3813.2932259577 Ry

     new trust radius        =       0.5000000000 bohr
     new conv_thr            =       0.0001000000 Ry

     new unit-cell volume =   1655.58673 a.u.^3 (   245.33264 Ang^3 )

CELL_PARAMETERS (alat=  9.92348860)
   1.067764947   0.000000000   0.000000000
  -0.533882474   0.924711570   0.000000000
   0.000000000   0.000000000   1.715840283

ATOMIC_POSITIONS (crystal)
Mg       0.333333000   0.666667000   0.063200646
Mg       0.666667000   0.333333000   0.563200646
Mg       0.666667000   0.333333000   0.936799354
Mg       0.333333000   0.666667000   0.436799354
Zn       0.000000000   0.000000000   0.000000000
Zn       0.000000000   0.000000000   0.500000000
Zn       0.171739647   0.343479294   0.750000000
Zn       0.828260353   0.171739647   0.250000000
Zn       0.343479294   0.171739647   0.250000000
Zn       0.656520706   0.828260353   0.750000000
Zn       0.171739647   0.828260353   0.750000000
Zn       0.828260353   0.656520706   0.250000000

     Writing output data file Prototype-La-hP12-MgZn2.save
     NEW-OLD atomic charge density approx. for the potential
     NEW k-points:
        k(    1) = (   0.0000000   0.0000000   0.0000000), wk =   0.0833333
        k(    2) = (   0.0000000   0.0000000   0.1457012), wk =   0.1666667
        k(    3) = (   0.0000000   0.0000000  -0.2914024), wk =   0.0833333
        k(    4) = (   0.0000000   0.3604728   0.0000000), wk =   0.1666667
        k(    5) = (   0.0000000   0.3604728   0.1457012), wk =   0.3333333
        k(    6) = (   0.0000000   0.3604728  -0.2914024), wk =   0.1666667
        k(    7) = (  -0.4682679  -0.2703546   0.0000000), wk =   0.0833333
        k(    8) = (  -0.4682679  -0.2703546   0.1457012), wk =   0.1666667
        k(    9) = (  -0.4682679  -0.2703546  -0.2914024), wk =   0.0833333
        k(   10) = (  -0.4682679   0.0901182   0.0000000), wk =   0.1666667
        k(   11) = (  -0.4682679   0.0901182   0.1457012), wk =   0.3333333
        k(   12) = (  -0.4682679   0.0901182  -0.2914024), wk =   0.1666667

[...]

     enthalpy old            =   -3813.2932259577 Ry
     enthalpy new            =   -3813.9203538560 Ry

     CASE: enthalpy_new < enthalpy_old

     small trust_radius: resetting bfgs history

     new trust radius        =       0.4947653262 bohr
     new conv_thr            =       0.0000234432 Ry

[...]

     number of scf cycles    =   3
     number of bfgs steps    =   2

     enthalpy old            =   -3813.9203538560 Ry
     enthalpy new            =   -3813.4156554966 Ry

     CASE: enthalpy_new > enthalpy_old

     new trust radius        =       0.1404965552 bohr

     trust_radius < trust_radius_min

     resetting bfgs history

     Message from routine bfgs:
     history already reset at previous step: stopping
     new conv_thr            =       0.0000234432 Ry

     new unit-cell volume =   1364.93219 a.u.^3 (   202.26208 Ang^3 )

[...]

ATOMIC_POSITIONS (crystal)
Mg       0.333333000   0.666667000   0.064731895
Mg       0.666667000   0.333333000   0.564731895
Mg       0.666667000   0.333333000   0.935268105
Mg       0.333333000   0.666667000   0.435268105
Zn       0.000000000   0.000000000   0.000000000
Zn       0.000000000   0.000000000   0.500000000
Zn       0.172194451   0.344388901   0.750000000
Zn       0.827805549   0.172194451   0.250000000
Zn       0.344388901   0.172194451   0.250000000
Zn       0.655611099   0.827805549   0.750000000
Zn       0.172194451   0.827805549   0.750000000
Zn       0.827805549   0.655611099   0.250000000

     Writing output data file Prototype-La-hP12-MgZn2.save
     NEW-OLD atomic charge density approx. for the potential
     NEW k-points:
        k(    1) = (   0.0000000   0.0000000   0.0000000), wk =   0.0833333
        k(    2) = (   0.0000000   0.0000000   0.1555460), wk =   0.1666667
        k(    3) = (   0.0000000   0.0000000  -0.3110920), wk =   0.0833333
        k(    4) = (   0.0000000   0.3842334   0.0000000), wk =   0.1666667
        k(    5) = (   0.0000000   0.3842334   0.1555460), wk =   0.3333333
        k(    6) = (   0.0000000   0.3842334  -0.3110920), wk =   0.1666667
        k(    7) = (  -0.4991338  -0.2881750   0.0000000), wk =   0.0833333
        k(    8) = (  -0.4991338  -0.2881750   0.1555460), wk =   0.1666667
        k(    9) = (  -0.4991338  -0.2881750  -0.3110920), wk =   0.0833333
        k(   10) = (  -0.4991338   0.0960583   0.0000000), wk =   0.1666667
        k(   11) = (  -0.4991338   0.0960583   0.1555460), wk =   0.3333333
        k(   12) = (  -0.4991338   0.0960583  -0.3110920), wk =   0.1666667

[...]

     The maximum number of steps has been reached.

     End of BFGS Geometry Optimization
Begin final coordinates
     new unit-cell volume =   1364.93219 a.u.^3 (   202.26208 Ang^3 )

CELL_PARAMETERS (alat=  9.92348860)
   1.001735462   0.000000000   0.000000000
  -0.500867731   0.867528358   0.000000000
   0.000000000   0.000000000   1.607241819

ATOMIC_POSITIONS (crystal)
Mg       0.333333000   0.666667000   0.064731895
Mg       0.666667000   0.333333000   0.564731895
Mg       0.666667000   0.333333000   0.935268105
Mg       0.333333000   0.666667000   0.435268105
Zn       0.000000000   0.000000000   0.000000000
Zn       0.000000000   0.000000000   0.500000000
Zn       0.172194451   0.344388901   0.750000000
Zn       0.827805549   0.172194451   0.250000000
Zn       0.344388901   0.172194451   0.250000000
Zn       0.655611099   0.827805549   0.750000000
Zn       0.172194451   0.827805549   0.750000000
Zn       0.827805549   0.655611099   0.250000000
End final coordinates

     A final scf calculation at the relaxed structure.
     The G-vectors are recalculated for the final unit cell
     Results may differ from those at the preceding step.

     bravais-lattice index     =            0
     lattice parameter (alat)  =       9.9235  a.u.
     unit-cell volume          =    1364.9322 (a.u.)^3
     number of atoms/cell      =           12
     number of atomic types    =            2
     number of electrons       =       260.00
     number of Kohn-Sham states=          156
     kinetic-energy cutoff     =      40.0000  Ry
     charge density cutoff     =     160.0000  Ry
     convergence threshold     =      2.3E-05
     mixing beta               =       0.7000
     number of iterations used =            8  plain     mixing
     Exchange-correlation      = SLA-PZ-NOGX-NOGC ( 1 1 0 0 0)
     EXX-fraction              =        0.00

     celldm(1)=   9.923489  celldm(2)=   0.000000  celldm(3)=   0.000000
     celldm(4)=   0.000000  celldm(5)=   0.000000  celldm(6)=   0.000000

     crystal axes: (cart. coord. in units of alat)
               a(1) = (   1.001735   0.000000   0.000000 )
               a(2) = (  -0.500868   0.867528   0.000000 )
               a(3) = (   0.000000   0.000000   1.607242 )

     reciprocal axes: (cart. coord. in units 2 pi/alat)
               b(1) = (  0.998268  0.576350  0.000000 )
               b(2) = (  0.000000  1.152700  0.000000 )
               b(3) = (  0.000000  0.000000  0.622184 )

     PseudoPot. # 1 for Tm read from file:
     /home/cwx6513/pp.La/Tm.UPF
     MD5 check sum: 245516e0878b5372ceeb9443ded2c4e1
     Pseudo is Norm-conserving, Zval = 23.0
     Generated in analytical, separable form
     Using radial grid of 1269 points,  6 beta functions with:
                l(1) =   0
                l(2) =   0
                l(3) =   1
                l(4) =   1
                l(5) =   2
                l(6) =   3

     PseudoPot. # 2 for Ho read from file:
     /home/cwx6513/pp.La/Ho.UPF
     MD5 check sum: f307ee11bce99f5b724fa279e3790763
     Pseudo is Norm-conserving, Zval = 21.0
     Generated in analytical, separable form
     Using radial grid of 1265 points,  6 beta functions with:
                l(1) =   0
                l(2) =   0
                l(3) =   1
                l(4) =   1
                l(5) =   2
                l(6) =   3

     atomic species   valence    mass     pseudopotential
        Mg            23.00    24.30500     Tm( 1.00)
        Zn            21.00    65.39000     Ho( 1.00)

     24 Sym. Ops., with inversion, found (12 have fractional translation)

   Cartesian axes

     site n.     atom                  positions (alat units)
         1           Mg  tau(   1) = (  -0.0000005   0.5783525   0.1040398  )
         2           Mg  tau(   2) = (   0.5008682   0.2891758   0.9076607  )
         3           Mg  tau(   3) = (   0.5008682   0.2891758   1.5032020  )
         4           Mg  tau(   4) = (  -0.0000005   0.5783525   0.6995811  )
         5           Zn  tau(   5) = (   0.0000000   0.0000000   0.0000000  )
         6           Zn  tau(   6) = (   0.0000000   0.0000000   0.8036209  )
         7           Zn  tau(   7) = (   0.0000000   0.2987671   1.2054314  )
         8           Zn  tau(   8) = (   0.7429955   0.1493836   0.4018105  )
         9           Zn  tau(   9) = (   0.2587399   0.1493836   0.4018105  )
        10           Zn  tau(  10) = (   0.2421278   0.7181448   1.2054314  )
        11           Zn  tau(  11) = (  -0.2421278   0.7181448   1.2054314  )
        12           Zn  tau(  12) = (   0.5008677   0.5687612   0.4018105  )

     number of k points=    12  gaussian smearing, width (Ry)=  0.1000
                       cart. coord. in units 2pi/alat
        k(    1) = (   0.0000000   0.0000000   0.0000000), wk =   0.0833333
        k(    2) = (   0.0000000   0.0000000   0.1555460), wk =   0.1666667
        k(    3) = (   0.0000000   0.0000000  -0.3110920), wk =   0.0833333
        k(    4) = (   0.0000000   0.3842334   0.0000000), wk =   0.1666667
        k(    5) = (   0.0000000   0.3842334   0.1555460), wk =   0.3333333
        k(    6) = (   0.0000000   0.3842334  -0.3110920), wk =   0.1666667
        k(    7) = (  -0.4991338  -0.2881750   0.0000000), wk =   0.0833333
        k(    8) = (  -0.4991338  -0.2881750   0.1555460), wk =   0.1666667
        k(    9) = (  -0.4991338  -0.2881750  -0.3110920), wk =   0.0833333
        k(   10) = (  -0.4991338   0.0960583   0.0000000), wk =   0.1666667
        k(   11) = (  -0.4991338   0.0960583   0.1555460), wk =   0.3333333
        k(   12) = (  -0.4991338   0.0960583  -0.3110920), wk =   0.1666667

     Largest allocated arrays     est. size (Mb)     dimensions
     Largest temporary arrays     est. size (Mb)     dimensions

     Initial potential from superposition of free atoms

     Starting from uniform charge
     Starting wfc are    0 randomized atomic wfcs

     Writing output data file Prototype-La-hP12-MgZn2.save

     Self-consistent Calculation

[...]

     iteration #  8     ecut=    40.00 Ry     beta=0.70
     CG style diagonalization
     c_bands:  1 eigenvalues not converged
     c_bands:  1 eigenvalues not converged
     c_bands:  1 eigenvalues not converged
     c_bands:  1 eigenvalues not converged
     c_bands:  1 eigenvalues not converged
     ethr =  1.26E-05,  avg # of iterations =  4.1

[...]

     total energy              =   -3813.36482556 Ry
     Harris-Foulkes estimate   =   -3813.36483900 Ry
     estimated scf accuracy    <       0.00002601 Ry

     iteration # 12     ecut=    40.00 Ry     beta=0.70
     CG style diagonalization
     ethr =  1.00E-08,  avg # of iterations =  3.6

     End of self-consistent calculation

[...]

          k = 0.0000 0.3842-0.3111 (  5828 PWs)   bands (ev):

[...]

          k =-0.4991 0.0961-0.3111 (  5836 PWs)   bands (ev):

   -76.6692 -76.6691 -76.6527 -76.6526 -58.9179 -58.9179 -58.8815 -58.8815
   -58.8254 -58.8254 -58.8196 -58.8196 -35.3916 -35.3915 -35.3764 -35.3764
   -35.3686 -35.3686 -35.3586 -35.3585 -35.3436 -35.3436 -35.3360 -35.3359
   -23.8971 -23.8971 -23.6537 -23.6537 -23.3578 -23.3578 -23.2868 -23.2868
   -23.2280 -23.2280 -23.1872 -23.1872 -23.0624 -23.0624 -22.9611 -22.9611
   -22.8820 -22.8820 -22.8381 -22.8381 -22.8293 -22.8293 -22.8056 -22.8056
    13.1120  13.1121  13.1483  13.1483  13.1991  13.1991  13.3024  13.3025
    13.3482  13.3483  13.4830  13.4830  13.5294  13.5294  13.5920  13.5921
    13.7143  13.7144  13.7637  13.7637  16.8720  16.8720  17.6889  17.6889
    18.0345  18.0345  18.3209  18.3209  18.4709  18.4709  18.7338  18.7338
    19.2682  19.2683  19.4372  19.4372  19.6005  19.6005  19.8344  19.8344
    20.1399  20.1399  20.5413  20.5413  20.6689  20.6689  20.9416  20.9416
    21.1725  21.1725  21.3555  21.3555  21.6495  21.6495  21.8138  21.8138
    21.9114  21.9114  22.1026  22.1026  23.0624  23.0624  23.1552  23.1552
    24.8844  24.8844  27.4270  27.4270  28.7655  28.7656  29.5630  29.5630
    30.5678  30.5678  32.3294  32.3295  34.4028  34.4028  35.1820  35.1820
    35.8174  35.8175  36.5257  36.5257  36.9732  36.9732  37.6464  37.6464
    38.1799  38.1799  38.3686  38.3686  38.6659  38.6659  39.3683  39.3683
    39.7812  39.7813  40.4239  40.4240  40.9081  40.9081  41.4456  41.4457
    42.0762  42.0762  42.2044  42.2045

     the Fermi energy is    35.6311 ev

!    total energy              =   -3813.36482943 Ry
     Harris-Foulkes estimate   =   -3813.36483103 Ry
     estimated scf accuracy    <       0.00000184 Ry

     The total energy is the sum of the following terms:

     one-electron contribution =    -712.57268298 Ry
     hartree contribution      =     570.88470029 Ry
     xc contribution           =    -331.66935514 Ry
     ewald contribution        =   -3339.60240174 Ry
     smearing contrib. (-TS)   =      -0.40508987 Ry

     convergence has been achieved in  12 iterations

     Forces acting on atoms (Ry/au):

     atom    1 type  1   force =     0.00000000    0.00000000    0.00940634
     atom    2 type  1   force =     0.00000000    0.00000000    0.00940634
     atom    3 type  1   force =     0.00000000    0.00000000   -0.00940634
     atom    4 type  1   force =     0.00000000    0.00000000   -0.00940634
     atom    5 type  2   force =     0.00000000    0.00000000    0.00000000
     atom    6 type  2   force =     0.00000000    0.00000000    0.00000000
     atom    7 type  2   force =     0.00000000   -0.00079934    0.00000000
     atom    8 type  2   force =     0.00069225   -0.00039967    0.00000000
     atom    9 type  2   force =    -0.00069225   -0.00039967    0.00000000
     atom   10 type  2   force =     0.00069225    0.00039967    0.00000000
     atom   11 type  2   force =    -0.00069225    0.00039967    0.00000000
     atom   12 type  2   force =     0.00000000    0.00079934    0.00000000

     Total force =     0.018914     Total SCF correction =     0.000000

     entering subroutine stress ...

          total   stress  (Ry/bohr**3)                   (kbar)     P= 1124.32
   0.00775638   0.00000000   0.00000000       1141.00      0.00      0.00
   0.00000000   0.00775638   0.00000000          0.00   1141.00      0.00
   0.00000000   0.00000000   0.00741608          0.00      0.00   1090.94

     Writing output data file Prototype-La-hP12-MgZn2.save

     General routines

     Parallel routines

   This run was terminated on:  22: 3: 9  22Mar2018

   JOB DONE.