     Program PWSCF v.5.0.2 starts on 22Mar2018 at 21:34: 5

     Current dimensions of program PWSCF are:
     Max number of different atomic species (ntypx) = 10
     Max number of k-points (npk) =  40000
     Max angular momentum in pseudopotentials (lmaxx) =  3
     Waiting for input...
     Reading input from standard input

     Subspace diagonalization in iterative solution of the eigenvalue problem:
     a serial algorithm will be used

     bravais-lattice index     =            0
     lattice parameter (alat)  =       7.0151  a.u.
     unit-cell volume          =     862.2778 (a.u.)^3
     number of atoms/cell      =           12
     number of atomic types    =            2
     number of electrons       =       268.00
     number of Kohn-Sham states=          161
     kinetic-energy cutoff     =      40.0000  Ry
     charge density cutoff     =     160.0000  Ry
     convergence threshold     =      1.0E-04
     mixing beta               =       0.7000
     number of iterations used =            8  plain     mixing
     Exchange-correlation      = SLA-PZ-NOGX-NOGC ( 1 1 0 0 0)
     EXX-fraction              =        0.00
     nstep                     =           50

     celldm(1)=   7.015105  celldm(2)=   0.000000  celldm(3)=   0.000000
     celldm(4)=   0.000000  celldm(5)=   0.000000  celldm(6)=   0.000000

     crystal axes: (cart. coord. in units of alat)
               a(1) = (   1.000000   0.000000   0.000000 )
               a(2) = (   0.000000   1.315963   0.000000 )
               a(3) = (   0.000000   0.000000   1.898020 )

     reciprocal axes: (cart. coord. in units 2 pi/alat)
               b(1) = (  1.000000  0.000000  0.000000 )
               b(2) = (  0.000000  0.759900  0.000000 )
               b(3) = (  0.000000  0.000000  0.526865 )

     PseudoPot. # 1 for Tm read from file:
     /home/cwx6513/pp.La/Tm.UPF
     MD5 check sum: 245516e0878b5372ceeb9443ded2c4e1
     Pseudo is Norm-conserving, Zval = 23.0
     Generated in analytical, separable form
     Using radial grid of 1269 points,  6 beta functions with:
                l(1) =   0
                l(2) =   0
                l(3) =   1
                l(4) =   1
                l(5) =   2
                l(6) =   3

     PseudoPot. # 2 for Ho read from file:
     /home/cwx6513/pp.La/Ho.UPF
     MD5 check sum: f307ee11bce99f5b724fa279e3790763
     Pseudo is Norm-conserving, Zval = 21.0
     Generated in analytical, separable form
     Using radial grid of 1265 points,  6 beta functions with:
                l(1) =   0
                l(2) =   0
                l(3) =   1
                l(4) =   1
                l(5) =   2
                l(6) =   3

     atomic species   valence    mass     pseudopotential
        Co            23.00    58.93320     Tm( 1.00)
        Si            21.00    28.08550     Ho( 1.00)

      8 Sym. Ops., with inversion, found ( 6 have fractional translation)

   Cartesian axes

     site n.     atom                  positions (alat units)
         1           Co  tau(   1) = (   0.7500000   1.0875135   0.8270358  )
         2           Co  tau(   2) = (   0.2500000   0.2284499   1.0709846  )
         3           Co  tau(   3) = (   0.7500000   0.4295318   0.1219744  )
         4           Co  tau(   4) = (   0.2500000   0.8864316   1.7760460  )
         5           Co  tau(   5) = (   0.2500000   0.7067855   0.5358966  )
         6           Co  tau(   6) = (   0.7500000   0.6091779   1.3621238  )
         7           Co  tau(   7) = (   0.2500000   0.0488038   0.4131136  )
         8           Co  tau(   8) = (   0.7500000   1.2671596   1.4849068  )
         9           Si  tau(   9) = (   0.2500000   0.2669484   1.6960710  )
        10           Si  tau(  10) = (   0.7500000   1.0490149   0.2019494  )
        11           Si  tau(  11) = (   0.2500000   0.9249301   1.1509596  )
        12           Si  tau(  12) = (   0.7500000   0.3910333   0.7470608  )

     number of k points=    12  gaussian smearing, width (Ry)=  0.1000
                       cart. coord. in units 2pi/alat
        k(    1) = (   0.0000000   0.0000000   0.0000000), wk =   0.0833333
        k(    2) = (   0.0000000   0.0000000   0.1317162), wk =   0.1666667
        k(    3) = (   0.0000000   0.0000000  -0.2634324), wk =   0.0833333
        k(    4) = (   0.0000000   0.2532999   0.0000000), wk =   0.1666667
        k(    5) = (   0.0000000   0.2532999   0.1317162), wk =   0.3333333
        k(    6) = (   0.0000000   0.2532999  -0.2634324), wk =   0.1666667
        k(    7) = (  -0.5000000   0.0000000   0.0000000), wk =   0.0833333
        k(    8) = (  -0.5000000   0.0000000   0.1317162), wk =   0.1666667
        k(    9) = (  -0.5000000   0.0000000  -0.2634324), wk =   0.0833333
        k(   10) = (  -0.5000000   0.2532999   0.0000000), wk =   0.1666667
        k(   11) = (  -0.5000000   0.2532999   0.1317162), wk =   0.3333333
        k(   12) = (  -0.5000000   0.2532999  -0.2634324), wk =   0.1666667

     Largest allocated arrays     est. size (Mb)     dimensions
     Largest temporary arrays     est. size (Mb)     dimensions

     Initial potential from superposition of free atoms

     Starting from uniform charge
     Starting wfc are    0 randomized atomic wfcs

     Self-consistent Calculation

     iteration #  1     ecut=    40.00 Ry     beta=0.70
     CG style diagonalization
     c_bands:  1 eigenvalues not converged
     c_bands:  2 eigenvalues not converged
     c_bands:  3 eigenvalues not converged
     c_bands:  1 eigenvalues not converged
     c_bands:  2 eigenvalues not converged
     c_bands:  1 eigenvalues not converged
     c_bands:  3 eigenvalues not converged
     c_bands:  4 eigenvalues not converged
     c_bands:  2 eigenvalues not converged
     c_bands:  2 eigenvalues not converged
     c_bands:  1 eigenvalues not converged
     ethr =  1.00E-02,  avg # of iterations = 12.9

     total energy              =   -3712.80203693 Ry
     Harris-Foulkes estimate   =   -4684.37494468 Ry
     estimated scf accuracy    <    1239.22552195 Ry

[...]

     iteration #  3     ecut=    40.00 Ry     beta=0.70
     CG style diagonalization
     ethr =  1.00E-02,  avg # of iterations =  5.8

[...]

     End of self-consistent calculation

          k = 0.0000 0.0000 0.0000 (  3675 PWs)   bands (ev):

   -56.3984 -56.3800 -56.3791 -56.3608 -56.1758 -56.1320 -56.0633 -56.0612
   -39.1875 -39.1852 -39.1767 -39.1722 -15.8555 -15.8306 -15.7693 -15.6322
   -15.6304 -15.6242 -15.6096 -15.6014 -15.5738 -15.4961 -15.4050 -15.3353
   -15.3058 -15.2898 -15.1944 -15.1941 -15.1316 -15.1131 -15.0887 -15.0567
   -15.0053 -14.9307 -14.7898 -14.7532  -4.0774  -4.0024  -4.0018  -3.9989
    -3.9848  -3.9813  -3.9638  -3.9419  -3.6288  -3.5846  -3.5764  -3.5087
    28.8219  29.0070  29.0365  29.1531  29.1698  29.3318  29.5755  29.5901
    29.9250  29.9424  30.0516  30.4978  30.5110  30.7763  31.0253  31.4435
    31.5338  31.5457  31.5556  31.8310  31.9137  31.9943  32.0794  32.1434
    32.2087  32.4367  32.7733  32.7997  32.9277  33.0171  33.1878  33.1909
    33.2681  33.4713  33.5731  34.0913  34.5239  34.6204  34.7467  34.8088
    35.1638  36.0227  36.2999  37.1224  37.7267  38.6489  38.7173  38.9230
    38.9912  39.0583  39.0901  39.9687  39.9824  39.9909  40.3048  40.4631
    40.5626  41.4215  41.4616  41.5051  41.5548  41.6734  41.8327  44.0837
    46.2115  46.7853  47.3459  47.7071  48.9864  50.1277  50.4303  53.4763
    53.8892  54.1096  54.5088  54.8446  54.9416  55.1521  56.0696  56.1346
    56.4785  56.4969  56.5511  56.7380  57.3511  57.4101  57.6137  57.7358
    58.1536  58.2443  58.2553  58.4027  58.4262  58.8225  58.8703  59.1467
    59.5736  59.7098  60.5748  60.9662  61.2393  61.8776  62.2497  62.2830
    62.5042  62.5348  62.7380  63.2550  63.4246  63.6509  64.3349  64.6198
    64.8394

[...]

          k =-0.5000 0.0000 0.0000 (  3722 PWs)   bands (ev):

[...]

     the Fermi energy is    57.8294 ev

!    total energy              =   -4090.38428906 Ry
     Harris-Foulkes estimate   =   -4090.38436076 Ry
     estimated scf accuracy    <       0.00008294 Ry

     The total energy is the sum of the following terms:

     one-electron contribution =      28.71746393 Ry
     hartree contribution      =     396.48895549 Ry
     xc contribution           =    -361.38720486 Ry
     ewald contribution        =   -4153.67873146 Ry
     smearing contrib. (-TS)   =      -0.52477217 Ry

     convergence has been achieved in   9 iterations

     Forces acting on atoms (Ry/au):

     atom    1 type  1   force =     0.00000000   -0.05457909   -0.08920009
     atom    2 type  1   force =     0.00000000    0.05457909    0.08920009
     atom    3 type  1   force =     0.00000000   -0.05457909    0.08920009
     atom    4 type  1   force =     0.00000000    0.05457909   -0.08920009
     atom    5 type  1   force =     0.00000000    0.09191653   -0.20419190
     atom    6 type  1   force =     0.00000000   -0.09191653    0.20419190
     atom    7 type  1   force =     0.00000000    0.09191653    0.20419190
     atom    8 type  1   force =     0.00000000   -0.09191653   -0.20419190
     atom    9 type  2   force =     0.00000000   -0.19188298    0.02662039
     atom   10 type  2   force =     0.00000000    0.19188298   -0.02662039
     atom   11 type  2   force =     0.00000000   -0.19188298   -0.02662039
     atom   12 type  2   force =     0.00000000    0.19188298    0.02662039

     Total force =     0.628033     Total SCF correction =     0.000000

     entering subroutine stress ...

          total   stress  (Ry/bohr**3)                   (kbar)     P= 7933.64
   0.05849404   0.00000000   0.00000000       8604.77      0.00      0.00
   0.00000000   0.05062152   0.00000000          0.00   7446.68      0.00
   0.00000000   0.00000000   0.05267982          0.00      0.00   7749.47

     BFGS Geometry Optimization

     number of scf cycles    =   1
     number of bfgs steps    =   0

     enthalpy new            =   -4090.3842890569 Ry

     new trust radius        =       0.5000000000 bohr
     new conv_thr            =       0.0001000000 Ry

     new unit-cell volume =   1081.65844 a.u.^3 (   160.28524 Ang^3 )

CELL_PARAMETERS (alat=  7.01510508)
   1.085136619   0.000000000   0.000000000
   0.000000000   1.412921427   0.000000000
   0.000000000   0.000000000   2.043549544

ATOMIC_POSITIONS (crystal)
Co       0.750000000   0.826056798   0.435345973
Co       0.250000000   0.173943202   0.564654027
Co       0.750000000   0.326056798   0.064654027
Co       0.250000000   0.673943202   0.935345973
Co       0.250000000   0.537665669   0.281452171
Co       0.750000000   0.462334331   0.718547829
Co       0.250000000   0.037665669   0.218547829
Co       0.750000000   0.962334331   0.781452171
Si       0.250000000   0.201643894   0.893716398
Si       0.750000000   0.798356106   0.106283602
Si       0.250000000   0.701643894   0.606283602
Si       0.750000000   0.298356106   0.393716398

     Writing output data file Prototype-La-oP12-Co2Si.save
     NEW-OLD atomic charge density approx. for the potential
     NEW k-points:
        k(    1) = (   0.0000000   0.0000000   0.0000000), wk =   0.0833333
        k(    2) = (   0.0000000   0.0000000   0.1223362), wk =   0.1666667
        k(    3) = (   0.0000000   0.0000000  -0.2446723), wk =   0.0833333
        k(    4) = (   0.0000000   0.2359178   0.0000000), wk =   0.1666667
        k(    5) = (   0.0000000   0.2359178   0.1223362), wk =   0.3333333
        k(    6) = (   0.0000000   0.2359178  -0.2446723), wk =   0.1666667
        k(    7) = (  -0.4607715   0.0000000   0.0000000), wk =   0.0833333
        k(    8) = (  -0.4607715   0.0000000   0.1223362), wk =   0.1666667
        k(    9) = (  -0.4607715   0.0000000  -0.2446723), wk =   0.0833333
        k(   10) = (  -0.4607715   0.2359178   0.0000000), wk =   0.1666667
        k(   11) = (  -0.4607715   0.2359178   0.1223362), wk =   0.3333333
        k(   12) = (  -0.4607715   0.2359178  -0.2446723), wk =   0.1666667

[...]

     enthalpy old            =   -4090.3842890569 Ry
     enthalpy new            =   -4097.9578752628 Ry

     CASE: enthalpy_new < enthalpy_old

     small trust_radius: resetting bfgs history

     new trust radius        =       3.3145344709 bohr
     new conv_thr            =       0.0001000000 Ry

[...]

          total   stress  (Ry/bohr**3)                   (kbar)     P=-5491.39
  -0.04123523   0.00000000   0.00000000      -6065.91      0.00      0.00
   0.00000000  -0.03426852   0.00000000          0.00  -5041.07      0.00
   0.00000000   0.00000000  -0.03648532          0.00      0.00  -5367.18

     number of scf cycles    =   3
     number of bfgs steps    =   2

     enthalpy old            =   -4097.9578752628 Ry
     enthalpy new            =   -4046.4969615524 Ry

     CASE: enthalpy_new > enthalpy_old

     new trust radius        =       0.6894755808 bohr

     trust_radius < trust_radius_min

     resetting bfgs history

     Message from routine bfgs:
     history already reset at previous step: stopping
     new conv_thr            =       0.0001000000 Ry

     new unit-cell volume =   1275.24811 a.u.^3 (   188.97227 Ang^3 )

[...]

ATOMIC_POSITIONS (crystal)
Co       0.750000000   0.825749606   0.435002321
Co       0.250000000   0.174250394   0.564997679
Co       0.750000000   0.325749606   0.064997679
Co       0.250000000   0.674250394   0.935002321
Co       0.250000000   0.538110144   0.280674297
Co       0.750000000   0.461889856   0.719325703
Co       0.250000000   0.038110144   0.219325703
Co       0.750000000   0.961889856   0.780674297
Si       0.250000000   0.200713703   0.893764595
Si       0.750000000   0.799286297   0.106235405
Si       0.250000000   0.700713703   0.606235405
Si       0.750000000   0.299286297   0.393764595

     Writing output data file Prototype-La-oP12-Co2Si.save
     NEW-OLD atomic charge density approx. for the potential
     NEW k-points:
        k(    1) = (   0.0000000   0.0000000   0.0000000), wk =   0.0833333
        k(    2) = (   0.0000000   0.0000000   0.1159500), wk =   0.1666667
        k(    3) = (   0.0000000   0.0000000  -0.2319000), wk =   0.0833333
        k(    4) = (   0.0000000   0.2247634   0.0000000), wk =   0.1666667
        k(    5) = (   0.0000000   0.2247634   0.1159500), wk =   0.3333333
        k(    6) = (   0.0000000   0.2247634  -0.2319000), wk =   0.1666667
        k(    7) = (  -0.4328131   0.0000000   0.0000000), wk =   0.0833333
        k(    8) = (  -0.4328131   0.0000000   0.1159500), wk =   0.1666667
        k(    9) = (  -0.4328131   0.0000000  -0.2319000), wk =   0.0833333
        k(   10) = (  -0.4328131   0.2247634   0.0000000), wk =   0.1666667
        k(   11) = (  -0.4328131   0.2247634   0.1159500), wk =   0.3333333
        k(   12) = (  -0.4328131   0.2247634  -0.2319000), wk =   0.1666667

[...]

     The maximum number of steps has been reached.

     End of BFGS Geometry Optimization
Begin final coordinates
     new unit-cell volume =   1275.24811 a.u.^3 (   188.97227 Ang^3 )

CELL_PARAMETERS (alat=  7.01510508)
   1.155233045   0.000000000   0.000000000
   0.000000000   1.483041191   0.000000000
   0.000000000   0.000000000   2.156102140

ATOMIC_POSITIONS (crystal)
Co       0.750000000   0.825749606   0.435002321
Co       0.250000000   0.174250394   0.564997679
Co       0.750000000   0.325749606   0.064997679
Co       0.250000000   0.674250394   0.935002321
Co       0.250000000   0.538110144   0.280674297
Co       0.750000000   0.461889856   0.719325703
Co       0.250000000   0.038110144   0.219325703
Co       0.750000000   0.961889856   0.780674297
Si       0.250000000   0.200713703   0.893764595
Si       0.750000000   0.799286297   0.106235405
Si       0.250000000   0.700713703   0.606235405
Si       0.750000000   0.299286297   0.393764595
End final coordinates

     A final scf calculation at the relaxed structure.
     The G-vectors are recalculated for the final unit cell
     Results may differ from those at the preceding step.

     bravais-lattice index     =            0
     lattice parameter (alat)  =       7.0151  a.u.
     unit-cell volume          =    1275.2481 (a.u.)^3
     number of atoms/cell      =           12
     number of atomic types    =            2
     number of electrons       =       268.00
     number of Kohn-Sham states=          161
     kinetic-energy cutoff     =      40.0000  Ry
     charge density cutoff     =     160.0000  Ry
     convergence threshold     =      1.0E-04
     mixing beta               =       0.7000
     number of iterations used =            8  plain     mixing
     Exchange-correlation      = SLA-PZ-NOGX-NOGC ( 1 1 0 0 0)
     EXX-fraction              =        0.00

     celldm(1)=   7.015105  celldm(2)=   0.000000  celldm(3)=   0.000000
     celldm(4)=   0.000000  celldm(5)=   0.000000  celldm(6)=   0.000000

     crystal axes: (cart. coord. in units of alat)
               a(1) = (   1.155233   0.000000   0.000000 )
               a(2) = (   0.000000   1.483041   0.000000 )
               a(3) = (   0.000000   0.000000   2.156102 )

     reciprocal axes: (cart. coord. in units 2 pi/alat)
               b(1) = (  0.865626  0.000000  0.000000 )
               b(2) = (  0.000000  0.674290  0.000000 )
               b(3) = (  0.000000  0.000000  0.463800 )

     PseudoPot. # 1 for Tm read from file:
     /home/cwx6513/pp.La/Tm.UPF
     MD5 check sum: 245516e0878b5372ceeb9443ded2c4e1
     Pseudo is Norm-conserving, Zval = 23.0
     Generated in analytical, separable form
     Using radial grid of 1269 points,  6 beta functions with:
                l(1) =   0
                l(2) =   0
                l(3) =   1
                l(4) =   1
                l(5) =   2
                l(6) =   3

     PseudoPot. # 2 for Ho read from file:
     /home/cwx6513/pp.La/Ho.UPF
     MD5 check sum: f307ee11bce99f5b724fa279e3790763
     Pseudo is Norm-conserving, Zval = 21.0
     Generated in analytical, separable form
     Using radial grid of 1265 points,  6 beta functions with:
                l(1) =   0
                l(2) =   0
                l(3) =   1
                l(4) =   1
                l(5) =   2
                l(6) =   3

     atomic species   valence    mass     pseudopotential
        Co            23.00    58.93320     Tm( 1.00)
        Si            21.00    28.08550     Ho( 1.00)

      8 Sym. Ops., with inversion, found ( 6 have fractional translation)

   Cartesian axes

     site n.     atom                  positions (alat units)
         1           Co  tau(   1) = (   0.8664248   1.2246207   0.9379094  )
         2           Co  tau(   2) = (   0.2888083   0.2584205   1.2181927  )
         3           Co  tau(   3) = (   0.8664248   0.4831001   0.1401416  )
         4           Co  tau(   4) = (   0.2888083   0.9999411   2.0159605  )
         5           Co  tau(   5) = (   0.2888083   0.7980395   0.6051625  )
         6           Co  tau(   6) = (   0.8664248   0.6850017   1.5509397  )
         7           Co  tau(   7) = (   0.2888083   0.0565189   0.4728886  )
         8           Co  tau(   8) = (   0.8664248   1.4265223   1.6832135  )
         9           Si  tau(   9) = (   0.2888083   0.2976667   1.9270478  )
        10           Si  tau(  10) = (   0.8664248   1.1853745   0.2290544  )
        11           Si  tau(  11) = (   0.2888083   1.0391873   1.3071055  )
        12           Si  tau(  12) = (   0.8664248   0.4438539   0.8489967  )

     number of k points=    12  gaussian smearing, width (Ry)=  0.1000
                       cart. coord. in units 2pi/alat
        k(    1) = (   0.0000000   0.0000000   0.0000000), wk =   0.0833333
        k(    2) = (   0.0000000   0.0000000   0.1159500), wk =   0.1666667
        k(    3) = (   0.0000000   0.0000000  -0.2319000), wk =   0.0833333
        k(    4) = (   0.0000000   0.2247634   0.0000000), wk =   0.1666667
        k(    5) = (   0.0000000   0.2247634   0.1159500), wk =   0.3333333
        k(    6) = (   0.0000000   0.2247634  -0.2319000), wk =   0.1666667
        k(    7) = (  -0.4328131   0.0000000   0.0000000), wk =   0.0833333
        k(    8) = (  -0.4328131   0.0000000   0.1159500), wk =   0.1666667
        k(    9) = (  -0.4328131   0.0000000  -0.2319000), wk =   0.0833333
        k(   10) = (  -0.4328131   0.2247634   0.0000000), wk =   0.1666667
        k(   11) = (  -0.4328131   0.2247634   0.1159500), wk =   0.3333333
        k(   12) = (  -0.4328131   0.2247634  -0.2319000), wk =   0.1666667

     Largest allocated arrays     est. size (Mb)     dimensions
     Largest temporary arrays     est. size (Mb)     dimensions

     Initial potential from superposition of free atoms

     Starting from uniform charge
     Starting wfc are    0 randomized atomic wfcs

     Writing output data file Prototype-La-oP12-Co2Si.save

     Self-consistent Calculation

[...]

     iteration #  8     ecut=    40.00 Ry     beta=0.70
     CG style diagonalization
     c_bands:  1 eigenvalues not converged
     c_bands:  1 eigenvalues not converged
     ethr =  6.86E-06,  avg # of iterations =  4.3

[...]

     total energy              =   -4106.96984529 Ry
     Harris-Foulkes estimate   =   -4106.96990493 Ry
     estimated scf accuracy    <       0.00010663 Ry

     iteration # 11     ecut=    40.00 Ry     beta=0.70
     CG style diagonalization
     ethr =  3.98E-08,  avg # of iterations =  3.5

     End of self-consistent calculation

[...]

          k = 0.0000 0.2248-0.2319 (  5468 PWs)   bands (ev):

[...]

          k =-0.4328 0.2248-0.2319 (  5464 PWs)   bands (ev):

   -73.8504 -73.8504 -73.8401 -73.8401 -73.6412 -73.6412 -73.6386 -73.6386
   -55.2953 -55.2953 -55.2953 -55.2953 -32.6694 -32.6694 -32.6647 -32.6647
   -32.6355 -32.6355 -32.6331 -32.6331 -32.5829 -32.5829 -32.5793 -32.5793
   -32.4823 -32.4823 -32.4244 -32.4244 -32.4218 -32.4218 -32.4016 -32.4016
   -32.3632 -32.3632 -32.3419 -32.3419 -19.6911 -19.6911 -19.6882 -19.6882
   -19.6711 -19.6711 -19.6711 -19.6711 -19.5354 -19.5354 -19.5317 -19.5317
    15.0323  15.0323  15.1764  15.1764  15.2840  15.2840  15.3808  15.3808
    15.4020  15.4020  15.5030  15.5030  15.5561  15.5561  15.7448  15.7448
    15.8116  15.8116  15.8582  15.8582  15.8875  15.8875  16.1123  16.1123
    16.1779  16.1779  16.2606  16.2606  16.2882  16.2882  16.3581  16.3581
    16.5010  16.5010  16.7227  16.7227  16.7901  16.7901  17.1103  17.1103
    21.7616  21.7616  21.7821  21.7821  22.7742  22.7742  22.9403  22.9403
    23.3970  23.3970  23.4554  23.4554  23.7892  23.7892  23.8705  23.8705
    24.0011  24.0011  24.0191  24.0191  24.5007  24.5007  24.9778  24.9778
    26.9930  26.9930  27.2675  27.2675  29.8563  29.8563  31.5703  31.5703
    32.7045  32.7045  33.1387  33.1387  35.0347  35.0347  35.7822  35.7822
    39.0356  39.0356  39.5460  39.5460  40.3358  40.3358  40.3966  40.3966
    40.6644  40.6644  40.8445  40.8445  42.0623  42.0624  42.1152  42.1152
    42.3536  42.3536  42.4632  42.4632  42.6179  42.6179  43.1701  43.1701
    43.2073  43.2073  43.6700  43.6700  43.9717  43.9717  45.6216  45.6223
    46.0344

     the Fermi energy is    39.0678 ev

!    total energy              =   -4106.96986710 Ry
     Harris-Foulkes estimate   =   -4106.96987495 Ry
     estimated scf accuracy    <       0.00000820 Ry

     The total energy is the sum of the following terms:

     one-electron contribution =    -695.87428059 Ry
     hartree contribution      =     585.72425910 Ry
     xc contribution           =    -349.61436258 Ry
     ewald contribution        =   -3646.87874829 Ry
     smearing contrib. (-TS)   =      -0.32673474 Ry

     convergence has been achieved in  11 iterations

     Forces acting on atoms (Ry/au):

     atom    1 type  1   force =     0.00000000   -0.04557276   -0.01519095
     atom    2 type  1   force =     0.00000000    0.04557276    0.01519095
     atom    3 type  1   force =     0.00000000   -0.04557276    0.01519095
     atom    4 type  1   force =     0.00000000    0.04557276   -0.01519095
     atom    5 type  1   force =     0.00000000    0.02321278   -0.06197076
     atom    6 type  1   force =     0.00000000   -0.02321278    0.06197076
     atom    7 type  1   force =     0.00000000    0.02321278    0.06197076
     atom    8 type  1   force =     0.00000000   -0.02321278   -0.06197076
     atom    9 type  2   force =     0.00000000   -0.07962234    0.02437482
     atom   10 type  2   force =     0.00000000    0.07962234   -0.02437482
     atom   11 type  2   force =     0.00000000   -0.07962234   -0.02437482
     atom   12 type  2   force =     0.00000000    0.07962234    0.02437482

     Total force =     0.233416     Total SCF correction =     0.000000

     entering subroutine stress ...

          total   stress  (Ry/bohr**3)                   (kbar)     P= 1627.50
   0.01179522   0.00000000   0.00000000       1735.14      0.00      0.00
   0.00000000   0.01041284   0.00000000          0.00   1531.78      0.00
   0.00000000   0.00000000   0.01098257          0.00      0.00   1615.59

     Writing output data file Prototype-La-oP12-Co2Si.save

     General routines

     Parallel routines

   This run was terminated on:  21:58:17  22Mar2018

   JOB DONE.