     Program PWSCF v.5.0.2 starts on 22Mar2018 at 21:34: 0

     Current dimensions of program PWSCF are:
     Max number of different atomic species (ntypx) = 10
     Max number of k-points (npk) =  40000
     Max angular momentum in pseudopotentials (lmaxx) =  3
     Waiting for input...
     Reading input from standard input

     Subspace diagonalization in iterative solution of the eigenvalue problem:
     a serial algorithm will be used

     bravais-lattice index     =            0
     lattice parameter (alat)  =       7.0151  a.u.
     unit-cell volume          =     862.2778 (a.u.)^3
     number of atoms/cell      =           12
     number of atomic types    =            2
     number of electrons       =       256.00
     number of Kohn-Sham states=          154
     kinetic-energy cutoff     =      40.0000  Ry
     charge density cutoff     =     160.0000  Ry
     convergence threshold     =      1.0E-04
     mixing beta               =       0.7000
     number of iterations used =            8  plain     mixing
     Exchange-correlation      = SLA-PZ-NOGX-NOGC ( 1 1 0 0 0)
     EXX-fraction              =        0.00
     nstep                     =           50

     celldm(1)=   7.015105  celldm(2)=   0.000000  celldm(3)=   0.000000
     celldm(4)=   0.000000  celldm(5)=   0.000000  celldm(6)=   0.000000

     crystal axes: (cart. coord. in units of alat)
               a(1) = (   1.000000   0.000000   0.000000 )
               a(2) = (   0.000000   1.315963   0.000000 )
               a(3) = (   0.000000   0.000000   1.898020 )

     reciprocal axes: (cart. coord. in units 2 pi/alat)
               b(1) = (  1.000000  0.000000  0.000000 )
               b(2) = (  0.000000  0.759900  0.000000 )
               b(3) = (  0.000000  0.000000  0.526865 )

     PseudoPot. # 1 for Tm read from file:
     /home/cwx6513/pp.La/Tm.UPF
     MD5 check sum: 245516e0878b5372ceeb9443ded2c4e1
     Pseudo is Norm-conserving, Zval = 23.0
     Generated in analytical, separable form
     Using radial grid of 1269 points,  6 beta functions with:
                l(1) =   0
                l(2) =   0
                l(3) =   1
                l(4) =   1
                l(5) =   2
                l(6) =   3

     PseudoPot. # 2 for Gd read from file:
     /home/cwx6513/pp.La/Gd.UPF
     MD5 check sum: 09a8be538722f05520810cb6aac0efd2
     Pseudo is Norm-conserving, Zval = 18.0
     Generated in analytical, separable form
     Using radial grid of 1263 points,  6 beta functions with:
                l(1) =   0
                l(2) =   0
                l(3) =   1
                l(4) =   1
                l(5) =   2
                l(6) =   3

     atomic species   valence    mass     pseudopotential
        Co            23.00    58.93320     Tm( 1.00)
        Si            18.00    28.08550     Gd( 1.00)

      8 Sym. Ops., with inversion, found ( 6 have fractional translation)

   Cartesian axes

     site n.     atom                  positions (alat units)
         1           Co  tau(   1) = (   0.7500000   1.0875135   0.8270358  )
         2           Co  tau(   2) = (   0.2500000   0.2284499   1.0709846  )
         3           Co  tau(   3) = (   0.7500000   0.4295318   0.1219744  )
         4           Co  tau(   4) = (   0.2500000   0.8864316   1.7760460  )
         5           Co  tau(   5) = (   0.2500000   0.7067855   0.5358966  )
         6           Co  tau(   6) = (   0.7500000   0.6091779   1.3621238  )
         7           Co  tau(   7) = (   0.2500000   0.0488038   0.4131136  )
         8           Co  tau(   8) = (   0.7500000   1.2671596   1.4849068  )
         9           Si  tau(   9) = (   0.2500000   0.2669484   1.6960710  )
        10           Si  tau(  10) = (   0.7500000   1.0490149   0.2019494  )
        11           Si  tau(  11) = (   0.2500000   0.9249301   1.1509596  )
        12           Si  tau(  12) = (   0.7500000   0.3910333   0.7470608  )

     number of k points=    12  gaussian smearing, width (Ry)=  0.1000
                       cart. coord. in units 2pi/alat
        k(    1) = (   0.0000000   0.0000000   0.0000000), wk =   0.0833333
        k(    2) = (   0.0000000   0.0000000   0.1317162), wk =   0.1666667
        k(    3) = (   0.0000000   0.0000000  -0.2634324), wk =   0.0833333
        k(    4) = (   0.0000000   0.2532999   0.0000000), wk =   0.1666667
        k(    5) = (   0.0000000   0.2532999   0.1317162), wk =   0.3333333
        k(    6) = (   0.0000000   0.2532999  -0.2634324), wk =   0.1666667
        k(    7) = (  -0.5000000   0.0000000   0.0000000), wk =   0.0833333
        k(    8) = (  -0.5000000   0.0000000   0.1317162), wk =   0.1666667
        k(    9) = (  -0.5000000   0.0000000  -0.2634324), wk =   0.0833333
        k(   10) = (  -0.5000000   0.2532999   0.0000000), wk =   0.1666667
        k(   11) = (  -0.5000000   0.2532999   0.1317162), wk =   0.3333333
        k(   12) = (  -0.5000000   0.2532999  -0.2634324), wk =   0.1666667

     Largest allocated arrays     est. size (Mb)     dimensions
     Largest temporary arrays     est. size (Mb)     dimensions

     Initial potential from superposition of free atoms

     Starting from uniform charge
     Starting wfc are    0 randomized atomic wfcs

     Self-consistent Calculation

     iteration #  1     ecut=    40.00 Ry     beta=0.70
     CG style diagonalization
     c_bands:  4 eigenvalues not converged
     c_bands:  4 eigenvalues not converged
     c_bands:  4 eigenvalues not converged
     c_bands:  2 eigenvalues not converged
     c_bands:  1 eigenvalues not converged
     c_bands:  1 eigenvalues not converged
     c_bands:  4 eigenvalues not converged
     c_bands:  3 eigenvalues not converged
     c_bands:  5 eigenvalues not converged
     c_bands:  1 eigenvalues not converged
     c_bands:  2 eigenvalues not converged
     c_bands:  1 eigenvalues not converged
     ethr =  1.00E-02,  avg # of iterations = 12.5

     total energy              =   -3083.79468111 Ry
     Harris-Foulkes estimate   =   -4313.90813434 Ry
     estimated scf accuracy    <    1531.26144699 Ry

[...]

     iteration #  4     ecut=    40.00 Ry     beta=0.70
     CG style diagonalization
     ethr =  1.00E-02,  avg # of iterations =  4.7

[...]

     End of self-consistent calculation

          k = 0.0000 0.0000 0.0000 (  3675 PWs)   bands (ev):

   -57.6405 -57.6261 -57.6103 -57.5947 -57.5779 -57.5522 -57.5083 -57.4971
   -18.4173 -18.3571 -18.2312 -18.0351 -17.0584 -16.9794 -16.9552 -16.8750
   -16.8480 -16.8370 -16.7745 -16.7664 -16.6663 -16.6342 -16.6157 -16.6065
   -16.5467 -16.5370 -16.4591 -16.4329 -16.4151 -16.4009 -16.3636 -16.3583
   -16.3388 -16.2476 -16.1859 -16.1309   9.6275   9.8121   9.8886   9.8892
     9.8926   9.9167   9.9977  10.0586  10.3107  10.5080  10.5181  10.7363
    27.9962  28.2475  28.2502  28.2577  28.3867  28.6432  28.6505  28.8483
    29.2680  29.4619  29.4946  29.7229  29.9177  30.3255  30.3594  30.8854
    30.9131  30.9366  30.9902  31.0278  31.1304  31.1798  31.4468  31.5129
    31.5368  31.7596  31.8430  31.9622  32.1973  32.4320  32.4457  32.4546
    32.6075  32.6428  32.7677  33.3077  33.5411  33.5797  33.8460  33.8610
    34.0269  37.4401  37.6422  37.8972  41.0162  41.6866  41.8879  42.2742
    42.3953  43.2675  43.6791  43.9492  44.3388  44.4233  44.4625  44.9055
    44.9258  45.6930  46.2461  46.4537  46.8860  46.8986  46.9386  47.2462
    47.3068  49.6925  50.2293  50.4663  50.8480  51.5537  52.4884  54.4835
    54.7321  55.6494  55.7896  55.9626  56.2142  56.5631  56.7695  57.3263
    57.3721  57.6684  57.7722  58.0011  58.0158  58.3309  58.4168  58.5897
    58.5960  58.6911  59.1273  59.1773  59.2064  59.2472  59.6441  59.7003
    60.2779  60.4059  60.7180  61.9777  62.0193  62.4302  62.8196  62.9840
    63.2340  63.4089

[...]

          k =-0.5000 0.0000 0.0000 (  3722 PWs)   bands (ev):

[...]

     the Fermi energy is    56.9948 ev

!    total energy              =   -3725.24158881 Ry
     Harris-Foulkes estimate   =   -3725.24160490 Ry
     estimated scf accuracy    <       0.00001934 Ry

     The total energy is the sum of the following terms:

     one-electron contribution =      71.25010628 Ry
     hartree contribution      =     355.80824767 Ry
     xc contribution           =    -337.71772982 Ry
     ewald contribution        =   -3814.12785299 Ry
     smearing contrib. (-TS)   =      -0.45435995 Ry

     convergence has been achieved in  10 iterations

     Forces acting on atoms (Ry/au):

     atom    1 type  1   force =     0.00000000   -0.08437632   -0.08008383
     atom    2 type  1   force =     0.00000000    0.08437632    0.08008383
     atom    3 type  1   force =     0.00000000   -0.08437632    0.08008383
     atom    4 type  1   force =     0.00000000    0.08437632   -0.08008383
     atom    5 type  1   force =     0.00000000    0.09917790   -0.08334988
     atom    6 type  1   force =     0.00000000   -0.09917790    0.08334988
     atom    7 type  1   force =     0.00000000    0.09917790    0.08334988
     atom    8 type  1   force =     0.00000000   -0.09917790   -0.08334988
     atom    9 type  2   force =     0.00000000   -0.20218980    0.06256510
     atom   10 type  2   force =     0.00000000    0.20218980   -0.06256510
     atom   11 type  2   force =     0.00000000   -0.20218980   -0.06256510
     atom   12 type  2   force =     0.00000000    0.20218980    0.06256510

     Total force =     0.548129     Total SCF correction =     0.000000

     entering subroutine stress ...

          total   stress  (Ry/bohr**3)                   (kbar)     P= 7480.74
   0.05260288   0.00000000   0.00000000       7738.15      0.00      0.00
   0.00000000   0.04939937   0.00000000          0.00   7266.90      0.00
   0.00000000   0.00000000   0.05055686          0.00      0.00   7437.17

     BFGS Geometry Optimization

     number of scf cycles    =   1
     number of bfgs steps    =   0

     enthalpy new            =   -3725.2415888118 Ry

     new trust radius        =       0.5000000000 bohr
     new conv_thr            =       0.0001000000 Ry

     new unit-cell volume =   1093.18359 a.u.^3 (   161.99309 Ang^3 )

CELL_PARAMETERS (alat=  7.01510508)
   1.085136619   0.000000000   0.000000000
   0.000000000   1.421177033   0.000000000
   0.000000000   0.000000000   2.053326256

ATOMIC_POSITIONS (crystal)
Co       0.750000000   0.825809289   0.435346617
Co       0.250000000   0.174190711   0.564653383
Co       0.750000000   0.325809289   0.064653383
Co       0.250000000   0.674190711   0.935346617
Co       0.250000000   0.537781511   0.281939737
Co       0.750000000   0.462218489   0.718060263
Co       0.250000000   0.037781511   0.218060263
Co       0.750000000   0.962218489   0.781939737
Si       0.250000000   0.201436092   0.893904203
Si       0.750000000   0.798563908   0.106095797
Si       0.250000000   0.701436092   0.606095797
Si       0.750000000   0.298563908   0.393904203

     Writing output data file Prototype-La-oP12-Co2Si.save
     NEW-OLD atomic charge density approx. for the potential
     NEW k-points:
        k(    1) = (   0.0000000   0.0000000   0.0000000), wk =   0.0833333
        k(    2) = (   0.0000000   0.0000000   0.1217537), wk =   0.1666667
        k(    3) = (   0.0000000   0.0000000  -0.2435073), wk =   0.0833333
        k(    4) = (   0.0000000   0.2345474   0.0000000), wk =   0.1666667
        k(    5) = (   0.0000000   0.2345474   0.1217537), wk =   0.3333333
        k(    6) = (   0.0000000   0.2345474  -0.2435073), wk =   0.1666667
        k(    7) = (  -0.4607715   0.0000000   0.0000000), wk =   0.0833333
        k(    8) = (  -0.4607715   0.0000000   0.1217537), wk =   0.1666667
        k(    9) = (  -0.4607715   0.0000000  -0.2435073), wk =   0.0833333
        k(   10) = (  -0.4607715   0.2345474   0.0000000), wk =   0.1666667
        k(   11) = (  -0.4607715   0.2345474   0.1217537), wk =   0.3333333
        k(   12) = (  -0.4607715   0.2345474  -0.2435073), wk =   0.1666667

[...]

     enthalpy old            =   -3725.2415888118 Ry
     enthalpy new            =   -3732.4641165012 Ry

     CASE: enthalpy_new < enthalpy_old

     small trust_radius: resetting bfgs history

     new trust radius        =       2.6618616334 bohr
     new conv_thr            =       0.0001000000 Ry

[...]

          total   stress  (Ry/bohr**3)                   (kbar)     P=-4400.33
  -0.03138080   0.00000000   0.00000000      -4616.27      0.00      0.00
   0.00000000  -0.02883759   0.00000000          0.00  -4242.16      0.00
   0.00000000   0.00000000  -0.02952013          0.00      0.00  -4342.56

     number of scf cycles    =   3
     number of bfgs steps    =   2

     enthalpy old            =   -3732.4641165012 Ry
     enthalpy new            =   -3700.3453479174 Ry

     CASE: enthalpy_new > enthalpy_old

     new trust radius        =       0.5856004342 bohr

     trust_radius < trust_radius_min

     resetting bfgs history

     Message from routine bfgs:
     history already reset at previous step: stopping
     new conv_thr            =       0.0001000000 Ry

     new unit-cell volume =   1304.77539 a.u.^3 (   193.34776 Ang^3 )

[...]

ATOMIC_POSITIONS (crystal)
Co       0.750000000   0.825228638   0.435111913
Co       0.250000000   0.174771362   0.564888087
Co       0.750000000   0.325228638   0.064888087
Co       0.250000000   0.674771362   0.935111913
Co       0.250000000   0.538095366   0.281929497
Co       0.750000000   0.461904634   0.718070503
Co       0.250000000   0.038095366   0.218070503
Co       0.750000000   0.961904634   0.781929497
Si       0.250000000   0.200190019   0.894479454
Si       0.750000000   0.799809981   0.105520546
Si       0.250000000   0.700190019   0.605520546
Si       0.750000000   0.299809981   0.394479454

     Writing output data file Prototype-La-oP12-Co2Si.save
     NEW-OLD atomic charge density approx. for the potential
     NEW k-points:
        k(    1) = (   0.0000000   0.0000000   0.0000000), wk =   0.0833333
        k(    2) = (   0.0000000   0.0000000   0.1148877), wk =   0.1666667
        k(    3) = (   0.0000000   0.0000000  -0.2297753), wk =   0.0833333
        k(    4) = (   0.0000000   0.2218037   0.0000000), wk =   0.1666667
        k(    5) = (   0.0000000   0.2218037   0.1148877), wk =   0.3333333
        k(    6) = (   0.0000000   0.2218037  -0.2297753), wk =   0.1666667
        k(    7) = (  -0.4326266   0.0000000   0.0000000), wk =   0.0833333
        k(    8) = (  -0.4326266   0.0000000   0.1148877), wk =   0.1666667
        k(    9) = (  -0.4326266   0.0000000  -0.2297753), wk =   0.0833333
        k(   10) = (  -0.4326266   0.2218037   0.0000000), wk =   0.1666667
        k(   11) = (  -0.4326266   0.2218037   0.1148877), wk =   0.3333333
        k(   12) = (  -0.4326266   0.2218037  -0.2297753), wk =   0.1666667

[...]

     The maximum number of steps has been reached.

     End of BFGS Geometry Optimization
Begin final coordinates
     new unit-cell volume =   1304.77539 a.u.^3 (   193.34776 Ang^3 )

CELL_PARAMETERS (alat=  7.01510508)
   1.155730989   0.000000000   0.000000000
   0.000000000   1.502830022   0.000000000
   0.000000000   0.000000000   2.176038598

ATOMIC_POSITIONS (crystal)
Co       0.750000000   0.825228638   0.435111913
Co       0.250000000   0.174771362   0.564888087
Co       0.750000000   0.325228638   0.064888087
Co       0.250000000   0.674771362   0.935111913
Co       0.250000000   0.538095366   0.281929497
Co       0.750000000   0.461904634   0.718070503
Co       0.250000000   0.038095366   0.218070503
Co       0.750000000   0.961904634   0.781929497
Si       0.250000000   0.200190019   0.894479454
Si       0.750000000   0.799809981   0.105520546
Si       0.250000000   0.700190019   0.605520546
Si       0.750000000   0.299809981   0.394479454
End final coordinates

     A final scf calculation at the relaxed structure.
     The G-vectors are recalculated for the final unit cell
     Results may differ from those at the preceding step.

     bravais-lattice index     =            0
     lattice parameter (alat)  =       7.0151  a.u.
     unit-cell volume          =    1304.7754 (a.u.)^3
     number of atoms/cell      =           12
     number of atomic types    =            2
     number of electrons       =       256.00
     number of Kohn-Sham states=          154
     kinetic-energy cutoff     =      40.0000  Ry
     charge density cutoff     =     160.0000  Ry
     convergence threshold     =      1.0E-04
     mixing beta               =       0.7000
     number of iterations used =            8  plain     mixing
     Exchange-correlation      = SLA-PZ-NOGX-NOGC ( 1 1 0 0 0)
     EXX-fraction              =        0.00

     celldm(1)=   7.015105  celldm(2)=   0.000000  celldm(3)=   0.000000
     celldm(4)=   0.000000  celldm(5)=   0.000000  celldm(6)=   0.000000

     crystal axes: (cart. coord. in units of alat)
               a(1) = (   1.155731   0.000000   0.000000 )
               a(2) = (   0.000000   1.502830   0.000000 )
               a(3) = (   0.000000   0.000000   2.176039 )

     reciprocal axes: (cart. coord. in units 2 pi/alat)
               b(1) = (  0.865253  0.000000  0.000000 )
               b(2) = (  0.000000  0.665411  0.000000 )
               b(3) = (  0.000000  0.000000  0.459551 )

     PseudoPot. # 1 for Tm read from file:
     /home/cwx6513/pp.La/Tm.UPF
     MD5 check sum: 245516e0878b5372ceeb9443ded2c4e1
     Pseudo is Norm-conserving, Zval = 23.0
     Generated in analytical, separable form
     Using radial grid of 1269 points,  6 beta functions with:
                l(1) =   0
                l(2) =   0
                l(3) =   1
                l(4) =   1
                l(5) =   2
                l(6) =   3

     PseudoPot. # 2 for Gd read from file:
     /home/cwx6513/pp.La/Gd.UPF
     MD5 check sum: 09a8be538722f05520810cb6aac0efd2
     Pseudo is Norm-conserving, Zval = 18.0
     Generated in analytical, separable form
     Using radial grid of 1263 points,  6 beta functions with:
                l(1) =   0
                l(2) =   0
                l(3) =   1
                l(4) =   1
                l(5) =   2
                l(6) =   3

     atomic species   valence    mass     pseudopotential
        Co            23.00    58.93320     Tm( 1.00)
        Si            18.00    28.08550     Gd( 1.00)

      8 Sym. Ops., with inversion, found ( 6 have fractional translation)

   Cartesian axes

     site n.     atom                  positions (alat units)
         1           Co  tau(   1) = (   0.8667982   1.2401784   0.9468203  )
         2           Co  tau(   2) = (   0.2889327   0.2626516   1.2292183  )
         3           Co  tau(   3) = (   0.8667982   0.4887634   0.1411990  )
         4           Co  tau(   4) = (   0.2889327   1.0140667   2.0348396  )
         5           Co  tau(   5) = (   0.2889327   0.8086659   0.6134895  )
         6           Co  tau(   6) = (   0.8667982   0.6941642   1.5625491  )
         7           Co  tau(   7) = (   0.2889327   0.0572509   0.4745298  )
         8           Co  tau(   8) = (   0.8667982   1.4455792   1.7015088  )
         9           Si  tau(   9) = (   0.2889327   0.3008516   1.9464218  )
        10           Si  tau(  10) = (   0.8667982   1.2019785   0.2296168  )
        11           Si  tau(  11) = (   0.2889327   1.0522666   1.3176361  )
        12           Si  tau(  12) = (   0.8667982   0.4505634   0.8584025  )

     number of k points=    12  gaussian smearing, width (Ry)=  0.1000
                       cart. coord. in units 2pi/alat
        k(    1) = (   0.0000000   0.0000000   0.0000000), wk =   0.0833333
        k(    2) = (   0.0000000   0.0000000   0.1148877), wk =   0.1666667
        k(    3) = (   0.0000000   0.0000000  -0.2297753), wk =   0.0833333
        k(    4) = (   0.0000000   0.2218037   0.0000000), wk =   0.1666667
        k(    5) = (   0.0000000   0.2218037   0.1148877), wk =   0.3333333
        k(    6) = (   0.0000000   0.2218037  -0.2297753), wk =   0.1666667
        k(    7) = (  -0.4326266   0.0000000   0.0000000), wk =   0.0833333
        k(    8) = (  -0.4326266   0.0000000   0.1148877), wk =   0.1666667
        k(    9) = (  -0.4326266   0.0000000  -0.2297753), wk =   0.0833333
        k(   10) = (  -0.4326266   0.2218037   0.0000000), wk =   0.1666667
        k(   11) = (  -0.4326266   0.2218037   0.1148877), wk =   0.3333333
        k(   12) = (  -0.4326266   0.2218037  -0.2297753), wk =   0.1666667

     Largest allocated arrays     est. size (Mb)     dimensions
     Largest temporary arrays     est. size (Mb)     dimensions

     Initial potential from superposition of free atoms

     Starting from uniform charge
     Starting wfc are    0 randomized atomic wfcs

     Writing output data file Prototype-La-oP12-Co2Si.save

     Self-consistent Calculation

[...]

     iteration #  9     ecut=    40.00 Ry     beta=0.70
     CG style diagonalization
     c_bands:  1 eigenvalues not converged
     c_bands:  2 eigenvalues not converged
     c_bands:  1 eigenvalues not converged
     ethr =  4.43E-06,  avg # of iterations =  3.8

[...]

     total energy              =   -3740.57345966 Ry
     Harris-Foulkes estimate   =   -3740.57355807 Ry
     estimated scf accuracy    <       0.00017965 Ry

     iteration # 11     ecut=    40.00 Ry     beta=0.70
     CG style diagonalization
     ethr =  7.02E-08,  avg # of iterations =  3.7

     End of self-consistent calculation

[...]

          k = 0.0000 0.2218-0.2298 (  5556 PWs)   bands (ev):

[...]

          k =-0.4326 0.2218-0.2298 (  5572 PWs)   bands (ev):

   -75.7854 -75.7854 -75.7791 -75.7791 -75.7528 -75.7528 -75.7439 -75.7439
   -34.6419 -34.6419 -34.6207 -34.6207 -34.5844 -34.5844 -34.5552 -34.5552
   -34.5383 -34.5383 -34.5193 -34.5193 -34.5082 -34.5082 -34.4988 -34.4988
   -34.4639 -34.4639 -34.4629 -34.4629 -34.4470 -34.4470 -34.4372 -34.4372
   -34.1239 -34.1239 -34.1152 -34.1152  -5.6435  -5.6435  -5.6315  -5.6315
    -5.5462  -5.5462  -5.5411  -5.5411  -5.3552  -5.3552  -5.3453  -5.3453
    13.2489  13.2489  13.5149  13.5149  13.5334  13.5334  13.6393  13.6393
    13.6603  13.6603  13.7702  13.7702  13.8420  13.8420  14.0150  14.0150
    14.0582  14.0582  14.1414  14.1414  14.1736  14.1736  14.3088  14.3088
    14.3728  14.3728  14.4206  14.4206  14.4318  14.4318  14.5335  14.5335
    14.6242  14.6242  14.8298  14.8298  14.8933  14.8933  15.0827  15.0827
    21.7894  21.7894  22.4568  22.4568  23.5310  23.5310  24.0298  24.0298
    26.9675  26.9675  27.2524  27.2524  27.4706  27.4706  27.8475  27.8475
    28.5602  28.5602  28.6785  28.6785  28.9350  28.9350  29.1900  29.1900
    30.0355  30.0355  30.5339  30.5339  31.4971  31.4971  32.9795  32.9795
    33.7408  33.7408  34.5655  34.5655  35.3708  35.3708  36.5477  36.5477
    38.5988  38.5988  38.6611  38.6611  40.0135  40.0136  40.0871  40.0872
    40.3130  40.3130  40.4786  40.4786  41.3339  41.3340  41.6961  41.6961
    42.1116  42.1117  42.3999  42.3999  42.7490  42.7492  42.8283  42.8284
    43.0154  43.0156

     the Fermi energy is    36.9495 ev

!    total energy              =   -3740.57349745 Ry
     Harris-Foulkes estimate   =   -3740.57350326 Ry
     estimated scf accuracy    <       0.00000683 Ry

     The total energy is the sum of the following terms:

     one-electron contribution =    -625.35897625 Ry
     hartree contribution      =     533.57395398 Ry
     xc contribution           =    -325.46972343 Ry
     ewald contribution        =   -3322.97510132 Ry
     smearing contrib. (-TS)   =      -0.34365043 Ry

     convergence has been achieved in  11 iterations

     Forces acting on atoms (Ry/au):

     atom    1 type  1   force =     0.00000000   -0.02201977   -0.03270023
     atom    2 type  1   force =     0.00000000    0.02201977    0.03270023
     atom    3 type  1   force =     0.00000000   -0.02201977    0.03270023
     atom    4 type  1   force =     0.00000000    0.02201977   -0.03270023
     atom    5 type  1   force =     0.00000000    0.01219882   -0.00088624
     atom    6 type  1   force =     0.00000000   -0.01219882    0.00088624
     atom    7 type  1   force =     0.00000000    0.01219882    0.00088624
     atom    8 type  1   force =     0.00000000   -0.01219882   -0.00088624
     atom    9 type  2   force =     0.00000000   -0.05481915    0.03719241
     atom   10 type  2   force =     0.00000000    0.05481915   -0.03719241
     atom   11 type  2   force =     0.00000000   -0.05481915   -0.03719241
     atom   12 type  2   force =     0.00000000    0.05481915    0.03719241

     Total force =     0.156105     Total SCF correction =     0.000000

     entering subroutine stress ...

          total   stress  (Ry/bohr**3)                   (kbar)     P= 1211.44
   0.00872098   0.00000000   0.00000000       1282.90      0.00      0.00
   0.00000000   0.00793552   0.00000000          0.00   1167.36      0.00
   0.00000000   0.00000000   0.00804919          0.00      0.00   1184.08

     Writing output data file Prototype-La-oP12-Co2Si.save

     General routines

     Parallel routines

   This run was terminated on:  22:11:30  22Mar2018

   JOB DONE.