     Program PWSCF v.5.0.2 starts on 22Mar2018 at 17:38:30

     Current dimensions of program PWSCF are:
     Max number of different atomic species (ntypx) = 10
     Max number of k-points (npk) =  40000
     Max angular momentum in pseudopotentials (lmaxx) =  3
     Waiting for input...
     Reading input from standard input

     Subspace diagonalization in iterative solution of the eigenvalue problem:
     a serial algorithm will be used

     bravais-lattice index     =            0
     lattice parameter (alat)  =       9.9235  a.u.
     unit-cell volume          =    1361.0366 (a.u.)^3
     number of atoms/cell      =           12
     number of atomic types    =            2
     number of electrons       =       260.00
     number of Kohn-Sham states=          156
     kinetic-energy cutoff     =      40.0000  Ry
     charge density cutoff     =     160.0000  Ry
     convergence threshold     =      1.0E-04
     mixing beta               =       0.7000
     number of iterations used =            8  plain     mixing
     Exchange-correlation      = SLA-PZ-NOGX-NOGC ( 1 1 0 0 0)
     EXX-fraction              =        0.00
     nstep                     =           50

     celldm(1)=   9.923489  celldm(2)=   0.000000  celldm(3)=   0.000000
     celldm(4)=   0.000000  celldm(5)=   0.000000  celldm(6)=   0.000000

     crystal axes: (cart. coord. in units of alat)
               a(1) = (   1.000000   0.000000   0.000000 )
               a(2) = (  -0.500000   0.866025   0.000000 )
               a(3) = (   0.000000   0.000000   1.608222 )

     reciprocal axes: (cart. coord. in units 2 pi/alat)
               b(1) = (  1.000000  0.577350  0.000000 )
               b(2) = (  0.000000  1.154701  0.000000 )
               b(3) = (  0.000000  0.000000  0.621805 )

     PseudoPot. # 1 for Tb read from file:
     /home/cwx6513/pp.La/Tb.UPF
     MD5 check sum: 3d6088a3f0cf7fd2e110c43f7f8e95c2
     Pseudo is Norm-conserving, Zval = 19.0
     Generated in analytical, separable form
     Using radial grid of 1263 points,  6 beta functions with:
                l(1) =   0
                l(2) =   0
                l(3) =   1
                l(4) =   1
                l(5) =   2
                l(6) =   3

     PseudoPot. # 2 for Tm read from file:
     /home/cwx6513/pp.La/Tm.UPF
     MD5 check sum: 245516e0878b5372ceeb9443ded2c4e1
     Pseudo is Norm-conserving, Zval = 23.0
     Generated in analytical, separable form
     Using radial grid of 1269 points,  6 beta functions with:
                l(1) =   0
                l(2) =   0
                l(3) =   1
                l(4) =   1
                l(5) =   2
                l(6) =   3

     atomic species   valence    mass     pseudopotential
        Mg            19.00    24.30500     Tb( 1.00)
        Zn            23.00    65.39000     Tm( 1.00)

     24 Sym. Ops., with inversion, found (12 have fractional translation)

   Cartesian axes

     site n.     atom                  positions (alat units)
         1           Mg  tau(   1) = (  -0.0000005   0.5773506   0.1003820  )
         2           Mg  tau(   2) = (   0.5000005   0.2886748   0.9044931  )
         3           Mg  tau(   3) = (   0.5000005   0.2886748   1.5078402  )
         4           Mg  tau(   4) = (  -0.0000005   0.5773506   0.7037291  )
         5           Zn  tau(   5) = (   0.0000000   0.0000000   0.0000000  )
         6           Zn  tau(   6) = (   0.0000000   0.0000000   0.8041111  )
         7           Zn  tau(   7) = (   0.0000000   0.2950739   1.2061667  )
         8           Zn  tau(   8) = (   0.7444585   0.1475370   0.4020556  )
         9           Zn  tau(   9) = (   0.2555415   0.1475370   0.4020556  )
        10           Zn  tau(  10) = (   0.2444585   0.7184884   1.2061667  )
        11           Zn  tau(  11) = (  -0.2444585   0.7184884   1.2061667  )
        12           Zn  tau(  12) = (   0.5000000   0.5709515   0.4020556  )

     number of k points=    12  gaussian smearing, width (Ry)=  0.1000
                       cart. coord. in units 2pi/alat
        k(    1) = (   0.0000000   0.0000000   0.0000000), wk =   0.0833333
        k(    2) = (   0.0000000   0.0000000   0.1554512), wk =   0.1666667
        k(    3) = (   0.0000000   0.0000000  -0.3109023), wk =   0.0833333
        k(    4) = (   0.0000000   0.3849002   0.0000000), wk =   0.1666667
        k(    5) = (   0.0000000   0.3849002   0.1554512), wk =   0.3333333
        k(    6) = (   0.0000000   0.3849002  -0.3109023), wk =   0.1666667
        k(    7) = (  -0.5000000  -0.2886751   0.0000000), wk =   0.0833333
        k(    8) = (  -0.5000000  -0.2886751   0.1554512), wk =   0.1666667
        k(    9) = (  -0.5000000  -0.2886751  -0.3109023), wk =   0.0833333
        k(   10) = (  -0.5000000   0.0962250   0.0000000), wk =   0.1666667
        k(   11) = (  -0.5000000   0.0962250   0.1554512), wk =   0.3333333
        k(   12) = (  -0.5000000   0.0962250  -0.3109023), wk =   0.1666667

     Largest allocated arrays     est. size (Mb)     dimensions
     Largest temporary arrays     est. size (Mb)     dimensions

     Initial potential from superposition of free atoms

     Starting from uniform charge
     Starting wfc are    0 randomized atomic wfcs

     Self-consistent Calculation

     iteration #  1     ecut=    40.00 Ry     beta=0.70
     CG style diagonalization
     ethr =  1.00E-02,  avg # of iterations = 21.5

     total energy              =   -2401.20507539 Ry
     Harris-Foulkes estimate   =   -4995.91155762 Ry
     estimated scf accuracy    <    3108.53034065 Ry

[...]

     iteration #  3     ecut=    40.00 Ry     beta=0.70
     CG style diagonalization
     c_bands:  4 eigenvalues not converged
     c_bands:  3 eigenvalues not converged
     c_bands:  4 eigenvalues not converged
     c_bands:  2 eigenvalues not converged
     c_bands:  2 eigenvalues not converged
     c_bands:  3 eigenvalues not converged
     c_bands:  5 eigenvalues not converged
     c_bands:  3 eigenvalues not converged
     c_bands:  1 eigenvalues not converged
     c_bands:  2 eigenvalues not converged
     c_bands:  1 eigenvalues not converged
     ethr =  1.00E-02,  avg # of iterations = 13.2

[...]

     End of self-consistent calculation

          k = 0.0000 0.0000 0.0000 (  5769 PWs)   bands (ev):

   -77.7863 -77.7649 -77.7566 -77.7566 -77.7494 -77.7406 -77.7405 -77.6946
   -41.3636 -41.3594 -41.3569 -41.3463 -37.2357 -37.1157 -36.9008 -36.7195
   -36.7195 -36.7004 -36.7004 -36.6652 -36.6063 -36.6062 -36.5308 -36.4758
   -36.4758 -36.4277 -36.4276 -36.3764 -36.3764 -36.3504 -36.3326 -36.3326
   -36.2944 -36.2871 -36.2870 -36.2794  -9.8933  -9.8799  -9.8624  -9.8624
    -9.8343  -9.8343  -9.7636  -9.7340  -9.7169  -9.7168  -9.7152  -9.7152
     8.7284   9.1471   9.4665  10.0821  10.0821  10.1953  10.1953  10.4670
    10.4671  10.5659  10.8077  10.8078  11.3473  11.6386  11.7036  11.7036
    11.8364  11.8364  12.2251  12.4417  12.4417  12.6685  12.6686  12.7964
    12.8465  12.8465  12.9301  12.9479  12.9714  12.9714  13.0548  13.0549
    13.1664  13.1664  13.7172  13.7172  13.9764  13.9765  14.3461  14.3485
    16.2141  17.9178  20.2935  23.0975  23.9628  24.2051  24.2051  25.0567
    25.0766  25.0766  25.0950  25.0951  25.5748  25.5748  26.4567  26.4568
    26.5603  26.5603  27.3416  27.3620  28.3347  28.4275  28.4275  28.5215
    28.5215  29.5738  29.5738  30.2006  30.2007  30.2273  30.2274  30.4601
    30.7859  31.1558  31.9841  31.9841  32.4243  32.7188  32.7188  33.3971
    33.9425  34.8376  34.8376  36.2414  36.5202  36.5202  36.8106  36.9115
    36.9115  37.2643  37.8596  38.2365  38.2563  38.2564  38.3123  38.3124
    38.4594  38.4595  39.4672  39.5389  39.7267  39.7267  39.7391  39.9808
    41.1148  41.1384  41.5550  41.5967

[...]

          k =-0.5000-0.2887 0.0000 (  5800 PWs)   bands (ev):

[...]

     the Fermi energy is    35.5249 ev

!    total energy              =   -3851.22633019 Ry
     Harris-Foulkes estimate   =   -3851.22639732 Ry
     estimated scf accuracy    <       0.00008029 Ry

     The total energy is the sum of the following terms:

     one-electron contribution =    -823.75028518 Ry
     hartree contribution      =     620.50465824 Ry
     xc contribution           =    -332.70841848 Ry
     ewald contribution        =   -3314.88555466 Ry
     smearing contrib. (-TS)   =      -0.38673010 Ry

     convergence has been achieved in  10 iterations

     Forces acting on atoms (Ry/au):

     atom    1 type  1   force =     0.00000000    0.00000000   -0.00009374
     atom    2 type  1   force =     0.00000000    0.00000000   -0.00009374
     atom    3 type  1   force =     0.00000000    0.00000000    0.00009374
     atom    4 type  1   force =     0.00000000    0.00000000    0.00009374
     atom    5 type  2   force =     0.00000000    0.00000000    0.00000000
     atom    6 type  2   force =     0.00000000    0.00000000    0.00000000
     atom    7 type  2   force =     0.00000000    0.15415734    0.00000000
     atom    8 type  2   force =    -0.13350417    0.07707867    0.00000000
     atom    9 type  2   force =     0.13350417    0.07707867    0.00000000
     atom   10 type  2   force =    -0.13350417   -0.07707867    0.00000000
     atom   11 type  2   force =     0.13350417   -0.07707867    0.00000000
     atom   12 type  2   force =     0.00000000   -0.15415734    0.00000000

     Total force =     0.377607     Total SCF correction =     0.000000

     entering subroutine stress ...

          total   stress  (Ry/bohr**3)                   (kbar)     P= 1144.07
   0.00785059   0.00000000   0.00000000       1154.86      0.00      0.00
   0.00000000   0.00785059   0.00000000          0.00   1154.86      0.00
   0.00000000   0.00000000   0.00763052          0.00      0.00   1122.49

     BFGS Geometry Optimization

     number of scf cycles    =   1
     number of bfgs steps    =   0

     enthalpy new            =   -3851.2263301899 Ry

     new trust radius        =       0.5000000000 bohr
     new conv_thr            =       0.0001000000 Ry

     new unit-cell volume =   1653.95418 a.u.^3 (   245.09072 Ang^3 )

CELL_PARAMETERS (alat=  9.92348860)
   1.067764947   0.000000000   0.000000000
  -0.533882474   0.924711570   0.000000000
   0.000000000   0.000000000   1.714148318

ATOMIC_POSITIONS (crystal)
Mg       0.333333000   0.666667000   0.062415972
Mg       0.666667000   0.333333000   0.562415972
Mg       0.666667000   0.333333000   0.937584028
Mg       0.333333000   0.666667000   0.437584028
Zn       0.000000000   0.000000000   0.000000000
Zn       0.000000000   0.000000000   0.500000000
Zn       0.173457719   0.346915439   0.750000000
Zn       0.826542281   0.173457719   0.250000000
Zn       0.346915439   0.173457719   0.250000000
Zn       0.653084561   0.826542281   0.750000000
Zn       0.173457719   0.826542281   0.750000000
Zn       0.826542281   0.653084561   0.250000000

     Writing output data file Prototype-La-hP12-MgZn2.save
     NEW-OLD atomic charge density approx. for the potential
     NEW k-points:
        k(    1) = (   0.0000000   0.0000000   0.0000000), wk =   0.0833333
        k(    2) = (   0.0000000   0.0000000   0.1458450), wk =   0.1666667
        k(    3) = (   0.0000000   0.0000000  -0.2916900), wk =   0.0833333
        k(    4) = (   0.0000000   0.3604728   0.0000000), wk =   0.1666667
        k(    5) = (   0.0000000   0.3604728   0.1458450), wk =   0.3333333
        k(    6) = (   0.0000000   0.3604728  -0.2916900), wk =   0.1666667
        k(    7) = (  -0.4682679  -0.2703546   0.0000000), wk =   0.0833333
        k(    8) = (  -0.4682679  -0.2703546   0.1458450), wk =   0.1666667
        k(    9) = (  -0.4682679  -0.2703546  -0.2916900), wk =   0.0833333
        k(   10) = (  -0.4682679   0.0901182   0.0000000), wk =   0.1666667
        k(   11) = (  -0.4682679   0.0901182   0.1458450), wk =   0.3333333
        k(   12) = (  -0.4682679   0.0901182  -0.2916900), wk =   0.1666667

[...]

     enthalpy old            =   -3851.2263301899 Ry
     enthalpy new            =   -3851.7865210406 Ry

     CASE: enthalpy_new < enthalpy_old

     small trust_radius: resetting bfgs history

     new trust radius        =       0.6465683252 bohr
     new conv_thr            =       0.0000204695 Ry

[...]

     number of scf cycles    =   3
     number of bfgs steps    =   2

     enthalpy old            =   -3851.7865210406 Ry
     enthalpy new            =   -3850.9224781986 Ry

     CASE: enthalpy_new > enthalpy_old

     new trust radius        =       0.1708593575 bohr

     trust_radius < trust_radius_min

     resetting bfgs history

     Message from routine bfgs:
     history already reset at previous step: stopping
     new conv_thr            =       0.0000204695 Ry

     new unit-cell volume =   1382.36916 a.u.^3 (   204.84597 Ang^3 )

[...]

ATOMIC_POSITIONS (crystal)
Mg       0.333333000   0.666667000   0.063482932
Mg       0.666667000   0.333333000   0.563482932
Mg       0.666667000   0.333333000   0.936517068
Mg       0.333333000   0.666667000   0.436517068
Zn       0.000000000   0.000000000   0.000000000
Zn       0.000000000   0.000000000   0.500000000
Zn       0.174136165   0.348272330   0.750000000
Zn       0.825863835   0.174136165   0.250000000
Zn       0.348272330   0.174136165   0.250000000
Zn       0.651727670   0.825863835   0.750000000
Zn       0.174136165   0.825863835   0.750000000
Zn       0.825863835   0.651727670   0.250000000

     Writing output data file Prototype-La-hP12-MgZn2.save
     NEW-OLD atomic charge density approx. for the potential
     NEW k-points:
        k(    1) = (   0.0000000   0.0000000   0.0000000), wk =   0.0833333
        k(    2) = (   0.0000000   0.0000000   0.1556965), wk =   0.1666667
        k(    3) = (   0.0000000   0.0000000  -0.3113931), wk =   0.0833333
        k(    4) = (   0.0000000   0.3816177   0.0000000), wk =   0.1666667
        k(    5) = (   0.0000000   0.3816177   0.1556965), wk =   0.3333333
        k(    6) = (   0.0000000   0.3816177  -0.3113931), wk =   0.1666667
        k(    7) = (  -0.4957359  -0.2862133   0.0000000), wk =   0.0833333
        k(    8) = (  -0.4957359  -0.2862133   0.1556965), wk =   0.1666667
        k(    9) = (  -0.4957359  -0.2862133  -0.3113931), wk =   0.0833333
        k(   10) = (  -0.4957359   0.0954044   0.0000000), wk =   0.1666667
        k(   11) = (  -0.4957359   0.0954044   0.1556965), wk =   0.3333333
        k(   12) = (  -0.4957359   0.0954044  -0.3113931), wk =   0.1666667

[...]

     The maximum number of steps has been reached.

     End of BFGS Geometry Optimization
Begin final coordinates
     new unit-cell volume =   1382.36916 a.u.^3 (   204.84597 Ang^3 )

CELL_PARAMETERS (alat=  9.92348860)
   1.008601517   0.000000000   0.000000000
  -0.504300758   0.873474536   0.000000000
   0.000000000   0.000000000   1.605687574

ATOMIC_POSITIONS (crystal)
Mg       0.333333000   0.666667000   0.063482932
Mg       0.666667000   0.333333000   0.563482932
Mg       0.666667000   0.333333000   0.936517068
Mg       0.333333000   0.666667000   0.436517068
Zn       0.000000000   0.000000000   0.000000000
Zn       0.000000000   0.000000000   0.500000000
Zn       0.174136165   0.348272330   0.750000000
Zn       0.825863835   0.174136165   0.250000000
Zn       0.348272330   0.174136165   0.250000000
Zn       0.651727670   0.825863835   0.750000000
Zn       0.174136165   0.825863835   0.750000000
Zn       0.825863835   0.651727670   0.250000000
End final coordinates

     A final scf calculation at the relaxed structure.
     The G-vectors are recalculated for the final unit cell
     Results may differ from those at the preceding step.

     bravais-lattice index     =            0
     lattice parameter (alat)  =       9.9235  a.u.
     unit-cell volume          =    1382.3692 (a.u.)^3
     number of atoms/cell      =           12
     number of atomic types    =            2
     number of electrons       =       260.00
     number of Kohn-Sham states=          156
     kinetic-energy cutoff     =      40.0000  Ry
     charge density cutoff     =     160.0000  Ry
     convergence threshold     =      2.0E-05
     mixing beta               =       0.7000
     number of iterations used =            8  plain     mixing
     Exchange-correlation      = SLA-PZ-NOGX-NOGC ( 1 1 0 0 0)
     EXX-fraction              =        0.00

     celldm(1)=   9.923489  celldm(2)=   0.000000  celldm(3)=   0.000000
     celldm(4)=   0.000000  celldm(5)=   0.000000  celldm(6)=   0.000000

     crystal axes: (cart. coord. in units of alat)
               a(1) = (   1.008602   0.000000   0.000000 )
               a(2) = (  -0.504301   0.873475   0.000000 )
               a(3) = (   0.000000   0.000000   1.605688 )

     reciprocal axes: (cart. coord. in units 2 pi/alat)
               b(1) = (  0.991472  0.572427  0.000000 )
               b(2) = (  0.000000  1.144853  0.000000 )
               b(3) = (  0.000000  0.000000  0.622786 )

     PseudoPot. # 1 for Tb read from file:
     /home/cwx6513/pp.La/Tb.UPF
     MD5 check sum: 3d6088a3f0cf7fd2e110c43f7f8e95c2
     Pseudo is Norm-conserving, Zval = 19.0
     Generated in analytical, separable form
     Using radial grid of 1263 points,  6 beta functions with:
                l(1) =   0
                l(2) =   0
                l(3) =   1
                l(4) =   1
                l(5) =   2
                l(6) =   3

     PseudoPot. # 2 for Tm read from file:
     /home/cwx6513/pp.La/Tm.UPF
     MD5 check sum: 245516e0878b5372ceeb9443ded2c4e1
     Pseudo is Norm-conserving, Zval = 23.0
     Generated in analytical, separable form
     Using radial grid of 1269 points,  6 beta functions with:
                l(1) =   0
                l(2) =   0
                l(3) =   1
                l(4) =   1
                l(5) =   2
                l(6) =   3

     atomic species   valence    mass     pseudopotential
        Mg            19.00    24.30500     Tb( 1.00)
        Zn            23.00    65.39000     Tm( 1.00)

     24 Sym. Ops., with inversion, found (12 have fractional translation)

   Cartesian axes

     site n.     atom                  positions (alat units)
         1           Mg  tau(   1) = (  -0.0000005   0.5823166   0.1019338  )
         2           Mg  tau(   2) = (   0.5043013   0.2911579   0.9047775  )
         3           Mg  tau(   3) = (   0.5043013   0.2911579   1.5037538  )
         4           Mg  tau(   4) = (  -0.0000005   0.5823166   0.7009100  )
         5           Zn  tau(   5) = (   0.0000000   0.0000000   0.0000000  )
         6           Zn  tau(   6) = (   0.0000000   0.0000000   0.8028438  )
         7           Zn  tau(   7) = (   0.0000000   0.3042070   1.2042657  )
         8           Zn  tau(   8) = (   0.7451505   0.1521035   0.4014219  )
         9           Zn  tau(   9) = (   0.2634510   0.1521035   0.4014219  )
        10           Zn  tau(  10) = (   0.2408498   0.7213710   1.2042657  )
        11           Zn  tau(  11) = (  -0.2408498   0.7213710   1.2042657  )
        12           Zn  tau(  12) = (   0.5043008   0.5692675   0.4014219  )

     number of k points=    12  gaussian smearing, width (Ry)=  0.1000
                       cart. coord. in units 2pi/alat
        k(    1) = (   0.0000000   0.0000000   0.0000000), wk =   0.0833333
        k(    2) = (   0.0000000   0.0000000   0.1556965), wk =   0.1666667
        k(    3) = (   0.0000000   0.0000000  -0.3113931), wk =   0.0833333
        k(    4) = (   0.0000000   0.3816177   0.0000000), wk =   0.1666667
        k(    5) = (   0.0000000   0.3816177   0.1556965), wk =   0.3333333
        k(    6) = (   0.0000000   0.3816177  -0.3113931), wk =   0.1666667
        k(    7) = (  -0.4957359  -0.2862133   0.0000000), wk =   0.0833333
        k(    8) = (  -0.4957359  -0.2862133   0.1556965), wk =   0.1666667
        k(    9) = (  -0.4957359  -0.2862133  -0.3113931), wk =   0.0833333
        k(   10) = (  -0.4957359   0.0954044   0.0000000), wk =   0.1666667
        k(   11) = (  -0.4957359   0.0954044   0.1556965), wk =   0.3333333
        k(   12) = (  -0.4957359   0.0954044  -0.3113931), wk =   0.1666667

     Largest allocated arrays     est. size (Mb)     dimensions
     Largest temporary arrays     est. size (Mb)     dimensions

     Initial potential from superposition of free atoms

     Starting from uniform charge
     Starting wfc are    0 randomized atomic wfcs

     Writing output data file Prototype-La-hP12-MgZn2.save

     Self-consistent Calculation

[...]

     iteration #  9     ecut=    40.00 Ry     beta=0.70
     CG style diagonalization
     c_bands:  1 eigenvalues not converged
     c_bands:  1 eigenvalues not converged
     c_bands:  2 eigenvalues not converged
     c_bands:  1 eigenvalues not converged
     c_bands:  1 eigenvalues not converged
     c_bands:  1 eigenvalues not converged
     ethr =  3.48E-06,  avg # of iterations =  4.2

[...]

     total energy              =   -3851.61693262 Ry
     Harris-Foulkes estimate   =   -3851.61697013 Ry
     estimated scf accuracy    <       0.00007872 Ry

     iteration # 11     ecut=    40.00 Ry     beta=0.70
     CG style diagonalization
     ethr =  3.03E-08,  avg # of iterations =  3.7

     End of self-consistent calculation

[...]

          k = 0.0000 0.3816-0.3114 (  5920 PWs)   bands (ev):

[...]

          k =-0.4957 0.0954-0.3114 (  5914 PWs)   bands (ev):

   -78.3752 -78.3752 -78.3323 -78.3323 -78.3267 -78.3266 -78.2120 -78.2120
   -41.9095 -41.9093 -41.9028 -41.9026 -37.5756 -37.5756 -37.3886 -37.3885
   -37.2156 -37.2156 -37.2051 -37.2051 -37.1083 -37.1083 -37.0780 -37.0780
   -37.0440 -37.0440 -36.9935 -36.9934 -36.9223 -36.9222 -36.9069 -36.9069
   -36.8461 -36.8461 -36.8345 -36.8345 -10.4418 -10.4416 -10.3961 -10.3961
   -10.3654 -10.3653 -10.3135 -10.3133 -10.2794 -10.2794 -10.2561 -10.2561
     9.3156   9.3156   9.7986   9.7986  10.0451  10.0452  10.2064  10.2064
    10.3175  10.3175  10.7019  10.7019  11.0403  11.0403  11.2442  11.2442
    11.4079  11.4079  11.5009  11.5009  11.7144  11.7144  11.7895  11.7895
    11.9784  11.9784  12.2278  12.2278  12.3248  12.3248  12.5132  12.5132
    12.5381  12.5381  12.6011  12.6011  12.7802  12.7802  13.2394  13.2394
    17.6455  17.6455  19.4360  19.4361  22.5989  22.5989  23.1717  23.1717
    25.1517  25.1517  25.6551  25.6552  25.9139  25.9140  26.1118  26.1118
    26.4664  26.4665  26.9090  26.9091  27.3910  27.3911  27.6227  27.6227
    27.9554  27.9555  28.1461  28.1461  29.2523  29.2523  29.9764  29.9764
    31.1520  31.1520  31.8897  31.8898  33.6078  33.6078  34.2600  34.2600
    34.5804  34.5804  35.5361  35.5361  36.0928  36.0928  36.6311  36.6311
    37.2515  37.2515  37.5697  37.5697  38.1998  38.1999  38.4583  38.4583
    39.1173  39.1174  39.2551  39.2551  39.5736  39.5736  40.4337  40.4338
    40.7235  40.7235  41.1018  41.1022

     the Fermi energy is    34.9087 ev

!    total energy              =   -3851.61695397 Ry
     Harris-Foulkes estimate   =   -3851.61695643 Ry
     estimated scf accuracy    <       0.00000324 Ry

     The total energy is the sum of the following terms:

     one-electron contribution =    -842.52550290 Ry
     hartree contribution      =     624.65022926 Ry
     xc contribution           =    -332.35112075 Ry
     ewald contribution        =   -3301.01027158 Ry
     smearing contrib. (-TS)   =      -0.38028800 Ry

     convergence has been achieved in  11 iterations

     Forces acting on atoms (Ry/au):

     atom    1 type  1   force =     0.00000000    0.00000000    0.02769807
     atom    2 type  1   force =     0.00000000    0.00000000    0.02769807
     atom    3 type  1   force =     0.00000000    0.00000000   -0.02769807
     atom    4 type  1   force =     0.00000000    0.00000000   -0.02769807
     atom    5 type  2   force =     0.00000000    0.00000000    0.00000000
     atom    6 type  2   force =     0.00000000    0.00000000    0.00000000
     atom    7 type  2   force =     0.00000000   -0.05024029    0.00000000
     atom    8 type  2   force =     0.04350937   -0.02512015    0.00000000
     atom    9 type  2   force =    -0.04350937   -0.02512015    0.00000000
     atom   10 type  2   force =     0.04350937    0.02512015    0.00000000
     atom   11 type  2   force =    -0.04350937    0.02512015    0.00000000
     atom   12 type  2   force =     0.00000000    0.05024029    0.00000000

     Total force =     0.134956     Total SCF correction =     0.000000

     entering subroutine stress ...

          total   stress  (Ry/bohr**3)                   (kbar)     P= 1029.13
   0.00723049   0.00000000   0.00000000       1063.64      0.00      0.00
   0.00000000   0.00723049   0.00000000          0.00   1063.64      0.00
   0.00000000   0.00000000   0.00652666          0.00      0.00    960.10

     Writing output data file Prototype-La-hP12-MgZn2.save

     General routines

     Parallel routines

   This run was terminated on:  18:11:52  22Mar2018

   JOB DONE.