     Program PWSCF v.5.0.2 starts on 22Mar2018 at 17:38:36

     Current dimensions of program PWSCF are:
     Max number of different atomic species (ntypx) = 10
     Max number of k-points (npk) =  40000
     Max angular momentum in pseudopotentials (lmaxx) =  3
     Waiting for input...
     Reading input from standard input

     Subspace diagonalization in iterative solution of the eigenvalue problem:
     a serial algorithm will be used

     bravais-lattice index     =            0
     lattice parameter (alat)  =       8.8008  a.u.
     unit-cell volume          =    1116.9454 (a.u.)^3
     number of atoms/cell      =           16
     number of atomic types    =            2
     number of electrons       =       320.00
     number of Kohn-Sham states=          192
     kinetic-energy cutoff     =      40.0000  Ry
     charge density cutoff     =     160.0000  Ry
     convergence threshold     =      1.0E-04
     mixing beta               =       0.7000
     number of iterations used =            8  plain     mixing
     Exchange-correlation      = SLA-PZ-NOGX-NOGC ( 1 1 0 0 0)
     EXX-fraction              =        0.00
     nstep                     =           50

     celldm(1)=   8.800765  celldm(2)=   0.000000  celldm(3)=   0.000000
     celldm(4)=   0.000000  celldm(5)=   0.000000  celldm(6)=   0.000000

     crystal axes: (cart. coord. in units of alat)
               a(1) = (   1.000000   0.000000   0.000000 )
               a(2) = (   0.000000   1.083771   0.000000 )
               a(3) = (   0.000000   0.000000   1.511935 )

     reciprocal axes: (cart. coord. in units 2 pi/alat)
               b(1) = (  1.000000  0.000000  0.000000 )
               b(2) = (  0.000000  0.922704  0.000000 )
               b(3) = (  0.000000  0.000000  0.661404 )

     PseudoPot. # 1 for Tb read from file:
     /home/jld5415/pp.La/Tb.UPF
     MD5 check sum: 3d6088a3f0cf7fd2e110c43f7f8e95c2
     Pseudo is Norm-conserving, Zval = 19.0
     Generated in analytical, separable form
     Using radial grid of 1263 points,  6 beta functions with:
                l(1) =   0
                l(2) =   0
                l(3) =   1
                l(4) =   1
                l(5) =   2
                l(6) =   3

     PseudoPot. # 2 for Tm read from file:
     /home/jld5415/pp.La/Tm.UPF
     MD5 check sum: 245516e0878b5372ceeb9443ded2c4e1
     Pseudo is Norm-conserving, Zval = 23.0
     Generated in analytical, separable form
     Using radial grid of 1269 points,  6 beta functions with:
                l(1) =   0
                l(2) =   0
                l(3) =   1
                l(4) =   1
                l(5) =   2
                l(6) =   3

     atomic species   valence    mass     pseudopotential
        Fe            19.00    55.84500     Tb( 1.00)
        C             23.00    12.01070     Tm( 1.00)

      8 Sym. Ops., with inversion, found ( 6 have fractional translation)

   Cartesian axes

     site n.     atom                  positions (alat units)
         1           Fe  tau(   1) = (   0.3472940   0.1827628   1.3947267  )
         2           Fe  tau(   2) = (   0.1527060   0.7246484   0.8731757  )
         3           Fe  tau(   3) = (   0.8472940   0.3591227   0.6387592  )
         4           Fe  tau(   4) = (   0.3396640   0.4879235   0.3779837  )
         5           Fe  tau(   5) = (   0.1527060   0.7246484   1.3947267  )
         6           Fe  tau(   6) = (   0.3472940   0.1827628   0.8731757  )
         7           Fe  tau(   7) = (   0.1603360   1.0298091   0.3779837  )
         8           Fe  tau(   8) = (   0.6527060   0.9010083   0.6387592  )
         9           Fe  tau(   9) = (   0.8472940   0.3591227   0.1172082  )
        10           Fe  tau(  10) = (   0.6603360   0.5958476   1.1339512  )
        11           Fe  tau(  11) = (   0.6527060   0.9010083   0.1172082  )
        12           Fe  tau(  12) = (   0.8396640   0.0539620   1.1339512  )
        13           C   tau(  13) = (   0.0000000   0.0000000   0.0000000  )
        14           C   tau(  14) = (   0.5000000   0.5418856   0.0000000  )
        15           C   tau(  15) = (   0.5000000   0.5418856   0.7559674  )
        16           C   tau(  16) = (   0.0000000   0.0000000   0.7559674  )

     number of k points=    12  gaussian smearing, width (Ry)=  0.1000
                       cart. coord. in units 2pi/alat
        k(    1) = (   0.0000000   0.0000000   0.0000000), wk =   0.0833333
        k(    2) = (   0.0000000   0.0000000   0.1653510), wk =   0.1666667
        k(    3) = (   0.0000000   0.0000000  -0.3307021), wk =   0.0833333
        k(    4) = (   0.0000000   0.3075680   0.0000000), wk =   0.1666667
        k(    5) = (   0.0000000   0.3075680   0.1653510), wk =   0.3333333
        k(    6) = (   0.0000000   0.3075680  -0.3307021), wk =   0.1666667
        k(    7) = (  -0.5000000   0.0000000   0.0000000), wk =   0.0833333
        k(    8) = (  -0.5000000   0.0000000   0.1653510), wk =   0.1666667
        k(    9) = (  -0.5000000   0.0000000  -0.3307021), wk =   0.0833333
        k(   10) = (  -0.5000000   0.3075680   0.0000000), wk =   0.1666667
        k(   11) = (  -0.5000000   0.3075680   0.1653510), wk =   0.3333333
        k(   12) = (  -0.5000000   0.3075680  -0.3307021), wk =   0.1666667

     Largest allocated arrays     est. size (Mb)     dimensions
     Largest temporary arrays     est. size (Mb)     dimensions

     Initial potential from superposition of free atoms

     Starting from uniform charge
     Starting wfc are    0 randomized atomic wfcs

     Self-consistent Calculation

     iteration #  1     ecut=    40.00 Ry     beta=0.70
     CG style diagonalization
     ethr =  1.00E-02,  avg # of iterations = 19.8

     total energy              =   -2989.59437468 Ry
     Harris-Foulkes estimate   =   -5341.87989982 Ry
     estimated scf accuracy    <    2786.43238707 Ry

[...]

     iteration #  3     ecut=    40.00 Ry     beta=0.70
     CG style diagonalization
     c_bands:  1 eigenvalues not converged
     c_bands:  1 eigenvalues not converged
     c_bands:  1 eigenvalues not converged
     c_bands:  1 eigenvalues not converged
     c_bands:  1 eigenvalues not converged
     c_bands:  1 eigenvalues not converged
     c_bands:  1 eigenvalues not converged
     ethr =  1.00E-02,  avg # of iterations = 11.8

[...]

     End of self-consistent calculation

          k = 0.0000 0.0000 0.0000 (  4785 PWs)   bands (ev):

   -62.2646 -62.2575 -62.2061 -62.1716 -28.2269 -28.2090 -28.1098 -28.0911
   -27.6739 -27.5810 -27.1133 -27.1047 -26.9553 -26.9402 -26.5815 -26.4661
   -22.7315 -22.7239 -22.6819 -22.6796 -22.3721 -22.3558 -20.5895 -20.5829
   -20.5757 -20.5579 -20.5455 -20.5336   0.7840   0.8721   1.1226   1.2522
     1.4632   1.8864   2.9567   3.3767   3.5051   3.5925   3.6148   3.6574
     3.7278   3.8393   4.0553   4.1255   4.1798   4.1993   4.3748   4.6806
     4.7531   4.9325   5.0980   5.1037   5.1259   5.1350   5.1999   5.3072
     5.3434   5.3537   5.7084   5.7507   5.9523   5.9550   5.9789   6.1187
    22.5433  22.7107  23.1726  23.4858  23.5029  23.6096  23.7540  23.8656
    24.7670  24.9680  25.0330  25.4251  26.2033  26.7052  26.7577  26.8021
    26.8130  28.6487  28.7669  28.8766  35.2596  35.5642  36.0492  36.3618
    37.0046  37.0165  37.2229  37.4573  38.0646  38.1225  38.1750  38.3679
    38.6191  38.8346  38.9218  38.9558  39.0977  39.2125  39.5777  39.5805
    39.5970  39.7005  39.7757  40.0041  40.0933  40.3721  40.8713  41.2651
    41.2719  41.5280  41.5801  41.5857  41.9909  42.2927  42.3245  42.6633
    42.7422  43.1873  43.2885  43.3008  43.3277  43.6240  44.6099  44.6970
    44.7171  45.1958  45.3132  45.4149  45.5046  45.6958  46.0242  46.1493
    46.2331  46.5307  46.5622  46.6581  46.6612  46.9295  47.1508  47.5509
    48.1426  48.9667  49.6230  49.7816  50.1812  52.5822  52.7507  53.0364
    53.9670  53.9821  53.9912  54.3757  54.5610  55.0518  55.5526  55.8210
    55.8550  56.2912  56.3983  56.5980  56.8138  56.8322  56.9346  57.4997
    57.8481  57.9403  58.0504  58.5789  58.6409  58.7479  59.3576  59.6239
    59.8748  60.5600  60.9827  61.0192  61.0231  61.2219  61.2767  61.4113
    61.4264  61.9605  62.0266  62.1301  62.2615  62.3329  63.0573  63.2788

[...]

          k =-0.5000 0.0000 0.0000 (  4798 PWs)   bands (ev):

[...]

     the Fermi energy is    56.3379 ev

!    total energy              =   -4178.43685672 Ry
     Harris-Foulkes estimate   =   -4178.43693769 Ry
     estimated scf accuracy    <       0.00009543 Ry

     The total energy is the sum of the following terms:

     one-electron contribution =    -120.63104852 Ry
     hartree contribution      =     563.92399548 Ry
     xc contribution           =    -413.90704764 Ry
     ewald contribution        =   -4207.36059316 Ry
     smearing contrib. (-TS)   =      -0.46216288 Ry

     convergence has been achieved in  85 iterations

     Forces acting on atoms (Ry/au):

     atom    1 type  1   force =     1.11598778   -1.19853432   -1.54000735
     atom    2 type  1   force =    -1.11598778   -1.19853432    1.54000735
     atom    3 type  1   force =     1.11598778    1.19853432   -1.54000735
     atom    4 type  1   force =    -1.87508729   -0.68909567    0.00000000
     atom    5 type  1   force =    -1.11598778   -1.19853432   -1.54000735
     atom    6 type  1   force =     1.11598778   -1.19853432    1.54000735
     atom    7 type  1   force =     1.87508729   -0.68909567    0.00000000
     atom    8 type  1   force =    -1.11598778    1.19853432   -1.54000735
     atom    9 type  1   force =     1.11598778    1.19853432    1.54000735
     atom   10 type  1   force =     1.87508729    0.68909567    0.00000000
     atom   11 type  1   force =    -1.11598778    1.19853432    1.54000735
     atom   12 type  1   force =    -1.87508729    0.68909567    0.00000000
     atom   13 type  2   force =     0.00000000    0.00000000    0.00000000
     atom   14 type  2   force =     0.00000000    0.00000000    0.00000000
     atom   15 type  2   force =     0.00000000    0.00000000    0.00000000
     atom   16 type  2   force =     0.00000000    0.00000000    0.00000000

     Total force =     7.509428     Total SCF correction =     0.000000

     entering subroutine stress ...

          total   stress  (Ry/bohr**3)                   (kbar)     P=12466.64
   0.08528988   0.00000000   0.00000000      12546.57      0.00      0.00
   0.00000000   0.08581267   0.00000000          0.00  12623.48      0.00
   0.00000000   0.00000000   0.08313690          0.00      0.00  12229.86

     number of scf cycles    =   3
     number of bfgs steps    =   1

     enthalpy old            =   -4178.4371444948 Ry
     enthalpy new            =   -4178.4368567193 Ry

     CASE: enthalpy_new > enthalpy_old

     new trust radius        =       0.0000000000 bohr

     trust_radius < trust_radius_min

     resetting bfgs history

     Message from routine bfgs:
     history already reset at previous step: stopping
     new conv_thr            =       0.0001000000 Ry

     new unit-cell volume =   1383.16587 a.u.^3 (   204.96403 Ang^3 )

CELL_PARAMETERS (alat=  8.80076499)
   1.074354456   0.000000000   0.000000000
   0.000000000   1.164841411   0.000000000
   0.000000000   0.000000000   1.621431479

ATOMIC_POSITIONS (crystal)
Fe       0.351849080   0.164169576   0.918361853
Fe       0.148150920   0.664169576   0.581638147
Fe       0.851849080   0.335830424   0.418361853
Fe       0.331989449   0.447673443   0.250000000
Fe       0.148150920   0.664169576   0.918361853
Fe       0.351849080   0.164169576   0.581638147
Fe       0.168010551   0.947673443   0.250000000
Fe       0.648150920   0.835830424   0.418361853
Fe       0.851849080   0.335830424   0.081638147
Fe       0.668010551   0.552326557   0.750000000
Fe       0.648150920   0.835830424   0.081638147
Fe       0.831989449   0.052326557   0.750000000
C        0.000000000   0.000000000   0.000000000
C        0.500000000   0.500000000   0.000000000
C        0.500000000   0.500000000   0.500000000
C        0.000000000   0.000000000   0.500000000

     Writing output data file Prototype-La-oP16-Fe3C.save
     NEW-OLD atomic charge density approx. for the potential
     NEW k-points:
        k(    1) = (   0.0000000   0.0000000   0.0000000), wk =   0.0833333
        k(    2) = (   0.0000000   0.0000000   0.1541847), wk =   0.1666667
        k(    3) = (   0.0000000   0.0000000  -0.3083695), wk =   0.0833333
        k(    4) = (   0.0000000   0.2861620   0.0000000), wk =   0.1666667
        k(    5) = (   0.0000000   0.2861620   0.1541847), wk =   0.3333333
        k(    6) = (   0.0000000   0.2861620  -0.3083695), wk =   0.1666667
        k(    7) = (  -0.4653958   0.0000000   0.0000000), wk =   0.0833333
        k(    8) = (  -0.4653958   0.0000000   0.1541847), wk =   0.1666667
        k(    9) = (  -0.4653958   0.0000000  -0.3083695), wk =   0.0833333
        k(   10) = (  -0.4653958   0.2861620   0.0000000), wk =   0.1666667
        k(   11) = (  -0.4653958   0.2861620   0.1541847), wk =   0.3333333
        k(   12) = (  -0.4653958   0.2861620  -0.3083695), wk =   0.1666667

[...]

          total   stress  (Ry/bohr**3)                   (kbar)     P= 5247.39
   0.03625380   0.00000000   0.00000000       5333.12      0.00      0.00
   0.00000000   0.03537666   0.00000000          0.00   5204.09      0.00
   0.00000000   0.00000000   0.03538265          0.00      0.00   5204.97

     The maximum number of steps has been reached.

     End of BFGS Geometry Optimization
Begin final coordinates
     new unit-cell volume =   1383.16587 a.u.^3 (   204.96403 Ang^3 )

CELL_PARAMETERS (alat=  8.80076499)
   1.074354456   0.000000000   0.000000000
   0.000000000   1.164841411   0.000000000
   0.000000000   0.000000000   1.621431479

ATOMIC_POSITIONS (crystal)
Fe       0.351849080   0.164169576   0.918361853
Fe       0.148150920   0.664169576   0.581638147
Fe       0.851849080   0.335830424   0.418361853
Fe       0.331989449   0.447673443   0.250000000
Fe       0.148150920   0.664169576   0.918361853
Fe       0.351849080   0.164169576   0.581638147
Fe       0.168010551   0.947673443   0.250000000
Fe       0.648150920   0.835830424   0.418361853
Fe       0.851849080   0.335830424   0.081638147
Fe       0.668010551   0.552326557   0.750000000
Fe       0.648150920   0.835830424   0.081638147
Fe       0.831989449   0.052326557   0.750000000
C        0.000000000   0.000000000   0.000000000
C        0.500000000   0.500000000   0.000000000
C        0.500000000   0.500000000   0.500000000
C        0.000000000   0.000000000   0.500000000
End final coordinates

     A final scf calculation at the relaxed structure.
     The G-vectors are recalculated for the final unit cell
     Results may differ from those at the preceding step.

     bravais-lattice index     =            0
     lattice parameter (alat)  =       8.8008  a.u.
     unit-cell volume          =    1383.1659 (a.u.)^3
     number of atoms/cell      =           16
     number of atomic types    =            2
     number of electrons       =       320.00
     number of Kohn-Sham states=          192
     kinetic-energy cutoff     =      40.0000  Ry
     charge density cutoff     =     160.0000  Ry
     convergence threshold     =      1.0E-04
     mixing beta               =       0.7000
     number of iterations used =            8  plain     mixing
     Exchange-correlation      = SLA-PZ-NOGX-NOGC ( 1 1 0 0 0)
     EXX-fraction              =        0.00

     celldm(1)=   8.800765  celldm(2)=   0.000000  celldm(3)=   0.000000
     celldm(4)=   0.000000  celldm(5)=   0.000000  celldm(6)=   0.000000

     crystal axes: (cart. coord. in units of alat)
               a(1) = (   1.074354   0.000000   0.000000 )
               a(2) = (   0.000000   1.164841   0.000000 )
               a(3) = (   0.000000   0.000000   1.621431 )

     reciprocal axes: (cart. coord. in units 2 pi/alat)
               b(1) = (  0.930792  0.000000  0.000000 )
               b(2) = (  0.000000  0.858486  0.000000 )
               b(3) = (  0.000000  0.000000  0.616739 )

     PseudoPot. # 1 for Tb read from file:
     /home/jld5415/pp.La/Tb.UPF
     MD5 check sum: 3d6088a3f0cf7fd2e110c43f7f8e95c2
     Pseudo is Norm-conserving, Zval = 19.0
     Generated in analytical, separable form
     Using radial grid of 1263 points,  6 beta functions with:
                l(1) =   0
                l(2) =   0
                l(3) =   1
                l(4) =   1
                l(5) =   2
                l(6) =   3

     PseudoPot. # 2 for Tm read from file:
     /home/jld5415/pp.La/Tm.UPF
     MD5 check sum: 245516e0878b5372ceeb9443ded2c4e1
     Pseudo is Norm-conserving, Zval = 23.0
     Generated in analytical, separable form
     Using radial grid of 1269 points,  6 beta functions with:
                l(1) =   0
                l(2) =   0
                l(3) =   1
                l(4) =   1
                l(5) =   2
                l(6) =   3

     atomic species   valence    mass     pseudopotential
        Fe            19.00    55.84500     Tb( 1.00)
        C             23.00    12.01070     Tm( 1.00)

      8 Sym. Ops., with inversion, found ( 6 have fractional translation)

   Cartesian axes

     site n.     atom                  positions (alat units)
         1           Fe  tau(   1) = (   0.3780106   0.1912315   1.4890608  )
         2           Fe  tau(   2) = (   0.1591666   0.7736522   0.9430864  )
         3           Fe  tau(   3) = (   0.9151879   0.3911892   0.6783451  )
         4           Fe  tau(   4) = (   0.3566743   0.5214686   0.4053579  )
         5           Fe  tau(   5) = (   0.1591666   0.7736522   1.4890608  )
         6           Fe  tau(   6) = (   0.3780106   0.1912315   0.9430864  )
         7           Fe  tau(   7) = (   0.1805029   1.1038893   0.4053579  )
         8           Fe  tau(   8) = (   0.6963438   0.9736099   0.6783451  )
         9           Fe  tau(   9) = (   0.9151879   0.3911892   0.1323707  )
        10           Fe  tau(  10) = (   0.7176801   0.6433728   1.2160736  )
        11           Fe  tau(  11) = (   0.6963438   0.9736099   0.1323707  )
        12           Fe  tau(  12) = (   0.8938516   0.0609521   1.2160736  )
        13           C   tau(  13) = (   0.0000000   0.0000000   0.0000000  )
        14           C   tau(  14) = (   0.5371772   0.5824207   0.0000000  )
        15           C   tau(  15) = (   0.5371772   0.5824207   0.8107157  )
        16           C   tau(  16) = (   0.0000000   0.0000000   0.8107157  )

     number of k points=    12  gaussian smearing, width (Ry)=  0.1000
                       cart. coord. in units 2pi/alat
        k(    1) = (   0.0000000   0.0000000   0.0000000), wk =   0.0833333
        k(    2) = (   0.0000000   0.0000000   0.1541847), wk =   0.1666667
        k(    3) = (   0.0000000   0.0000000  -0.3083695), wk =   0.0833333
        k(    4) = (   0.0000000   0.2861620   0.0000000), wk =   0.1666667
        k(    5) = (   0.0000000   0.2861620   0.1541847), wk =   0.3333333
        k(    6) = (   0.0000000   0.2861620  -0.3083695), wk =   0.1666667
        k(    7) = (  -0.4653958   0.0000000   0.0000000), wk =   0.0833333
        k(    8) = (  -0.4653958   0.0000000   0.1541847), wk =   0.1666667
        k(    9) = (  -0.4653958   0.0000000  -0.3083695), wk =   0.0833333
        k(   10) = (  -0.4653958   0.2861620   0.0000000), wk =   0.1666667
        k(   11) = (  -0.4653958   0.2861620   0.1541847), wk =   0.3333333
        k(   12) = (  -0.4653958   0.2861620  -0.3083695), wk =   0.1666667

     Largest allocated arrays     est. size (Mb)     dimensions
     Largest temporary arrays     est. size (Mb)     dimensions

     Initial potential from superposition of free atoms

     Starting from uniform charge
     Starting wfc are    0 randomized atomic wfcs

     Writing output data file Prototype-La-oP16-Fe3C.save

     Self-consistent Calculation

[...]

     iteration #  6     ecut=    40.00 Ry     beta=0.70
     CG style diagonalization
     ethr =  1.26E-03,  avg # of iterations =  3.6

[...]

     total energy              =   -4198.97499267 Ry
     Harris-Foulkes estimate   =   -4198.97509705 Ry
     estimated scf accuracy    <       0.00019405 Ry

     iteration # 10     ecut=    40.00 Ry     beta=0.70
     CG style diagonalization
     c_bands:  2 eigenvalues not converged
     ethr =  6.06E-08,  avg # of iterations =  4.2

     End of self-consistent calculation

[...]

          k = 0.0000 0.2862-0.3084 (  5912 PWs)   bands (ev):

[...]

          k =-0.4654 0.2862-0.3084 (  5884 PWs)   bands (ev):

   -71.2731 -71.2731 -71.2731 -71.2731 -36.0943 -36.0943 -36.0924 -36.0924
   -35.7067 -35.7067 -35.6991 -35.6991 -35.5552 -35.5552 -35.5325 -35.5325
   -30.7685 -30.7685 -30.7664 -30.7664 -30.4194 -30.4194 -30.4186 -30.4186
   -30.2570 -30.2570 -30.2520 -30.2520  -6.2234  -6.2234  -6.2221  -6.2221
    -5.4804  -5.4804  -5.4432  -5.4432  -5.2499  -5.2499  -5.2371  -5.2371
    -4.7258  -4.7258  -4.7250  -4.7250  -4.2629  -4.2629  -4.2459  -4.2459
    -3.9422  -3.9422  -3.9230  -3.9230  -3.7902  -3.7902  -3.7648  -3.7648
    -3.5622  -3.5622  -3.4075  -3.4075  -3.3007  -3.3007  -3.2238  -3.2238
    16.1010  16.1010  16.1041  16.1041  16.5955  16.5955  16.6150  16.6150
    16.8843  16.8843  16.8928  16.8928  17.2934  17.2934  17.3185  17.3185
    17.6542  17.6542  17.6574  17.6574  27.0351  27.0351  27.1668  27.1668
    29.3710  29.3710  29.6563  29.6563  30.0650  30.0650  30.3789  30.3789
    30.4091  30.4091  30.6695  30.6695  30.9283  30.9283  31.1792  31.1792
    31.3883  31.3883  31.4978  31.4978  31.8352  31.8352  31.8532  31.8532
    32.4884  32.4884  32.6346  32.6346  32.8686  32.8686  33.3830  33.3830
    33.8293  33.8293  33.9050  33.9050  34.0806  34.0806  34.3377  34.3377
    34.6027  34.6027  35.2229  35.2229  35.3223  35.3223  35.7866  35.7866
    36.2060  36.2060  36.2186  36.2186  36.4168  36.4168  36.6281  36.6281
    37.1583  37.1583  37.3898  37.3898  38.6345  38.6345  38.6403  38.6403
    40.4379  40.4379  43.0073  43.0073  45.1411  45.1411  45.5175  45.5175
    46.2979  46.2979  46.5006  46.5006  47.3181  47.3181  47.4301  47.4301
    47.7237  47.7237  48.1799  48.1800  49.4453  49.4453  49.7452  49.7452
    49.7825  49.7825  49.9161  49.9162  50.2928  50.2929  50.3793  50.3794
    50.5837  50.5838  50.8125  50.8125  51.6577  51.6578  51.7392  51.7393

     the Fermi energy is    45.5336 ev

!    total energy              =   -4198.97506676 Ry
     Harris-Foulkes estimate   =   -4198.97510482 Ry
     estimated scf accuracy    <       0.00004375 Ry

     The total energy is the sum of the following terms:

     one-electron contribution =    -483.00599586 Ry
     hartree contribution      =     631.08909064 Ry
     xc contribution           =    -402.84986170 Ry
     ewald contribution        =   -3943.81380977 Ry
     smearing contrib. (-TS)   =      -0.39449007 Ry

     convergence has been achieved in  10 iterations

     Forces acting on atoms (Ry/au):

     atom    1 type  1   force =     0.66992561   -0.68412137   -0.85982481
     atom    2 type  1   force =    -0.66992561   -0.68412137    0.85982481
     atom    3 type  1   force =     0.66992561    0.68412137   -0.85982481
     atom    4 type  1   force =    -1.12357763   -0.40707427    0.00000000
     atom    5 type  1   force =    -0.66992561   -0.68412137   -0.85982481
     atom    6 type  1   force =     0.66992561   -0.68412137    0.85982481
     atom    7 type  1   force =     1.12357763   -0.40707427    0.00000000
     atom    8 type  1   force =    -0.66992561    0.68412137   -0.85982481
     atom    9 type  1   force =     0.66992561    0.68412137    0.85982481
     atom   10 type  1   force =     1.12357763    0.40707427    0.00000000
     atom   11 type  1   force =    -0.66992561    0.68412137    0.85982481
     atom   12 type  1   force =    -1.12357763    0.40707427    0.00000000
     atom   13 type  2   force =     0.00000000    0.00000000    0.00000000
     atom   14 type  2   force =     0.00000000    0.00000000    0.00000000
     atom   15 type  2   force =     0.00000000    0.00000000    0.00000000
     atom   16 type  2   force =     0.00000000    0.00000000    0.00000000

     Total force =     4.354482     Total SCF correction =     0.000000

     entering subroutine stress ...

          total   stress  (Ry/bohr**3)                   (kbar)     P= 5874.00
   0.04047739   0.00000000   0.00000000       5954.43      0.00      0.00
   0.00000000   0.03966285   0.00000000          0.00   5834.61      0.00
   0.00000000   0.00000000   0.03965162          0.00      0.00   5832.95

     Writing output data file Prototype-La-oP16-Fe3C.save

     General routines

     Parallel routines

   This run was terminated on:  19:56:38  22Mar2018

   JOB DONE.