     Program PWSCF v.5.0.2 starts on 22Mar2018 at 17:38:31

     Current dimensions of program PWSCF are:
     Max number of different atomic species (ntypx) = 10
     Max number of k-points (npk) =  40000
     Max angular momentum in pseudopotentials (lmaxx) =  3
     Waiting for input...
     Reading input from standard input

     Subspace diagonalization in iterative solution of the eigenvalue problem:
     a serial algorithm will be used

     bravais-lattice index     =            0
     lattice parameter (alat)  =      12.0168  a.u.
     unit-cell volume          =    1187.3413 (a.u.)^3
     number of atoms/cell      =            8
     number of atomic types    =            2
     number of electrons       =       160.00
     number of Kohn-Sham states=           96
     kinetic-energy cutoff     =      40.0000  Ry
     charge density cutoff     =     160.0000  Ry
     convergence threshold     =      1.0E-04
     mixing beta               =       0.7000
     number of iterations used =            8  plain     mixing
     Exchange-correlation      = SLA-PZ-NOGX-NOGC ( 1 1 0 0 0)
     EXX-fraction              =        0.00
     nstep                     =           50

     celldm(1)=  12.016801  celldm(2)=   0.000000  celldm(3)=   0.000000
     celldm(4)=   0.000000  celldm(5)=   0.000000  celldm(6)=   0.000000

     crystal axes: (cart. coord. in units of alat)
               a(1) = (   1.000000   0.000000   0.000000 )
               a(2) = (  -0.500000   0.866025   0.000000 )
               a(3) = (   0.000000   0.000000   0.790093 )

     reciprocal axes: (cart. coord. in units 2 pi/alat)
               b(1) = (  1.000000  0.577350  0.000000 )
               b(2) = (  0.000000  1.154701  0.000000 )
               b(3) = (  0.000000  0.000000  1.265674 )

     PseudoPot. # 1 for Tb read from file:
     /home/cwx6513/pp.La/Tb.UPF
     MD5 check sum: 3d6088a3f0cf7fd2e110c43f7f8e95c2
     Pseudo is Norm-conserving, Zval = 19.0
     Generated in analytical, separable form
     Using radial grid of 1263 points,  6 beta functions with:
                l(1) =   0
                l(2) =   0
                l(3) =   1
                l(4) =   1
                l(5) =   2
                l(6) =   3

     PseudoPot. # 2 for Tm read from file:
     /home/cwx6513/pp.La/Tm.UPF
     MD5 check sum: 245516e0878b5372ceeb9443ded2c4e1
     Pseudo is Norm-conserving, Zval = 23.0
     Generated in analytical, separable form
     Using radial grid of 1269 points,  6 beta functions with:
                l(1) =   0
                l(2) =   0
                l(3) =   1
                l(4) =   1
                l(5) =   2
                l(6) =   3

     atomic species   valence    mass     pseudopotential
        Mg            19.00    24.30500     Tb( 1.00)
        Cd            23.00   112.41100     Tm( 1.00)

     24 Sym. Ops., with inversion, found (12 have fractional translation)

   Cartesian axes

     site n.     atom                  positions (alat units)
         1           Mg  tau(   1) = (   0.2478935   0.7204716   0.1975233  )
         2           Mg  tau(   2) = (   0.7478935   0.1455538   0.5925699  )
         3           Mg  tau(   3) = (   0.2521065   0.1455538   0.5925699  )
         4           Mg  tau(   4) = (  -0.2478935   0.7204716   0.1975233  )
         5           Mg  tau(   5) = (   0.0000000   0.2911075   0.1975233  )
         6           Mg  tau(   6) = (   0.5000000   0.5749179   0.5925699  )
         7           Cd  tau(   7) = (   0.5000005   0.2886748   0.1975233  )
         8           Cd  tau(   8) = (  -0.0000005   0.5773506   0.5925699  )

     number of k points=    64  gaussian smearing, width (Ry)=  0.1000
                       cart. coord. in units 2pi/alat
        k(    1) = (   0.0000000   0.0000000   0.0000000), wk =   0.0095238
        k(    2) = (   0.0000000   0.0000000   0.1808105), wk =   0.0190476
        k(    3) = (   0.0000000   0.0000000   0.3616210), wk =   0.0190476
        k(    4) = (   0.0000000   0.0000000   0.5424315), wk =   0.0190476
        k(    5) = (   0.0000000   0.1924501   0.0000000), wk =   0.0190476
        k(    6) = (   0.0000000   0.1924501   0.1808105), wk =   0.0380952
        k(    7) = (   0.0000000   0.1924501   0.3616210), wk =   0.0380952
        k(    8) = (   0.0000000   0.1924501   0.5424315), wk =   0.0380952
        k(    9) = (   0.0000000   0.3849002   0.0000000), wk =   0.0190476
        k(   10) = (   0.0000000   0.3849002   0.1808105), wk =   0.0380952
        k(   11) = (   0.0000000   0.3849002   0.3616210), wk =   0.0380952
        k(   12) = (   0.0000000   0.3849002   0.5424315), wk =   0.0380952
        k(   13) = (   0.0000000  -0.5773503   0.0000000), wk =   0.0095238
        k(   14) = (   0.0000000  -0.5773503   0.1808105), wk =   0.0190476
        k(   15) = (   0.0000000  -0.5773503   0.3616210), wk =   0.0190476
        k(   16) = (   0.0000000  -0.5773503   0.5424315), wk =   0.0190476
        k(   17) = (   0.2000000   0.1154701   0.0000000), wk =   0.0190476
        k(   18) = (   0.2000000   0.1154701   0.1808105), wk =   0.0380952
        k(   19) = (   0.2000000   0.1154701   0.3616210), wk =   0.0380952
        k(   20) = (   0.2000000   0.1154701   0.5424315), wk =   0.0380952
        k(   21) = (   0.2000000   0.3079201   0.0000000), wk =   0.0190476
        k(   22) = (   0.2000000   0.3079201   0.1808105), wk =   0.0380952
        k(   23) = (   0.2000000   0.3079201   0.3616210), wk =   0.0380952
        k(   24) = (   0.2000000   0.3079201   0.5424315), wk =   0.0380952
        k(   25) = (   0.2000000   0.5003702   0.0000000), wk =   0.0190476
        k(   26) = (   0.2000000   0.5003702   0.1808105), wk =   0.0380952
        k(   27) = (   0.2000000   0.5003702   0.3616210), wk =   0.0380952
        k(   28) = (   0.2000000   0.5003702   0.5424315), wk =   0.0380952
        k(   29) = (   0.2000000  -0.4618802   0.0000000), wk =   0.0190476
        k(   30) = (   0.2000000  -0.4618802   0.1808105), wk =   0.0380952
        k(   31) = (   0.2000000  -0.4618802   0.3616210), wk =   0.0380952
        k(   32) = (   0.2000000  -0.4618802   0.5424315), wk =   0.0380952
        k(   33) = (   0.2000000  -0.2694301   0.0000000), wk =   0.0190476
        k(   34) = (   0.2000000  -0.2694301   0.1808105), wk =   0.0380952
        k(   35) = (   0.2000000  -0.2694301   0.3616210), wk =   0.0380952
        k(   36) = (   0.2000000  -0.2694301   0.5424315), wk =   0.0380952
        k(   37) = (   0.2000000  -0.0769800   0.0000000), wk =   0.0190476
        k(   38) = (   0.2000000  -0.0769800   0.1808105), wk =   0.0380952
        k(   39) = (   0.2000000  -0.0769800   0.3616210), wk =   0.0380952
        k(   40) = (   0.2000000  -0.0769800   0.5424315), wk =   0.0380952
        k(   41) = (   0.4000000   0.2309401   0.0000000), wk =   0.0190476
        k(   42) = (   0.4000000   0.2309401   0.1808105), wk =   0.0380952
        k(   43) = (   0.4000000   0.2309401   0.3616210), wk =   0.0380952
        k(   44) = (   0.4000000   0.2309401   0.5424315), wk =   0.0380952
        k(   45) = (   0.4000000   0.4233902   0.0000000), wk =   0.0190476
        k(   46) = (   0.4000000   0.4233902   0.1808105), wk =   0.0380952
        k(   47) = (   0.4000000   0.4233902   0.3616210), wk =   0.0380952
        k(   48) = (   0.4000000   0.4233902   0.5424315), wk =   0.0380952
        k(   49) = (   0.4000000   0.6158403   0.0000000), wk =   0.0190476
        k(   50) = (   0.4000000   0.6158403   0.1808105), wk =   0.0380952
        k(   51) = (   0.4000000   0.6158403   0.3616210), wk =   0.0380952
        k(   52) = (   0.4000000   0.6158403   0.5424315), wk =   0.0380952
        k(   53) = (   0.4000000  -0.3464102   0.0000000), wk =   0.0190476
        k(   54) = (   0.4000000  -0.3464102   0.1808105), wk =   0.0380952
        k(   55) = (   0.4000000  -0.3464102   0.3616210), wk =   0.0380952
        k(   56) = (   0.4000000  -0.3464102   0.5424315), wk =   0.0380952
        k(   57) = (   0.4000000  -0.1539601   0.0000000), wk =   0.0190476
        k(   58) = (   0.4000000  -0.1539601   0.1808105), wk =   0.0380952
        k(   59) = (   0.4000000  -0.1539601   0.3616210), wk =   0.0380952
        k(   60) = (   0.4000000  -0.1539601   0.5424315), wk =   0.0380952
        k(   61) = (   0.4000000   0.0384900   0.0000000), wk =   0.0190476
        k(   62) = (   0.4000000   0.0384900   0.1808105), wk =   0.0380952
        k(   63) = (   0.4000000   0.0384900   0.3616210), wk =   0.0380952
        k(   64) = (   0.4000000   0.0384900   0.5424315), wk =   0.0380952

     Largest allocated arrays     est. size (Mb)     dimensions
     Largest temporary arrays     est. size (Mb)     dimensions

     Initial potential from superposition of free atoms

     Starting from uniform charge
     Starting wfc are    0 randomized atomic wfcs

     Self-consistent Calculation

     iteration #  1     ecut=    40.00 Ry     beta=0.70
     CG style diagonalization
     c_bands:  5 eigenvalues not converged
     c_bands:  5 eigenvalues not converged
     c_bands:  5 eigenvalues not converged
     c_bands:  3 eigenvalues not converged
     c_bands:  3 eigenvalues not converged
     c_bands:  5 eigenvalues not converged
     c_bands:  4 eigenvalues not converged
     c_bands:  4 eigenvalues not converged
     c_bands:  5 eigenvalues not converged
     c_bands:  5 eigenvalues not converged
     c_bands:  5 eigenvalues not converged
     c_bands:  5 eigenvalues not converged
     c_bands:  5 eigenvalues not converged
     c_bands:  5 eigenvalues not converged
     c_bands:  4 eigenvalues not converged
     c_bands:  5 eigenvalues not converged
     c_bands:  5 eigenvalues not converged
     c_bands:  5 eigenvalues not converged
     c_bands:  3 eigenvalues not converged
     c_bands:  2 eigenvalues not converged
     c_bands:  5 eigenvalues not converged
     c_bands:  4 eigenvalues not converged
     c_bands:  5 eigenvalues not converged
     c_bands:  4 eigenvalues not converged
     c_bands:  5 eigenvalues not converged
     c_bands:  4 eigenvalues not converged
     c_bands:  4 eigenvalues not converged
     c_bands:  4 eigenvalues not converged
     c_bands:  4 eigenvalues not converged
     c_bands:  3 eigenvalues not converged
     c_bands:  4 eigenvalues not converged
     c_bands:  4 eigenvalues not converged
     c_bands:  5 eigenvalues not converged
     c_bands:  5 eigenvalues not converged
     c_bands:  4 eigenvalues not converged
     c_bands:  4 eigenvalues not converged
     c_bands:  1 eigenvalues not converged
     c_bands:  3 eigenvalues not converged
     c_bands:  5 eigenvalues not converged
     c_bands:  5 eigenvalues not converged
     c_bands:  4 eigenvalues not converged
     c_bands:  5 eigenvalues not converged
     c_bands:  3 eigenvalues not converged
     c_bands:  5 eigenvalues not converged
     c_bands:  3 eigenvalues not converged
     c_bands:  3 eigenvalues not converged
     c_bands:  4 eigenvalues not converged
     c_bands:  5 eigenvalues not converged
     c_bands:  4 eigenvalues not converged
     c_bands:  5 eigenvalues not converged
[...]
        k(   13) = (   0.0000000  -0.5833740   0.0000000), wk =   0.0095238
        k(   14) = (   0.0000000  -0.5833740   0.1795528), wk =   0.0190476
        k(   15) = (   0.0000000  -0.5833740   0.3591057), wk =   0.0190476
        k(   16) = (   0.0000000  -0.5833740   0.5386585), wk =   0.0190476
        k(   17) = (   0.2020867   0.1166748   0.0000000), wk =   0.0190476
        k(   18) = (   0.2020867   0.1166748   0.1795528), wk =   0.0380952
        k(   19) = (   0.2020867   0.1166748   0.3591057), wk =   0.0380952
        k(   20) = (   0.2020867   0.1166748   0.5386585), wk =   0.0380952
        k(   21) = (   0.2020867   0.3111328   0.0000000), wk =   0.0190476
        k(   22) = (   0.2020867   0.3111328   0.1795528), wk =   0.0380952
        k(   23) = (   0.2020867   0.3111328   0.3591057), wk =   0.0380952
        k(   24) = (   0.2020867   0.3111328   0.5386585), wk =   0.0380952
        k(   25) = (   0.2020867   0.5055908   0.0000000), wk =   0.0190476
        k(   26) = (   0.2020867   0.5055908   0.1795528), wk =   0.0380952
        k(   27) = (   0.2020867   0.5055908   0.3591057), wk =   0.0380952
        k(   28) = (   0.2020867   0.5055908   0.5386585), wk =   0.0380952
        k(   29) = (   0.2020867  -0.4666992   0.0000000), wk =   0.0190476
        k(   30) = (   0.2020867  -0.4666992   0.1795528), wk =   0.0380952
        k(   31) = (   0.2020867  -0.4666992   0.3591057), wk =   0.0380952
        k(   32) = (   0.2020867  -0.4666992   0.5386585), wk =   0.0380952
        k(   33) = (   0.2020867  -0.2722412   0.0000000), wk =   0.0190476
        k(   34) = (   0.2020867  -0.2722412   0.1795528), wk =   0.0380952
        k(   35) = (   0.2020867  -0.2722412   0.3591057), wk =   0.0380952
        k(   36) = (   0.2020867  -0.2722412   0.5386585), wk =   0.0380952
        k(   37) = (   0.2020867  -0.0777832   0.0000000), wk =   0.0190476
        k(   38) = (   0.2020867  -0.0777832   0.1795528), wk =   0.0380952
        k(   39) = (   0.2020867  -0.0777832   0.3591057), wk =   0.0380952
        k(   40) = (   0.2020867  -0.0777832   0.5386585), wk =   0.0380952
        k(   41) = (   0.4041734   0.2333496   0.0000000), wk =   0.0190476
        k(   42) = (   0.4041734   0.2333496   0.1795528), wk =   0.0380952
        k(   43) = (   0.4041734   0.2333496   0.3591057), wk =   0.0380952
        k(   44) = (   0.4041734   0.2333496   0.5386585), wk =   0.0380952
        k(   45) = (   0.4041734   0.4278076   0.0000000), wk =   0.0190476
        k(   46) = (   0.4041734   0.4278076   0.1795528), wk =   0.0380952
        k(   47) = (   0.4041734   0.4278076   0.3591057), wk =   0.0380952
        k(   48) = (   0.4041734   0.4278076   0.5386585), wk =   0.0380952
        k(   49) = (   0.4041734   0.6222657   0.0000000), wk =   0.0190476
        k(   50) = (   0.4041734   0.6222657   0.1795528), wk =   0.0380952
        k(   51) = (   0.4041734   0.6222657   0.3591057), wk =   0.0380952
        k(   52) = (   0.4041734   0.6222657   0.5386585), wk =   0.0380952
        k(   53) = (   0.4041734  -0.3500244   0.0000000), wk =   0.0190476
        k(   54) = (   0.4041734  -0.3500244   0.1795528), wk =   0.0380952
        k(   55) = (   0.4041734  -0.3500244   0.3591057), wk =   0.0380952
        k(   56) = (   0.4041734  -0.3500244   0.5386585), wk =   0.0380952
        k(   57) = (   0.4041734  -0.1555664   0.0000000), wk =   0.0190476
        k(   58) = (   0.4041734  -0.1555664   0.1795528), wk =   0.0380952
        k(   59) = (   0.4041734  -0.1555664   0.3591057), wk =   0.0380952
        k(   60) = (   0.4041734  -0.1555664   0.5386585), wk =   0.0380952
        k(   61) = (   0.4041734   0.0388916   0.0000000), wk =   0.0190476
        k(   62) = (   0.4041734   0.0388916   0.1795528), wk =   0.0380952
        k(   63) = (   0.4041734   0.0388916   0.3591057), wk =   0.0380952
        k(   64) = (   0.4041734   0.0388916   0.5386585), wk =   0.0380952

[...]

     The maximum number of steps has been reached.

     End of BFGS Geometry Optimization
Begin final coordinates
     new unit-cell volume =   1171.09336 a.u.^3 (   173.53813 Ang^3 )

CELL_PARAMETERS (alat= 12.01680127)
   0.989674244   0.000000000   0.000000000
  -0.494837122   0.857083037   0.000000000
   0.000000000   0.000000000   0.795627370

ATOMIC_POSITIONS (crystal)
Mg       0.669948418   0.834974209   0.250000000
Mg       0.834974209   0.165025791   0.750000000
Mg       0.330051582   0.165025791   0.750000000
Mg       0.165025791   0.834974209   0.250000000
Mg       0.165025791   0.330051582   0.250000000
Mg       0.834974209   0.669948418   0.750000000
Cd       0.666667000   0.333333000   0.250000000
Cd       0.333333000   0.666667000   0.750000000
End final coordinates

     A final scf calculation at the relaxed structure.
     The G-vectors are recalculated for the final unit cell
     Results may differ from those at the preceding step.

     bravais-lattice index     =            0
     lattice parameter (alat)  =      12.0168  a.u.
     unit-cell volume          =    1171.0934 (a.u.)^3
     number of atoms/cell      =            8
     number of atomic types    =            2
     number of electrons       =       160.00
     number of Kohn-Sham states=           96
     kinetic-energy cutoff     =      40.0000  Ry
     charge density cutoff     =     160.0000  Ry
     convergence threshold     =      4.7E-05
     mixing beta               =       0.7000
     number of iterations used =            8  plain     mixing
     Exchange-correlation      = SLA-PZ-NOGX-NOGC ( 1 1 0 0 0)
     EXX-fraction              =        0.00

     celldm(1)=  12.016801  celldm(2)=   0.000000  celldm(3)=   0.000000
     celldm(4)=   0.000000  celldm(5)=   0.000000  celldm(6)=   0.000000

     crystal axes: (cart. coord. in units of alat)
               a(1) = (   0.989674   0.000000   0.000000 )
               a(2) = (  -0.494837   0.857083   0.000000 )
               a(3) = (   0.000000   0.000000   0.795627 )

     reciprocal axes: (cart. coord. in units 2 pi/alat)
               b(1) = (  1.010433  0.583374  0.000000 )
               b(2) = (  0.000000  1.166748  0.000000 )
               b(3) = (  0.000000  0.000000  1.256870 )

     PseudoPot. # 1 for Tb read from file:
     /home/cwx6513/pp.La/Tb.UPF
     MD5 check sum: 3d6088a3f0cf7fd2e110c43f7f8e95c2
     Pseudo is Norm-conserving, Zval = 19.0
     Generated in analytical, separable form
     Using radial grid of 1263 points,  6 beta functions with:
                l(1) =   0
                l(2) =   0
                l(3) =   1
                l(4) =   1
                l(5) =   2
                l(6) =   3

     PseudoPot. # 2 for Tm read from file:
     /home/cwx6513/pp.La/Tm.UPF
     MD5 check sum: 245516e0878b5372ceeb9443ded2c4e1
     Pseudo is Norm-conserving, Zval = 23.0
     Generated in analytical, separable form
     Using radial grid of 1269 points,  6 beta functions with:
                l(1) =   0
                l(2) =   0
                l(3) =   1
                l(4) =   1
                l(5) =   2
                l(6) =   3

     atomic species   valence    mass     pseudopotential
        Mg            19.00    24.30500     Tb( 1.00)
        Cd            23.00   112.41100     Tm( 1.00)

     24 Sym. Ops., with inversion, found (12 have fractional translation)

   Cartesian axes

     site n.     atom                  positions (alat units)
         1           Mg  tau(   1) = (   0.2498545   0.7156422   0.1989068  )
         2           Mg  tau(   2) = (   0.7446916   0.1414408   0.5967205  )
         3           Mg  tau(   3) = (   0.2449827   0.1414408   0.5967205  )
         4           Mg  tau(   4) = (  -0.2498545   0.7156422   0.1989068  )
         5           Mg  tau(   5) = (   0.0000000   0.2828816   0.1989068  )
         6           Mg  tau(   6) = (   0.4948371   0.5742014   0.5967205  )
         7           Cd  tau(   7) = (   0.4948376   0.2856941   0.1989068  )
         8           Cd  tau(   8) = (  -0.0000005   0.5713890   0.5967205  )

     number of k points=    64  gaussian smearing, width (Ry)=  0.1000
                       cart. coord. in units 2pi/alat
        k(    1) = (   0.0000000   0.0000000   0.0000000), wk =   0.0095238
        k(    2) = (   0.0000000   0.0000000   0.1795528), wk =   0.0190476
        k(    3) = (   0.0000000   0.0000000   0.3591057), wk =   0.0190476
        k(    4) = (   0.0000000   0.0000000   0.5386585), wk =   0.0190476
        k(    5) = (   0.0000000   0.1944580   0.0000000), wk =   0.0190476
        k(    6) = (   0.0000000   0.1944580   0.1795528), wk =   0.0380952
        k(    7) = (   0.0000000   0.1944580   0.3591057), wk =   0.0380952
        k(    8) = (   0.0000000   0.1944580   0.5386585), wk =   0.0380952
        k(    9) = (   0.0000000   0.3889160   0.0000000), wk =   0.0190476
        k(   10) = (   0.0000000   0.3889160   0.1795528), wk =   0.0380952
        k(   11) = (   0.0000000   0.3889160   0.3591057), wk =   0.0380952
        k(   12) = (   0.0000000   0.3889160   0.5386585), wk =   0.0380952
        k(   13) = (   0.0000000  -0.5833740   0.0000000), wk =   0.0095238
        k(   14) = (   0.0000000  -0.5833740   0.1795528), wk =   0.0190476
        k(   15) = (   0.0000000  -0.5833740   0.3591057), wk =   0.0190476
        k(   16) = (   0.0000000  -0.5833740   0.5386585), wk =   0.0190476
        k(   17) = (   0.2020867   0.1166748   0.0000000), wk =   0.0190476
        k(   18) = (   0.2020867   0.1166748   0.1795528), wk =   0.0380952
        k(   19) = (   0.2020867   0.1166748   0.3591057), wk =   0.0380952
        k(   20) = (   0.2020867   0.1166748   0.5386585), wk =   0.0380952
        k(   21) = (   0.2020867   0.3111328   0.0000000), wk =   0.0190476
        k(   22) = (   0.2020867   0.3111328   0.1795528), wk =   0.0380952
        k(   23) = (   0.2020867   0.3111328   0.3591057), wk =   0.0380952
        k(   24) = (   0.2020867   0.3111328   0.5386585), wk =   0.0380952
        k(   25) = (   0.2020867   0.5055908   0.0000000), wk =   0.0190476
        k(   26) = (   0.2020867   0.5055908   0.1795528), wk =   0.0380952
        k(   27) = (   0.2020867   0.5055908   0.3591057), wk =   0.0380952
        k(   28) = (   0.2020867   0.5055908   0.5386585), wk =   0.0380952
        k(   29) = (   0.2020867  -0.4666992   0.0000000), wk =   0.0190476
        k(   30) = (   0.2020867  -0.4666992   0.1795528), wk =   0.0380952
        k(   31) = (   0.2020867  -0.4666992   0.3591057), wk =   0.0380952
        k(   32) = (   0.2020867  -0.4666992   0.5386585), wk =   0.0380952
        k(   33) = (   0.2020867  -0.2722412   0.0000000), wk =   0.0190476
        k(   34) = (   0.2020867  -0.2722412   0.1795528), wk =   0.0380952
        k(   35) = (   0.2020867  -0.2722412   0.3591057), wk =   0.0380952
        k(   36) = (   0.2020867  -0.2722412   0.5386585), wk =   0.0380952
        k(   37) = (   0.2020867  -0.0777832   0.0000000), wk =   0.0190476
        k(   38) = (   0.2020867  -0.0777832   0.1795528), wk =   0.0380952
        k(   39) = (   0.2020867  -0.0777832   0.3591057), wk =   0.0380952
        k(   40) = (   0.2020867  -0.0777832   0.5386585), wk =   0.0380952
        k(   41) = (   0.4041734   0.2333496   0.0000000), wk =   0.0190476
        k(   42) = (   0.4041734   0.2333496   0.1795528), wk =   0.0380952
        k(   43) = (   0.4041734   0.2333496   0.3591057), wk =   0.0380952
        k(   44) = (   0.4041734   0.2333496   0.5386585), wk =   0.0380952
        k(   45) = (   0.4041734   0.4278076   0.0000000), wk =   0.0190476
        k(   46) = (   0.4041734   0.4278076   0.1795528), wk =   0.0380952
        k(   47) = (   0.4041734   0.4278076   0.3591057), wk =   0.0380952
        k(   48) = (   0.4041734   0.4278076   0.5386585), wk =   0.0380952
        k(   49) = (   0.4041734   0.6222657   0.0000000), wk =   0.0190476
        k(   50) = (   0.4041734   0.6222657   0.1795528), wk =   0.0380952
        k(   51) = (   0.4041734   0.6222657   0.3591057), wk =   0.0380952
        k(   52) = (   0.4041734   0.6222657   0.5386585), wk =   0.0380952
        k(   53) = (   0.4041734  -0.3500244   0.0000000), wk =   0.0190476
        k(   54) = (   0.4041734  -0.3500244   0.1795528), wk =   0.0380952
        k(   55) = (   0.4041734  -0.3500244   0.3591057), wk =   0.0380952
        k(   56) = (   0.4041734  -0.3500244   0.5386585), wk =   0.0380952
        k(   57) = (   0.4041734  -0.1555664   0.0000000), wk =   0.0190476
        k(   58) = (   0.4041734  -0.1555664   0.1795528), wk =   0.0380952
        k(   59) = (   0.4041734  -0.1555664   0.3591057), wk =   0.0380952
        k(   60) = (   0.4041734  -0.1555664   0.5386585), wk =   0.0380952
        k(   61) = (   0.4041734   0.0388916   0.0000000), wk =   0.0190476
        k(   62) = (   0.4041734   0.0388916   0.1795528), wk =   0.0380952
        k(   63) = (   0.4041734   0.0388916   0.3591057), wk =   0.0380952
        k(   64) = (   0.4041734   0.0388916   0.5386585), wk =   0.0380952

     Largest allocated arrays     est. size (Mb)     dimensions
     Largest temporary arrays     est. size (Mb)     dimensions

     Initial potential from superposition of free atoms

     Starting from uniform charge
     Starting wfc are    0 randomized atomic wfcs

     Writing output data file Prototype-La-hP8-Mg3Cd.save

     Self-consistent Calculation

[...]

     iteration #  7     ecut=    40.00 Ry     beta=0.70
     CG style diagonalization
     ethr =  1.32E-03,  avg # of iterations =  3.3

[...]

     total energy              =   -2111.53087626 Ry
     Harris-Foulkes estimate   =   -2111.53143544 Ry
     estimated scf accuracy    <       0.00100495 Ry

     iteration # 11     ecut=    40.00 Ry     beta=0.70
     CG style diagonalization
     c_bands:  1 eigenvalues not converged
     ethr =  6.28E-07,  avg # of iterations =  3.4

     End of self-consistent calculation

[...]

          k = 0.4042 0.0389 0.5387 (  5005 PWs)   bands (ev):

   -87.8157 -87.8083 -51.6411 -51.6315 -51.6283 -51.6247 -51.6226 -51.6216
   -46.4494 -46.4432 -46.4335 -46.4311 -46.4294 -46.4273 -20.1400 -20.1316
   -20.1286 -20.1187 -20.0905 -20.0869 -19.9807 -19.9789 -19.9514 -19.9362
   -19.9165 -19.9002 -19.8938 -19.8839 -19.8804 -19.8610 -19.8292 -19.8228
     2.6988   2.7009   2.7033   2.7063   2.7093   2.7111   2.7291   2.7301
     2.7384   2.7405  12.6156  12.7330  15.5727  15.7274  16.0098  16.0585
    16.2560  16.3545  16.3755  16.4745  16.5309  16.6541  16.8427  16.9067
    17.2027  17.2347  17.3796  17.4057  17.7867  17.8695  18.0009  18.3323
    18.4154  18.4587  18.6860  18.7754  18.8742  18.9128  19.0940  19.2162
    19.6375  19.9468  20.0215  20.1008  20.5203  21.1168  22.5849  22.8781
    24.2125  24.6012  26.8559  27.1254  27.5268  28.1363  28.3923  28.9094
    29.4646  30.0175  30.4472  30.9197  31.1824  31.3210  31.4905  31.7893

     the Fermi energy is    23.8545 ev

!    total energy              =   -2111.53101550 Ry
     Harris-Foulkes estimate   =   -2111.53102967 Ry
     estimated scf accuracy    <       0.00002246 Ry

     The total energy is the sum of the following terms:

     one-electron contribution =    -509.30978234 Ry
     hartree contribution      =     349.76108582 Ry
     xc contribution           =    -191.50921085 Ry
     ewald contribution        =   -1760.30580862 Ry
     smearing contrib. (-TS)   =      -0.16729950 Ry

     convergence has been achieved in  11 iterations

     Forces acting on atoms (Ry/au):

     atom    1 type  1   force =     0.00155267    0.00089644    0.00000000
     atom    2 type  1   force =     0.00155267   -0.00089644    0.00000000
     atom    3 type  1   force =    -0.00155267   -0.00089644    0.00000000
     atom    4 type  1   force =    -0.00155267    0.00089644    0.00000000
     atom    5 type  1   force =     0.00000000   -0.00179287    0.00000000
     atom    6 type  1   force =     0.00000000    0.00179287    0.00000000
     atom    7 type  2   force =     0.00000000    0.00000000    0.00000000
     atom    8 type  2   force =     0.00000000    0.00000000    0.00000000

     Total force =     0.004392     Total SCF correction =     0.000000

     entering subroutine stress ...

          total   stress  (Ry/bohr**3)                   (kbar)     P= -470.48
  -0.00325286   0.00000000   0.00000000       -478.51      0.00      0.00
   0.00000000  -0.00325286   0.00000000          0.00   -478.51      0.00
   0.00000000   0.00000000  -0.00308896          0.00      0.00   -454.40

     Writing output data file Prototype-La-hP8-Mg3Cd.save

     General routines

     Parallel routines

   This run was terminated on:  18:35:45  22Mar2018

   JOB DONE.