     Program PWSCF v.5.0.2 starts on 22Mar2018 at 22:50:25

     Current dimensions of program PWSCF are:
     Max number of different atomic species (ntypx) = 10
     Max number of k-points (npk) =  40000
     Max angular momentum in pseudopotentials (lmaxx) =  3
     Waiting for input...
     Reading input from standard input

     Subspace diagonalization in iterative solution of the eigenvalue problem:
     a serial algorithm will be used

     bravais-lattice index     =            0
     lattice parameter (alat)  =       9.9235  a.u.
     unit-cell volume          =    1361.0366 (a.u.)^3
     number of atoms/cell      =           12
     number of atomic types    =            2
     number of electrons       =       256.00
     number of Kohn-Sham states=          154
     kinetic-energy cutoff     =      40.0000  Ry
     charge density cutoff     =     160.0000  Ry
     convergence threshold     =      1.0E-04
     mixing beta               =       0.7000
     number of iterations used =            8  plain     mixing
     Exchange-correlation      = SLA-PZ-NOGX-NOGC ( 1 1 0 0 0)
     EXX-fraction              =        0.00
     nstep                     =           50

     celldm(1)=   9.923489  celldm(2)=   0.000000  celldm(3)=   0.000000
     celldm(4)=   0.000000  celldm(5)=   0.000000  celldm(6)=   0.000000

     crystal axes: (cart. coord. in units of alat)
               a(1) = (   1.000000   0.000000   0.000000 )
               a(2) = (  -0.500000   0.866025   0.000000 )
               a(3) = (   0.000000   0.000000   1.608222 )

     reciprocal axes: (cart. coord. in units 2 pi/alat)
               b(1) = (  1.000000  0.577350  0.000000 )
               b(2) = (  0.000000  1.154701  0.000000 )
               b(3) = (  0.000000  0.000000  0.621805 )

     PseudoPot. # 1 for Gd read from file:
     /home/cwx6513/pp.La/Gd.UPF
     MD5 check sum: 09a8be538722f05520810cb6aac0efd2
     Pseudo is Norm-conserving, Zval = 18.0
     Generated in analytical, separable form
     Using radial grid of 1263 points,  6 beta functions with:
                l(1) =   0
                l(2) =   0
                l(3) =   1
                l(4) =   1
                l(5) =   2
                l(6) =   3

     PseudoPot. # 2 for Tm read from file:
     /home/cwx6513/pp.La/Tm.UPF
     MD5 check sum: 245516e0878b5372ceeb9443ded2c4e1
     Pseudo is Norm-conserving, Zval = 23.0
     Generated in analytical, separable form
     Using radial grid of 1269 points,  6 beta functions with:
                l(1) =   0
                l(2) =   0
                l(3) =   1
                l(4) =   1
                l(5) =   2
                l(6) =   3

     atomic species   valence    mass     pseudopotential
        Mg            18.00    24.30500     Gd( 1.00)
        Zn            23.00    65.39000     Tm( 1.00)

     24 Sym. Ops., with inversion, found (12 have fractional translation)

   Cartesian axes

     site n.     atom                  positions (alat units)
         1           Mg  tau(   1) = (  -0.0000005   0.5773506   0.1003820  )
         2           Mg  tau(   2) = (   0.5000005   0.2886748   0.9044931  )
         3           Mg  tau(   3) = (   0.5000005   0.2886748   1.5078402  )
         4           Mg  tau(   4) = (  -0.0000005   0.5773506   0.7037291  )
         5           Zn  tau(   5) = (   0.0000000   0.0000000   0.0000000  )
         6           Zn  tau(   6) = (   0.0000000   0.0000000   0.8041111  )
         7           Zn  tau(   7) = (   0.0000000   0.2950739   1.2061667  )
         8           Zn  tau(   8) = (   0.7444585   0.1475370   0.4020556  )
         9           Zn  tau(   9) = (   0.2555415   0.1475370   0.4020556  )
        10           Zn  tau(  10) = (   0.2444585   0.7184884   1.2061667  )
        11           Zn  tau(  11) = (  -0.2444585   0.7184884   1.2061667  )
        12           Zn  tau(  12) = (   0.5000000   0.5709515   0.4020556  )

     number of k points=    12  gaussian smearing, width (Ry)=  0.1000
                       cart. coord. in units 2pi/alat
        k(    1) = (   0.0000000   0.0000000   0.0000000), wk =   0.0833333
        k(    2) = (   0.0000000   0.0000000   0.1554512), wk =   0.1666667
        k(    3) = (   0.0000000   0.0000000  -0.3109023), wk =   0.0833333
        k(    4) = (   0.0000000   0.3849002   0.0000000), wk =   0.1666667
        k(    5) = (   0.0000000   0.3849002   0.1554512), wk =   0.3333333
        k(    6) = (   0.0000000   0.3849002  -0.3109023), wk =   0.1666667
        k(    7) = (  -0.5000000  -0.2886751   0.0000000), wk =   0.0833333
        k(    8) = (  -0.5000000  -0.2886751   0.1554512), wk =   0.1666667
        k(    9) = (  -0.5000000  -0.2886751  -0.3109023), wk =   0.0833333
        k(   10) = (  -0.5000000   0.0962250   0.0000000), wk =   0.1666667
        k(   11) = (  -0.5000000   0.0962250   0.1554512), wk =   0.3333333
        k(   12) = (  -0.5000000   0.0962250  -0.3109023), wk =   0.1666667

     Largest allocated arrays     est. size (Mb)     dimensions
     Largest temporary arrays     est. size (Mb)     dimensions

     Initial potential from superposition of free atoms

     Starting from uniform charge
     Starting wfc are    0 randomized atomic wfcs

     Self-consistent Calculation

     iteration #  1     ecut=    40.00 Ry     beta=0.70
     CG style diagonalization
     ethr =  1.00E-02,  avg # of iterations = 20.1

     total energy              =   -2395.32470141 Ry
     Harris-Foulkes estimate   =   -4928.05839820 Ry
     estimated scf accuracy    <    3036.57563082 Ry

[...]

     iteration #  3     ecut=    40.00 Ry     beta=0.70
     CG style diagonalization
     c_bands:  1 eigenvalues not converged
     c_bands:  2 eigenvalues not converged
     c_bands:  1 eigenvalues not converged
     c_bands:  1 eigenvalues not converged
     c_bands:  2 eigenvalues not converged
     c_bands:  2 eigenvalues not converged
     c_bands:  1 eigenvalues not converged
     ethr =  1.00E-02,  avg # of iterations = 12.8

[...]

     End of self-consistent calculation

          k = 0.0000 0.0000 0.0000 (  5769 PWs)   bands (ev):

   -78.1685 -78.1388 -78.1388 -78.1329 -78.1228 -78.1228 -78.1004 -78.0597
   -37.6064 -37.4933 -37.2530 -37.0952 -37.0952 -37.0784 -37.0784 -37.0146
   -36.9689 -36.9688 -36.9087 -36.8516 -36.8515 -36.7811 -36.7811 -36.7547
   -36.7546 -36.7164 -36.7060 -36.7060 -36.6731 -36.6580 -36.6466 -36.6465
   -34.5928 -34.5853 -34.5726 -34.5603  -5.8036  -5.7991  -5.7761  -5.7761
    -5.7550  -5.7550  -5.6395  -5.6230  -5.6010  -5.6010  -5.5916  -5.5916
     8.3782   8.7895   9.1289   9.7169   9.7169   9.8255   9.8256  10.1291
    10.1291  10.2213  10.4667  10.4667  11.0023  11.2955  11.3606  11.3606
    11.5167  11.5168  11.9049  12.1282  12.1282  12.3119  12.3119  12.4700
    12.4897  12.4897  12.5745  12.5919  12.6354  12.6354  12.7011  12.7011
    12.8135  12.8135  13.3650  13.3651  13.6168  13.6169  13.9674  13.9698
    16.0587  17.7236  20.2388  22.9924  23.8105  24.3967  24.3968  25.2620
    25.5221  25.5221  25.6777  25.6778  26.1786  26.1786  26.8539  26.8540
    27.7638  27.7639  28.2161  28.5533  29.8369  30.0098  30.0098  30.2833
    30.2833  30.6608  30.6609  30.9230  30.9230  31.1894  31.3099  31.3100
    31.4700  31.7616  32.9613  33.0725  33.0725  33.8742  33.8742  34.2908
    34.6279  35.4426  35.4426  36.5989  36.7242  36.7242  36.9427  36.9938
    36.9938  37.1713  38.0573  38.0760  38.3039  38.3040  38.3987  38.3988
    38.4263  38.4264  39.2193  39.3580  39.7582  39.7583  39.8647  40.1055
    40.9972  41.1017

[...]

          k =-0.5000-0.2887 0.0000 (  5800 PWs)   bands (ev):

[...]

     the Fermi energy is    35.1847 ev

!    total energy              =   -3739.50167605 Ry
     Harris-Foulkes estimate   =   -3739.50176016 Ry
     estimated scf accuracy    <       0.00009972 Ry

     The total energy is the sum of the following terms:

     one-electron contribution =    -808.91840228 Ry
     hartree contribution      =     608.63841822 Ry
     xc contribution           =    -324.93119731 Ry
     ewald contribution        =   -3213.90757384 Ry
     smearing contrib. (-TS)   =      -0.38292084 Ry

     convergence has been achieved in  10 iterations

     Forces acting on atoms (Ry/au):

     atom    1 type  1   force =     0.00000000    0.00000000    0.00906844
     atom    2 type  1   force =     0.00000000    0.00000000    0.00906844
     atom    3 type  1   force =     0.00000000    0.00000000   -0.00906844
     atom    4 type  1   force =     0.00000000    0.00000000   -0.00906844
     atom    5 type  2   force =     0.00000000    0.00000000    0.00000000
     atom    6 type  2   force =     0.00000000    0.00000000    0.00000000
     atom    7 type  2   force =     0.00000000    0.17758358    0.00000000
     atom    8 type  2   force =    -0.15379190    0.08879179    0.00000000
     atom    9 type  2   force =     0.15379190    0.08879179    0.00000000
     atom   10 type  2   force =    -0.15379190   -0.08879179    0.00000000
     atom   11 type  2   force =     0.15379190   -0.08879179    0.00000000
     atom   12 type  2   force =     0.00000000   -0.17758358    0.00000000

     Total force =     0.435367     Total SCF correction =     0.000000

     entering subroutine stress ...

          total   stress  (Ry/bohr**3)                   (kbar)     P= 1142.87
   0.00786405   0.00000000   0.00000000       1156.84      0.00      0.00
   0.00000000   0.00786405   0.00000000          0.00   1156.84      0.00
   0.00000000   0.00000000   0.00757904          0.00      0.00   1114.92

     BFGS Geometry Optimization

     number of scf cycles    =   1
     number of bfgs steps    =   0

     enthalpy new            =   -3739.5016760450 Ry

     new trust radius        =       0.5000000000 bohr
     new conv_thr            =       0.0001000000 Ry

     new unit-cell volume =   1653.09086 a.u.^3 (   244.96279 Ang^3 )

CELL_PARAMETERS (alat=  9.92348860)
   1.067764947   0.000000000   0.000000000
  -0.533882474   0.924711570   0.000000000
   0.000000000   0.000000000   1.713253581

ATOMIC_POSITIONS (crystal)
Mg       0.333333000   0.666667000   0.062613858
Mg       0.666667000   0.333333000   0.562613858
Mg       0.666667000   0.333333000   0.937386142
Mg       0.333333000   0.666667000   0.437386142
Zn       0.000000000   0.000000000   0.000000000
Zn       0.000000000   0.000000000   0.500000000
Zn       0.173922200   0.347844400   0.750000000
Zn       0.826077800   0.173922200   0.250000000
Zn       0.347844400   0.173922200   0.250000000
Zn       0.652155600   0.826077800   0.750000000
Zn       0.173922200   0.826077800   0.750000000
Zn       0.826077800   0.652155600   0.250000000

     Writing output data file Prototype-La-hP12-MgZn2.save
     NEW-OLD atomic charge density approx. for the potential
     NEW k-points:
        k(    1) = (   0.0000000   0.0000000   0.0000000), wk =   0.0833333
        k(    2) = (   0.0000000   0.0000000   0.1459212), wk =   0.1666667
        k(    3) = (   0.0000000   0.0000000  -0.2918424), wk =   0.0833333
        k(    4) = (   0.0000000   0.3604728   0.0000000), wk =   0.1666667
        k(    5) = (   0.0000000   0.3604728   0.1459212), wk =   0.3333333
        k(    6) = (   0.0000000   0.3604728  -0.2918424), wk =   0.1666667
        k(    7) = (  -0.4682679  -0.2703546   0.0000000), wk =   0.0833333
        k(    8) = (  -0.4682679  -0.2703546   0.1459212), wk =   0.1666667
        k(    9) = (  -0.4682679  -0.2703546  -0.2918424), wk =   0.0833333
        k(   10) = (  -0.4682679   0.0901182   0.0000000), wk =   0.1666667
        k(   11) = (  -0.4682679   0.0901182   0.1459212), wk =   0.3333333
        k(   12) = (  -0.4682679   0.0901182  -0.2918424), wk =   0.1666667

[...]

     enthalpy old            =   -3739.5016760450 Ry
     enthalpy new            =   -3740.1450092003 Ry

     CASE: enthalpy_new < enthalpy_old

     small trust_radius: resetting bfgs history

     new trust radius        =       0.5564795141 bohr
     new conv_thr            =       0.0000308640 Ry

[...]

     number of scf cycles    =   3
     number of bfgs steps    =   2

     enthalpy old            =   -3740.1450092003 Ry
     enthalpy new            =   -3739.6501901979 Ry

     CASE: enthalpy_new > enthalpy_old

     new trust radius        =       0.1606458341 bohr

     trust_radius < trust_radius_min

     resetting bfgs history

     Message from routine bfgs:
     history already reset at previous step: stopping
     new conv_thr            =       0.0000308640 Ry

     new unit-cell volume =   1393.91252 a.u.^3 (   206.55652 Ang^3 )

[...]

ATOMIC_POSITIONS (crystal)
Mg       0.333333000   0.666667000   0.064455142
Mg       0.666667000   0.333333000   0.564455142
Mg       0.666667000   0.333333000   0.935544858
Mg       0.333333000   0.666667000   0.435544858
Zn       0.000000000   0.000000000   0.000000000
Zn       0.000000000   0.000000000   0.500000000
Zn       0.172516308   0.345032616   0.750000000
Zn       0.827483692   0.172516308   0.250000000
Zn       0.345032616   0.172516308   0.250000000
Zn       0.654967384   0.827483692   0.750000000
Zn       0.172516308   0.827483692   0.750000000
Zn       0.827483692   0.654967384   0.250000000

     Writing output data file Prototype-La-hP12-MgZn2.save
     NEW-OLD atomic charge density approx. for the potential
     NEW k-points:
        k(    1) = (   0.0000000   0.0000000   0.0000000), wk =   0.0833333
        k(    2) = (   0.0000000   0.0000000   0.1556936), wk =   0.1666667
        k(    3) = (   0.0000000   0.0000000  -0.3113872), wk =   0.0833333
        k(    4) = (   0.0000000   0.3800379   0.0000000), wk =   0.1666667
        k(    5) = (   0.0000000   0.3800379   0.1556936), wk =   0.3333333
        k(    6) = (   0.0000000   0.3800379  -0.3113872), wk =   0.1666667
        k(    7) = (  -0.4936837  -0.2850284   0.0000000), wk =   0.0833333
        k(    8) = (  -0.4936837  -0.2850284   0.1556936), wk =   0.1666667
        k(    9) = (  -0.4936837  -0.2850284  -0.3113872), wk =   0.0833333
        k(   10) = (  -0.4936837   0.0950095   0.0000000), wk =   0.1666667
        k(   11) = (  -0.4936837   0.0950095   0.1556936), wk =   0.3333333
        k(   12) = (  -0.4936837   0.0950095  -0.3113872), wk =   0.1666667

[...]

     The maximum number of steps has been reached.

     End of BFGS Geometry Optimization
Begin final coordinates
     new unit-cell volume =   1393.91252 a.u.^3 (   206.55652 Ang^3 )

CELL_PARAMETERS (alat=  9.92348860)
   1.012794297   0.000000000   0.000000000
  -0.506397148   0.877105590   0.000000000
   0.000000000   0.000000000   1.605717967

ATOMIC_POSITIONS (crystal)
Mg       0.333333000   0.666667000   0.064455142
Mg       0.666667000   0.333333000   0.564455142
Mg       0.666667000   0.333333000   0.935544858
Mg       0.333333000   0.666667000   0.435544858
Zn       0.000000000   0.000000000   0.000000000
Zn       0.000000000   0.000000000   0.500000000
Zn       0.172516308   0.345032616   0.750000000
Zn       0.827483692   0.172516308   0.250000000
Zn       0.345032616   0.172516308   0.250000000
Zn       0.654967384   0.827483692   0.750000000
Zn       0.172516308   0.827483692   0.750000000
Zn       0.827483692   0.654967384   0.250000000
End final coordinates

     A final scf calculation at the relaxed structure.
     The G-vectors are recalculated for the final unit cell
     Results may differ from those at the preceding step.

     bravais-lattice index     =            0
     lattice parameter (alat)  =       9.9235  a.u.
     unit-cell volume          =    1393.9125 (a.u.)^3
     number of atoms/cell      =           12
     number of atomic types    =            2
     number of electrons       =       256.00
     number of Kohn-Sham states=          154
     kinetic-energy cutoff     =      40.0000  Ry
     charge density cutoff     =     160.0000  Ry
     convergence threshold     =      3.1E-05
     mixing beta               =       0.7000
     number of iterations used =            8  plain     mixing
     Exchange-correlation      = SLA-PZ-NOGX-NOGC ( 1 1 0 0 0)
     EXX-fraction              =        0.00

     celldm(1)=   9.923489  celldm(2)=   0.000000  celldm(3)=   0.000000
     celldm(4)=   0.000000  celldm(5)=   0.000000  celldm(6)=   0.000000

     crystal axes: (cart. coord. in units of alat)
               a(1) = (   1.012794   0.000000   0.000000 )
               a(2) = (  -0.506397   0.877106   0.000000 )
               a(3) = (   0.000000   0.000000   1.605718 )

     reciprocal axes: (cart. coord. in units 2 pi/alat)
               b(1) = (  0.987367  0.570057  0.000000 )
               b(2) = (  0.000000  1.140114  0.000000 )
               b(3) = (  0.000000  0.000000  0.622774 )

     PseudoPot. # 1 for Gd read from file:
     /home/cwx6513/pp.La/Gd.UPF
     MD5 check sum: 09a8be538722f05520810cb6aac0efd2
     Pseudo is Norm-conserving, Zval = 18.0
     Generated in analytical, separable form
     Using radial grid of 1263 points,  6 beta functions with:
                l(1) =   0
                l(2) =   0
                l(3) =   1
                l(4) =   1
                l(5) =   2
                l(6) =   3

     PseudoPot. # 2 for Tm read from file:
     /home/cwx6513/pp.La/Tm.UPF
     MD5 check sum: 245516e0878b5372ceeb9443ded2c4e1
     Pseudo is Norm-conserving, Zval = 23.0
     Generated in analytical, separable form
     Using radial grid of 1269 points,  6 beta functions with:
                l(1) =   0
                l(2) =   0
                l(3) =   1
                l(4) =   1
                l(5) =   2
                l(6) =   3

     atomic species   valence    mass     pseudopotential
        Mg            18.00    24.30500     Gd( 1.00)
        Zn            23.00    65.39000     Tm( 1.00)

     24 Sym. Ops., with inversion, found (12 have fractional translation)

   Cartesian axes

     site n.     atom                  positions (alat units)
         1           Mg  tau(   1) = (  -0.0000005   0.5847374   0.1034968  )
         2           Mg  tau(   2) = (   0.5063977   0.2923682   0.9063558  )
         3           Mg  tau(   3) = (   0.5063977   0.2923682   1.5022212  )
         4           Mg  tau(   4) = (  -0.0000005   0.5847374   0.6993622  )
         5           Zn  tau(   5) = (   0.0000000   0.0000000   0.0000000  )
         6           Zn  tau(   6) = (   0.0000000   0.0000000   0.8028590  )
         7           Zn  tau(   7) = (   0.0000000   0.3026300   1.2042885  )
         8           Zn  tau(   8) = (   0.7507090   0.1513150   0.4014295  )
         9           Zn  tau(   9) = (   0.2620853   0.1513150   0.4014295  )
        10           Zn  tau(  10) = (   0.2443118   0.7257906   1.2042885  )
        11           Zn  tau(  11) = (  -0.2443118   0.7257906   1.2042885  )
        12           Zn  tau(  12) = (   0.5063971   0.5744756   0.4014295  )

     number of k points=    12  gaussian smearing, width (Ry)=  0.1000
                       cart. coord. in units 2pi/alat
        k(    1) = (   0.0000000   0.0000000   0.0000000), wk =   0.0833333
        k(    2) = (   0.0000000   0.0000000   0.1556936), wk =   0.1666667
        k(    3) = (   0.0000000   0.0000000  -0.3113872), wk =   0.0833333
        k(    4) = (   0.0000000   0.3800379   0.0000000), wk =   0.1666667
        k(    5) = (   0.0000000   0.3800379   0.1556936), wk =   0.3333333
        k(    6) = (   0.0000000   0.3800379  -0.3113872), wk =   0.1666667
        k(    7) = (  -0.4936837  -0.2850284   0.0000000), wk =   0.0833333
        k(    8) = (  -0.4936837  -0.2850284   0.1556936), wk =   0.1666667
        k(    9) = (  -0.4936837  -0.2850284  -0.3113872), wk =   0.0833333
        k(   10) = (  -0.4936837   0.0950095   0.0000000), wk =   0.1666667
        k(   11) = (  -0.4936837   0.0950095   0.1556936), wk =   0.3333333
        k(   12) = (  -0.4936837   0.0950095  -0.3113872), wk =   0.1666667

     Largest allocated arrays     est. size (Mb)     dimensions
     Largest temporary arrays     est. size (Mb)     dimensions

     Initial potential from superposition of free atoms

     Starting from uniform charge
     Starting wfc are    0 randomized atomic wfcs

     Writing output data file Prototype-La-hP12-MgZn2.save

     Self-consistent Calculation

[...]

     iteration #  9     ecut=    40.00 Ry     beta=0.70
     CG style diagonalization
     c_bands:  1 eigenvalues not converged
     ethr =  4.64E-06,  avg # of iterations =  3.9

[...]

     total energy              =   -3740.04013643 Ry
     Harris-Foulkes estimate   =   -3740.04018425 Ry
     estimated scf accuracy    <       0.00009385 Ry

     iteration # 11     ecut=    40.00 Ry     beta=0.70
     CG style diagonalization
     ethr =  3.67E-08,  avg # of iterations =  3.6

     End of self-consistent calculation

[...]

          k = 0.0000 0.3800-0.3114 (  5948 PWs)   bands (ev):

[...]

          k =-0.4937 0.0950-0.3114 (  5964 PWs)   bands (ev):

   -79.0114 -79.0114 -78.9922 -78.9922 -78.9861 -78.9861 -78.9039 -78.9039
   -38.1846 -38.1846 -38.0392 -38.0392 -37.8674 -37.8674 -37.8386 -37.8385
   -37.7620 -37.7620 -37.7384 -37.7384 -37.6920 -37.6920 -37.6440 -37.6439
   -37.5788 -37.5788 -37.5664 -37.5664 -37.5199 -37.5199 -37.5083 -37.5083
   -35.3931 -35.3928 -35.3805 -35.3803  -6.6173  -6.6171  -6.5607  -6.5607
    -6.5187  -6.5187  -6.4495  -6.4493  -6.4036  -6.4035  -6.3880  -6.3880
     8.7578   8.7578   9.2270   9.2270   9.4365   9.4365   9.6107   9.6107
     9.6866   9.6866  10.1982  10.1982  10.4166  10.4166  10.6284  10.6284
    10.8204  10.8204  10.8686  10.8686  11.0772  11.0772  11.1759  11.1759
    11.3551  11.3551  11.5766  11.5766  11.6843  11.6843  11.8743  11.8743
    11.8893  11.8893  11.9411  11.9411  12.1453  12.1453  12.5758  12.5758
    17.1367  17.1367  19.1214  19.1215  22.3470  22.3470  22.8721  22.8722
    25.3966  25.3966  26.1634  26.1634  26.5892  26.5892  26.9829  26.9829
    27.1539  27.1539  27.7296  27.7296  28.5081  28.5082  28.8575  28.8575
    29.2160  29.2161  29.3075  29.3076  30.1456  30.1456  30.7094  30.7094
    31.3648  31.3648  32.2384  32.2384  33.4518  33.4518  34.1910  34.1910
    34.7158  34.7159  35.2844  35.2844  35.8702  35.8702  36.4703  36.4703
    36.9773  36.9773  37.3986  37.3986  37.9113  37.9114  38.2871  38.2873
    38.9436  38.9437  39.0931  39.0932  39.4306  39.4306  40.2572  40.2574
    40.5114  40.5115

     the Fermi energy is    34.2290 ev

!    total energy              =   -3740.04015658 Ry
     Harris-Foulkes estimate   =   -3740.04015948 Ry
     estimated scf accuracy    <       0.00000354 Ry

     The total energy is the sum of the following terms:

     one-electron contribution =    -841.68131561 Ry
     hartree contribution      =     617.22927469 Ry
     xc contribution           =    -324.40205759 Ry
     ewald contribution        =   -3190.80792723 Ry
     smearing contrib. (-TS)   =      -0.37813084 Ry

     convergence has been achieved in  11 iterations

     Forces acting on atoms (Ry/au):

     atom    1 type  1   force =     0.00000000    0.00000000    0.01849608
     atom    2 type  1   force =     0.00000000    0.00000000    0.01849608
     atom    3 type  1   force =     0.00000000    0.00000000   -0.01849608
     atom    4 type  1   force =     0.00000000    0.00000000   -0.01849608
     atom    5 type  2   force =     0.00000000    0.00000000    0.00000000
     atom    6 type  2   force =     0.00000000    0.00000000    0.00000000
     atom    7 type  2   force =     0.00000000    0.06437383    0.00000000
     atom    8 type  2   force =    -0.05574938    0.03218692    0.00000000
     atom    9 type  2   force =     0.05574938    0.03218692    0.00000000
     atom   10 type  2   force =    -0.05574938   -0.03218692    0.00000000
     atom   11 type  2   force =     0.05574938   -0.03218692    0.00000000
     atom   12 type  2   force =     0.00000000   -0.06437383    0.00000000

     Total force =     0.161964     Total SCF correction =     0.000000

     entering subroutine stress ...

          total   stress  (Ry/bohr**3)                   (kbar)     P=  977.87
   0.00677591   0.00000000   0.00000000        996.77      0.00      0.00
   0.00000000   0.00677591   0.00000000          0.00    996.77      0.00
   0.00000000   0.00000000   0.00639041          0.00      0.00    940.06

     Writing output data file Prototype-La-hP12-MgZn2.save

     General routines

     Parallel routines

   This run was terminated on:  23:32:20  22Mar2018

   JOB DONE.