     Program PWSCF v.5.0.2 starts on 22Mar2018 at 18:47: 2

     Current dimensions of program PWSCF are:
     Max number of different atomic species (ntypx) = 10
     Max number of k-points (npk) =  40000
     Max angular momentum in pseudopotentials (lmaxx) =  3
     Waiting for input...
     Reading input from standard input

     Subspace diagonalization in iterative solution of the eigenvalue problem:
     a serial algorithm will be used

     bravais-lattice index     =            0
     lattice parameter (alat)  =       7.0151  a.u.
     unit-cell volume          =     862.2778 (a.u.)^3
     number of atoms/cell      =           12
     number of atomic types    =            2
     number of electrons       =       204.00
     number of Kohn-Sham states=          122
     kinetic-energy cutoff     =      40.0000  Ry
     charge density cutoff     =     160.0000  Ry
     convergence threshold     =      1.0E-04
     mixing beta               =       0.7000
     number of iterations used =            8  plain     mixing
     Exchange-correlation      = SLA-PZ-NOGX-NOGC ( 1 1 0 0 0)
     EXX-fraction              =        0.00
     nstep                     =           50

     celldm(1)=   7.015105  celldm(2)=   0.000000  celldm(3)=   0.000000
     celldm(4)=   0.000000  celldm(5)=   0.000000  celldm(6)=   0.000000

     crystal axes: (cart. coord. in units of alat)
               a(1) = (   1.000000   0.000000   0.000000 )
               a(2) = (   0.000000   1.315963   0.000000 )
               a(3) = (   0.000000   0.000000   1.898020 )

     reciprocal axes: (cart. coord. in units 2 pi/alat)
               b(1) = (  1.000000  0.000000  0.000000 )
               b(2) = (  0.000000  0.759900  0.000000 )
               b(3) = (  0.000000  0.000000  0.526865 )

     PseudoPot. # 1 for Sm read from file:
     /home/cwx6513/pp.La/Sm.UPF
     MD5 check sum: 5079e8b144a06bfcdbc14fb02b96ab09
     Pseudo is Norm-conserving, Zval = 16.0
     Generated in analytical, separable form
     Using radial grid of 1259 points,  6 beta functions with:
                l(1) =   0
                l(2) =   0
                l(3) =   1
                l(4) =   1
                l(5) =   2
                l(6) =   3

     PseudoPot. # 2 for Tb read from file:
     /home/cwx6513/pp.La/Tb.UPF
     MD5 check sum: 3d6088a3f0cf7fd2e110c43f7f8e95c2
     Pseudo is Norm-conserving, Zval = 19.0
     Generated in analytical, separable form
     Using radial grid of 1263 points,  6 beta functions with:
                l(1) =   0
                l(2) =   0
                l(3) =   1
                l(4) =   1
                l(5) =   2
                l(6) =   3

     atomic species   valence    mass     pseudopotential
        Co            16.00    58.93320     Sm( 1.00)
        Si            19.00    28.08550     Tb( 1.00)

      8 Sym. Ops., with inversion, found ( 6 have fractional translation)

   Cartesian axes

     site n.     atom                  positions (alat units)
         1           Co  tau(   1) = (   0.7500000   1.0875135   0.8270358  )
         2           Co  tau(   2) = (   0.2500000   0.2284499   1.0709846  )
         3           Co  tau(   3) = (   0.7500000   0.4295318   0.1219744  )
         4           Co  tau(   4) = (   0.2500000   0.8864316   1.7760460  )
         5           Co  tau(   5) = (   0.2500000   0.7067855   0.5358966  )
         6           Co  tau(   6) = (   0.7500000   0.6091779   1.3621238  )
         7           Co  tau(   7) = (   0.2500000   0.0488038   0.4131136  )
         8           Co  tau(   8) = (   0.7500000   1.2671596   1.4849068  )
         9           Si  tau(   9) = (   0.2500000   0.2669484   1.6960710  )
        10           Si  tau(  10) = (   0.7500000   1.0490149   0.2019494  )
        11           Si  tau(  11) = (   0.2500000   0.9249301   1.1509596  )
        12           Si  tau(  12) = (   0.7500000   0.3910333   0.7470608  )

     number of k points=    12  gaussian smearing, width (Ry)=  0.1000
                       cart. coord. in units 2pi/alat
        k(    1) = (   0.0000000   0.0000000   0.0000000), wk =   0.0833333
        k(    2) = (   0.0000000   0.0000000   0.1317162), wk =   0.1666667
        k(    3) = (   0.0000000   0.0000000  -0.2634324), wk =   0.0833333
        k(    4) = (   0.0000000   0.2532999   0.0000000), wk =   0.1666667
        k(    5) = (   0.0000000   0.2532999   0.1317162), wk =   0.3333333
        k(    6) = (   0.0000000   0.2532999  -0.2634324), wk =   0.1666667
        k(    7) = (  -0.5000000   0.0000000   0.0000000), wk =   0.0833333
        k(    8) = (  -0.5000000   0.0000000   0.1317162), wk =   0.1666667
        k(    9) = (  -0.5000000   0.0000000  -0.2634324), wk =   0.0833333
        k(   10) = (  -0.5000000   0.2532999   0.0000000), wk =   0.1666667
        k(   11) = (  -0.5000000   0.2532999   0.1317162), wk =   0.3333333
        k(   12) = (  -0.5000000   0.2532999  -0.2634324), wk =   0.1666667

     Largest allocated arrays     est. size (Mb)     dimensions
     Largest temporary arrays     est. size (Mb)     dimensions

     Initial potential from superposition of free atoms

     Starting from uniform charge
     Starting wfc are    0 randomized atomic wfcs

     Self-consistent Calculation

     iteration #  1     ecut=    40.00 Ry     beta=0.70
     CG style diagonalization
     c_bands:  5 eigenvalues not converged
     c_bands:  5 eigenvalues not converged
     c_bands:  4 eigenvalues not converged
     c_bands:  5 eigenvalues not converged
     c_bands:  5 eigenvalues not converged
     ethr =  1.00E-02,  avg # of iterations = 14.2

     total energy              =   -1614.19192079 Ry
     Harris-Foulkes estimate   =   -2316.83485113 Ry
     estimated scf accuracy    <     869.99947999 Ry

[...]

     iteration #  3     ecut=    40.00 Ry     beta=0.70
     CG style diagonalization
     ethr =  1.00E-02,  avg # of iterations = 10.9

[...]

     End of self-consistent calculation

          k = 0.0000 0.0000 0.0000 (  3675 PWs)   bands (ev):

   -30.3900 -30.3470 -30.3377 -30.3234 -11.5548 -11.2486 -10.8970 -10.4473
   -10.3342 -10.3227 -10.2280 -10.1366  -0.0509   0.1712   0.2519   0.3045
     0.3601   0.3945   0.6466   0.6548   0.6712   0.8290   0.8586   1.0807
    10.6378  11.1619  11.4057  11.9118  12.3042  12.4007  12.6745  12.8015
    13.1508  13.2529  13.5143  13.5524  13.5578  13.8841  14.3346  14.4039
    14.4095  14.5458  14.6172  14.9066  15.5588  15.7126  15.8827  16.1510
    32.6376  32.8045  33.1585  33.8480  33.8744  33.9686  33.9770  34.2788
    34.8020  35.0498  35.4240  36.0554  36.1861  36.4508  36.4599  37.3101
    37.9045  38.0514  38.5283  38.7742  38.9048  39.2247  40.0656  40.4331
    40.4447  40.4574  41.0587  41.3699  41.6281  41.9959  42.1351  42.1644
    42.4177  42.8901  42.9140  43.7031  44.0010  44.2664  44.5611  44.8164
    44.9995  45.0072  45.4577  46.0288  46.8649  47.2049  47.2065  47.3974
    48.6608  48.6901  48.9797  49.1754  49.5856  49.7393  50.2565  50.4346
    50.6173  50.6593  51.0656  51.3113  51.7106  52.6358  52.7844  53.1643
    54.5517  54.8308  55.7435  56.0033  56.1947  57.0536  57.1684  57.2193
    57.2627  57.3803

[...]

          k =-0.5000 0.0000 0.0000 (  3722 PWs)   bands (ev):

[...]

     the Fermi energy is    49.2507 ev

!    total energy              =   -2118.50791730 Ry
     Harris-Foulkes estimate   =   -2118.50791854 Ry
     estimated scf accuracy    <       0.00000142 Ry

     The total energy is the sum of the following terms:

     one-electron contribution =     402.46842059 Ry
     hartree contribution      =     124.42273399 Ry
     xc contribution           =    -235.09119429 Ry
     ewald contribution        =   -2409.90924536 Ry
     smearing contrib. (-TS)   =      -0.39863223 Ry

     convergence has been achieved in  11 iterations

     Forces acting on atoms (Ry/au):

     atom    1 type  1   force =     0.00000000   -0.06266810   -0.04502894
     atom    2 type  1   force =     0.00000000    0.06266810    0.04502894
     atom    3 type  1   force =     0.00000000   -0.06266810    0.04502894
     atom    4 type  1   force =     0.00000000    0.06266810   -0.04502894
     atom    5 type  1   force =     0.00000000    0.18174269   -0.25846412
     atom    6 type  1   force =     0.00000000   -0.18174269    0.25846412
     atom    7 type  1   force =     0.00000000    0.18174269    0.25846412
     atom    8 type  1   force =     0.00000000   -0.18174269   -0.25846412
     atom    9 type  2   force =     0.00000000   -0.20643737   -0.01179351
     atom   10 type  2   force =     0.00000000    0.20643737    0.01179351
     atom   11 type  2   force =     0.00000000   -0.20643737    0.01179351
     atom   12 type  2   force =     0.00000000    0.20643737   -0.01179351

     Total force =     0.770829     Total SCF correction =     0.000000

     entering subroutine stress ...

          total   stress  (Ry/bohr**3)                   (kbar)     P= 6604.03
   0.04821364   0.00000000   0.00000000       7092.47      0.00      0.00
   0.00000000   0.04147385   0.00000000          0.00   6101.01      0.00
   0.00000000   0.00000000   0.04499235          0.00      0.00   6618.60

     BFGS Geometry Optimization

     number of scf cycles    =   1
     number of bfgs steps    =   0

     enthalpy new            =   -2118.5079173043 Ry

     new trust radius        =       0.5000000000 bohr
     new conv_thr            =       0.0001000000 Ry

     new unit-cell volume =   1083.99807 a.u.^3 (   160.63194 Ang^3 )

CELL_PARAMETERS (alat=  7.01510508)
   1.085136619   0.000000000   0.000000000
   0.000000000   1.412338444   0.000000000
   0.000000000   0.000000000   2.048815093

ATOMIC_POSITIONS (crystal)
Co       0.750000000   0.825921515   0.435497129
Co       0.250000000   0.174078485   0.564502871
Co       0.750000000   0.325921515   0.064502871
Co       0.250000000   0.674078485   0.935497129
Co       0.250000000   0.538476546   0.280973892
Co       0.750000000   0.461523454   0.719026108
Co       0.250000000   0.038476546   0.219026108
Co       0.750000000   0.961523454   0.780973892
Si       0.250000000   0.201274510   0.893537437
Si       0.750000000   0.798725490   0.106462563
Si       0.250000000   0.701274510   0.606462563
Si       0.750000000   0.298725490   0.393537437

     Writing output data file Prototype-La-oP12-Co2Si.save
     NEW-OLD atomic charge density approx. for the potential
     NEW k-points:
        k(    1) = (   0.0000000   0.0000000   0.0000000), wk =   0.0833333
        k(    2) = (   0.0000000   0.0000000   0.1220217), wk =   0.1666667
        k(    3) = (   0.0000000   0.0000000  -0.2440435), wk =   0.0833333
        k(    4) = (   0.0000000   0.2360152   0.0000000), wk =   0.1666667
        k(    5) = (   0.0000000   0.2360152   0.1220217), wk =   0.3333333
        k(    6) = (   0.0000000   0.2360152  -0.2440435), wk =   0.1666667
        k(    7) = (  -0.4607715   0.0000000   0.0000000), wk =   0.0833333
        k(    8) = (  -0.4607715   0.0000000   0.1220217), wk =   0.1666667
        k(    9) = (  -0.4607715   0.0000000  -0.2440435), wk =   0.0833333
        k(   10) = (  -0.4607715   0.2360152   0.0000000), wk =   0.1666667
        k(   11) = (  -0.4607715   0.2360152   0.1220217), wk =   0.3333333
        k(   12) = (  -0.4607715   0.2360152  -0.2440435), wk =   0.1666667

[...]

     enthalpy old            =   -2118.5079173043 Ry
     enthalpy new            =   -2124.5839999751 Ry

     CASE: enthalpy_new < enthalpy_old

     small trust_radius: resetting bfgs history

     new trust radius        =       2.4441338614 bohr
     new conv_thr            =       0.0001000000 Ry

[...]

          total   stress  (Ry/bohr**3)                   (kbar)     P=-1389.04
  -0.00984904   0.00000000   0.00000000      -1448.84      0.00      0.00
   0.00000000  -0.00899939   0.00000000          0.00  -1323.86      0.00
   0.00000000   0.00000000  -0.00947914          0.00      0.00  -1394.43

     number of scf cycles    =   3
     number of bfgs steps    =   2

     enthalpy old            =   -2124.5839999751 Ry
     enthalpy new            =   -2115.3648147367 Ry

     CASE: enthalpy_new > enthalpy_old

     new trust radius        =       0.8763432132 bohr

     trust_radius < trust_radius_min

     resetting bfgs history

     Message from routine bfgs:
     history already reset at previous step: stopping
     new conv_thr            =       0.0001000000 Ry

     new unit-cell volume =   1290.40354 a.u.^3 (   191.21807 Ang^3 )

[...]

ATOMIC_POSITIONS (crystal)
Co       0.750000000   0.825277859   0.435486768
Co       0.250000000   0.174722141   0.564513232
Co       0.750000000   0.325277859   0.064513232
Co       0.250000000   0.674722141   0.935486768
Co       0.250000000   0.540003799   0.279690951
Co       0.750000000   0.459996201   0.720309049
Co       0.250000000   0.040003799   0.220309049
Co       0.750000000   0.959996201   0.779690951
Si       0.250000000   0.199668427   0.893626506
Si       0.750000000   0.800331573   0.106373494
Si       0.250000000   0.699668427   0.606373494
Si       0.750000000   0.300331573   0.393626506

     Writing output data file Prototype-La-oP12-Co2Si.save
     NEW-OLD atomic charge density approx. for the potential
     NEW k-points:
        k(    1) = (   0.0000000   0.0000000   0.0000000), wk =   0.0833333
        k(    2) = (   0.0000000   0.0000000   0.1150115), wk =   0.1666667
        k(    3) = (   0.0000000   0.0000000  -0.2300230), wk =   0.0833333
        k(    4) = (   0.0000000   0.2243944   0.0000000), wk =   0.1666667
        k(    5) = (   0.0000000   0.2243944   0.1150115), wk =   0.3333333
        k(    6) = (   0.0000000   0.2243944  -0.2300230), wk =   0.1666667
        k(    7) = (  -0.4319291   0.0000000   0.0000000), wk =   0.0833333
        k(    8) = (  -0.4319291   0.0000000   0.1150115), wk =   0.1666667
        k(    9) = (  -0.4319291   0.0000000  -0.2300230), wk =   0.0833333
        k(   10) = (  -0.4319291   0.2243944   0.0000000), wk =   0.1666667
        k(   11) = (  -0.4319291   0.2243944   0.1150115), wk =   0.3333333
        k(   12) = (  -0.4319291   0.2243944  -0.2300230), wk =   0.1666667

[...]

     The maximum number of steps has been reached.

     End of BFGS Geometry Optimization
Begin final coordinates
     new unit-cell volume =   1290.40354 a.u.^3 (   191.21807 Ang^3 )

CELL_PARAMETERS (alat=  7.01510508)
   1.157597509   0.000000000   0.000000000
   0.000000000   1.485479724   0.000000000
   0.000000000   0.000000000   2.173695428

ATOMIC_POSITIONS (crystal)
Co       0.750000000   0.825277859   0.435486768
Co       0.250000000   0.174722141   0.564513232
Co       0.750000000   0.325277859   0.064513232
Co       0.250000000   0.674722141   0.935486768
Co       0.250000000   0.540003799   0.279690951
Co       0.750000000   0.459996201   0.720309049
Co       0.250000000   0.040003799   0.220309049
Co       0.750000000   0.959996201   0.779690951
Si       0.250000000   0.199668427   0.893626506
Si       0.750000000   0.800331573   0.106373494
Si       0.250000000   0.699668427   0.606373494
Si       0.750000000   0.300331573   0.393626506
End final coordinates

     A final scf calculation at the relaxed structure.
     The G-vectors are recalculated for the final unit cell
     Results may differ from those at the preceding step.

     bravais-lattice index     =            0
     lattice parameter (alat)  =       7.0151  a.u.
     unit-cell volume          =    1290.4035 (a.u.)^3
     number of atoms/cell      =           12
     number of atomic types    =            2
     number of electrons       =       204.00
     number of Kohn-Sham states=          122
     kinetic-energy cutoff     =      40.0000  Ry
     charge density cutoff     =     160.0000  Ry
     convergence threshold     =      1.0E-04
     mixing beta               =       0.7000
     number of iterations used =            8  plain     mixing
     Exchange-correlation      = SLA-PZ-NOGX-NOGC ( 1 1 0 0 0)
     EXX-fraction              =        0.00

     celldm(1)=   7.015105  celldm(2)=   0.000000  celldm(3)=   0.000000
     celldm(4)=   0.000000  celldm(5)=   0.000000  celldm(6)=   0.000000

     crystal axes: (cart. coord. in units of alat)
               a(1) = (   1.157598   0.000000   0.000000 )
               a(2) = (   0.000000   1.485480   0.000000 )
               a(3) = (   0.000000   0.000000   2.173695 )

     reciprocal axes: (cart. coord. in units 2 pi/alat)
               b(1) = (  0.863858  0.000000  0.000000 )
               b(2) = (  0.000000  0.673183  0.000000 )
               b(3) = (  0.000000  0.000000  0.460046 )

     PseudoPot. # 1 for Sm read from file:
     /home/cwx6513/pp.La/Sm.UPF
     MD5 check sum: 5079e8b144a06bfcdbc14fb02b96ab09
     Pseudo is Norm-conserving, Zval = 16.0
     Generated in analytical, separable form
     Using radial grid of 1259 points,  6 beta functions with:
                l(1) =   0
                l(2) =   0
                l(3) =   1
                l(4) =   1
                l(5) =   2
                l(6) =   3

     PseudoPot. # 2 for Tb read from file:
     /home/cwx6513/pp.La/Tb.UPF
     MD5 check sum: 3d6088a3f0cf7fd2e110c43f7f8e95c2
     Pseudo is Norm-conserving, Zval = 19.0
     Generated in analytical, separable form
     Using radial grid of 1263 points,  6 beta functions with:
                l(1) =   0
                l(2) =   0
                l(3) =   1
                l(4) =   1
                l(5) =   2
                l(6) =   3

     atomic species   valence    mass     pseudopotential
        Co            16.00    58.93320     Sm( 1.00)
        Si            19.00    28.08550     Tb( 1.00)

      8 Sym. Ops., with inversion, found ( 6 have fractional translation)

   Cartesian axes

     site n.     atom                  positions (alat units)
         1           Co  tau(   1) = (   0.8681981   1.2259335   0.9466156  )
         2           Co  tau(   2) = (   0.2893994   0.2595462   1.2270798  )
         3           Co  tau(   3) = (   0.8681981   0.4831937   0.1402321  )
         4           Co  tau(   4) = (   0.2893994   1.0022861   2.0334633  )
         5           Co  tau(   5) = (   0.2893994   0.8021647   0.6079629  )
         6           Co  tau(   6) = (   0.8681981   0.6833150   1.5657325  )
         7           Co  tau(   7) = (   0.2893994   0.0594248   0.4788848  )
         8           Co  tau(   8) = (   0.8681981   1.4260549   1.6948107  )
         9           Si  tau(   9) = (   0.2893994   0.2966034   1.9424719  )
        10           Si  tau(  10) = (   0.8681981   1.1888763   0.2312236  )
        11           Si  tau(  11) = (   0.2893994   1.0393433   1.3180713  )
        12           Si  tau(  12) = (   0.8681981   0.4461365   0.8556241  )

     number of k points=    12  gaussian smearing, width (Ry)=  0.1000
                       cart. coord. in units 2pi/alat
        k(    1) = (   0.0000000   0.0000000   0.0000000), wk =   0.0833333
        k(    2) = (   0.0000000   0.0000000   0.1150115), wk =   0.1666667
        k(    3) = (   0.0000000   0.0000000  -0.2300230), wk =   0.0833333
        k(    4) = (   0.0000000   0.2243944   0.0000000), wk =   0.1666667
        k(    5) = (   0.0000000   0.2243944   0.1150115), wk =   0.3333333
        k(    6) = (   0.0000000   0.2243944  -0.2300230), wk =   0.1666667
        k(    7) = (  -0.4319291   0.0000000   0.0000000), wk =   0.0833333
        k(    8) = (  -0.4319291   0.0000000   0.1150115), wk =   0.1666667
        k(    9) = (  -0.4319291   0.0000000  -0.2300230), wk =   0.0833333
        k(   10) = (  -0.4319291   0.2243944   0.0000000), wk =   0.1666667
        k(   11) = (  -0.4319291   0.2243944   0.1150115), wk =   0.3333333
        k(   12) = (  -0.4319291   0.2243944  -0.2300230), wk =   0.1666667

     Largest allocated arrays     est. size (Mb)     dimensions
     Largest temporary arrays     est. size (Mb)     dimensions

     Initial potential from superposition of free atoms

     Starting from uniform charge
     Starting wfc are    0 randomized atomic wfcs

     Writing output data file Prototype-La-oP12-Co2Si.save

     Self-consistent Calculation

[...]

     iteration # 10     ecut=    40.00 Ry     beta=0.70
     CG style diagonalization
     c_bands:  1 eigenvalues not converged
     c_bands:  1 eigenvalues not converged
     c_bands:  1 eigenvalues not converged
     c_bands:  2 eigenvalues not converged
     ethr =  1.63E-06,  avg # of iterations =  3.9

     total energy              =   -2128.79490623 Ry
     Harris-Foulkes estimate   =   -2128.79529679 Ry
     estimated scf accuracy    <       0.00078705 Ry

     iteration # 11     ecut=    40.00 Ry     beta=0.70
     CG style diagonalization
     ethr =  3.86E-07,  avg # of iterations =  3.7

     End of self-consistent calculation

[...]

          k = 0.0000 0.2244-0.2300 (  5500 PWs)   bands (ev):

[...]

          k =-0.4319 0.2244-0.2300 (  5520 PWs)   bands (ev):

   -45.2792 -45.2792 -45.2786 -45.2786 -26.8502 -26.8502 -26.7395 -26.7395
   -26.6216 -26.6216 -26.6193 -26.6193 -13.8341 -13.8341 -13.8244 -13.8244
   -13.8103 -13.8103 -13.7936 -13.7936 -13.6645 -13.6645 -13.6519 -13.6519
    -2.8128  -2.8128  -2.5381  -2.5381  -2.4983  -2.4983  -2.4237  -2.4237
    -2.3397  -2.3397  -1.9884  -1.9884  -1.8120  -1.8120  -1.7237  -1.7237
    -1.6533  -1.6533  -1.6292  -1.6292  -1.4807  -1.4807  -1.4513  -1.4513
    21.8109  21.8109  22.1081  22.1081  22.1695  22.1695  22.4742  22.4742
    22.5871  22.5871  22.7745  22.7745  22.9071  22.9071  23.0332  23.0332
    23.6452  23.6452  23.9986  23.9986  24.9012  24.9012  24.9411  24.9411
    25.5908  25.5908  25.9671  25.9671  26.0930  26.0930  26.1987  26.1987
    26.6537  26.6537  27.2510  27.2510  27.4599  27.4599  27.9717  27.9717
    28.3478  28.3478  28.6384  28.6384  28.6952  28.6952  29.3995  29.3995
    29.5528  29.5528  29.9278  29.9278  30.6438  30.6438  31.2409  31.2409
    31.8022  31.8022  32.1573  32.1573  32.6442  32.6442  32.6815  32.6815
    34.2413  34.2413  34.8084  34.8084  36.1080  36.1080  39.1507  39.1508
    39.7198  39.7199

     the Fermi energy is    31.1260 ev

!    total energy              =   -2128.79511555 Ry
     Harris-Foulkes estimate   =   -2128.79515625 Ry
     estimated scf accuracy    <       0.00004569 Ry

     The total energy is the sum of the following terms:

     one-electron contribution =      -2.35249087 Ry
     hartree contribution      =     205.33298240 Ry
     xc contribution           =    -223.14111792 Ry
     ewald contribution        =   -2107.99122970 Ry
     smearing contrib. (-TS)   =      -0.64325946 Ry

     convergence has been achieved in  11 iterations

     Forces acting on atoms (Ry/au):

     atom    1 type  1   force =     0.00000000   -0.04184788   -0.00216792
     atom    2 type  1   force =     0.00000000    0.04184788    0.00216792
     atom    3 type  1   force =     0.00000000   -0.04184788    0.00216792
     atom    4 type  1   force =     0.00000000    0.04184788   -0.00216792
     atom    5 type  1   force =     0.00000000    0.06786168   -0.07885662
     atom    6 type  1   force =     0.00000000   -0.06786168    0.07885662
     atom    7 type  1   force =     0.00000000    0.06786168    0.07885662
     atom    8 type  1   force =     0.00000000   -0.06786168   -0.07885662
     atom    9 type  2   force =     0.00000000   -0.07862454   -0.00546318
     atom   10 type  2   force =     0.00000000    0.07862454    0.00546318
     atom   11 type  2   force =     0.00000000   -0.07862454    0.00546318
     atom   12 type  2   force =     0.00000000    0.07862454   -0.00546318

     Total force =     0.274162     Total SCF correction =     0.000000

     entering subroutine stress ...

          total   stress  (Ry/bohr**3)                   (kbar)     P=  817.46
   0.00596134   0.00000000   0.00000000        876.94      0.00      0.00
   0.00000000   0.00510006   0.00000000          0.00    750.24      0.00
   0.00000000   0.00000000   0.00560946          0.00      0.00    825.18

     Writing output data file Prototype-La-oP12-Co2Si.save

     General routines

     Parallel routines

   This run was terminated on:  19:29:30  22Mar2018

   JOB DONE.