     Program PWSCF v.5.0.2 starts on 22Mar2018 at 18:45:40

     Current dimensions of program PWSCF are:
     Max number of different atomic species (ntypx) = 10
     Max number of k-points (npk) =  40000
     Max angular momentum in pseudopotentials (lmaxx) =  3
     Waiting for input...
     Reading input from standard input

     Subspace diagonalization in iterative solution of the eigenvalue problem:
     a serial algorithm will be used

     bravais-lattice index     =            0
     lattice parameter (alat)  =      12.0168  a.u.
     unit-cell volume          =    1187.3413 (a.u.)^3
     number of atoms/cell      =            8
     number of atomic types    =            2
     number of electrons       =       134.00
     number of Kohn-Sham states=           80
     kinetic-energy cutoff     =      40.0000  Ry
     charge density cutoff     =     160.0000  Ry
     convergence threshold     =      1.0E-04
     mixing beta               =       0.7000
     number of iterations used =            8  plain     mixing
     Exchange-correlation      = SLA-PZ-NOGX-NOGC ( 1 1 0 0 0)
     EXX-fraction              =        0.00
     nstep                     =           50

     celldm(1)=  12.016801  celldm(2)=   0.000000  celldm(3)=   0.000000
     celldm(4)=   0.000000  celldm(5)=   0.000000  celldm(6)=   0.000000

     crystal axes: (cart. coord. in units of alat)
               a(1) = (   1.000000   0.000000   0.000000 )
               a(2) = (  -0.500000   0.866025   0.000000 )
               a(3) = (   0.000000   0.000000   0.790093 )

     reciprocal axes: (cart. coord. in units 2 pi/alat)
               b(1) = (  1.000000  0.577350  0.000000 )
               b(2) = (  0.000000  1.154701  0.000000 )
               b(3) = (  0.000000  0.000000  1.265674 )

     PseudoPot. # 1 for Sm read from file:
     /home/cwx6513/pp.La/Sm.UPF
     MD5 check sum: 5079e8b144a06bfcdbc14fb02b96ab09
     Pseudo is Norm-conserving, Zval = 16.0
     Generated in analytical, separable form
     Using radial grid of 1259 points,  6 beta functions with:
                l(1) =   0
                l(2) =   0
                l(3) =   1
                l(4) =   1
                l(5) =   2
                l(6) =   3

     PseudoPot. # 2 for Tb read from file:
     /home/cwx6513/pp.La/Tb.UPF
     MD5 check sum: 3d6088a3f0cf7fd2e110c43f7f8e95c2
     Pseudo is Norm-conserving, Zval = 19.0
     Generated in analytical, separable form
     Using radial grid of 1263 points,  6 beta functions with:
                l(1) =   0
                l(2) =   0
                l(3) =   1
                l(4) =   1
                l(5) =   2
                l(6) =   3

     atomic species   valence    mass     pseudopotential
        Mg            16.00    24.30500     Sm( 1.00)
        Cd            19.00   112.41100     Tb( 1.00)

     24 Sym. Ops., with inversion, found (12 have fractional translation)

   Cartesian axes

     site n.     atom                  positions (alat units)
         1           Mg  tau(   1) = (   0.2478935   0.7204716   0.1975233  )
         2           Mg  tau(   2) = (   0.7478935   0.1455538   0.5925699  )
         3           Mg  tau(   3) = (   0.2521065   0.1455538   0.5925699  )
         4           Mg  tau(   4) = (  -0.2478935   0.7204716   0.1975233  )
         5           Mg  tau(   5) = (   0.0000000   0.2911075   0.1975233  )
         6           Mg  tau(   6) = (   0.5000000   0.5749179   0.5925699  )
         7           Cd  tau(   7) = (   0.5000005   0.2886748   0.1975233  )
         8           Cd  tau(   8) = (  -0.0000005   0.5773506   0.5925699  )

     number of k points=    64  gaussian smearing, width (Ry)=  0.1000
                       cart. coord. in units 2pi/alat
        k(    1) = (   0.0000000   0.0000000   0.0000000), wk =   0.0095238
        k(    2) = (   0.0000000   0.0000000   0.1808105), wk =   0.0190476
        k(    3) = (   0.0000000   0.0000000   0.3616210), wk =   0.0190476
        k(    4) = (   0.0000000   0.0000000   0.5424315), wk =   0.0190476
        k(    5) = (   0.0000000   0.1924501   0.0000000), wk =   0.0190476
        k(    6) = (   0.0000000   0.1924501   0.1808105), wk =   0.0380952
        k(    7) = (   0.0000000   0.1924501   0.3616210), wk =   0.0380952
        k(    8) = (   0.0000000   0.1924501   0.5424315), wk =   0.0380952
        k(    9) = (   0.0000000   0.3849002   0.0000000), wk =   0.0190476
        k(   10) = (   0.0000000   0.3849002   0.1808105), wk =   0.0380952
        k(   11) = (   0.0000000   0.3849002   0.3616210), wk =   0.0380952
        k(   12) = (   0.0000000   0.3849002   0.5424315), wk =   0.0380952
        k(   13) = (   0.0000000  -0.5773503   0.0000000), wk =   0.0095238
        k(   14) = (   0.0000000  -0.5773503   0.1808105), wk =   0.0190476
        k(   15) = (   0.0000000  -0.5773503   0.3616210), wk =   0.0190476
        k(   16) = (   0.0000000  -0.5773503   0.5424315), wk =   0.0190476
        k(   17) = (   0.2000000   0.1154701   0.0000000), wk =   0.0190476
        k(   18) = (   0.2000000   0.1154701   0.1808105), wk =   0.0380952
        k(   19) = (   0.2000000   0.1154701   0.3616210), wk =   0.0380952
        k(   20) = (   0.2000000   0.1154701   0.5424315), wk =   0.0380952
        k(   21) = (   0.2000000   0.3079201   0.0000000), wk =   0.0190476
        k(   22) = (   0.2000000   0.3079201   0.1808105), wk =   0.0380952
        k(   23) = (   0.2000000   0.3079201   0.3616210), wk =   0.0380952
        k(   24) = (   0.2000000   0.3079201   0.5424315), wk =   0.0380952
        k(   25) = (   0.2000000   0.5003702   0.0000000), wk =   0.0190476
        k(   26) = (   0.2000000   0.5003702   0.1808105), wk =   0.0380952
        k(   27) = (   0.2000000   0.5003702   0.3616210), wk =   0.0380952
        k(   28) = (   0.2000000   0.5003702   0.5424315), wk =   0.0380952
        k(   29) = (   0.2000000  -0.4618802   0.0000000), wk =   0.0190476
        k(   30) = (   0.2000000  -0.4618802   0.1808105), wk =   0.0380952
        k(   31) = (   0.2000000  -0.4618802   0.3616210), wk =   0.0380952
        k(   32) = (   0.2000000  -0.4618802   0.5424315), wk =   0.0380952
        k(   33) = (   0.2000000  -0.2694301   0.0000000), wk =   0.0190476
        k(   34) = (   0.2000000  -0.2694301   0.1808105), wk =   0.0380952
        k(   35) = (   0.2000000  -0.2694301   0.3616210), wk =   0.0380952
        k(   36) = (   0.2000000  -0.2694301   0.5424315), wk =   0.0380952
        k(   37) = (   0.2000000  -0.0769800   0.0000000), wk =   0.0190476
        k(   38) = (   0.2000000  -0.0769800   0.1808105), wk =   0.0380952
        k(   39) = (   0.2000000  -0.0769800   0.3616210), wk =   0.0380952
        k(   40) = (   0.2000000  -0.0769800   0.5424315), wk =   0.0380952
        k(   41) = (   0.4000000   0.2309401   0.0000000), wk =   0.0190476
        k(   42) = (   0.4000000   0.2309401   0.1808105), wk =   0.0380952
        k(   43) = (   0.4000000   0.2309401   0.3616210), wk =   0.0380952
        k(   44) = (   0.4000000   0.2309401   0.5424315), wk =   0.0380952
        k(   45) = (   0.4000000   0.4233902   0.0000000), wk =   0.0190476
        k(   46) = (   0.4000000   0.4233902   0.1808105), wk =   0.0380952
        k(   47) = (   0.4000000   0.4233902   0.3616210), wk =   0.0380952
        k(   48) = (   0.4000000   0.4233902   0.5424315), wk =   0.0380952
        k(   49) = (   0.4000000   0.6158403   0.0000000), wk =   0.0190476
        k(   50) = (   0.4000000   0.6158403   0.1808105), wk =   0.0380952
        k(   51) = (   0.4000000   0.6158403   0.3616210), wk =   0.0380952
        k(   52) = (   0.4000000   0.6158403   0.5424315), wk =   0.0380952
        k(   53) = (   0.4000000  -0.3464102   0.0000000), wk =   0.0190476
        k(   54) = (   0.4000000  -0.3464102   0.1808105), wk =   0.0380952
        k(   55) = (   0.4000000  -0.3464102   0.3616210), wk =   0.0380952
        k(   56) = (   0.4000000  -0.3464102   0.5424315), wk =   0.0380952
        k(   57) = (   0.4000000  -0.1539601   0.0000000), wk =   0.0190476
        k(   58) = (   0.4000000  -0.1539601   0.1808105), wk =   0.0380952
        k(   59) = (   0.4000000  -0.1539601   0.3616210), wk =   0.0380952
        k(   60) = (   0.4000000  -0.1539601   0.5424315), wk =   0.0380952
        k(   61) = (   0.4000000   0.0384900   0.0000000), wk =   0.0190476
        k(   62) = (   0.4000000   0.0384900   0.1808105), wk =   0.0380952
        k(   63) = (   0.4000000   0.0384900   0.3616210), wk =   0.0380952
        k(   64) = (   0.4000000   0.0384900   0.5424315), wk =   0.0380952

     Largest allocated arrays     est. size (Mb)     dimensions
     Largest temporary arrays     est. size (Mb)     dimensions

     Initial potential from superposition of free atoms

     Starting from uniform charge
     Starting wfc are    0 randomized atomic wfcs

     Self-consistent Calculation

     iteration #  1     ecut=    40.00 Ry     beta=0.70
     CG style diagonalization
     c_bands:  5 eigenvalues not converged
     ethr =  1.00E-02,  avg # of iterations = 15.8

     total energy              =    -944.99964683 Ry
     Harris-Foulkes estimate   =   -1666.86125183 Ry
     estimated scf accuracy    <     890.11759864 Ry

[...]

     iteration #  4     ecut=    40.00 Ry     beta=0.70
     CG style diagonalization
     ethr =  1.00E-02,  avg # of iterations =  6.5

[...]

     End of self-consistent calculation

          k = 0.0000 0.0000 0.0000 (  5047 PWs)   bands (ev):

   -53.9858 -53.9843 -36.5787 -36.4852 -36.4851 -36.4687 -36.4310 -36.4309
   -22.3074 -22.2977 -22.2566 -22.2565 -22.2503 -22.2503 -12.0453 -12.0056
   -11.8644 -11.7480 -11.7480 -11.7468 -11.7467 -11.7089 -11.7088 -11.5285
   -11.3804 -11.3803 -11.2760 -11.2760 -11.2504 -11.2462 -11.2462 -11.2376
    13.9502  14.3266  14.3266  14.4340  14.4557  14.6432  14.6432  14.8801
    14.8802  15.4118  15.6100  15.6100  15.9217  17.1031  17.4677  17.4677
    17.5802  17.8251  17.8251  18.0011  18.4114  18.4114  18.6176  18.6177
    18.6718  19.1004  19.1721  19.1721  19.2558  19.2559  21.0306  21.0306
    21.3208  21.3208  21.3858  21.3858  21.5868  21.5869  21.8076  22.3252
    22.7739  22.8401  23.3343  24.3099  24.3100  24.7065  25.5686  25.5687

[...]

     the Fermi energy is    20.8440 ev

!    total energy              =   -1368.50945722 Ry
     Harris-Foulkes estimate   =   -1368.50951878 Ry
     estimated scf accuracy    <       0.00006478 Ry

     The total energy is the sum of the following terms:

     one-electron contribution =    -175.38296190 Ry
     hartree contribution      =     175.79088318 Ry
     xc contribution           =    -141.00569878 Ry
     ewald contribution        =   -1227.29272487 Ry
     smearing contrib. (-TS)   =      -0.61895486 Ry

     convergence has been achieved in  11 iterations

     Forces acting on atoms (Ry/au):

     atom    1 type  1   force =     0.01187823    0.00685790    0.00000000
     atom    2 type  1   force =     0.01187823   -0.00685790    0.00000000
     atom    3 type  1   force =    -0.01187823   -0.00685790    0.00000000
[...]
        k(   12) = (   0.0000000   0.4076058   0.5644098), wk =   0.0380952
        k(   13) = (   0.0000000  -0.6114087   0.0000000), wk =   0.0095238
        k(   14) = (   0.0000000  -0.6114087   0.1881366), wk =   0.0190476
        k(   15) = (   0.0000000  -0.6114087   0.3762732), wk =   0.0190476
        k(   16) = (   0.0000000  -0.6114087   0.5644098), wk =   0.0190476
        k(   17) = (   0.2117982   0.1222817   0.0000000), wk =   0.0190476
        k(   18) = (   0.2117982   0.1222817   0.1881366), wk =   0.0380952
        k(   19) = (   0.2117982   0.1222817   0.3762732), wk =   0.0380952
        k(   20) = (   0.2117982   0.1222817   0.5644098), wk =   0.0380952
        k(   21) = (   0.2117982   0.3260847   0.0000000), wk =   0.0190476
        k(   22) = (   0.2117982   0.3260847   0.1881366), wk =   0.0380952
        k(   23) = (   0.2117982   0.3260847   0.3762732), wk =   0.0380952
        k(   24) = (   0.2117982   0.3260847   0.5644098), wk =   0.0380952
        k(   25) = (   0.2117982   0.5298876   0.0000000), wk =   0.0190476
        k(   26) = (   0.2117982   0.5298876   0.1881366), wk =   0.0380952
        k(   27) = (   0.2117982   0.5298876   0.3762732), wk =   0.0380952
        k(   28) = (   0.2117982   0.5298876   0.5644098), wk =   0.0380952
        k(   29) = (   0.2117982  -0.4891270   0.0000000), wk =   0.0190476
        k(   30) = (   0.2117982  -0.4891270   0.1881366), wk =   0.0380952
        k(   31) = (   0.2117982  -0.4891270   0.3762732), wk =   0.0380952
        k(   32) = (   0.2117982  -0.4891270   0.5644098), wk =   0.0380952
        k(   33) = (   0.2117982  -0.2853241   0.0000000), wk =   0.0190476
        k(   34) = (   0.2117982  -0.2853241   0.1881366), wk =   0.0380952
        k(   35) = (   0.2117982  -0.2853241   0.3762732), wk =   0.0380952
        k(   36) = (   0.2117982  -0.2853241   0.5644098), wk =   0.0380952
        k(   37) = (   0.2117982  -0.0815212   0.0000000), wk =   0.0190476
        k(   38) = (   0.2117982  -0.0815212   0.1881366), wk =   0.0380952
        k(   39) = (   0.2117982  -0.0815212   0.3762732), wk =   0.0380952
        k(   40) = (   0.2117982  -0.0815212   0.5644098), wk =   0.0380952
        k(   41) = (   0.4235964   0.2445635   0.0000000), wk =   0.0190476
        k(   42) = (   0.4235964   0.2445635   0.1881366), wk =   0.0380952
        k(   43) = (   0.4235964   0.2445635   0.3762732), wk =   0.0380952
        k(   44) = (   0.4235964   0.2445635   0.5644098), wk =   0.0380952
        k(   45) = (   0.4235964   0.4483664   0.0000000), wk =   0.0190476
        k(   46) = (   0.4235964   0.4483664   0.1881366), wk =   0.0380952
        k(   47) = (   0.4235964   0.4483664   0.3762732), wk =   0.0380952
        k(   48) = (   0.4235964   0.4483664   0.5644098), wk =   0.0380952
        k(   49) = (   0.4235964   0.6521693   0.0000000), wk =   0.0190476
        k(   50) = (   0.4235964   0.6521693   0.1881366), wk =   0.0380952
        k(   51) = (   0.4235964   0.6521693   0.3762732), wk =   0.0380952
        k(   52) = (   0.4235964   0.6521693   0.5644098), wk =   0.0380952
        k(   53) = (   0.4235964  -0.3668452   0.0000000), wk =   0.0190476
        k(   54) = (   0.4235964  -0.3668452   0.1881366), wk =   0.0380952
        k(   55) = (   0.4235964  -0.3668452   0.3762732), wk =   0.0380952
        k(   56) = (   0.4235964  -0.3668452   0.5644098), wk =   0.0380952
        k(   57) = (   0.4235964  -0.1630423   0.0000000), wk =   0.0190476
        k(   58) = (   0.4235964  -0.1630423   0.1881366), wk =   0.0380952
        k(   59) = (   0.4235964  -0.1630423   0.3762732), wk =   0.0380952
        k(   60) = (   0.4235964  -0.1630423   0.5644098), wk =   0.0380952
        k(   61) = (   0.4235964   0.0407606   0.0000000), wk =   0.0190476
        k(   62) = (   0.4235964   0.0407606   0.1881366), wk =   0.0380952
        k(   63) = (   0.4235964   0.0407606   0.3762732), wk =   0.0380952
        k(   64) = (   0.4235964   0.0407606   0.5644098), wk =   0.0380952

[...]

     The maximum number of steps has been reached.

     End of BFGS Geometry Optimization
Begin final coordinates
     new unit-cell volume =   1017.51640 a.u.^3 (   150.78037 Ang^3 )

CELL_PARAMETERS (alat= 12.01680127)
   0.944295106   0.000000000   0.000000000
  -0.472147553   0.817783550   0.000000000
   0.000000000   0.000000000   0.759326702

ATOMIC_POSITIONS (crystal)
Mg       0.668736402   0.834368201   0.250000000
Mg       0.834368201   0.165631799   0.750000000
Mg       0.331263598   0.165631799   0.750000000
Mg       0.165631799   0.834368201   0.250000000
Mg       0.165631799   0.331263598   0.250000000
Mg       0.834368201   0.668736402   0.750000000
Cd       0.666667000   0.333333000   0.250000000
Cd       0.333333000   0.666667000   0.750000000
End final coordinates

     A final scf calculation at the relaxed structure.
     The G-vectors are recalculated for the final unit cell
     Results may differ from those at the preceding step.

     bravais-lattice index     =            0
     lattice parameter (alat)  =      12.0168  a.u.
     unit-cell volume          =    1017.5164 (a.u.)^3
     number of atoms/cell      =            8
     number of atomic types    =            2
     number of electrons       =       134.00
     number of Kohn-Sham states=           80
     kinetic-energy cutoff     =      40.0000  Ry
     charge density cutoff     =     160.0000  Ry
     convergence threshold     =      5.4E-06
     mixing beta               =       0.7000
     number of iterations used =            8  plain     mixing
     Exchange-correlation      = SLA-PZ-NOGX-NOGC ( 1 1 0 0 0)
     EXX-fraction              =        0.00

     celldm(1)=  12.016801  celldm(2)=   0.000000  celldm(3)=   0.000000
     celldm(4)=   0.000000  celldm(5)=   0.000000  celldm(6)=   0.000000

     crystal axes: (cart. coord. in units of alat)
               a(1) = (   0.944295   0.000000   0.000000 )
               a(2) = (  -0.472148   0.817784   0.000000 )
               a(3) = (   0.000000   0.000000   0.759327 )

     reciprocal axes: (cart. coord. in units 2 pi/alat)
               b(1) = (  1.058991  0.611409  0.000000 )
               b(2) = (  0.000000  1.222817  0.000000 )
               b(3) = (  0.000000  0.000000  1.316956 )

     PseudoPot. # 1 for Sm read from file:
     /home/cwx6513/pp.La/Sm.UPF
     MD5 check sum: 5079e8b144a06bfcdbc14fb02b96ab09
     Pseudo is Norm-conserving, Zval = 16.0
     Generated in analytical, separable form
     Using radial grid of 1259 points,  6 beta functions with:
                l(1) =   0
                l(2) =   0
                l(3) =   1
                l(4) =   1
                l(5) =   2
                l(6) =   3

     PseudoPot. # 2 for Tb read from file:
     /home/cwx6513/pp.La/Tb.UPF
     MD5 check sum: 3d6088a3f0cf7fd2e110c43f7f8e95c2
     Pseudo is Norm-conserving, Zval = 19.0
     Generated in analytical, separable form
     Using radial grid of 1263 points,  6 beta functions with:
                l(1) =   0
                l(2) =   0
                l(3) =   1
                l(4) =   1
                l(5) =   2
                l(6) =   3

     atomic species   valence    mass     pseudopotential
        Mg            16.00    24.30500     Sm( 1.00)
        Cd            19.00   112.41100     Tb( 1.00)

     24 Sym. Ops., with inversion, found (12 have fractional translation)

   Cartesian axes

     site n.     atom                  positions (alat units)
         1           Mg  tau(   1) = (   0.2375396   0.6823326   0.1898317  )
         2           Mg  tau(   2) = (   0.7096872   0.1354510   0.5694950  )
         3           Mg  tau(   3) = (   0.2346079   0.1354510   0.5694950  )
         4           Mg  tau(   4) = (  -0.2375396   0.6823326   0.1898317  )
         5           Mg  tau(   5) = (   0.0000000   0.2709019   0.1898317  )
         6           Mg  tau(   6) = (   0.4721476   0.5468816   0.5694950  )
         7           Cd  tau(   7) = (   0.4721480   0.2725942   0.1898317  )
         8           Cd  tau(   8) = (  -0.0000005   0.5451893   0.5694950  )

     number of k points=    64  gaussian smearing, width (Ry)=  0.1000
                       cart. coord. in units 2pi/alat
        k(    1) = (   0.0000000   0.0000000   0.0000000), wk =   0.0095238
        k(    2) = (   0.0000000   0.0000000   0.1881366), wk =   0.0190476
        k(    3) = (   0.0000000   0.0000000   0.3762732), wk =   0.0190476
        k(    4) = (   0.0000000   0.0000000   0.5644098), wk =   0.0190476
        k(    5) = (   0.0000000   0.2038029   0.0000000), wk =   0.0190476
        k(    6) = (   0.0000000   0.2038029   0.1881366), wk =   0.0380952
        k(    7) = (   0.0000000   0.2038029   0.3762732), wk =   0.0380952
        k(    8) = (   0.0000000   0.2038029   0.5644098), wk =   0.0380952
        k(    9) = (   0.0000000   0.4076058   0.0000000), wk =   0.0190476
        k(   10) = (   0.0000000   0.4076058   0.1881366), wk =   0.0380952
        k(   11) = (   0.0000000   0.4076058   0.3762732), wk =   0.0380952
        k(   12) = (   0.0000000   0.4076058   0.5644098), wk =   0.0380952
        k(   13) = (   0.0000000  -0.6114087   0.0000000), wk =   0.0095238
        k(   14) = (   0.0000000  -0.6114087   0.1881366), wk =   0.0190476
        k(   15) = (   0.0000000  -0.6114087   0.3762732), wk =   0.0190476
        k(   16) = (   0.0000000  -0.6114087   0.5644098), wk =   0.0190476
        k(   17) = (   0.2117982   0.1222817   0.0000000), wk =   0.0190476
        k(   18) = (   0.2117982   0.1222817   0.1881366), wk =   0.0380952
        k(   19) = (   0.2117982   0.1222817   0.3762732), wk =   0.0380952
        k(   20) = (   0.2117982   0.1222817   0.5644098), wk =   0.0380952
        k(   21) = (   0.2117982   0.3260847   0.0000000), wk =   0.0190476
        k(   22) = (   0.2117982   0.3260847   0.1881366), wk =   0.0380952
        k(   23) = (   0.2117982   0.3260847   0.3762732), wk =   0.0380952
        k(   24) = (   0.2117982   0.3260847   0.5644098), wk =   0.0380952
        k(   25) = (   0.2117982   0.5298876   0.0000000), wk =   0.0190476
        k(   26) = (   0.2117982   0.5298876   0.1881366), wk =   0.0380952
        k(   27) = (   0.2117982   0.5298876   0.3762732), wk =   0.0380952
        k(   28) = (   0.2117982   0.5298876   0.5644098), wk =   0.0380952
        k(   29) = (   0.2117982  -0.4891270   0.0000000), wk =   0.0190476
        k(   30) = (   0.2117982  -0.4891270   0.1881366), wk =   0.0380952
        k(   31) = (   0.2117982  -0.4891270   0.3762732), wk =   0.0380952
        k(   32) = (   0.2117982  -0.4891270   0.5644098), wk =   0.0380952
        k(   33) = (   0.2117982  -0.2853241   0.0000000), wk =   0.0190476
        k(   34) = (   0.2117982  -0.2853241   0.1881366), wk =   0.0380952
        k(   35) = (   0.2117982  -0.2853241   0.3762732), wk =   0.0380952
        k(   36) = (   0.2117982  -0.2853241   0.5644098), wk =   0.0380952
        k(   37) = (   0.2117982  -0.0815212   0.0000000), wk =   0.0190476
        k(   38) = (   0.2117982  -0.0815212   0.1881366), wk =   0.0380952
        k(   39) = (   0.2117982  -0.0815212   0.3762732), wk =   0.0380952
        k(   40) = (   0.2117982  -0.0815212   0.5644098), wk =   0.0380952
        k(   41) = (   0.4235964   0.2445635   0.0000000), wk =   0.0190476
        k(   42) = (   0.4235964   0.2445635   0.1881366), wk =   0.0380952
        k(   43) = (   0.4235964   0.2445635   0.3762732), wk =   0.0380952
        k(   44) = (   0.4235964   0.2445635   0.5644098), wk =   0.0380952
        k(   45) = (   0.4235964   0.4483664   0.0000000), wk =   0.0190476
        k(   46) = (   0.4235964   0.4483664   0.1881366), wk =   0.0380952
        k(   47) = (   0.4235964   0.4483664   0.3762732), wk =   0.0380952
        k(   48) = (   0.4235964   0.4483664   0.5644098), wk =   0.0380952
        k(   49) = (   0.4235964   0.6521693   0.0000000), wk =   0.0190476
        k(   50) = (   0.4235964   0.6521693   0.1881366), wk =   0.0380952
        k(   51) = (   0.4235964   0.6521693   0.3762732), wk =   0.0380952
        k(   52) = (   0.4235964   0.6521693   0.5644098), wk =   0.0380952
        k(   53) = (   0.4235964  -0.3668452   0.0000000), wk =   0.0190476
        k(   54) = (   0.4235964  -0.3668452   0.1881366), wk =   0.0380952
        k(   55) = (   0.4235964  -0.3668452   0.3762732), wk =   0.0380952
        k(   56) = (   0.4235964  -0.3668452   0.5644098), wk =   0.0380952
        k(   57) = (   0.4235964  -0.1630423   0.0000000), wk =   0.0190476
        k(   58) = (   0.4235964  -0.1630423   0.1881366), wk =   0.0380952
        k(   59) = (   0.4235964  -0.1630423   0.3762732), wk =   0.0380952
        k(   60) = (   0.4235964  -0.1630423   0.5644098), wk =   0.0380952
        k(   61) = (   0.4235964   0.0407606   0.0000000), wk =   0.0190476
        k(   62) = (   0.4235964   0.0407606   0.1881366), wk =   0.0380952
        k(   63) = (   0.4235964   0.0407606   0.3762732), wk =   0.0380952
        k(   64) = (   0.4235964   0.0407606   0.5644098), wk =   0.0380952

     Largest allocated arrays     est. size (Mb)     dimensions
     Largest temporary arrays     est. size (Mb)     dimensions

     Initial potential from superposition of free atoms

     Starting from uniform charge
     Starting wfc are    0 randomized atomic wfcs

     Writing output data file Prototype-La-hP8-Mg3Cd.save

     Self-consistent Calculation

[...]

     iteration #  7     ecut=    40.00 Ry     beta=0.70
     CG style diagonalization
     c_bands:  1 eigenvalues not converged
     c_bands:  1 eigenvalues not converged
     c_bands:  1 eigenvalues not converged
     c_bands:  1 eigenvalues not converged
     ethr =  3.21E-05,  avg # of iterations =  4.0

[...]

     total energy              =   -1368.40507285 Ry
     Harris-Foulkes estimate   =   -1368.40507534 Ry
     estimated scf accuracy    <       0.00000594 Ry

     iteration # 12     ecut=    40.00 Ry     beta=0.70
     CG style diagonalization
     ethr =  4.43E-09,  avg # of iterations =  3.4

     End of self-consistent calculation

[...]

          k = 0.4236 0.0408 0.5644 (  4352 PWs)   bands (ev):

   -50.1277 -50.1270 -32.2817 -32.2404 -32.1966 -32.1763 -32.1575 -32.1426
   -18.4762 -18.4712 -18.4664 -18.4619 -18.4542 -18.4529  -7.9902  -7.9733
    -7.9169  -7.8897  -7.7943  -7.7602  -7.4579  -7.3613  -7.2776  -7.2604
    -7.1757  -7.1131  -7.0546  -7.0302  -7.0060  -6.9464  -6.9050  -6.8946
    17.9541  18.0238  18.1709  18.2160  18.4322  18.4958  18.6295  18.7441
    18.7958  18.8949  19.2588  19.3200  20.0779  20.3893  20.4802  20.6261
    21.0551  21.1905  21.5942  21.6660  21.8851  21.9764  22.4273  22.4751
    22.6893  22.8161  22.8517  23.2027  23.6278  23.7497  23.7909  24.2851
    24.7735  25.1878  25.4658  25.5308  25.7054  26.0110  26.1280  26.5246
    26.6461  27.0256  27.3361  27.5163  28.2083  28.6132  30.9334  31.1872

     the Fermi energy is    25.3841 ev

!    total energy              =   -1368.40507387 Ry
     Harris-Foulkes estimate   =   -1368.40507395 Ry
     estimated scf accuracy    <       0.00000008 Ry

     The total energy is the sum of the following terms:

     one-electron contribution =     -81.80053107 Ry
     hartree contribution      =     149.42355059 Ry
     xc contribution           =    -142.62210366 Ry
     ewald contribution        =   -1292.89187556 Ry
     smearing contrib. (-TS)   =      -0.51411417 Ry

     convergence has been achieved in  12 iterations

     Forces acting on atoms (Ry/au):

     atom    1 type  1   force =     0.00509647    0.00294245    0.00000000
     atom    2 type  1   force =     0.00509647   -0.00294245    0.00000000
     atom    3 type  1   force =    -0.00509647   -0.00294245    0.00000000
     atom    4 type  1   force =    -0.00509647    0.00294245    0.00000000
     atom    5 type  1   force =     0.00000000   -0.00588490    0.00000000
     atom    6 type  1   force =     0.00000000    0.00588490    0.00000000
     atom    7 type  2   force =     0.00000000    0.00000000    0.00000000
     atom    8 type  2   force =     0.00000000    0.00000000    0.00000000

     Total force =     0.014415     Total SCF correction =     0.000000

     entering subroutine stress ...

          total   stress  (Ry/bohr**3)                   (kbar)     P=  -19.78
  -0.00019628   0.00000000   0.00000000        -28.87      0.00      0.00
   0.00000000  -0.00019628   0.00000000          0.00    -28.87      0.00
   0.00000000   0.00000000  -0.00001085          0.00      0.00     -1.60

     Writing output data file Prototype-La-hP8-Mg3Cd.save

     General routines

     Parallel routines

   This run was terminated on:  19:32: 8  22Mar2018

   JOB DONE.