     Program PWSCF v.5.0.2 starts on 22Mar2018 at 17:32:52

     Current dimensions of program PWSCF are:
     Max number of different atomic species (ntypx) = 10
     Max number of k-points (npk) =  40000
     Max angular momentum in pseudopotentials (lmaxx) =  3
     Waiting for input...
     Reading input from standard input

     Subspace diagonalization in iterative solution of the eigenvalue problem:
     a serial algorithm will be used

     bravais-lattice index     =            0
     lattice parameter (alat)  =      12.0168  a.u.
     unit-cell volume          =    1187.3413 (a.u.)^3
     number of atoms/cell      =            8
     number of atomic types    =            2
     number of electrons       =       118.00
     number of Kohn-Sham states=           71
     kinetic-energy cutoff     =      40.0000  Ry
     charge density cutoff     =     160.0000  Ry
     convergence threshold     =      1.0E-04
     mixing beta               =       0.7000
     number of iterations used =            8  plain     mixing
     Exchange-correlation      = SLA-PZ-NOGX-NOGC ( 1 1 0 0 0)
     EXX-fraction              =        0.00
     nstep                     =           50

     celldm(1)=  12.016801  celldm(2)=   0.000000  celldm(3)=   0.000000
     celldm(4)=   0.000000  celldm(5)=   0.000000  celldm(6)=   0.000000

     crystal axes: (cart. coord. in units of alat)
               a(1) = (   1.000000   0.000000   0.000000 )
               a(2) = (  -0.500000   0.866025   0.000000 )
               a(3) = (   0.000000   0.000000   0.790093 )

     reciprocal axes: (cart. coord. in units 2 pi/alat)
               b(1) = (  1.000000  0.577350  0.000000 )
               b(2) = (  0.000000  1.154701  0.000000 )
               b(3) = (  0.000000  0.000000  1.265674 )

     PseudoPot. # 1 for Nd read from file:
     /home/cwx6513/pp.La/Nd.UPF
     MD5 check sum: c66c5b6abe7b5840ced9b1e244e3bed6
     Pseudo is Norm-conserving, Zval = 14.0
     Generated in analytical, separable form
     Using radial grid of 1257 points,  6 beta functions with:
                l(1) =   0
                l(2) =   0
                l(3) =   1
                l(4) =   1
                l(5) =   2
                l(6) =   3

     PseudoPot. # 2 for Eu read from file:
     /home/cwx6513/pp.La/Eu.UPF
     MD5 check sum: 5efdbbfc50c6a10138933a6429836ad2
     Pseudo is Norm-conserving, Zval = 17.0
     Generated in analytical, separable form
     Using radial grid of 1261 points,  6 beta functions with:
                l(1) =   0
                l(2) =   0
                l(3) =   1
                l(4) =   1
                l(5) =   2
                l(6) =   3

     atomic species   valence    mass     pseudopotential
        Mg            14.00    24.30500     Nd( 1.00)
        Cd            17.00   112.41100     Eu( 1.00)

     24 Sym. Ops., with inversion, found (12 have fractional translation)

   Cartesian axes

     site n.     atom                  positions (alat units)
         1           Mg  tau(   1) = (   0.2478935   0.7204716   0.1975233  )
         2           Mg  tau(   2) = (   0.7478935   0.1455538   0.5925699  )
         3           Mg  tau(   3) = (   0.2521065   0.1455538   0.5925699  )
         4           Mg  tau(   4) = (  -0.2478935   0.7204716   0.1975233  )
         5           Mg  tau(   5) = (   0.0000000   0.2911075   0.1975233  )
         6           Mg  tau(   6) = (   0.5000000   0.5749179   0.5925699  )
         7           Cd  tau(   7) = (   0.5000005   0.2886748   0.1975233  )
         8           Cd  tau(   8) = (  -0.0000005   0.5773506   0.5925699  )

     number of k points=    64  gaussian smearing, width (Ry)=  0.1000
                       cart. coord. in units 2pi/alat
        k(    1) = (   0.0000000   0.0000000   0.0000000), wk =   0.0095238
        k(    2) = (   0.0000000   0.0000000   0.1808105), wk =   0.0190476
        k(    3) = (   0.0000000   0.0000000   0.3616210), wk =   0.0190476
        k(    4) = (   0.0000000   0.0000000   0.5424315), wk =   0.0190476
        k(    5) = (   0.0000000   0.1924501   0.0000000), wk =   0.0190476
        k(    6) = (   0.0000000   0.1924501   0.1808105), wk =   0.0380952
        k(    7) = (   0.0000000   0.1924501   0.3616210), wk =   0.0380952
        k(    8) = (   0.0000000   0.1924501   0.5424315), wk =   0.0380952
        k(    9) = (   0.0000000   0.3849002   0.0000000), wk =   0.0190476
        k(   10) = (   0.0000000   0.3849002   0.1808105), wk =   0.0380952
        k(   11) = (   0.0000000   0.3849002   0.3616210), wk =   0.0380952
        k(   12) = (   0.0000000   0.3849002   0.5424315), wk =   0.0380952
        k(   13) = (   0.0000000  -0.5773503   0.0000000), wk =   0.0095238
        k(   14) = (   0.0000000  -0.5773503   0.1808105), wk =   0.0190476
        k(   15) = (   0.0000000  -0.5773503   0.3616210), wk =   0.0190476
        k(   16) = (   0.0000000  -0.5773503   0.5424315), wk =   0.0190476
        k(   17) = (   0.2000000   0.1154701   0.0000000), wk =   0.0190476
        k(   18) = (   0.2000000   0.1154701   0.1808105), wk =   0.0380952
        k(   19) = (   0.2000000   0.1154701   0.3616210), wk =   0.0380952
        k(   20) = (   0.2000000   0.1154701   0.5424315), wk =   0.0380952
        k(   21) = (   0.2000000   0.3079201   0.0000000), wk =   0.0190476
        k(   22) = (   0.2000000   0.3079201   0.1808105), wk =   0.0380952
        k(   23) = (   0.2000000   0.3079201   0.3616210), wk =   0.0380952
        k(   24) = (   0.2000000   0.3079201   0.5424315), wk =   0.0380952
        k(   25) = (   0.2000000   0.5003702   0.0000000), wk =   0.0190476
        k(   26) = (   0.2000000   0.5003702   0.1808105), wk =   0.0380952
        k(   27) = (   0.2000000   0.5003702   0.3616210), wk =   0.0380952
        k(   28) = (   0.2000000   0.5003702   0.5424315), wk =   0.0380952
        k(   29) = (   0.2000000  -0.4618802   0.0000000), wk =   0.0190476
        k(   30) = (   0.2000000  -0.4618802   0.1808105), wk =   0.0380952
        k(   31) = (   0.2000000  -0.4618802   0.3616210), wk =   0.0380952
        k(   32) = (   0.2000000  -0.4618802   0.5424315), wk =   0.0380952
        k(   33) = (   0.2000000  -0.2694301   0.0000000), wk =   0.0190476
        k(   34) = (   0.2000000  -0.2694301   0.1808105), wk =   0.0380952
        k(   35) = (   0.2000000  -0.2694301   0.3616210), wk =   0.0380952
        k(   36) = (   0.2000000  -0.2694301   0.5424315), wk =   0.0380952
        k(   37) = (   0.2000000  -0.0769800   0.0000000), wk =   0.0190476
        k(   38) = (   0.2000000  -0.0769800   0.1808105), wk =   0.0380952
        k(   39) = (   0.2000000  -0.0769800   0.3616210), wk =   0.0380952
        k(   40) = (   0.2000000  -0.0769800   0.5424315), wk =   0.0380952
        k(   41) = (   0.4000000   0.2309401   0.0000000), wk =   0.0190476
        k(   42) = (   0.4000000   0.2309401   0.1808105), wk =   0.0380952
        k(   43) = (   0.4000000   0.2309401   0.3616210), wk =   0.0380952
        k(   44) = (   0.4000000   0.2309401   0.5424315), wk =   0.0380952
        k(   45) = (   0.4000000   0.4233902   0.0000000), wk =   0.0190476
        k(   46) = (   0.4000000   0.4233902   0.1808105), wk =   0.0380952
        k(   47) = (   0.4000000   0.4233902   0.3616210), wk =   0.0380952
        k(   48) = (   0.4000000   0.4233902   0.5424315), wk =   0.0380952
        k(   49) = (   0.4000000   0.6158403   0.0000000), wk =   0.0190476
        k(   50) = (   0.4000000   0.6158403   0.1808105), wk =   0.0380952
        k(   51) = (   0.4000000   0.6158403   0.3616210), wk =   0.0380952
        k(   52) = (   0.4000000   0.6158403   0.5424315), wk =   0.0380952
        k(   53) = (   0.4000000  -0.3464102   0.0000000), wk =   0.0190476
        k(   54) = (   0.4000000  -0.3464102   0.1808105), wk =   0.0380952
        k(   55) = (   0.4000000  -0.3464102   0.3616210), wk =   0.0380952
        k(   56) = (   0.4000000  -0.3464102   0.5424315), wk =   0.0380952
        k(   57) = (   0.4000000  -0.1539601   0.0000000), wk =   0.0190476
        k(   58) = (   0.4000000  -0.1539601   0.1808105), wk =   0.0380952
        k(   59) = (   0.4000000  -0.1539601   0.3616210), wk =   0.0380952
        k(   60) = (   0.4000000  -0.1539601   0.5424315), wk =   0.0380952
        k(   61) = (   0.4000000   0.0384900   0.0000000), wk =   0.0190476
        k(   62) = (   0.4000000   0.0384900   0.1808105), wk =   0.0380952
        k(   63) = (   0.4000000   0.0384900   0.3616210), wk =   0.0380952
        k(   64) = (   0.4000000   0.0384900   0.5424315), wk =   0.0380952

     Largest allocated arrays     est. size (Mb)     dimensions
     Largest temporary arrays     est. size (Mb)     dimensions

     Initial potential from superposition of free atoms

     Starting from uniform charge
     Starting wfc are    0 randomized atomic wfcs

     Self-consistent Calculation

     iteration #  1     ecut=    40.00 Ry     beta=0.70
     CG style diagonalization
     c_bands:  1 eigenvalues not converged
     c_bands:  1 eigenvalues not converged
     c_bands:  1 eigenvalues not converged
     c_bands:  1 eigenvalues not converged
     c_bands:  1 eigenvalues not converged
     c_bands:  2 eigenvalues not converged
     c_bands:  1 eigenvalues not converged
     c_bands:  2 eigenvalues not converged
     c_bands:  1 eigenvalues not converged
     c_bands:  1 eigenvalues not converged
     c_bands:  1 eigenvalues not converged
     c_bands:  1 eigenvalues not converged
     c_bands:  2 eigenvalues not converged
     c_bands:  1 eigenvalues not converged
     c_bands:  1 eigenvalues not converged
     c_bands:  1 eigenvalues not converged
     ethr =  1.00E-02,  avg # of iterations = 11.8

     total energy              =    -597.70985545 Ry
     Harris-Foulkes estimate   =   -1209.86403568 Ry
     estimated scf accuracy    <     750.51210589 Ry

[...]

     iteration #  4     ecut=    40.00 Ry     beta=0.70
     CG style diagonalization
     ethr =  1.00E-02,  avg # of iterations =  5.9

[...]

     End of self-consistent calculation

          k = 0.0000 0.0000 0.0000 (  5047 PWs)   bands (ev):

   -41.8658 -41.8648 -27.1073 -26.8922 -26.8922 -26.8569 -26.7687 -26.7687
   -14.6228 -14.6067 -14.5630 -14.5630 -14.5553 -14.5553  -6.1107  -5.9545
    -5.7494  -5.5351  -5.5350  -5.4778  -5.4777  -5.4535  -5.4534  -5.1019
    -4.7929  -4.7928  -4.6088  -4.6087  -4.5661  -4.5660  -4.5591  -4.5390
    15.0591  15.5307  15.5307  15.5809  15.6770  16.1995  16.1996  16.5273
    16.5274  16.5618  16.6144  17.8904  17.8905  18.9256  19.0125  19.0125
    19.2967  19.5915  19.6972  19.6973  20.1619  20.2122  20.2122  20.3327
    20.3327  20.7348  20.7349  20.7619  21.0033  21.0033  23.3313  23.6524
    23.6526  23.7322  23.7326  24.0757  24.0758  24.3871  24.3872

[...]

     the Fermi energy is    20.8859 ev

!    total energy              =   -1013.03862337 Ry
     Harris-Foulkes estimate   =   -1013.03862497 Ry
     estimated scf accuracy    <       0.00000198 Ry

     The total energy is the sum of the following terms:

     one-electron contribution =     -50.95867277 Ry
[...]
        k(   10) = (   0.0000000   0.3950420   0.1842558), wk =   0.0380952
        k(   11) = (   0.0000000   0.3950420   0.3685117), wk =   0.0380952
        k(   12) = (   0.0000000   0.3950420   0.5527675), wk =   0.0380952
        k(   13) = (   0.0000000  -0.5925630   0.0000000), wk =   0.0095238
        k(   14) = (   0.0000000  -0.5925630   0.1842558), wk =   0.0190476
        k(   15) = (   0.0000000  -0.5925630   0.3685117), wk =   0.0190476
        k(   16) = (   0.0000000  -0.5925630   0.5527675), wk =   0.0190476
        k(   17) = (   0.2052698   0.1185126   0.0000000), wk =   0.0190476
        k(   18) = (   0.2052698   0.1185126   0.1842558), wk =   0.0380952
        k(   19) = (   0.2052698   0.1185126   0.3685117), wk =   0.0380952
        k(   20) = (   0.2052698   0.1185126   0.5527675), wk =   0.0380952
        k(   21) = (   0.2052698   0.3160336   0.0000000), wk =   0.0190476
        k(   22) = (   0.2052698   0.3160336   0.1842558), wk =   0.0380952
        k(   23) = (   0.2052698   0.3160336   0.3685117), wk =   0.0380952
        k(   24) = (   0.2052698   0.3160336   0.5527675), wk =   0.0380952
        k(   25) = (   0.2052698   0.5135546   0.0000000), wk =   0.0190476
        k(   26) = (   0.2052698   0.5135546   0.1842558), wk =   0.0380952
        k(   27) = (   0.2052698   0.5135546   0.3685117), wk =   0.0380952
        k(   28) = (   0.2052698   0.5135546   0.5527675), wk =   0.0380952
        k(   29) = (   0.2052698  -0.4740504   0.0000000), wk =   0.0190476
        k(   30) = (   0.2052698  -0.4740504   0.1842558), wk =   0.0380952
        k(   31) = (   0.2052698  -0.4740504   0.3685117), wk =   0.0380952
        k(   32) = (   0.2052698  -0.4740504   0.5527675), wk =   0.0380952
        k(   33) = (   0.2052698  -0.2765294   0.0000000), wk =   0.0190476
        k(   34) = (   0.2052698  -0.2765294   0.1842558), wk =   0.0380952
        k(   35) = (   0.2052698  -0.2765294   0.3685117), wk =   0.0380952
        k(   36) = (   0.2052698  -0.2765294   0.5527675), wk =   0.0380952
        k(   37) = (   0.2052698  -0.0790084   0.0000000), wk =   0.0190476
        k(   38) = (   0.2052698  -0.0790084   0.1842558), wk =   0.0380952
        k(   39) = (   0.2052698  -0.0790084   0.3685117), wk =   0.0380952
        k(   40) = (   0.2052698  -0.0790084   0.5527675), wk =   0.0380952
        k(   41) = (   0.4105397   0.2370252   0.0000000), wk =   0.0190476
        k(   42) = (   0.4105397   0.2370252   0.1842558), wk =   0.0380952
        k(   43) = (   0.4105397   0.2370252   0.3685117), wk =   0.0380952
        k(   44) = (   0.4105397   0.2370252   0.5527675), wk =   0.0380952
        k(   45) = (   0.4105397   0.4345462   0.0000000), wk =   0.0190476
        k(   46) = (   0.4105397   0.4345462   0.1842558), wk =   0.0380952
        k(   47) = (   0.4105397   0.4345462   0.3685117), wk =   0.0380952
        k(   48) = (   0.4105397   0.4345462   0.5527675), wk =   0.0380952
        k(   49) = (   0.4105397   0.6320672   0.0000000), wk =   0.0190476
        k(   50) = (   0.4105397   0.6320672   0.1842558), wk =   0.0380952
        k(   51) = (   0.4105397   0.6320672   0.3685117), wk =   0.0380952
        k(   52) = (   0.4105397   0.6320672   0.5527675), wk =   0.0380952
        k(   53) = (   0.4105397  -0.3555378   0.0000000), wk =   0.0190476
        k(   54) = (   0.4105397  -0.3555378   0.1842558), wk =   0.0380952
        k(   55) = (   0.4105397  -0.3555378   0.3685117), wk =   0.0380952
        k(   56) = (   0.4105397  -0.3555378   0.5527675), wk =   0.0380952
        k(   57) = (   0.4105397  -0.1580168   0.0000000), wk =   0.0190476
        k(   58) = (   0.4105397  -0.1580168   0.1842558), wk =   0.0380952
        k(   59) = (   0.4105397  -0.1580168   0.3685117), wk =   0.0380952
        k(   60) = (   0.4105397  -0.1580168   0.5527675), wk =   0.0380952
        k(   61) = (   0.4105397   0.0395042   0.0000000), wk =   0.0190476
        k(   62) = (   0.4105397   0.0395042   0.1842558), wk =   0.0380952
        k(   63) = (   0.4105397   0.0395042   0.3685117), wk =   0.0380952
        k(   64) = (   0.4105397   0.0395042   0.5527675), wk =   0.0380952

[...]

     The maximum number of steps has been reached.

     End of BFGS Geometry Optimization
Begin final coordinates
     new unit-cell volume =   1106.08282 a.u.^3 (   163.90456 Ang^3 )

CELL_PARAMETERS (alat= 12.01680127)
   0.974327243   0.000000000   0.000000000
  -0.487163621   0.843792144   0.000000000
   0.000000000   0.000000000   0.775319460

ATOMIC_POSITIONS (crystal)
Mg       0.668139700   0.834069850   0.250000000
Mg       0.834069850   0.165930150   0.750000000
Mg       0.331860300   0.165930150   0.750000000
Mg       0.165930150   0.834069850   0.250000000
Mg       0.165930150   0.331860300   0.250000000
Mg       0.834069850   0.668139700   0.750000000
Cd       0.666667000   0.333333000   0.250000000
Cd       0.333333000   0.666667000   0.750000000
End final coordinates

     A final scf calculation at the relaxed structure.
     The G-vectors are recalculated for the final unit cell
     Results may differ from those at the preceding step.

     bravais-lattice index     =            0
     lattice parameter (alat)  =      12.0168  a.u.
     unit-cell volume          =    1106.0828 (a.u.)^3
     number of atoms/cell      =            8
     number of atomic types    =            2
     number of electrons       =       118.00
     number of Kohn-Sham states=           71
     kinetic-energy cutoff     =      40.0000  Ry
     charge density cutoff     =     160.0000  Ry
     convergence threshold     =      1.3E-05
     mixing beta               =       0.7000
     number of iterations used =            8  plain     mixing
     Exchange-correlation      = SLA-PZ-NOGX-NOGC ( 1 1 0 0 0)
     EXX-fraction              =        0.00

     celldm(1)=  12.016801  celldm(2)=   0.000000  celldm(3)=   0.000000
     celldm(4)=   0.000000  celldm(5)=   0.000000  celldm(6)=   0.000000

     crystal axes: (cart. coord. in units of alat)
               a(1) = (   0.974327   0.000000   0.000000 )
               a(2) = (  -0.487164   0.843792   0.000000 )
               a(3) = (   0.000000   0.000000   0.775319 )

     reciprocal axes: (cart. coord. in units 2 pi/alat)
               b(1) = (  1.026349  0.592563  0.000000 )
               b(2) = (  0.000000  1.185126  0.000000 )
               b(3) = (  0.000000  0.000000  1.289791 )

     PseudoPot. # 1 for Nd read from file:
     /home/cwx6513/pp.La/Nd.UPF
     MD5 check sum: c66c5b6abe7b5840ced9b1e244e3bed6
     Pseudo is Norm-conserving, Zval = 14.0
     Generated in analytical, separable form
     Using radial grid of 1257 points,  6 beta functions with:
                l(1) =   0
                l(2) =   0
                l(3) =   1
                l(4) =   1
                l(5) =   2
                l(6) =   3

     PseudoPot. # 2 for Eu read from file:
     /home/cwx6513/pp.La/Eu.UPF
     MD5 check sum: 5efdbbfc50c6a10138933a6429836ad2
     Pseudo is Norm-conserving, Zval = 17.0
     Generated in analytical, separable form
     Using radial grid of 1261 points,  6 beta functions with:
                l(1) =   0
                l(2) =   0
                l(3) =   1
                l(4) =   1
                l(5) =   2
                l(6) =   3

     atomic species   valence    mass     pseudopotential
        Mg            14.00    24.30500     Nd( 1.00)
        Cd            17.00   112.41100     Eu( 1.00)

     24 Sym. Ops., with inversion, found (12 have fractional translation)

   Cartesian axes

     site n.     atom                  positions (alat units)
         1           Mg  tau(   1) = (   0.2446582   0.7037816   0.1938299  )
         2           Mg  tau(   2) = (   0.7318218   0.1400106   0.5814896  )
         3           Mg  tau(   3) = (   0.2425054   0.1400106   0.5814896  )
         4           Mg  tau(   4) = (  -0.2446582   0.7037816   0.1938299  )
         5           Mg  tau(   5) = (   0.0000000   0.2800211   0.1938299  )
         6           Mg  tau(   6) = (   0.4871636   0.5637710   0.5814896  )
         7           Cd  tau(   7) = (   0.4871641   0.2812638   0.1938299  )
         8           Cd  tau(   8) = (  -0.0000005   0.5625284   0.5814896  )

     number of k points=    64  gaussian smearing, width (Ry)=  0.1000
                       cart. coord. in units 2pi/alat
        k(    1) = (   0.0000000   0.0000000   0.0000000), wk =   0.0095238
        k(    2) = (   0.0000000   0.0000000   0.1842558), wk =   0.0190476
        k(    3) = (   0.0000000   0.0000000   0.3685117), wk =   0.0190476
        k(    4) = (   0.0000000   0.0000000   0.5527675), wk =   0.0190476
        k(    5) = (   0.0000000   0.1975210   0.0000000), wk =   0.0190476
        k(    6) = (   0.0000000   0.1975210   0.1842558), wk =   0.0380952
        k(    7) = (   0.0000000   0.1975210   0.3685117), wk =   0.0380952
        k(    8) = (   0.0000000   0.1975210   0.5527675), wk =   0.0380952
        k(    9) = (   0.0000000   0.3950420   0.0000000), wk =   0.0190476
        k(   10) = (   0.0000000   0.3950420   0.1842558), wk =   0.0380952
        k(   11) = (   0.0000000   0.3950420   0.3685117), wk =   0.0380952
        k(   12) = (   0.0000000   0.3950420   0.5527675), wk =   0.0380952
        k(   13) = (   0.0000000  -0.5925630   0.0000000), wk =   0.0095238
        k(   14) = (   0.0000000  -0.5925630   0.1842558), wk =   0.0190476
        k(   15) = (   0.0000000  -0.5925630   0.3685117), wk =   0.0190476
        k(   16) = (   0.0000000  -0.5925630   0.5527675), wk =   0.0190476
        k(   17) = (   0.2052698   0.1185126   0.0000000), wk =   0.0190476
        k(   18) = (   0.2052698   0.1185126   0.1842558), wk =   0.0380952
        k(   19) = (   0.2052698   0.1185126   0.3685117), wk =   0.0380952
        k(   20) = (   0.2052698   0.1185126   0.5527675), wk =   0.0380952
        k(   21) = (   0.2052698   0.3160336   0.0000000), wk =   0.0190476
        k(   22) = (   0.2052698   0.3160336   0.1842558), wk =   0.0380952
        k(   23) = (   0.2052698   0.3160336   0.3685117), wk =   0.0380952
        k(   24) = (   0.2052698   0.3160336   0.5527675), wk =   0.0380952
        k(   25) = (   0.2052698   0.5135546   0.0000000), wk =   0.0190476
        k(   26) = (   0.2052698   0.5135546   0.1842558), wk =   0.0380952
        k(   27) = (   0.2052698   0.5135546   0.3685117), wk =   0.0380952
        k(   28) = (   0.2052698   0.5135546   0.5527675), wk =   0.0380952
        k(   29) = (   0.2052698  -0.4740504   0.0000000), wk =   0.0190476
        k(   30) = (   0.2052698  -0.4740504   0.1842558), wk =   0.0380952
        k(   31) = (   0.2052698  -0.4740504   0.3685117), wk =   0.0380952
        k(   32) = (   0.2052698  -0.4740504   0.5527675), wk =   0.0380952
        k(   33) = (   0.2052698  -0.2765294   0.0000000), wk =   0.0190476
        k(   34) = (   0.2052698  -0.2765294   0.1842558), wk =   0.0380952
        k(   35) = (   0.2052698  -0.2765294   0.3685117), wk =   0.0380952
        k(   36) = (   0.2052698  -0.2765294   0.5527675), wk =   0.0380952
        k(   37) = (   0.2052698  -0.0790084   0.0000000), wk =   0.0190476
        k(   38) = (   0.2052698  -0.0790084   0.1842558), wk =   0.0380952
        k(   39) = (   0.2052698  -0.0790084   0.3685117), wk =   0.0380952
        k(   40) = (   0.2052698  -0.0790084   0.5527675), wk =   0.0380952
        k(   41) = (   0.4105397   0.2370252   0.0000000), wk =   0.0190476
        k(   42) = (   0.4105397   0.2370252   0.1842558), wk =   0.0380952
        k(   43) = (   0.4105397   0.2370252   0.3685117), wk =   0.0380952
        k(   44) = (   0.4105397   0.2370252   0.5527675), wk =   0.0380952
        k(   45) = (   0.4105397   0.4345462   0.0000000), wk =   0.0190476
        k(   46) = (   0.4105397   0.4345462   0.1842558), wk =   0.0380952
        k(   47) = (   0.4105397   0.4345462   0.3685117), wk =   0.0380952
        k(   48) = (   0.4105397   0.4345462   0.5527675), wk =   0.0380952
        k(   49) = (   0.4105397   0.6320672   0.0000000), wk =   0.0190476
        k(   50) = (   0.4105397   0.6320672   0.1842558), wk =   0.0380952
        k(   51) = (   0.4105397   0.6320672   0.3685117), wk =   0.0380952
        k(   52) = (   0.4105397   0.6320672   0.5527675), wk =   0.0380952
        k(   53) = (   0.4105397  -0.3555378   0.0000000), wk =   0.0190476
        k(   54) = (   0.4105397  -0.3555378   0.1842558), wk =   0.0380952
        k(   55) = (   0.4105397  -0.3555378   0.3685117), wk =   0.0380952
        k(   56) = (   0.4105397  -0.3555378   0.5527675), wk =   0.0380952
        k(   57) = (   0.4105397  -0.1580168   0.0000000), wk =   0.0190476
        k(   58) = (   0.4105397  -0.1580168   0.1842558), wk =   0.0380952
        k(   59) = (   0.4105397  -0.1580168   0.3685117), wk =   0.0380952
        k(   60) = (   0.4105397  -0.1580168   0.5527675), wk =   0.0380952
        k(   61) = (   0.4105397   0.0395042   0.0000000), wk =   0.0190476
        k(   62) = (   0.4105397   0.0395042   0.1842558), wk =   0.0380952
        k(   63) = (   0.4105397   0.0395042   0.3685117), wk =   0.0380952
        k(   64) = (   0.4105397   0.0395042   0.5527675), wk =   0.0380952

     Largest allocated arrays     est. size (Mb)     dimensions
     Largest temporary arrays     est. size (Mb)     dimensions

     Initial potential from superposition of free atoms

     Starting from uniform charge
     Starting wfc are    0 randomized atomic wfcs

     Writing output data file Prototype-La-hP8-Mg3Cd.save

     Self-consistent Calculation

[...]

     iteration # 18     ecut=    40.00 Ry     beta=0.70
     CG style diagonalization
     c_bands:  1 eigenvalues not converged
     c_bands:  1 eigenvalues not converged
     ethr =  2.42E-07,  avg # of iterations =  3.9

[...]

     total energy              =   -1012.99778466 Ry
     Harris-Foulkes estimate   =   -1012.99778830 Ry
     estimated scf accuracy    <       0.00002029 Ry

     iteration # 21     ecut=    40.00 Ry     beta=0.70
     CG style diagonalization
     ethr =  1.72E-08,  avg # of iterations =  3.1

     End of self-consistent calculation

[...]

          k = 0.4105 0.0395 0.5528 (  4715 PWs)   bands (ev):

   -40.1400 -40.1398 -25.1202 -25.0548 -24.9915 -24.9586 -24.9300 -24.9066
   -12.9058 -12.9027 -12.8876 -12.8854 -12.8785 -12.8736  -4.2148  -4.1832
    -4.1090  -4.0782  -3.9353  -3.8875  -3.4382  -3.3375  -3.1978  -3.1852
    -3.0385  -2.9482  -2.8818  -2.8387  -2.7916  -2.7146  -2.6595  -2.6386
    17.5318  17.6079  17.7298  17.9154  17.9945  18.1854  18.4230  18.5219
    18.6412  18.6956  18.8867  19.2986  19.3160  19.5666  19.6119  19.8957
    20.3803  20.5473  21.1070  21.2198  21.3476  21.4831  21.8588  21.9993
    22.0924  22.1437  22.3968  22.7695  23.0324  23.1679  23.3104  23.7130
    24.4306  25.0085  25.2786  25.3529  25.7067  25.8495  26.0317

     the Fermi energy is    22.7223 ev

!    total energy              =   -1012.99778303 Ry
     Harris-Foulkes estimate   =   -1012.99778626 Ry
     estimated scf accuracy    <       0.00000343 Ry

     The total energy is the sum of the following terms:

     one-electron contribution =     -18.65223199 Ry
     hartree contribution      =      96.91394023 Ry
     xc contribution           =    -114.92281128 Ry
     ewald contribution        =    -975.80483079 Ry
     smearing contrib. (-TS)   =      -0.53184919 Ry

     convergence has been achieved in  21 iterations

     Forces acting on atoms (Ry/au):

     atom    1 type  1   force =     0.00094893    0.00054786    0.00000000
     atom    2 type  1   force =     0.00094893   -0.00054786    0.00000000
     atom    3 type  1   force =    -0.00094893   -0.00054786    0.00000000
     atom    4 type  1   force =    -0.00094893    0.00054786    0.00000000
     atom    5 type  1   force =     0.00000000   -0.00109573    0.00000000
     atom    6 type  1   force =     0.00000000    0.00109573    0.00000000
     atom    7 type  2   force =     0.00000000    0.00000000    0.00000000
     atom    8 type  2   force =     0.00000000    0.00000000    0.00000000

     Total force =     0.002684     Total SCF correction =     0.000000

     entering subroutine stress ...

          total   stress  (Ry/bohr**3)                   (kbar)     P=  -27.51
  -0.00020758   0.00000000   0.00000000        -30.54      0.00      0.00
   0.00000000  -0.00020758   0.00000000          0.00    -30.54      0.00
   0.00000000   0.00000000  -0.00014578          0.00      0.00    -21.45

     Writing output data file Prototype-La-hP8-Mg3Cd.save

     General routines

     Parallel routines

   This run was terminated on:  18:15:58  22Mar2018

   JOB DONE.