     Program PWSCF v.5.0.2 starts on 22Mar2018 at 17:32:53

     Current dimensions of program PWSCF are:
     Max number of different atomic species (ntypx) = 10
     Max number of k-points (npk) =  40000
     Max angular momentum in pseudopotentials (lmaxx) =  3
     Waiting for input...
     Reading input from standard input

     Subspace diagonalization in iterative solution of the eigenvalue problem:
     a serial algorithm will be used

     bravais-lattice index     =            0
     lattice parameter (alat)  =       7.0151  a.u.
     unit-cell volume          =     862.2778 (a.u.)^3
     number of atoms/cell      =           12
     number of atomic types    =            2
     number of electrons       =       180.00
     number of Kohn-Sham states=          108
     kinetic-energy cutoff     =      40.0000  Ry
     charge density cutoff     =     160.0000  Ry
     convergence threshold     =      1.0E-04
     mixing beta               =       0.7000
     number of iterations used =            8  plain     mixing
     Exchange-correlation      = SLA-PZ-NOGX-NOGC ( 1 1 0 0 0)
     EXX-fraction              =        0.00
     nstep                     =           50

     celldm(1)=   7.015105  celldm(2)=   0.000000  celldm(3)=   0.000000
     celldm(4)=   0.000000  celldm(5)=   0.000000  celldm(6)=   0.000000

     crystal axes: (cart. coord. in units of alat)
               a(1) = (   1.000000   0.000000   0.000000 )
               a(2) = (   0.000000   1.315963   0.000000 )
               a(3) = (   0.000000   0.000000   1.898020 )

     reciprocal axes: (cart. coord. in units 2 pi/alat)
               b(1) = (  1.000000  0.000000  0.000000 )
               b(2) = (  0.000000  0.759900  0.000000 )
               b(3) = (  0.000000  0.000000  0.526865 )

     PseudoPot. # 1 for Nd read from file:
     /home/cwx6513/pp.La/Nd.UPF
     MD5 check sum: c66c5b6abe7b5840ced9b1e244e3bed6
     Pseudo is Norm-conserving, Zval = 14.0
     Generated in analytical, separable form
     Using radial grid of 1257 points,  6 beta functions with:
                l(1) =   0
                l(2) =   0
                l(3) =   1
                l(4) =   1
                l(5) =   2
                l(6) =   3

     PseudoPot. # 2 for Eu read from file:
     /home/cwx6513/pp.La/Eu.UPF
     MD5 check sum: 5efdbbfc50c6a10138933a6429836ad2
     Pseudo is Norm-conserving, Zval = 17.0
     Generated in analytical, separable form
     Using radial grid of 1261 points,  6 beta functions with:
                l(1) =   0
                l(2) =   0
                l(3) =   1
                l(4) =   1
                l(5) =   2
                l(6) =   3

     atomic species   valence    mass     pseudopotential
        Co            14.00    58.93320     Nd( 1.00)
        Si            17.00    28.08550     Eu( 1.00)

      8 Sym. Ops., with inversion, found ( 6 have fractional translation)

   Cartesian axes

     site n.     atom                  positions (alat units)
         1           Co  tau(   1) = (   0.7500000   1.0875135   0.8270358  )
         2           Co  tau(   2) = (   0.2500000   0.2284499   1.0709846  )
         3           Co  tau(   3) = (   0.7500000   0.4295318   0.1219744  )
         4           Co  tau(   4) = (   0.2500000   0.8864316   1.7760460  )
         5           Co  tau(   5) = (   0.2500000   0.7067855   0.5358966  )
         6           Co  tau(   6) = (   0.7500000   0.6091779   1.3621238  )
         7           Co  tau(   7) = (   0.2500000   0.0488038   0.4131136  )
         8           Co  tau(   8) = (   0.7500000   1.2671596   1.4849068  )
         9           Si  tau(   9) = (   0.2500000   0.2669484   1.6960710  )
        10           Si  tau(  10) = (   0.7500000   1.0490149   0.2019494  )
        11           Si  tau(  11) = (   0.2500000   0.9249301   1.1509596  )
        12           Si  tau(  12) = (   0.7500000   0.3910333   0.7470608  )

     number of k points=    12  gaussian smearing, width (Ry)=  0.1000
                       cart. coord. in units 2pi/alat
        k(    1) = (   0.0000000   0.0000000   0.0000000), wk =   0.0833333
        k(    2) = (   0.0000000   0.0000000   0.1317162), wk =   0.1666667
        k(    3) = (   0.0000000   0.0000000  -0.2634324), wk =   0.0833333
        k(    4) = (   0.0000000   0.2532999   0.0000000), wk =   0.1666667
        k(    5) = (   0.0000000   0.2532999   0.1317162), wk =   0.3333333
        k(    6) = (   0.0000000   0.2532999  -0.2634324), wk =   0.1666667
        k(    7) = (  -0.5000000   0.0000000   0.0000000), wk =   0.0833333
        k(    8) = (  -0.5000000   0.0000000   0.1317162), wk =   0.1666667
        k(    9) = (  -0.5000000   0.0000000  -0.2634324), wk =   0.0833333
        k(   10) = (  -0.5000000   0.2532999   0.0000000), wk =   0.1666667
        k(   11) = (  -0.5000000   0.2532999   0.1317162), wk =   0.3333333
        k(   12) = (  -0.5000000   0.2532999  -0.2634324), wk =   0.1666667

     Largest allocated arrays     est. size (Mb)     dimensions
     Largest temporary arrays     est. size (Mb)     dimensions

     Initial potential from superposition of free atoms

     Starting from uniform charge
     Starting wfc are    0 randomized atomic wfcs

     Self-consistent Calculation

     iteration #  1     ecut=    40.00 Ry     beta=0.70
     CG style diagonalization
     c_bands:  5 eigenvalues not converged
     c_bands:  4 eigenvalues not converged
     ethr =  1.00E-02,  avg # of iterations = 15.2

     total energy              =   -1339.35179600 Ry
     Harris-Foulkes estimate   =   -1684.99836879 Ry
     estimated scf accuracy    <     437.61429896 Ry

[...]

     iteration #  4     ecut=    40.00 Ry     beta=0.70
     CG style diagonalization
     ethr =  9.77E-03,  avg # of iterations =  3.8

[...]

     End of self-consistent calculation

          k = 0.0000 0.0000 0.0000 (  3675 PWs)   bands (ev):

   -19.3077 -19.1757 -19.1336 -19.0822  -3.8060  -3.4690  -3.3504  -2.3131
    -2.1134  -1.7722  -1.6645  -1.6622   5.8539   6.3861   6.4858   6.5447
     6.7352   6.8261   7.0625   7.1521   7.2488   7.4272   7.7066   8.0479
    14.8290  15.2796  15.6213  16.1808  17.0505  17.1816  17.4509  17.5844
    18.1642  18.2184  18.3896  18.7886  18.7905  18.9761  19.5836  19.7648
    19.8192  20.0994  20.2464  20.7324  21.9984  22.0523  22.3418  22.7491
    33.0052  33.3172  33.9769  34.6557  34.6987  34.7747  34.9059  35.1665
    36.0259  36.0980  36.7784  37.4375  37.5271  37.5912  38.6769  39.7076
    39.7733  39.8897  40.7733  41.2576  41.5616  41.8397  41.8908  41.9632
    42.1340  42.3694  42.3853  43.4186  43.4267  43.9508  44.4341  44.4870
    44.5153  45.1846  45.2530  45.3575  46.2226  46.5412  46.6337  46.8846
    47.2068  47.2577  47.8138  48.2032  48.8513  49.4495  49.7779  49.8307
    49.8960  50.8882  51.1073  51.8891  51.9508  52.7623  52.8271  53.0135
    53.0473  53.2946  53.3770  53.4021

[...]

          k =-0.5000 0.0000 0.0000 (  3722 PWs)   bands (ev):

[...]

     the Fermi energy is    47.4337 ev

!    total energy              =   -1572.54305642 Ry
     Harris-Foulkes estimate   =   -1572.54309798 Ry
     estimated scf accuracy    <       0.00004989 Ry

     The total energy is the sum of the following terms:

     one-electron contribution =     429.96071590 Ry
     hartree contribution      =      70.32301589 Ry
     xc contribution           =    -194.46814479 Ry
     ewald contribution        =   -1877.96643113 Ry
     smearing contrib. (-TS)   =      -0.39221229 Ry

     convergence has been achieved in   9 iterations

     Forces acting on atoms (Ry/au):

     atom    1 type  1   force =     0.00000000   -0.06799521   -0.10836665
     atom    2 type  1   force =     0.00000000    0.06799521    0.10836665
     atom    3 type  1   force =     0.00000000   -0.06799521    0.10836665
     atom    4 type  1   force =     0.00000000    0.06799521   -0.10836665
     atom    5 type  1   force =     0.00000000    0.15088183   -0.23895235
     atom    6 type  1   force =     0.00000000   -0.15088183    0.23895235
     atom    7 type  1   force =     0.00000000    0.15088183    0.23895235
     atom    8 type  1   force =     0.00000000   -0.15088183   -0.23895235
     atom    9 type  2   force =     0.00000000   -0.12703620   -0.05893955
     atom   10 type  2   force =     0.00000000    0.12703620    0.05893955
     atom   11 type  2   force =     0.00000000   -0.12703620    0.05893955
     atom   12 type  2   force =     0.00000000    0.12703620   -0.05893955

     Total force =     0.680712     Total SCF correction =     0.000000

     entering subroutine stress ...

          total   stress  (Ry/bohr**3)                   (kbar)     P= 6400.47
   0.04593323   0.00000000   0.00000000       6757.01      0.00      0.00
   0.00000000   0.04128365   0.00000000          0.00   6073.03      0.00
   0.00000000   0.00000000   0.04331167          0.00      0.00   6371.36

     BFGS Geometry Optimization

     number of scf cycles    =   1
     number of bfgs steps    =   0

     enthalpy new            =   -1572.5430564152 Ry

     new trust radius        =       0.5000000000 bohr
     new conv_thr            =       0.0001000000 Ry

     new unit-cell volume =   1088.14954 a.u.^3 (   161.24712 Ang^3 )

CELL_PARAMETERS (alat=  7.01510508)
   1.085136619   0.000000000   0.000000000
   0.000000000   1.416659169   0.000000000
   0.000000000   0.000000000   2.050388903

ATOMIC_POSITIONS (crystal)
Co       0.750000000   0.825854928   0.435132593
Co       0.250000000   0.174145072   0.564867407
Co       0.750000000   0.325854928   0.064867407
Co       0.250000000   0.674145072   0.935132593
Co       0.250000000   0.538297737   0.281014467
Co       0.750000000   0.461702263   0.718985533
Co       0.250000000   0.038297737   0.218985533
Co       0.750000000   0.961702263   0.781014467
Si       0.250000000   0.201833768   0.893271813
Si       0.750000000   0.798166232   0.106728187
Si       0.250000000   0.701833768   0.606728187
Si       0.750000000   0.298166232   0.393271813

     Writing output data file Prototype-La-oP12-Co2Si.save
     NEW-OLD atomic charge density approx. for the potential
     NEW k-points:
        k(    1) = (   0.0000000   0.0000000   0.0000000), wk =   0.0833333
        k(    2) = (   0.0000000   0.0000000   0.1219281), wk =   0.1666667
        k(    3) = (   0.0000000   0.0000000  -0.2438562), wk =   0.0833333
        k(    4) = (   0.0000000   0.2352954   0.0000000), wk =   0.1666667
        k(    5) = (   0.0000000   0.2352954   0.1219281), wk =   0.3333333
        k(    6) = (   0.0000000   0.2352954  -0.2438562), wk =   0.1666667
        k(    7) = (  -0.4607715   0.0000000   0.0000000), wk =   0.0833333
        k(    8) = (  -0.4607715   0.0000000   0.1219281), wk =   0.1666667
        k(    9) = (  -0.4607715   0.0000000  -0.2438562), wk =   0.0833333
        k(   10) = (  -0.4607715   0.2352954   0.0000000), wk =   0.1666667
        k(   11) = (  -0.4607715   0.2352954   0.1219281), wk =   0.3333333
        k(   12) = (  -0.4607715   0.2352954  -0.2438562), wk =   0.1666667

[...]

     enthalpy old            =   -1572.5430564152 Ry
     enthalpy new            =   -1578.7543047059 Ry

     CASE: enthalpy_new < enthalpy_old

     small trust_radius: resetting bfgs history

     new trust radius        =       2.6184745522 bohr
     new conv_thr            =       0.0001000000 Ry

[...]

          total   stress  (Ry/bohr**3)                   (kbar)     P=-1303.00
  -0.00908330   0.00000000   0.00000000      -1336.20      0.00      0.00
   0.00000000  -0.00866089   0.00000000          0.00  -1274.06      0.00
   0.00000000   0.00000000  -0.00882864          0.00      0.00  -1298.74

     number of scf cycles    =   3
     number of bfgs steps    =   2

     enthalpy old            =   -1578.7543047059 Ry
     enthalpy new            =   -1568.9275780468 Ry

     CASE: enthalpy_new > enthalpy_old

     new trust radius        =       0.9875211760 bohr

     trust_radius < trust_radius_min

     resetting bfgs history

     Message from routine bfgs:
     history already reset at previous step: stopping
     new conv_thr            =       0.0001000000 Ry

     new unit-cell volume =   1296.72185 a.u.^3 (   192.15435 Ang^3 )

[...]

ATOMIC_POSITIONS (crystal)
Co       0.750000000   0.825220381   0.434647697
Co       0.250000000   0.174779619   0.565352303
Co       0.750000000   0.325220381   0.065352303
Co       0.250000000   0.674779619   0.934647697
Co       0.250000000   0.539238028   0.280013013
Co       0.750000000   0.460761972   0.719986987
Co       0.250000000   0.039238028   0.219986987
Co       0.750000000   0.960761972   0.780013013
Si       0.250000000   0.201039899   0.893054771
Si       0.750000000   0.798960101   0.106945229
Si       0.250000000   0.701039899   0.606945229
Si       0.750000000   0.298960101   0.393054771

     Writing output data file Prototype-La-oP12-Co2Si.save
     NEW-OLD atomic charge density approx. for the potential
     NEW k-points:
        k(    1) = (   0.0000000   0.0000000   0.0000000), wk =   0.0833333
        k(    2) = (   0.0000000   0.0000000   0.1150309), wk =   0.1666667
        k(    3) = (   0.0000000   0.0000000  -0.2300618), wk =   0.0833333
        k(    4) = (   0.0000000   0.2230311   0.0000000), wk =   0.1666667
        k(    5) = (   0.0000000   0.2230311   0.1150309), wk =   0.3333333
        k(    6) = (   0.0000000   0.2230311  -0.2300618), wk =   0.1666667
        k(    7) = (  -0.4323788   0.0000000   0.0000000), wk =   0.0833333
        k(    8) = (  -0.4323788   0.0000000   0.1150309), wk =   0.1666667
        k(    9) = (  -0.4323788   0.0000000  -0.2300618), wk =   0.0833333
        k(   10) = (  -0.4323788   0.2230311   0.0000000), wk =   0.1666667
        k(   11) = (  -0.4323788   0.2230311   0.1150309), wk =   0.3333333
        k(   12) = (  -0.4323788   0.2230311  -0.2300618), wk =   0.1666667

[...]

     The maximum number of steps has been reached.

     End of BFGS Geometry Optimization
Begin final coordinates
     new unit-cell volume =   1296.72185 a.u.^3 (   192.15435 Ang^3 )

CELL_PARAMETERS (alat=  7.01510508)
   1.156393436   0.000000000   0.000000000
   0.000000000   1.494559605   0.000000000
   0.000000000   0.000000000   2.173328767

ATOMIC_POSITIONS (crystal)
Co       0.750000000   0.825220381   0.434647697
Co       0.250000000   0.174779619   0.565352303
Co       0.750000000   0.325220381   0.065352303
Co       0.250000000   0.674779619   0.934647697
Co       0.250000000   0.539238028   0.280013013
Co       0.750000000   0.460761972   0.719986987
Co       0.250000000   0.039238028   0.219986987
Co       0.750000000   0.960761972   0.780013013
Si       0.250000000   0.201039899   0.893054771
Si       0.750000000   0.798960101   0.106945229
Si       0.250000000   0.701039899   0.606945229
Si       0.750000000   0.298960101   0.393054771
End final coordinates

     A final scf calculation at the relaxed structure.
     The G-vectors are recalculated for the final unit cell
     Results may differ from those at the preceding step.

     bravais-lattice index     =            0
     lattice parameter (alat)  =       7.0151  a.u.
     unit-cell volume          =    1296.7218 (a.u.)^3
     number of atoms/cell      =           12
     number of atomic types    =            2
     number of electrons       =       180.00
     number of Kohn-Sham states=          108
     kinetic-energy cutoff     =      40.0000  Ry
     charge density cutoff     =     160.0000  Ry
     convergence threshold     =      1.0E-04
     mixing beta               =       0.7000
     number of iterations used =            8  plain     mixing
     Exchange-correlation      = SLA-PZ-NOGX-NOGC ( 1 1 0 0 0)
     EXX-fraction              =        0.00

     celldm(1)=   7.015105  celldm(2)=   0.000000  celldm(3)=   0.000000
     celldm(4)=   0.000000  celldm(5)=   0.000000  celldm(6)=   0.000000

     crystal axes: (cart. coord. in units of alat)
               a(1) = (   1.156393   0.000000   0.000000 )
               a(2) = (   0.000000   1.494560   0.000000 )
               a(3) = (   0.000000   0.000000   2.173329 )

     reciprocal axes: (cart. coord. in units 2 pi/alat)
               b(1) = (  0.864758  0.000000  0.000000 )
               b(2) = (  0.000000  0.669093  0.000000 )
               b(3) = (  0.000000  0.000000  0.460124 )

     PseudoPot. # 1 for Nd read from file:
     /home/cwx6513/pp.La/Nd.UPF
     MD5 check sum: c66c5b6abe7b5840ced9b1e244e3bed6
     Pseudo is Norm-conserving, Zval = 14.0
     Generated in analytical, separable form
     Using radial grid of 1257 points,  6 beta functions with:
                l(1) =   0
                l(2) =   0
                l(3) =   1
                l(4) =   1
                l(5) =   2
                l(6) =   3

     PseudoPot. # 2 for Eu read from file:
     /home/cwx6513/pp.La/Eu.UPF
     MD5 check sum: 5efdbbfc50c6a10138933a6429836ad2
     Pseudo is Norm-conserving, Zval = 17.0
     Generated in analytical, separable form
     Using radial grid of 1261 points,  6 beta functions with:
                l(1) =   0
                l(2) =   0
                l(3) =   1
                l(4) =   1
                l(5) =   2
                l(6) =   3

     atomic species   valence    mass     pseudopotential
        Co            14.00    58.93320     Nd( 1.00)
        Si            17.00    28.08550     Eu( 1.00)

      8 Sym. Ops., with inversion, found ( 6 have fractional translation)

   Cartesian axes

     site n.     atom                  positions (alat units)
         1           Co  tau(   1) = (   0.8672951   1.2333410   0.9446323  )
         2           Co  tau(   2) = (   0.2890984   0.2612186   1.2286964  )
         3           Co  tau(   3) = (   0.8672951   0.4860612   0.1420320  )
         4           Co  tau(   4) = (   0.2890984   1.0084984   2.0312967  )
         5           Co  tau(   5) = (   0.2890984   0.8059234   0.6085603  )
         6           Co  tau(   6) = (   0.8672951   0.6886362   1.5647684  )
         7           Co  tau(   7) = (   0.2890984   0.0586436   0.4781040  )
         8           Co  tau(   8) = (   0.8672951   1.4359160   1.6952247  )
         9           Si  tau(   9) = (   0.2890984   0.3004661   1.9409016  )
        10           Si  tau(  10) = (   0.8672951   1.1940935   0.2324271  )
        11           Si  tau(  11) = (   0.2890984   1.0477459   1.3190915  )
        12           Si  tau(  12) = (   0.8672951   0.4468137   0.8542372  )

     number of k points=    12  gaussian smearing, width (Ry)=  0.1000
                       cart. coord. in units 2pi/alat
        k(    1) = (   0.0000000   0.0000000   0.0000000), wk =   0.0833333
        k(    2) = (   0.0000000   0.0000000   0.1150309), wk =   0.1666667
        k(    3) = (   0.0000000   0.0000000  -0.2300618), wk =   0.0833333
        k(    4) = (   0.0000000   0.2230311   0.0000000), wk =   0.1666667
        k(    5) = (   0.0000000   0.2230311   0.1150309), wk =   0.3333333
        k(    6) = (   0.0000000   0.2230311  -0.2300618), wk =   0.1666667
        k(    7) = (  -0.4323788   0.0000000   0.0000000), wk =   0.0833333
        k(    8) = (  -0.4323788   0.0000000   0.1150309), wk =   0.1666667
        k(    9) = (  -0.4323788   0.0000000  -0.2300618), wk =   0.0833333
        k(   10) = (  -0.4323788   0.2230311   0.0000000), wk =   0.1666667
        k(   11) = (  -0.4323788   0.2230311   0.1150309), wk =   0.3333333
        k(   12) = (  -0.4323788   0.2230311  -0.2300618), wk =   0.1666667

     Largest allocated arrays     est. size (Mb)     dimensions
     Largest temporary arrays     est. size (Mb)     dimensions

     Initial potential from superposition of free atoms

     Starting from uniform charge
     Starting wfc are    0 randomized atomic wfcs

     Writing output data file Prototype-La-oP12-Co2Si.save

     Self-consistent Calculation

[...]

     iteration # 10     ecut=    40.00 Ry     beta=0.70
     CG style diagonalization
     c_bands:  1 eigenvalues not converged
     c_bands:  1 eigenvalues not converged
     c_bands:  1 eigenvalues not converged
     c_bands:  1 eigenvalues not converged
     ethr =  1.38E-06,  avg # of iterations =  4.3

     total energy              =   -1582.51997730 Ry
     Harris-Foulkes estimate   =   -1582.52025316 Ry
     estimated scf accuracy    <       0.00061325 Ry

     iteration # 11     ecut=    40.00 Ry     beta=0.70
     CG style diagonalization
     ethr =  3.41E-07,  avg # of iterations =  3.7

     End of self-consistent calculation

[...]

          k = 0.0000 0.2230-0.2301 (  5518 PWs)   bands (ev):

[...]

          k =-0.4324 0.2230-0.2301 (  5540 PWs)   bands (ev):

   -33.4653 -33.4653 -33.4610 -33.4610 -17.7484 -17.7484 -17.6852 -17.6852
   -17.4749 -17.4749 -17.3246 -17.3246  -6.6547  -6.6547  -6.6237  -6.6237
    -6.5527  -6.5527  -6.4902  -6.4902  -6.3545  -6.3545  -6.3010  -6.3010
     2.6365   2.6365   2.9485   2.9485   3.1506   3.1506   3.2714   3.2714
     3.3801   3.3801   3.8740   3.8740   4.1768   4.1768   4.4013   4.4013
     4.5764   4.5764   4.6103   4.6103   4.7997   4.7997   4.9107   4.9107
    22.9059  22.9059  23.3692  23.3692  23.4915  23.4915  23.9616  23.9616
    24.1119  24.1119  24.4054  24.4054  24.5955  24.5955  24.8013  24.8013
    25.4918  25.4918  25.7603  25.7603  26.5124  26.5124  26.5497  26.5497
    26.9349  26.9349  27.1741  27.1741  27.2201  27.2201  27.6585  27.6585
    28.0284  28.0284  28.8848  28.8848  29.0930  29.0930  29.6766  29.6766
    30.0147  30.0147  30.5106  30.5106  30.5144  30.5144  31.1502  31.1502
    31.3838  31.3838  31.7868  31.7868  32.6838  32.6838  33.5388  33.5391
    34.2643  34.2645  34.5227  34.5230

     the Fermi energy is    30.5049 ev

!    total energy              =   -1582.52011183 Ry
     Harris-Foulkes estimate   =   -1582.52011817 Ry
     estimated scf accuracy    <       0.00000573 Ry

     The total energy is the sum of the following terms:

     one-electron contribution =     117.96898869 Ry
     hartree contribution      =     122.51455275 Ry
     xc contribution           =    -182.57019451 Ry
     ewald contribution        =   -1639.82631004 Ry
     smearing contrib. (-TS)   =      -0.60714872 Ry

     convergence has been achieved in  11 iterations

     Forces acting on atoms (Ry/au):

     atom    1 type  1   force =     0.00000000   -0.03170048   -0.03047971
     atom    2 type  1   force =     0.00000000    0.03170048    0.03047971
     atom    3 type  1   force =     0.00000000   -0.03170048    0.03047971
     atom    4 type  1   force =     0.00000000    0.03170048   -0.03047971
     atom    5 type  1   force =     0.00000000    0.04300816   -0.06744108
     atom    6 type  1   force =     0.00000000   -0.04300816    0.06744108
     atom    7 type  1   force =     0.00000000    0.04300816    0.06744108
     atom    8 type  1   force =     0.00000000   -0.04300816   -0.06744108
     atom    9 type  2   force =     0.00000000   -0.02973841   -0.01365365
     atom   10 type  2   force =     0.00000000    0.02973841    0.01365365
     atom   11 type  2   force =     0.00000000   -0.02973841    0.01365365
     atom   12 type  2   force =     0.00000000    0.02973841   -0.01365365

     Total force =     0.193935     Total SCF correction =     0.000000

     entering subroutine stress ...

          total   stress  (Ry/bohr**3)                   (kbar)     P= 1008.18
   0.00728412   0.00000000   0.00000000       1071.53      0.00      0.00
   0.00000000   0.00648775   0.00000000          0.00    954.38      0.00
   0.00000000   0.00000000   0.00678844          0.00      0.00    998.61

     Writing output data file Prototype-La-oP12-Co2Si.save

     General routines

     Parallel routines

   This run was terminated on:  17:49: 7  22Mar2018

   JOB DONE.