     Program PWSCF v.5.0.2 starts on 22Mar2018 at  0:36:45

     Current dimensions of program PWSCF are:
     Max number of different atomic species (ntypx) = 10
     Max number of k-points (npk) =  40000
     Max angular momentum in pseudopotentials (lmaxx) =  3
     Waiting for input...
     Reading input from standard input

     Subspace diagonalization in iterative solution of the eigenvalue problem:
     a serial algorithm will be used

     bravais-lattice index     =            0
     lattice parameter (alat)  =      12.8532  a.u.
     unit-cell volume          =    1390.2597 (a.u.)^3
     number of atoms/cell      =            6
     number of atomic types    =            2
     number of electrons       =       108.00
     number of Kohn-Sham states=           65
     kinetic-energy cutoff     =      40.0000  Ry
     charge density cutoff     =     160.0000  Ry
     convergence threshold     =      1.0E-04
     mixing beta               =       0.7000
     number of iterations used =            8  plain     mixing
     Exchange-correlation      = SLA-PZ-NOGX-NOGC ( 1 1 0 0 0)
     EXX-fraction              =        0.00
     nstep                     =           50

     celldm(1)=  12.853229  celldm(2)=   0.000000  celldm(3)=   0.000000
     celldm(4)=   0.000000  celldm(5)=   0.000000  celldm(6)=   0.000000

     crystal axes: (cart. coord. in units of alat)
               a(1) = (   1.000000   0.000000   0.000000 )
               a(2) = (  -0.036574   0.999331   0.000000 )
               a(3) = (  -0.266883  -0.706777   0.655164 )

     reciprocal axes: (cart. coord. in units 2 pi/alat)
               b(1) = (  1.000000  0.036598  0.446834 )
               b(2) = (  0.000000  1.000669  1.079502 )
               b(3) = (  0.000000  0.000000  1.526336 )

     PseudoPot. # 1 for Ce read from file:
     /home/jld5415/pp.La/Ce.UPF
     MD5 check sum: 44451aa79a44a00cf2bc029dc19922f6
     Pseudo is Norm-conserving, Zval = 12.0
     Generated in analytical, separable form
     Using radial grid of 1255 points,  6 beta functions with:
                l(1) =   0
                l(2) =   0
                l(3) =   1
                l(4) =   1
                l(5) =   2
                l(6) =   3

     PseudoPot. # 2 for Ho read from file:
     /home/jld5415/pp.La/Ho.UPF
     MD5 check sum: f307ee11bce99f5b724fa279e3790763
     Pseudo is Norm-conserving, Zval = 21.0
     Generated in analytical, separable form
     Using radial grid of 1265 points,  6 beta functions with:
                l(1) =   0
                l(2) =   0
                l(3) =   1
                l(4) =   1
                l(5) =   2
                l(6) =   3

     atomic species   valence    mass     pseudopotential
        K             12.00    39.09830     Ce( 1.00)
        Hg            21.00   200.59000     Ho( 1.00)

      2 Sym. Ops., with inversion, found

   Cartesian axes

     site n.     atom                  positions (alat units)
         1           K   tau(   1) = (  -0.0340766   0.4201429   0.4913727  )
         2           K   tau(   2) = (   0.7306201  -0.1275892   0.1637909  )
         3           Hg  tau(   3) = (   0.2308977  -0.0548727   0.3630373  )
         4           Hg  tau(   4) = (   0.4656458   0.3474265   0.2921263  )
         5           Hg  tau(   5) = (   0.5181090  -0.3317640   0.6197082  )
         6           Hg  tau(   6) = (   0.1784345   0.6243178   0.0354555  )

     number of k points=   253  gaussian smearing, width (Ry)=  0.1000

     Number of k-points >= 100: set verbosity='high' to print them.

     Largest allocated arrays     est. size (Mb)     dimensions
     Largest temporary arrays     est. size (Mb)     dimensions

     Initial potential from superposition of free atoms

     Starting from uniform charge
     Starting wfc are    0 randomized atomic wfcs

     Self-consistent Calculation

     iteration #  1     ecut=    40.00 Ry     beta=0.70
     CG style diagonalization
     ethr =  1.00E-02,  avg # of iterations = 18.9

     total energy              =    -882.15401059 Ry
     Harris-Foulkes estimate   =   -1984.52417880 Ry
     estimated scf accuracy    <    1340.78889350 Ry

     iteration #  2     ecut=    40.00 Ry     beta=0.70
     CG style diagonalization
     c_bands:  3 eigenvalues not converged
     c_bands:  1 eigenvalues not converged
     c_bands:  1 eigenvalues not converged
     c_bands:  4 eigenvalues not converged
     c_bands:  1 eigenvalues not converged
     c_bands:  1 eigenvalues not converged
     c_bands:  1 eigenvalues not converged
     c_bands:  1 eigenvalues not converged
     c_bands:  1 eigenvalues not converged
     c_bands:  1 eigenvalues not converged
     c_bands:  2 eigenvalues not converged
     c_bands:  4 eigenvalues not converged
     c_bands:  1 eigenvalues not converged
     c_bands:  1 eigenvalues not converged
     c_bands:  2 eigenvalues not converged
     c_bands:  1 eigenvalues not converged
     c_bands:  1 eigenvalues not converged
     c_bands:  1 eigenvalues not converged
     c_bands:  2 eigenvalues not converged
     c_bands:  2 eigenvalues not converged
     c_bands:  2 eigenvalues not converged
     c_bands:  1 eigenvalues not converged
     c_bands:  1 eigenvalues not converged
     c_bands:  2 eigenvalues not converged
     c_bands:  3 eigenvalues not converged
     c_bands:  2 eigenvalues not converged
     c_bands:  2 eigenvalues not converged
     c_bands:  4 eigenvalues not converged
     c_bands:  3 eigenvalues not converged
     c_bands:  2 eigenvalues not converged
     c_bands:  2 eigenvalues not converged
     c_bands:  1 eigenvalues not converged
     c_bands:  1 eigenvalues not converged
     c_bands:  4 eigenvalues not converged
     c_bands:  5 eigenvalues not converged
     c_bands:  2 eigenvalues not converged
     c_bands:  4 eigenvalues not converged
     c_bands:  2 eigenvalues not converged
     c_bands:  2 eigenvalues not converged
     c_bands:  1 eigenvalues not converged
     c_bands:  2 eigenvalues not converged
     c_bands:  1 eigenvalues not converged
     c_bands:  1 eigenvalues not converged
     c_bands:  1 eigenvalues not converged
     c_bands:  1 eigenvalues not converged
     c_bands:  3 eigenvalues not converged
     c_bands:  2 eigenvalues not converged
     c_bands:  1 eigenvalues not converged
     c_bands:  1 eigenvalues not converged
     c_bands:  3 eigenvalues not converged
     c_bands:  2 eigenvalues not converged
     c_bands:  1 eigenvalues not converged
     c_bands:  2 eigenvalues not converged
     c_bands:  3 eigenvalues not converged
     c_bands:  1 eigenvalues not converged
     c_bands:  3 eigenvalues not converged
     c_bands:  1 eigenvalues not converged
     c_bands:  2 eigenvalues not converged
     c_bands:  1 eigenvalues not converged
     c_bands:  2 eigenvalues not converged
[...]
     c_bands:  1 eigenvalues not converged
     c_bands:  1 eigenvalues not converged
     c_bands:  3 eigenvalues not converged
     c_bands:  3 eigenvalues not converged
     c_bands:  1 eigenvalues not converged
     c_bands:  1 eigenvalues not converged
     c_bands:  2 eigenvalues not converged
     c_bands:  3 eigenvalues not converged
     c_bands:  1 eigenvalues not converged
     c_bands:  2 eigenvalues not converged
     c_bands:  2 eigenvalues not converged
     c_bands:  3 eigenvalues not converged
     c_bands:  1 eigenvalues not converged
     c_bands:  1 eigenvalues not converged
     c_bands:  3 eigenvalues not converged
     ethr =  1.00E-02,  avg # of iterations = 14.4

[...]

     End of self-consistent calculation

     Number of k-points >= 100: set verbosity='high' to print the bands.

     the Fermi energy is    13.8111 ev

!    total energy              =   -1329.14273086 Ry
     Harris-Foulkes estimate   =   -1329.14275852 Ry
     estimated scf accuracy    <       0.00003177 Ry

     The total energy is the sum of the following terms:

     one-electron contribution =    -640.70261209 Ry
     hartree contribution      =     345.65360896 Ry
     xc contribution           =    -121.77787853 Ry
     ewald contribution        =    -911.95164500 Ry
     smearing contrib. (-TS)   =      -0.36420419 Ry

     convergence has been achieved in  13 iterations

     Forces acting on atoms (Ry/au):

     atom    1 type  1   force =    -0.00492770   -0.00465493   -0.00020673
     atom    2 type  1   force =     0.00492770    0.00465493    0.00020673
     atom    3 type  2   force =    -0.00704596    0.02934342   -0.01648689
     atom    4 type  2   force =     0.00704596   -0.02934342    0.01648689
     atom    5 type  2   force =     0.02351823   -0.01057520    0.01546237
     atom    6 type  2   force =    -0.02351823    0.01057520   -0.01546237

     Total force =     0.065307     Total SCF correction =     0.000000

     entering subroutine stress ...

          total   stress  (Ry/bohr**3)                   (kbar)     P= -366.20
  -0.00250292   0.00006759  -0.00008118       -368.19      9.94    -11.94
   0.00006759  -0.00249951   0.00007865          9.94   -367.69     11.57
  -0.00008118   0.00007865  -0.00246572        -11.94     11.57   -362.72

     BFGS Geometry Optimization

     number of scf cycles    =   1
     number of bfgs steps    =   0

     enthalpy new            =   -1329.1427308588 Ry

     new trust radius        =       0.4670365182 bohr
     new conv_thr            =       0.0001000000 Ry

     new unit-cell volume =   1146.49763 a.u.^3 (   169.89342 Ang^3 )

CELL_PARAMETERS (alat= 12.85322937)
   0.937427081   0.001689813  -0.002029593
  -0.032596313   0.936823266   0.002039198
  -0.252707350  -0.661775097   0.613929396

ATOMIC_POSITIONS (crystal)
K        0.200458176   0.950482234   0.749975450
K        0.799541824   0.049517766   0.250024550
Hg       0.390069209   0.337889808   0.552159163
Hg       0.609930791   0.662110192   0.447840837
Hg       0.785211180   0.337465319   0.947719175
Hg       0.214788820   0.662534681   0.052280825

     Writing output data file Prototype-La-oI12-KHg2.save
     NEW-OLD atomic charge density approx. for the potential
     NEW k-points: (use verbosity='high' to print them)

[...]

     enthalpy old            =   -1329.1427308588 Ry
     enthalpy new            =   -1329.5958370824 Ry

     CASE: enthalpy_new < enthalpy_old

     small trust_radius: resetting bfgs history

[...]

     number of scf cycles    =   3
     number of bfgs steps    =   2

     enthalpy old            =   -1329.5958370824 Ry
     enthalpy new            =   -1329.6492640824 Ry

     CASE: enthalpy_new < enthalpy_old

     Message from routine bfgs:
     history already reset at previous step: stopping
     small trust_radius: resetting bfgs history

     new trust radius        =       0.0532882974 bohr
     new conv_thr            =       0.0000473830 Ry

     new unit-cell volume =   1053.72702 a.u.^3 (   156.14623 Ang^3 )

[...]

ATOMIC_POSITIONS (crystal)
K        0.199902796   0.949308454   0.750595455
K        0.800097204   0.050691546   0.249404545
Hg       0.387315565   0.338591455   0.548716369
Hg       0.612684435   0.661408545   0.451283631
Hg       0.790009164   0.338110861   0.951884121
Hg       0.209990836   0.661889139   0.048115879

     Writing output data file Prototype-La-oI12-KHg2.save
     NEW-OLD atomic charge density approx. for the potential
     NEW k-points: (use verbosity='high' to print them)

[...]

     The maximum number of steps has been reached.

     End of BFGS Geometry Optimization
Begin final coordinates
     new unit-cell volume =   1053.72702 a.u.^3 (   156.14623 Ang^3 )

CELL_PARAMETERS (alat= 12.85322937)
   0.910063679   0.008251700  -0.008598025
  -0.025051781   0.911227684   0.007921001
  -0.254331984  -0.641890798   0.595262975

ATOMIC_POSITIONS (crystal)
K        0.199902796   0.949308454   0.750595455
K        0.800097204   0.050691546   0.249404545
Hg       0.387315565   0.338591455   0.548716369
Hg       0.612684435   0.661408545   0.451283631
Hg       0.790009164   0.338110861   0.951884121
Hg       0.209990836   0.661889139   0.048115879
End final coordinates

     A final scf calculation at the relaxed structure.
     The G-vectors are recalculated for the final unit cell
     Results may differ from those at the preceding step.

     bravais-lattice index     =            0
     lattice parameter (alat)  =      12.8532  a.u.
     unit-cell volume          =    1053.7270 (a.u.)^3
     number of atoms/cell      =            6
     number of atomic types    =            2
     number of electrons       =       108.00
     number of Kohn-Sham states=           65
     kinetic-energy cutoff     =      40.0000  Ry
     charge density cutoff     =     160.0000  Ry
     convergence threshold     =      4.7E-05
     mixing beta               =       0.7000
     number of iterations used =            8  plain     mixing
     Exchange-correlation      = SLA-PZ-NOGX-NOGC ( 1 1 0 0 0)
     EXX-fraction              =        0.00

     celldm(1)=  12.853229  celldm(2)=   0.000000  celldm(3)=   0.000000
     celldm(4)=   0.000000  celldm(5)=   0.000000  celldm(6)=   0.000000

     crystal axes: (cart. coord. in units of alat)
               a(1) = (   0.910064   0.008252  -0.008598 )
               a(2) = (  -0.025052   0.911228   0.007921 )
               a(3) = (  -0.254332  -0.641891   0.595263 )

     reciprocal axes: (cart. coord. in units 2 pi/alat)
               b(1) = (  1.103307  0.025991  0.499426 )
               b(2) = (  0.001223  1.087258  1.172947 )
               b(3) = (  0.015920 -0.014092  1.671535 )

     PseudoPot. # 1 for Ce read from file:
     /home/jld5415/pp.La/Ce.UPF
     MD5 check sum: 44451aa79a44a00cf2bc029dc19922f6
     Pseudo is Norm-conserving, Zval = 12.0
     Generated in analytical, separable form
     Using radial grid of 1255 points,  6 beta functions with:
                l(1) =   0
                l(2) =   0
                l(3) =   1
                l(4) =   1
                l(5) =   2
                l(6) =   3

     PseudoPot. # 2 for Ho read from file:
     /home/jld5415/pp.La/Ho.UPF
     MD5 check sum: f307ee11bce99f5b724fa279e3790763
     Pseudo is Norm-conserving, Zval = 21.0
     Generated in analytical, separable form
     Using radial grid of 1265 points,  6 beta functions with:
                l(1) =   0
                l(2) =   0
                l(3) =   1
                l(4) =   1
                l(5) =   2
                l(6) =   3

     atomic species   valence    mass     pseudopotential
        K             12.00    39.09830     Ce( 1.00)
        Hg            21.00   200.59000     Ho( 1.00)

      2 Sym. Ops., with inversion, found

   Cartesian axes

     site n.     atom                  positions (alat units)
         1           K   tau(   1) = (  -0.0327580   0.3848854   0.4526024  )
         2           K   tau(   2) = (   0.6634379  -0.1072968   0.1419836  )
         3           Hg  tau(   3) = (   0.2044434  -0.0404861   0.3259824  )
         4           Hg  tau(   4) = (   0.4262365   0.3180747   0.2686036  )
         5           Hg  tau(   5) = (   0.4683938  -0.2963908   0.5625070  )
         6           Hg  tau(   6) = (   0.1622861   0.5739793   0.0320789  )

     number of k points=   253  gaussian smearing, width (Ry)=  0.1000

     Number of k-points >= 100: set verbosity='high' to print them.

     Largest allocated arrays     est. size (Mb)     dimensions
     Largest temporary arrays     est. size (Mb)     dimensions

     Initial potential from superposition of free atoms

     Starting from uniform charge
     Starting wfc are    0 randomized atomic wfcs

     Writing output data file Prototype-La-oI12-KHg2.save

     Self-consistent Calculation

[...]

     iteration # 10     ecut=    40.00 Ry     beta=0.70
     CG style diagonalization
     c_bands:  1 eigenvalues not converged
     c_bands:  1 eigenvalues not converged
     c_bands:  1 eigenvalues not converged
     c_bands:  1 eigenvalues not converged
     c_bands:  1 eigenvalues not converged
     c_bands:  1 eigenvalues not converged
     c_bands:  1 eigenvalues not converged
     c_bands:  1 eigenvalues not converged
     c_bands:  1 eigenvalues not converged
     c_bands:  1 eigenvalues not converged
     c_bands:  1 eigenvalues not converged
     c_bands:  1 eigenvalues not converged
     c_bands:  1 eigenvalues not converged
     ethr =  3.64E-06,  avg # of iterations =  4.9

[...]

     total energy              =   -1329.00923494 Ry
     Harris-Foulkes estimate   =   -1329.00925380 Ry
     estimated scf accuracy    <       0.00004866 Ry

     iteration # 13     ecut=    40.00 Ry     beta=0.70
     CG style diagonalization
     ethr =  4.51E-08,  avg # of iterations =  3.3

     End of self-consistent calculation

     Number of k-points >= 100: set verbosity='high' to print the bands.

     the Fermi energy is    19.4236 ev

!    total energy              =   -1329.00923481 Ry
     Harris-Foulkes estimate   =   -1329.00924119 Ry
     estimated scf accuracy    <       0.00000699 Ry

     The total energy is the sum of the following terms:

     one-electron contribution =    -492.87897392 Ry
     hartree contribution      =     292.69365576 Ry
     xc contribution           =    -123.08670920 Ry
     ewald contribution        =   -1005.48001059 Ry
     smearing contrib. (-TS)   =      -0.25719686 Ry

     convergence has been achieved in  13 iterations

     Forces acting on atoms (Ry/au):

     atom    1 type  1   force =    -0.00347404   -0.00236384   -0.00054727
     atom    2 type  1   force =     0.00347404    0.00236384    0.00054727
     atom    3 type  2   force =    -0.01439652    0.02019201   -0.01561174
     atom    4 type  2   force =     0.01439652   -0.02019201    0.01561174
     atom    5 type  2   force =     0.01680619   -0.01657477    0.01526075
     atom    6 type  2   force =    -0.01680619    0.01657477   -0.01526075

     Total force =     0.057736     Total SCF correction =     0.000000

     entering subroutine stress ...

          total   stress  (Ry/bohr**3)                   (kbar)     P= -236.66
  -0.00161719   0.00020010  -0.00016239       -237.90     29.44    -23.89
   0.00020010  -0.00160341   0.00015726         29.44   -235.87     23.13
  -0.00016239   0.00015726  -0.00160579        -23.89     23.13   -236.22

     Writing output data file Prototype-La-oI12-KHg2.save

     General routines

     Parallel routines

   This run was terminated on:   4: 3:53  22Mar2018

   JOB DONE.