     Program PWSCF v.5.0.2 starts on 22Mar2018 at  0:36:46

     Current dimensions of program PWSCF are:
     Max number of different atomic species (ntypx) = 10
     Max number of k-points (npk) =  40000
     Max angular momentum in pseudopotentials (lmaxx) =  3
     Waiting for input...
     Reading input from standard input

     Subspace diagonalization in iterative solution of the eigenvalue problem:
     a serial algorithm will be used

     bravais-lattice index     =            0
     lattice parameter (alat)  =       7.0151  a.u.
     unit-cell volume          =     862.2778 (a.u.)^3
     number of atoms/cell      =           12
     number of atomic types    =            2
     number of electrons       =       180.00
     number of Kohn-Sham states=          108
     kinetic-energy cutoff     =      40.0000  Ry
     charge density cutoff     =     160.0000  Ry
     convergence threshold     =      1.0E-04
     mixing beta               =       0.7000
     number of iterations used =            8  plain     mixing
     Exchange-correlation      = SLA-PZ-NOGX-NOGC ( 1 1 0 0 0)
     EXX-fraction              =        0.00
     nstep                     =           50

     celldm(1)=   7.015105  celldm(2)=   0.000000  celldm(3)=   0.000000
     celldm(4)=   0.000000  celldm(5)=   0.000000  celldm(6)=   0.000000

     crystal axes: (cart. coord. in units of alat)
               a(1) = (   1.000000   0.000000   0.000000 )
               a(2) = (   0.000000   1.315963   0.000000 )
               a(3) = (   0.000000   0.000000   1.898020 )

     reciprocal axes: (cart. coord. in units 2 pi/alat)
               b(1) = (  1.000000  0.000000  0.000000 )
               b(2) = (  0.000000  0.759900  0.000000 )
               b(3) = (  0.000000  0.000000  0.526865 )

     PseudoPot. # 1 for Ce read from file:
     /home/jld5415/pp.La/Ce.UPF
     MD5 check sum: 44451aa79a44a00cf2bc029dc19922f6
     Pseudo is Norm-conserving, Zval = 12.0
     Generated in analytical, separable form
     Using radial grid of 1255 points,  6 beta functions with:
                l(1) =   0
                l(2) =   0
                l(3) =   1
                l(4) =   1
                l(5) =   2
                l(6) =   3

     PseudoPot. # 2 for Ho read from file:
     /home/jld5415/pp.La/Ho.UPF
     MD5 check sum: f307ee11bce99f5b724fa279e3790763
     Pseudo is Norm-conserving, Zval = 21.0
     Generated in analytical, separable form
     Using radial grid of 1265 points,  6 beta functions with:
                l(1) =   0
                l(2) =   0
                l(3) =   1
                l(4) =   1
                l(5) =   2
                l(6) =   3

     atomic species   valence    mass     pseudopotential
        Co            12.00    58.93320     Ce( 1.00)
        Si            21.00    28.08550     Ho( 1.00)

      8 Sym. Ops., with inversion, found ( 6 have fractional translation)

   Cartesian axes

     site n.     atom                  positions (alat units)
         1           Co  tau(   1) = (   0.7500000   1.0875135   0.8270358  )
         2           Co  tau(   2) = (   0.2500000   0.2284499   1.0709846  )
         3           Co  tau(   3) = (   0.7500000   0.4295318   0.1219744  )
         4           Co  tau(   4) = (   0.2500000   0.8864316   1.7760460  )
         5           Co  tau(   5) = (   0.2500000   0.7067855   0.5358966  )
         6           Co  tau(   6) = (   0.7500000   0.6091779   1.3621238  )
         7           Co  tau(   7) = (   0.2500000   0.0488038   0.4131136  )
         8           Co  tau(   8) = (   0.7500000   1.2671596   1.4849068  )
         9           Si  tau(   9) = (   0.2500000   0.2669484   1.6960710  )
        10           Si  tau(  10) = (   0.7500000   1.0490149   0.2019494  )
        11           Si  tau(  11) = (   0.2500000   0.9249301   1.1509596  )
        12           Si  tau(  12) = (   0.7500000   0.3910333   0.7470608  )

     number of k points=    12  gaussian smearing, width (Ry)=  0.1000
                       cart. coord. in units 2pi/alat
        k(    1) = (   0.0000000   0.0000000   0.0000000), wk =   0.0833333
        k(    2) = (   0.0000000   0.0000000   0.1317162), wk =   0.1666667
        k(    3) = (   0.0000000   0.0000000  -0.2634324), wk =   0.0833333
        k(    4) = (   0.0000000   0.2532999   0.0000000), wk =   0.1666667
        k(    5) = (   0.0000000   0.2532999   0.1317162), wk =   0.3333333
        k(    6) = (   0.0000000   0.2532999  -0.2634324), wk =   0.1666667
        k(    7) = (  -0.5000000   0.0000000   0.0000000), wk =   0.0833333
        k(    8) = (  -0.5000000   0.0000000   0.1317162), wk =   0.1666667
        k(    9) = (  -0.5000000   0.0000000  -0.2634324), wk =   0.0833333
        k(   10) = (  -0.5000000   0.2532999   0.0000000), wk =   0.1666667
        k(   11) = (  -0.5000000   0.2532999   0.1317162), wk =   0.3333333
        k(   12) = (  -0.5000000   0.2532999  -0.2634324), wk =   0.1666667

     Largest allocated arrays     est. size (Mb)     dimensions
     Largest temporary arrays     est. size (Mb)     dimensions

     Initial potential from superposition of free atoms

     Starting from uniform charge
     Starting wfc are    0 randomized atomic wfcs

     Self-consistent Calculation

     iteration #  1     ecut=    40.00 Ry     beta=0.70
     CG style diagonalization
     ethr =  1.00E-02,  avg # of iterations = 16.6

     total energy              =    -866.55455478 Ry
     Harris-Foulkes estimate   =   -2231.95804985 Ry
     estimated scf accuracy    <    1633.93426411 Ry

     iteration #  2     ecut=    40.00 Ry     beta=0.70
     CG style diagonalization
     c_bands:  4 eigenvalues not converged
     c_bands:  4 eigenvalues not converged
     c_bands:  3 eigenvalues not converged
     c_bands:  3 eigenvalues not converged
     c_bands:  5 eigenvalues not converged
     c_bands:  4 eigenvalues not converged
     c_bands:  5 eigenvalues not converged
     ethr =  1.00E-02,  avg # of iterations = 15.9

[...]

     End of self-consistent calculation

          k = 0.0000 0.0000 0.0000 (  3675 PWs)   bands (ev):

   -48.1561 -48.1512 -48.1461 -48.1376 -13.0098 -12.9862 -12.9511 -12.9455
   -12.9391 -12.9143 -12.9127 -12.8987 -12.7108 -12.6528 -12.5714 -12.5194
     3.9424   5.7817   6.2782   7.1518   7.7065   8.2533   8.3341   8.7399
    18.3435  18.9951  20.0439  20.4920  20.5561  20.6433  20.8920  21.8405
    22.0774  22.4168  22.7496  22.9538  23.4931  23.5076  24.1518  25.0587
    25.0967  25.3291  26.3072  26.7132  27.4845  28.0393  28.2494  28.4415
    28.6150  29.3450  29.4595  29.5191  29.7221  29.7884  29.8664  30.8381
    31.0134  31.0321  31.2550  31.7360  31.9870  32.8944  33.1782  33.7683
    33.8866  33.9494  34.2388  34.7734  36.4125  39.0199  39.6221  40.0627
    41.4746  41.5066  41.5293  42.3318  42.6073  43.0228  43.4200  43.6150
    44.0137  44.0275  44.1425  44.1626  45.4185  45.6599  45.9289  46.3501
    46.7649  47.9409  48.5145  48.5574  49.3631  49.6870  49.7543  50.2597
    50.7109  50.7126  50.8990  51.6013  51.6164  51.9113  52.5189  52.6993
    53.3281  53.3456  53.8290  54.0840

[...]

          k =-0.5000 0.0000 0.0000 (  3722 PWs)   bands (ev):

[...]

     the Fermi energy is    47.3356 ev

!    total energy              =   -1776.93614599 Ry
     Harris-Foulkes estimate   =   -1776.93614552 Ry
     estimated scf accuracy    <       0.00000148 Ry

     The total energy is the sum of the following terms:

     one-electron contribution =     204.05359969 Ry
     hartree contribution      =     167.11991760 Ry
     xc contribution           =    -202.43135142 Ry
     ewald contribution        =   -1945.31354915 Ry
     smearing contrib. (-TS)   =      -0.36476271 Ry

     convergence has been achieved in  11 iterations

     Forces acting on atoms (Ry/au):

     atom    1 type  1   force =     0.00000000   -0.07357583   -0.08242740
     atom    2 type  1   force =     0.00000000    0.07357583    0.08242740
     atom    3 type  1   force =     0.00000000   -0.07357583    0.08242740
     atom    4 type  1   force =     0.00000000    0.07357583   -0.08242740
     atom    5 type  1   force =     0.00000000    0.17207808   -0.31689520
     atom    6 type  1   force =     0.00000000   -0.17207808    0.31689520
     atom    7 type  1   force =     0.00000000    0.17207808    0.31689520
     atom    8 type  1   force =     0.00000000   -0.17207808   -0.31689520
     atom    9 type  2   force =     0.00000000   -0.18331605   -0.02504142
     atom   10 type  2   force =     0.00000000    0.18331605    0.02504142
     atom   11 type  2   force =     0.00000000   -0.18331605    0.02504142
     atom   12 type  2   force =     0.00000000    0.18331605   -0.02504142

     Total force =     0.840174     Total SCF correction =     0.000000

     entering subroutine stress ...

          total   stress  (Ry/bohr**3)                   (kbar)     P= 6744.53
   0.05092082   0.00000000   0.00000000       7490.71      0.00      0.00
   0.00000000   0.04188689   0.00000000          0.00   6161.77      0.00
   0.00000000   0.00000000   0.04473742          0.00      0.00   6581.10

     BFGS Geometry Optimization

     number of scf cycles    =   1
     number of bfgs steps    =   0

     enthalpy new            =   -1776.9361459882 Ry

     new trust radius        =       0.5000000000 bohr
     new conv_thr            =       0.0001000000 Ry

     new unit-cell volume =   1076.10727 a.u.^3 (   159.46264 Ang^3 )

CELL_PARAMETERS (alat=  7.01510508)
   1.085136619   0.000000000   0.000000000
   0.000000000   1.408123479   0.000000000
   0.000000000   0.000000000   2.039989171

ATOMIC_POSITIONS (crystal)
Co       0.750000000   0.825867987   0.435321984
Co       0.250000000   0.174132013   0.564678016
Co       0.750000000   0.325867987   0.064678016
Co       0.250000000   0.674132013   0.935321984
Co       0.250000000   0.538332604   0.280753299
Co       0.750000000   0.461667396   0.719246701
Co       0.250000000   0.038332604   0.219246701
Co       0.750000000   0.961667396   0.780753299
Si       0.250000000   0.201525984   0.893474222
Si       0.750000000   0.798474016   0.106525778
Si       0.250000000   0.701525984   0.606525778
Si       0.750000000   0.298474016   0.393474222

     Writing output data file Prototype-La-oP12-Co2Si.save
     NEW-OLD atomic charge density approx. for the potential
     NEW k-points:
        k(    1) = (   0.0000000   0.0000000   0.0000000), wk =   0.0833333
        k(    2) = (   0.0000000   0.0000000   0.1225497), wk =   0.1666667
        k(    3) = (   0.0000000   0.0000000  -0.2450993), wk =   0.0833333
        k(    4) = (   0.0000000   0.2367217   0.0000000), wk =   0.1666667
        k(    5) = (   0.0000000   0.2367217   0.1225497), wk =   0.3333333
        k(    6) = (   0.0000000   0.2367217  -0.2450993), wk =   0.1666667
        k(    7) = (  -0.4607715   0.0000000   0.0000000), wk =   0.0833333
        k(    8) = (  -0.4607715   0.0000000   0.1225497), wk =   0.1666667
        k(    9) = (  -0.4607715   0.0000000  -0.2450993), wk =   0.0833333
        k(   10) = (  -0.4607715   0.2367217   0.0000000), wk =   0.1666667
        k(   11) = (  -0.4607715   0.2367217   0.1225497), wk =   0.3333333
        k(   12) = (  -0.4607715   0.2367217  -0.2450993), wk =   0.1666667

[...]

     enthalpy old            =   -1776.9361459882 Ry
     enthalpy new            =   -1783.5727024964 Ry

     CASE: enthalpy_new < enthalpy_old

     small trust_radius: resetting bfgs history

     new trust radius        =       3.4587003556 bohr
     new conv_thr            =       0.0001000000 Ry

[...]

          total   stress  (Ry/bohr**3)                   (kbar)     P=-1836.31
  -0.01383210   0.00000000   0.00000000      -2034.77      0.00      0.00
   0.00000000  -0.01146781   0.00000000          0.00  -1686.97      0.00
   0.00000000   0.00000000  -0.01214909          0.00      0.00  -1787.19

     number of scf cycles    =   3
     number of bfgs steps    =   2

     enthalpy old            =   -1783.5727024964 Ry
     enthalpy new            =   -1768.9386293236 Ry

     CASE: enthalpy_new > enthalpy_old

     new trust radius        =       1.3573091497 bohr

     trust_radius < trust_radius_min

     resetting bfgs history

     Message from routine bfgs:
     history already reset at previous step: stopping
     new conv_thr            =       0.0001000000 Ry

     new unit-cell volume =   1263.24745 a.u.^3 (   187.19396 Ang^3 )

[...]

ATOMIC_POSITIONS (crystal)
Co       0.750000000   0.825387064   0.435067776
Co       0.250000000   0.174612936   0.564932224
Co       0.750000000   0.325387064   0.064932224
Co       0.250000000   0.674612936   0.935067776
Co       0.250000000   0.539222154   0.279668084
Co       0.750000000   0.460777846   0.720331916
Co       0.250000000   0.039222154   0.220331916
Co       0.750000000   0.960777846   0.779668084
Si       0.250000000   0.200447091   0.893393979
Si       0.750000000   0.799552909   0.106606021
Si       0.250000000   0.700447091   0.606606021
Si       0.750000000   0.299552909   0.393393979

     Writing output data file Prototype-La-oP12-Co2Si.save
     NEW-OLD atomic charge density approx. for the potential
     NEW k-points:
        k(    1) = (   0.0000000   0.0000000   0.0000000), wk =   0.0833333
        k(    2) = (   0.0000000   0.0000000   0.1164020), wk =   0.1666667
        k(    3) = (   0.0000000   0.0000000  -0.2328040), wk =   0.0833333
        k(    4) = (   0.0000000   0.2261029   0.0000000), wk =   0.1666667
        k(    5) = (   0.0000000   0.2261029   0.1164020), wk =   0.3333333
        k(    6) = (   0.0000000   0.2261029  -0.2328040), wk =   0.1666667
        k(    7) = (  -0.4326496   0.0000000   0.0000000), wk =   0.0833333
        k(    8) = (  -0.4326496   0.0000000   0.1164020), wk =   0.1666667
        k(    9) = (  -0.4326496   0.0000000  -0.2328040), wk =   0.0833333
        k(   10) = (  -0.4326496   0.2261029   0.0000000), wk =   0.1666667
        k(   11) = (  -0.4326496   0.2261029   0.1164020), wk =   0.3333333
        k(   12) = (  -0.4326496   0.2261029  -0.2328040), wk =   0.1666667

[...]

     The maximum number of steps has been reached.

     End of BFGS Geometry Optimization
Begin final coordinates
     new unit-cell volume =   1263.24745 a.u.^3 (   187.19396 Ang^3 )

CELL_PARAMETERS (alat=  7.01510508)
   1.155669597   0.000000000   0.000000000
   0.000000000   1.474254954   0.000000000
   0.000000000   0.000000000   2.147729600

ATOMIC_POSITIONS (crystal)
Co       0.750000000   0.825387064   0.435067776
Co       0.250000000   0.174612936   0.564932224
Co       0.750000000   0.325387064   0.064932224
Co       0.250000000   0.674612936   0.935067776
Co       0.250000000   0.539222154   0.279668084
Co       0.750000000   0.460777846   0.720331916
Co       0.250000000   0.039222154   0.220331916
Co       0.750000000   0.960777846   0.779668084
Si       0.250000000   0.200447091   0.893393979
Si       0.750000000   0.799552909   0.106606021
Si       0.250000000   0.700447091   0.606606021
Si       0.750000000   0.299552909   0.393393979
End final coordinates

     A final scf calculation at the relaxed structure.
     The G-vectors are recalculated for the final unit cell
     Results may differ from those at the preceding step.

     bravais-lattice index     =            0
     lattice parameter (alat)  =       7.0151  a.u.
     unit-cell volume          =    1263.2474 (a.u.)^3
     number of atoms/cell      =           12
     number of atomic types    =            2
     number of electrons       =       180.00
     number of Kohn-Sham states=          108
     kinetic-energy cutoff     =      40.0000  Ry
     charge density cutoff     =     160.0000  Ry
     convergence threshold     =      1.0E-04
     mixing beta               =       0.7000
     number of iterations used =            8  plain     mixing
     Exchange-correlation      = SLA-PZ-NOGX-NOGC ( 1 1 0 0 0)
     EXX-fraction              =        0.00

     celldm(1)=   7.015105  celldm(2)=   0.000000  celldm(3)=   0.000000
     celldm(4)=   0.000000  celldm(5)=   0.000000  celldm(6)=   0.000000

     crystal axes: (cart. coord. in units of alat)
               a(1) = (   1.155670   0.000000   0.000000 )
               a(2) = (   0.000000   1.474255   0.000000 )
               a(3) = (   0.000000   0.000000   2.147730 )

     reciprocal axes: (cart. coord. in units 2 pi/alat)
               b(1) = (  0.865299  0.000000  0.000000 )
               b(2) = (  0.000000  0.678309  0.000000 )
               b(3) = (  0.000000  0.000000  0.465608 )

     PseudoPot. # 1 for Ce read from file:
     /home/jld5415/pp.La/Ce.UPF
     MD5 check sum: 44451aa79a44a00cf2bc029dc19922f6
     Pseudo is Norm-conserving, Zval = 12.0
     Generated in analytical, separable form
     Using radial grid of 1255 points,  6 beta functions with:
                l(1) =   0
                l(2) =   0
                l(3) =   1
                l(4) =   1
                l(5) =   2
                l(6) =   3

     PseudoPot. # 2 for Ho read from file:
     /home/jld5415/pp.La/Ho.UPF
     MD5 check sum: f307ee11bce99f5b724fa279e3790763
     Pseudo is Norm-conserving, Zval = 21.0
     Generated in analytical, separable form
     Using radial grid of 1265 points,  6 beta functions with:
                l(1) =   0
                l(2) =   0
                l(3) =   1
                l(4) =   1
                l(5) =   2
                l(6) =   3

     atomic species   valence    mass     pseudopotential
        Co            12.00    58.93320     Ce( 1.00)
        Si            21.00    28.08550     Ho( 1.00)

      8 Sym. Ops., with inversion, found ( 6 have fractional translation)

   Cartesian axes

     site n.     atom                  positions (alat units)
         1           Co  tau(   1) = (   0.8667522   1.2168310   0.9344079  )
         2           Co  tau(   2) = (   0.2889174   0.2574240   1.2133217  )
         3           Co  tau(   3) = (   0.8667522   0.4797035   0.1394569  )
         4           Co  tau(   4) = (   0.2889174   0.9945515   2.0082727  )
         5           Co  tau(   5) = (   0.2889174   0.7949509   0.6006514  )
         6           Co  tau(   6) = (   0.8667522   0.6793040   1.5470782  )
         7           Co  tau(   7) = (   0.2889174   0.0578235   0.4732134  )
         8           Co  tau(   8) = (   0.8667522   1.4164315   1.6745162  )
         9           Si  tau(   9) = (   0.2889174   0.2955101   1.9187687  )
        10           Si  tau(  10) = (   0.8667522   1.1787448   0.2289609  )
        11           Si  tau(  11) = (   0.2889174   1.0326376   1.3028257  )
        12           Si  tau(  12) = (   0.8667522   0.4416174   0.8449039  )

     number of k points=    12  gaussian smearing, width (Ry)=  0.1000
                       cart. coord. in units 2pi/alat
        k(    1) = (   0.0000000   0.0000000   0.0000000), wk =   0.0833333
        k(    2) = (   0.0000000   0.0000000   0.1164020), wk =   0.1666667
        k(    3) = (   0.0000000   0.0000000  -0.2328040), wk =   0.0833333
        k(    4) = (   0.0000000   0.2261029   0.0000000), wk =   0.1666667
        k(    5) = (   0.0000000   0.2261029   0.1164020), wk =   0.3333333
        k(    6) = (   0.0000000   0.2261029  -0.2328040), wk =   0.1666667
        k(    7) = (  -0.4326496   0.0000000   0.0000000), wk =   0.0833333
        k(    8) = (  -0.4326496   0.0000000   0.1164020), wk =   0.1666667
        k(    9) = (  -0.4326496   0.0000000  -0.2328040), wk =   0.0833333
        k(   10) = (  -0.4326496   0.2261029   0.0000000), wk =   0.1666667
        k(   11) = (  -0.4326496   0.2261029   0.1164020), wk =   0.3333333
        k(   12) = (  -0.4326496   0.2261029  -0.2328040), wk =   0.1666667

     Largest allocated arrays     est. size (Mb)     dimensions
     Largest temporary arrays     est. size (Mb)     dimensions

     Initial potential from superposition of free atoms

     Starting from uniform charge
     Starting wfc are    0 randomized atomic wfcs

     Writing output data file Prototype-La-oP12-Co2Si.save

     Self-consistent Calculation

[...]

     iteration # 10     ecut=    40.00 Ry     beta=0.70
     CG style diagonalization
     c_bands:  1 eigenvalues not converged
     ethr =  2.62E-06,  avg # of iterations =  5.1

     total energy              =   -1788.21572017 Ry
     Harris-Foulkes estimate   =   -1788.21633601 Ry
     estimated scf accuracy    <       0.00116054 Ry

     iteration # 11     ecut=    40.00 Ry     beta=0.70
     CG style diagonalization
     ethr =  6.45E-07,  avg # of iterations =  3.7

     End of self-consistent calculation

[...]

          k = 0.0000 0.2261-0.2328 (  5402 PWs)   bands (ev):

[...]

          k =-0.4326 0.2261-0.2328 (  5428 PWs)   bands (ev):

   -61.2729 -61.2729 -61.2720 -61.2720 -25.6201 -25.6201 -25.6136 -25.6136
   -25.5917 -25.5917 -25.5902 -25.5902 -25.4776 -25.4776 -25.4679 -25.4679
    -6.5196  -6.5196  -6.2455  -6.2455  -6.0027  -6.0027  -5.8416  -5.8416
     8.8628   8.8629   9.2972   9.2972   9.5336   9.5336   9.8442   9.8442
     9.8926   9.8926  11.1358  11.1358  11.5874  11.5874  11.9112  11.9112
    12.3918  12.3918  12.4322  12.4322  12.8280  12.8280  13.0430  13.0430
    17.6569  17.6569  17.7266  17.7266  17.9990  17.9990  18.0497  18.0497
    18.4646  18.4646  18.5682  18.5682  18.7426  18.7426  18.7830  18.7830
    18.9495  18.9495  19.0851  19.0851  24.6009  24.6009  25.9107  25.9107
    28.1170  28.1170  28.3347  28.3347  28.6517  28.6517  28.9238  28.9238
    29.0480  29.0480  30.0615  30.0615  30.3854  30.3854  30.8521  30.8521
    31.5133  31.5133  31.8080  31.8080  32.2366  32.2366  33.5755  33.5755
    33.6874  33.6874  34.0815  34.0816  34.7244  34.7245  35.6337  35.6340
    35.8789  35.8792  36.0186  36.0188

     the Fermi energy is    31.8334 ev

!    total energy              =   -1788.21591141 Ry
     Harris-Foulkes estimate   =   -1788.21594138 Ry
     estimated scf accuracy    <       0.00003400 Ry

     The total energy is the sum of the following terms:

     one-electron contribution =    -112.73694446 Ry
     hartree contribution      =     231.00516848 Ry
     xc contribution           =    -192.12133940 Ry
     ewald contribution        =   -1713.87029040 Ry
     smearing contrib. (-TS)   =      -0.49250563 Ry

     convergence has been achieved in  11 iterations

     Forces acting on atoms (Ry/au):

     atom    1 type  1   force =     0.00000000   -0.04292168   -0.00953150
     atom    2 type  1   force =     0.00000000    0.04292168    0.00953150
     atom    3 type  1   force =     0.00000000   -0.04292168    0.00953150
     atom    4 type  1   force =     0.00000000    0.04292168   -0.00953150
     atom    5 type  1   force =     0.00000000    0.07398485   -0.13357158
     atom    6 type  1   force =     0.00000000   -0.07398485    0.13357158
     atom    7 type  1   force =     0.00000000    0.07398485    0.13357158
     atom    8 type  1   force =     0.00000000   -0.07398485   -0.13357158
     atom    9 type  2   force =     0.00000000   -0.07498728    0.01764449
     atom   10 type  2   force =     0.00000000    0.07498728   -0.01764449
     atom   11 type  2   force =     0.00000000   -0.07498728   -0.01764449
     atom   12 type  2   force =     0.00000000    0.07498728    0.01764449

     Total force =     0.353172     Total SCF correction =     0.000000

     entering subroutine stress ...

          total   stress  (Ry/bohr**3)                   (kbar)     P= 1585.22
   0.01187667   0.00000000   0.00000000       1747.12      0.00      0.00
   0.00000000   0.00991523   0.00000000          0.00   1458.58      0.00
   0.00000000   0.00000000   0.01053652          0.00      0.00   1549.98

     Writing output data file Prototype-La-oP12-Co2Si.save

     General routines

     Parallel routines

   This run was terminated on:   0:56: 8  22Mar2018

   JOB DONE.