     Program PWSCF v.5.0.2 starts on 22Mar2018 at 22:47:26

     Current dimensions of program PWSCF are:
     Max number of different atomic species (ntypx) = 10
     Max number of k-points (npk) =  40000
     Max angular momentum in pseudopotentials (lmaxx) =  3
     Waiting for input...
     Reading input from standard input

     Subspace diagonalization in iterative solution of the eigenvalue problem:
     a serial algorithm will be used

     bravais-lattice index     =            0
     lattice parameter (alat)  =       7.0151  a.u.
     unit-cell volume          =     862.2778 (a.u.)^3
     number of atoms/cell      =           12
     number of atomic types    =            2
     number of electrons       =       228.00
     number of Kohn-Sham states=          137
     kinetic-energy cutoff     =      40.0000  Ry
     charge density cutoff     =     160.0000  Ry
     convergence threshold     =      1.0E-04
     mixing beta               =       0.7000
     number of iterations used =            8  plain     mixing
     Exchange-correlation      = SLA-PZ-NOGX-NOGC ( 1 1 0 0 0)
     EXX-fraction              =        0.00
     nstep                     =           50

     celldm(1)=   7.015105  celldm(2)=   0.000000  celldm(3)=   0.000000
     celldm(4)=   0.000000  celldm(5)=   0.000000  celldm(6)=   0.000000

     crystal axes: (cart. coord. in units of alat)
               a(1) = (   1.000000   0.000000   0.000000 )
               a(2) = (   0.000000   1.315963   0.000000 )
               a(3) = (   0.000000   0.000000   1.898020 )

     reciprocal axes: (cart. coord. in units 2 pi/alat)
               b(1) = (  1.000000  0.000000  0.000000 )
               b(2) = (  0.000000  0.759900  0.000000 )
               b(3) = (  0.000000  0.000000  0.526865 )

     PseudoPot. # 1 for Gd read from file:
     /home/cwx6513/pp.La/Gd.UPF
     MD5 check sum: 09a8be538722f05520810cb6aac0efd2
     Pseudo is Norm-conserving, Zval = 18.0
     Generated in analytical, separable form
     Using radial grid of 1263 points,  6 beta functions with:
                l(1) =   0
                l(2) =   0
                l(3) =   1
                l(4) =   1
                l(5) =   2
                l(6) =   3

     PseudoPot. # 2 for Ho read from file:
     /home/cwx6513/pp.La/Ho.UPF
     MD5 check sum: f307ee11bce99f5b724fa279e3790763
     Pseudo is Norm-conserving, Zval = 21.0
     Generated in analytical, separable form
     Using radial grid of 1265 points,  6 beta functions with:
                l(1) =   0
                l(2) =   0
                l(3) =   1
                l(4) =   1
                l(5) =   2
                l(6) =   3

     atomic species   valence    mass     pseudopotential
        Co            18.00    58.93320     Gd( 1.00)
        Si            21.00    28.08550     Ho( 1.00)

      8 Sym. Ops., with inversion, found ( 6 have fractional translation)

   Cartesian axes

     site n.     atom                  positions (alat units)
         1           Co  tau(   1) = (   0.7500000   1.0875135   0.8270358  )
         2           Co  tau(   2) = (   0.2500000   0.2284499   1.0709846  )
         3           Co  tau(   3) = (   0.7500000   0.4295318   0.1219744  )
         4           Co  tau(   4) = (   0.2500000   0.8864316   1.7760460  )
         5           Co  tau(   5) = (   0.2500000   0.7067855   0.5358966  )
         6           Co  tau(   6) = (   0.7500000   0.6091779   1.3621238  )
         7           Co  tau(   7) = (   0.2500000   0.0488038   0.4131136  )
         8           Co  tau(   8) = (   0.7500000   1.2671596   1.4849068  )
         9           Si  tau(   9) = (   0.2500000   0.2669484   1.6960710  )
        10           Si  tau(  10) = (   0.7500000   1.0490149   0.2019494  )
        11           Si  tau(  11) = (   0.2500000   0.9249301   1.1509596  )
        12           Si  tau(  12) = (   0.7500000   0.3910333   0.7470608  )

     number of k points=    12  gaussian smearing, width (Ry)=  0.1000
                       cart. coord. in units 2pi/alat
        k(    1) = (   0.0000000   0.0000000   0.0000000), wk =   0.0833333
        k(    2) = (   0.0000000   0.0000000   0.1317162), wk =   0.1666667
        k(    3) = (   0.0000000   0.0000000  -0.2634324), wk =   0.0833333
        k(    4) = (   0.0000000   0.2532999   0.0000000), wk =   0.1666667
        k(    5) = (   0.0000000   0.2532999   0.1317162), wk =   0.3333333
        k(    6) = (   0.0000000   0.2532999  -0.2634324), wk =   0.1666667
        k(    7) = (  -0.5000000   0.0000000   0.0000000), wk =   0.0833333
        k(    8) = (  -0.5000000   0.0000000   0.1317162), wk =   0.1666667
        k(    9) = (  -0.5000000   0.0000000  -0.2634324), wk =   0.0833333
        k(   10) = (  -0.5000000   0.2532999   0.0000000), wk =   0.1666667
        k(   11) = (  -0.5000000   0.2532999   0.1317162), wk =   0.3333333
        k(   12) = (  -0.5000000   0.2532999  -0.2634324), wk =   0.1666667

     Largest allocated arrays     est. size (Mb)     dimensions
     Largest temporary arrays     est. size (Mb)     dimensions

     Initial potential from superposition of free atoms

     Starting from uniform charge
     Starting wfc are    0 randomized atomic wfcs

     Self-consistent Calculation

     iteration #  1     ecut=    40.00 Ry     beta=0.70
     CG style diagonalization
     ethr =  1.00E-02,  avg # of iterations = 16.3

     total energy              =   -2154.25419432 Ry
     Harris-Foulkes estimate   =   -3096.01390863 Ry
     estimated scf accuracy    <    1163.33852732 Ry

     iteration #  2     ecut=    40.00 Ry     beta=0.70
     CG style diagonalization
     c_bands:  4 eigenvalues not converged
     ethr =  1.00E-02,  avg # of iterations = 15.0

[...]

     End of self-consistent calculation

          k = 0.0000 0.0000 0.0000 (  3675 PWs)   bands (ev):

   -43.5515 -43.5417 -43.5369 -43.5295 -20.7984 -20.5729 -20.4897 -20.3317
   -20.1788 -19.9854 -19.8727 -19.8597  -8.5017  -8.4391  -8.3940  -8.3534
    -8.3426  -8.3352  -8.2251  -8.1843  -8.1295  -8.1246  -8.0492  -7.9600
     6.1422   6.5600   6.7443   7.0053   7.0486   7.0636   7.2978   7.4625
     7.7074   7.7394   7.9437   8.0088   8.1974   8.2380   8.4123   8.5172
     8.5722   8.7026   8.7548   9.0213   9.2121   9.3985   9.7990   9.9275
    31.2966  31.3539  31.5053  32.0076  32.1064  32.2486  32.2704  32.2910
    32.8517  32.9804  32.9871  33.3717  33.4915  33.7436  34.1383  34.6299
    34.8290  35.0064  35.0702  35.1713  35.3347  36.4437  38.1590  38.5199
    38.5249  38.6800  38.9897  39.3767  39.9358  40.0781  40.2462  40.6063
    40.6163  40.6690  41.0888  41.2114  41.8269  42.2506  42.3326  42.5143
    42.9369  42.9488  43.3946  43.8620  44.2292  44.3759  44.8820  45.2587
    45.9132  46.2009  46.4463  46.5726  47.0147  47.1207  47.1957  47.9519
    48.0208  48.1776  48.2377  48.4541  48.7402  49.6804  50.1527  50.2337
    51.4152  52.6472  53.3632  53.9966  55.4259  55.5995  55.7918  56.6804
    56.7055  56.9050  57.1334  57.3239  57.8458  57.8988  58.0740  58.1321
    58.2491  58.5499  58.6137  58.8108  59.2593  59.4654  59.9622  60.5468
    60.6249

[...]

          k =-0.5000 0.0000 0.0000 (  3722 PWs)   bands (ev):

[...]

     the Fermi energy is    52.3181 ev

!    total energy              =   -2771.93449211 Ry
     Harris-Foulkes estimate   =   -2771.93454900 Ry
     estimated scf accuracy    <       0.00006629 Ry

     The total energy is the sum of the following terms:

     one-electron contribution =     308.94318377 Ry
     hartree contribution      =     208.09409259 Ry
     xc contribution           =    -280.44213264 Ry
     ewald contribution        =   -3008.37829892 Ry
     smearing contrib. (-TS)   =      -0.15133691 Ry

     convergence has been achieved in  10 iterations

     Forces acting on atoms (Ry/au):

     atom    1 type  1   force =     0.00000000   -0.04048767   -0.04705647
     atom    2 type  1   force =     0.00000000    0.04048767    0.04705647
     atom    3 type  1   force =     0.00000000   -0.04048767    0.04705647
     atom    4 type  1   force =     0.00000000    0.04048767   -0.04705647
     atom    5 type  1   force =     0.00000000    0.12983509   -0.23991565
     atom    6 type  1   force =     0.00000000   -0.12983509    0.23991565
     atom    7 type  1   force =     0.00000000    0.12983509    0.23991565
     atom    8 type  1   force =     0.00000000   -0.12983509   -0.23991565
     atom    9 type  2   force =     0.00000000   -0.18596665    0.04241232
     atom   10 type  2   force =     0.00000000    0.18596665   -0.04241232
     atom   11 type  2   force =     0.00000000   -0.18596665   -0.04241232
     atom   12 type  2   force =     0.00000000    0.18596665    0.04241232

     Total force =     0.677208     Total SCF correction =     0.000000

     entering subroutine stress ...

          total   stress  (Ry/bohr**3)                   (kbar)     P= 7266.90
   0.05313243   0.00000000   0.00000000       7816.05      0.00      0.00
   0.00000000   0.04625468   0.00000000          0.00   6804.30      0.00
   0.00000000   0.00000000   0.04881105          0.00      0.00   7180.35

     BFGS Geometry Optimization

     number of scf cycles    =   1
     number of bfgs steps    =   0

     enthalpy new            =   -2771.9344921125 Ry

     new trust radius        =       0.5000000000 bohr
     new conv_thr            =       0.0001000000 Ry

     new unit-cell volume =   1083.64523 a.u.^3 (   160.57965 Ang^3 )

CELL_PARAMETERS (alat=  7.01510508)
   1.085136619   0.000000000   0.000000000
   0.000000000   1.413497418   0.000000000
   0.000000000   0.000000000   2.046468871

ATOMIC_POSITIONS (crystal)
Co       0.750000000   0.826119900   0.435509483
Co       0.250000000   0.173880100   0.564490517
Co       0.750000000   0.326119900   0.064490517
Co       0.250000000   0.673880100   0.935509483
Co       0.250000000   0.537987427   0.281190111
Co       0.750000000   0.462012573   0.718809889
Co       0.250000000   0.037987427   0.218809889
Co       0.750000000   0.962012573   0.781190111
Si       0.250000000   0.201562859   0.893804161
Si       0.750000000   0.798437141   0.106195839
Si       0.250000000   0.701562859   0.606195839
Si       0.750000000   0.298437141   0.393804161

     Writing output data file Prototype-La-oP12-Co2Si.save
     NEW-OLD atomic charge density approx. for the potential
     NEW k-points:
        k(    1) = (   0.0000000   0.0000000   0.0000000), wk =   0.0833333
        k(    2) = (   0.0000000   0.0000000   0.1221616), wk =   0.1666667
        k(    3) = (   0.0000000   0.0000000  -0.2443233), wk =   0.0833333
        k(    4) = (   0.0000000   0.2358217   0.0000000), wk =   0.1666667
        k(    5) = (   0.0000000   0.2358217   0.1221616), wk =   0.3333333
        k(    6) = (   0.0000000   0.2358217  -0.2443233), wk =   0.1666667
        k(    7) = (  -0.4607715   0.0000000   0.0000000), wk =   0.0833333
        k(    8) = (  -0.4607715   0.0000000   0.1221616), wk =   0.1666667
        k(    9) = (  -0.4607715   0.0000000  -0.2443233), wk =   0.0833333
        k(   10) = (  -0.4607715   0.2358217   0.0000000), wk =   0.1666667
        k(   11) = (  -0.4607715   0.2358217   0.1221616), wk =   0.3333333
        k(   12) = (  -0.4607715   0.2358217  -0.2443233), wk =   0.1666667

[...]

     enthalpy old            =   -2771.9344921125 Ry
     enthalpy new            =   -2778.4791746525 Ry

     CASE: enthalpy_new < enthalpy_old

     small trust_radius: resetting bfgs history

     new trust radius        =       2.5767636001 bohr
     new conv_thr            =       0.0001000000 Ry

[...]

          total   stress  (Ry/bohr**3)                   (kbar)     P=-2000.24
  -0.01470888   0.00000000   0.00000000      -2163.75      0.00      0.00
   0.00000000  -0.01268811   0.00000000          0.00  -1866.49      0.00
   0.00000000   0.00000000  -0.01339499          0.00      0.00  -1970.47

     number of scf cycles    =   3
     number of bfgs steps    =   2

     enthalpy old            =   -2778.4791746525 Ry
     enthalpy new            =   -2764.9038282488 Ry

     CASE: enthalpy_new > enthalpy_old

     new trust radius        =       0.8212214437 bohr

     trust_radius < trust_radius_min

     resetting bfgs history

     Message from routine bfgs:
     history already reset at previous step: stopping
     new conv_thr            =       0.0001000000 Ry

     new unit-cell volume =   1286.62354 a.u.^3 (   190.65793 Ang^3 )

[...]

ATOMIC_POSITIONS (crystal)
Co       0.750000000   0.825946999   0.435356398
Co       0.250000000   0.174053001   0.564643602
Co       0.750000000   0.325946999   0.064643602
Co       0.250000000   0.674053001   0.935356398
Co       0.250000000   0.538908999   0.279970122
Co       0.750000000   0.461091001   0.720029878
Co       0.250000000   0.038908999   0.220029878
Co       0.750000000   0.961091001   0.779970122
Si       0.250000000   0.200267956   0.893972725
Si       0.750000000   0.799732044   0.106027275
Si       0.250000000   0.700267956   0.606027275
Si       0.750000000   0.299732044   0.393972725

     Writing output data file Prototype-La-oP12-Co2Si.save
     NEW-OLD atomic charge density approx. for the potential
     NEW k-points:
        k(    1) = (   0.0000000   0.0000000   0.0000000), wk =   0.0833333
        k(    2) = (   0.0000000   0.0000000   0.1154738), wk =   0.1666667
        k(    3) = (   0.0000000   0.0000000  -0.2309476), wk =   0.0833333
        k(    4) = (   0.0000000   0.2241068   0.0000000), wk =   0.1666667
        k(    5) = (   0.0000000   0.2241068   0.1154738), wk =   0.3333333
        k(    6) = (   0.0000000   0.2241068  -0.2309476), wk =   0.1666667
        k(    7) = (  -0.4320173   0.0000000   0.0000000), wk =   0.0833333
        k(    8) = (  -0.4320173   0.0000000   0.1154738), wk =   0.1666667
        k(    9) = (  -0.4320173   0.0000000  -0.2309476), wk =   0.0833333
        k(   10) = (  -0.4320173   0.2241068   0.0000000), wk =   0.1666667
        k(   11) = (  -0.4320173   0.2241068   0.1154738), wk =   0.3333333
        k(   12) = (  -0.4320173   0.2241068  -0.2309476), wk =   0.1666667

[...]

     The maximum number of steps has been reached.

     End of BFGS Geometry Optimization
Begin final coordinates
     new unit-cell volume =   1286.62354 a.u.^3 (   190.65793 Ang^3 )

CELL_PARAMETERS (alat=  7.01510508)
   1.157360982   0.000000000   0.000000000
   0.000000000   1.487385869   0.000000000
   0.000000000   0.000000000   2.164992824

ATOMIC_POSITIONS (crystal)
Co       0.750000000   0.825946999   0.435356398
Co       0.250000000   0.174053001   0.564643602
Co       0.750000000   0.325946999   0.064643602
Co       0.250000000   0.674053001   0.935356398
Co       0.250000000   0.538908999   0.279970122
Co       0.750000000   0.461091001   0.720029878
Co       0.250000000   0.038908999   0.220029878
Co       0.750000000   0.961091001   0.779970122
Si       0.250000000   0.200267956   0.893972725
Si       0.750000000   0.799732044   0.106027275
Si       0.250000000   0.700267956   0.606027275
Si       0.750000000   0.299732044   0.393972725
End final coordinates

     A final scf calculation at the relaxed structure.
     The G-vectors are recalculated for the final unit cell
     Results may differ from those at the preceding step.

     bravais-lattice index     =            0
     lattice parameter (alat)  =       7.0151  a.u.
     unit-cell volume          =    1286.6235 (a.u.)^3
     number of atoms/cell      =           12
     number of atomic types    =            2
     number of electrons       =       228.00
     number of Kohn-Sham states=          137
     kinetic-energy cutoff     =      40.0000  Ry
     charge density cutoff     =     160.0000  Ry
     convergence threshold     =      1.0E-04
     mixing beta               =       0.7000
     number of iterations used =            8  plain     mixing
     Exchange-correlation      = SLA-PZ-NOGX-NOGC ( 1 1 0 0 0)
     EXX-fraction              =        0.00

     celldm(1)=   7.015105  celldm(2)=   0.000000  celldm(3)=   0.000000
     celldm(4)=   0.000000  celldm(5)=   0.000000  celldm(6)=   0.000000

     crystal axes: (cart. coord. in units of alat)
               a(1) = (   1.157361   0.000000   0.000000 )
               a(2) = (   0.000000   1.487386   0.000000 )
               a(3) = (   0.000000   0.000000   2.164993 )

     reciprocal axes: (cart. coord. in units 2 pi/alat)
               b(1) = (  0.864035  0.000000  0.000000 )
               b(2) = (  0.000000  0.672320  0.000000 )
               b(3) = (  0.000000  0.000000  0.461895 )

     PseudoPot. # 1 for Gd read from file:
     /home/cwx6513/pp.La/Gd.UPF
     MD5 check sum: 09a8be538722f05520810cb6aac0efd2
     Pseudo is Norm-conserving, Zval = 18.0
     Generated in analytical, separable form
     Using radial grid of 1263 points,  6 beta functions with:
                l(1) =   0
                l(2) =   0
                l(3) =   1
                l(4) =   1
                l(5) =   2
                l(6) =   3

     PseudoPot. # 2 for Ho read from file:
     /home/cwx6513/pp.La/Ho.UPF
     MD5 check sum: f307ee11bce99f5b724fa279e3790763
     Pseudo is Norm-conserving, Zval = 21.0
     Generated in analytical, separable form
     Using radial grid of 1265 points,  6 beta functions with:
                l(1) =   0
                l(2) =   0
                l(3) =   1
                l(4) =   1
                l(5) =   2
                l(6) =   3

     atomic species   valence    mass     pseudopotential
        Co            18.00    58.93320     Gd( 1.00)
        Si            21.00    28.08550     Ho( 1.00)

      8 Sym. Ops., with inversion, found ( 6 have fractional translation)

   Cartesian axes

     site n.     atom                  positions (alat units)
         1           Co  tau(   1) = (   0.8680207   1.2285019   0.9425435  )
         2           Co  tau(   2) = (   0.2893402   0.2588840   1.2224493  )
         3           Co  tau(   3) = (   0.8680207   0.4848090   0.1399529  )
         4           Co  tau(   4) = (   0.2893402   1.0025769   2.0250399  )
         5           Co  tau(   5) = (   0.2893402   0.8015656   0.6061333  )
         6           Co  tau(   6) = (   0.8680207   0.6858202   1.5588595  )
         7           Co  tau(   7) = (   0.2893402   0.0578727   0.4763631  )
         8           Co  tau(   8) = (   0.8680207   1.4295132   1.6886297  )
         9           Si  tau(   9) = (   0.2893402   0.2978757   1.9354445  )
        10           Si  tau(  10) = (   0.8680207   1.1895101   0.2295483  )
        11           Si  tau(  11) = (   0.2893402   1.0415687   1.3120447  )
        12           Si  tau(  12) = (   0.8680207   0.4458172   0.8529481  )

     number of k points=    12  gaussian smearing, width (Ry)=  0.1000
                       cart. coord. in units 2pi/alat
        k(    1) = (   0.0000000   0.0000000   0.0000000), wk =   0.0833333
        k(    2) = (   0.0000000   0.0000000   0.1154738), wk =   0.1666667
        k(    3) = (   0.0000000   0.0000000  -0.2309476), wk =   0.0833333
        k(    4) = (   0.0000000   0.2241068   0.0000000), wk =   0.1666667
        k(    5) = (   0.0000000   0.2241068   0.1154738), wk =   0.3333333
        k(    6) = (   0.0000000   0.2241068  -0.2309476), wk =   0.1666667
        k(    7) = (  -0.4320173   0.0000000   0.0000000), wk =   0.0833333
        k(    8) = (  -0.4320173   0.0000000   0.1154738), wk =   0.1666667
        k(    9) = (  -0.4320173   0.0000000  -0.2309476), wk =   0.0833333
        k(   10) = (  -0.4320173   0.2241068   0.0000000), wk =   0.1666667
        k(   11) = (  -0.4320173   0.2241068   0.1154738), wk =   0.3333333
        k(   12) = (  -0.4320173   0.2241068  -0.2309476), wk =   0.1666667

     Largest allocated arrays     est. size (Mb)     dimensions
     Largest temporary arrays     est. size (Mb)     dimensions

     Initial potential from superposition of free atoms

     Starting from uniform charge
     Starting wfc are    0 randomized atomic wfcs

     Writing output data file Prototype-La-oP12-Co2Si.save

     Self-consistent Calculation

[...]

     iteration # 10     ecut=    40.00 Ry     beta=0.70
     CG style diagonalization
     c_bands:  1 eigenvalues not converged
     ethr =  3.09E-06,  avg # of iterations =  3.2

     total energy              =   -2783.63431612 Ry
     Harris-Foulkes estimate   =   -2783.63471452 Ry
     estimated scf accuracy    <       0.00071172 Ry

     iteration # 11     ecut=    40.00 Ry     beta=0.70
     CG style diagonalization
     ethr =  3.12E-07,  avg # of iterations =  3.7

     End of self-consistent calculation

[...]

          k = 0.0000 0.2241-0.2309 (  5486 PWs)   bands (ev):

[...]

          k =-0.4320 0.2241-0.2309 (  5520 PWs)   bands (ev):

   -59.7608 -59.7608 -59.7595 -59.7595 -36.5878 -36.5878 -36.5862 -36.5862
   -36.4020 -36.4020 -36.3546 -36.3546 -24.0286 -24.0286 -24.0266 -24.0266
   -24.0265 -24.0265 -24.0217 -24.0217 -23.9732 -23.9732 -23.9709 -23.9709
    -8.0900  -8.0900  -7.9859  -7.9859  -7.9620  -7.9620  -7.9263  -7.9263
    -7.8452  -7.8452  -7.6833  -7.6833  -7.5833  -7.5833  -7.4504  -7.4504
    -7.4273  -7.4273  -7.3926  -7.3926  -7.3131  -7.3131  -7.2152  -7.2152
    18.7862  18.7862  18.8604  18.8604  18.9205  18.9205  19.0924  19.0924
    19.1606  19.1606  19.1632  19.1632  19.2979  19.2979  19.3076  19.3076
    19.6967  19.6967  19.8553  19.8553  22.8975  22.8975  23.0868  23.0868
    24.4189  24.4189  25.0316  25.0316  25.1312  25.1312  25.4135  25.4135
    25.4759  25.4759  26.0331  26.0331  26.2076  26.2076  26.6056  26.6056
    26.6346  26.6346  27.0756  27.0756  27.3327  27.3327  27.9500  27.9500
    27.9522  27.9522  28.3200  28.3200  28.8057  28.8057  29.3850  29.3850
    29.6010  29.6010  30.0161  30.0161  30.2089  30.2089  30.4957  30.4957
    31.9758  31.9758  32.4474  32.4474  33.8385  33.8385  36.8044  36.8044
    37.9079  37.9079  38.2666  38.2666  39.2432  39.2433  39.9735  39.9736
    40.4318  40.4318  40.8728  40.8729  41.3331  41.3331  42.4570  42.4573
    42.5326

     the Fermi energy is    32.6075 ev

!    total energy              =   -2783.63455943 Ry
     Harris-Foulkes estimate   =   -2783.63458467 Ry
     estimated scf accuracy    <       0.00002870 Ry

     The total energy is the sum of the following terms:

     one-electron contribution =    -207.38509240 Ry
     hartree contribution      =     326.76032027 Ry
     xc contribution           =    -268.85631221 Ry
     ewald contribution        =   -2633.93610481 Ry
     smearing contrib. (-TS)   =      -0.21737028 Ry

     convergence has been achieved in  11 iterations

     Forces acting on atoms (Ry/au):

     atom    1 type  1   force =     0.00000000   -0.02666354   -0.00620540
     atom    2 type  1   force =     0.00000000    0.02666354    0.00620540
     atom    3 type  1   force =     0.00000000   -0.02666354    0.00620540
     atom    4 type  1   force =     0.00000000    0.02666354   -0.00620540
     atom    5 type  1   force =     0.00000000    0.03594651   -0.06788961
     atom    6 type  1   force =     0.00000000   -0.03594651    0.06788961
     atom    7 type  1   force =     0.00000000    0.03594651    0.06788961
     atom    8 type  1   force =     0.00000000   -0.03594651   -0.06788961
     atom    9 type  2   force =     0.00000000   -0.07049150    0.01383003
     atom   10 type  2   force =     0.00000000    0.07049150   -0.01383003
     atom   11 type  2   force =     0.00000000   -0.07049150   -0.01383003
     atom   12 type  2   force =     0.00000000    0.07049150    0.01383003

     Total force =     0.217356     Total SCF correction =     0.000000

     entering subroutine stress ...

          total   stress  (Ry/bohr**3)                   (kbar)     P=  882.74
   0.00645768   0.00000000   0.00000000        949.96      0.00      0.00
   0.00000000   0.00561747   0.00000000          0.00    826.36      0.00
   0.00000000   0.00000000   0.00592717          0.00      0.00    871.92

     Writing output data file Prototype-La-oP12-Co2Si.save

     General routines

     Parallel routines

   This run was terminated on:  23: 9:46  22Mar2018

   JOB DONE.