     Program PWSCF v.5.0.2 starts on 22Mar2018 at 21:16:48

     Current dimensions of program PWSCF are:
     Max number of different atomic species (ntypx) = 10
     Max number of k-points (npk) =  40000
     Max angular momentum in pseudopotentials (lmaxx) =  3
     Waiting for input...
     Reading input from standard input

     Subspace diagonalization in iterative solution of the eigenvalue problem:
     a serial algorithm will be used

     bravais-lattice index     =            0
     lattice parameter (alat)  =      12.0168  a.u.
     unit-cell volume          =    1187.3413 (a.u.)^3
     number of atoms/cell      =            8
     number of atomic types    =            2
     number of electrons       =       150.00
     number of Kohn-Sham states=           90
     kinetic-energy cutoff     =      40.0000  Ry
     charge density cutoff     =     160.0000  Ry
     convergence threshold     =      1.0E-04
     mixing beta               =       0.7000
     number of iterations used =            8  plain     mixing
     Exchange-correlation      = SLA-PZ-NOGX-NOGC ( 1 1 0 0 0)
     EXX-fraction              =        0.00
     nstep                     =           50

     celldm(1)=  12.016801  celldm(2)=   0.000000  celldm(3)=   0.000000
     celldm(4)=   0.000000  celldm(5)=   0.000000  celldm(6)=   0.000000

     crystal axes: (cart. coord. in units of alat)
               a(1) = (   1.000000   0.000000   0.000000 )
               a(2) = (  -0.500000   0.866025   0.000000 )
               a(3) = (   0.000000   0.000000   0.790093 )

     reciprocal axes: (cart. coord. in units 2 pi/alat)
               b(1) = (  1.000000  0.577350  0.000000 )
               b(2) = (  0.000000  1.154701  0.000000 )
               b(3) = (  0.000000  0.000000  1.265674 )

     PseudoPot. # 1 for Eu read from file:
     /home/cwx6513/pp.La/Eu.UPF
     MD5 check sum: 5efdbbfc50c6a10138933a6429836ad2
     Pseudo is Norm-conserving, Zval = 17.0
     Generated in analytical, separable form
     Using radial grid of 1261 points,  6 beta functions with:
                l(1) =   0
                l(2) =   0
                l(3) =   1
                l(4) =   1
                l(5) =   2
                l(6) =   3

     PseudoPot. # 2 for Yb read from file:
     /home/cwx6513/pp.La/Yb.UPF
     MD5 check sum: 3e859b81cc28c53ec6aa3a2e888efcdf
     Pseudo is Norm-conserving, Zval = 24.0
     Generated in analytical, separable form
     Using radial grid of 1269 points,  6 beta functions with:
                l(1) =   0
                l(2) =   0
                l(3) =   1
                l(4) =   1
                l(5) =   2
                l(6) =   3

     atomic species   valence    mass     pseudopotential
        Mg            17.00    24.30500     Eu( 1.00)
        Cd            24.00   112.41100     Yb( 1.00)

     24 Sym. Ops., with inversion, found (12 have fractional translation)

   Cartesian axes

     site n.     atom                  positions (alat units)
         1           Mg  tau(   1) = (   0.2478935   0.7204716   0.1975233  )
         2           Mg  tau(   2) = (   0.7478935   0.1455538   0.5925699  )
         3           Mg  tau(   3) = (   0.2521065   0.1455538   0.5925699  )
         4           Mg  tau(   4) = (  -0.2478935   0.7204716   0.1975233  )
         5           Mg  tau(   5) = (   0.0000000   0.2911075   0.1975233  )
         6           Mg  tau(   6) = (   0.5000000   0.5749179   0.5925699  )
         7           Cd  tau(   7) = (   0.5000005   0.2886748   0.1975233  )
         8           Cd  tau(   8) = (  -0.0000005   0.5773506   0.5925699  )

     number of k points=    64  gaussian smearing, width (Ry)=  0.1000
                       cart. coord. in units 2pi/alat
        k(    1) = (   0.0000000   0.0000000   0.0000000), wk =   0.0095238
        k(    2) = (   0.0000000   0.0000000   0.1808105), wk =   0.0190476
        k(    3) = (   0.0000000   0.0000000   0.3616210), wk =   0.0190476
        k(    4) = (   0.0000000   0.0000000   0.5424315), wk =   0.0190476
        k(    5) = (   0.0000000   0.1924501   0.0000000), wk =   0.0190476
        k(    6) = (   0.0000000   0.1924501   0.1808105), wk =   0.0380952
        k(    7) = (   0.0000000   0.1924501   0.3616210), wk =   0.0380952
        k(    8) = (   0.0000000   0.1924501   0.5424315), wk =   0.0380952
        k(    9) = (   0.0000000   0.3849002   0.0000000), wk =   0.0190476
        k(   10) = (   0.0000000   0.3849002   0.1808105), wk =   0.0380952
        k(   11) = (   0.0000000   0.3849002   0.3616210), wk =   0.0380952
        k(   12) = (   0.0000000   0.3849002   0.5424315), wk =   0.0380952
        k(   13) = (   0.0000000  -0.5773503   0.0000000), wk =   0.0095238
        k(   14) = (   0.0000000  -0.5773503   0.1808105), wk =   0.0190476
        k(   15) = (   0.0000000  -0.5773503   0.3616210), wk =   0.0190476
        k(   16) = (   0.0000000  -0.5773503   0.5424315), wk =   0.0190476
        k(   17) = (   0.2000000   0.1154701   0.0000000), wk =   0.0190476
        k(   18) = (   0.2000000   0.1154701   0.1808105), wk =   0.0380952
        k(   19) = (   0.2000000   0.1154701   0.3616210), wk =   0.0380952
        k(   20) = (   0.2000000   0.1154701   0.5424315), wk =   0.0380952
        k(   21) = (   0.2000000   0.3079201   0.0000000), wk =   0.0190476
        k(   22) = (   0.2000000   0.3079201   0.1808105), wk =   0.0380952
        k(   23) = (   0.2000000   0.3079201   0.3616210), wk =   0.0380952
        k(   24) = (   0.2000000   0.3079201   0.5424315), wk =   0.0380952
        k(   25) = (   0.2000000   0.5003702   0.0000000), wk =   0.0190476
        k(   26) = (   0.2000000   0.5003702   0.1808105), wk =   0.0380952
        k(   27) = (   0.2000000   0.5003702   0.3616210), wk =   0.0380952
        k(   28) = (   0.2000000   0.5003702   0.5424315), wk =   0.0380952
        k(   29) = (   0.2000000  -0.4618802   0.0000000), wk =   0.0190476
        k(   30) = (   0.2000000  -0.4618802   0.1808105), wk =   0.0380952
        k(   31) = (   0.2000000  -0.4618802   0.3616210), wk =   0.0380952
        k(   32) = (   0.2000000  -0.4618802   0.5424315), wk =   0.0380952
        k(   33) = (   0.2000000  -0.2694301   0.0000000), wk =   0.0190476
        k(   34) = (   0.2000000  -0.2694301   0.1808105), wk =   0.0380952
        k(   35) = (   0.2000000  -0.2694301   0.3616210), wk =   0.0380952
        k(   36) = (   0.2000000  -0.2694301   0.5424315), wk =   0.0380952
        k(   37) = (   0.2000000  -0.0769800   0.0000000), wk =   0.0190476
        k(   38) = (   0.2000000  -0.0769800   0.1808105), wk =   0.0380952
        k(   39) = (   0.2000000  -0.0769800   0.3616210), wk =   0.0380952
        k(   40) = (   0.2000000  -0.0769800   0.5424315), wk =   0.0380952
        k(   41) = (   0.4000000   0.2309401   0.0000000), wk =   0.0190476
        k(   42) = (   0.4000000   0.2309401   0.1808105), wk =   0.0380952
        k(   43) = (   0.4000000   0.2309401   0.3616210), wk =   0.0380952
        k(   44) = (   0.4000000   0.2309401   0.5424315), wk =   0.0380952
        k(   45) = (   0.4000000   0.4233902   0.0000000), wk =   0.0190476
        k(   46) = (   0.4000000   0.4233902   0.1808105), wk =   0.0380952
        k(   47) = (   0.4000000   0.4233902   0.3616210), wk =   0.0380952
        k(   48) = (   0.4000000   0.4233902   0.5424315), wk =   0.0380952
        k(   49) = (   0.4000000   0.6158403   0.0000000), wk =   0.0190476
        k(   50) = (   0.4000000   0.6158403   0.1808105), wk =   0.0380952
        k(   51) = (   0.4000000   0.6158403   0.3616210), wk =   0.0380952
        k(   52) = (   0.4000000   0.6158403   0.5424315), wk =   0.0380952
        k(   53) = (   0.4000000  -0.3464102   0.0000000), wk =   0.0190476
        k(   54) = (   0.4000000  -0.3464102   0.1808105), wk =   0.0380952
        k(   55) = (   0.4000000  -0.3464102   0.3616210), wk =   0.0380952
        k(   56) = (   0.4000000  -0.3464102   0.5424315), wk =   0.0380952
        k(   57) = (   0.4000000  -0.1539601   0.0000000), wk =   0.0190476
        k(   58) = (   0.4000000  -0.1539601   0.1808105), wk =   0.0380952
        k(   59) = (   0.4000000  -0.1539601   0.3616210), wk =   0.0380952
        k(   60) = (   0.4000000  -0.1539601   0.5424315), wk =   0.0380952
        k(   61) = (   0.4000000   0.0384900   0.0000000), wk =   0.0190476
        k(   62) = (   0.4000000   0.0384900   0.1808105), wk =   0.0380952
        k(   63) = (   0.4000000   0.0384900   0.3616210), wk =   0.0380952
        k(   64) = (   0.4000000   0.0384900   0.5424315), wk =   0.0380952

     Largest allocated arrays     est. size (Mb)     dimensions
     Largest temporary arrays     est. size (Mb)     dimensions

     Initial potential from superposition of free atoms

     Starting from uniform charge
     Starting wfc are    0 randomized atomic wfcs

     Self-consistent Calculation

     iteration #  1     ecut=    40.00 Ry     beta=0.70
     CG style diagonalization
     ethr =  1.00E-02,  avg # of iterations = 17.6

     total energy              =    -998.59727859 Ry
     Harris-Foulkes estimate   =   -2496.78384294 Ry
     estimated scf accuracy    <    1778.61183909 Ry

[...]

     iteration #  3     ecut=    40.00 Ry     beta=0.70
     CG style diagonalization
     c_bands:  1 eigenvalues not converged
     c_bands:  2 eigenvalues not converged
     c_bands:  1 eigenvalues not converged
     c_bands:  1 eigenvalues not converged
     c_bands:  1 eigenvalues not converged
     c_bands:  1 eigenvalues not converged
     c_bands:  1 eigenvalues not converged
     c_bands:  1 eigenvalues not converged
     c_bands:  1 eigenvalues not converged
     c_bands:  1 eigenvalues not converged
     c_bands:  1 eigenvalues not converged
     c_bands:  1 eigenvalues not converged
     c_bands:  1 eigenvalues not converged
     c_bands:  2 eigenvalues not converged
     c_bands:  1 eigenvalues not converged
     c_bands:  1 eigenvalues not converged
     c_bands:  1 eigenvalues not converged
     c_bands:  1 eigenvalues not converged
     c_bands:  1 eigenvalues not converged
     c_bands:  2 eigenvalues not converged
     c_bands:  1 eigenvalues not converged
     c_bands:  1 eigenvalues not converged
     ethr =  1.00E-02,  avg # of iterations = 11.3

[...]

     End of self-consistent calculation

          k = 0.0000 0.0000 0.0000 (  5047 PWs)   bands (ev):

  -101.8689-101.8577 -60.6346 -60.6346 -60.6341 -60.6313 -60.6297 -60.6297
   -40.2162 -40.1556 -40.1555 -40.1458 -40.1212 -40.1211 -13.2467 -13.2250
   -13.0962 -13.0339 -13.0338 -13.0290 -13.0289 -12.9897 -12.9897 -12.8577
   -12.7454 -12.7453 -12.6427 -12.6364 -12.6364 -12.6214 -12.6194 -12.6194
    -2.4011  -2.4011  -2.3972  -2.3954  -2.3954  -2.3940  -2.3914  -2.3914
    -2.3759  -2.3759  10.0196  10.7935  15.8197  16.9711  16.9712  16.9822
    17.2151  17.2151  17.2994  17.3126  17.3127  17.3218  18.0190  18.0191
    18.7814  19.2350  19.2351  19.3333  19.3333  19.4226  20.1038  20.5336
    20.5336  20.8312  20.8312  21.0673  21.1406  21.3020  21.3021  21.3970
    21.3970  22.5234  22.5235  22.7187  23.1015  23.1324  23.4828  23.4829
[...]
        k(   12) = (   0.0000000   0.3897214   0.5426436), wk =   0.0380952
        k(   13) = (   0.0000000  -0.5845821   0.0000000), wk =   0.0095238
        k(   14) = (   0.0000000  -0.5845821   0.1808812), wk =   0.0190476
        k(   15) = (   0.0000000  -0.5845821   0.3617624), wk =   0.0190476
        k(   16) = (   0.0000000  -0.5845821   0.5426436), wk =   0.0190476
        k(   17) = (   0.2025052   0.1169164   0.0000000), wk =   0.0190476
        k(   18) = (   0.2025052   0.1169164   0.1808812), wk =   0.0380952
        k(   19) = (   0.2025052   0.1169164   0.3617624), wk =   0.0380952
        k(   20) = (   0.2025052   0.1169164   0.5426436), wk =   0.0380952
        k(   21) = (   0.2025052   0.3117771   0.0000000), wk =   0.0190476
        k(   22) = (   0.2025052   0.3117771   0.1808812), wk =   0.0380952
        k(   23) = (   0.2025052   0.3117771   0.3617624), wk =   0.0380952
        k(   24) = (   0.2025052   0.3117771   0.5426436), wk =   0.0380952
        k(   25) = (   0.2025052   0.5066379   0.0000000), wk =   0.0190476
        k(   26) = (   0.2025052   0.5066379   0.1808812), wk =   0.0380952
        k(   27) = (   0.2025052   0.5066379   0.3617624), wk =   0.0380952
        k(   28) = (   0.2025052   0.5066379   0.5426436), wk =   0.0380952
        k(   29) = (   0.2025052  -0.4676657   0.0000000), wk =   0.0190476
        k(   30) = (   0.2025052  -0.4676657   0.1808812), wk =   0.0380952
        k(   31) = (   0.2025052  -0.4676657   0.3617624), wk =   0.0380952
        k(   32) = (   0.2025052  -0.4676657   0.5426436), wk =   0.0380952
        k(   33) = (   0.2025052  -0.2728050   0.0000000), wk =   0.0190476
        k(   34) = (   0.2025052  -0.2728050   0.1808812), wk =   0.0380952
        k(   35) = (   0.2025052  -0.2728050   0.3617624), wk =   0.0380952
        k(   36) = (   0.2025052  -0.2728050   0.5426436), wk =   0.0380952
        k(   37) = (   0.2025052  -0.0779443   0.0000000), wk =   0.0190476
        k(   38) = (   0.2025052  -0.0779443   0.1808812), wk =   0.0380952
        k(   39) = (   0.2025052  -0.0779443   0.3617624), wk =   0.0380952
        k(   40) = (   0.2025052  -0.0779443   0.5426436), wk =   0.0380952
        k(   41) = (   0.4050104   0.2338329   0.0000000), wk =   0.0190476
        k(   42) = (   0.4050104   0.2338329   0.1808812), wk =   0.0380952
        k(   43) = (   0.4050104   0.2338329   0.3617624), wk =   0.0380952
        k(   44) = (   0.4050104   0.2338329   0.5426436), wk =   0.0380952
        k(   45) = (   0.4050104   0.4286936   0.0000000), wk =   0.0190476
        k(   46) = (   0.4050104   0.4286936   0.1808812), wk =   0.0380952
        k(   47) = (   0.4050104   0.4286936   0.3617624), wk =   0.0380952
        k(   48) = (   0.4050104   0.4286936   0.5426436), wk =   0.0380952
        k(   49) = (   0.4050104   0.6235543   0.0000000), wk =   0.0190476
        k(   50) = (   0.4050104   0.6235543   0.1808812), wk =   0.0380952
        k(   51) = (   0.4050104   0.6235543   0.3617624), wk =   0.0380952
        k(   52) = (   0.4050104   0.6235543   0.5426436), wk =   0.0380952
        k(   53) = (   0.4050104  -0.3507493   0.0000000), wk =   0.0190476
        k(   54) = (   0.4050104  -0.3507493   0.1808812), wk =   0.0380952
        k(   55) = (   0.4050104  -0.3507493   0.3617624), wk =   0.0380952
        k(   56) = (   0.4050104  -0.3507493   0.5426436), wk =   0.0380952
        k(   57) = (   0.4050104  -0.1558886   0.0000000), wk =   0.0190476
        k(   58) = (   0.4050104  -0.1558886   0.1808812), wk =   0.0380952
        k(   59) = (   0.4050104  -0.1558886   0.3617624), wk =   0.0380952
        k(   60) = (   0.4050104  -0.1558886   0.5426436), wk =   0.0380952
        k(   61) = (   0.4050104   0.0389721   0.0000000), wk =   0.0190476
        k(   62) = (   0.4050104   0.0389721   0.1808812), wk =   0.0380952
        k(   63) = (   0.4050104   0.0389721   0.3617624), wk =   0.0380952
        k(   64) = (   0.4050104   0.0389721   0.5426436), wk =   0.0380952

[...]

     The maximum number of steps has been reached.

     End of BFGS Geometry Optimization
Begin final coordinates
     new unit-cell volume =   1157.69303 a.u.^3 (   171.55241 Ang^3 )

CELL_PARAMETERS (alat= 12.01680127)
   0.987628991   0.000000000   0.000000000
  -0.493814496   0.855311796   0.000000000
   0.000000000   0.000000000   0.789784290

ATOMIC_POSITIONS (crystal)
Mg       0.669929582   0.834964791   0.250000000
Mg       0.834964791   0.165035209   0.750000000
Mg       0.330070418   0.165035209   0.750000000
Mg       0.165035209   0.834964791   0.250000000
Mg       0.165035209   0.330070418   0.250000000
Mg       0.834964791   0.669929582   0.750000000
Cd       0.666667000   0.333333000   0.250000000
Cd       0.333333000   0.666667000   0.750000000
End final coordinates

     A final scf calculation at the relaxed structure.
     The G-vectors are recalculated for the final unit cell
     Results may differ from those at the preceding step.

     bravais-lattice index     =            0
     lattice parameter (alat)  =      12.0168  a.u.
     unit-cell volume          =    1157.6930 (a.u.)^3
     number of atoms/cell      =            8
     number of atomic types    =            2
     number of electrons       =       150.00
     number of Kohn-Sham states=           90
     kinetic-energy cutoff     =      40.0000  Ry
     charge density cutoff     =     160.0000  Ry
     convergence threshold     =      5.5E-05
     mixing beta               =       0.7000
     number of iterations used =            8  plain     mixing
     Exchange-correlation      = SLA-PZ-NOGX-NOGC ( 1 1 0 0 0)
     EXX-fraction              =        0.00

     celldm(1)=  12.016801  celldm(2)=   0.000000  celldm(3)=   0.000000
     celldm(4)=   0.000000  celldm(5)=   0.000000  celldm(6)=   0.000000

     crystal axes: (cart. coord. in units of alat)
               a(1) = (   0.987629   0.000000   0.000000 )
               a(2) = (  -0.493814   0.855312   0.000000 )
               a(3) = (   0.000000   0.000000   0.789784 )

     reciprocal axes: (cart. coord. in units 2 pi/alat)
               b(1) = (  1.012526  0.584582  0.000000 )
               b(2) = (  0.000000  1.169164  0.000000 )
               b(3) = (  0.000000  0.000000  1.266169 )

     PseudoPot. # 1 for Eu read from file:
     /home/cwx6513/pp.La/Eu.UPF
     MD5 check sum: 5efdbbfc50c6a10138933a6429836ad2
     Pseudo is Norm-conserving, Zval = 17.0
     Generated in analytical, separable form
     Using radial grid of 1261 points,  6 beta functions with:
                l(1) =   0
                l(2) =   0
                l(3) =   1
                l(4) =   1
                l(5) =   2
                l(6) =   3

     PseudoPot. # 2 for Yb read from file:
     /home/cwx6513/pp.La/Yb.UPF
     MD5 check sum: 3e859b81cc28c53ec6aa3a2e888efcdf
     Pseudo is Norm-conserving, Zval = 24.0
     Generated in analytical, separable form
     Using radial grid of 1269 points,  6 beta functions with:
                l(1) =   0
                l(2) =   0
                l(3) =   1
                l(4) =   1
                l(5) =   2
                l(6) =   3

     atomic species   valence    mass     pseudopotential
        Mg            17.00    24.30500     Eu( 1.00)
        Cd            24.00   112.41100     Yb( 1.00)

     24 Sym. Ops., with inversion, found (12 have fractional translation)

   Cartesian axes

     site n.     atom                  positions (alat units)
         1           Mg  tau(   1) = (   0.2493242   0.7141552   0.1974461  )
         2           Mg  tau(   2) = (   0.7431387   0.1411566   0.5923382  )
         3           Mg  tau(   3) = (   0.2444903   0.1411566   0.5923382  )
         4           Mg  tau(   4) = (  -0.2493242   0.7141552   0.1974461  )
         5           Mg  tau(   5) = (   0.0000000   0.2823131   0.1974461  )
         6           Mg  tau(   6) = (   0.4938145   0.5729987   0.5923382  )
         7           Cd  tau(   7) = (   0.4938150   0.2851036   0.1974461  )
         8           Cd  tau(   8) = (  -0.0000005   0.5702081   0.5923382  )

     number of k points=    64  gaussian smearing, width (Ry)=  0.1000
                       cart. coord. in units 2pi/alat
        k(    1) = (   0.0000000   0.0000000   0.0000000), wk =   0.0095238
        k(    2) = (   0.0000000   0.0000000   0.1808812), wk =   0.0190476
        k(    3) = (   0.0000000   0.0000000   0.3617624), wk =   0.0190476
        k(    4) = (   0.0000000   0.0000000   0.5426436), wk =   0.0190476
        k(    5) = (   0.0000000   0.1948607   0.0000000), wk =   0.0190476
        k(    6) = (   0.0000000   0.1948607   0.1808812), wk =   0.0380952
        k(    7) = (   0.0000000   0.1948607   0.3617624), wk =   0.0380952
        k(    8) = (   0.0000000   0.1948607   0.5426436), wk =   0.0380952
        k(    9) = (   0.0000000   0.3897214   0.0000000), wk =   0.0190476
        k(   10) = (   0.0000000   0.3897214   0.1808812), wk =   0.0380952
        k(   11) = (   0.0000000   0.3897214   0.3617624), wk =   0.0380952
        k(   12) = (   0.0000000   0.3897214   0.5426436), wk =   0.0380952
        k(   13) = (   0.0000000  -0.5845821   0.0000000), wk =   0.0095238
        k(   14) = (   0.0000000  -0.5845821   0.1808812), wk =   0.0190476
        k(   15) = (   0.0000000  -0.5845821   0.3617624), wk =   0.0190476
        k(   16) = (   0.0000000  -0.5845821   0.5426436), wk =   0.0190476
        k(   17) = (   0.2025052   0.1169164   0.0000000), wk =   0.0190476
        k(   18) = (   0.2025052   0.1169164   0.1808812), wk =   0.0380952
        k(   19) = (   0.2025052   0.1169164   0.3617624), wk =   0.0380952
        k(   20) = (   0.2025052   0.1169164   0.5426436), wk =   0.0380952
        k(   21) = (   0.2025052   0.3117771   0.0000000), wk =   0.0190476
        k(   22) = (   0.2025052   0.3117771   0.1808812), wk =   0.0380952
        k(   23) = (   0.2025052   0.3117771   0.3617624), wk =   0.0380952
        k(   24) = (   0.2025052   0.3117771   0.5426436), wk =   0.0380952
        k(   25) = (   0.2025052   0.5066379   0.0000000), wk =   0.0190476
        k(   26) = (   0.2025052   0.5066379   0.1808812), wk =   0.0380952
        k(   27) = (   0.2025052   0.5066379   0.3617624), wk =   0.0380952
        k(   28) = (   0.2025052   0.5066379   0.5426436), wk =   0.0380952
        k(   29) = (   0.2025052  -0.4676657   0.0000000), wk =   0.0190476
        k(   30) = (   0.2025052  -0.4676657   0.1808812), wk =   0.0380952
        k(   31) = (   0.2025052  -0.4676657   0.3617624), wk =   0.0380952
        k(   32) = (   0.2025052  -0.4676657   0.5426436), wk =   0.0380952
        k(   33) = (   0.2025052  -0.2728050   0.0000000), wk =   0.0190476
        k(   34) = (   0.2025052  -0.2728050   0.1808812), wk =   0.0380952
        k(   35) = (   0.2025052  -0.2728050   0.3617624), wk =   0.0380952
        k(   36) = (   0.2025052  -0.2728050   0.5426436), wk =   0.0380952
        k(   37) = (   0.2025052  -0.0779443   0.0000000), wk =   0.0190476
        k(   38) = (   0.2025052  -0.0779443   0.1808812), wk =   0.0380952
        k(   39) = (   0.2025052  -0.0779443   0.3617624), wk =   0.0380952
        k(   40) = (   0.2025052  -0.0779443   0.5426436), wk =   0.0380952
        k(   41) = (   0.4050104   0.2338329   0.0000000), wk =   0.0190476
        k(   42) = (   0.4050104   0.2338329   0.1808812), wk =   0.0380952
        k(   43) = (   0.4050104   0.2338329   0.3617624), wk =   0.0380952
        k(   44) = (   0.4050104   0.2338329   0.5426436), wk =   0.0380952
        k(   45) = (   0.4050104   0.4286936   0.0000000), wk =   0.0190476
        k(   46) = (   0.4050104   0.4286936   0.1808812), wk =   0.0380952
        k(   47) = (   0.4050104   0.4286936   0.3617624), wk =   0.0380952
        k(   48) = (   0.4050104   0.4286936   0.5426436), wk =   0.0380952
        k(   49) = (   0.4050104   0.6235543   0.0000000), wk =   0.0190476
        k(   50) = (   0.4050104   0.6235543   0.1808812), wk =   0.0380952
        k(   51) = (   0.4050104   0.6235543   0.3617624), wk =   0.0380952
        k(   52) = (   0.4050104   0.6235543   0.5426436), wk =   0.0380952
        k(   53) = (   0.4050104  -0.3507493   0.0000000), wk =   0.0190476
        k(   54) = (   0.4050104  -0.3507493   0.1808812), wk =   0.0380952
        k(   55) = (   0.4050104  -0.3507493   0.3617624), wk =   0.0380952
        k(   56) = (   0.4050104  -0.3507493   0.5426436), wk =   0.0380952
        k(   57) = (   0.4050104  -0.1558886   0.0000000), wk =   0.0190476
        k(   58) = (   0.4050104  -0.1558886   0.1808812), wk =   0.0380952
        k(   59) = (   0.4050104  -0.1558886   0.3617624), wk =   0.0380952
        k(   60) = (   0.4050104  -0.1558886   0.5426436), wk =   0.0380952
        k(   61) = (   0.4050104   0.0389721   0.0000000), wk =   0.0190476
        k(   62) = (   0.4050104   0.0389721   0.1808812), wk =   0.0380952
        k(   63) = (   0.4050104   0.0389721   0.3617624), wk =   0.0380952
        k(   64) = (   0.4050104   0.0389721   0.5426436), wk =   0.0380952

     Largest allocated arrays     est. size (Mb)     dimensions
     Largest temporary arrays     est. size (Mb)     dimensions

     Initial potential from superposition of free atoms

     Starting from uniform charge
     Starting wfc are    0 randomized atomic wfcs

     Writing output data file Prototype-La-hP8-Mg3Cd.save

     Self-consistent Calculation

[...]

     iteration #  8     ecut=    40.00 Ry     beta=0.70
     CG style diagonalization
     c_bands:  1 eigenvalues not converged
     c_bands:  1 eigenvalues not converged
     ethr =  1.44E-05,  avg # of iterations =  4.5

[...]

     total energy              =   -1870.42684793 Ry
     Harris-Foulkes estimate   =   -1870.42711239 Ry
     estimated scf accuracy    <       0.00058341 Ry

     iteration # 11     ecut=    40.00 Ry     beta=0.70
     CG style diagonalization
     ethr =  3.89E-07,  avg # of iterations =  3.4

     End of self-consistent calculation

[...]

          k = 0.4050 0.0390 0.5426 (  4938 PWs)   bands (ev):

  -101.1666-101.1638 -59.9292 -59.9285 -59.9260 -59.9254 -59.9163 -59.9142
   -39.5056 -39.4889 -39.4738 -39.4665 -39.4601 -39.4544 -12.5279 -12.5137
   -12.5004 -12.4880 -12.4387 -12.4297 -12.2487 -12.2046 -12.1620 -12.1562
   -12.1079 -12.0748 -12.0496 -12.0369 -12.0256 -11.9917 -11.9658 -11.9608
    -1.6985  -1.6977  -1.6962  -1.6947  -1.6902  -1.6891  -1.6863  -1.6859
    -1.6811  -1.6797  11.3878  11.4739  16.4093  16.4564  17.1700  17.2440
    17.4807  17.6049  18.2121  18.3108  18.5317  18.7844  18.8489  18.9821
    19.0386  19.0795  19.5369  19.6606  19.8835  20.0118  20.2874  20.9702
    21.0181  21.1983  21.4547  21.5043  21.5635  21.6958  21.8617  22.0270
    22.5743  22.5973  22.6801  23.0693  23.2829  23.5044  24.1331  24.1719
    25.4080  25.6891  27.3945  28.1925  29.2400  29.3702  29.7993  30.0439
    30.3158  30.6873

     the Fermi energy is    23.2153 ev

!    total energy              =   -1870.42694996 Ry
     Harris-Foulkes estimate   =   -1870.42695693 Ry
     estimated scf accuracy    <       0.00000817 Ry

     The total energy is the sum of the following terms:

     one-electron contribution =    -428.07348338 Ry
     hartree contribution      =     297.72982156 Ry
     xc contribution           =    -172.25384437 Ry
     ewald contribution        =   -1567.34673246 Ry
     smearing contrib. (-TS)   =      -0.48271130 Ry

     convergence has been achieved in  11 iterations

     Forces acting on atoms (Ry/au):

     atom    1 type  1   force =     0.00069580    0.00040172    0.00000000
     atom    2 type  1   force =     0.00069580   -0.00040172    0.00000000
     atom    3 type  1   force =    -0.00069580   -0.00040172    0.00000000
     atom    4 type  1   force =    -0.00069580    0.00040172    0.00000000
     atom    5 type  1   force =     0.00000000   -0.00080344    0.00000000
     atom    6 type  1   force =     0.00000000    0.00080344    0.00000000
     atom    7 type  2   force =     0.00000000    0.00000000    0.00000000
     atom    8 type  2   force =     0.00000000    0.00000000    0.00000000

     Total force =     0.001968     Total SCF correction =     0.000000

     entering subroutine stress ...

          total   stress  (Ry/bohr**3)                   (kbar)     P= -408.51
  -0.00277969   0.00000000   0.00000000       -408.91      0.00      0.00
   0.00000000  -0.00277969   0.00000000          0.00   -408.91      0.00
   0.00000000   0.00000000  -0.00277162          0.00      0.00   -407.72

     Writing output data file Prototype-La-hP8-Mg3Cd.save

     General routines

     Parallel routines

   This run was terminated on:  22:32: 9  22Mar2018

   JOB DONE.