     Program PWSCF v.5.0.2 starts on 22Mar2018 at 21:16:48

     Current dimensions of program PWSCF are:
     Max number of different atomic species (ntypx) = 10
     Max number of k-points (npk) =  40000
     Max angular momentum in pseudopotentials (lmaxx) =  3
     Waiting for input...
     Reading input from standard input

     Subspace diagonalization in iterative solution of the eigenvalue problem:
     a serial algorithm will be used

     bravais-lattice index     =            0
     lattice parameter (alat)  =       7.0151  a.u.
     unit-cell volume          =     862.2778 (a.u.)^3
     number of atoms/cell      =           12
     number of atomic types    =            2
     number of electrons       =       232.00
     number of Kohn-Sham states=          139
     kinetic-energy cutoff     =      40.0000  Ry
     charge density cutoff     =     160.0000  Ry
     convergence threshold     =      1.0E-04
     mixing beta               =       0.7000
     number of iterations used =            8  plain     mixing
     Exchange-correlation      = SLA-PZ-NOGX-NOGC ( 1 1 0 0 0)
     EXX-fraction              =        0.00
     nstep                     =           50

     celldm(1)=   7.015105  celldm(2)=   0.000000  celldm(3)=   0.000000
     celldm(4)=   0.000000  celldm(5)=   0.000000  celldm(6)=   0.000000

     crystal axes: (cart. coord. in units of alat)
               a(1) = (   1.000000   0.000000   0.000000 )
               a(2) = (   0.000000   1.315963   0.000000 )
               a(3) = (   0.000000   0.000000   1.898020 )

     reciprocal axes: (cart. coord. in units 2 pi/alat)
               b(1) = (  1.000000  0.000000  0.000000 )
               b(2) = (  0.000000  0.759900  0.000000 )
               b(3) = (  0.000000  0.000000  0.526865 )

     PseudoPot. # 1 for Eu read from file:
     /home/cwx6513/pp.La/Eu.UPF
     MD5 check sum: 5efdbbfc50c6a10138933a6429836ad2
     Pseudo is Norm-conserving, Zval = 17.0
     Generated in analytical, separable form
     Using radial grid of 1261 points,  6 beta functions with:
                l(1) =   0
                l(2) =   0
                l(3) =   1
                l(4) =   1
                l(5) =   2
                l(6) =   3

     PseudoPot. # 2 for Yb read from file:
     /home/cwx6513/pp.La/Yb.UPF
     MD5 check sum: 3e859b81cc28c53ec6aa3a2e888efcdf
     Pseudo is Norm-conserving, Zval = 24.0
     Generated in analytical, separable form
     Using radial grid of 1269 points,  6 beta functions with:
                l(1) =   0
                l(2) =   0
                l(3) =   1
                l(4) =   1
                l(5) =   2
                l(6) =   3

     atomic species   valence    mass     pseudopotential
        Co            17.00    58.93320     Eu( 1.00)
        Si            24.00    28.08550     Yb( 1.00)

      8 Sym. Ops., with inversion, found ( 6 have fractional translation)

   Cartesian axes

     site n.     atom                  positions (alat units)
         1           Co  tau(   1) = (   0.7500000   1.0875135   0.8270358  )
         2           Co  tau(   2) = (   0.2500000   0.2284499   1.0709846  )
         3           Co  tau(   3) = (   0.7500000   0.4295318   0.1219744  )
         4           Co  tau(   4) = (   0.2500000   0.8864316   1.7760460  )
         5           Co  tau(   5) = (   0.2500000   0.7067855   0.5358966  )
         6           Co  tau(   6) = (   0.7500000   0.6091779   1.3621238  )
         7           Co  tau(   7) = (   0.2500000   0.0488038   0.4131136  )
         8           Co  tau(   8) = (   0.7500000   1.2671596   1.4849068  )
         9           Si  tau(   9) = (   0.2500000   0.2669484   1.6960710  )
        10           Si  tau(  10) = (   0.7500000   1.0490149   0.2019494  )
        11           Si  tau(  11) = (   0.2500000   0.9249301   1.1509596  )
        12           Si  tau(  12) = (   0.7500000   0.3910333   0.7470608  )

     number of k points=    12  gaussian smearing, width (Ry)=  0.1000
                       cart. coord. in units 2pi/alat
        k(    1) = (   0.0000000   0.0000000   0.0000000), wk =   0.0833333
        k(    2) = (   0.0000000   0.0000000   0.1317162), wk =   0.1666667
        k(    3) = (   0.0000000   0.0000000  -0.2634324), wk =   0.0833333
        k(    4) = (   0.0000000   0.2532999   0.0000000), wk =   0.1666667
        k(    5) = (   0.0000000   0.2532999   0.1317162), wk =   0.3333333
        k(    6) = (   0.0000000   0.2532999  -0.2634324), wk =   0.1666667
        k(    7) = (  -0.5000000   0.0000000   0.0000000), wk =   0.0833333
        k(    8) = (  -0.5000000   0.0000000   0.1317162), wk =   0.1666667
        k(    9) = (  -0.5000000   0.0000000  -0.2634324), wk =   0.0833333
        k(   10) = (  -0.5000000   0.2532999   0.0000000), wk =   0.1666667
        k(   11) = (  -0.5000000   0.2532999   0.1317162), wk =   0.3333333
        k(   12) = (  -0.5000000   0.2532999  -0.2634324), wk =   0.1666667

     Largest allocated arrays     est. size (Mb)     dimensions
     Largest temporary arrays     est. size (Mb)     dimensions

     Initial potential from superposition of free atoms

     Starting from uniform charge
     Starting wfc are    0 randomized atomic wfcs

     Self-consistent Calculation

     iteration #  1     ecut=    40.00 Ry     beta=0.70
     CG style diagonalization
     ethr =  1.00E-02,  avg # of iterations = 17.6

     total energy              =   -2101.28183966 Ry
     Harris-Foulkes estimate   =   -3655.50420419 Ry
     estimated scf accuracy    <    1867.32776727 Ry

     iteration #  2     ecut=    40.00 Ry     beta=0.70
     CG style diagonalization
     c_bands:  5 eigenvalues not converged
     ethr =  1.00E-02,  avg # of iterations = 16.5

[...]

     End of self-consistent calculation

          k = 0.0000 0.0000 0.0000 (  3675 PWs)   bands (ev):

   -73.5320 -73.5021 -73.4964 -73.4678 -32.6319 -32.6316 -32.6186 -32.6038
   -32.6030 -32.5999 -32.5988 -32.5948 -32.4670 -32.4586 -32.4421 -32.4273
   -14.0904 -13.5959 -13.5058 -13.3567 -13.1754 -12.8711 -12.7639 -12.7490
    10.4415  10.9054  11.2344  11.3607  11.4678  11.4824  11.8872  11.8956
    12.2570  12.3068  12.7102  12.8463  12.9689  13.1773  13.3361  13.4226
    13.5034  13.6782  13.8586  14.2230  14.2948  14.6635  15.2107  15.4198
    23.6013  23.7876  23.8807  23.9511  24.0036  24.0453  24.1096  24.2222
    24.2260  24.2543  24.4122  24.6837  24.7592  24.8869  25.0337  25.0884
    25.1217  25.1764  25.2864  25.3293  33.3462  34.0179  36.0721  36.1507
    37.5032  38.0042  39.3907  39.4075  40.1782  40.3463  40.3521  40.4000
    40.5332  40.6645  40.7529  40.8256  41.8926  41.8961  41.9940  43.1389
    43.2300  43.3252  44.8249  44.8326  44.9958  45.1420  45.2005  46.4610
    46.6126  46.8538  46.9455  47.0195  47.0501  47.6035  48.5145  48.5791
    48.6250  48.8020  49.0335  49.4764  49.9203  50.0134  50.4584  51.9358
    52.3805  52.5051  52.7856  53.8843  54.3691  54.8010  54.8726  55.3856
    55.9325  56.3971  57.0038  57.0280  57.0393  57.1316  57.4401  57.8849
    57.9751  58.0766  58.2666  58.2987  58.3102  58.6239  59.4992  60.0285
    60.0348  60.3057  60.4925

[...]

          k =-0.5000 0.0000 0.0000 (  3722 PWs)   bands (ev):

[...]

     the Fermi energy is    53.7933 ev

!    total energy              =   -3025.87901992 Ry
     Harris-Foulkes estimate   =   -3025.87906079 Ry
     estimated scf accuracy    <       0.00004510 Ry

     The total energy is the sum of the following terms:

     one-electron contribution =     136.65886122 Ry
     hartree contribution      =     279.28258553 Ry
     xc contribution           =    -290.76978021 Ry
     ewald contribution        =   -3150.78924484 Ry
     smearing contrib. (-TS)   =      -0.26144162 Ry

     convergence has been achieved in  10 iterations

     Forces acting on atoms (Ry/au):

     atom    1 type  1   force =     0.00000000   -0.05628491   -0.01935257
     atom    2 type  1   force =     0.00000000    0.05628491    0.01935257
     atom    3 type  1   force =     0.00000000   -0.05628491    0.01935257
     atom    4 type  1   force =     0.00000000    0.05628491   -0.01935257
     atom    5 type  1   force =     0.00000000    0.11376294   -0.22578035
     atom    6 type  1   force =     0.00000000   -0.11376294    0.22578035
     atom    7 type  1   force =     0.00000000    0.11376294    0.22578035
     atom    8 type  1   force =     0.00000000   -0.11376294   -0.22578035
     atom    9 type  2   force =     0.00000000   -0.13311137    0.02795909
     atom   10 type  2   force =     0.00000000    0.13311137   -0.02795909
     atom   11 type  2   force =     0.00000000   -0.13311137   -0.02795909
     atom   12 type  2   force =     0.00000000    0.13311137    0.02795909

     Total force =     0.586384     Total SCF correction =     0.000000

     entering subroutine stress ...

          total   stress  (Ry/bohr**3)                   (kbar)     P= 7126.76
   0.05050861   0.00000000   0.00000000       7430.07      0.00      0.00
   0.00000000   0.04654196   0.00000000          0.00   6846.56      0.00
   0.00000000   0.00000000   0.04828972          0.00      0.00   7103.66

     BFGS Geometry Optimization

     number of scf cycles    =   1
     number of bfgs steps    =   0

     enthalpy new            =   -3025.8790199250 Ry

     new trust radius        =       0.5000000000 bohr
     new conv_thr            =       0.0001000000 Ry

     new unit-cell volume =   1091.23130 a.u.^3 (   161.70379 Ang^3 )

CELL_PARAMETERS (alat=  7.01510508)
   1.085136619   0.000000000   0.000000000
   0.000000000   1.419201350   0.000000000
   0.000000000   0.000000000   2.052512624

ATOMIC_POSITIONS (crystal)
Co       0.750000000   0.825989921   0.435638003
Co       0.250000000   0.174010079   0.564361997
Co       0.750000000   0.325989921   0.064361997
Co       0.250000000   0.674010079   0.935638003
Co       0.250000000   0.537916871   0.281201695
Co       0.750000000   0.462083129   0.718798305
Co       0.250000000   0.037916871   0.218798305
Co       0.750000000   0.962083129   0.781201695
Si       0.250000000   0.201881817   0.893741579
Si       0.750000000   0.798118183   0.106258421
Si       0.250000000   0.701881817   0.606258421
Si       0.750000000   0.298118183   0.393741579

     Writing output data file Prototype-La-oP12-Co2Si.save
     NEW-OLD atomic charge density approx. for the potential
     NEW k-points:
        k(    1) = (   0.0000000   0.0000000   0.0000000), wk =   0.0833333
        k(    2) = (   0.0000000   0.0000000   0.1218019), wk =   0.1666667
        k(    3) = (   0.0000000   0.0000000  -0.2436039), wk =   0.0833333
        k(    4) = (   0.0000000   0.2348739   0.0000000), wk =   0.1666667
        k(    5) = (   0.0000000   0.2348739   0.1218019), wk =   0.3333333
        k(    6) = (   0.0000000   0.2348739  -0.2436039), wk =   0.1666667
        k(    7) = (  -0.4607715   0.0000000   0.0000000), wk =   0.0833333
        k(    8) = (  -0.4607715   0.0000000   0.1218019), wk =   0.1666667
        k(    9) = (  -0.4607715   0.0000000  -0.2436039), wk =   0.0833333
        k(   10) = (  -0.4607715   0.2348739   0.0000000), wk =   0.1666667
        k(   11) = (  -0.4607715   0.2348739   0.1218019), wk =   0.3333333
        k(   12) = (  -0.4607715   0.2348739  -0.2436039), wk =   0.1666667

[...]

     enthalpy old            =   -3025.8790199250 Ry
     enthalpy new            =   -3032.3784478122 Ry

     CASE: enthalpy_new < enthalpy_old

     small trust_radius: resetting bfgs history

     new trust radius        =       2.1884804861 bohr
     new conv_thr            =       0.0001000000 Ry

[...]

          total   stress  (Ry/bohr**3)                   (kbar)     P=-3280.38
  -0.02310068   0.00000000   0.00000000      -3398.23      0.00      0.00
   0.00000000  -0.02152042   0.00000000          0.00  -3165.76      0.00
   0.00000000   0.00000000  -0.02227759          0.00      0.00  -3277.15

     number of scf cycles    =   3
     number of bfgs steps    =   2

     enthalpy old            =   -3032.3784478123 Ry
     enthalpy new            =   -3013.7455949801 Ry

     CASE: enthalpy_new > enthalpy_old

     new trust radius        =       0.5248578747 bohr

     trust_radius < trust_radius_min

     resetting bfgs history

     Message from routine bfgs:
     history already reset at previous step: stopping
     new conv_thr            =       0.0001000000 Ry

     new unit-cell volume =   1311.41431 a.u.^3 (   194.33155 Ang^3 )

[...]

ATOMIC_POSITIONS (crystal)
Co       0.750000000   0.825169489   0.435484091
Co       0.250000000   0.174830511   0.564515909
Co       0.750000000   0.325169489   0.064515909
Co       0.250000000   0.674830511   0.935484091
Co       0.250000000   0.538812234   0.280337620
Co       0.750000000   0.461187766   0.719662380
Co       0.250000000   0.038812234   0.219662380
Co       0.750000000   0.961187766   0.780337620
Si       0.250000000   0.200233052   0.893978176
Si       0.750000000   0.799766948   0.106021824
Si       0.250000000   0.700233052   0.606021824
Si       0.750000000   0.299766948   0.393978176

     Writing output data file Prototype-La-oP12-Co2Si.save
     NEW-OLD atomic charge density approx. for the potential
     NEW k-points:
        k(    1) = (   0.0000000   0.0000000   0.0000000), wk =   0.0833333
        k(    2) = (   0.0000000   0.0000000   0.1145137), wk =   0.1666667
        k(    3) = (   0.0000000   0.0000000  -0.2290273), wk =   0.0833333
        k(    4) = (   0.0000000   0.2216845   0.0000000), wk =   0.1666667
        k(    5) = (   0.0000000   0.2216845   0.1145137), wk =   0.3333333
        k(    6) = (   0.0000000   0.2216845  -0.2290273), wk =   0.1666667
        k(    7) = (  -0.4320747   0.0000000   0.0000000), wk =   0.0833333
        k(    8) = (  -0.4320747   0.0000000   0.1145137), wk =   0.1666667
        k(    9) = (  -0.4320747   0.0000000  -0.2290273), wk =   0.0833333
        k(   10) = (  -0.4320747   0.2216845   0.0000000), wk =   0.1666667
        k(   11) = (  -0.4320747   0.2216845   0.1145137), wk =   0.3333333
        k(   12) = (  -0.4320747   0.2216845  -0.2290273), wk =   0.1666667

[...]

     The maximum number of steps has been reached.

     End of BFGS Geometry Optimization
Begin final coordinates
     new unit-cell volume =   1311.41431 a.u.^3 (   194.33155 Ang^3 )

CELL_PARAMETERS (alat=  7.01510508)
   1.157207327   0.000000000   0.000000000
   0.000000000   1.503638667   0.000000000
   0.000000000   0.000000000   2.183145676

ATOMIC_POSITIONS (crystal)
Co       0.750000000   0.825169489   0.435484091
Co       0.250000000   0.174830511   0.564515909
Co       0.750000000   0.325169489   0.064515909
Co       0.250000000   0.674830511   0.935484091
Co       0.250000000   0.538812234   0.280337620
Co       0.750000000   0.461187766   0.719662380
Co       0.250000000   0.038812234   0.219662380
Co       0.750000000   0.961187766   0.780337620
Si       0.250000000   0.200233052   0.893978176
Si       0.750000000   0.799766948   0.106021824
Si       0.250000000   0.700233052   0.606021824
Si       0.750000000   0.299766948   0.393978176
End final coordinates

     A final scf calculation at the relaxed structure.
     The G-vectors are recalculated for the final unit cell
     Results may differ from those at the preceding step.

     bravais-lattice index     =            0
     lattice parameter (alat)  =       7.0151  a.u.
     unit-cell volume          =    1311.4143 (a.u.)^3
     number of atoms/cell      =           12
     number of atomic types    =            2
     number of electrons       =       232.00
     number of Kohn-Sham states=          139
     kinetic-energy cutoff     =      40.0000  Ry
     charge density cutoff     =     160.0000  Ry
     convergence threshold     =      1.0E-04
     mixing beta               =       0.7000
     number of iterations used =            8  plain     mixing
     Exchange-correlation      = SLA-PZ-NOGX-NOGC ( 1 1 0 0 0)
     EXX-fraction              =        0.00

     celldm(1)=   7.015105  celldm(2)=   0.000000  celldm(3)=   0.000000
     celldm(4)=   0.000000  celldm(5)=   0.000000  celldm(6)=   0.000000

     crystal axes: (cart. coord. in units of alat)
               a(1) = (   1.157207   0.000000   0.000000 )
               a(2) = (   0.000000   1.503639   0.000000 )
               a(3) = (   0.000000   0.000000   2.183146 )

     reciprocal axes: (cart. coord. in units 2 pi/alat)
               b(1) = (  0.864149  0.000000  0.000000 )
               b(2) = (  0.000000  0.665053  0.000000 )
               b(3) = (  0.000000  0.000000  0.458055 )

     PseudoPot. # 1 for Eu read from file:
     /home/cwx6513/pp.La/Eu.UPF
     MD5 check sum: 5efdbbfc50c6a10138933a6429836ad2
     Pseudo is Norm-conserving, Zval = 17.0
     Generated in analytical, separable form
     Using radial grid of 1261 points,  6 beta functions with:
                l(1) =   0
                l(2) =   0
                l(3) =   1
                l(4) =   1
                l(5) =   2
                l(6) =   3

     PseudoPot. # 2 for Yb read from file:
     /home/cwx6513/pp.La/Yb.UPF
     MD5 check sum: 3e859b81cc28c53ec6aa3a2e888efcdf
     Pseudo is Norm-conserving, Zval = 24.0
     Generated in analytical, separable form
     Using radial grid of 1269 points,  6 beta functions with:
                l(1) =   0
                l(2) =   0
                l(3) =   1
                l(4) =   1
                l(5) =   2
                l(6) =   3

     atomic species   valence    mass     pseudopotential
        Co            17.00    58.93320     Eu( 1.00)
        Si            24.00    28.08550     Yb( 1.00)

      8 Sym. Ops., with inversion, found ( 6 have fractional translation)

   Cartesian axes

     site n.     atom                  positions (alat units)
         1           Co  tau(   1) = (   0.8679055   1.2407567   0.9507252  )
         2           Co  tau(   2) = (   0.2893018   0.2628819   1.2324205  )
         3           Co  tau(   3) = (   0.8679055   0.4889374   0.1408476  )
         4           Co  tau(   4) = (   0.2893018   1.0147013   2.0422980  )
         5           Co  tau(   5) = (   0.2893018   0.8101789   0.6120179  )
         6           Co  tau(   6) = (   0.8679055   0.6934598   1.5711278  )
         7           Co  tau(   7) = (   0.2893018   0.0583596   0.4795550  )
         8           Co  tau(   8) = (   0.8679055   1.4452791   1.7035907  )
         9           Si  tau(   9) = (   0.2893018   0.3010782   1.9516846  )
        10           Si  tau(  10) = (   0.8679055   1.2025605   0.2314611  )
        11           Si  tau(  11) = (   0.2893018   1.0528975   1.3230339  )
        12           Si  tau(  12) = (   0.8679055   0.4507412   0.8601118  )

     number of k points=    12  gaussian smearing, width (Ry)=  0.1000
                       cart. coord. in units 2pi/alat
        k(    1) = (   0.0000000   0.0000000   0.0000000), wk =   0.0833333
        k(    2) = (   0.0000000   0.0000000   0.1145137), wk =   0.1666667
        k(    3) = (   0.0000000   0.0000000  -0.2290273), wk =   0.0833333
        k(    4) = (   0.0000000   0.2216845   0.0000000), wk =   0.1666667
        k(    5) = (   0.0000000   0.2216845   0.1145137), wk =   0.3333333
        k(    6) = (   0.0000000   0.2216845  -0.2290273), wk =   0.1666667
        k(    7) = (  -0.4320747   0.0000000   0.0000000), wk =   0.0833333
        k(    8) = (  -0.4320747   0.0000000   0.1145137), wk =   0.1666667
        k(    9) = (  -0.4320747   0.0000000  -0.2290273), wk =   0.0833333
        k(   10) = (  -0.4320747   0.2216845   0.0000000), wk =   0.1666667
        k(   11) = (  -0.4320747   0.2216845   0.1145137), wk =   0.3333333
        k(   12) = (  -0.4320747   0.2216845  -0.2290273), wk =   0.1666667

     Largest allocated arrays     est. size (Mb)     dimensions
     Largest temporary arrays     est. size (Mb)     dimensions

     Initial potential from superposition of free atoms

     Starting from uniform charge
     Starting wfc are    0 randomized atomic wfcs

     Writing output data file Prototype-La-oP12-Co2Si.save

     Self-consistent Calculation

[...]

     iteration #  6     ecut=    40.00 Ry     beta=0.70
     CG style diagonalization
     ethr =  2.55E-03,  avg # of iterations =  3.7

[...]

     total energy              =   -3038.15886120 Ry
     Harris-Foulkes estimate   =   -3038.15900850 Ry
     estimated scf accuracy    <       0.00028002 Ry

     iteration # 11     ecut=    40.00 Ry     beta=0.70
     CG style diagonalization
     c_bands:  1 eigenvalues not converged
     ethr =  1.21E-07,  avg # of iterations =  4.3

     End of self-consistent calculation

[...]

          k = 0.0000 0.2217-0.2290 (  5574 PWs)   bands (ev):

[...]

          k =-0.4321 0.2217-0.2290 (  5596 PWs)   bands (ev):

   -91.6108 -91.6108 -91.6013 -91.6013 -50.4424 -50.4424 -50.4421 -50.4421
   -50.4241 -50.4241 -50.4233 -50.4233 -50.4108 -50.4108 -50.4105 -50.4105
   -30.2954 -30.2954 -30.2931 -30.2931 -30.0553 -30.0553 -29.9944 -29.9944
    -3.7787  -3.7787  -3.6504  -3.6504  -3.6270  -3.6270  -3.5760  -3.5760
    -3.4350  -3.4350  -3.2542  -3.2542  -3.0927  -3.0927  -2.9266  -2.9266
    -2.8870  -2.8870  -2.8409  -2.8409  -2.7148  -2.7148  -2.5917  -2.5917
     7.3457   7.3457   7.3491   7.3491   7.3965   7.3965   7.4211   7.4211
     7.4606   7.4606   7.4623   7.4623   7.4999   7.4999   7.5138   7.5138
     7.5833   7.5833   7.6082   7.6082  19.5651  19.5651  19.7125  19.7125
    23.6975  23.6975  24.2157  24.2157  25.2947  25.2947  25.5869  25.5869
    25.6912  25.6912  26.3009  26.3009  26.5051  26.5051  26.8598  26.8598
    26.9896  26.9896  27.7149  27.7149  27.7703  27.7703  28.6301  28.6301
    28.8148  28.8148  29.0828  29.0828  29.7094  29.7094  30.1066  30.1066
    30.1385  30.1385  30.3390  30.3390  30.7510  30.7510  31.4723  31.4723
    32.7542  32.7542  33.1269  33.1269  34.0392  34.0392  35.2911  35.2911
    35.9807  35.9807  36.3791  36.3791  38.0316  38.0317  38.3217  38.3217
    39.1932  39.1933  39.4328  39.4328  39.5719  39.5720  40.7071  40.7074
    40.9673  40.9685  41.2930

     the Fermi energy is    33.7753 ev

!    total energy              =   -3038.15898095 Ry
     Harris-Foulkes estimate   =   -3038.15899977 Ry
     estimated scf accuracy    <       0.00002117 Ry

     The total energy is the sum of the following terms:

     one-electron contribution =    -429.86255795 Ry
     hartree contribution      =     410.90109367 Ry
     xc contribution           =    -278.01060522 Ry
     ewald contribution        =   -2740.83302740 Ry
     smearing contrib. (-TS)   =      -0.35388405 Ry

     convergence has been achieved in  11 iterations

     Forces acting on atoms (Ry/au):

     atom    1 type  1   force =     0.00000000   -0.00385070   -0.00523921
     atom    2 type  1   force =     0.00000000    0.00385070    0.00523921
     atom    3 type  1   force =     0.00000000   -0.00385070    0.00523921
     atom    4 type  1   force =     0.00000000    0.00385070   -0.00523921
     atom    5 type  1   force =     0.00000000    0.02882758   -0.05777365
     atom    6 type  1   force =     0.00000000   -0.02882758    0.05777365
     atom    7 type  1   force =     0.00000000    0.02882758    0.05777365
     atom    8 type  1   force =     0.00000000   -0.02882758   -0.05777365
     atom    9 type  2   force =     0.00000000   -0.03534866    0.00917906
     atom   10 type  2   force =     0.00000000    0.03534866   -0.00917906
     atom   11 type  2   force =     0.00000000   -0.03534866   -0.00917906
     atom   12 type  2   force =     0.00000000    0.03534866    0.00917906

     Total force =     0.148928     Total SCF correction =     0.000000

     entering subroutine stress ...

          total   stress  (Ry/bohr**3)                   (kbar)     P=  709.68
   0.00497103   0.00000000   0.00000000        731.26      0.00      0.00
   0.00000000   0.00462260   0.00000000          0.00    680.01      0.00
   0.00000000   0.00000000   0.00487929          0.00      0.00    717.77

     Writing output data file Prototype-La-oP12-Co2Si.save

     General routines

     Parallel routines

   This run was terminated on:  21:36: 1  22Mar2018

   JOB DONE.