     Program PWSCF v.5.0.2 starts on 22Mar2018 at 21:16:47

     Current dimensions of program PWSCF are:
     Max number of different atomic species (ntypx) = 10
     Max number of k-points (npk) =  40000
     Max angular momentum in pseudopotentials (lmaxx) =  3
     Waiting for input...
     Reading input from standard input

     Subspace diagonalization in iterative solution of the eigenvalue problem:
     a serial algorithm will be used

     bravais-lattice index     =            0
     lattice parameter (alat)  =       8.5346  a.u.
     unit-cell volume          =     621.6493 (a.u.)^3
     number of atoms/cell      =            8
     number of atomic types    =            2
     number of electrons       =       150.00
     number of Kohn-Sham states=           90
     kinetic-energy cutoff     =      40.0000  Ry
     charge density cutoff     =     160.0000  Ry
     convergence threshold     =      1.0E-04
     mixing beta               =       0.7000
     number of iterations used =            8  plain     mixing
     Exchange-correlation      = SLA-PZ-NOGX-NOGC ( 1 1 0 0 0)
     EXX-fraction              =        0.00
     nstep                     =           50

     celldm(1)=   8.534573  celldm(2)=   0.000000  celldm(3)=   0.000000
     celldm(4)=   0.000000  celldm(5)=   0.000000  celldm(6)=   0.000000

     crystal axes: (cart. coord. in units of alat)
               a(1) = (   1.000000   0.000000   0.000000 )
               a(2) = (   0.000000   1.000000   0.000000 )
               a(3) = (   0.000000   0.000000   1.000000 )

     reciprocal axes: (cart. coord. in units 2 pi/alat)
               b(1) = (  1.000000  0.000000  0.000000 )
               b(2) = (  0.000000  1.000000  0.000000 )
               b(3) = (  0.000000  0.000000  1.000000 )

     PseudoPot. # 1 for Eu read from file:
     /home/cwx6513/pp.La/Eu.UPF
     MD5 check sum: 5efdbbfc50c6a10138933a6429836ad2
     Pseudo is Norm-conserving, Zval = 17.0
     Generated in analytical, separable form
     Using radial grid of 1261 points,  6 beta functions with:
                l(1) =   0
                l(2) =   0
                l(3) =   1
                l(4) =   1
                l(5) =   2
                l(6) =   3

     PseudoPot. # 2 for Yb read from file:
     /home/cwx6513/pp.La/Yb.UPF
     MD5 check sum: 3e859b81cc28c53ec6aa3a2e888efcdf
     Pseudo is Norm-conserving, Zval = 24.0
     Generated in analytical, separable form
     Using radial grid of 1269 points,  6 beta functions with:
                l(1) =   0
                l(2) =   0
                l(3) =   1
                l(4) =   1
                l(5) =   2
                l(6) =   3

     atomic species   valence    mass     pseudopotential
        Cr            17.00    51.99610     Eu( 1.00)
        Si            24.00    28.08550     Yb( 1.00)

     48 Sym. Ops., with inversion, found (24 have fractional translation)

   Cartesian axes

     site n.     atom                  positions (alat units)
         1           Cr  tau(   1) = (   0.0000000   0.5000000   0.2500000  )
         2           Cr  tau(   2) = (   0.0000000   0.5000000   0.7500000  )
         3           Cr  tau(   3) = (   0.5000000   0.7500000   0.0000000  )
         4           Cr  tau(   4) = (   0.5000000   0.2500000   0.0000000  )
         5           Cr  tau(   5) = (   0.7500000   0.0000000   0.5000000  )
         6           Cr  tau(   6) = (   0.2500000   0.0000000   0.5000000  )
         7           Si  tau(   7) = (   0.5000000   0.5000000   0.5000000  )
         8           Si  tau(   8) = (   0.0000000   0.0000000   0.0000000  )

     number of k points=    48  gaussian smearing, width (Ry)=  0.1000
                       cart. coord. in units 2pi/alat
        k(    1) = (   0.0000000   0.0000000   0.0000000), wk =   0.0095238
        k(    2) = (   0.0000000   0.0000000   0.1428571), wk =   0.0190476
        k(    3) = (   0.0000000   0.0000000   0.2857143), wk =   0.0190476
        k(    4) = (   0.0000000   0.0000000   0.4285714), wk =   0.0190476
        k(    5) = (   0.0000000   0.1666667   0.0000000), wk =   0.0190476
        k(    6) = (   0.0000000   0.1666667   0.1428571), wk =   0.0380952
        k(    7) = (   0.0000000   0.1666667   0.2857143), wk =   0.0380952
        k(    8) = (   0.0000000   0.1666667   0.4285714), wk =   0.0380952
        k(    9) = (   0.0000000   0.3333333   0.0000000), wk =   0.0190476
        k(   10) = (   0.0000000   0.3333333   0.1428571), wk =   0.0380952
        k(   11) = (   0.0000000   0.3333333   0.2857143), wk =   0.0380952
        k(   12) = (   0.0000000   0.3333333   0.4285714), wk =   0.0380952
        k(   13) = (   0.0000000  -0.5000000   0.0000000), wk =   0.0095238
        k(   14) = (   0.0000000  -0.5000000   0.1428571), wk =   0.0190476
        k(   15) = (   0.0000000  -0.5000000   0.2857143), wk =   0.0190476
        k(   16) = (   0.0000000  -0.5000000   0.4285714), wk =   0.0190476
        k(   17) = (   0.2000000   0.0000000   0.0000000), wk =   0.0190476
        k(   18) = (   0.2000000   0.0000000   0.1428571), wk =   0.0380952
        k(   19) = (   0.2000000   0.0000000   0.2857143), wk =   0.0380952
        k(   20) = (   0.2000000   0.0000000   0.4285714), wk =   0.0380952
        k(   21) = (   0.2000000   0.1666667   0.0000000), wk =   0.0380952
        k(   22) = (   0.2000000   0.1666667   0.1428571), wk =   0.0761905
        k(   23) = (   0.2000000   0.1666667   0.2857143), wk =   0.0761905
        k(   24) = (   0.2000000   0.1666667   0.4285714), wk =   0.0761905
        k(   25) = (   0.2000000   0.3333333   0.0000000), wk =   0.0380952
        k(   26) = (   0.2000000   0.3333333   0.1428571), wk =   0.0761905
        k(   27) = (   0.2000000   0.3333333   0.2857143), wk =   0.0761905
        k(   28) = (   0.2000000   0.3333333   0.4285714), wk =   0.0761905
        k(   29) = (   0.2000000  -0.5000000   0.0000000), wk =   0.0190476
        k(   30) = (   0.2000000  -0.5000000   0.1428571), wk =   0.0380952
        k(   31) = (   0.2000000  -0.5000000   0.2857143), wk =   0.0380952
        k(   32) = (   0.2000000  -0.5000000   0.4285714), wk =   0.0380952
        k(   33) = (   0.4000000   0.0000000   0.0000000), wk =   0.0190476
        k(   34) = (   0.4000000   0.0000000   0.1428571), wk =   0.0380952
        k(   35) = (   0.4000000   0.0000000   0.2857143), wk =   0.0380952
        k(   36) = (   0.4000000   0.0000000   0.4285714), wk =   0.0380952
        k(   37) = (   0.4000000   0.1666667   0.0000000), wk =   0.0380952
        k(   38) = (   0.4000000   0.1666667   0.1428571), wk =   0.0761905
        k(   39) = (   0.4000000   0.1666667   0.2857143), wk =   0.0761905
        k(   40) = (   0.4000000   0.1666667   0.4285714), wk =   0.0761905
        k(   41) = (   0.4000000   0.3333333   0.0000000), wk =   0.0380952
        k(   42) = (   0.4000000   0.3333333   0.1428571), wk =   0.0761905
        k(   43) = (   0.4000000   0.3333333   0.2857143), wk =   0.0761905
        k(   44) = (   0.4000000   0.3333333   0.4285714), wk =   0.0761905
        k(   45) = (   0.4000000  -0.5000000   0.0000000), wk =   0.0190476
        k(   46) = (   0.4000000  -0.5000000   0.1428571), wk =   0.0380952
        k(   47) = (   0.4000000  -0.5000000   0.2857143), wk =   0.0380952
        k(   48) = (   0.4000000  -0.5000000   0.4285714), wk =   0.0380952

     Largest allocated arrays     est. size (Mb)     dimensions
     Largest temporary arrays     est. size (Mb)     dimensions

     Initial potential from superposition of free atoms

     Starting from uniform charge
     Starting wfc are    0 randomized atomic wfcs

     Self-consistent Calculation

     iteration #  1     ecut=    40.00 Ry     beta=0.70
     CG style diagonalization
     ethr =  1.00E-02,  avg # of iterations = 16.4

     total energy              =   -1362.24704569 Ry
     Harris-Foulkes estimate   =   -2234.40278606 Ry
     estimated scf accuracy    <    1049.29443034 Ry

     iteration #  2     ecut=    40.00 Ry     beta=0.70
     CG style diagonalization
     c_bands:  1 eigenvalues not converged
     c_bands:  2 eigenvalues not converged
     c_bands:  2 eigenvalues not converged
     c_bands:  1 eigenvalues not converged
     c_bands:  2 eigenvalues not converged
     c_bands:  2 eigenvalues not converged
     c_bands:  3 eigenvalues not converged
     c_bands:  1 eigenvalues not converged
     c_bands:  2 eigenvalues not converged
     c_bands:  1 eigenvalues not converged
     c_bands:  1 eigenvalues not converged
     c_bands:  3 eigenvalues not converged
     c_bands:  1 eigenvalues not converged
     c_bands:  1 eigenvalues not converged
     c_bands:  4 eigenvalues not converged
     c_bands:  2 eigenvalues not converged
     c_bands:  3 eigenvalues not converged
     c_bands:  2 eigenvalues not converged
     c_bands:  2 eigenvalues not converged
     c_bands:  1 eigenvalues not converged
     c_bands:  1 eigenvalues not converged
     c_bands:  3 eigenvalues not converged
     c_bands:  2 eigenvalues not converged
     c_bands:  2 eigenvalues not converged
     c_bands:  3 eigenvalues not converged
     c_bands:  2 eigenvalues not converged
     ethr =  1.00E-02,  avg # of iterations = 10.7

[...]

     End of self-consistent calculation

          k = 0.0000 0.0000 0.0000 (  2601 PWs)   bands (ev):

   -78.2514 -78.1610 -37.2198 -37.2198 -37.2198 -37.2072 -37.2072 -37.2072
   -18.7391 -18.2075 -18.2075 -16.9478 -16.9478 -16.9478   4.8802   4.8802
     5.5528   7.4788   7.4788   7.4788   9.0820   9.0820   9.0820   9.4865
     9.4865   9.4865   9.8470   9.8470   9.8470  12.3963  12.3963  12.3963
    19.8329  19.8329  20.1447  20.1447  20.3220  20.3220  20.3220  20.4501
    20.4501  20.4501  29.4990  30.2519  33.3070  33.3070  33.3070  34.8070
    34.8070  34.8070  35.8083  35.9078  36.0172  36.0172  39.5934  39.5934
    39.5934  39.9579  39.9579  40.5275  40.5275  40.5275  42.7635  42.7635
    42.7635  46.2005  46.2005  46.9259  46.9519  46.9519  46.9519  47.3371
    47.3371  47.3371  49.7223  49.7223  49.7223  50.0564  50.0564  50.0564
    51.5115  51.5115  51.7668  53.8824  53.8825  53.8842  53.9252  53.9247
    54.3293  54.3295

[...]

     the Fermi energy is    47.9433 ev

!    total energy              =   -1863.56554767 Ry
     Harris-Foulkes estimate   =   -1863.56556242 Ry
     estimated scf accuracy    <       0.00002691 Ry

     The total energy is the sum of the following terms:

     one-electron contribution =      72.25409400 Ry
     hartree contribution      =     171.45897213 Ry
     xc contribution           =    -182.52521375 Ry
     ewald contribution        =   -1924.49716731 Ry
     smearing contrib. (-TS)   =      -0.25623274 Ry

     convergence has been achieved in   8 iterations

     Forces acting on atoms (Ry/au):

     atom    1 type  1   force =     0.00000000    0.00000000    0.00000000
     atom    2 type  1   force =     0.00000000    0.00000000    0.00000000
     atom    3 type  1   force =     0.00000000    0.00000000    0.00000000
     atom    4 type  1   force =     0.00000000    0.00000000    0.00000000
[...]
  -0.00737117   0.00000000   0.00000000      -1084.34      0.00      0.00
   0.00000000  -0.00737117   0.00000000          0.00  -1084.34      0.00
   0.00000000   0.00000000  -0.00737117          0.00      0.00  -1084.34

     number of scf cycles    =   3
     number of bfgs steps    =   2

     enthalpy old            =   -1866.7178007628 Ry
     enthalpy new            =   -1866.2030078743 Ry

     CASE: enthalpy_new > enthalpy_old

     new trust radius        =       0.0838432283 bohr

     trust_radius < trust_radius_min

     resetting bfgs history

     Message from routine bfgs:
     history already reset at previous step: stopping
     new conv_thr            =       0.0000010000 Ry

     new unit-cell volume =    986.58113 a.u.^3 (   146.19624 Ang^3 )

[...]

ATOMIC_POSITIONS (crystal)
Cr       0.000000000   0.500000000   0.250000000
Cr       0.000000000   0.500000000   0.750000000
Cr       0.500000000   0.750000000   0.000000000
Cr       0.500000000   0.250000000   0.000000000
Cr       0.750000000   0.000000000   0.500000000
Cr       0.250000000   0.000000000   0.500000000
Si       0.500000000   0.500000000   0.500000000
Si       0.000000000   0.000000000   0.000000000

     Writing output data file Prototype-La-cP8-Cr3Si.save
     NEW-OLD atomic charge density approx. for the potential
     NEW k-points:
        k(    1) = (   0.0000000   0.0000000   0.0000000), wk =   0.0095238
        k(    2) = (   0.0000000   0.0000000   0.1224728), wk =   0.0190476
        k(    3) = (   0.0000000   0.0000000   0.2449455), wk =   0.0190476
        k(    4) = (   0.0000000   0.0000000   0.3674183), wk =   0.0190476
        k(    5) = (   0.0000000   0.1428849   0.0000000), wk =   0.0190476
        k(    6) = (   0.0000000   0.1428849   0.1224728), wk =   0.0380952
        k(    7) = (   0.0000000   0.1428849   0.2449455), wk =   0.0380952
        k(    8) = (   0.0000000   0.1428849   0.3674183), wk =   0.0380952
        k(    9) = (   0.0000000   0.2857698   0.0000000), wk =   0.0190476
        k(   10) = (   0.0000000   0.2857698   0.1224728), wk =   0.0380952
        k(   11) = (   0.0000000   0.2857698   0.2449455), wk =   0.0380952
        k(   12) = (   0.0000000   0.2857698   0.3674183), wk =   0.0380952
        k(   13) = (   0.0000000  -0.4286547   0.0000000), wk =   0.0095238
        k(   14) = (   0.0000000  -0.4286547   0.1224728), wk =   0.0190476
        k(   15) = (   0.0000000  -0.4286547   0.2449455), wk =   0.0190476
        k(   16) = (   0.0000000  -0.4286547   0.3674183), wk =   0.0190476
        k(   17) = (   0.1714619   0.0000000   0.0000000), wk =   0.0190476
        k(   18) = (   0.1714619   0.0000000   0.1224728), wk =   0.0380952
        k(   19) = (   0.1714619   0.0000000   0.2449455), wk =   0.0380952
        k(   20) = (   0.1714619   0.0000000   0.3674183), wk =   0.0380952
        k(   21) = (   0.1714619   0.1428849   0.0000000), wk =   0.0380952
        k(   22) = (   0.1714619   0.1428849   0.1224728), wk =   0.0761905
        k(   23) = (   0.1714619   0.1428849   0.2449455), wk =   0.0761905
        k(   24) = (   0.1714619   0.1428849   0.3674183), wk =   0.0761905
        k(   25) = (   0.1714619   0.2857698   0.0000000), wk =   0.0380952
        k(   26) = (   0.1714619   0.2857698   0.1224728), wk =   0.0761905
        k(   27) = (   0.1714619   0.2857698   0.2449455), wk =   0.0761905
        k(   28) = (   0.1714619   0.2857698   0.3674183), wk =   0.0761905
        k(   29) = (   0.1714619  -0.4286547   0.0000000), wk =   0.0190476
        k(   30) = (   0.1714619  -0.4286547   0.1224728), wk =   0.0380952
        k(   31) = (   0.1714619  -0.4286547   0.2449455), wk =   0.0380952
        k(   32) = (   0.1714619  -0.4286547   0.3674183), wk =   0.0380952
        k(   33) = (   0.3429237   0.0000000   0.0000000), wk =   0.0190476
        k(   34) = (   0.3429237   0.0000000   0.1224728), wk =   0.0380952
        k(   35) = (   0.3429237   0.0000000   0.2449455), wk =   0.0380952
        k(   36) = (   0.3429237   0.0000000   0.3674183), wk =   0.0380952
        k(   37) = (   0.3429237   0.1428849   0.0000000), wk =   0.0380952
        k(   38) = (   0.3429237   0.1428849   0.1224728), wk =   0.0761905
        k(   39) = (   0.3429237   0.1428849   0.2449455), wk =   0.0761905
        k(   40) = (   0.3429237   0.1428849   0.3674183), wk =   0.0761905
        k(   41) = (   0.3429237   0.2857698   0.0000000), wk =   0.0380952
        k(   42) = (   0.3429237   0.2857698   0.1224728), wk =   0.0761905
        k(   43) = (   0.3429237   0.2857698   0.2449455), wk =   0.0761905
        k(   44) = (   0.3429237   0.2857698   0.3674183), wk =   0.0761905
        k(   45) = (   0.3429237  -0.4286547   0.0000000), wk =   0.0190476
        k(   46) = (   0.3429237  -0.4286547   0.1224728), wk =   0.0380952
        k(   47) = (   0.3429237  -0.4286547   0.2449455), wk =   0.0380952
        k(   48) = (   0.3429237  -0.4286547   0.3674183), wk =   0.0380952

[...]

          total   stress  (Ry/bohr**3)                   (kbar)     P=-1020.55
  -0.00693753   0.00000000   0.00000000      -1020.55      0.00      0.00
   0.00000000  -0.00693753   0.00000000          0.00  -1020.55      0.00
   0.00000000   0.00000000  -0.00693753          0.00      0.00  -1020.55

     The maximum number of steps has been reached.

     End of BFGS Geometry Optimization
Begin final coordinates
     new unit-cell volume =    986.58113 a.u.^3 (   146.19624 Ang^3 )

CELL_PARAMETERS (alat=  8.53457320)
   1.166440153   0.000000000   0.000000000
   0.000000000   1.166440153   0.000000000
   0.000000000   0.000000000   1.166440153

ATOMIC_POSITIONS (crystal)
Cr       0.000000000   0.500000000   0.250000000
Cr       0.000000000   0.500000000   0.750000000
Cr       0.500000000   0.750000000   0.000000000
Cr       0.500000000   0.250000000   0.000000000
Cr       0.750000000   0.000000000   0.500000000
Cr       0.250000000   0.000000000   0.500000000
Si       0.500000000   0.500000000   0.500000000
Si       0.000000000   0.000000000   0.000000000
End final coordinates

     A final scf calculation at the relaxed structure.
     The G-vectors are recalculated for the final unit cell
     Results may differ from those at the preceding step.

     bravais-lattice index     =            0
     lattice parameter (alat)  =       8.5346  a.u.
     unit-cell volume          =     986.5811 (a.u.)^3
     number of atoms/cell      =            8
     number of atomic types    =            2
     number of electrons       =       150.00
     number of Kohn-Sham states=           90
     kinetic-energy cutoff     =      40.0000  Ry
     charge density cutoff     =     160.0000  Ry
     convergence threshold     =      1.0E-06
     mixing beta               =       0.7000
     number of iterations used =            8  plain     mixing
     Exchange-correlation      = SLA-PZ-NOGX-NOGC ( 1 1 0 0 0)
     EXX-fraction              =        0.00

     celldm(1)=   8.534573  celldm(2)=   0.000000  celldm(3)=   0.000000
     celldm(4)=   0.000000  celldm(5)=   0.000000  celldm(6)=   0.000000

     crystal axes: (cart. coord. in units of alat)
               a(1) = (   1.166440   0.000000   0.000000 )
               a(2) = (   0.000000   1.166440   0.000000 )
               a(3) = (   0.000000   0.000000   1.166440 )

     reciprocal axes: (cart. coord. in units 2 pi/alat)
               b(1) = (  0.857309  0.000000  0.000000 )
               b(2) = (  0.000000  0.857309  0.000000 )
               b(3) = (  0.000000  0.000000  0.857309 )

     PseudoPot. # 1 for Eu read from file:
     /home/cwx6513/pp.La/Eu.UPF
     MD5 check sum: 5efdbbfc50c6a10138933a6429836ad2
     Pseudo is Norm-conserving, Zval = 17.0
     Generated in analytical, separable form
     Using radial grid of 1261 points,  6 beta functions with:
                l(1) =   0
                l(2) =   0
                l(3) =   1
                l(4) =   1
                l(5) =   2
                l(6) =   3

     PseudoPot. # 2 for Yb read from file:
     /home/cwx6513/pp.La/Yb.UPF
     MD5 check sum: 3e859b81cc28c53ec6aa3a2e888efcdf
     Pseudo is Norm-conserving, Zval = 24.0
     Generated in analytical, separable form
     Using radial grid of 1269 points,  6 beta functions with:
                l(1) =   0
                l(2) =   0
                l(3) =   1
                l(4) =   1
                l(5) =   2
                l(6) =   3

     atomic species   valence    mass     pseudopotential
        Cr            17.00    51.99610     Eu( 1.00)
        Si            24.00    28.08550     Yb( 1.00)

     48 Sym. Ops., with inversion, found (24 have fractional translation)

   Cartesian axes

     site n.     atom                  positions (alat units)
         1           Cr  tau(   1) = (   0.0000000   0.5832201   0.2916100  )
         2           Cr  tau(   2) = (   0.0000000   0.5832201   0.8748301  )
         3           Cr  tau(   3) = (   0.5832201   0.8748301   0.0000000  )
         4           Cr  tau(   4) = (   0.5832201   0.2916100   0.0000000  )
         5           Cr  tau(   5) = (   0.8748301   0.0000000   0.5832201  )
         6           Cr  tau(   6) = (   0.2916100   0.0000000   0.5832201  )
         7           Si  tau(   7) = (   0.5832201   0.5832201   0.5832201  )
         8           Si  tau(   8) = (   0.0000000   0.0000000   0.0000000  )

     number of k points=    48  gaussian smearing, width (Ry)=  0.1000
                       cart. coord. in units 2pi/alat
        k(    1) = (   0.0000000   0.0000000   0.0000000), wk =   0.0095238
        k(    2) = (   0.0000000   0.0000000   0.1224728), wk =   0.0190476
        k(    3) = (   0.0000000   0.0000000   0.2449455), wk =   0.0190476
        k(    4) = (   0.0000000   0.0000000   0.3674183), wk =   0.0190476
        k(    5) = (   0.0000000   0.1428849   0.0000000), wk =   0.0190476
        k(    6) = (   0.0000000   0.1428849   0.1224728), wk =   0.0380952
        k(    7) = (   0.0000000   0.1428849   0.2449455), wk =   0.0380952
        k(    8) = (   0.0000000   0.1428849   0.3674183), wk =   0.0380952
        k(    9) = (   0.0000000   0.2857698   0.0000000), wk =   0.0190476
        k(   10) = (   0.0000000   0.2857698   0.1224728), wk =   0.0380952
        k(   11) = (   0.0000000   0.2857698   0.2449455), wk =   0.0380952
        k(   12) = (   0.0000000   0.2857698   0.3674183), wk =   0.0380952
        k(   13) = (   0.0000000  -0.4286547   0.0000000), wk =   0.0095238
        k(   14) = (   0.0000000  -0.4286547   0.1224728), wk =   0.0190476
        k(   15) = (   0.0000000  -0.4286547   0.2449455), wk =   0.0190476
        k(   16) = (   0.0000000  -0.4286547   0.3674183), wk =   0.0190476
        k(   17) = (   0.1714619   0.0000000   0.0000000), wk =   0.0190476
        k(   18) = (   0.1714619   0.0000000   0.1224728), wk =   0.0380952
        k(   19) = (   0.1714619   0.0000000   0.2449455), wk =   0.0380952
        k(   20) = (   0.1714619   0.0000000   0.3674183), wk =   0.0380952
        k(   21) = (   0.1714619   0.1428849   0.0000000), wk =   0.0380952
        k(   22) = (   0.1714619   0.1428849   0.1224728), wk =   0.0761905
        k(   23) = (   0.1714619   0.1428849   0.2449455), wk =   0.0761905
        k(   24) = (   0.1714619   0.1428849   0.3674183), wk =   0.0761905
        k(   25) = (   0.1714619   0.2857698   0.0000000), wk =   0.0380952
        k(   26) = (   0.1714619   0.2857698   0.1224728), wk =   0.0761905
        k(   27) = (   0.1714619   0.2857698   0.2449455), wk =   0.0761905
        k(   28) = (   0.1714619   0.2857698   0.3674183), wk =   0.0761905
        k(   29) = (   0.1714619  -0.4286547   0.0000000), wk =   0.0190476
        k(   30) = (   0.1714619  -0.4286547   0.1224728), wk =   0.0380952
        k(   31) = (   0.1714619  -0.4286547   0.2449455), wk =   0.0380952
        k(   32) = (   0.1714619  -0.4286547   0.3674183), wk =   0.0380952
        k(   33) = (   0.3429237   0.0000000   0.0000000), wk =   0.0190476
        k(   34) = (   0.3429237   0.0000000   0.1224728), wk =   0.0380952
        k(   35) = (   0.3429237   0.0000000   0.2449455), wk =   0.0380952
        k(   36) = (   0.3429237   0.0000000   0.3674183), wk =   0.0380952
        k(   37) = (   0.3429237   0.1428849   0.0000000), wk =   0.0380952
        k(   38) = (   0.3429237   0.1428849   0.1224728), wk =   0.0761905
        k(   39) = (   0.3429237   0.1428849   0.2449455), wk =   0.0761905
        k(   40) = (   0.3429237   0.1428849   0.3674183), wk =   0.0761905
        k(   41) = (   0.3429237   0.2857698   0.0000000), wk =   0.0380952
        k(   42) = (   0.3429237   0.2857698   0.1224728), wk =   0.0761905
        k(   43) = (   0.3429237   0.2857698   0.2449455), wk =   0.0761905
        k(   44) = (   0.3429237   0.2857698   0.3674183), wk =   0.0761905
        k(   45) = (   0.3429237  -0.4286547   0.0000000), wk =   0.0190476
        k(   46) = (   0.3429237  -0.4286547   0.1224728), wk =   0.0380952
        k(   47) = (   0.3429237  -0.4286547   0.2449455), wk =   0.0380952
        k(   48) = (   0.3429237  -0.4286547   0.3674183), wk =   0.0380952

     Largest allocated arrays     est. size (Mb)     dimensions
     Largest temporary arrays     est. size (Mb)     dimensions

     Initial potential from superposition of free atoms

     Starting from uniform charge
     Starting wfc are    0 randomized atomic wfcs

     Writing output data file Prototype-La-cP8-Cr3Si.save

     Self-consistent Calculation

[...]

     iteration #  9     ecut=    40.00 Ry     beta=0.70
     CG style diagonalization
     c_bands:  1 eigenvalues not converged
     ethr =  1.57E-07,  avg # of iterations =  4.2

     total energy              =   -1869.77201377 Ry
     Harris-Foulkes estimate   =   -1869.77203561 Ry
     estimated scf accuracy    <       0.00003874 Ry

     iteration # 10     ecut=    40.00 Ry     beta=0.70
     CG style diagonalization
     ethr =  2.58E-08,  avg # of iterations =  3.7

     End of self-consistent calculation

[...]

          k = 0.3429-0.4287 0.3674 (  4220 PWs)   bands (ev):

   -96.4660 -96.4659 -55.2396 -55.2394 -55.2380 -55.2377 -55.2328 -55.2325
   -34.8425 -34.8308 -34.7976 -34.7972 -34.7652 -34.7529  -8.2082  -8.1190
    -7.9088  -7.9033  -7.8769  -7.8723  -7.7249  -7.6882  -7.5890  -7.5738
    -7.5329  -7.5269  -7.4786  -7.4741  -7.4578  -7.4483  -7.4481  -7.4234
     2.8515   2.8517   2.8553   2.8557   2.8570   2.8584   2.8601   2.8602
     2.8641   2.8660  15.6709  15.6718  20.6938  20.8151  21.0359  21.0752
    21.1888  21.2125  22.7251  22.7317  22.8192  22.8274  23.0130  23.0688
    23.5349  23.7740  24.0041  24.0420  24.1589  24.2115  24.3634  24.3799
    24.8269  24.8343  26.1553  26.2231  26.3109  26.3610  26.5847  26.6416
    26.6631  26.7951  27.2027  27.2802  27.5124  27.6715  28.1354  28.1976
    32.6084  32.6096  34.8805  34.9994  35.1447  35.1789  35.6567  35.6646
    36.6704  36.8618

     the Fermi energy is    28.3100 ev

!    total energy              =   -1869.77202259 Ry
     Harris-Foulkes estimate   =   -1869.77202304 Ry
     estimated scf accuracy    <       0.00000080 Ry

     The total energy is the sum of the following terms:

     one-electron contribution =    -309.45679259 Ry
     hartree contribution      =     264.33841514 Ry
     xc contribution           =    -174.32249313 Ry
     ewald contribution        =   -1649.88933468 Ry
     smearing contrib. (-TS)   =      -0.44181734 Ry

     convergence has been achieved in  10 iterations

     Forces acting on atoms (Ry/au):

     atom    1 type  1   force =     0.00000000    0.00000000    0.00000000
     atom    2 type  1   force =     0.00000000    0.00000000    0.00000000
     atom    3 type  1   force =     0.00000000    0.00000000    0.00000000
     atom    4 type  1   force =     0.00000000    0.00000000    0.00000000
     atom    5 type  1   force =     0.00000000    0.00000000    0.00000000
     atom    6 type  1   force =     0.00000000    0.00000000    0.00000000
     atom    7 type  2   force =     0.00000000    0.00000000    0.00000000
     atom    8 type  2   force =     0.00000000    0.00000000    0.00000000

     Total force =     0.000000     Total SCF correction =     0.000000

     entering subroutine stress ...

          total   stress  (Ry/bohr**3)                   (kbar)     P=   81.87
   0.00055652   0.00000000   0.00000000         81.87      0.00      0.00
   0.00000000   0.00055652   0.00000000          0.00     81.87      0.00
   0.00000000   0.00000000   0.00055652          0.00      0.00     81.87

     Writing output data file Prototype-La-cP8-Cr3Si.save

     General routines

     Parallel routines

   This run was terminated on:  21:53:38  22Mar2018

   JOB DONE.