     Program PWSCF v.5.0.2 starts on 22Mar2018 at 21:16:47

     Current dimensions of program PWSCF are:
     Max number of different atomic species (ntypx) = 10
     Max number of k-points (npk) =  40000
     Max angular momentum in pseudopotentials (lmaxx) =  3
     Waiting for input...
     Reading input from standard input

     Subspace diagonalization in iterative solution of the eigenvalue problem:
     a serial algorithm will be used

     bravais-lattice index     =            0
     lattice parameter (alat)  =       9.9235  a.u.
     unit-cell volume          =    1361.0366 (a.u.)^3
     number of atoms/cell      =           12
     number of atomic types    =            2
     number of electrons       =       260.00
     number of Kohn-Sham states=          156
     kinetic-energy cutoff     =      40.0000  Ry
     charge density cutoff     =     160.0000  Ry
     convergence threshold     =      1.0E-04
     mixing beta               =       0.7000
     number of iterations used =            8  plain     mixing
     Exchange-correlation      = SLA-PZ-NOGX-NOGC ( 1 1 0 0 0)
     EXX-fraction              =        0.00
     nstep                     =           50

     celldm(1)=   9.923489  celldm(2)=   0.000000  celldm(3)=   0.000000
     celldm(4)=   0.000000  celldm(5)=   0.000000  celldm(6)=   0.000000

     crystal axes: (cart. coord. in units of alat)
               a(1) = (   1.000000   0.000000   0.000000 )
               a(2) = (  -0.500000   0.866025   0.000000 )
               a(3) = (   0.000000   0.000000   1.608222 )

     reciprocal axes: (cart. coord. in units 2 pi/alat)
               b(1) = (  1.000000  0.577350  0.000000 )
               b(2) = (  0.000000  1.154701  0.000000 )
               b(3) = (  0.000000  0.000000  0.621805 )

     PseudoPot. # 1 for Eu read from file:
     /home/cwx6513/pp.La/Eu.UPF
     MD5 check sum: 5efdbbfc50c6a10138933a6429836ad2
     Pseudo is Norm-conserving, Zval = 17.0
     Generated in analytical, separable form
     Using radial grid of 1261 points,  6 beta functions with:
                l(1) =   0
                l(2) =   0
                l(3) =   1
                l(4) =   1
                l(5) =   2
                l(6) =   3

     PseudoPot. # 2 for Yb read from file:
     /home/cwx6513/pp.La/Yb.UPF
     MD5 check sum: 3e859b81cc28c53ec6aa3a2e888efcdf
     Pseudo is Norm-conserving, Zval = 24.0
     Generated in analytical, separable form
     Using radial grid of 1269 points,  6 beta functions with:
                l(1) =   0
                l(2) =   0
                l(3) =   1
                l(4) =   1
                l(5) =   2
                l(6) =   3

     atomic species   valence    mass     pseudopotential
        Mg            17.00    24.30500     Eu( 1.00)
        Zn            24.00    65.39000     Yb( 1.00)

     24 Sym. Ops., with inversion, found (12 have fractional translation)

   Cartesian axes

     site n.     atom                  positions (alat units)
         1           Mg  tau(   1) = (  -0.0000005   0.5773506   0.1003820  )
         2           Mg  tau(   2) = (   0.5000005   0.2886748   0.9044931  )
         3           Mg  tau(   3) = (   0.5000005   0.2886748   1.5078402  )
         4           Mg  tau(   4) = (  -0.0000005   0.5773506   0.7037291  )
         5           Zn  tau(   5) = (   0.0000000   0.0000000   0.0000000  )
         6           Zn  tau(   6) = (   0.0000000   0.0000000   0.8041111  )
         7           Zn  tau(   7) = (   0.0000000   0.2950739   1.2061667  )
         8           Zn  tau(   8) = (   0.7444585   0.1475370   0.4020556  )
         9           Zn  tau(   9) = (   0.2555415   0.1475370   0.4020556  )
        10           Zn  tau(  10) = (   0.2444585   0.7184884   1.2061667  )
        11           Zn  tau(  11) = (  -0.2444585   0.7184884   1.2061667  )
        12           Zn  tau(  12) = (   0.5000000   0.5709515   0.4020556  )

     number of k points=    12  gaussian smearing, width (Ry)=  0.1000
                       cart. coord. in units 2pi/alat
        k(    1) = (   0.0000000   0.0000000   0.0000000), wk =   0.0833333
        k(    2) = (   0.0000000   0.0000000   0.1554512), wk =   0.1666667
        k(    3) = (   0.0000000   0.0000000  -0.3109023), wk =   0.0833333
        k(    4) = (   0.0000000   0.3849002   0.0000000), wk =   0.1666667
        k(    5) = (   0.0000000   0.3849002   0.1554512), wk =   0.3333333
        k(    6) = (   0.0000000   0.3849002  -0.3109023), wk =   0.1666667
        k(    7) = (  -0.5000000  -0.2886751   0.0000000), wk =   0.0833333
        k(    8) = (  -0.5000000  -0.2886751   0.1554512), wk =   0.1666667
        k(    9) = (  -0.5000000  -0.2886751  -0.3109023), wk =   0.0833333
        k(   10) = (  -0.5000000   0.0962250   0.0000000), wk =   0.1666667
        k(   11) = (  -0.5000000   0.0962250   0.1554512), wk =   0.3333333
        k(   12) = (  -0.5000000   0.0962250  -0.3109023), wk =   0.1666667

     Largest allocated arrays     est. size (Mb)     dimensions
     Largest temporary arrays     est. size (Mb)     dimensions

     Initial potential from superposition of free atoms

     Starting from uniform charge
     Starting wfc are    0 randomized atomic wfcs

     Self-consistent Calculation

     iteration #  1     ecut=    40.00 Ry     beta=0.70
     CG style diagonalization
     ethr =  1.00E-02,  avg # of iterations = 21.5

     total energy              =   -2441.21261235 Ry
     Harris-Foulkes estimate   =   -5414.11035890 Ry
     estimated scf accuracy    <    3548.31907217 Ry

[...]

     iteration #  3     ecut=    40.00 Ry     beta=0.70
     CG style diagonalization
     c_bands:  5 eigenvalues not converged
     c_bands:  5 eigenvalues not converged
     c_bands:  1 eigenvalues not converged
     c_bands:  2 eigenvalues not converged
     c_bands:  2 eigenvalues not converged
     c_bands:  2 eigenvalues not converged
     c_bands:  1 eigenvalues not converged
     c_bands:  3 eigenvalues not converged
     c_bands:  4 eigenvalues not converged
     c_bands:  1 eigenvalues not converged
     c_bands:  1 eigenvalues not converged
     ethr =  1.00E-02,  avg # of iterations = 13.7

[...]

     End of self-consistent calculation

          k = 0.0000 0.0000 0.0000 (  5769 PWs)   bands (ev):

   -90.3934 -90.3934 -90.3887 -90.3694 -90.3694 -90.3627 -90.3503 -90.2872
   -49.6593 -49.5970 -49.4644 -49.3647 -49.3647 -49.3560 -49.3560 -49.3479
   -49.2799 -49.2799 -49.2446 -49.2180 -49.2179 -49.1776 -49.1775 -49.1704
   -49.1704 -49.1551 -49.1470 -49.1470 -49.1102 -49.1084 -49.1084 -49.1024
   -28.2314 -28.2170 -28.1927 -28.1752  -1.2811  -1.2747  -1.2495  -1.2494
    -1.2246  -1.2245  -1.0394  -1.0251  -0.9986  -0.9986  -0.9832  -0.9832
     5.5699   5.8916   6.1699   6.6294   6.6295   6.7058   6.7058   6.9564
     6.9564   7.0974   7.2622   7.2622   7.7304   8.0288   8.0788   8.0788
     8.2076   8.2076   8.5418   8.6859   8.6859   8.8407   8.8407   8.9605
     8.9605   8.9950   9.0406   9.0503   9.0785   9.0785   9.1716   9.1716
     9.3075   9.3075   9.7100   9.7100   9.9151   9.9151  10.2159  10.2167
    14.7810  16.2009  18.9259  21.0028  21.5548  23.0328  23.0328  23.8088
    24.8102  24.8103  25.1093  25.1094  25.1359  25.1360  25.8166  25.8166
    27.3390  28.5501  28.5502  29.7238  30.3545  31.0028  31.0029  31.3157
    31.3158  31.3680  31.3680  31.3920  31.5649  32.0402  32.0402  32.0815
    32.0815  32.2223  33.2216  33.6698  33.6698  34.4052  34.4052  34.9842
    34.9843  35.1066  35.4651  35.7757  35.7757  35.9418  36.7418  36.9990
    36.9990  37.0299  37.1738  37.7645  37.7645  37.7655  37.7655  37.9329
    37.9329  37.9391  38.8037  38.9006  39.1019  39.3247  39.3247  39.3282
    40.7403  40.7997  41.1311  41.1321

[...]

          k =-0.5000-0.2887 0.0000 (  5800 PWs)   bands (ev):

[...]

     the Fermi energy is    35.2886 ev

!    total energy              =   -3972.31281616 Ry
     Harris-Foulkes estimate   =   -3972.31282153 Ry
     estimated scf accuracy    <       0.00000628 Ry

     The total energy is the sum of the following terms:

     one-electron contribution =   -1001.42259860 Ry
     hartree contribution      =     682.20375762 Ry
     xc contribution           =    -333.23241644 Ry
     ewald contribution        =   -3319.38396679 Ry
     smearing contrib. (-TS)   =      -0.47759195 Ry

     convergence has been achieved in  11 iterations

     Forces acting on atoms (Ry/au):

     atom    1 type  1   force =     0.00000000    0.00000000    0.00406745
     atom    2 type  1   force =     0.00000000    0.00000000    0.00406745
     atom    3 type  1   force =     0.00000000    0.00000000   -0.00406745
     atom    4 type  1   force =     0.00000000    0.00000000   -0.00406745
     atom    5 type  2   force =     0.00000000    0.00000000    0.00000000
     atom    6 type  2   force =     0.00000000    0.00000000    0.00000000
     atom    7 type  2   force =     0.00000000    0.18507044    0.00000000
     atom    8 type  2   force =    -0.16027570    0.09253522    0.00000000
     atom    9 type  2   force =     0.16027570    0.09253522    0.00000000
     atom   10 type  2   force =    -0.16027570   -0.09253522    0.00000000
     atom   11 type  2   force =     0.16027570   -0.09253522    0.00000000
     atom   12 type  2   force =     0.00000000   -0.18507044    0.00000000

     Total force =     0.453401     Total SCF correction =     0.000000

     entering subroutine stress ...

          total   stress  (Ry/bohr**3)                   (kbar)     P= 1177.82
   0.00812281   0.00000000   0.00000000       1194.91      0.00      0.00
   0.00000000   0.00812281   0.00000000          0.00   1194.91      0.00
   0.00000000   0.00000000   0.00777434          0.00      0.00   1143.64

     BFGS Geometry Optimization

     number of scf cycles    =   1
     number of bfgs steps    =   0

     enthalpy new            =   -3972.3128161571 Ry

     new trust radius        =       0.5000000000 bohr
     new conv_thr            =       0.0001000000 Ry

     new unit-cell volume =   1652.39067 a.u.^3 (   244.85903 Ang^3 )

CELL_PARAMETERS (alat=  9.92348860)
   1.067764947   0.000000000   0.000000000
  -0.533882474   0.924711570   0.000000000
   0.000000000   0.000000000   1.712527910

ATOMIC_POSITIONS (crystal)
Mg       0.333333000   0.666667000   0.062503049
Mg       0.666667000   0.333333000   0.562503049
Mg       0.666667000   0.333333000   0.937496951
Mg       0.333333000   0.666667000   0.437496951
Zn       0.000000000   0.000000000   0.000000000
Zn       0.000000000   0.000000000   0.500000000
Zn       0.173954112   0.347908223   0.750000000
Zn       0.826045888   0.173954112   0.250000000
Zn       0.347908223   0.173954112   0.250000000
Zn       0.652091777   0.826045888   0.750000000
Zn       0.173954112   0.826045888   0.750000000
Zn       0.826045888   0.652091777   0.250000000

     Writing output data file Prototype-La-hP12-MgZn2.save
     NEW-OLD atomic charge density approx. for the potential
     NEW k-points:
        k(    1) = (   0.0000000   0.0000000   0.0000000), wk =   0.0833333
        k(    2) = (   0.0000000   0.0000000   0.1459830), wk =   0.1666667
        k(    3) = (   0.0000000   0.0000000  -0.2919660), wk =   0.0833333
        k(    4) = (   0.0000000   0.3604728   0.0000000), wk =   0.1666667
        k(    5) = (   0.0000000   0.3604728   0.1459830), wk =   0.3333333
        k(    6) = (   0.0000000   0.3604728  -0.2919660), wk =   0.1666667
        k(    7) = (  -0.4682679  -0.2703546   0.0000000), wk =   0.0833333
        k(    8) = (  -0.4682679  -0.2703546   0.1459830), wk =   0.1666667
        k(    9) = (  -0.4682679  -0.2703546  -0.2919660), wk =   0.0833333
        k(   10) = (  -0.4682679   0.0901182   0.0000000), wk =   0.1666667
        k(   11) = (  -0.4682679   0.0901182   0.1459830), wk =   0.3333333
        k(   12) = (  -0.4682679   0.0901182  -0.2919660), wk =   0.1666667

[...]

     enthalpy old            =   -3972.3128161571 Ry
     enthalpy new            =   -3973.0955747050 Ry

     CASE: enthalpy_new < enthalpy_old

     small trust_radius: resetting bfgs history

     new trust radius        =       0.4316488903 bohr
     new conv_thr            =       0.0000046437 Ry

[...]

     number of scf cycles    =   3
     number of bfgs steps    =   2

     enthalpy old            =   -3973.0955747050 Ry
     enthalpy new            =   -3972.8785798650 Ry

     CASE: enthalpy_new > enthalpy_old

     new trust radius        =       0.1358662273 bohr

     trust_radius < trust_radius_min

     resetting bfgs history

     Message from routine bfgs:
     history already reset at previous step: stopping
     new conv_thr            =       0.0000046437 Ry

     new unit-cell volume =   1438.58884 a.u.^3 (   213.17687 Ang^3 )

[...]

ATOMIC_POSITIONS (crystal)
Mg       0.333333000   0.666667000   0.062696090
Mg       0.666667000   0.333333000   0.562696090
Mg       0.666667000   0.333333000   0.937303910
Mg       0.333333000   0.666667000   0.437303910
Zn       0.000000000   0.000000000   0.000000000
Zn       0.000000000   0.000000000   0.500000000
Zn       0.173680507   0.347361015   0.750000000
Zn       0.826319493   0.173680507   0.250000000
Zn       0.347361015   0.173680507   0.250000000
Zn       0.652638985   0.826319493   0.750000000
Zn       0.173680507   0.826319493   0.750000000
Zn       0.826319493   0.652638985   0.250000000

     Writing output data file Prototype-La-hP12-MgZn2.save
     NEW-OLD atomic charge density approx. for the potential
     NEW k-points:
        k(    1) = (   0.0000000   0.0000000   0.0000000), wk =   0.0833333
        k(    2) = (   0.0000000   0.0000000   0.1543754), wk =   0.1666667
        k(    3) = (   0.0000000   0.0000000  -0.3087508), wk =   0.0833333
        k(    4) = (   0.0000000   0.3756839   0.0000000), wk =   0.1666667
        k(    5) = (   0.0000000   0.3756839   0.1543754), wk =   0.3333333
        k(    6) = (   0.0000000   0.3756839  -0.3087508), wk =   0.1666667
        k(    7) = (  -0.4880277  -0.2817629   0.0000000), wk =   0.0833333
        k(    8) = (  -0.4880277  -0.2817629   0.1543754), wk =   0.1666667
        k(    9) = (  -0.4880277  -0.2817629  -0.3087508), wk =   0.0833333
        k(   10) = (  -0.4880277   0.0939210   0.0000000), wk =   0.1666667
        k(   11) = (  -0.4880277   0.0939210   0.1543754), wk =   0.3333333
        k(   12) = (  -0.4880277   0.0939210  -0.3087508), wk =   0.1666667

[...]

     The maximum number of steps has been reached.

     End of BFGS Geometry Optimization
Begin final coordinates
     new unit-cell volume =   1438.58884 a.u.^3 (   213.17687 Ang^3 )

CELL_PARAMETERS (alat=  9.92348860)
   1.024532003   0.000000000   0.000000000
  -0.512266002   0.887270742   0.000000000
   0.000000000   0.000000000   1.619428853

ATOMIC_POSITIONS (crystal)
Mg       0.333333000   0.666667000   0.062696090
Mg       0.666667000   0.333333000   0.562696090
Mg       0.666667000   0.333333000   0.937303910
Mg       0.333333000   0.666667000   0.437303910
Zn       0.000000000   0.000000000   0.000000000
Zn       0.000000000   0.000000000   0.500000000
Zn       0.173680507   0.347361015   0.750000000
Zn       0.826319493   0.173680507   0.250000000
Zn       0.347361015   0.173680507   0.250000000
Zn       0.652638985   0.826319493   0.750000000
Zn       0.173680507   0.826319493   0.750000000
Zn       0.826319493   0.652638985   0.250000000
End final coordinates

     A final scf calculation at the relaxed structure.
     The G-vectors are recalculated for the final unit cell
     Results may differ from those at the preceding step.

     bravais-lattice index     =            0
     lattice parameter (alat)  =       9.9235  a.u.
     unit-cell volume          =    1438.5888 (a.u.)^3
     number of atoms/cell      =           12
     number of atomic types    =            2
     number of electrons       =       260.00
     number of Kohn-Sham states=          156
     kinetic-energy cutoff     =      40.0000  Ry
     charge density cutoff     =     160.0000  Ry
     convergence threshold     =      4.6E-06
     mixing beta               =       0.7000
     number of iterations used =            8  plain     mixing
     Exchange-correlation      = SLA-PZ-NOGX-NOGC ( 1 1 0 0 0)
     EXX-fraction              =        0.00

     celldm(1)=   9.923489  celldm(2)=   0.000000  celldm(3)=   0.000000
     celldm(4)=   0.000000  celldm(5)=   0.000000  celldm(6)=   0.000000

     crystal axes: (cart. coord. in units of alat)
               a(1) = (   1.024532   0.000000   0.000000 )
               a(2) = (  -0.512266   0.887271   0.000000 )
               a(3) = (   0.000000   0.000000   1.619429 )

     reciprocal axes: (cart. coord. in units 2 pi/alat)
               b(1) = (  0.976055  0.563526  0.000000 )
               b(2) = (  0.000000  1.127052  0.000000 )
               b(3) = (  0.000000  0.000000  0.617502 )

     PseudoPot. # 1 for Eu read from file:
     /home/cwx6513/pp.La/Eu.UPF
     MD5 check sum: 5efdbbfc50c6a10138933a6429836ad2
     Pseudo is Norm-conserving, Zval = 17.0
     Generated in analytical, separable form
     Using radial grid of 1261 points,  6 beta functions with:
                l(1) =   0
                l(2) =   0
                l(3) =   1
                l(4) =   1
                l(5) =   2
                l(6) =   3

     PseudoPot. # 2 for Yb read from file:
     /home/cwx6513/pp.La/Yb.UPF
     MD5 check sum: 3e859b81cc28c53ec6aa3a2e888efcdf
     Pseudo is Norm-conserving, Zval = 24.0
     Generated in analytical, separable form
     Using radial grid of 1269 points,  6 beta functions with:
                l(1) =   0
                l(2) =   0
                l(3) =   1
                l(4) =   1
                l(5) =   2
                l(6) =   3

     atomic species   valence    mass     pseudopotential
        Mg            17.00    24.30500     Eu( 1.00)
        Zn            24.00    65.39000     Yb( 1.00)

     24 Sym. Ops., with inversion, found (12 have fractional translation)

   Cartesian axes

     site n.     atom                  positions (alat units)
         1           Mg  tau(   1) = (  -0.0000005   0.5915141   0.1015319  )
         2           Mg  tau(   2) = (   0.5122665   0.2957566   0.9112463  )
         3           Mg  tau(   3) = (   0.5122665   0.2957566   1.5178970  )
         4           Mg  tau(   4) = (  -0.0000005   0.5915141   0.7081826  )
         5           Zn  tau(   5) = (   0.0000000   0.0000000   0.0000000  )
         6           Zn  tau(   6) = (   0.0000000   0.0000000   0.8097144  )
         7           Zn  tau(   7) = (   0.0000000   0.3082033   1.2145716  )
         8           Zn  tau(   8) = (   0.7576201   0.1541016   0.4048572  )
         9           Zn  tau(   9) = (   0.2669119   0.1541016   0.4048572  )
        10           Zn  tau(  10) = (   0.2453541   0.7331691   1.2145716  )
        11           Zn  tau(  11) = (  -0.2453541   0.7331691   1.2145716  )
        12           Zn  tau(  12) = (   0.5122660   0.5790675   0.4048572  )

     number of k points=    12  gaussian smearing, width (Ry)=  0.1000
                       cart. coord. in units 2pi/alat
        k(    1) = (   0.0000000   0.0000000   0.0000000), wk =   0.0833333
        k(    2) = (   0.0000000   0.0000000   0.1543754), wk =   0.1666667
        k(    3) = (   0.0000000   0.0000000  -0.3087508), wk =   0.0833333
        k(    4) = (   0.0000000   0.3756839   0.0000000), wk =   0.1666667
        k(    5) = (   0.0000000   0.3756839   0.1543754), wk =   0.3333333
        k(    6) = (   0.0000000   0.3756839  -0.3087508), wk =   0.1666667
        k(    7) = (  -0.4880277  -0.2817629   0.0000000), wk =   0.0833333
        k(    8) = (  -0.4880277  -0.2817629   0.1543754), wk =   0.1666667
        k(    9) = (  -0.4880277  -0.2817629  -0.3087508), wk =   0.0833333
        k(   10) = (  -0.4880277   0.0939210   0.0000000), wk =   0.1666667
        k(   11) = (  -0.4880277   0.0939210   0.1543754), wk =   0.3333333
        k(   12) = (  -0.4880277   0.0939210  -0.3087508), wk =   0.1666667

     Largest allocated arrays     est. size (Mb)     dimensions
     Largest temporary arrays     est. size (Mb)     dimensions

     Initial potential from superposition of free atoms

     Starting from uniform charge
     Starting wfc are    0 randomized atomic wfcs

     Writing output data file Prototype-La-hP12-MgZn2.save

     Self-consistent Calculation

[...]

     iteration # 10     ecut=    40.00 Ry     beta=0.70
     CG style diagonalization
     c_bands:  1 eigenvalues not converged
     c_bands:  1 eigenvalues not converged
     c_bands:  1 eigenvalues not converged
     ethr =  3.59E-07,  avg # of iterations =  5.1

[...]

     total energy              =   -3973.43560502 Ry
     Harris-Foulkes estimate   =   -3973.43561708 Ry
     estimated scf accuracy    <       0.00001920 Ry

     iteration # 12     ecut=    40.00 Ry     beta=0.70
     CG style diagonalization
     ethr =  7.39E-09,  avg # of iterations =  4.4

     End of self-consistent calculation

[...]

          k = 0.0000 0.3757-0.3088 (  6156 PWs)   bands (ev):

[...]

          k =-0.4880 0.0939-0.3088 (  6136 PWs)   bands (ev):

   -92.3835 -92.3835 -92.3622 -92.3621 -92.3381 -92.3381 -92.3090 -92.3090
   -51.4530 -51.4530 -51.3739 -51.3739 -51.2800 -51.2800 -51.2766 -51.2765
   -51.2091 -51.2091 -51.1933 -51.1933 -51.1625 -51.1625 -51.1440 -51.1440
   -51.1284 -51.1284 -51.1005 -51.1005 -51.0963 -51.0963 -51.0891 -51.0891
   -30.1057 -30.1054 -30.0876 -30.0873  -3.1402  -3.1399  -3.0721  -3.0721
    -3.0199  -3.0198  -2.9291  -2.9288  -2.8746  -2.8745  -2.8419  -2.8418
     4.8140   4.8140   5.1223   5.1223   5.3114   5.3114   5.4229   5.4229
     5.4815   5.4815   5.8351   5.8351   6.1530   6.1530   6.3072   6.3072
     6.4243   6.4243   6.4814   6.4814   6.6455   6.6455   6.7000   6.7000
     6.8259   6.8259   6.9899   6.9899   7.0652   7.0652   7.2140   7.2140
     7.2383   7.2383   7.2945   7.2945   7.4299   7.4299   7.7420   7.7420
    14.8272  14.8272  16.6085  16.6086  20.0725  20.0725  20.2784  20.2784
    23.3739  23.3739  24.6120  24.6121  24.9796  24.9797  26.3690  26.3690
    26.8774  26.8775  27.6829  27.6830  28.3317  28.3317  28.6484  28.6484
    29.1567  29.1567  29.3426  29.3426  29.5532  29.5532  29.8248  29.8248
    30.3960  30.3960  31.2232  31.2232  31.4323  31.4323  32.1314  32.1314
    32.8539  32.8540  33.4701  33.4701  33.8650  33.8650  34.4107  34.4108
    35.0741  35.0741  35.6709  35.6709  36.1860  36.1861  36.8261  36.8261
    37.3574  37.3574  37.9168  37.9169  38.2859  38.2860  38.7512  38.7515
    39.0707  39.0711  39.2731  39.2734

     the Fermi energy is    33.1455 ev

!    total energy              =   -3973.43561323 Ry
     Harris-Foulkes estimate   =   -3973.43561540 Ry
     estimated scf accuracy    <       0.00000250 Ry

     The total energy is the sum of the following terms:

     one-electron contribution =   -1082.85320741 Ry
     hartree contribution      =     704.23913582 Ry
     xc contribution           =    -331.95759902 Ry
     ewald contribution        =   -3262.38880224 Ry
     smearing contrib. (-TS)   =      -0.47514037 Ry

     convergence has been achieved in  12 iterations

     Forces acting on atoms (Ry/au):

     atom    1 type  1   force =     0.00000000    0.00000000    0.00808077
     atom    2 type  1   force =     0.00000000    0.00000000    0.00808077
     atom    3 type  1   force =     0.00000000    0.00000000   -0.00808077
     atom    4 type  1   force =     0.00000000    0.00000000   -0.00808077
     atom    5 type  2   force =     0.00000000    0.00000000    0.00000000
     atom    6 type  2   force =     0.00000000    0.00000000    0.00000000
     atom    7 type  2   force =     0.00000000    0.00982060    0.00000000
     atom    8 type  2   force =    -0.00850489    0.00491030    0.00000000
     atom    9 type  2   force =     0.00850489    0.00491030    0.00000000
     atom   10 type  2   force =    -0.00850489   -0.00491030    0.00000000
     atom   11 type  2   force =     0.00850489   -0.00491030    0.00000000
     atom   12 type  2   force =     0.00000000   -0.00982060    0.00000000

     Total force =     0.028980     Total SCF correction =     0.000000

     entering subroutine stress ...

          total   stress  (Ry/bohr**3)                   (kbar)     P=  814.13
   0.00573026   0.00000000   0.00000000        842.95      0.00      0.00
   0.00000000   0.00573026   0.00000000          0.00    842.95      0.00
   0.00000000   0.00000000   0.00514259          0.00      0.00    756.50

     Writing output data file Prototype-La-hP12-MgZn2.save

     General routines

     Parallel routines

   This run was terminated on:  22:15:33  22Mar2018

   JOB DONE.