     Program PWSCF v.5.0.2 starts on 22Mar2018 at 12: 4:24

     Current dimensions of program PWSCF are:
     Max number of different atomic species (ntypx) = 10
     Max number of k-points (npk) =  40000
     Max angular momentum in pseudopotentials (lmaxx) =  3
     Waiting for input...
     Reading input from standard input

     Subspace diagonalization in iterative solution of the eigenvalue problem:
     a serial algorithm will be used

     bravais-lattice index     =            0
     lattice parameter (alat)  =       9.9235  a.u.
     unit-cell volume          =    1361.0366 (a.u.)^3
     number of atoms/cell      =           12
     number of atomic types    =            2
     number of electrons       =       272.00
     number of Kohn-Sham states=          163
     kinetic-energy cutoff     =      40.0000  Ry
     charge density cutoff     =     160.0000  Ry
     convergence threshold     =      1.0E-04
     mixing beta               =       0.7000
     number of iterations used =            8  plain     mixing
     Exchange-correlation      = SLA-PZ-NOGX-NOGC ( 1 1 0 0 0)
     EXX-fraction              =        0.00
     nstep                     =           50

     celldm(1)=   9.923489  celldm(2)=   0.000000  celldm(3)=   0.000000
     celldm(4)=   0.000000  celldm(5)=   0.000000  celldm(6)=   0.000000

     crystal axes: (cart. coord. in units of alat)
               a(1) = (   1.000000   0.000000   0.000000 )
               a(2) = (  -0.500000   0.866025   0.000000 )
               a(3) = (   0.000000   0.000000   1.608222 )

     reciprocal axes: (cart. coord. in units 2 pi/alat)
               b(1) = (  1.000000  0.577350  0.000000 )
               b(2) = (  0.000000  1.154701  0.000000 )
               b(3) = (  0.000000  0.000000  0.621805 )

     PseudoPot. # 1 for Yb read from file:
     /home/jld5415/pp.La/Yb.UPF
     MD5 check sum: 3e859b81cc28c53ec6aa3a2e888efcdf
     Pseudo is Norm-conserving, Zval = 24.0
     Generated in analytical, separable form
     Using radial grid of 1269 points,  6 beta functions with:
                l(1) =   0
                l(2) =   0
                l(3) =   1
                l(4) =   1
                l(5) =   2
                l(6) =   3

     PseudoPot. # 2 for Er read from file:
     /home/jld5415/pp.La/Er.UPF
     MD5 check sum: e152ae21b84514339d8526f066caf99b
     Pseudo is Norm-conserving, Zval = 22.0
     Generated in analytical, separable form
     Using radial grid of 1267 points,  6 beta functions with:
                l(1) =   0
                l(2) =   0
                l(3) =   1
                l(4) =   1
                l(5) =   2
                l(6) =   3

     atomic species   valence    mass     pseudopotential
        Mg            24.00    24.30500     Yb( 1.00)
        Zn            22.00    65.39000     Er( 1.00)

     24 Sym. Ops., with inversion, found (12 have fractional translation)

   Cartesian axes

     site n.     atom                  positions (alat units)
         1           Mg  tau(   1) = (  -0.0000005   0.5773506   0.1003820  )
         2           Mg  tau(   2) = (   0.5000005   0.2886748   0.9044931  )
         3           Mg  tau(   3) = (   0.5000005   0.2886748   1.5078402  )
         4           Mg  tau(   4) = (  -0.0000005   0.5773506   0.7037291  )
         5           Zn  tau(   5) = (   0.0000000   0.0000000   0.0000000  )
         6           Zn  tau(   6) = (   0.0000000   0.0000000   0.8041111  )
         7           Zn  tau(   7) = (   0.0000000   0.2950739   1.2061667  )
         8           Zn  tau(   8) = (   0.7444585   0.1475370   0.4020556  )
         9           Zn  tau(   9) = (   0.2555415   0.1475370   0.4020556  )
        10           Zn  tau(  10) = (   0.2444585   0.7184884   1.2061667  )
        11           Zn  tau(  11) = (  -0.2444585   0.7184884   1.2061667  )
        12           Zn  tau(  12) = (   0.5000000   0.5709515   0.4020556  )

     number of k points=    12  gaussian smearing, width (Ry)=  0.1000
                       cart. coord. in units 2pi/alat
        k(    1) = (   0.0000000   0.0000000   0.0000000), wk =   0.0833333
        k(    2) = (   0.0000000   0.0000000   0.1554512), wk =   0.1666667
        k(    3) = (   0.0000000   0.0000000  -0.3109023), wk =   0.0833333
        k(    4) = (   0.0000000   0.3849002   0.0000000), wk =   0.1666667
        k(    5) = (   0.0000000   0.3849002   0.1554512), wk =   0.3333333
        k(    6) = (   0.0000000   0.3849002  -0.3109023), wk =   0.1666667
        k(    7) = (  -0.5000000  -0.2886751   0.0000000), wk =   0.0833333
        k(    8) = (  -0.5000000  -0.2886751   0.1554512), wk =   0.1666667
        k(    9) = (  -0.5000000  -0.2886751  -0.3109023), wk =   0.0833333
        k(   10) = (  -0.5000000   0.0962250   0.0000000), wk =   0.1666667
        k(   11) = (  -0.5000000   0.0962250   0.1554512), wk =   0.3333333
        k(   12) = (  -0.5000000   0.0962250  -0.3109023), wk =   0.1666667

     Largest allocated arrays     est. size (Mb)     dimensions
     Largest temporary arrays     est. size (Mb)     dimensions

     Initial potential from superposition of free atoms

     Starting from uniform charge
     Starting wfc are    0 randomized atomic wfcs

     Self-consistent Calculation

     iteration #  1     ecut=    40.00 Ry     beta=0.70
     CG style diagonalization
     ethr =  1.00E-02,  avg # of iterations = 18.1

     total energy              =   -3811.40340012 Ry
     Harris-Foulkes estimate   =   -5271.75705536 Ry
     estimated scf accuracy    <    1834.26228314 Ry

     iteration #  2     ecut=    40.00 Ry     beta=0.70
     CG style diagonalization
     c_bands:  1 eigenvalues not converged
     c_bands:  2 eigenvalues not converged
     ethr =  1.00E-02,  avg # of iterations =  9.4

[...]

     End of self-consistent calculation

          k = 0.0000 0.0000 0.0000 (  5769 PWs)   bands (ev):

   -87.8683 -87.8461 -87.8386 -87.7746 -66.7476 -66.7383 -66.6868 -66.6853
   -66.6853 -66.6726 -66.6726 -66.6358 -46.7072 -46.6980 -46.6871 -46.6852
   -46.6852 -46.6749 -46.6749 -46.6736 -46.6646 -46.6646 -46.6598 -46.6598
   -29.6680 -29.5140 -29.2518 -29.0085 -29.0085 -28.9816 -28.9816 -28.9206
   -28.8744 -28.8744 -28.7807 -28.6999 -28.6998 -28.6391 -28.6391 -28.5561
   -28.5561 -28.5356 -28.5053 -28.5052 -28.4609 -28.4550 -28.4550 -28.4450
    10.8879  10.8880  10.8988  10.9101  10.9146  10.9147  10.9908  10.9908
    11.0184  11.0184  11.1752  11.1752  11.2068  11.2446  11.2636  11.2636
    11.2642  11.2642  11.3151  11.3152  13.4302  13.9645  14.3211  15.2134
    15.2135  15.3524  15.3524  15.5690  15.5690  15.6282  16.0688  16.0689
    16.5330  16.6870  17.0505  17.0506  17.1119  17.1306  17.1306  17.6470
    17.8765  17.8765  18.3284  18.3285  18.4652  18.6401  18.6401  18.6932
    18.7307  18.8118  18.8118  18.8998  18.8999  19.0278  19.0278  19.7682
    19.7683  19.9344  20.1069  20.1069  20.2889  20.6462  20.6472  25.7822
    26.0915  26.3001  27.5319  27.5320  27.8660  27.9480  28.0013  28.0014
    29.0709  29.7529  29.9829  29.9831  30.7212  30.8099  30.8101  30.9839
    30.9840  32.4642  32.4643  34.8882  35.1814  35.2663  36.3841  36.3843
    36.6562  36.6563  37.0094  37.2543  37.2545  37.5775  37.5776  38.3991
    38.4390  38.4390  38.9382  40.4719  40.8063  40.8063  41.0729  41.3041
    41.3868  41.7098  41.7099  42.9692  43.3066  43.6965  43.6966  43.6992
    43.7125  43.7187  43.7188

[...]

          k =-0.5000-0.2887 0.0000 (  5800 PWs)   bands (ev):

[...]

     the Fermi energy is    36.3826 ev

!    total energy              =   -4266.97176806 Ry
     Harris-Foulkes estimate   =   -4266.97181851 Ry
     estimated scf accuracy    <       0.00005556 Ry

     The total energy is the sum of the following terms:

     one-electron contribution =    -918.61274896 Ry
     hartree contribution      =     664.53859761 Ry
     xc contribution           =    -355.97828438 Ry
     ewald contribution        =   -3656.50722124 Ry
     smearing contrib. (-TS)   =      -0.41211108 Ry

     convergence has been achieved in  10 iterations

     Forces acting on atoms (Ry/au):

     atom    1 type  1   force =     0.00000000    0.00000000    0.01401841
     atom    2 type  1   force =     0.00000000    0.00000000    0.01401841
     atom    3 type  1   force =     0.00000000    0.00000000   -0.01401841
     atom    4 type  1   force =     0.00000000    0.00000000   -0.01401841
     atom    5 type  2   force =     0.00000000    0.00000000    0.00000000
     atom    6 type  2   force =     0.00000000    0.00000000    0.00000000
     atom    7 type  2   force =     0.00000000    0.09244197    0.00000000
     atom    8 type  2   force =    -0.08005709    0.04622098    0.00000000
     atom    9 type  2   force =     0.08005709    0.04622098    0.00000000
     atom   10 type  2   force =    -0.08005709   -0.04622098    0.00000000
     atom   11 type  2   force =     0.08005709   -0.04622098    0.00000000
     atom   12 type  2   force =     0.00000000   -0.09244197    0.00000000

     Total force =     0.228165     Total SCF correction =     0.000000

     entering subroutine stress ...

          total   stress  (Ry/bohr**3)                   (kbar)     P= 1299.37
   0.00895707   0.00000000   0.00000000       1317.63      0.00      0.00
   0.00000000   0.00895707   0.00000000          0.00   1317.63      0.00
   0.00000000   0.00000000   0.00858475          0.00      0.00   1262.86

     BFGS Geometry Optimization

     number of scf cycles    =   1
     number of bfgs steps    =   0

     enthalpy new            =   -4266.9717680630 Ry

     new trust radius        =       0.5000000000 bohr
     new conv_thr            =       0.0001000000 Ry

     new unit-cell volume =   1652.53086 a.u.^3 (   244.87981 Ang^3 )

CELL_PARAMETERS (alat=  9.92348860)
   1.067764947   0.000000000   0.000000000
  -0.533882474   0.924711570   0.000000000
   0.000000000   0.000000000   1.712673197

ATOMIC_POSITIONS (crystal)
Mg       0.333333000   0.666667000   0.062683820
Mg       0.666667000   0.333333000   0.562683820
Mg       0.666667000   0.333333000   0.937316180
Mg       0.333333000   0.666667000   0.437316180
Zn       0.000000000   0.000000000   0.000000000
Zn       0.000000000   0.000000000   0.500000000
Zn       0.171988583   0.343977166   0.750000000
Zn       0.828011417   0.171988583   0.250000000
Zn       0.343977166   0.171988583   0.250000000
Zn       0.656022834   0.828011417   0.750000000
Zn       0.171988583   0.828011417   0.750000000
Zn       0.828011417   0.656022834   0.250000000

     Writing output data file Prototype-La-hP12-MgZn2.save
     NEW-OLD atomic charge density approx. for the potential
     NEW k-points:
        k(    1) = (   0.0000000   0.0000000   0.0000000), wk =   0.0833333
        k(    2) = (   0.0000000   0.0000000   0.1459706), wk =   0.1666667
        k(    3) = (   0.0000000   0.0000000  -0.2919413), wk =   0.0833333
        k(    4) = (   0.0000000   0.3604728   0.0000000), wk =   0.1666667
        k(    5) = (   0.0000000   0.3604728   0.1459706), wk =   0.3333333
        k(    6) = (   0.0000000   0.3604728  -0.2919413), wk =   0.1666667
        k(    7) = (  -0.4682679  -0.2703546   0.0000000), wk =   0.0833333
        k(    8) = (  -0.4682679  -0.2703546   0.1459706), wk =   0.1666667
        k(    9) = (  -0.4682679  -0.2703546  -0.2919413), wk =   0.0833333
        k(   10) = (  -0.4682679   0.0901182   0.0000000), wk =   0.1666667
        k(   11) = (  -0.4682679   0.0901182   0.1459706), wk =   0.3333333
        k(   12) = (  -0.4682679   0.0901182  -0.2919413), wk =   0.1666667

[...]

     enthalpy old            =   -4266.9717680630 Ry
     enthalpy new            =   -4267.8252438069 Ry

     CASE: enthalpy_new < enthalpy_old

     small trust_radius: resetting bfgs history

     new trust radius        =       0.4196649280 bohr
     new conv_thr            =       0.0000548403 Ry

[...]

     number of scf cycles    =   3
     number of bfgs steps    =   2

     enthalpy old            =   -4267.8252438069 Ry
     enthalpy new            =   -4267.4696289382 Ry

     CASE: enthalpy_new > enthalpy_old

     new trust radius        =       0.1157535702 bohr

     trust_radius < trust_radius_min

     resetting bfgs history

     Message from routine bfgs:
     history already reset at previous step: stopping
     new conv_thr            =       0.0000548403 Ry

     new unit-cell volume =   1420.98587 a.u.^3 (   210.56838 Ang^3 )

[...]

ATOMIC_POSITIONS (crystal)
Mg       0.333333000   0.666667000   0.061214828
Mg       0.666667000   0.333333000   0.561214828
Mg       0.666667000   0.333333000   0.938785172
Mg       0.333333000   0.666667000   0.438785172
Zn       0.000000000   0.000000000   0.000000000
Zn       0.000000000   0.000000000   0.500000000
Zn       0.175260728   0.350521456   0.750000000
Zn       0.824739272   0.175260728   0.250000000
Zn       0.350521456   0.175260728   0.250000000
Zn       0.649478544   0.824739272   0.750000000
Zn       0.175260728   0.824739272   0.750000000
Zn       0.824739272   0.649478544   0.250000000

     Writing output data file Prototype-La-hP12-MgZn2.save
     NEW-OLD atomic charge density approx. for the potential
     NEW k-points:
        k(    1) = (   0.0000000   0.0000000   0.0000000), wk =   0.0833333
        k(    2) = (   0.0000000   0.0000000   0.1542388), wk =   0.1666667
        k(    3) = (   0.0000000   0.0000000  -0.3084776), wk =   0.0833333
        k(    4) = (   0.0000000   0.3781711   0.0000000), wk =   0.1666667
        k(    5) = (   0.0000000   0.3781711   0.1542388), wk =   0.3333333
        k(    6) = (   0.0000000   0.3781711  -0.3084776), wk =   0.1666667
        k(    7) = (  -0.4912586  -0.2836283   0.0000000), wk =   0.0833333
        k(    8) = (  -0.4912586  -0.2836283   0.1542388), wk =   0.1666667
        k(    9) = (  -0.4912586  -0.2836283  -0.3084776), wk =   0.0833333
        k(   10) = (  -0.4912586   0.0945428   0.0000000), wk =   0.1666667
        k(   11) = (  -0.4912586   0.0945428   0.1542388), wk =   0.3333333
        k(   12) = (  -0.4912586   0.0945428  -0.3084776), wk =   0.1666667

[...]

     The maximum number of steps has been reached.

     End of BFGS Geometry Optimization
Begin final coordinates
     new unit-cell volume =   1420.98587 a.u.^3 (   210.56838 Ang^3 )

CELL_PARAMETERS (alat=  9.92348860)
   1.017793787   0.000000000   0.000000000
  -0.508896894   0.881435276   0.000000000
   0.000000000   0.000000000   1.620863379

ATOMIC_POSITIONS (crystal)
Mg       0.333333000   0.666667000   0.061214828
Mg       0.666667000   0.333333000   0.561214828
Mg       0.666667000   0.333333000   0.938785172
Mg       0.333333000   0.666667000   0.438785172
Zn       0.000000000   0.000000000   0.000000000
Zn       0.000000000   0.000000000   0.500000000
Zn       0.175260728   0.350521456   0.750000000
Zn       0.824739272   0.175260728   0.250000000
Zn       0.350521456   0.175260728   0.250000000
Zn       0.649478544   0.824739272   0.750000000
Zn       0.175260728   0.824739272   0.750000000
Zn       0.824739272   0.649478544   0.250000000
End final coordinates

     A final scf calculation at the relaxed structure.
     The G-vectors are recalculated for the final unit cell
     Results may differ from those at the preceding step.

     bravais-lattice index     =            0
     lattice parameter (alat)  =       9.9235  a.u.
     unit-cell volume          =    1420.9859 (a.u.)^3
     number of atoms/cell      =           12
     number of atomic types    =            2
     number of electrons       =       272.00
     number of Kohn-Sham states=          163
     kinetic-energy cutoff     =      40.0000  Ry
     charge density cutoff     =     160.0000  Ry
     convergence threshold     =      5.5E-05
     mixing beta               =       0.7000
     number of iterations used =            8  plain     mixing
     Exchange-correlation      = SLA-PZ-NOGX-NOGC ( 1 1 0 0 0)
     EXX-fraction              =        0.00

     celldm(1)=   9.923489  celldm(2)=   0.000000  celldm(3)=   0.000000
     celldm(4)=   0.000000  celldm(5)=   0.000000  celldm(6)=   0.000000

     crystal axes: (cart. coord. in units of alat)
               a(1) = (   1.017794   0.000000   0.000000 )
               a(2) = (  -0.508897   0.881435   0.000000 )
               a(3) = (   0.000000   0.000000   1.620863 )

     reciprocal axes: (cart. coord. in units 2 pi/alat)
               b(1) = (  0.982517  0.567257  0.000000 )
               b(2) = (  0.000000  1.134513  0.000000 )
               b(3) = (  0.000000  0.000000  0.616955 )

     PseudoPot. # 1 for Yb read from file:
     /home/jld5415/pp.La/Yb.UPF
     MD5 check sum: 3e859b81cc28c53ec6aa3a2e888efcdf
     Pseudo is Norm-conserving, Zval = 24.0
     Generated in analytical, separable form
     Using radial grid of 1269 points,  6 beta functions with:
                l(1) =   0
                l(2) =   0
                l(3) =   1
                l(4) =   1
                l(5) =   2
                l(6) =   3

     PseudoPot. # 2 for Er read from file:
     /home/jld5415/pp.La/Er.UPF
     MD5 check sum: e152ae21b84514339d8526f066caf99b
     Pseudo is Norm-conserving, Zval = 22.0
     Generated in analytical, separable form
     Using radial grid of 1267 points,  6 beta functions with:
                l(1) =   0
                l(2) =   0
                l(3) =   1
                l(4) =   1
                l(5) =   2
                l(6) =   3

     atomic species   valence    mass     pseudopotential
        Mg            24.00    24.30500     Yb( 1.00)
        Zn            22.00    65.39000     Er( 1.00)

     24 Sym. Ops., with inversion, found (12 have fractional translation)

   Cartesian axes

     site n.     atom                  positions (alat units)
         1           Mg  tau(   1) = (  -0.0000005   0.5876238   0.0992209  )
         2           Mg  tau(   2) = (   0.5088974   0.2938115   0.9096526  )
         3           Mg  tau(   3) = (   0.5088974   0.2938115   1.5216425  )
         4           Mg  tau(   4) = (  -0.0000005   0.5876238   0.7112108  )
         5           Zn  tau(   5) = (   0.0000000   0.0000000   0.0000000  )
         6           Zn  tau(   6) = (   0.0000000   0.0000000   0.8104317  )
         7           Zn  tau(   7) = (   0.0000000   0.3089620   1.2156475  )
         8           Zn  tau(   8) = (   0.7502249   0.1544810   0.4052158  )
         9           Zn  tau(   9) = (   0.2675689   0.1544810   0.4052158  )
        10           Zn  tau(  10) = (   0.2413280   0.7269543   1.2156475  )
        11           Zn  tau(  11) = (  -0.2413280   0.7269543   1.2156475  )
        12           Zn  tau(  12) = (   0.5088969   0.5724733   0.4052158  )

     number of k points=    12  gaussian smearing, width (Ry)=  0.1000
                       cart. coord. in units 2pi/alat
        k(    1) = (   0.0000000   0.0000000   0.0000000), wk =   0.0833333
        k(    2) = (   0.0000000   0.0000000   0.1542388), wk =   0.1666667
        k(    3) = (   0.0000000   0.0000000  -0.3084776), wk =   0.0833333
        k(    4) = (   0.0000000   0.3781711   0.0000000), wk =   0.1666667
        k(    5) = (   0.0000000   0.3781711   0.1542388), wk =   0.3333333
        k(    6) = (   0.0000000   0.3781711  -0.3084776), wk =   0.1666667
        k(    7) = (  -0.4912586  -0.2836283   0.0000000), wk =   0.0833333
        k(    8) = (  -0.4912586  -0.2836283   0.1542388), wk =   0.1666667
        k(    9) = (  -0.4912586  -0.2836283  -0.3084776), wk =   0.0833333
        k(   10) = (  -0.4912586   0.0945428   0.0000000), wk =   0.1666667
        k(   11) = (  -0.4912586   0.0945428   0.1542388), wk =   0.3333333
        k(   12) = (  -0.4912586   0.0945428  -0.3084776), wk =   0.1666667

     Largest allocated arrays     est. size (Mb)     dimensions
     Largest temporary arrays     est. size (Mb)     dimensions

     Initial potential from superposition of free atoms

     Starting from uniform charge
     Starting wfc are    0 randomized atomic wfcs

     Writing output data file Prototype-La-hP12-MgZn2.save

     Self-consistent Calculation

[...]

     iteration #  9     ecut=    40.00 Ry     beta=0.70
     CG style diagonalization
     c_bands:  1 eigenvalues not converged
     ethr =  2.58E-06,  avg # of iterations =  4.1

[...]

     total energy              =   -4267.95693641 Ry
     Harris-Foulkes estimate   =   -4267.95704979 Ry
     estimated scf accuracy    <       0.00020346 Ry

     iteration # 11     ecut=    40.00 Ry     beta=0.70
     CG style diagonalization
     ethr =  7.48E-08,  avg # of iterations =  3.6

     End of self-consistent calculation

[...]

          k = 0.0000 0.3782-0.3085 (  6074 PWs)   bands (ev):

[...]

          k =-0.4913 0.0945-0.3085 (  6076 PWs)   bands (ev):

   -89.4950 -89.4949 -89.4789 -89.4788 -68.2492 -68.2492 -68.2007 -68.2007
   -68.1762 -68.1762 -68.0386 -68.0386 -48.3191 -48.3190 -48.3130 -48.3129
   -48.2949 -48.2949 -48.2902 -48.2902 -48.2864 -48.2864 -48.2815 -48.2814
   -30.8283 -30.8283 -30.5732 -30.5732 -30.3851 -30.3851 -30.3723 -30.3723
   -30.2716 -30.2716 -30.2226 -30.2226 -30.1747 -30.1747 -30.1179 -30.1179
   -30.0297 -30.0296 -30.0111 -30.0111 -29.9488 -29.9488 -29.9288 -29.9288
     9.3203   9.3203   9.3673   9.3673   9.4038   9.4038   9.4633   9.4634
     9.4976   9.4977   9.5797   9.5797   9.6002   9.6002   9.6437   9.6438
     9.7189   9.7189   9.7839   9.7839  13.5580  13.5580  14.1340  14.1340
    14.4594  14.4594  14.6513  14.6513  14.8127  14.8127  15.2108  15.2108
    15.3826  15.3826  15.7439  15.7439  15.9460  15.9461  16.0295  16.0295
    16.3296  16.3296  16.4653  16.4653  16.7514  16.7514  16.9781  16.9781
    17.1282  17.1282  17.2643  17.2643  17.3724  17.3724  17.4951  17.4951
    17.6201  17.6201  18.3035  18.3035  18.7970  18.7970  20.3863  20.3863
    22.0331  22.0331  24.5473  24.5473  25.8763  25.8763  26.7498  26.7498
    27.5895  27.5895  29.3282  29.3282  31.5781  31.5781  32.1755  32.1755
    32.9849  32.9849  33.4725  33.4725  34.0454  34.0454  34.7994  34.7994
    35.5903  35.5903  35.8524  35.8524  36.1751  36.1751  36.8697  36.8697
    37.3987  37.3987  38.3569  38.3569  38.5532  38.5532  38.9003  38.9004
    40.0298  40.0299  40.4454  40.4455  40.6197  40.6198  40.9551  40.9552
    41.6619  41.6620  42.2540

     the Fermi energy is    34.6885 ev

!    total energy              =   -4267.95698742 Ry
     Harris-Foulkes estimate   =   -4267.95699029 Ry
     estimated scf accuracy    <       0.00000350 Ry

     The total energy is the sum of the following terms:

     one-electron contribution =    -993.30866870 Ry
     hartree contribution      =     686.39125080 Ry
     xc contribution           =    -355.01618370 Ry
     ewald contribution        =   -3605.62040538 Ry
     smearing contrib. (-TS)   =      -0.40298043 Ry

     convergence has been achieved in  11 iterations

     Forces acting on atoms (Ry/au):

     atom    1 type  1   force =     0.00000000    0.00000000    0.04854917
     atom    2 type  1   force =     0.00000000    0.00000000    0.04854917
     atom    3 type  1   force =     0.00000000    0.00000000   -0.04854917
     atom    4 type  1   force =     0.00000000    0.00000000   -0.04854917
     atom    5 type  2   force =     0.00000000    0.00000000    0.00000000
     atom    6 type  2   force =     0.00000000    0.00000000    0.00000000
     atom    7 type  2   force =     0.00000000   -0.13363289    0.00000000
     atom    8 type  2   force =     0.11572948   -0.06681645    0.00000000
     atom    9 type  2   force =    -0.11572948   -0.06681645    0.00000000
     atom   10 type  2   force =     0.11572948    0.06681645    0.00000000
     atom   11 type  2   force =    -0.11572948    0.06681645    0.00000000
     atom   12 type  2   force =     0.00000000    0.13363289    0.00000000

     Total force =     0.341430     Total SCF correction =     0.000000

     entering subroutine stress ...

          total   stress  (Ry/bohr**3)                   (kbar)     P=  986.75
   0.00694957   0.00000000   0.00000000       1022.32      0.00      0.00
   0.00000000   0.00694957   0.00000000          0.00   1022.32      0.00
   0.00000000   0.00000000   0.00622428          0.00      0.00    915.62

     Writing output data file Prototype-La-hP12-MgZn2.save

     General routines

     Parallel routines

   This run was terminated on:  12:45:34  22Mar2018

   JOB DONE.