     Program PWSCF v.5.0.2 starts on 22Mar2018 at 12: 7:47

     Current dimensions of program PWSCF are:
     Max number of different atomic species (ntypx) = 10
     Max number of k-points (npk) =  40000
     Max angular momentum in pseudopotentials (lmaxx) =  3
     Waiting for input...
     Reading input from standard input

     Subspace diagonalization in iterative solution of the eigenvalue problem:
     a serial algorithm will be used

     bravais-lattice index     =            0
     lattice parameter (alat)  =       8.8008  a.u.
     unit-cell volume          =    1116.9454 (a.u.)^3
     number of atoms/cell      =           16
     number of atomic types    =            2
     number of electrons       =       376.00
     number of Kohn-Sham states=          226
     kinetic-energy cutoff     =      40.0000  Ry
     charge density cutoff     =     160.0000  Ry
     convergence threshold     =      1.0E-04
     mixing beta               =       0.7000
     number of iterations used =            8  plain     mixing
     Exchange-correlation      = SLA-PZ-NOGX-NOGC ( 1 1 0 0 0)
     EXX-fraction              =        0.00
     nstep                     =           50

     celldm(1)=   8.800765  celldm(2)=   0.000000  celldm(3)=   0.000000
     celldm(4)=   0.000000  celldm(5)=   0.000000  celldm(6)=   0.000000

     crystal axes: (cart. coord. in units of alat)
               a(1) = (   1.000000   0.000000   0.000000 )
               a(2) = (   0.000000   1.083771   0.000000 )
               a(3) = (   0.000000   0.000000   1.511935 )

     reciprocal axes: (cart. coord. in units 2 pi/alat)
               b(1) = (  1.000000  0.000000  0.000000 )
               b(2) = (  0.000000  0.922704  0.000000 )
               b(3) = (  0.000000  0.000000  0.661404 )

     PseudoPot. # 1 for Yb read from file:
     /home/jld5415/pp.La/Yb.UPF
     MD5 check sum: 3e859b81cc28c53ec6aa3a2e888efcdf
     Pseudo is Norm-conserving, Zval = 24.0
     Generated in analytical, separable form
     Using radial grid of 1269 points,  6 beta functions with:
                l(1) =   0
                l(2) =   0
                l(3) =   1
                l(4) =   1
                l(5) =   2
                l(6) =   3

     PseudoPot. # 2 for Er read from file:
     /home/jld5415/pp.La/Er.UPF
     MD5 check sum: e152ae21b84514339d8526f066caf99b
     Pseudo is Norm-conserving, Zval = 22.0
     Generated in analytical, separable form
     Using radial grid of 1267 points,  6 beta functions with:
                l(1) =   0
                l(2) =   0
                l(3) =   1
                l(4) =   1
                l(5) =   2
                l(6) =   3

     atomic species   valence    mass     pseudopotential
        Fe            24.00    55.84500     Yb( 1.00)
        C             22.00    12.01070     Er( 1.00)

      8 Sym. Ops., with inversion, found ( 6 have fractional translation)

   Cartesian axes

     site n.     atom                  positions (alat units)
         1           Fe  tau(   1) = (   0.3472940   0.1827628   1.3947267  )
         2           Fe  tau(   2) = (   0.1527060   0.7246484   0.8731757  )
         3           Fe  tau(   3) = (   0.8472940   0.3591227   0.6387592  )
         4           Fe  tau(   4) = (   0.3396640   0.4879235   0.3779837  )
         5           Fe  tau(   5) = (   0.1527060   0.7246484   1.3947267  )
         6           Fe  tau(   6) = (   0.3472940   0.1827628   0.8731757  )
         7           Fe  tau(   7) = (   0.1603360   1.0298091   0.3779837  )
         8           Fe  tau(   8) = (   0.6527060   0.9010083   0.6387592  )
         9           Fe  tau(   9) = (   0.8472940   0.3591227   0.1172082  )
        10           Fe  tau(  10) = (   0.6603360   0.5958476   1.1339512  )
        11           Fe  tau(  11) = (   0.6527060   0.9010083   0.1172082  )
        12           Fe  tau(  12) = (   0.8396640   0.0539620   1.1339512  )
        13           C   tau(  13) = (   0.0000000   0.0000000   0.0000000  )
        14           C   tau(  14) = (   0.5000000   0.5418856   0.0000000  )
        15           C   tau(  15) = (   0.5000000   0.5418856   0.7559674  )
        16           C   tau(  16) = (   0.0000000   0.0000000   0.7559674  )

     number of k points=    12  gaussian smearing, width (Ry)=  0.1000
                       cart. coord. in units 2pi/alat
        k(    1) = (   0.0000000   0.0000000   0.0000000), wk =   0.0833333
        k(    2) = (   0.0000000   0.0000000   0.1653510), wk =   0.1666667
        k(    3) = (   0.0000000   0.0000000  -0.3307021), wk =   0.0833333
        k(    4) = (   0.0000000   0.3075680   0.0000000), wk =   0.1666667
        k(    5) = (   0.0000000   0.3075680   0.1653510), wk =   0.3333333
        k(    6) = (   0.0000000   0.3075680  -0.3307021), wk =   0.1666667
        k(    7) = (  -0.5000000   0.0000000   0.0000000), wk =   0.0833333
        k(    8) = (  -0.5000000   0.0000000   0.1653510), wk =   0.1666667
        k(    9) = (  -0.5000000   0.0000000  -0.3307021), wk =   0.0833333
        k(   10) = (  -0.5000000   0.3075680   0.0000000), wk =   0.1666667
        k(   11) = (  -0.5000000   0.3075680   0.1653510), wk =   0.3333333
        k(   12) = (  -0.5000000   0.3075680  -0.3307021), wk =   0.1666667

     Largest allocated arrays     est. size (Mb)     dimensions
     Largest temporary arrays     est. size (Mb)     dimensions

     Initial potential from superposition of free atoms

     Starting from uniform charge
     Starting wfc are    0 randomized atomic wfcs

     Self-consistent Calculation

     iteration #  1     ecut=    40.00 Ry     beta=0.70
     CG style diagonalization
     ethr =  1.00E-02,  avg # of iterations = 23.9

     total energy              =   -5377.13328969 Ry
     Harris-Foulkes estimate   =   -7615.05522421 Ry
     estimated scf accuracy    <    2717.30468112 Ry

     iteration #  2     ecut=    40.00 Ry     beta=0.70
     CG style diagonalization
     c_bands:  2 eigenvalues not converged
     c_bands:  1 eigenvalues not converged
     c_bands:  1 eigenvalues not converged
     c_bands:  3 eigenvalues not converged
     ethr =  1.00E-02,  avg # of iterations = 11.3

[...]

     End of self-consistent calculation

          k = 0.0000 0.0000 0.0000 (  4785 PWs)   bands (ev):

   -67.3477 -67.3181 -67.3166 -67.2965 -67.2738 -67.2584 -67.2474 -67.2458
   -67.0396 -67.0389 -67.0351 -67.0194 -49.9018 -49.7831 -49.7106 -49.6075
   -28.2019 -28.1734 -28.1281 -28.1092 -27.7722 -27.7397 -27.5415 -27.5305
   -27.3870 -27.2491 -27.1649 -26.9708 -26.3895 -26.3451 -26.2670 -26.2130
   -26.1567 -26.1505 -26.1308 -25.9892 -25.9839 -25.9418 -25.9375 -25.9023
   -25.8002 -25.7524 -25.7468 -25.7336 -25.7027 -25.6897 -25.5847 -25.5776
   -25.5247 -25.5154 -25.3661 -25.3607 -12.8937 -12.8455 -12.7602 -12.7569
   -12.6383 -12.6030 -11.9631 -11.9178 -11.9054 -11.8914 -11.8617 -11.8035
    22.3359  22.3956  22.7867  23.5423  23.5945  23.8251  23.9053  24.4439
    25.0657  25.5409  25.6967  25.8122  26.3447  27.5899  28.0348  28.0649
    28.1643  28.2503  28.2571  28.3664  28.4257  28.5526  28.5580  28.5892
    28.6499  28.9189  29.0649  29.1975  29.3966  29.4761  29.5312  29.6937
    29.7304  29.7858  29.9907  30.0163  30.0752  30.1015  30.2991  30.3430
    30.3460  30.5136  30.5391  30.5476  30.7287  30.8280  30.8951  31.1922
    31.2116  31.7242  31.8334  31.8899  31.8920  31.8966  32.3524  32.3754
    32.4734  32.6292  32.8224  32.8721  33.0174  33.6441  33.9608  34.4726
    34.5278  34.7081  35.0709  35.2538  35.8263  37.3932  37.4267  37.4589
    38.0064  38.6067  38.8071  39.1110  39.3403  39.5791  39.6344  40.0255
    40.9926  41.1497  41.8403  42.4050  42.4817  44.1956  46.3410  46.3900
    46.8419  46.8421  47.0053  47.8721  48.0272  49.5141  49.9432  50.1772
    50.3698  51.2194  52.3512  52.6569  52.9740  53.2614  53.4623  54.2382
    54.2566  54.5061  54.6790  54.8817  55.9695  56.2420  56.8822  57.5062
    57.6504  57.6682  57.8180  58.3477  58.4170  58.5938  58.9766  58.9889
    59.2544  59.6556  59.7170  59.8491  60.3368  60.5665  60.6389  60.7033
    60.7148  60.9534  61.2671  61.3499  61.4978  61.6572  62.0799  62.1457
    62.3464  62.3840  62.9603  63.0130  63.2212  63.3365  64.1299  64.5072
    64.5960  64.7774  65.0132  65.3157  65.3716  65.7076  66.0389  66.6689
    66.9089  67.2466  67.3061  67.3500  67.6792  67.6905  67.8043  68.1526
    68.4335  68.5787

[...]

          k =-0.5000 0.0000 0.0000 (  4798 PWs)   bands (ev):

[...]

     the Fermi energy is    60.1647 ev

!    total energy              =   -6177.48533671 Ry
     Harris-Foulkes estimate   =   -6177.48534403 Ry
     estimated scf accuracy    <       0.00000668 Ry

     The total energy is the sum of the following terms:

     one-electron contribution =    -626.96675113 Ry
     hartree contribution      =     856.55425556 Ry
     xc contribution           =    -528.16204783 Ry
     ewald contribution        =   -5878.30054668 Ry
     smearing contrib. (-TS)   =      -0.61024663 Ry

     convergence has been achieved in  10 iterations

     Forces acting on atoms (Ry/au):

     atom    1 type  1   force =     1.08614581   -1.17652590   -1.55096886
     atom    2 type  1   force =    -1.08614581   -1.17652590    1.55096886
     atom    3 type  1   force =     1.08614581    1.17652590   -1.55096886
     atom    4 type  1   force =    -1.90139483   -0.72053779    0.00000000
     atom    5 type  1   force =    -1.08614581   -1.17652590   -1.55096886
     atom    6 type  1   force =     1.08614581   -1.17652590    1.55096886
     atom    7 type  1   force =     1.90139483   -0.72053779    0.00000000
     atom    8 type  1   force =    -1.08614581    1.17652590   -1.55096886
     atom    9 type  1   force =     1.08614581    1.17652590    1.55096886
     atom   10 type  1   force =     1.90139483    0.72053779    0.00000000
     atom   11 type  1   force =    -1.08614581    1.17652590    1.55096886
     atom   12 type  1   force =    -1.90139483    0.72053779    0.00000000
     atom   13 type  2   force =     0.00000000    0.00000000    0.00000000
     atom   14 type  2   force =     0.00000000    0.00000000    0.00000000
     atom   15 type  2   force =     0.00000000    0.00000000    0.00000000
     atom   16 type  2   force =     0.00000000    0.00000000    0.00000000

     Total force =     7.502889     Total SCF correction =     0.000000

     entering subroutine stress ...

          total   stress  (Ry/bohr**3)                   (kbar)     P=12686.44
   0.08710810   0.00000000   0.00000000      12814.04      0.00      0.00
   0.00000000   0.08626294   0.00000000          0.00  12689.71      0.00
   0.00000000   0.00000000   0.08535096          0.00      0.00  12555.56

     BFGS Geometry Optimization

     number of scf cycles    =   1
     number of bfgs steps    =   0

     enthalpy new            =   -6177.4853367137 Ry

     new trust radius        =       0.5000000000 bohr
     new conv_thr            =       0.0001000000 Ry

     new unit-cell volume =   1383.93628 a.u.^3 (   205.07820 Ang^3 )

CELL_PARAMETERS (alat=  8.80076499)
   1.074803866   0.000000000   0.000000000
[...]
Fe       0.351533291   0.164398897   0.581525825
Fe       0.167757256   0.947614078   0.250000000
Fe       0.648466709   0.835601103   0.418474175
Fe       0.851533291   0.335601103   0.081525825
Fe       0.667757256   0.552385922   0.750000000
Fe       0.648466709   0.835601103   0.081525825
Fe       0.832242744   0.052385922   0.750000000
C        0.000000000   0.000000000   0.000000000
C        0.500000000   0.500000000   0.000000000
C        0.500000000   0.500000000   0.500000000
C        0.000000000   0.000000000   0.500000000

     Writing output data file Prototype-La-oP16-Fe3C.save
     NEW-OLD atomic charge density approx. for the potential
     NEW k-points:
        k(    1) = (   0.0000000   0.0000000   0.0000000), wk =   0.0833333
        k(    2) = (   0.0000000   0.0000000   0.1540593), wk =   0.1666667
        k(    3) = (   0.0000000   0.0000000  -0.3081185), wk =   0.0833333
        k(    4) = (   0.0000000   0.2863554   0.0000000), wk =   0.1666667
        k(    5) = (   0.0000000   0.2863554   0.1540593), wk =   0.3333333
        k(    6) = (   0.0000000   0.2863554  -0.3081185), wk =   0.1666667
        k(    7) = (  -0.4652012   0.0000000   0.0000000), wk =   0.0833333
        k(    8) = (  -0.4652012   0.0000000   0.1540593), wk =   0.1666667
        k(    9) = (  -0.4652012   0.0000000  -0.3081185), wk =   0.0833333
        k(   10) = (  -0.4652012   0.2863554   0.0000000), wk =   0.1666667
        k(   11) = (  -0.4652012   0.2863554   0.1540593), wk =   0.3333333
        k(   12) = (  -0.4652012   0.2863554  -0.3081185), wk =   0.1666667

[...]

          total   stress  (Ry/bohr**3)                   (kbar)     P= 5811.28
   0.03959652   0.00000000   0.00000000       5824.85      0.00      0.00
   0.00000000   0.03897895   0.00000000          0.00   5734.00      0.00
   0.00000000   0.00000000   0.03993734          0.00      0.00   5874.98

[...]

     enthalpy old            =   -6177.4853367138 Ry
     enthalpy new            =   -6195.1394922485 Ry

     CASE: enthalpy_new < enthalpy_old

     small trust_radius: resetting bfgs history

     new trust radius        =       7.4286031394 bohr
     new conv_thr            =       0.0001000000 Ry

[...]

          total   stress  (Ry/bohr**3)                   (kbar)     P=-8768.79
  -0.05958497   0.00000000   0.00000000      -8765.25      0.00      0.00
   0.00000000  -0.05945455   0.00000000          0.00  -8746.06      0.00
   0.00000000   0.00000000  -0.05978763          0.00      0.00  -8795.06

     number of scf cycles    =   3
     number of bfgs steps    =   2

     enthalpy old            =   -6195.1394922485 Ry
     enthalpy new            =   -5721.0932398209 Ry

     CASE: enthalpy_new > enthalpy_old

     new trust radius        =       1.4509071488 bohr

     trust_radius < trust_radius_min

     resetting bfgs history

     Message from routine bfgs:
     history already reset at previous step: stopping
     new conv_thr            =       0.0001000000 Ry

     new unit-cell volume =   1587.93524 a.u.^3 (   235.30772 Ang^3 )

[...]

ATOMIC_POSITIONS (crystal)
Fe       0.353236859   0.162682764   0.916947972
Fe       0.146763141   0.662682764   0.583052028
Fe       0.853236859   0.337317236   0.416947972
Fe       0.329324470   0.446422124   0.250000000
Fe       0.146763141   0.662682764   0.916947972
Fe       0.353236859   0.162682764   0.583052028
Fe       0.170675530   0.946422124   0.250000000
Fe       0.646763141   0.837317236   0.416947972
Fe       0.853236859   0.337317236   0.083052028
Fe       0.670675530   0.553577876   0.750000000
Fe       0.646763141   0.837317236   0.083052028
Fe       0.829324470   0.053577876   0.750000000
C        0.000000000   0.000000000   0.000000000
C        0.500000000   0.500000000   0.000000000
C        0.500000000   0.500000000   0.500000000
C        0.000000000   0.000000000   0.500000000

     Writing output data file Prototype-La-oP16-Fe3C.save
     NEW-OLD atomic charge density approx. for the potential
     NEW k-points:
        k(    1) = (   0.0000000   0.0000000   0.0000000), wk =   0.0833333
        k(    2) = (   0.0000000   0.0000000   0.1470133), wk =   0.1666667
        k(    3) = (   0.0000000   0.0000000  -0.2940266), wk =   0.0833333
        k(    4) = (   0.0000000   0.2738507   0.0000000), wk =   0.1666667
        k(    5) = (   0.0000000   0.2738507   0.1470133), wk =   0.3333333
        k(    6) = (   0.0000000   0.2738507  -0.2940266), wk =   0.1666667
        k(    7) = (  -0.4442698   0.0000000   0.0000000), wk =   0.0833333
        k(    8) = (  -0.4442698   0.0000000   0.1470133), wk =   0.1666667
        k(    9) = (  -0.4442698   0.0000000  -0.2940266), wk =   0.0833333
        k(   10) = (  -0.4442698   0.2738507   0.0000000), wk =   0.1666667
        k(   11) = (  -0.4442698   0.2738507   0.1470133), wk =   0.3333333
        k(   12) = (  -0.4442698   0.2738507  -0.2940266), wk =   0.1666667

[...]

     The maximum number of steps has been reached.

     End of BFGS Geometry Optimization
Begin final coordinates
     new unit-cell volume =   1587.93524 a.u.^3 (   235.30772 Ang^3 )

CELL_PARAMETERS (alat=  8.80076499)
   1.125442277   0.000000000   0.000000000
   0.000000000   1.217208347   0.000000000
   0.000000000   0.000000000   1.700526359

ATOMIC_POSITIONS (crystal)
Fe       0.353236859   0.162682764   0.916947972
Fe       0.146763141   0.662682764   0.583052028
Fe       0.853236859   0.337317236   0.416947972
Fe       0.329324470   0.446422124   0.250000000
Fe       0.146763141   0.662682764   0.916947972
Fe       0.353236859   0.162682764   0.583052028
Fe       0.170675530   0.946422124   0.250000000
Fe       0.646763141   0.837317236   0.416947972
Fe       0.853236859   0.337317236   0.083052028
Fe       0.670675530   0.553577876   0.750000000
Fe       0.646763141   0.837317236   0.083052028
Fe       0.829324470   0.053577876   0.750000000
C        0.000000000   0.000000000   0.000000000
C        0.500000000   0.500000000   0.000000000
C        0.500000000   0.500000000   0.500000000
C        0.000000000   0.000000000   0.500000000
End final coordinates

     A final scf calculation at the relaxed structure.
     The G-vectors are recalculated for the final unit cell
     Results may differ from those at the preceding step.

     bravais-lattice index     =            0
     lattice parameter (alat)  =       8.8008  a.u.
     unit-cell volume          =    1587.9352 (a.u.)^3
     number of atoms/cell      =           16
     number of atomic types    =            2
     number of electrons       =       376.00
     number of Kohn-Sham states=          226
     kinetic-energy cutoff     =      40.0000  Ry
     charge density cutoff     =     160.0000  Ry
     convergence threshold     =      1.0E-04
     mixing beta               =       0.7000
     number of iterations used =            8  plain     mixing
     Exchange-correlation      = SLA-PZ-NOGX-NOGC ( 1 1 0 0 0)
     EXX-fraction              =        0.00

     celldm(1)=   8.800765  celldm(2)=   0.000000  celldm(3)=   0.000000
     celldm(4)=   0.000000  celldm(5)=   0.000000  celldm(6)=   0.000000

     crystal axes: (cart. coord. in units of alat)
               a(1) = (   1.125442   0.000000   0.000000 )
               a(2) = (   0.000000   1.217208   0.000000 )
               a(3) = (   0.000000   0.000000   1.700526 )

     reciprocal axes: (cart. coord. in units 2 pi/alat)
               b(1) = (  0.888540  0.000000  0.000000 )
               b(2) = (  0.000000  0.821552  0.000000 )
               b(3) = (  0.000000  0.000000  0.588053 )

     PseudoPot. # 1 for Yb read from file:
     /home/jld5415/pp.La/Yb.UPF
     MD5 check sum: 3e859b81cc28c53ec6aa3a2e888efcdf
     Pseudo is Norm-conserving, Zval = 24.0
     Generated in analytical, separable form
     Using radial grid of 1269 points,  6 beta functions with:
                l(1) =   0
                l(2) =   0
                l(3) =   1
                l(4) =   1
                l(5) =   2
                l(6) =   3

     PseudoPot. # 2 for Er read from file:
     /home/jld5415/pp.La/Er.UPF
     MD5 check sum: e152ae21b84514339d8526f066caf99b
     Pseudo is Norm-conserving, Zval = 22.0
     Generated in analytical, separable form
     Using radial grid of 1267 points,  6 beta functions with:
                l(1) =   0
                l(2) =   0
                l(3) =   1
                l(4) =   1
                l(5) =   2
                l(6) =   3

     atomic species   valence    mass     pseudopotential
        Fe            24.00    55.84500     Yb( 1.00)
        C             22.00    12.01070     Er( 1.00)

      8 Sym. Ops., with inversion, found ( 6 have fractional translation)

   Cartesian axes

     site n.     atom                  positions (alat units)
         1           Fe  tau(   1) = (   0.3975477   0.1980188   1.5592942  )
         2           Fe  tau(   2) = (   0.1651734   0.8066230   0.9914953  )
         3           Fe  tau(   3) = (   0.9602688   0.4105854   0.7090310  )
         4           Fe  tau(   4) = (   0.3706357   0.5433887   0.4251316  )
         5           Fe  tau(   5) = (   0.1651734   0.8066230   1.5592942  )
         6           Fe  tau(   6) = (   0.3975477   0.1980188   0.9914953  )
         7           Fe  tau(   7) = (   0.1920855   1.1519929   0.4251316  )
         8           Fe  tau(   8) = (   0.7278946   1.0191895   0.7090310  )
         9           Fe  tau(   9) = (   0.9602688   0.4105854   0.1412322  )
        10           Fe  tau(  10) = (   0.7548066   0.6738196   1.2753948  )
        11           Fe  tau(  11) = (   0.7278946   1.0191895   0.1412322  )
        12           Fe  tau(  12) = (   0.9333568   0.0652154   1.2753948  )
        13           C   tau(  13) = (   0.0000000   0.0000000   0.0000000  )
        14           C   tau(  14) = (   0.5627211   0.6086042   0.0000000  )
        15           C   tau(  15) = (   0.5627211   0.6086042   0.8502632  )
        16           C   tau(  16) = (   0.0000000   0.0000000   0.8502632  )

     number of k points=    12  gaussian smearing, width (Ry)=  0.1000
                       cart. coord. in units 2pi/alat
        k(    1) = (   0.0000000   0.0000000   0.0000000), wk =   0.0833333
        k(    2) = (   0.0000000   0.0000000   0.1470133), wk =   0.1666667
        k(    3) = (   0.0000000   0.0000000  -0.2940266), wk =   0.0833333
        k(    4) = (   0.0000000   0.2738507   0.0000000), wk =   0.1666667
        k(    5) = (   0.0000000   0.2738507   0.1470133), wk =   0.3333333
        k(    6) = (   0.0000000   0.2738507  -0.2940266), wk =   0.1666667
        k(    7) = (  -0.4442698   0.0000000   0.0000000), wk =   0.0833333
        k(    8) = (  -0.4442698   0.0000000   0.1470133), wk =   0.1666667
        k(    9) = (  -0.4442698   0.0000000  -0.2940266), wk =   0.0833333
        k(   10) = (  -0.4442698   0.2738507   0.0000000), wk =   0.1666667
        k(   11) = (  -0.4442698   0.2738507   0.1470133), wk =   0.3333333
        k(   12) = (  -0.4442698   0.2738507  -0.2940266), wk =   0.1666667

     Largest allocated arrays     est. size (Mb)     dimensions
     Largest temporary arrays     est. size (Mb)     dimensions

     Initial potential from superposition of free atoms

     Starting from uniform charge
     Starting wfc are    0 randomized atomic wfcs

     Writing output data file Prototype-La-oP16-Fe3C.save

     Self-consistent Calculation

[...]

     iteration #  9     ecut=    40.00 Ry     beta=0.70
     CG style diagonalization
     c_bands:  1 eigenvalues not converged
     c_bands:  1 eigenvalues not converged
     c_bands:  1 eigenvalues not converged
     ethr =  1.63E-06,  avg # of iterations =  4.7

[...]

     total energy              =   -6209.75176455 Ry
     Harris-Foulkes estimate   =   -6209.75184468 Ry
     estimated scf accuracy    <       0.00013875 Ry

     iteration # 11     ecut=    40.00 Ry     beta=0.70
     CG style diagonalization
     ethr =  3.69E-08,  avg # of iterations =  3.9

     End of self-consistent calculation

[...]

          k = 0.0000 0.2739-0.2940 (  6764 PWs)   bands (ev):

[...]

          k =-0.4443 0.2739-0.2940 (  6808 PWs)   bands (ev):

   -83.3357 -83.3357 -83.3340 -83.3340 -83.3154 -83.3154 -83.3053 -83.3053
   -83.0848 -83.0848 -83.0672 -83.0672 -63.8132 -63.8132 -63.8119 -63.8119
   -42.7624 -42.7624 -42.7606 -42.7606 -42.7044 -42.7044 -42.7009 -42.7009
   -42.4791 -42.4791 -42.4757 -42.4757 -42.1809 -42.1809 -42.1732 -42.1732
   -42.1175 -42.1175 -42.1076 -42.1076 -41.9906 -41.9906 -41.9867 -41.9867
   -41.9087 -41.9087 -41.9022 -41.9022 -41.8782 -41.8782 -41.8764 -41.8764
   -41.6780 -41.6780 -41.6655 -41.6655 -26.3868 -26.3868 -26.3843 -26.3843
   -26.2723 -26.2723 -26.2700 -26.2700 -26.2055 -26.2055 -26.2047 -26.2047
    11.9728  11.9728  11.9869  11.9869  12.3245  12.3245  12.3411  12.3411
    13.2194  13.2194  13.2531  13.2531  13.4038  13.4038  13.5408  13.5408
    13.9624  13.9624  14.0116  14.0116  14.2372  14.2372  14.2524  14.2524
    14.6087  14.6087  14.6299  14.6299  14.8833  14.8833  14.9737  14.9737
    14.9888  14.9888  15.0946  15.0946  15.1995  15.1995  15.2599  15.2599
    15.3113  15.3113  15.4758  15.4758  15.6698  15.6698  15.7733  15.7733
    15.8891  15.8891  15.9151  15.9151  16.0870  16.0870  16.1830  16.1830
    16.3594  16.3594  16.4151  16.4151  19.9827  19.9827  20.0494  20.0494
    20.3129  20.3129  20.3514  20.3514  20.9071  20.9071  21.0764  21.0764
    21.4155  21.4155  21.5422  21.5422  21.7082  21.7082  21.7363  21.7363
    23.3930  23.3930  23.4387  23.4387  25.8970  25.8970  25.9537  25.9537
    30.0200  30.0200  30.2928  30.2928  32.2348  32.2348  32.4206  32.4206
    33.8705  33.8705  34.0768  34.0768  36.6086  36.6086  36.8644  36.8644
    38.2367  38.2367  38.5008  38.5008  39.6296  39.6296  39.6544  39.6544
    40.4411  40.4411  40.4629  40.4629  41.2853  41.2853  41.3603  41.3603
    42.6053  42.6053  42.7926  42.7926  43.2769  43.2769  43.5129  43.5129
    43.8906  43.8906  43.9101  43.9101  45.0647  45.0647  45.1154  45.1154
    46.0919  46.0919  46.4316  46.4317  46.4558  46.4558  46.7251  46.7252
    47.0652  47.0652  47.3339  47.3339  47.6351  47.6352  47.8138  47.8139
    48.0031  48.0032  48.0473  48.0473  48.5351  48.5352  48.9525  48.9528
    49.1233  49.1237

     the Fermi energy is    43.0954 ev

!    total energy              =   -6209.75180579 Ry
     Harris-Foulkes estimate   =   -6209.75181319 Ry
     estimated scf accuracy    <       0.00000883 Ry

     The total energy is the sum of the following terms:

     one-electron contribution =   -1499.47222368 Ry
     hartree contribution      =    1065.59905647 Ry
     xc contribution           =    -509.76069319 Ry
     ewald contribution        =   -5265.48259007 Ry
     smearing contrib. (-TS)   =      -0.63535531 Ry

     convergence has been achieved in  11 iterations

     Forces acting on atoms (Ry/au):

     atom    1 type  1   force =     0.50082098   -0.52556017   -0.63642216
     atom    2 type  1   force =    -0.50082098   -0.52556017    0.63642216
     atom    3 type  1   force =     0.50082098    0.52556017   -0.63642216
     atom    4 type  1   force =    -0.82439152   -0.37691713    0.00000000
     atom    5 type  1   force =    -0.50082098   -0.52556017   -0.63642216
     atom    6 type  1   force =     0.50082098   -0.52556017    0.63642216
     atom    7 type  1   force =     0.82439152   -0.37691713    0.00000000
     atom    8 type  1   force =    -0.50082098    0.52556017   -0.63642216
     atom    9 type  1   force =     0.50082098    0.52556017    0.63642216
     atom   10 type  1   force =     0.82439152    0.37691713    0.00000000
     atom   11 type  1   force =    -0.50082098    0.52556017    0.63642216
     atom   12 type  1   force =    -0.82439152    0.37691713    0.00000000
     atom   13 type  2   force =     0.00000000    0.00000000    0.00000000
     atom   14 type  2   force =     0.00000000    0.00000000    0.00000000
     atom   15 type  2   force =     0.00000000    0.00000000    0.00000000
     atom   16 type  2   force =     0.00000000    0.00000000    0.00000000

     Total force =     3.277697     Total SCF correction =     0.000000

     entering subroutine stress ...

          total   stress  (Ry/bohr**3)                   (kbar)     P= 4075.10
   0.02750590   0.00000000   0.00000000       4046.26      0.00      0.00
   0.00000000   0.02736514   0.00000000          0.00   4025.55      0.00
   0.00000000   0.00000000   0.02823485          0.00      0.00   4153.49

     Writing output data file Prototype-La-oP16-Fe3C.save

     General routines

     Parallel routines

   This run was terminated on:  13:25:18  22Mar2018

   JOB DONE.