     Program PWSCF v.5.0.2 starts on 22Mar2018 at 12: 7:48

     Current dimensions of program PWSCF are:
     Max number of different atomic species (ntypx) = 10
     Max number of k-points (npk) =  40000
     Max angular momentum in pseudopotentials (lmaxx) =  3
     Waiting for input...
     Reading input from standard input

     Subspace diagonalization in iterative solution of the eigenvalue problem:
     a serial algorithm will be used

     bravais-lattice index     =            0
     lattice parameter (alat)  =      13.3930  a.u.
     unit-cell volume          =    1134.0956 (a.u.)^3
     number of atoms/cell      =            4
     number of atomic types    =            2
     number of electrons       =        92.00
     number of Kohn-Sham states=           55
     kinetic-energy cutoff     =      40.0000  Ry
     charge density cutoff     =     160.0000  Ry
     convergence threshold     =      1.0E-04
     mixing beta               =       0.7000
     number of iterations used =            8  plain     mixing
     Exchange-correlation      = SLA-PZ-NOGX-NOGC ( 1 1 0 0 0)
     EXX-fraction              =        0.00
     nstep                     =           50

     celldm(1)=  13.392972  celldm(2)=   0.000000  celldm(3)=   0.000000
     celldm(4)=   0.000000  celldm(5)=   0.000000  celldm(6)=   0.000000

     crystal axes: (cart. coord. in units of alat)
               a(1) = (   1.000000   0.000000   0.000000 )
               a(2) = (  -0.776311   0.630350   0.000000 )
               a(3) = (   0.000000   0.000000   0.748922 )

     reciprocal axes: (cart. coord. in units 2 pi/alat)
               b(1) = (  1.000000  1.231554  0.000000 )
               b(2) = (  0.000000  1.586419  0.000000 )
               b(3) = (  0.000000  0.000000  1.335252 )

     PseudoPot. # 1 for Yb read from file:
     /home/jld5415/pp.La/Yb.UPF
     MD5 check sum: 3e859b81cc28c53ec6aa3a2e888efcdf
     Pseudo is Norm-conserving, Zval = 24.0
     Generated in analytical, separable form
     Using radial grid of 1269 points,  6 beta functions with:
                l(1) =   0
                l(2) =   0
                l(3) =   1
                l(4) =   1
                l(5) =   2
                l(6) =   3

     PseudoPot. # 2 for Er read from file:
     /home/jld5415/pp.La/Er.UPF
     MD5 check sum: e152ae21b84514339d8526f066caf99b
     Pseudo is Norm-conserving, Zval = 22.0
     Generated in analytical, separable form
     Using radial grid of 1267 points,  6 beta functions with:
                l(1) =   0
                l(2) =   0
                l(3) =   1
                l(4) =   1
                l(5) =   2
                l(6) =   3

     atomic species   valence    mass     pseudopotential
        Tl            24.00   204.38300     Yb( 1.00)
        I             22.00   126.90400     Er( 1.00)

      2 Sym. Ops., with inversion, found
          (note:  2 additional sym.ops. were found but ignored
           their fractional translations are incommensurate with FFT grid)

   Cartesian axes

     site n.     atom                  positions (alat units)
         1           Tl  tau(   1) = (  -0.0906317   0.3870269   0.5616917  )
         2           Tl  tau(   2) = (   0.3143210   0.2433234   0.1872306  )
         3           I   tau(   3) = (  -0.5408004   0.5467760   0.5616917  )
         4           I   tau(   4) = (   0.7644896   0.0835744   0.1872306  )

     number of k points=   106  gaussian smearing, width (Ry)=  0.1000

     Number of k-points >= 100: set verbosity='high' to print them.

     Largest allocated arrays     est. size (Mb)     dimensions
     Largest temporary arrays     est. size (Mb)     dimensions

     Initial potential from superposition of free atoms

     Starting from uniform charge
     Starting wfc are    0 randomized atomic wfcs

     Self-consistent Calculation

     iteration #  1     ecut=    40.00 Ry     beta=0.70
     CG style diagonalization
     ethr =  1.00E-02,  avg # of iterations = 22.1

     total energy              =   -1275.92943479 Ry
     Harris-Foulkes estimate   =   -2098.94625108 Ry
     estimated scf accuracy    <    1015.53845748 Ry

     iteration #  2     ecut=    40.00 Ry     beta=0.70
     CG style diagonalization
     c_bands:  2 eigenvalues not converged
     c_bands:  2 eigenvalues not converged
     c_bands:  1 eigenvalues not converged
     c_bands:  1 eigenvalues not converged
     c_bands:  2 eigenvalues not converged
     c_bands:  1 eigenvalues not converged
     c_bands:  2 eigenvalues not converged
     c_bands:  1 eigenvalues not converged
     c_bands:  1 eigenvalues not converged
     c_bands:  1 eigenvalues not converged
     c_bands:  2 eigenvalues not converged
     c_bands:  1 eigenvalues not converged
     c_bands:  1 eigenvalues not converged
     c_bands:  2 eigenvalues not converged
     c_bands:  1 eigenvalues not converged
     c_bands:  1 eigenvalues not converged
     c_bands:  1 eigenvalues not converged
     c_bands:  1 eigenvalues not converged
     c_bands:  1 eigenvalues not converged
     c_bands:  2 eigenvalues not converged
     c_bands:  1 eigenvalues not converged
     c_bands:  2 eigenvalues not converged
     c_bands:  1 eigenvalues not converged
     c_bands:  1 eigenvalues not converged
     c_bands:  1 eigenvalues not converged
     c_bands:  1 eigenvalues not converged
     c_bands:  1 eigenvalues not converged
     c_bands:  1 eigenvalues not converged
     c_bands:  2 eigenvalues not converged
     c_bands:  1 eigenvalues not converged
     c_bands:  1 eigenvalues not converged
     c_bands:  1 eigenvalues not converged
     c_bands:  1 eigenvalues not converged
     c_bands:  1 eigenvalues not converged
     c_bands:  1 eigenvalues not converged
     c_bands:  1 eigenvalues not converged
     c_bands:  1 eigenvalues not converged
     c_bands:  2 eigenvalues not converged
     c_bands:  2 eigenvalues not converged
     c_bands:  1 eigenvalues not converged
     c_bands:  1 eigenvalues not converged
     c_bands:  1 eigenvalues not converged
     c_bands:  1 eigenvalues not converged
     c_bands:  1 eigenvalues not converged
     c_bands:  1 eigenvalues not converged
     c_bands:  2 eigenvalues not converged
     c_bands:  1 eigenvalues not converged
     c_bands:  1 eigenvalues not converged
     c_bands:  1 eigenvalues not converged
     c_bands:  1 eigenvalues not converged
     c_bands:  1 eigenvalues not converged
     c_bands:  1 eigenvalues not converged
     c_bands:  1 eigenvalues not converged
     c_bands:  2 eigenvalues not converged
     c_bands:  1 eigenvalues not converged
     c_bands:  1 eigenvalues not converged
     c_bands:  2 eigenvalues not converged
     c_bands:  1 eigenvalues not converged
     c_bands:  1 eigenvalues not converged
     ethr =  1.00E-02,  avg # of iterations =  9.9

[...]

     End of self-consistent calculation

     Number of k-points >= 100: set verbosity='high' to print the bands.

     the Fermi energy is    12.0199 ev

!    total energy              =   -1478.31375834 Ry
     Harris-Foulkes estimate   =   -1478.31379834 Ry
     estimated scf accuracy    <       0.00004563 Ry

     The total energy is the sum of the following terms:

     one-electron contribution =    -855.71403856 Ry
     hartree contribution      =     416.27744014 Ry
     xc contribution           =    -117.37013673 Ry
     ewald contribution        =    -921.36584542 Ry
     smearing contrib. (-TS)   =      -0.14117777 Ry

     convergence has been achieved in  10 iterations

     Forces acting on atoms (Ry/au):

     atom    1 type  1   force =    -0.04637246    0.01594193   -0.00355802
     atom    2 type  1   force =     0.04637246   -0.01594193    0.00355802
     atom    3 type  2   force =     0.01077461   -0.00427272   -0.00304972
     atom    4 type  2   force =    -0.01077461    0.00427272    0.00304972

     Total force =     0.071566     Total SCF correction =     0.000000

     entering subroutine stress ...

          total   stress  (Ry/bohr**3)                   (kbar)     P= -498.15
  -0.00337326  -0.00001135  -0.00000001       -496.22     -1.67      0.00
  -0.00001135  -0.00340064   0.00000001         -1.67   -500.25      0.00
  -0.00000001   0.00000001  -0.00338514          0.00      0.00   -497.97

     BFGS Geometry Optimization

     number of scf cycles    =   1
     number of bfgs steps    =   0

     enthalpy new            =   -1478.3137583354 Ry

     new trust radius        =       0.5000000000 bohr
     new conv_thr            =       0.0001000000 Ry

     new unit-cell volume =    900.72005 a.u.^3 (   133.47294 Ang^3 )

CELL_PARAMETERS (alat= 13.39297219)
   0.926361917  -0.000247711  -0.000000173
  -0.719300860   0.583748196   0.000000248
  -0.000000130   0.000000135   0.693578791

ATOMIC_POSITIONS (crystal)
Tl       0.384269660   0.615635900   0.749690253
Tl       0.615730340   0.384364100   0.250309747
I        0.132943406   0.866974066   0.749734504
I        0.867056594   0.133025934   0.250265496

     Writing output data file Prototype-La-oS8-TlI.save
     NEW-OLD atomic charge density approx. for the potential
     NEW k-points: (use verbosity='high' to print them)

[...]

     enthalpy old            =   -1478.3137583354 Ry
     enthalpy new            =   -1478.9254532337 Ry

     CASE: enthalpy_new < enthalpy_old

     small trust_radius: resetting bfgs history

[...]

     number of scf cycles    =   3
     number of bfgs steps    =   2

     enthalpy old            =   -1478.9254532337 Ry
     enthalpy new            =   -1479.0237080765 Ry

     CASE: enthalpy_new < enthalpy_old

     Message from routine bfgs:
     history already reset at previous step: stopping
     small trust_radius: resetting bfgs history

     new trust radius        =       0.0592181430 bohr
     new conv_thr            =       0.0000555693 Ry

     new unit-cell volume =    785.09352 a.u.^3 (   116.33886 Ang^3 )

[...]

ATOMIC_POSITIONS (crystal)
Tl       0.386098030   0.613879693   0.749711319
Tl       0.613901970   0.386120307   0.250288681
I        0.129389710   0.870629910   0.749929242
I        0.870610290   0.129370090   0.250070758

     Writing output data file Prototype-La-oS8-TlI.save
     NEW-OLD atomic charge density approx. for the potential
     NEW k-points: (use verbosity='high' to print them)

[...]

     The maximum number of steps has been reached.

     End of BFGS Geometry Optimization
Begin final coordinates
     new unit-cell volume =    785.09352 a.u.^3 (   116.33886 Ang^3 )

CELL_PARAMETERS (alat= 13.39297219)
   0.884562424  -0.001846584   0.000056441
  -0.687859357   0.556125377  -0.000056553
   0.000042321  -0.000015156   0.666058111

ATOMIC_POSITIONS (crystal)
Tl       0.386098030   0.613879693   0.749711319
Tl       0.613901970   0.386120307   0.250288681
I        0.129389710   0.870629910   0.749929242
I        0.870610290   0.129370090   0.250070758
End final coordinates

     A final scf calculation at the relaxed structure.
     The G-vectors are recalculated for the final unit cell
     Results may differ from those at the preceding step.

     bravais-lattice index     =            0
     lattice parameter (alat)  =      13.3930  a.u.
     unit-cell volume          =     785.0935 (a.u.)^3
     number of atoms/cell      =            4
     number of atomic types    =            2
     number of electrons       =        92.00
     number of Kohn-Sham states=           55
     kinetic-energy cutoff     =      40.0000  Ry
     charge density cutoff     =     160.0000  Ry
     convergence threshold     =      5.6E-05
     mixing beta               =       0.7000
     number of iterations used =            8  plain     mixing
     Exchange-correlation      = SLA-PZ-NOGX-NOGC ( 1 1 0 0 0)
     EXX-fraction              =        0.00

     celldm(1)=  13.392972  celldm(2)=   0.000000  celldm(3)=   0.000000
     celldm(4)=   0.000000  celldm(5)=   0.000000  celldm(6)=   0.000000

     crystal axes: (cart. coord. in units of alat)
               a(1) = (   0.884562  -0.001847   0.000056 )
               a(2) = (  -0.687859   0.556125  -0.000057 )
               a(3) = (   0.000042  -0.000015   0.666058 )

     reciprocal axes: (cart. coord. in units 2 pi/alat)
               b(1) = (  1.133429  1.401914 -0.000040 )
               b(2) = (  0.003763  1.802811  0.000041 )
               b(3) = ( -0.000096  0.000034  1.501371 )

     PseudoPot. # 1 for Yb read from file:
     /home/jld5415/pp.La/Yb.UPF
     MD5 check sum: 3e859b81cc28c53ec6aa3a2e888efcdf
     Pseudo is Norm-conserving, Zval = 24.0
     Generated in analytical, separable form
     Using radial grid of 1269 points,  6 beta functions with:
                l(1) =   0
                l(2) =   0
                l(3) =   1
                l(4) =   1
                l(5) =   2
                l(6) =   3

     PseudoPot. # 2 for Er read from file:
     /home/jld5415/pp.La/Er.UPF
     MD5 check sum: e152ae21b84514339d8526f066caf99b
     Pseudo is Norm-conserving, Zval = 22.0
     Generated in analytical, separable form
     Using radial grid of 1267 points,  6 beta functions with:
                l(1) =   0
                l(2) =   0
                l(3) =   1
                l(4) =   1
                l(5) =   2
                l(6) =   3

     atomic species   valence    mass     pseudopotential
        Tl            24.00   204.38300     Yb( 1.00)
        I             22.00   126.90400     Er( 1.00)

      2 Sym. Ops., with inversion, found
          (note:  2 additional sym.ops. were found but ignored
           their fractional translations are incommensurate with FFT grid)

   Cartesian axes

     site n.     atom                  positions (alat units)
         1           Tl  tau(   1) = (  -0.0807034   0.3406698   0.4993384  )
         2           Tl  tau(   2) = (   0.2774487   0.2135939   0.1667196  )
         3           I   tau(   3) = (  -0.4843859   0.4839291   0.4994545  )
         4           I   tau(   4) = (   0.6811313   0.0703345   0.1666035  )

     number of k points=   106  gaussian smearing, width (Ry)=  0.1000

     Number of k-points >= 100: set verbosity='high' to print them.

     Largest allocated arrays     est. size (Mb)     dimensions
     Largest temporary arrays     est. size (Mb)     dimensions

     Initial potential from superposition of free atoms

     Starting from uniform charge
     Starting wfc are    0 randomized atomic wfcs

     Writing output data file Prototype-La-oS8-TlI.save

     Self-consistent Calculation

[...]

     iteration #  8     ecut=    40.00 Ry     beta=0.70
     CG style diagonalization
     c_bands:  1 eigenvalues not converged
     c_bands:  1 eigenvalues not converged
     c_bands:  1 eigenvalues not converged
     c_bands:  1 eigenvalues not converged
     c_bands:  1 eigenvalues not converged
     ethr =  6.82E-06,  avg # of iterations =  4.1

[...]

     total energy              =   -1478.08429184 Ry
     Harris-Foulkes estimate   =   -1478.08440716 Ry
     estimated scf accuracy    <       0.00020667 Ry

     iteration # 10     ecut=    40.00 Ry     beta=0.70
     CG style diagonalization
     ethr =  2.25E-07,  avg # of iterations =  3.5

     End of self-consistent calculation

     Number of k-points >= 100: set verbosity='high' to print the bands.

     the Fermi energy is    19.6747 ev

!    total energy              =   -1478.08433591 Ry
     Harris-Foulkes estimate   =   -1478.08434547 Ry
     estimated scf accuracy    <       0.00001146 Ry

     The total energy is the sum of the following terms:

     one-electron contribution =    -660.64255501 Ry
     hartree contribution      =     342.75722674 Ry
     xc contribution           =    -118.44841938 Ry
     ewald contribution        =   -1041.63990594 Ry
     smearing contrib. (-TS)   =      -0.11068232 Ry

     convergence has been achieved in  10 iterations

     Forces acting on atoms (Ry/au):

     atom    1 type  1   force =     0.03153706   -0.01276493    0.00687592
     atom    2 type  1   force =    -0.03153706    0.01276493   -0.00687592
     atom    3 type  2   force =    -0.03598911    0.01185055    0.00489257
     atom    4 type  2   force =     0.03598911   -0.01185055   -0.00489257

     Total force =     0.072999     Total SCF correction =     0.000000

     entering subroutine stress ...

          total   stress  (Ry/bohr**3)                   (kbar)     P= -433.29
  -0.00304200  -0.00001129  -0.00000094       -447.49     -1.66     -0.14
  -0.00001129  -0.00306700   0.00000045         -1.66   -451.17      0.07
  -0.00000094   0.00000045  -0.00272730         -0.14      0.07   -401.20

     Writing output data file Prototype-La-oS8-TlI.save

     General routines

     Parallel routines

   This run was terminated on:  13: 4:49  22Mar2018

   JOB DONE.