     Program PWSCF v.5.0.2 starts on 22Mar2018 at 17:30:51

     Current dimensions of program PWSCF are:
     Max number of different atomic species (ntypx) = 10
     Max number of k-points (npk) =  40000
     Max angular momentum in pseudopotentials (lmaxx) =  3
     Waiting for input...
     Reading input from standard input

     Subspace diagonalization in iterative solution of the eigenvalue problem:
     a serial algorithm will be used

     bravais-lattice index     =            0
     lattice parameter (alat)  =      12.0168  a.u.
     unit-cell volume          =    1187.3413 (a.u.)^3
     number of atoms/cell      =            8
     number of atomic types    =            2
     number of electrons       =       108.00
     number of Kohn-Sham states=           65
     kinetic-energy cutoff     =      40.0000  Ry
     charge density cutoff     =     160.0000  Ry
     convergence threshold     =      1.0E-04
     mixing beta               =       0.7000
     number of iterations used =            8  plain     mixing
     Exchange-correlation      = SLA-PZ-NOGX-NOGC ( 1 1 0 0 0)
     EXX-fraction              =        0.00
     nstep                     =           50

     celldm(1)=  12.016801  celldm(2)=   0.000000  celldm(3)=   0.000000
     celldm(4)=   0.000000  celldm(5)=   0.000000  celldm(6)=   0.000000

     crystal axes: (cart. coord. in units of alat)
               a(1) = (   1.000000   0.000000   0.000000 )
               a(2) = (  -0.500000   0.866025   0.000000 )
               a(3) = (   0.000000   0.000000   0.790093 )

     reciprocal axes: (cart. coord. in units 2 pi/alat)
               b(1) = (  1.000000  0.577350  0.000000 )
               b(2) = (  0.000000  1.154701  0.000000 )
               b(3) = (  0.000000  0.000000  1.265674 )

     PseudoPot. # 1 for Nd read from file:
     /home/cwx6513/pp.La/Nd.UPF
     MD5 check sum: c66c5b6abe7b5840ced9b1e244e3bed6
     Pseudo is Norm-conserving, Zval = 14.0
     Generated in analytical, separable form
     Using radial grid of 1257 points,  6 beta functions with:
                l(1) =   0
                l(2) =   0
                l(3) =   1
                l(4) =   1
                l(5) =   2
                l(6) =   3

     PseudoPot. # 2 for Ce read from file:
     /home/cwx6513/pp.La/Ce.UPF
     MD5 check sum: 44451aa79a44a00cf2bc029dc19922f6
     Pseudo is Norm-conserving, Zval = 12.0
     Generated in analytical, separable form
     Using radial grid of 1255 points,  6 beta functions with:
                l(1) =   0
                l(2) =   0
                l(3) =   1
                l(4) =   1
                l(5) =   2
                l(6) =   3

     atomic species   valence    mass     pseudopotential
        Mg            14.00    24.30500     Nd( 1.00)
        Cd            12.00   112.41100     Ce( 1.00)

     24 Sym. Ops., with inversion, found (12 have fractional translation)

   Cartesian axes

     site n.     atom                  positions (alat units)
         1           Mg  tau(   1) = (   0.2478935   0.7204716   0.1975233  )
         2           Mg  tau(   2) = (   0.7478935   0.1455538   0.5925699  )
         3           Mg  tau(   3) = (   0.2521065   0.1455538   0.5925699  )
         4           Mg  tau(   4) = (  -0.2478935   0.7204716   0.1975233  )
         5           Mg  tau(   5) = (   0.0000000   0.2911075   0.1975233  )
         6           Mg  tau(   6) = (   0.5000000   0.5749179   0.5925699  )
         7           Cd  tau(   7) = (   0.5000005   0.2886748   0.1975233  )
         8           Cd  tau(   8) = (  -0.0000005   0.5773506   0.5925699  )

     number of k points=    64  gaussian smearing, width (Ry)=  0.1000
                       cart. coord. in units 2pi/alat
        k(    1) = (   0.0000000   0.0000000   0.0000000), wk =   0.0095238
        k(    2) = (   0.0000000   0.0000000   0.1808105), wk =   0.0190476
        k(    3) = (   0.0000000   0.0000000   0.3616210), wk =   0.0190476
        k(    4) = (   0.0000000   0.0000000   0.5424315), wk =   0.0190476
        k(    5) = (   0.0000000   0.1924501   0.0000000), wk =   0.0190476
        k(    6) = (   0.0000000   0.1924501   0.1808105), wk =   0.0380952
        k(    7) = (   0.0000000   0.1924501   0.3616210), wk =   0.0380952
        k(    8) = (   0.0000000   0.1924501   0.5424315), wk =   0.0380952
        k(    9) = (   0.0000000   0.3849002   0.0000000), wk =   0.0190476
        k(   10) = (   0.0000000   0.3849002   0.1808105), wk =   0.0380952
        k(   11) = (   0.0000000   0.3849002   0.3616210), wk =   0.0380952
        k(   12) = (   0.0000000   0.3849002   0.5424315), wk =   0.0380952
        k(   13) = (   0.0000000  -0.5773503   0.0000000), wk =   0.0095238
        k(   14) = (   0.0000000  -0.5773503   0.1808105), wk =   0.0190476
        k(   15) = (   0.0000000  -0.5773503   0.3616210), wk =   0.0190476
        k(   16) = (   0.0000000  -0.5773503   0.5424315), wk =   0.0190476
        k(   17) = (   0.2000000   0.1154701   0.0000000), wk =   0.0190476
        k(   18) = (   0.2000000   0.1154701   0.1808105), wk =   0.0380952
        k(   19) = (   0.2000000   0.1154701   0.3616210), wk =   0.0380952
        k(   20) = (   0.2000000   0.1154701   0.5424315), wk =   0.0380952
        k(   21) = (   0.2000000   0.3079201   0.0000000), wk =   0.0190476
        k(   22) = (   0.2000000   0.3079201   0.1808105), wk =   0.0380952
        k(   23) = (   0.2000000   0.3079201   0.3616210), wk =   0.0380952
        k(   24) = (   0.2000000   0.3079201   0.5424315), wk =   0.0380952
        k(   25) = (   0.2000000   0.5003702   0.0000000), wk =   0.0190476
        k(   26) = (   0.2000000   0.5003702   0.1808105), wk =   0.0380952
        k(   27) = (   0.2000000   0.5003702   0.3616210), wk =   0.0380952
        k(   28) = (   0.2000000   0.5003702   0.5424315), wk =   0.0380952
        k(   29) = (   0.2000000  -0.4618802   0.0000000), wk =   0.0190476
        k(   30) = (   0.2000000  -0.4618802   0.1808105), wk =   0.0380952
        k(   31) = (   0.2000000  -0.4618802   0.3616210), wk =   0.0380952
        k(   32) = (   0.2000000  -0.4618802   0.5424315), wk =   0.0380952
        k(   33) = (   0.2000000  -0.2694301   0.0000000), wk =   0.0190476
        k(   34) = (   0.2000000  -0.2694301   0.1808105), wk =   0.0380952
        k(   35) = (   0.2000000  -0.2694301   0.3616210), wk =   0.0380952
        k(   36) = (   0.2000000  -0.2694301   0.5424315), wk =   0.0380952
        k(   37) = (   0.2000000  -0.0769800   0.0000000), wk =   0.0190476
        k(   38) = (   0.2000000  -0.0769800   0.1808105), wk =   0.0380952
        k(   39) = (   0.2000000  -0.0769800   0.3616210), wk =   0.0380952
        k(   40) = (   0.2000000  -0.0769800   0.5424315), wk =   0.0380952
        k(   41) = (   0.4000000   0.2309401   0.0000000), wk =   0.0190476
        k(   42) = (   0.4000000   0.2309401   0.1808105), wk =   0.0380952
        k(   43) = (   0.4000000   0.2309401   0.3616210), wk =   0.0380952
        k(   44) = (   0.4000000   0.2309401   0.5424315), wk =   0.0380952
        k(   45) = (   0.4000000   0.4233902   0.0000000), wk =   0.0190476
        k(   46) = (   0.4000000   0.4233902   0.1808105), wk =   0.0380952
        k(   47) = (   0.4000000   0.4233902   0.3616210), wk =   0.0380952
        k(   48) = (   0.4000000   0.4233902   0.5424315), wk =   0.0380952
        k(   49) = (   0.4000000   0.6158403   0.0000000), wk =   0.0190476
        k(   50) = (   0.4000000   0.6158403   0.1808105), wk =   0.0380952
        k(   51) = (   0.4000000   0.6158403   0.3616210), wk =   0.0380952
        k(   52) = (   0.4000000   0.6158403   0.5424315), wk =   0.0380952
        k(   53) = (   0.4000000  -0.3464102   0.0000000), wk =   0.0190476
        k(   54) = (   0.4000000  -0.3464102   0.1808105), wk =   0.0380952
        k(   55) = (   0.4000000  -0.3464102   0.3616210), wk =   0.0380952
        k(   56) = (   0.4000000  -0.3464102   0.5424315), wk =   0.0380952
        k(   57) = (   0.4000000  -0.1539601   0.0000000), wk =   0.0190476
        k(   58) = (   0.4000000  -0.1539601   0.1808105), wk =   0.0380952
        k(   59) = (   0.4000000  -0.1539601   0.3616210), wk =   0.0380952
        k(   60) = (   0.4000000  -0.1539601   0.5424315), wk =   0.0380952
        k(   61) = (   0.4000000   0.0384900   0.0000000), wk =   0.0190476
        k(   62) = (   0.4000000   0.0384900   0.1808105), wk =   0.0380952
        k(   63) = (   0.4000000   0.0384900   0.3616210), wk =   0.0380952
        k(   64) = (   0.4000000   0.0384900   0.5424315), wk =   0.0380952

     Largest allocated arrays     est. size (Mb)     dimensions
     Largest temporary arrays     est. size (Mb)     dimensions

     Initial potential from superposition of free atoms

     Starting from uniform charge
     Starting wfc are    0 randomized atomic wfcs

     Self-consistent Calculation

     iteration #  1     ecut=    40.00 Ry     beta=0.70
     CG style diagonalization
     ethr =  1.00E-02,  avg # of iterations =  9.0

     total energy              =    -760.43521807 Ry
     Harris-Foulkes estimate   =    -916.41036521 Ry
     estimated scf accuracy    <     212.88121856 Ry

[...]

     iteration #  3     ecut=    40.00 Ry     beta=0.70
     CG style diagonalization
     c_bands:  1 eigenvalues not converged
     c_bands:  1 eigenvalues not converged
     ethr =  1.00E-02,  avg # of iterations =  8.5

[...]

     End of self-consistent calculation

          k = 0.0000 0.0000 0.0000 (  5047 PWs)   bands (ev):

   -26.9964 -26.7694 -26.7693 -26.7339 -26.6433 -26.6432 -16.5831 -16.5786
    -6.0482  -6.0456  -5.6815  -5.6159  -5.6158  -5.4374  -5.4374  -5.4255
    -5.4255  -5.0314  -4.7414  -4.7414  -4.5804  -4.5328  -4.5328  -4.5297
    -4.5297  -4.4725   1.4390   1.4707   1.5440   1.5440   1.5646   1.5646
    15.8009  15.9920  15.9921  16.0572  16.2425  16.8965  16.8966  16.9935
    17.2655  17.2655  17.4842  19.1235  19.5117  19.5117  19.9368  19.9368
    20.1487  20.8505  20.8505  21.1058  21.2556  21.2557  21.4186  21.4187
    21.5249  21.5249  21.7283  21.7283  21.9218  22.3251  24.3818  24.9932
    25.0602

[...]

     the Fermi energy is    20.8126 ev

!    total energy              =    -817.00633910 Ry
     Harris-Foulkes estimate   =    -817.00634333 Ry
     estimated scf accuracy    <       0.00000536 Ry

     The total energy is the sum of the following terms:

     one-electron contribution =       9.98635058 Ry
     hartree contribution      =      69.40903811 Ry
     xc contribution           =     -98.85257354 Ry
     ewald contribution        =    -796.90476870 Ry
     smearing contrib. (-TS)   =      -0.64438555 Ry

     convergence has been achieved in  10 iterations

     Forces acting on atoms (Ry/au):

     atom    1 type  1   force =     0.02891209    0.01669240    0.00000000
     atom    2 type  1   force =     0.02891209   -0.01669240    0.00000000
     atom    3 type  1   force =    -0.02891209   -0.01669240    0.00000000
     atom    4 type  1   force =    -0.02891209    0.01669240    0.00000000
     atom    5 type  1   force =     0.00000000   -0.03338480    0.00000000
[...]
        k(    9) = (   0.0000000   0.3822572   0.0000000), wk =   0.0190476
        k(   10) = (   0.0000000   0.3822572   0.1779103), wk =   0.0380952
        k(   11) = (   0.0000000   0.3822572   0.3558206), wk =   0.0380952
        k(   12) = (   0.0000000   0.3822572   0.5337309), wk =   0.0380952
        k(   13) = (   0.0000000  -0.5733857   0.0000000), wk =   0.0095238
        k(   14) = (   0.0000000  -0.5733857   0.1779103), wk =   0.0190476
        k(   15) = (   0.0000000  -0.5733857   0.3558206), wk =   0.0190476
        k(   16) = (   0.0000000  -0.5733857   0.5337309), wk =   0.0190476
        k(   17) = (   0.1986266   0.1146771   0.0000000), wk =   0.0190476
        k(   18) = (   0.1986266   0.1146771   0.1779103), wk =   0.0380952
        k(   19) = (   0.1986266   0.1146771   0.3558206), wk =   0.0380952
        k(   20) = (   0.1986266   0.1146771   0.5337309), wk =   0.0380952
        k(   21) = (   0.1986266   0.3058057   0.0000000), wk =   0.0190476
        k(   22) = (   0.1986266   0.3058057   0.1779103), wk =   0.0380952
        k(   23) = (   0.1986266   0.3058057   0.3558206), wk =   0.0380952
        k(   24) = (   0.1986266   0.3058057   0.5337309), wk =   0.0380952
        k(   25) = (   0.1986266   0.4969343   0.0000000), wk =   0.0190476
        k(   26) = (   0.1986266   0.4969343   0.1779103), wk =   0.0380952
        k(   27) = (   0.1986266   0.4969343   0.3558206), wk =   0.0380952
        k(   28) = (   0.1986266   0.4969343   0.5337309), wk =   0.0380952
        k(   29) = (   0.1986266  -0.4587086   0.0000000), wk =   0.0190476
        k(   30) = (   0.1986266  -0.4587086   0.1779103), wk =   0.0380952
        k(   31) = (   0.1986266  -0.4587086   0.3558206), wk =   0.0380952
        k(   32) = (   0.1986266  -0.4587086   0.5337309), wk =   0.0380952
        k(   33) = (   0.1986266  -0.2675800   0.0000000), wk =   0.0190476
        k(   34) = (   0.1986266  -0.2675800   0.1779103), wk =   0.0380952
        k(   35) = (   0.1986266  -0.2675800   0.3558206), wk =   0.0380952
        k(   36) = (   0.1986266  -0.2675800   0.5337309), wk =   0.0380952
        k(   37) = (   0.1986266  -0.0764514   0.0000000), wk =   0.0190476
        k(   38) = (   0.1986266  -0.0764514   0.1779103), wk =   0.0380952
        k(   39) = (   0.1986266  -0.0764514   0.3558206), wk =   0.0380952
        k(   40) = (   0.1986266  -0.0764514   0.5337309), wk =   0.0380952
        k(   41) = (   0.3972533   0.2293543   0.0000000), wk =   0.0190476
        k(   42) = (   0.3972533   0.2293543   0.1779103), wk =   0.0380952
        k(   43) = (   0.3972533   0.2293543   0.3558206), wk =   0.0380952
        k(   44) = (   0.3972533   0.2293543   0.5337309), wk =   0.0380952
        k(   45) = (   0.3972533   0.4204829   0.0000000), wk =   0.0190476
        k(   46) = (   0.3972533   0.4204829   0.1779103), wk =   0.0380952
        k(   47) = (   0.3972533   0.4204829   0.3558206), wk =   0.0380952
        k(   48) = (   0.3972533   0.4204829   0.5337309), wk =   0.0380952
        k(   49) = (   0.3972533   0.6116115   0.0000000), wk =   0.0190476
        k(   50) = (   0.3972533   0.6116115   0.1779103), wk =   0.0380952
        k(   51) = (   0.3972533   0.6116115   0.3558206), wk =   0.0380952
        k(   52) = (   0.3972533   0.6116115   0.5337309), wk =   0.0380952
        k(   53) = (   0.3972533  -0.3440314   0.0000000), wk =   0.0190476
        k(   54) = (   0.3972533  -0.3440314   0.1779103), wk =   0.0380952
        k(   55) = (   0.3972533  -0.3440314   0.3558206), wk =   0.0380952
        k(   56) = (   0.3972533  -0.3440314   0.5337309), wk =   0.0380952
        k(   57) = (   0.3972533  -0.1529029   0.0000000), wk =   0.0190476
        k(   58) = (   0.3972533  -0.1529029   0.1779103), wk =   0.0380952
        k(   59) = (   0.3972533  -0.1529029   0.3558206), wk =   0.0380952
        k(   60) = (   0.3972533  -0.1529029   0.5337309), wk =   0.0380952
        k(   61) = (   0.3972533   0.0382257   0.0000000), wk =   0.0190476
        k(   62) = (   0.3972533   0.0382257   0.1779103), wk =   0.0380952
        k(   63) = (   0.3972533   0.0382257   0.3558206), wk =   0.0380952
        k(   64) = (   0.3972533   0.0382257   0.5337309), wk =   0.0380952

[...]

     The maximum number of steps has been reached.

     End of BFGS Geometry Optimization
Begin final coordinates
     new unit-cell volume =   1223.44130 a.u.^3 (   181.29529 Ang^3 )

CELL_PARAMETERS (alat= 12.01680127)
   1.006914249   0.000000000   0.000000000
  -0.503457124   0.872013319   0.000000000
   0.000000000   0.000000000   0.802972911

ATOMIC_POSITIONS (crystal)
Mg       0.670644316   0.835322158   0.250000000
Mg       0.835322158   0.164677842   0.750000000
Mg       0.329355684   0.164677842   0.750000000
Mg       0.164677842   0.835322158   0.250000000
Mg       0.164677842   0.329355684   0.250000000
Mg       0.835322158   0.670644316   0.750000000
Cd       0.666667000   0.333333000   0.250000000
Cd       0.333333000   0.666667000   0.750000000
End final coordinates

     A final scf calculation at the relaxed structure.
     The G-vectors are recalculated for the final unit cell
     Results may differ from those at the preceding step.

     bravais-lattice index     =            0
     lattice parameter (alat)  =      12.0168  a.u.
     unit-cell volume          =    1223.4413 (a.u.)^3
     number of atoms/cell      =            8
     number of atomic types    =            2
     number of electrons       =       108.00
     number of Kohn-Sham states=           65
     kinetic-energy cutoff     =      40.0000  Ry
     charge density cutoff     =     160.0000  Ry
     convergence threshold     =      1.3E-05
     mixing beta               =       0.7000
     number of iterations used =            8  plain     mixing
     Exchange-correlation      = SLA-PZ-NOGX-NOGC ( 1 1 0 0 0)
     EXX-fraction              =        0.00

     celldm(1)=  12.016801  celldm(2)=   0.000000  celldm(3)=   0.000000
     celldm(4)=   0.000000  celldm(5)=   0.000000  celldm(6)=   0.000000

     crystal axes: (cart. coord. in units of alat)
               a(1) = (   1.006914   0.000000   0.000000 )
               a(2) = (  -0.503457   0.872013   0.000000 )
               a(3) = (   0.000000   0.000000   0.802973 )

     reciprocal axes: (cart. coord. in units 2 pi/alat)
               b(1) = (  0.993133  0.573386  0.000000 )
               b(2) = (  0.000000  1.146771  0.000000 )
               b(3) = (  0.000000  0.000000  1.245372 )

     PseudoPot. # 1 for Nd read from file:
     /home/cwx6513/pp.La/Nd.UPF
     MD5 check sum: c66c5b6abe7b5840ced9b1e244e3bed6
     Pseudo is Norm-conserving, Zval = 14.0
     Generated in analytical, separable form
     Using radial grid of 1257 points,  6 beta functions with:
                l(1) =   0
                l(2) =   0
                l(3) =   1
                l(4) =   1
                l(5) =   2
                l(6) =   3

     PseudoPot. # 2 for Ce read from file:
     /home/cwx6513/pp.La/Ce.UPF
     MD5 check sum: 44451aa79a44a00cf2bc029dc19922f6
     Pseudo is Norm-conserving, Zval = 12.0
     Generated in analytical, separable form
     Using radial grid of 1255 points,  6 beta functions with:
                l(1) =   0
                l(2) =   0
                l(3) =   1
                l(4) =   1
                l(5) =   2
                l(6) =   3

     atomic species   valence    mass     pseudopotential
        Mg            14.00    24.30500     Nd( 1.00)
        Cd            12.00   112.41100     Ce( 1.00)

     24 Sym. Ops., with inversion, found (12 have fractional translation)

   Cartesian axes

     site n.     atom                  positions (alat units)
         1           Mg  tau(   1) = (   0.2547324   0.7284120   0.2007432  )
         2           Mg  tau(   2) = (   0.7581896   0.1436013   0.6022297  )
         3           Mg  tau(   3) = (   0.2487247   0.1436013   0.6022297  )
         4           Mg  tau(   4) = (  -0.2547324   0.7284120   0.2007432  )
         5           Mg  tau(   5) = (   0.0000000   0.2872025   0.2007432  )
         6           Mg  tau(   6) = (   0.5034571   0.5848108   0.6022297  )
         7           Cd  tau(   7) = (   0.5034576   0.2906708   0.2007432  )
         8           Cd  tau(   8) = (  -0.0000005   0.5813425   0.6022297  )

     number of k points=    64  gaussian smearing, width (Ry)=  0.1000
                       cart. coord. in units 2pi/alat
        k(    1) = (   0.0000000   0.0000000   0.0000000), wk =   0.0095238
        k(    2) = (   0.0000000   0.0000000   0.1779103), wk =   0.0190476
        k(    3) = (   0.0000000   0.0000000   0.3558206), wk =   0.0190476
        k(    4) = (   0.0000000   0.0000000   0.5337309), wk =   0.0190476
        k(    5) = (   0.0000000   0.1911286   0.0000000), wk =   0.0190476
        k(    6) = (   0.0000000   0.1911286   0.1779103), wk =   0.0380952
        k(    7) = (   0.0000000   0.1911286   0.3558206), wk =   0.0380952
        k(    8) = (   0.0000000   0.1911286   0.5337309), wk =   0.0380952
        k(    9) = (   0.0000000   0.3822572   0.0000000), wk =   0.0190476
        k(   10) = (   0.0000000   0.3822572   0.1779103), wk =   0.0380952
        k(   11) = (   0.0000000   0.3822572   0.3558206), wk =   0.0380952
        k(   12) = (   0.0000000   0.3822572   0.5337309), wk =   0.0380952
        k(   13) = (   0.0000000  -0.5733857   0.0000000), wk =   0.0095238
        k(   14) = (   0.0000000  -0.5733857   0.1779103), wk =   0.0190476
        k(   15) = (   0.0000000  -0.5733857   0.3558206), wk =   0.0190476
        k(   16) = (   0.0000000  -0.5733857   0.5337309), wk =   0.0190476
        k(   17) = (   0.1986266   0.1146771   0.0000000), wk =   0.0190476
        k(   18) = (   0.1986266   0.1146771   0.1779103), wk =   0.0380952
        k(   19) = (   0.1986266   0.1146771   0.3558206), wk =   0.0380952
        k(   20) = (   0.1986266   0.1146771   0.5337309), wk =   0.0380952
        k(   21) = (   0.1986266   0.3058057   0.0000000), wk =   0.0190476
        k(   22) = (   0.1986266   0.3058057   0.1779103), wk =   0.0380952
        k(   23) = (   0.1986266   0.3058057   0.3558206), wk =   0.0380952
        k(   24) = (   0.1986266   0.3058057   0.5337309), wk =   0.0380952
        k(   25) = (   0.1986266   0.4969343   0.0000000), wk =   0.0190476
        k(   26) = (   0.1986266   0.4969343   0.1779103), wk =   0.0380952
        k(   27) = (   0.1986266   0.4969343   0.3558206), wk =   0.0380952
        k(   28) = (   0.1986266   0.4969343   0.5337309), wk =   0.0380952
        k(   29) = (   0.1986266  -0.4587086   0.0000000), wk =   0.0190476
        k(   30) = (   0.1986266  -0.4587086   0.1779103), wk =   0.0380952
        k(   31) = (   0.1986266  -0.4587086   0.3558206), wk =   0.0380952
        k(   32) = (   0.1986266  -0.4587086   0.5337309), wk =   0.0380952
        k(   33) = (   0.1986266  -0.2675800   0.0000000), wk =   0.0190476
        k(   34) = (   0.1986266  -0.2675800   0.1779103), wk =   0.0380952
        k(   35) = (   0.1986266  -0.2675800   0.3558206), wk =   0.0380952
        k(   36) = (   0.1986266  -0.2675800   0.5337309), wk =   0.0380952
        k(   37) = (   0.1986266  -0.0764514   0.0000000), wk =   0.0190476
        k(   38) = (   0.1986266  -0.0764514   0.1779103), wk =   0.0380952
        k(   39) = (   0.1986266  -0.0764514   0.3558206), wk =   0.0380952
        k(   40) = (   0.1986266  -0.0764514   0.5337309), wk =   0.0380952
        k(   41) = (   0.3972533   0.2293543   0.0000000), wk =   0.0190476
        k(   42) = (   0.3972533   0.2293543   0.1779103), wk =   0.0380952
        k(   43) = (   0.3972533   0.2293543   0.3558206), wk =   0.0380952
        k(   44) = (   0.3972533   0.2293543   0.5337309), wk =   0.0380952
        k(   45) = (   0.3972533   0.4204829   0.0000000), wk =   0.0190476
        k(   46) = (   0.3972533   0.4204829   0.1779103), wk =   0.0380952
        k(   47) = (   0.3972533   0.4204829   0.3558206), wk =   0.0380952
        k(   48) = (   0.3972533   0.4204829   0.5337309), wk =   0.0380952
        k(   49) = (   0.3972533   0.6116115   0.0000000), wk =   0.0190476
        k(   50) = (   0.3972533   0.6116115   0.1779103), wk =   0.0380952
        k(   51) = (   0.3972533   0.6116115   0.3558206), wk =   0.0380952
        k(   52) = (   0.3972533   0.6116115   0.5337309), wk =   0.0380952
        k(   53) = (   0.3972533  -0.3440314   0.0000000), wk =   0.0190476
        k(   54) = (   0.3972533  -0.3440314   0.1779103), wk =   0.0380952
        k(   55) = (   0.3972533  -0.3440314   0.3558206), wk =   0.0380952
        k(   56) = (   0.3972533  -0.3440314   0.5337309), wk =   0.0380952
        k(   57) = (   0.3972533  -0.1529029   0.0000000), wk =   0.0190476
        k(   58) = (   0.3972533  -0.1529029   0.1779103), wk =   0.0380952
        k(   59) = (   0.3972533  -0.1529029   0.3558206), wk =   0.0380952
        k(   60) = (   0.3972533  -0.1529029   0.5337309), wk =   0.0380952
        k(   61) = (   0.3972533   0.0382257   0.0000000), wk =   0.0190476
        k(   62) = (   0.3972533   0.0382257   0.1779103), wk =   0.0380952
        k(   63) = (   0.3972533   0.0382257   0.3558206), wk =   0.0380952
        k(   64) = (   0.3972533   0.0382257   0.5337309), wk =   0.0380952

     Largest allocated arrays     est. size (Mb)     dimensions
     Largest temporary arrays     est. size (Mb)     dimensions

     Initial potential from superposition of free atoms

     Starting from uniform charge
     Starting wfc are    0 randomized atomic wfcs

     Writing output data file Prototype-La-hP8-Mg3Cd.save

     Self-consistent Calculation

[...]

     iteration #  9     ecut=    40.00 Ry     beta=0.70
     CG style diagonalization
     ethr =  1.28E-05,  avg # of iterations =  3.4

[...]

     total energy              =    -817.04813932 Ry
     Harris-Foulkes estimate   =    -817.04823133 Ry
     estimated scf accuracy    <       0.00021271 Ry

     iteration # 11     ecut=    40.00 Ry     beta=0.70
     CG style diagonalization
     c_bands:  1 eigenvalues not converged
     c_bands:  1 eigenvalues not converged
     ethr =  1.97E-07,  avg # of iterations =  4.1

     End of self-consistent calculation

[...]

          k = 0.3973 0.0382 0.5337 (  5222 PWs)   bands (ev):

   -27.5675 -27.5193 -27.4754 -27.4543 -27.4342 -27.4181 -17.3306 -17.3303
    -6.4971  -6.4767  -6.4329  -6.3891  -6.3348  -6.2964  -5.9253  -5.7963
    -5.7084  -5.6898  -5.5828  -5.5171  -5.4597  -5.4264  -5.3963  -5.3375
    -5.2894  -5.2759   0.7147   0.7197   0.7400   0.7439   0.7913   0.7927
    16.1388  16.2107  16.3411  16.5527  16.6063  16.8022  17.1815  17.3053
    17.3695  17.4429  17.6092  17.8719  17.9464  18.0466  18.2294  18.3496
    19.0565  19.1335  19.7631  19.8950  20.0032  20.1089  20.1598  20.3574
    20.4633  20.6133  21.2574  21.3296  21.4503  21.5232  21.8288  21.8518
    22.8242

     the Fermi energy is    20.1130 ev

!    total energy              =    -817.04820239 Ry
     Harris-Foulkes estimate   =    -817.04820345 Ry
     estimated scf accuracy    <       0.00000133 Ry

     The total energy is the sum of the following terms:

     one-electron contribution =      -1.68587620 Ry
     hartree contribution      =      72.35406731 Ry
     xc contribution           =     -98.52780643 Ry
     ewald contribution        =    -788.52320883 Ry
     smearing contrib. (-TS)   =      -0.66537823 Ry

     convergence has been achieved in  11 iterations

     Forces acting on atoms (Ry/au):

     atom    1 type  1   force =     0.00962123    0.00555482    0.00000000
     atom    2 type  1   force =     0.00962123   -0.00555482    0.00000000
     atom    3 type  1   force =    -0.00962123   -0.00555482    0.00000000
     atom    4 type  1   force =    -0.00962123    0.00555482    0.00000000
     atom    5 type  1   force =     0.00000000   -0.01110964    0.00000000
     atom    6 type  1   force =     0.00000000    0.01110964    0.00000000
     atom    7 type  2   force =     0.00000000    0.00000000    0.00000000
     atom    8 type  2   force =     0.00000000    0.00000000    0.00000000

     Total force =     0.027213     Total SCF correction =     0.000000

     entering subroutine stress ...

          total   stress  (Ry/bohr**3)                   (kbar)     P=   12.91
   0.00005372   0.00000000   0.00000000          7.90      0.00      0.00
   0.00000000   0.00005372   0.00000000          0.00      7.90      0.00
   0.00000000   0.00000000   0.00015585          0.00      0.00     22.93

     Writing output data file Prototype-La-hP8-Mg3Cd.save

     General routines

     Parallel routines

   This run was terminated on:  18: 1:43  22Mar2018

   JOB DONE.