     Program PWSCF v.5.0.2 starts on 22Mar2018 at 17:30:53

     Current dimensions of program PWSCF are:
     Max number of different atomic species (ntypx) = 10
     Max number of k-points (npk) =  40000
     Max angular momentum in pseudopotentials (lmaxx) =  3
     Waiting for input...
     Reading input from standard input

     Subspace diagonalization in iterative solution of the eigenvalue problem:
     a serial algorithm will be used

     bravais-lattice index     =            0
     lattice parameter (alat)  =       7.0151  a.u.
     unit-cell volume          =     862.2778 (a.u.)^3
     number of atoms/cell      =           12
     number of atomic types    =            2
     number of electrons       =       160.00
     number of Kohn-Sham states=           96
     kinetic-energy cutoff     =      40.0000  Ry
     charge density cutoff     =     160.0000  Ry
     convergence threshold     =      1.0E-04
     mixing beta               =       0.7000
     number of iterations used =            8  plain     mixing
     Exchange-correlation      = SLA-PZ-NOGX-NOGC ( 1 1 0 0 0)
     EXX-fraction              =        0.00
     nstep                     =           50

     celldm(1)=   7.015105  celldm(2)=   0.000000  celldm(3)=   0.000000
     celldm(4)=   0.000000  celldm(5)=   0.000000  celldm(6)=   0.000000

     crystal axes: (cart. coord. in units of alat)
               a(1) = (   1.000000   0.000000   0.000000 )
               a(2) = (   0.000000   1.315963   0.000000 )
               a(3) = (   0.000000   0.000000   1.898020 )

     reciprocal axes: (cart. coord. in units 2 pi/alat)
               b(1) = (  1.000000  0.000000  0.000000 )
               b(2) = (  0.000000  0.759900  0.000000 )
               b(3) = (  0.000000  0.000000  0.526865 )

     PseudoPot. # 1 for Nd read from file:
     /home/cwx6513/pp.La/Nd.UPF
     MD5 check sum: c66c5b6abe7b5840ced9b1e244e3bed6
     Pseudo is Norm-conserving, Zval = 14.0
     Generated in analytical, separable form
     Using radial grid of 1257 points,  6 beta functions with:
                l(1) =   0
                l(2) =   0
                l(3) =   1
                l(4) =   1
                l(5) =   2
                l(6) =   3

     PseudoPot. # 2 for Ce read from file:
     /home/cwx6513/pp.La/Ce.UPF
     MD5 check sum: 44451aa79a44a00cf2bc029dc19922f6
     Pseudo is Norm-conserving, Zval = 12.0
     Generated in analytical, separable form
     Using radial grid of 1255 points,  6 beta functions with:
                l(1) =   0
                l(2) =   0
                l(3) =   1
                l(4) =   1
                l(5) =   2
                l(6) =   3

     atomic species   valence    mass     pseudopotential
        Co            14.00    58.93320     Nd( 1.00)
        Si            12.00    28.08550     Ce( 1.00)

      8 Sym. Ops., with inversion, found ( 6 have fractional translation)

   Cartesian axes

     site n.     atom                  positions (alat units)
         1           Co  tau(   1) = (   0.7500000   1.0875135   0.8270358  )
         2           Co  tau(   2) = (   0.2500000   0.2284499   1.0709846  )
         3           Co  tau(   3) = (   0.7500000   0.4295318   0.1219744  )
         4           Co  tau(   4) = (   0.2500000   0.8864316   1.7760460  )
         5           Co  tau(   5) = (   0.2500000   0.7067855   0.5358966  )
         6           Co  tau(   6) = (   0.7500000   0.6091779   1.3621238  )
         7           Co  tau(   7) = (   0.2500000   0.0488038   0.4131136  )
         8           Co  tau(   8) = (   0.7500000   1.2671596   1.4849068  )
         9           Si  tau(   9) = (   0.2500000   0.2669484   1.6960710  )
        10           Si  tau(  10) = (   0.7500000   1.0490149   0.2019494  )
        11           Si  tau(  11) = (   0.2500000   0.9249301   1.1509596  )
        12           Si  tau(  12) = (   0.7500000   0.3910333   0.7470608  )

     number of k points=    12  gaussian smearing, width (Ry)=  0.1000
                       cart. coord. in units 2pi/alat
        k(    1) = (   0.0000000   0.0000000   0.0000000), wk =   0.0833333
        k(    2) = (   0.0000000   0.0000000   0.1317162), wk =   0.1666667
        k(    3) = (   0.0000000   0.0000000  -0.2634324), wk =   0.0833333
        k(    4) = (   0.0000000   0.2532999   0.0000000), wk =   0.1666667
        k(    5) = (   0.0000000   0.2532999   0.1317162), wk =   0.3333333
        k(    6) = (   0.0000000   0.2532999  -0.2634324), wk =   0.1666667
        k(    7) = (  -0.5000000   0.0000000   0.0000000), wk =   0.0833333
        k(    8) = (  -0.5000000   0.0000000   0.1317162), wk =   0.1666667
        k(    9) = (  -0.5000000   0.0000000  -0.2634324), wk =   0.0833333
        k(   10) = (  -0.5000000   0.2532999   0.0000000), wk =   0.1666667
        k(   11) = (  -0.5000000   0.2532999   0.1317162), wk =   0.3333333
        k(   12) = (  -0.5000000   0.2532999  -0.2634324), wk =   0.1666667

     Largest allocated arrays     est. size (Mb)     dimensions
     Largest temporary arrays     est. size (Mb)     dimensions

     Initial potential from superposition of free atoms

     Starting from uniform charge
     Starting wfc are    0 randomized atomic wfcs

     Self-consistent Calculation

     iteration #  1     ecut=    40.00 Ry     beta=0.70
     CG style diagonalization
     ethr =  1.00E-02,  avg # of iterations = 11.1

     total energy              =   -1157.94565342 Ry
     Harris-Foulkes estimate   =   -1216.33939649 Ry
     estimated scf accuracy    <      86.16943719 Ry

[...]

     iteration #  5     ecut=    40.00 Ry     beta=0.70
     CG style diagonalization
     c_bands:  1 eigenvalues not converged
     c_bands:  1 eigenvalues not converged
     ethr =  3.08E-04,  avg # of iterations =  4.6

[...]

     End of self-consistent calculation

          k = 0.0000 0.0000 0.0000 (  3675 PWs)   bands (ev):

    -6.9673  -5.4106  -5.3065  -4.3215  -3.9782  -3.7665  -3.5468  -3.4821
     4.4892   4.5690   4.8308   6.4251  11.4662  12.7346  12.9581  13.2227
    13.7614  13.8545  13.8869  13.9761  14.3455  15.4668  15.5231  15.7457
    16.2194  16.2969  16.3159  16.4817  17.0767  17.4753  17.6817  17.8745
    17.9106  18.4806  19.2713  19.7578  22.5980  23.4217  24.0679  24.2013
    24.6256  24.7438  25.3803  25.5744  25.8359  26.0337  26.1330  26.3594
    33.4070  33.7224  34.5207  34.8737  35.1062  35.2461  35.7327  36.2481
    36.2718  37.2538  38.0698  38.4470  39.0578  39.5428  39.6746  41.0451
    41.1071  41.1921  41.8188  41.9839  42.2120  42.5719  42.7406  43.0856
    43.6906  43.7692  44.7799  45.0151  45.2162  45.2676  45.6476  46.1923
    46.5761  47.2704  47.3375  47.6367  47.7307  48.1029  48.2000  48.2852
    49.2632  49.4389  50.1425  50.1754  50.4222  50.5651  50.6445  51.3682

[...]

          k =-0.5000 0.0000 0.0000 (  3722 PWs)   bands (ev):

[...]

     the Fermi energy is    45.7419 ev

!    total energy              =   -1180.78702707 Ry
     Harris-Foulkes estimate   =   -1180.78705827 Ry
     estimated scf accuracy    <       0.00004012 Ry

     The total energy is the sum of the following terms:

     one-electron contribution =     432.91228729 Ry
     hartree contribution      =      33.23150752 Ry
     xc contribution           =    -163.05653930 Ry
     ewald contribution        =   -1483.51207714 Ry
     smearing contrib. (-TS)   =      -0.36220545 Ry

     convergence has been achieved in   8 iterations

     Forces acting on atoms (Ry/au):

     atom    1 type  1   force =     0.00000000   -0.03047416   -0.06880776
     atom    2 type  1   force =     0.00000000    0.03047416    0.06880776
     atom    3 type  1   force =     0.00000000   -0.03047416    0.06880776
     atom    4 type  1   force =     0.00000000    0.03047416   -0.06880776
     atom    5 type  1   force =     0.00000000    0.07639742   -0.18065149
     atom    6 type  1   force =     0.00000000   -0.07639742    0.18065149
     atom    7 type  1   force =     0.00000000    0.07639742    0.18065149
     atom    8 type  1   force =     0.00000000   -0.07639742   -0.18065149
     atom    9 type  2   force =     0.00000000   -0.18705562    0.00924253
     atom   10 type  2   force =     0.00000000    0.18705562   -0.00924253
     atom   11 type  2   force =     0.00000000   -0.18705562   -0.00924253
     atom   12 type  2   force =     0.00000000    0.18705562    0.00924253

     Total force =     0.562885     Total SCF correction =     0.000000

     entering subroutine stress ...

          total   stress  (Ry/bohr**3)                   (kbar)     P= 6198.77
   0.04181166   0.00000000   0.00000000       6150.71      0.00      0.00
   0.00000000   0.04131689   0.00000000          0.00   6077.92      0.00
   0.00000000   0.00000000   0.04328657          0.00      0.00   6367.67

     BFGS Geometry Optimization

     number of scf cycles    =   1
     number of bfgs steps    =   0

     enthalpy new            =   -1180.7870270736 Ry

     new trust radius        =       0.5000000000 bohr
     new conv_thr            =       0.0001000000 Ry

     new unit-cell volume =   1094.92583 a.u.^3 (   162.25127 Ang^3 )

CELL_PARAMETERS (alat=  7.01510508)
   1.082235742   0.000000000   0.000000000
   0.000000000   1.422902004   0.000000000
   0.000000000   0.000000000   2.059611444

ATOMIC_POSITIONS (crystal)
Co       0.750000000   0.826141297   0.435329439
Co       0.250000000   0.173858703   0.564670561
Co       0.750000000   0.326141297   0.064670561
Co       0.250000000   0.673858703   0.935329439
Co       0.250000000   0.537737064   0.281277594
Co       0.750000000   0.462262936   0.718722406
Co       0.250000000   0.037737064   0.218722406
Co       0.750000000   0.962262936   0.781277594
Si       0.250000000   0.201259899   0.893654611
Si       0.750000000   0.798740101   0.106345389
Si       0.250000000   0.701259899   0.606345389
Si       0.750000000   0.298740101   0.393654611

     Writing output data file Prototype-La-oP12-Co2Si.save
     NEW-OLD atomic charge density approx. for the potential
     NEW k-points:
        k(    1) = (   0.0000000   0.0000000   0.0000000), wk =   0.0833333
        k(    2) = (   0.0000000   0.0000000   0.1213821), wk =   0.1666667
        k(    3) = (   0.0000000   0.0000000  -0.2427642), wk =   0.0833333
        k(    4) = (   0.0000000   0.2342630   0.0000000), wk =   0.1666667
        k(    5) = (   0.0000000   0.2342630   0.1213821), wk =   0.3333333
        k(    6) = (   0.0000000   0.2342630  -0.2427642), wk =   0.1666667
        k(    7) = (  -0.4620065   0.0000000   0.0000000), wk =   0.0833333
        k(    8) = (  -0.4620065   0.0000000   0.1213821), wk =   0.1666667
        k(    9) = (  -0.4620065   0.0000000  -0.2427642), wk =   0.0833333
        k(   10) = (  -0.4620065   0.2342630   0.0000000), wk =   0.1666667
        k(   11) = (  -0.4620065   0.2342630   0.1213821), wk =   0.3333333
        k(   12) = (  -0.4620065   0.2342630  -0.2427642), wk =   0.1666667

[...]

     enthalpy old            =   -1180.7870270736 Ry
     enthalpy new            =   -1187.1138137648 Ry

     CASE: enthalpy_new < enthalpy_old

     small trust_radius: resetting bfgs history

     new trust radius        =       2.6385070541 bohr
     new conv_thr            =       0.0001000000 Ry

[...]

          total   stress  (Ry/bohr**3)                   (kbar)     P=-1127.77
  -0.00763375   0.00000000   0.00000000      -1122.96      0.00      0.00
   0.00000000  -0.00766606   0.00000000          0.00  -1127.72      0.00
   0.00000000   0.00000000  -0.00769952          0.00      0.00  -1132.64

     number of scf cycles    =   3
     number of bfgs steps    =   2

     enthalpy old            =   -1187.1138137648 Ry
     enthalpy new            =   -1179.8044301025 Ry

     CASE: enthalpy_new > enthalpy_old

     new trust radius        =       1.1500678237 bohr

     trust_radius < trust_radius_min

     resetting bfgs history

     Message from routine bfgs:
     history already reset at previous step: stopping
     new conv_thr            =       0.0001000000 Ry

     new unit-cell volume =   1316.72274 a.u.^3 (   195.11818 Ang^3 )

[...]

ATOMIC_POSITIONS (crystal)
Co       0.750000000   0.826010236   0.435180803
Co       0.250000000   0.173989764   0.564819197
Co       0.750000000   0.326010236   0.064819197
Co       0.250000000   0.673989764   0.935180803
Co       0.250000000   0.538016919   0.280538457
Co       0.750000000   0.461983081   0.719461543
Co       0.250000000   0.038016919   0.219461543
Co       0.750000000   0.961983081   0.780538457
Si       0.250000000   0.199964194   0.893916214
Si       0.750000000   0.800035806   0.106083786
Si       0.250000000   0.699964194   0.606083786
Si       0.750000000   0.300035806   0.393916214

     Writing output data file Prototype-La-oP12-Co2Si.save
     NEW-OLD atomic charge density approx. for the potential
     NEW k-points:
        k(    1) = (   0.0000000   0.0000000   0.0000000), wk =   0.0833333
        k(    2) = (   0.0000000   0.0000000   0.1140745), wk =   0.1666667
        k(    3) = (   0.0000000   0.0000000  -0.2281490), wk =   0.0833333
        k(    4) = (   0.0000000   0.2205263   0.0000000), wk =   0.1666667
        k(    5) = (   0.0000000   0.2205263   0.1140745), wk =   0.3333333
        k(    6) = (   0.0000000   0.2205263  -0.2281490), wk =   0.1666667
        k(    7) = (  -0.4342580   0.0000000   0.0000000), wk =   0.0833333
        k(    8) = (  -0.4342580   0.0000000   0.1140745), wk =   0.1666667
        k(    9) = (  -0.4342580   0.0000000  -0.2281490), wk =   0.0833333
        k(   10) = (  -0.4342580   0.2205263   0.0000000), wk =   0.1666667
        k(   11) = (  -0.4342580   0.2205263   0.1140745), wk =   0.3333333
        k(   12) = (  -0.4342580   0.2205263  -0.2281490), wk =   0.1666667

[...]

     The maximum number of steps has been reached.

     End of BFGS Geometry Optimization
Begin final coordinates
     new unit-cell volume =   1316.72274 a.u.^3 (   195.11818 Ang^3 )

CELL_PARAMETERS (alat=  7.01510508)
   1.151389193   0.000000000   0.000000000
   0.000000000   1.511535331   0.000000000
   0.000000000   0.000000000   2.191549790

ATOMIC_POSITIONS (crystal)
Co       0.750000000   0.826010236   0.435180803
Co       0.250000000   0.173989764   0.564819197
Co       0.750000000   0.326010236   0.064819197
Co       0.250000000   0.673989764   0.935180803
Co       0.250000000   0.538016919   0.280538457
Co       0.750000000   0.461983081   0.719461543
Co       0.250000000   0.038016919   0.219461543
Co       0.750000000   0.961983081   0.780538457
Si       0.250000000   0.199964194   0.893916214
Si       0.750000000   0.800035806   0.106083786
Si       0.250000000   0.699964194   0.606083786
Si       0.750000000   0.300035806   0.393916214
End final coordinates

     A final scf calculation at the relaxed structure.
     The G-vectors are recalculated for the final unit cell
     Results may differ from those at the preceding step.

     bravais-lattice index     =            0
     lattice parameter (alat)  =       7.0151  a.u.
     unit-cell volume          =    1316.7227 (a.u.)^3
     number of atoms/cell      =           12
     number of atomic types    =            2
     number of electrons       =       160.00
     number of Kohn-Sham states=           96
     kinetic-energy cutoff     =      40.0000  Ry
     charge density cutoff     =     160.0000  Ry
     convergence threshold     =      1.0E-04
     mixing beta               =       0.7000
     number of iterations used =            8  plain     mixing
     Exchange-correlation      = SLA-PZ-NOGX-NOGC ( 1 1 0 0 0)
     EXX-fraction              =        0.00

     celldm(1)=   7.015105  celldm(2)=   0.000000  celldm(3)=   0.000000
     celldm(4)=   0.000000  celldm(5)=   0.000000  celldm(6)=   0.000000

     crystal axes: (cart. coord. in units of alat)
               a(1) = (   1.151389   0.000000   0.000000 )
               a(2) = (   0.000000   1.511535   0.000000 )
               a(3) = (   0.000000   0.000000   2.191550 )

     reciprocal axes: (cart. coord. in units 2 pi/alat)
               b(1) = (  0.868516  0.000000  0.000000 )
               b(2) = (  0.000000  0.661579  0.000000 )
               b(3) = (  0.000000  0.000000  0.456298 )

     PseudoPot. # 1 for Nd read from file:
     /home/cwx6513/pp.La/Nd.UPF
     MD5 check sum: c66c5b6abe7b5840ced9b1e244e3bed6
     Pseudo is Norm-conserving, Zval = 14.0
     Generated in analytical, separable form
     Using radial grid of 1257 points,  6 beta functions with:
                l(1) =   0
                l(2) =   0
                l(3) =   1
                l(4) =   1
                l(5) =   2
                l(6) =   3

     PseudoPot. # 2 for Ce read from file:
     /home/cwx6513/pp.La/Ce.UPF
     MD5 check sum: 44451aa79a44a00cf2bc029dc19922f6
     Pseudo is Norm-conserving, Zval = 12.0
     Generated in analytical, separable form
     Using radial grid of 1255 points,  6 beta functions with:
                l(1) =   0
                l(2) =   0
                l(3) =   1
                l(4) =   1
                l(5) =   2
                l(6) =   3

     atomic species   valence    mass     pseudopotential
        Co            14.00    58.93320     Nd( 1.00)
        Si            12.00    28.08550     Ce( 1.00)

      8 Sym. Ops., with inversion, found ( 6 have fractional translation)

   Cartesian axes

     site n.     atom                  positions (alat units)
         1           Co  tau(   1) = (   0.8635419   1.2485437   0.9537204  )
         2           Co  tau(   2) = (   0.2878473   0.2629917   1.2378294  )
         3           Co  tau(   3) = (   0.8635419   0.4927760   0.1420545  )
         4           Co  tau(   4) = (   0.2878473   1.0187593   2.0494953  )
         5           Co  tau(   5) = (   0.2878473   0.8132316   0.6148140  )
         6           Co  tau(   6) = (   0.8635419   0.6983037   1.5767358  )
         7           Co  tau(   7) = (   0.2878473   0.0574639   0.4809609  )
         8           Co  tau(   8) = (   0.8635419   1.4540714   1.7105889  )
         9           Si  tau(   9) = (   0.2878473   0.3022529   1.9590619  )
        10           Si  tau(  10) = (   0.8635419   1.2092824   0.2324879  )
        11           Si  tau(  11) = (   0.2878473   1.0580206   1.3282628  )
        12           Si  tau(  12) = (   0.8635419   0.4535147   0.8632870  )

     number of k points=    12  gaussian smearing, width (Ry)=  0.1000
                       cart. coord. in units 2pi/alat
        k(    1) = (   0.0000000   0.0000000   0.0000000), wk =   0.0833333
        k(    2) = (   0.0000000   0.0000000   0.1140745), wk =   0.1666667
        k(    3) = (   0.0000000   0.0000000  -0.2281490), wk =   0.0833333
        k(    4) = (   0.0000000   0.2205263   0.0000000), wk =   0.1666667
        k(    5) = (   0.0000000   0.2205263   0.1140745), wk =   0.3333333
        k(    6) = (   0.0000000   0.2205263  -0.2281490), wk =   0.1666667
        k(    7) = (  -0.4342580   0.0000000   0.0000000), wk =   0.0833333
        k(    8) = (  -0.4342580   0.0000000   0.1140745), wk =   0.1666667
        k(    9) = (  -0.4342580   0.0000000  -0.2281490), wk =   0.0833333
        k(   10) = (  -0.4342580   0.2205263   0.0000000), wk =   0.1666667
        k(   11) = (  -0.4342580   0.2205263   0.1140745), wk =   0.3333333
        k(   12) = (  -0.4342580   0.2205263  -0.2281490), wk =   0.1666667

     Largest allocated arrays     est. size (Mb)     dimensions
     Largest temporary arrays     est. size (Mb)     dimensions

     Initial potential from superposition of free atoms

     Starting from uniform charge
     Starting wfc are    0 randomized atomic wfcs

     Writing output data file Prototype-La-oP12-Co2Si.save

     Self-consistent Calculation

[...]

     iteration #  9     ecut=    40.00 Ry     beta=0.70
     CG style diagonalization
     c_bands:  3 eigenvalues not converged
     ethr =  4.91E-07,  avg # of iterations =  4.6

     total energy              =   -1190.47746056 Ry
     Harris-Foulkes estimate   =   -1190.47753338 Ry
     estimated scf accuracy    <       0.00016879 Ry

     iteration # 10     ecut=    40.00 Ry     beta=0.70
     CG style diagonalization
     ethr =  1.05E-07,  avg # of iterations =  4.1

     End of self-consistent calculation

[...]

          k = 0.0000 0.2205-0.2281 (  5590 PWs)   bands (ev):

[...]

          k =-0.4343 0.2205-0.2281 (  5632 PWs)   bands (ev):

   -18.8853 -18.8853 -18.8330 -18.8330 -18.6621 -18.6621 -18.5386 -18.5386
    -8.9053  -8.9053  -8.8697  -8.8697   0.9309   0.9309   1.4287   1.4287
     1.4325   1.4325   1.6899   1.6899   2.2260   2.2260   2.3644   2.3644
     2.7632   2.7632   3.1268   3.1268   3.2251   3.2251   3.2673   3.2673
     3.5460   3.5460   3.5907   3.5907   9.1315   9.1315   9.1450   9.1450
     9.4135   9.4135   9.4915   9.4915   9.7085   9.7085   9.8243   9.8243
    23.2960  23.2960  24.0129  24.0129  24.1313  24.1313  24.6718  24.6718
    25.0169  25.0169  25.1814  25.1814  25.4372  25.4372  25.8048  25.8048
    25.9149  25.9149  26.2719  26.2719  26.5524  26.5524  26.9891  26.9891
    27.0964  27.0964  28.0171  28.0171  28.1960  28.1960  28.7114  28.7114
    28.7294  28.7294  30.0393  30.0393  30.0501  30.0501  30.3654  30.3654
    31.2055  31.2055  31.5517  31.5520  32.2002  32.2004  32.3302  32.3303

     the Fermi energy is    29.2220 ev

!    total energy              =   -1190.47750800 Ry
     Harris-Foulkes estimate   =   -1190.47751925 Ry
     estimated scf accuracy    <       0.00001322 Ry

     The total energy is the sum of the following terms:

     one-electron contribution =     181.88957807 Ry
     hartree contribution      =      68.13546776 Ry
     xc contribution           =    -151.45461488 Ry
     ewald contribution        =   -1288.47834819 Ry
     smearing contrib. (-TS)   =      -0.56959076 Ry

     convergence has been achieved in  10 iterations

     Forces acting on atoms (Ry/au):

     atom    1 type  1   force =     0.00000000    0.00882617   -0.00477994
     atom    2 type  1   force =     0.00000000   -0.00882617    0.00477994
     atom    3 type  1   force =     0.00000000    0.00882617    0.00477994
     atom    4 type  1   force =     0.00000000   -0.00882617   -0.00477994
     atom    5 type  1   force =     0.00000000    0.00299128   -0.07826417
     atom    6 type  1   force =     0.00000000   -0.00299128    0.07826417
     atom    7 type  1   force =     0.00000000    0.00299128    0.07826417
     atom    8 type  1   force =     0.00000000   -0.00299128   -0.07826417
     atom    9 type  2   force =     0.00000000   -0.06826120    0.02239516
     atom   10 type  2   force =     0.00000000    0.06826120   -0.02239516
     atom   11 type  2   force =     0.00000000   -0.06826120   -0.02239516
     atom   12 type  2   force =     0.00000000    0.06826120    0.02239516

     Total force =     0.213505     Total SCF correction =     0.000000

     entering subroutine stress ...

          total   stress  (Ry/bohr**3)                   (kbar)     P= 1102.52
   0.00773357   0.00000000   0.00000000       1137.65      0.00      0.00
   0.00000000   0.00731635   0.00000000          0.00   1076.27      0.00
   0.00000000   0.00000000   0.00743446          0.00      0.00   1093.65

     Writing output data file Prototype-La-oP12-Co2Si.save

     General routines

     Parallel routines

   This run was terminated on:  17:47: 1  22Mar2018

   JOB DONE.