     Program PWSCF v.5.0.2 starts on 22Mar2018 at 17:30:49

     Current dimensions of program PWSCF are:
     Max number of different atomic species (ntypx) = 10
     Max number of k-points (npk) =  40000
     Max angular momentum in pseudopotentials (lmaxx) =  3
     Waiting for input...
     Reading input from standard input

     Subspace diagonalization in iterative solution of the eigenvalue problem:
     a serial algorithm will be used

     bravais-lattice index     =            0
     lattice parameter (alat)  =       8.5346  a.u.
     unit-cell volume          =     621.6493 (a.u.)^3
     number of atoms/cell      =            8
     number of atomic types    =            2
     number of electrons       =       108.00
     number of Kohn-Sham states=           65
     kinetic-energy cutoff     =      40.0000  Ry
     charge density cutoff     =     160.0000  Ry
     convergence threshold     =      1.0E-04
     mixing beta               =       0.7000
     number of iterations used =            8  plain     mixing
     Exchange-correlation      = SLA-PZ-NOGX-NOGC ( 1 1 0 0 0)
     EXX-fraction              =        0.00
     nstep                     =           50

     celldm(1)=   8.534573  celldm(2)=   0.000000  celldm(3)=   0.000000
     celldm(4)=   0.000000  celldm(5)=   0.000000  celldm(6)=   0.000000

     crystal axes: (cart. coord. in units of alat)
               a(1) = (   1.000000   0.000000   0.000000 )
               a(2) = (   0.000000   1.000000   0.000000 )
               a(3) = (   0.000000   0.000000   1.000000 )

     reciprocal axes: (cart. coord. in units 2 pi/alat)
               b(1) = (  1.000000  0.000000  0.000000 )
               b(2) = (  0.000000  1.000000  0.000000 )
               b(3) = (  0.000000  0.000000  1.000000 )

     PseudoPot. # 1 for Nd read from file:
     /home/cwx6513/pp.La/Nd.UPF
     MD5 check sum: c66c5b6abe7b5840ced9b1e244e3bed6
     Pseudo is Norm-conserving, Zval = 14.0
     Generated in analytical, separable form
     Using radial grid of 1257 points,  6 beta functions with:
                l(1) =   0
                l(2) =   0
                l(3) =   1
                l(4) =   1
                l(5) =   2
                l(6) =   3

     PseudoPot. # 2 for Ce read from file:
     /home/cwx6513/pp.La/Ce.UPF
     MD5 check sum: 44451aa79a44a00cf2bc029dc19922f6
     Pseudo is Norm-conserving, Zval = 12.0
     Generated in analytical, separable form
     Using radial grid of 1255 points,  6 beta functions with:
                l(1) =   0
                l(2) =   0
                l(3) =   1
                l(4) =   1
                l(5) =   2
                l(6) =   3

     atomic species   valence    mass     pseudopotential
        Cr            14.00    51.99610     Nd( 1.00)
        Si            12.00    28.08550     Ce( 1.00)

     48 Sym. Ops., with inversion, found (24 have fractional translation)

   Cartesian axes

     site n.     atom                  positions (alat units)
         1           Cr  tau(   1) = (   0.0000000   0.5000000   0.2500000  )
         2           Cr  tau(   2) = (   0.0000000   0.5000000   0.7500000  )
         3           Cr  tau(   3) = (   0.5000000   0.7500000   0.0000000  )
         4           Cr  tau(   4) = (   0.5000000   0.2500000   0.0000000  )
         5           Cr  tau(   5) = (   0.7500000   0.0000000   0.5000000  )
         6           Cr  tau(   6) = (   0.2500000   0.0000000   0.5000000  )
         7           Si  tau(   7) = (   0.5000000   0.5000000   0.5000000  )
         8           Si  tau(   8) = (   0.0000000   0.0000000   0.0000000  )

     number of k points=    48  gaussian smearing, width (Ry)=  0.1000
                       cart. coord. in units 2pi/alat
        k(    1) = (   0.0000000   0.0000000   0.0000000), wk =   0.0095238
        k(    2) = (   0.0000000   0.0000000   0.1428571), wk =   0.0190476
        k(    3) = (   0.0000000   0.0000000   0.2857143), wk =   0.0190476
        k(    4) = (   0.0000000   0.0000000   0.4285714), wk =   0.0190476
        k(    5) = (   0.0000000   0.1666667   0.0000000), wk =   0.0190476
        k(    6) = (   0.0000000   0.1666667   0.1428571), wk =   0.0380952
        k(    7) = (   0.0000000   0.1666667   0.2857143), wk =   0.0380952
        k(    8) = (   0.0000000   0.1666667   0.4285714), wk =   0.0380952
        k(    9) = (   0.0000000   0.3333333   0.0000000), wk =   0.0190476
        k(   10) = (   0.0000000   0.3333333   0.1428571), wk =   0.0380952
        k(   11) = (   0.0000000   0.3333333   0.2857143), wk =   0.0380952
        k(   12) = (   0.0000000   0.3333333   0.4285714), wk =   0.0380952
        k(   13) = (   0.0000000  -0.5000000   0.0000000), wk =   0.0095238
        k(   14) = (   0.0000000  -0.5000000   0.1428571), wk =   0.0190476
        k(   15) = (   0.0000000  -0.5000000   0.2857143), wk =   0.0190476
        k(   16) = (   0.0000000  -0.5000000   0.4285714), wk =   0.0190476
        k(   17) = (   0.2000000   0.0000000   0.0000000), wk =   0.0190476
        k(   18) = (   0.2000000   0.0000000   0.1428571), wk =   0.0380952
        k(   19) = (   0.2000000   0.0000000   0.2857143), wk =   0.0380952
        k(   20) = (   0.2000000   0.0000000   0.4285714), wk =   0.0380952
        k(   21) = (   0.2000000   0.1666667   0.0000000), wk =   0.0380952
        k(   22) = (   0.2000000   0.1666667   0.1428571), wk =   0.0761905
        k(   23) = (   0.2000000   0.1666667   0.2857143), wk =   0.0761905
        k(   24) = (   0.2000000   0.1666667   0.4285714), wk =   0.0761905
        k(   25) = (   0.2000000   0.3333333   0.0000000), wk =   0.0380952
        k(   26) = (   0.2000000   0.3333333   0.1428571), wk =   0.0761905
        k(   27) = (   0.2000000   0.3333333   0.2857143), wk =   0.0761905
        k(   28) = (   0.2000000   0.3333333   0.4285714), wk =   0.0761905
        k(   29) = (   0.2000000  -0.5000000   0.0000000), wk =   0.0190476
        k(   30) = (   0.2000000  -0.5000000   0.1428571), wk =   0.0380952
        k(   31) = (   0.2000000  -0.5000000   0.2857143), wk =   0.0380952
        k(   32) = (   0.2000000  -0.5000000   0.4285714), wk =   0.0380952
        k(   33) = (   0.4000000   0.0000000   0.0000000), wk =   0.0190476
        k(   34) = (   0.4000000   0.0000000   0.1428571), wk =   0.0380952
        k(   35) = (   0.4000000   0.0000000   0.2857143), wk =   0.0380952
        k(   36) = (   0.4000000   0.0000000   0.4285714), wk =   0.0380952
        k(   37) = (   0.4000000   0.1666667   0.0000000), wk =   0.0380952
        k(   38) = (   0.4000000   0.1666667   0.1428571), wk =   0.0761905
        k(   39) = (   0.4000000   0.1666667   0.2857143), wk =   0.0761905
        k(   40) = (   0.4000000   0.1666667   0.4285714), wk =   0.0761905
        k(   41) = (   0.4000000   0.3333333   0.0000000), wk =   0.0380952
        k(   42) = (   0.4000000   0.3333333   0.1428571), wk =   0.0761905
        k(   43) = (   0.4000000   0.3333333   0.2857143), wk =   0.0761905
        k(   44) = (   0.4000000   0.3333333   0.4285714), wk =   0.0761905
        k(   45) = (   0.4000000  -0.5000000   0.0000000), wk =   0.0190476
        k(   46) = (   0.4000000  -0.5000000   0.1428571), wk =   0.0380952
        k(   47) = (   0.4000000  -0.5000000   0.2857143), wk =   0.0380952
        k(   48) = (   0.4000000  -0.5000000   0.4285714), wk =   0.0380952

     Largest allocated arrays     est. size (Mb)     dimensions
     Largest temporary arrays     est. size (Mb)     dimensions

     Initial potential from superposition of free atoms

     Starting from uniform charge
     Starting wfc are    0 randomized atomic wfcs

     Self-consistent Calculation

     iteration #  1     ecut=    40.00 Ry     beta=0.70
     CG style diagonalization
     c_bands:  1 eigenvalues not converged
     c_bands:  1 eigenvalues not converged
     c_bands:  1 eigenvalues not converged
     c_bands:  1 eigenvalues not converged
     c_bands:  2 eigenvalues not converged
     c_bands:  1 eigenvalues not converged
     c_bands:  1 eigenvalues not converged
     c_bands:  1 eigenvalues not converged
     c_bands:  1 eigenvalues not converged
     c_bands:  1 eigenvalues not converged
     c_bands:  1 eigenvalues not converged
     ethr =  1.00E-02,  avg # of iterations = 11.2

     total energy              =    -789.20320071 Ry
     Harris-Foulkes estimate   =    -844.29172941 Ry
     estimated scf accuracy    <      77.18774470 Ry

     iteration #  2     ecut=    40.00 Ry     beta=0.70
     CG style diagonalization
     ethr =  1.00E-02,  avg # of iterations =  6.4

[...]

     End of self-consistent calculation

          k = 0.0000 0.0000 0.0000 (  2601 PWs)   bands (ev):

    -9.8048  -8.1838  -8.1838  -5.7830  -5.7830  -5.7830   2.2259   3.5335
     7.9742   7.9742  10.1409  10.1409  10.1409  10.1846  13.5498  13.5498
    13.5498  13.9138  13.9138  13.9138  15.5307  15.5307  15.5307  19.3907
    19.3907  19.3907  21.7178  21.7178  21.7178  21.9821  21.9821  21.9821
    33.3964  33.5262  33.5262  33.5262  33.7282  34.0317  34.0317  36.7688
    36.7688  36.7688  37.2495  37.2495  39.8585  39.8585  39.8585  39.9054
    40.2129  40.9285  40.9285  40.9285  41.3202  41.3202  42.4649  42.4649
    42.4649  44.4724  44.4724  44.4724  44.6257  44.6257  44.6257  45.1995
    45.1996

[...]

     the Fermi energy is    42.5271 ev

!    total energy              =    -811.01865522 Ry
     Harris-Foulkes estimate   =    -811.01867805 Ry
     estimated scf accuracy    <       0.00002650 Ry

     The total energy is the sum of the following terms:

     one-electron contribution =     257.44948876 Ry
     hartree contribution      =      27.46703688 Ry
     xc contribution           =    -108.94003177 Ry
     ewald contribution        =    -986.66814189 Ry
     smearing contrib. (-TS)   =      -0.32700720 Ry

     convergence has been achieved in   7 iterations

     Forces acting on atoms (Ry/au):

     atom    1 type  1   force =     0.00000000    0.00000000    0.00000000
     atom    2 type  1   force =     0.00000000    0.00000000    0.00000000
     atom    3 type  1   force =     0.00000000    0.00000000    0.00000000
     atom    4 type  1   force =     0.00000000    0.00000000    0.00000000
     atom    5 type  1   force =     0.00000000    0.00000000    0.00000000
     atom    6 type  1   force =     0.00000000    0.00000000    0.00000000
     atom    7 type  2   force =     0.00000000    0.00000000    0.00000000
     atom    8 type  2   force =     0.00000000    0.00000000    0.00000000

     Total force =     0.000000     Total SCF correction =     0.000000

     entering subroutine stress ...

          total   stress  (Ry/bohr**3)                   (kbar)     P= 4689.20
   0.03187655   0.00000000   0.00000000       4689.20      0.00      0.00
   0.00000000   0.03187655   0.00000000          0.00   4689.20      0.00
   0.00000000   0.00000000   0.03187655          0.00      0.00   4689.20

     BFGS Geometry Optimization

     number of scf cycles    =   1
     number of bfgs steps    =   0

     enthalpy new            =    -811.0186552236 Ry

     new trust radius        =       0.5000000000 bohr
[...]
        k(   48) = (   0.3635474  -0.4544343   0.3895151), wk =   0.0380952

[...]

     enthalpy old            =    -811.0186552236 Ry
     enthalpy new            =    -814.7575390010 Ry

     CASE: enthalpy_new < enthalpy_old

     small trust_radius: resetting bfgs history

     new trust radius        =       1.2049163111 bohr
     new conv_thr            =       0.0000010000 Ry

[...]

          total   stress  (Ry/bohr**3)                   (kbar)     P=-1051.21
  -0.00714597   0.00000000   0.00000000      -1051.21      0.00      0.00
   0.00000000  -0.00714597   0.00000000          0.00  -1051.21      0.00
   0.00000000   0.00000000  -0.00714597          0.00      0.00  -1051.21

     number of scf cycles    =   3
     number of bfgs steps    =   2

     enthalpy old            =    -814.7575390010 Ry
     enthalpy new            =    -813.3287994393 Ry

     CASE: enthalpy_new > enthalpy_old

     new trust radius        =       0.4988807418 bohr

     trust_radius < trust_radius_min

     resetting bfgs history

     Message from routine bfgs:
     history already reset at previous step: stopping
     new conv_thr            =       0.0000010000 Ry

     new unit-cell volume =   1040.18217 a.u.^3 (   154.13909 Ang^3 )

[...]

ATOMIC_POSITIONS (crystal)
Cr       0.000000000   0.500000000   0.250000000
Cr       0.000000000   0.500000000   0.750000000
Cr       0.500000000   0.750000000   0.000000000
Cr       0.500000000   0.250000000   0.000000000
Cr       0.750000000   0.000000000   0.500000000
Cr       0.250000000   0.000000000   0.500000000
Si       0.500000000   0.500000000   0.500000000
Si       0.000000000   0.000000000   0.000000000

     Writing output data file Prototype-La-cP8-Cr3Si.save
     NEW-OLD atomic charge density approx. for the potential
     NEW k-points:
        k(    1) = (   0.0000000   0.0000000   0.0000000), wk =   0.0095238
        k(    2) = (   0.0000000   0.0000000   0.1203319), wk =   0.0190476
        k(    3) = (   0.0000000   0.0000000   0.2406637), wk =   0.0190476
        k(    4) = (   0.0000000   0.0000000   0.3609956), wk =   0.0190476
        k(    5) = (   0.0000000   0.1403872   0.0000000), wk =   0.0190476
        k(    6) = (   0.0000000   0.1403872   0.1203319), wk =   0.0380952
        k(    7) = (   0.0000000   0.1403872   0.2406637), wk =   0.0380952
        k(    8) = (   0.0000000   0.1403872   0.3609956), wk =   0.0380952
        k(    9) = (   0.0000000   0.2807743   0.0000000), wk =   0.0190476
        k(   10) = (   0.0000000   0.2807743   0.1203319), wk =   0.0380952
        k(   11) = (   0.0000000   0.2807743   0.2406637), wk =   0.0380952
        k(   12) = (   0.0000000   0.2807743   0.3609956), wk =   0.0380952
        k(   13) = (   0.0000000  -0.4211615   0.0000000), wk =   0.0095238
        k(   14) = (   0.0000000  -0.4211615   0.1203319), wk =   0.0190476
        k(   15) = (   0.0000000  -0.4211615   0.2406637), wk =   0.0190476
        k(   16) = (   0.0000000  -0.4211615   0.3609956), wk =   0.0190476
        k(   17) = (   0.1684646   0.0000000   0.0000000), wk =   0.0190476
        k(   18) = (   0.1684646   0.0000000   0.1203319), wk =   0.0380952
        k(   19) = (   0.1684646   0.0000000   0.2406637), wk =   0.0380952
        k(   20) = (   0.1684646   0.0000000   0.3609956), wk =   0.0380952
        k(   21) = (   0.1684646   0.1403872   0.0000000), wk =   0.0380952
        k(   22) = (   0.1684646   0.1403872   0.1203319), wk =   0.0761905
        k(   23) = (   0.1684646   0.1403872   0.2406637), wk =   0.0761905
        k(   24) = (   0.1684646   0.1403872   0.3609956), wk =   0.0761905
        k(   25) = (   0.1684646   0.2807743   0.0000000), wk =   0.0380952
        k(   26) = (   0.1684646   0.2807743   0.1203319), wk =   0.0761905
        k(   27) = (   0.1684646   0.2807743   0.2406637), wk =   0.0761905
        k(   28) = (   0.1684646   0.2807743   0.3609956), wk =   0.0761905
        k(   29) = (   0.1684646  -0.4211615   0.0000000), wk =   0.0190476
        k(   30) = (   0.1684646  -0.4211615   0.1203319), wk =   0.0380952
        k(   31) = (   0.1684646  -0.4211615   0.2406637), wk =   0.0380952
        k(   32) = (   0.1684646  -0.4211615   0.3609956), wk =   0.0380952
        k(   33) = (   0.3369292   0.0000000   0.0000000), wk =   0.0190476
        k(   34) = (   0.3369292   0.0000000   0.1203319), wk =   0.0380952
        k(   35) = (   0.3369292   0.0000000   0.2406637), wk =   0.0380952
        k(   36) = (   0.3369292   0.0000000   0.3609956), wk =   0.0380952
        k(   37) = (   0.3369292   0.1403872   0.0000000), wk =   0.0380952
        k(   38) = (   0.3369292   0.1403872   0.1203319), wk =   0.0761905
        k(   39) = (   0.3369292   0.1403872   0.2406637), wk =   0.0761905
        k(   40) = (   0.3369292   0.1403872   0.3609956), wk =   0.0761905
        k(   41) = (   0.3369292   0.2807743   0.0000000), wk =   0.0380952
        k(   42) = (   0.3369292   0.2807743   0.1203319), wk =   0.0761905
        k(   43) = (   0.3369292   0.2807743   0.2406637), wk =   0.0761905
        k(   44) = (   0.3369292   0.2807743   0.3609956), wk =   0.0761905
        k(   45) = (   0.3369292  -0.4211615   0.0000000), wk =   0.0190476
        k(   46) = (   0.3369292  -0.4211615   0.1203319), wk =   0.0380952
        k(   47) = (   0.3369292  -0.4211615   0.2406637), wk =   0.0380952
        k(   48) = (   0.3369292  -0.4211615   0.3609956), wk =   0.0380952

[...]

     The maximum number of steps has been reached.

     End of BFGS Geometry Optimization
Begin final coordinates
     new unit-cell volume =   1040.18217 a.u.^3 (   154.13909 Ang^3 )

CELL_PARAMETERS (alat=  8.53457320)
   1.187193000   0.000000000   0.000000000
   0.000000000   1.187193000   0.000000000
   0.000000000   0.000000000   1.187193000

ATOMIC_POSITIONS (crystal)
Cr       0.000000000   0.500000000   0.250000000
Cr       0.000000000   0.500000000   0.750000000
Cr       0.500000000   0.750000000   0.000000000
Cr       0.500000000   0.250000000   0.000000000
Cr       0.750000000   0.000000000   0.500000000
Cr       0.250000000   0.000000000   0.500000000
Si       0.500000000   0.500000000   0.500000000
Si       0.000000000   0.000000000   0.000000000
End final coordinates

     A final scf calculation at the relaxed structure.
     The G-vectors are recalculated for the final unit cell
     Results may differ from those at the preceding step.

     bravais-lattice index     =            0
     lattice parameter (alat)  =       8.5346  a.u.
     unit-cell volume          =    1040.1822 (a.u.)^3
     number of atoms/cell      =            8
     number of atomic types    =            2
     number of electrons       =       108.00
     number of Kohn-Sham states=           65
     kinetic-energy cutoff     =      40.0000  Ry
     charge density cutoff     =     160.0000  Ry
     convergence threshold     =      1.0E-06
     mixing beta               =       0.7000
     number of iterations used =            8  plain     mixing
     Exchange-correlation      = SLA-PZ-NOGX-NOGC ( 1 1 0 0 0)
     EXX-fraction              =        0.00

     celldm(1)=   8.534573  celldm(2)=   0.000000  celldm(3)=   0.000000
     celldm(4)=   0.000000  celldm(5)=   0.000000  celldm(6)=   0.000000

     crystal axes: (cart. coord. in units of alat)
               a(1) = (   1.187193   0.000000   0.000000 )
               a(2) = (   0.000000   1.187193   0.000000 )
               a(3) = (   0.000000   0.000000   1.187193 )

     reciprocal axes: (cart. coord. in units 2 pi/alat)
               b(1) = (  0.842323  0.000000  0.000000 )
               b(2) = (  0.000000  0.842323  0.000000 )
               b(3) = (  0.000000  0.000000  0.842323 )

     PseudoPot. # 1 for Nd read from file:
     /home/cwx6513/pp.La/Nd.UPF
     MD5 check sum: c66c5b6abe7b5840ced9b1e244e3bed6
     Pseudo is Norm-conserving, Zval = 14.0
     Generated in analytical, separable form
     Using radial grid of 1257 points,  6 beta functions with:
                l(1) =   0
                l(2) =   0
                l(3) =   1
                l(4) =   1
                l(5) =   2
                l(6) =   3

     PseudoPot. # 2 for Ce read from file:
     /home/cwx6513/pp.La/Ce.UPF
     MD5 check sum: 44451aa79a44a00cf2bc029dc19922f6
     Pseudo is Norm-conserving, Zval = 12.0
     Generated in analytical, separable form
     Using radial grid of 1255 points,  6 beta functions with:
                l(1) =   0
                l(2) =   0
                l(3) =   1
                l(4) =   1
                l(5) =   2
                l(6) =   3

     atomic species   valence    mass     pseudopotential
        Cr            14.00    51.99610     Nd( 1.00)
        Si            12.00    28.08550     Ce( 1.00)

     48 Sym. Ops., with inversion, found (24 have fractional translation)

   Cartesian axes

     site n.     atom                  positions (alat units)
         1           Cr  tau(   1) = (   0.0000000   0.5935965   0.2967983  )
         2           Cr  tau(   2) = (   0.0000000   0.5935965   0.8903948  )
         3           Cr  tau(   3) = (   0.5935965   0.8903948   0.0000000  )
         4           Cr  tau(   4) = (   0.5935965   0.2967983   0.0000000  )
         5           Cr  tau(   5) = (   0.8903948   0.0000000   0.5935965  )
         6           Cr  tau(   6) = (   0.2967983   0.0000000   0.5935965  )
         7           Si  tau(   7) = (   0.5935965   0.5935965   0.5935965  )
         8           Si  tau(   8) = (   0.0000000   0.0000000   0.0000000  )

     number of k points=    48  gaussian smearing, width (Ry)=  0.1000
                       cart. coord. in units 2pi/alat
        k(    1) = (   0.0000000   0.0000000   0.0000000), wk =   0.0095238
        k(    2) = (   0.0000000   0.0000000   0.1203319), wk =   0.0190476
        k(    3) = (   0.0000000   0.0000000   0.2406637), wk =   0.0190476
        k(    4) = (   0.0000000   0.0000000   0.3609956), wk =   0.0190476
        k(    5) = (   0.0000000   0.1403872   0.0000000), wk =   0.0190476
        k(    6) = (   0.0000000   0.1403872   0.1203319), wk =   0.0380952
        k(    7) = (   0.0000000   0.1403872   0.2406637), wk =   0.0380952
        k(    8) = (   0.0000000   0.1403872   0.3609956), wk =   0.0380952
        k(    9) = (   0.0000000   0.2807743   0.0000000), wk =   0.0190476
        k(   10) = (   0.0000000   0.2807743   0.1203319), wk =   0.0380952
        k(   11) = (   0.0000000   0.2807743   0.2406637), wk =   0.0380952
        k(   12) = (   0.0000000   0.2807743   0.3609956), wk =   0.0380952
        k(   13) = (   0.0000000  -0.4211615   0.0000000), wk =   0.0095238
        k(   14) = (   0.0000000  -0.4211615   0.1203319), wk =   0.0190476
        k(   15) = (   0.0000000  -0.4211615   0.2406637), wk =   0.0190476
        k(   16) = (   0.0000000  -0.4211615   0.3609956), wk =   0.0190476
        k(   17) = (   0.1684646   0.0000000   0.0000000), wk =   0.0190476
        k(   18) = (   0.1684646   0.0000000   0.1203319), wk =   0.0380952
        k(   19) = (   0.1684646   0.0000000   0.2406637), wk =   0.0380952
        k(   20) = (   0.1684646   0.0000000   0.3609956), wk =   0.0380952
        k(   21) = (   0.1684646   0.1403872   0.0000000), wk =   0.0380952
        k(   22) = (   0.1684646   0.1403872   0.1203319), wk =   0.0761905
        k(   23) = (   0.1684646   0.1403872   0.2406637), wk =   0.0761905
        k(   24) = (   0.1684646   0.1403872   0.3609956), wk =   0.0761905
        k(   25) = (   0.1684646   0.2807743   0.0000000), wk =   0.0380952
        k(   26) = (   0.1684646   0.2807743   0.1203319), wk =   0.0761905
        k(   27) = (   0.1684646   0.2807743   0.2406637), wk =   0.0761905
        k(   28) = (   0.1684646   0.2807743   0.3609956), wk =   0.0761905
        k(   29) = (   0.1684646  -0.4211615   0.0000000), wk =   0.0190476
        k(   30) = (   0.1684646  -0.4211615   0.1203319), wk =   0.0380952
        k(   31) = (   0.1684646  -0.4211615   0.2406637), wk =   0.0380952
        k(   32) = (   0.1684646  -0.4211615   0.3609956), wk =   0.0380952
        k(   33) = (   0.3369292   0.0000000   0.0000000), wk =   0.0190476
        k(   34) = (   0.3369292   0.0000000   0.1203319), wk =   0.0380952
        k(   35) = (   0.3369292   0.0000000   0.2406637), wk =   0.0380952
        k(   36) = (   0.3369292   0.0000000   0.3609956), wk =   0.0380952
        k(   37) = (   0.3369292   0.1403872   0.0000000), wk =   0.0380952
        k(   38) = (   0.3369292   0.1403872   0.1203319), wk =   0.0761905
        k(   39) = (   0.3369292   0.1403872   0.2406637), wk =   0.0761905
        k(   40) = (   0.3369292   0.1403872   0.3609956), wk =   0.0761905
        k(   41) = (   0.3369292   0.2807743   0.0000000), wk =   0.0380952
        k(   42) = (   0.3369292   0.2807743   0.1203319), wk =   0.0761905
        k(   43) = (   0.3369292   0.2807743   0.2406637), wk =   0.0761905
        k(   44) = (   0.3369292   0.2807743   0.3609956), wk =   0.0761905
        k(   45) = (   0.3369292  -0.4211615   0.0000000), wk =   0.0190476
        k(   46) = (   0.3369292  -0.4211615   0.1203319), wk =   0.0380952
        k(   47) = (   0.3369292  -0.4211615   0.2406637), wk =   0.0380952
        k(   48) = (   0.3369292  -0.4211615   0.3609956), wk =   0.0380952

     Largest allocated arrays     est. size (Mb)     dimensions
     Largest temporary arrays     est. size (Mb)     dimensions

     Initial potential from superposition of free atoms

     Starting from uniform charge
     Starting wfc are    0 randomized atomic wfcs

     Writing output data file Prototype-La-cP8-Cr3Si.save

     Self-consistent Calculation

[...]

     iteration #  4     ecut=    40.00 Ry     beta=0.70
     CG style diagonalization
     ethr =  1.00E-02,  avg # of iterations =  3.7

[...]

     total energy              =    -816.66403046 Ry
     Harris-Foulkes estimate   =    -816.66403223 Ry
     estimated scf accuracy    <       0.00000412 Ry

     iteration # 11     ecut=    40.00 Ry     beta=0.70
     CG style diagonalization
     c_bands:  1 eigenvalues not converged
     ethr =  3.81E-09,  avg # of iterations =  4.2

     End of self-consistent calculation

[...]

          k = 0.3369-0.4212 0.3610 (  4456 PWs)   bands (ev):

   -23.6046 -23.5804 -23.5041 -23.5033 -23.4301 -23.4039 -13.1417 -13.1417
    -2.9544  -2.8075  -2.4601  -2.4597  -2.3353  -2.3351  -2.1989  -2.1414
    -1.8377  -1.8140  -1.7296  -1.7253  -1.6030  -1.5909  -1.5677  -1.5508
    -1.5445  -1.4980   4.8046   4.8111   4.8245   4.8316   4.8371   4.8411
    19.6493  19.6830  19.8827  19.9296  20.1057  20.1473  20.8111  20.8179
    20.9516  20.9599  21.2621  21.2993  21.4426  21.4554  21.9383  21.9456
    23.0907  23.0910  23.4545  23.7451  24.2639  24.3323  24.8102  24.9180
    25.0600  25.1399  25.5541  25.6086  26.2125  26.5333  27.4138  27.4163
    28.1608

     the Fermi energy is    24.3981 ev

!    total energy              =    -816.66403202 Ry
     Harris-Foulkes estimate   =    -816.66403204 Ry
     estimated scf accuracy    <       0.00000003 Ry

     The total energy is the sum of the following terms:

     one-electron contribution =      55.20013289 Ry
     hartree contribution      =      60.20761873 Ry
     xc contribution           =    -100.47973792 Ry
     ewald contribution        =    -831.09329457 Ry
     smearing contrib. (-TS)   =      -0.49875115 Ry

     convergence has been achieved in  11 iterations

     Forces acting on atoms (Ry/au):

     atom    1 type  1   force =     0.00000000    0.00000000    0.00000000
     atom    2 type  1   force =     0.00000000    0.00000000    0.00000000
     atom    3 type  1   force =     0.00000000    0.00000000    0.00000000
     atom    4 type  1   force =     0.00000000    0.00000000    0.00000000
     atom    5 type  1   force =     0.00000000    0.00000000    0.00000000
     atom    6 type  1   force =     0.00000000    0.00000000    0.00000000
     atom    7 type  2   force =     0.00000000    0.00000000    0.00000000
     atom    8 type  2   force =     0.00000000    0.00000000    0.00000000

     Total force =     0.000000     Total SCF correction =     0.000000

     entering subroutine stress ...

          total   stress  (Ry/bohr**3)                   (kbar)     P=  411.05
   0.00279427   0.00000000   0.00000000        411.05      0.00      0.00
   0.00000000   0.00279427   0.00000000          0.00    411.05      0.00
   0.00000000   0.00000000   0.00279427          0.00      0.00    411.05

     Writing output data file Prototype-La-cP8-Cr3Si.save

     General routines

     Parallel routines

   This run was terminated on:  17:49:39  22Mar2018

   JOB DONE.