     Program PWSCF v.5.0.2 starts on 22Mar2018 at 17:30:50

     Current dimensions of program PWSCF are:
     Max number of different atomic species (ntypx) = 10
     Max number of k-points (npk) =  40000
     Max angular momentum in pseudopotentials (lmaxx) =  3
     Waiting for input...
     Reading input from standard input

     Subspace diagonalization in iterative solution of the eigenvalue problem:
     a serial algorithm will be used

     bravais-lattice index     =            0
     lattice parameter (alat)  =       9.9235  a.u.
     unit-cell volume          =    1361.0366 (a.u.)^3
     number of atoms/cell      =           12
     number of atomic types    =            2
     number of electrons       =       152.00
     number of Kohn-Sham states=           91
     kinetic-energy cutoff     =      40.0000  Ry
     charge density cutoff     =     160.0000  Ry
     convergence threshold     =      1.0E-04
     mixing beta               =       0.7000
     number of iterations used =            8  plain     mixing
     Exchange-correlation      = SLA-PZ-NOGX-NOGC ( 1 1 0 0 0)
     EXX-fraction              =        0.00
     nstep                     =           50

     celldm(1)=   9.923489  celldm(2)=   0.000000  celldm(3)=   0.000000
     celldm(4)=   0.000000  celldm(5)=   0.000000  celldm(6)=   0.000000

     crystal axes: (cart. coord. in units of alat)
               a(1) = (   1.000000   0.000000   0.000000 )
               a(2) = (  -0.500000   0.866025   0.000000 )
               a(3) = (   0.000000   0.000000   1.608222 )

     reciprocal axes: (cart. coord. in units 2 pi/alat)
               b(1) = (  1.000000  0.577350  0.000000 )
               b(2) = (  0.000000  1.154701  0.000000 )
               b(3) = (  0.000000  0.000000  0.621805 )

     PseudoPot. # 1 for Nd read from file:
     /home/cwx6513/pp.La/Nd.UPF
     MD5 check sum: c66c5b6abe7b5840ced9b1e244e3bed6
     Pseudo is Norm-conserving, Zval = 14.0
     Generated in analytical, separable form
     Using radial grid of 1257 points,  6 beta functions with:
                l(1) =   0
                l(2) =   0
                l(3) =   1
                l(4) =   1
                l(5) =   2
                l(6) =   3

     PseudoPot. # 2 for Ce read from file:
     /home/cwx6513/pp.La/Ce.UPF
     MD5 check sum: 44451aa79a44a00cf2bc029dc19922f6
     Pseudo is Norm-conserving, Zval = 12.0
     Generated in analytical, separable form
     Using radial grid of 1255 points,  6 beta functions with:
                l(1) =   0
                l(2) =   0
                l(3) =   1
                l(4) =   1
                l(5) =   2
                l(6) =   3

     atomic species   valence    mass     pseudopotential
        Mg            14.00    24.30500     Nd( 1.00)
        Zn            12.00    65.39000     Ce( 1.00)

     24 Sym. Ops., with inversion, found (12 have fractional translation)

   Cartesian axes

     site n.     atom                  positions (alat units)
         1           Mg  tau(   1) = (  -0.0000005   0.5773506   0.1003820  )
         2           Mg  tau(   2) = (   0.5000005   0.2886748   0.9044931  )
         3           Mg  tau(   3) = (   0.5000005   0.2886748   1.5078402  )
         4           Mg  tau(   4) = (  -0.0000005   0.5773506   0.7037291  )
         5           Zn  tau(   5) = (   0.0000000   0.0000000   0.0000000  )
         6           Zn  tau(   6) = (   0.0000000   0.0000000   0.8041111  )
         7           Zn  tau(   7) = (   0.0000000   0.2950739   1.2061667  )
         8           Zn  tau(   8) = (   0.7444585   0.1475370   0.4020556  )
         9           Zn  tau(   9) = (   0.2555415   0.1475370   0.4020556  )
        10           Zn  tau(  10) = (   0.2444585   0.7184884   1.2061667  )
        11           Zn  tau(  11) = (  -0.2444585   0.7184884   1.2061667  )
        12           Zn  tau(  12) = (   0.5000000   0.5709515   0.4020556  )

     number of k points=    12  gaussian smearing, width (Ry)=  0.1000
                       cart. coord. in units 2pi/alat
        k(    1) = (   0.0000000   0.0000000   0.0000000), wk =   0.0833333
        k(    2) = (   0.0000000   0.0000000   0.1554512), wk =   0.1666667
        k(    3) = (   0.0000000   0.0000000  -0.3109023), wk =   0.0833333
        k(    4) = (   0.0000000   0.3849002   0.0000000), wk =   0.1666667
        k(    5) = (   0.0000000   0.3849002   0.1554512), wk =   0.3333333
        k(    6) = (   0.0000000   0.3849002  -0.3109023), wk =   0.1666667
        k(    7) = (  -0.5000000  -0.2886751   0.0000000), wk =   0.0833333
        k(    8) = (  -0.5000000  -0.2886751   0.1554512), wk =   0.1666667
        k(    9) = (  -0.5000000  -0.2886751  -0.3109023), wk =   0.0833333
        k(   10) = (  -0.5000000   0.0962250   0.0000000), wk =   0.1666667
        k(   11) = (  -0.5000000   0.0962250   0.1554512), wk =   0.3333333
        k(   12) = (  -0.5000000   0.0962250  -0.3109023), wk =   0.1666667

     Largest allocated arrays     est. size (Mb)     dimensions
     Largest temporary arrays     est. size (Mb)     dimensions

     Initial potential from superposition of free atoms

     Starting from uniform charge
     Starting wfc are    0 randomized atomic wfcs

     Self-consistent Calculation

     iteration #  1     ecut=    40.00 Ry     beta=0.70
     CG style diagonalization
     c_bands:  1 eigenvalues not converged
     ethr =  1.00E-02,  avg # of iterations = 10.8

     total energy              =   -1014.12428567 Ry
     Harris-Foulkes estimate   =   -1131.75745464 Ry
     estimated scf accuracy    <     165.54812934 Ry

     iteration #  2     ecut=    40.00 Ry     beta=0.70
     CG style diagonalization
     ethr =  1.00E-02,  avg # of iterations =  6.2

[...]

     End of self-consistent calculation

          k = 0.0000 0.0000 0.0000 (  5769 PWs)   bands (ev):

   -20.0252 -19.9554 -19.8563 -19.7955 -12.5125 -11.9970 -10.6377  -9.8200
    -9.7469  -9.7468  -9.7203  -9.7203   0.9113   1.0051   1.0051   1.0476
     1.2634   1.2635   1.4079   1.5312   1.5313   1.7242   1.7242   1.7361
     1.7749   2.6421   3.7635   5.2968   5.2968   5.6248   5.6249   5.6255
     5.6255   6.7275   7.6785   7.6786   7.7194   7.7194   8.4053  10.0527
    10.2488  10.2488  10.2783  10.2958  10.8893  10.8893  11.1609  11.1609
    20.4857  21.6671  21.7793  23.1209  23.1209  23.5301  23.6319  23.6319
    23.7349  23.7349  24.0640  24.0640  24.1507  24.3232  24.3233  24.4539
    24.6356  25.0835  25.1544  25.1545  25.6535  25.6535  27.0425  27.0425
    27.3105  27.4265  27.4265  27.6069  27.6069  27.6669  27.8831  27.8831
    28.1409  28.1409  28.9443  28.9443  29.5234  29.5234  29.8210  30.6472
    31.1965  31.6894  32.1213

[...]

          k =-0.5000-0.2887 0.0000 (  5800 PWs)   bands (ev):

[...]

     the Fermi energy is    27.7533 ev

!    total energy              =   -1057.27138492 Ry
     Harris-Foulkes estimate   =   -1057.27141869 Ry
     estimated scf accuracy    <       0.00003849 Ry

     The total energy is the sum of the following terms:

     one-electron contribution =     169.76760988 Ry
     hartree contribution      =      60.09825519 Ry
     xc contribution           =    -139.81749860 Ry
     ewald contribution        =   -1146.68654693 Ry
     smearing contrib. (-TS)   =      -0.63320445 Ry

     convergence has been achieved in   9 iterations

     Forces acting on atoms (Ry/au):

     atom    1 type  1   force =     0.00000000    0.00000000    0.00863893
     atom    2 type  1   force =     0.00000000    0.00000000    0.00863893
     atom    3 type  1   force =     0.00000000    0.00000000   -0.00863893
     atom    4 type  1   force =     0.00000000    0.00000000   -0.00863893
     atom    5 type  2   force =     0.00000000    0.00000000    0.00000000
     atom    6 type  2   force =     0.00000000    0.00000000    0.00000000
     atom    7 type  2   force =     0.00000000    0.08643731    0.00000000
     atom    8 type  2   force =    -0.07485691    0.04321866    0.00000000
     atom    9 type  2   force =     0.07485691    0.04321866    0.00000000
     atom   10 type  2   force =    -0.07485691   -0.04321866    0.00000000
     atom   11 type  2   force =     0.07485691   -0.04321866    0.00000000
     atom   12 type  2   force =     0.00000000   -0.08643731    0.00000000

     Total force =     0.212431     Total SCF correction =     0.000000

     entering subroutine stress ...

          total   stress  (Ry/bohr**3)                   (kbar)     P= 1097.54
   0.00741224   0.00000000   0.00000000       1090.38      0.00      0.00
   0.00000000   0.00741224   0.00000000          0.00   1090.38      0.00
   0.00000000   0.00000000   0.00755826          0.00      0.00   1111.86

     BFGS Geometry Optimization

     number of scf cycles    =   1
     number of bfgs steps    =   0

     enthalpy new            =   -1057.2713849236 Ry

     new trust radius        =       0.5000000000 bohr
     new conv_thr            =       0.0001000000 Ry

     new unit-cell volume =   1652.84151 a.u.^3 (   244.92584 Ang^3 )

CELL_PARAMETERS (alat=  9.92348860)
   1.066455817   0.000000000   0.000000000
  -0.533227909   0.923577830   0.000000000
   0.000000000   0.000000000   1.717203317

ATOMIC_POSITIONS (crystal)
Mg       0.333333000   0.666667000   0.062612130
Mg       0.666667000   0.333333000   0.562612130
Mg       0.666667000   0.333333000   0.937387870
Mg       0.333333000   0.666667000   0.437387870
Zn       0.000000000   0.000000000   0.000000000
Zn       0.000000000   0.000000000   0.500000000
Zn       0.172164515   0.344329030   0.750000000
Zn       0.827835485   0.172164515   0.250000000
Zn       0.344329030   0.172164515   0.250000000
Zn       0.655670970   0.827835485   0.750000000
Zn       0.172164515   0.827835485   0.750000000
Zn       0.827835485   0.655670970   0.250000000

     Writing output data file Prototype-La-hP12-MgZn2.save
     NEW-OLD atomic charge density approx. for the potential
     NEW k-points:
        k(    1) = (   0.0000000   0.0000000   0.0000000), wk =   0.0833333
        k(    2) = (   0.0000000   0.0000000   0.1455856), wk =   0.1666667
        k(    3) = (   0.0000000   0.0000000  -0.2911711), wk =   0.0833333
        k(    4) = (   0.0000000   0.3609153   0.0000000), wk =   0.1666667
        k(    5) = (   0.0000000   0.3609153   0.1455856), wk =   0.3333333
        k(    6) = (   0.0000000   0.3609153  -0.2911711), wk =   0.1666667
        k(    7) = (  -0.4688427  -0.2706864   0.0000000), wk =   0.0833333
        k(    8) = (  -0.4688427  -0.2706864   0.1455856), wk =   0.1666667
        k(    9) = (  -0.4688427  -0.2706864  -0.2911711), wk =   0.0833333
        k(   10) = (  -0.4688427   0.0902288   0.0000000), wk =   0.1666667
        k(   11) = (  -0.4688427   0.0902288   0.1455856), wk =   0.3333333
        k(   12) = (  -0.4688427   0.0902288  -0.2911711), wk =   0.1666667

[...]

     enthalpy old            =   -1057.2713849236 Ry
     enthalpy new            =   -1058.5630188547 Ry

     CASE: enthalpy_new < enthalpy_old

     small trust_radius: resetting bfgs history

[...]

     number of scf cycles    =   3
     number of bfgs steps    =   2

     enthalpy old            =   -1058.5630188546 Ry
     enthalpy new            =   -1058.7138752981 Ry

     CASE: enthalpy_new < enthalpy_old

     Message from routine bfgs:
     history already reset at previous step: stopping
     small trust_radius: resetting bfgs history

     new trust radius        =       0.1482636939 bohr
     new conv_thr            =       0.0000045654 Ry

     new unit-cell volume =   1822.71650 a.u.^3 (   270.09871 Ang^3 )

[...]

ATOMIC_POSITIONS (crystal)
Mg       0.333333000   0.666667000   0.062640885
Mg       0.666667000   0.333333000   0.562640885
Mg       0.666667000   0.333333000   0.937359115
Mg       0.333333000   0.666667000   0.437359115
Zn       0.000000000   0.000000000   0.000000000
Zn       0.000000000   0.000000000   0.500000000
Zn       0.173932567   0.347865135   0.750000000
Zn       0.826067433   0.173932567   0.250000000
Zn       0.347865135   0.173932567   0.250000000
Zn       0.652134865   0.826067433   0.750000000
Zn       0.173932567   0.826067433   0.750000000
Zn       0.826067433   0.652134865   0.250000000

     Writing output data file Prototype-La-hP12-MgZn2.save
     NEW-OLD atomic charge density approx. for the potential
     NEW k-points:
        k(    1) = (   0.0000000   0.0000000   0.0000000), wk =   0.0833333
        k(    2) = (   0.0000000   0.0000000   0.1414382), wk =   0.1666667
        k(    3) = (   0.0000000   0.0000000  -0.2828764), wk =   0.0833333
        k(    4) = (   0.0000000   0.3486881   0.0000000), wk =   0.1666667
        k(    5) = (   0.0000000   0.3486881   0.1414382), wk =   0.3333333
        k(    6) = (   0.0000000   0.3486881  -0.2828764), wk =   0.1666667
        k(    7) = (  -0.4529591  -0.2615160   0.0000000), wk =   0.0833333
        k(    8) = (  -0.4529591  -0.2615160   0.1414382), wk =   0.1666667
        k(    9) = (  -0.4529591  -0.2615160  -0.2828764), wk =   0.0833333
        k(   10) = (  -0.4529591   0.0871720   0.0000000), wk =   0.1666667
        k(   11) = (  -0.4529591   0.0871720   0.1414382), wk =   0.3333333
        k(   12) = (  -0.4529591   0.0871720  -0.2828764), wk =   0.1666667

[...]

     The maximum number of steps has been reached.

     End of BFGS Geometry Optimization
Begin final coordinates
     new unit-cell volume =   1822.71650 a.u.^3 (   270.09871 Ang^3 )

CELL_PARAMETERS (alat=  9.92348860)
   1.103852473   0.000000000   0.000000000
  -0.551926237   0.955964284   0.000000000
   0.000000000   0.000000000   1.767556470

ATOMIC_POSITIONS (crystal)
Mg       0.333333000   0.666667000   0.062640885
Mg       0.666667000   0.333333000   0.562640885
Mg       0.666667000   0.333333000   0.937359115
Mg       0.333333000   0.666667000   0.437359115
Zn       0.000000000   0.000000000   0.000000000
Zn       0.000000000   0.000000000   0.500000000
Zn       0.173932567   0.347865135   0.750000000
Zn       0.826067433   0.173932567   0.250000000
Zn       0.347865135   0.173932567   0.250000000
Zn       0.652134865   0.826067433   0.750000000
Zn       0.173932567   0.826067433   0.750000000
Zn       0.826067433   0.652134865   0.250000000
End final coordinates

     A final scf calculation at the relaxed structure.
     The G-vectors are recalculated for the final unit cell
     Results may differ from those at the preceding step.

     bravais-lattice index     =            0
     lattice parameter (alat)  =       9.9235  a.u.
     unit-cell volume          =    1822.7165 (a.u.)^3
     number of atoms/cell      =           12
     number of atomic types    =            2
     number of electrons       =       152.00
     number of Kohn-Sham states=           91
     kinetic-energy cutoff     =      40.0000  Ry
     charge density cutoff     =     160.0000  Ry
     convergence threshold     =      4.6E-06
     mixing beta               =       0.7000
     number of iterations used =            8  plain     mixing
     Exchange-correlation      = SLA-PZ-NOGX-NOGC ( 1 1 0 0 0)
     EXX-fraction              =        0.00

     celldm(1)=   9.923489  celldm(2)=   0.000000  celldm(3)=   0.000000
     celldm(4)=   0.000000  celldm(5)=   0.000000  celldm(6)=   0.000000

     crystal axes: (cart. coord. in units of alat)
               a(1) = (   1.103852   0.000000   0.000000 )
               a(2) = (  -0.551926   0.955964   0.000000 )
               a(3) = (   0.000000   0.000000   1.767556 )

     reciprocal axes: (cart. coord. in units 2 pi/alat)
               b(1) = (  0.905918  0.523032  0.000000 )
               b(2) = (  0.000000  1.046064  0.000000 )
               b(3) = (  0.000000  0.000000  0.565753 )

     PseudoPot. # 1 for Nd read from file:
     /home/cwx6513/pp.La/Nd.UPF
     MD5 check sum: c66c5b6abe7b5840ced9b1e244e3bed6
     Pseudo is Norm-conserving, Zval = 14.0
     Generated in analytical, separable form
     Using radial grid of 1257 points,  6 beta functions with:
                l(1) =   0
                l(2) =   0
                l(3) =   1
                l(4) =   1
                l(5) =   2
                l(6) =   3

     PseudoPot. # 2 for Ce read from file:
     /home/cwx6513/pp.La/Ce.UPF
     MD5 check sum: 44451aa79a44a00cf2bc029dc19922f6
     Pseudo is Norm-conserving, Zval = 12.0
     Generated in analytical, separable form
     Using radial grid of 1255 points,  6 beta functions with:
                l(1) =   0
                l(2) =   0
                l(3) =   1
                l(4) =   1
                l(5) =   2
                l(6) =   3

     atomic species   valence    mass     pseudopotential
        Mg            14.00    24.30500     Nd( 1.00)
        Zn            12.00    65.39000     Ce( 1.00)

     24 Sym. Ops., with inversion, found (12 have fractional translation)

   Cartesian axes

     site n.     atom                  positions (alat units)
         1           Mg  tau(   1) = (  -0.0000006   0.6373098   0.1107213  )
         2           Mg  tau(   2) = (   0.5519268   0.3186544   0.9944995  )
         3           Mg  tau(   3) = (   0.5519268   0.3186544   1.6568352  )
         4           Mg  tau(   4) = (  -0.0000006   0.6373098   0.7730569  )
         5           Zn  tau(   5) = (   0.0000000   0.0000000   0.0000000  )
         6           Zn  tau(   6) = (   0.0000000   0.0000000   0.8837782  )
         7           Zn  tau(   7) = (   0.0000000   0.3325466   1.3256674  )
         8           Zn  tau(   8) = (   0.8158586   0.1662733   0.4418891  )
         9           Zn  tau(   9) = (   0.2879938   0.1662733   0.4418891  )
        10           Zn  tau(  10) = (   0.2639324   0.7896910   1.3256674  )
        11           Zn  tau(  11) = (  -0.2639324   0.7896910   1.3256674  )
        12           Zn  tau(  12) = (   0.5519262   0.6234176   0.4418891  )

     number of k points=    12  gaussian smearing, width (Ry)=  0.1000
                       cart. coord. in units 2pi/alat
        k(    1) = (   0.0000000   0.0000000   0.0000000), wk =   0.0833333
        k(    2) = (   0.0000000   0.0000000   0.1414382), wk =   0.1666667
        k(    3) = (   0.0000000   0.0000000  -0.2828764), wk =   0.0833333
        k(    4) = (   0.0000000   0.3486881   0.0000000), wk =   0.1666667
        k(    5) = (   0.0000000   0.3486881   0.1414382), wk =   0.3333333
        k(    6) = (   0.0000000   0.3486881  -0.2828764), wk =   0.1666667
        k(    7) = (  -0.4529591  -0.2615160   0.0000000), wk =   0.0833333
        k(    8) = (  -0.4529591  -0.2615160   0.1414382), wk =   0.1666667
        k(    9) = (  -0.4529591  -0.2615160  -0.2828764), wk =   0.0833333
        k(   10) = (  -0.4529591   0.0871720   0.0000000), wk =   0.1666667
        k(   11) = (  -0.4529591   0.0871720   0.1414382), wk =   0.3333333
        k(   12) = (  -0.4529591   0.0871720  -0.2828764), wk =   0.1666667

     Largest allocated arrays     est. size (Mb)     dimensions
     Largest temporary arrays     est. size (Mb)     dimensions

     Initial potential from superposition of free atoms

     Starting from uniform charge
     Starting wfc are    0 randomized atomic wfcs

     Writing output data file Prototype-La-hP12-MgZn2.save

     Self-consistent Calculation

[...]

     iteration # 10     ecut=    40.00 Ry     beta=0.70
     CG style diagonalization
     ethr =  4.65E-07,  avg # of iterations =  3.4

     total energy              =   -1059.22909487 Ry
     Harris-Foulkes estimate   =   -1059.22912586 Ry
     estimated scf accuracy    <       0.00008949 Ry

     iteration # 11     ecut=    40.00 Ry     beta=0.70
     CG style diagonalization
     c_bands:  1 eigenvalues not converged
     ethr =  5.89E-08,  avg # of iterations =  4.6

     End of self-consistent calculation

[...]

          k = 0.0000 0.3487-0.2829 (  7774 PWs)   bands (ev):

[...]

          k =-0.4530 0.0872-0.2829 (  7786 PWs)   bands (ev):

   -27.6140 -27.6140 -27.5917 -27.5917 -18.1463 -18.1463 -17.8406 -17.8406
   -17.2851 -17.2851 -17.2541 -17.2541  -6.0757  -6.0757  -6.0248  -6.0248
    -5.9410  -5.9410  -5.8292  -5.8292  -5.7622  -5.7622  -5.7417  -5.7417
    -2.0898  -2.0898  -1.2229  -1.2229  -0.5066  -0.5066  -0.4051  -0.4051
    -0.2335  -0.2335  -0.0214  -0.0214   0.6262   0.6262   0.9863   0.9863
     1.2943   1.2943   1.5375   1.5375   1.9790   1.9790   2.0882   2.0882
    16.1974  16.1974  16.5346  16.5346  17.0177  17.0177  17.2356  17.2356
    17.4184  17.4184  17.6051  17.6051  18.0308  18.0308  18.1443  18.1443
    18.3238  18.3238  18.6103  18.6103  18.8629  18.8629  19.1862  19.1862
    19.5290  19.5290  19.8454  19.8454  20.2312  20.2312  20.6057  20.6057
    20.9687  20.9687  21.1148  21.1148  21.5929  21.5929  22.0777  22.0777
    22.2472  22.2472  22.4817

     the Fermi energy is    20.0474 ev

!    total energy              =   -1059.22912962 Ry
     Harris-Foulkes estimate   =   -1059.22913307 Ry
     estimated scf accuracy    <       0.00000388 Ry

     The total energy is the sum of the following terms:

     one-electron contribution =      29.30035710 Ry
     hartree contribution      =      87.44430708 Ry
     xc contribution           =    -134.49615458 Ry
     ewald contribution        =   -1040.62946133 Ry
     smearing contrib. (-TS)   =      -0.84817789 Ry

     convergence has been achieved in  11 iterations

     Forces acting on atoms (Ry/au):

     atom    1 type  1   force =     0.00000000    0.00000000    0.00522062
     atom    2 type  1   force =     0.00000000    0.00000000    0.00522062
     atom    3 type  1   force =     0.00000000    0.00000000   -0.00522062
     atom    4 type  1   force =     0.00000000    0.00000000   -0.00522062
     atom    5 type  2   force =     0.00000000    0.00000000    0.00000000
     atom    6 type  2   force =     0.00000000    0.00000000    0.00000000
     atom    7 type  2   force =     0.00000000    0.00268057    0.00000000
     atom    8 type  2   force =    -0.00232144    0.00134029    0.00000000
     atom    9 type  2   force =     0.00232144    0.00134029    0.00000000
     atom   10 type  2   force =    -0.00232144   -0.00134029    0.00000000
     atom   11 type  2   force =     0.00232144   -0.00134029    0.00000000
     atom   12 type  2   force =     0.00000000   -0.00268057    0.00000000

     Total force =     0.012334     Total SCF correction =     0.000000

     entering subroutine stress ...

          total   stress  (Ry/bohr**3)                   (kbar)     P=  174.79
   0.00122784   0.00000000   0.00000000        180.62      0.00      0.00
   0.00000000   0.00122784   0.00000000          0.00    180.62      0.00
   0.00000000   0.00000000   0.00110884          0.00      0.00    163.12

     Writing output data file Prototype-La-hP12-MgZn2.save

     General routines

     Parallel routines

   This run was terminated on:  17:45:41  22Mar2018

   JOB DONE.