     Program PWSCF v.5.0.2 starts on 22Mar2018 at 12:11:47

     Current dimensions of program PWSCF are:
     Max number of different atomic species (ntypx) = 10
     Max number of k-points (npk) =  40000
     Max angular momentum in pseudopotentials (lmaxx) =  3
     Waiting for input...
     Reading input from standard input

     Subspace diagonalization in iterative solution of the eigenvalue problem:
     a serial algorithm will be used

     bravais-lattice index     =            0
     lattice parameter (alat)  =       9.3790  a.u.
     unit-cell volume          =     583.3913 (a.u.)^3
     number of atoms/cell      =            6
     number of atomic types    =            2
     number of electrons       =       100.00
     number of Kohn-Sham states=           60
     kinetic-energy cutoff     =      40.0000  Ry
     charge density cutoff     =     160.0000  Ry
     convergence threshold     =      1.0E-04
     mixing beta               =       0.7000
     number of iterations used =            8  plain     mixing
     Exchange-correlation      = SLA-PZ-NOGX-NOGC ( 1 1 0 0 0)
     EXX-fraction              =        0.00
     nstep                     =           50

     celldm(1)=   9.379038  celldm(2)=   0.000000  celldm(3)=   0.000000
     celldm(4)=   0.000000  celldm(5)=   0.000000  celldm(6)=   0.000000

     crystal axes: (cart. coord. in units of alat)
               a(1) = (   1.000000   0.000000   0.000000 )
               a(2) = (   0.500000   0.866025   0.000000 )
               a(3) = (   0.500000   0.288675   0.816497 )

     reciprocal axes: (cart. coord. in units 2 pi/alat)
               b(1) = (  1.000000 -0.577350 -0.408248 )
               b(2) = (  0.000000  1.154701 -0.408248 )
               b(3) = (  0.000000  0.000000  1.224745 )

     PseudoPot. # 1 for Yb read from file:
     /home/jld5415/pp.La/Yb.UPF
     MD5 check sum: 3e859b81cc28c53ec6aa3a2e888efcdf
     Pseudo is Norm-conserving, Zval = 24.0
     Generated in analytical, separable form
     Using radial grid of 1269 points,  6 beta functions with:
                l(1) =   0
                l(2) =   0
                l(3) =   1
                l(4) =   1
                l(5) =   2
                l(6) =   3

     PseudoPot. # 2 for Pr read from file:
     /home/jld5415/pp.La/Pr.UPF
     MD5 check sum: 70e2b4b153859e92c8c91247dfc63203
     Pseudo is Norm-conserving, Zval = 13.0
     Generated in analytical, separable form
     Using radial grid of 1255 points,  6 beta functions with:
                l(1) =   0
                l(2) =   0
                l(3) =   1
                l(4) =   1
                l(5) =   2
                l(6) =   3

     atomic species   valence    mass     pseudopotential
        Mg            24.00    24.30500     Yb( 1.00)
        Cu            13.00    63.54600     Pr( 1.00)

     12 Sym. Ops., with inversion, found ( 6 have fractional translation)

   Cartesian axes

     site n.     atom                  positions (alat units)
         1           Mg  tau(   1) = (   1.5000000   0.8660254   0.6123724  )
         2           Mg  tau(   2) = (   1.0000000   0.5773503   0.4082483  )
         3           Cu  tau(   3) = (   0.2500000   0.1443376   0.1020621  )
         4           Cu  tau(   4) = (   0.7500000   0.1443376   0.1020621  )
         5           Cu  tau(   5) = (   0.5000000   0.5773503   0.1020621  )
         6           Cu  tau(   6) = (   0.5000000   0.2886751   0.5103104  )

     number of k points=   170  gaussian smearing, width (Ry)=  0.1000

     Number of k-points >= 100: set verbosity='high' to print them.

     Largest allocated arrays     est. size (Mb)     dimensions
     Largest temporary arrays     est. size (Mb)     dimensions

     Initial potential from superposition of free atoms
     Check: negative starting charge=   -0.000113

     starting charge   51.96217, renormalised to  100.00000

     negative rho (up, down):  0.217E-03 0.000E+00
     Starting wfc are   80 randomized atomic wfcs

     Self-consistent Calculation

     iteration #  1     ecut=    40.00 Ry     beta=0.70
     CG style diagonalization
     c_bands:  1 eigenvalues not converged
     c_bands:  1 eigenvalues not converged
     c_bands:  1 eigenvalues not converged
     c_bands:  1 eigenvalues not converged
     c_bands:  1 eigenvalues not converged
     c_bands:  1 eigenvalues not converged
     c_bands:  1 eigenvalues not converged
     c_bands:  1 eigenvalues not converged
     c_bands:  1 eigenvalues not converged
     c_bands:  1 eigenvalues not converged
     c_bands:  1 eigenvalues not converged
     c_bands:  1 eigenvalues not converged
     c_bands:  1 eigenvalues not converged
     c_bands:  1 eigenvalues not converged
     c_bands:  1 eigenvalues not converged
     c_bands:  1 eigenvalues not converged
     c_bands:  1 eigenvalues not converged
     c_bands:  1 eigenvalues not converged
     c_bands:  1 eigenvalues not converged
     c_bands:  1 eigenvalues not converged
     c_bands:  1 eigenvalues not converged
     c_bands:  1 eigenvalues not converged
     ethr =  1.00E-02,  avg # of iterations = 24.2

     negative rho (up, down):  0.613E-04 0.000E+00

     total energy              =    -129.30358652 Ry
     Harris-Foulkes estimate   =   -2637.83604520 Ry
     estimated scf accuracy    <    2934.86328139 Ry

[...]

     iteration #  4     ecut=    40.00 Ry     beta=0.70
     CG style diagonalization
     ethr =  1.00E-02,  avg # of iterations =  3.6

[...]

     End of self-consistent calculation

     Number of k-points >= 100: set verbosity='high' to print the bands.

     the Fermi energy is    36.9930 ev

!    total energy              =   -1188.35983218 Ry
     Harris-Foulkes estimate   =   -1188.35983106 Ry
     estimated scf accuracy    <       0.00000284 Ry

     The total energy is the sum of the following terms:

     one-electron contribution =    -128.38394864 Ry
     hartree contribution      =     159.56508035 Ry
     xc contribution           =    -114.88797220 Ry
     ewald contribution        =   -1104.42160607 Ry
     smearing contrib. (-TS)   =      -0.23138562 Ry

     convergence has been achieved in  11 iterations

     Forces acting on atoms (Ry/au):

     atom    1 type  1   force =     0.00000000    0.00000000   -0.00068769
     atom    2 type  1   force =     0.00000000    0.00000000    0.00068769
     atom    3 type  2   force =     0.00000000    0.00000000    0.00000000
     atom    4 type  2   force =     0.00000000    0.00000000    0.00000000
     atom    5 type  2   force =     0.00000000    0.00000000    0.00000000
     atom    6 type  2   force =     0.00000000    0.00000000    0.00000000

     Total force =     0.000973     Total SCF correction =     0.000000

     entering subroutine stress ...

          total   stress  (Ry/bohr**3)                   (kbar)     P= 2185.03
   0.01484731   0.00000000   0.00000000       2184.11      0.00      0.00
   0.00000000   0.01484731   0.00000000          0.00   2184.11      0.00
   0.00000000   0.00000000   0.01486607          0.00      0.00   2186.87

     BFGS Geometry Optimization

     number of scf cycles    =   1
     number of bfgs steps    =   0

     enthalpy new            =   -1188.3598321755 Ry

     new trust radius        =       0.5000000000 bohr
     new conv_thr            =       0.0001000000 Ry

     new unit-cell volume =    783.75387 a.u.^3 (   116.14034 Ang^3 )

CELL_PARAMETERS (alat=  9.37903830)
   1.103374113   0.000000000   0.000000000
   0.551687056   0.955550012   0.000000000
   0.551687056   0.318516671   0.901007810

ATOMIC_POSITIONS (crystal)
Mg       0.750008336   0.750008336   0.749974991
Mg       0.499991664   0.499991664   0.500025009
Cu       0.125000000   0.125000000   0.125000000
Cu       0.625000000   0.125000000   0.125000000
Cu       0.125000000   0.625000000   0.125000000
Cu       0.125000000   0.125000000   0.625000000

     Writing output data file Prototype-La-cF24-Cu2Mg.save
     Check: negative starting charge=   -0.000113
     NEW-OLD atomic charge density approx. for the potential
     NEW k-points: (use verbosity='high' to print them)
     Check: negative starting charge=   -0.004490

     negative rho (up, down):  0.439E-02 0.000E+00
     extrapolated charge  113.28386, renormalised to  100.00000

[...]

     enthalpy old            =   -1188.3598321755 Ry
     enthalpy new            =   -1189.5374078697 Ry

     CASE: enthalpy_new < enthalpy_old

     small trust_radius: resetting bfgs history

     new trust radius        =       0.0793774438 bohr
     new conv_thr            =       0.0000071481 Ry

[...]

     Writing output data file Prototype-La-cF24-Cu2Mg.save
     Check: negative starting charge=   -0.004490
     NEW-OLD atomic charge density approx. for the potential
     NEW k-points: (use verbosity='high' to print them)
     Check: negative starting charge=   -0.003639

     negative rho (up, down):  0.130E-02 0.000E+00
     extrapolated charge   97.73017, renormalised to  100.00000

[...]

     number of scf cycles    =   3
     number of bfgs steps    =   2

     enthalpy old            =   -1189.5374078696 Ry
     enthalpy new            =   -1189.5298287243 Ry

     CASE: enthalpy_new > enthalpy_old

     new trust radius        =       0.0281431308 bohr

     trust_radius < trust_radius_min

     resetting bfgs history

     Message from routine bfgs:
     history already reset at previous step: stopping
     new conv_thr            =       0.0000071481 Ry

     new unit-cell volume =    750.48647 a.u.^3 (   111.21062 Ang^3 )

[...]

ATOMIC_POSITIONS (crystal)
Mg       0.749718259   0.749718259   0.750845224
Mg       0.500281741   0.500281741   0.499154776
Cu       0.125000000   0.125000000   0.125000000
Cu       0.625000000   0.125000000   0.125000000
Cu       0.125000000   0.625000000   0.125000000
Cu       0.125000000   0.125000000   0.625000000

     Writing output data file Prototype-La-cF24-Cu2Mg.save
     Check: negative starting charge=   -0.003639
     NEW-OLD atomic charge density approx. for the potential
     NEW k-points: (use verbosity='high' to print them)
     Check: negative starting charge=   -0.003628
     extrapolated charge   99.96787, renormalised to  100.00000

[...]

     The maximum number of steps has been reached.

     End of BFGS Geometry Optimization
Begin final coordinates
     new unit-cell volume =    750.48647 a.u.^3 (   111.21062 Ang^3 )

CELL_PARAMETERS (alat=  9.37903830)
   1.087508147   0.000000000   0.000000000
   0.543754073   0.941809682   0.000000000
   0.543754073   0.313936561   0.888121269

ATOMIC_POSITIONS (crystal)
Mg       0.749718259   0.749718259   0.750845224
Mg       0.500281741   0.500281741   0.499154776
Cu       0.125000000   0.125000000   0.125000000
Cu       0.625000000   0.125000000   0.125000000
Cu       0.125000000   0.625000000   0.125000000
Cu       0.125000000   0.125000000   0.625000000
End final coordinates

     A final scf calculation at the relaxed structure.
     The G-vectors are recalculated for the final unit cell
     Results may differ from those at the preceding step.

     bravais-lattice index     =            0
     lattice parameter (alat)  =       9.3790  a.u.
     unit-cell volume          =     750.4865 (a.u.)^3
     number of atoms/cell      =            6
     number of atomic types    =            2
     number of electrons       =       100.00
     number of Kohn-Sham states=           60
     kinetic-energy cutoff     =      40.0000  Ry
     charge density cutoff     =     160.0000  Ry
     convergence threshold     =      7.1E-06
     mixing beta               =       0.7000
     number of iterations used =            8  plain     mixing
     Exchange-correlation      = SLA-PZ-NOGX-NOGC ( 1 1 0 0 0)
     EXX-fraction              =        0.00

     celldm(1)=   9.379038  celldm(2)=   0.000000  celldm(3)=   0.000000
     celldm(4)=   0.000000  celldm(5)=   0.000000  celldm(6)=   0.000000

     crystal axes: (cart. coord. in units of alat)
               a(1) = (   1.087508   0.000000   0.000000 )
               a(2) = (   0.543754   0.941810   0.000000 )
               a(3) = (   0.543754   0.313937   0.888121 )

     reciprocal axes: (cart. coord. in units 2 pi/alat)
               b(1) = (  0.919533 -0.530893 -0.375324 )
               b(2) = (  0.000000  1.061786 -0.375324 )
               b(3) = (  0.000000  0.000000  1.125972 )

     PseudoPot. # 1 for Yb read from file:
     /home/jld5415/pp.La/Yb.UPF
     MD5 check sum: 3e859b81cc28c53ec6aa3a2e888efcdf
     Pseudo is Norm-conserving, Zval = 24.0
     Generated in analytical, separable form
     Using radial grid of 1269 points,  6 beta functions with:
                l(1) =   0
                l(2) =   0
                l(3) =   1
                l(4) =   1
                l(5) =   2
                l(6) =   3

     PseudoPot. # 2 for Pr read from file:
     /home/jld5415/pp.La/Pr.UPF
     MD5 check sum: 70e2b4b153859e92c8c91247dfc63203
     Pseudo is Norm-conserving, Zval = 13.0
     Generated in analytical, separable form
     Using radial grid of 1255 points,  6 beta functions with:
                l(1) =   0
                l(2) =   0
                l(3) =   1
                l(4) =   1
                l(5) =   2
                l(6) =   3

     atomic species   valence    mass     pseudopotential
        Mg            24.00    24.30500     Yb( 1.00)
        Cu            13.00    63.54600     Pr( 1.00)

     12 Sym. Ops., with inversion, found ( 6 have fractional translation)

   Cartesian axes

     site n.     atom                  positions (alat units)
         1           Mg  tau(   1) = (   1.6312622   0.9418097   0.6668416  )
         2           Mg  tau(   2) = (   1.0875081   0.6278731   0.4433100  )
         3           Cu  tau(   3) = (   0.2718770   0.1569683   0.1110152  )
         4           Cu  tau(   4) = (   0.8156311   0.1569683   0.1110152  )
         5           Cu  tau(   5) = (   0.5437541   0.6278731   0.1110152  )
         6           Cu  tau(   6) = (   0.5437541   0.3139366   0.5550758  )

     number of k points=   170  gaussian smearing, width (Ry)=  0.1000

     Number of k-points >= 100: set verbosity='high' to print them.

     Largest allocated arrays     est. size (Mb)     dimensions
     Largest temporary arrays     est. size (Mb)     dimensions

     Initial potential from superposition of free atoms
     Check: negative starting charge=   -0.000863

     starting charge   51.96217, renormalised to  100.00000

     negative rho (up, down):  0.166E-02 0.000E+00
     Starting wfc are   80 randomized atomic wfcs

     Writing output data file Prototype-La-cF24-Cu2Mg.save

     Self-consistent Calculation

[...]

     negative rho (up, down):  0.125E-03 0.000E+00

[...]

     iteration # 12     ecut=    40.00 Ry     beta=0.70
     CG style diagonalization
     c_bands:  1 eigenvalues not converged
     ethr =  4.79E-08,  avg # of iterations =  4.8

     total energy              =   -1190.36639183 Ry
     Harris-Foulkes estimate   =   -1190.36639686 Ry
     estimated scf accuracy    <       0.00001228 Ry

     iteration # 13     ecut=    40.00 Ry     beta=0.70
     CG style diagonalization
     ethr =  1.23E-08,  avg # of iterations =  3.6

     End of self-consistent calculation

     Number of k-points >= 100: set verbosity='high' to print the bands.

     the Fermi energy is    28.3497 ev

!    total energy              =   -1190.36639391 Ry
     Harris-Foulkes estimate   =   -1190.36639471 Ry
     estimated scf accuracy    <       0.00000104 Ry

     The total energy is the sum of the following terms:

     one-electron contribution =    -254.68706704 Ry
     hartree contribution      =     192.09598731 Ry
     xc contribution           =    -112.01533260 Ry
     ewald contribution        =   -1015.48463743 Ry
     smearing contrib. (-TS)   =      -0.27534415 Ry

     convergence has been achieved in  13 iterations

     Forces acting on atoms (Ry/au):

     atom    1 type  1   force =     0.00000000    0.00000000   -0.00278868
     atom    2 type  1   force =     0.00000000    0.00000000    0.00278868
     atom    3 type  2   force =     0.00000000    0.00000000    0.00000000
     atom    4 type  2   force =     0.00000000    0.00000000    0.00000000
     atom    5 type  2   force =     0.00000000    0.00000000    0.00000000
     atom    6 type  2   force =     0.00000000    0.00000000    0.00000000

     Total force =     0.003944     Total SCF correction =     0.000000

     entering subroutine stress ...

          total   stress  (Ry/bohr**3)                   (kbar)     P=  530.44
   0.00360504   0.00000000   0.00000000        530.32      0.00      0.00
   0.00000000   0.00360504   0.00000000          0.00    530.32      0.00
   0.00000000   0.00000000   0.00360752          0.00      0.00    530.68

     Writing output data file Prototype-La-cF24-Cu2Mg.save

     General routines

     Parallel routines

   This run was terminated on:  13:50:28  22Mar2018

   JOB DONE.