     Program PWSCF v.5.0.2 starts on 22Mar2018 at 12:13:28

     Current dimensions of program PWSCF are:
     Max number of different atomic species (ntypx) = 10
     Max number of k-points (npk) =  40000
     Max angular momentum in pseudopotentials (lmaxx) =  3
     Waiting for input...
     Reading input from standard input

     Subspace diagonalization in iterative solution of the eigenvalue problem:
     a serial algorithm will be used

     bravais-lattice index     =            0
     lattice parameter (alat)  =       8.8008  a.u.
     unit-cell volume          =    1116.9454 (a.u.)^3
     number of atoms/cell      =           16
     number of atomic types    =            2
     number of electrons       =       340.00
     number of Kohn-Sham states=          204
     kinetic-energy cutoff     =      40.0000  Ry
     charge density cutoff     =     160.0000  Ry
     convergence threshold     =      1.0E-04
     mixing beta               =       0.7000
     number of iterations used =            8  plain     mixing
     Exchange-correlation      = SLA-PZ-NOGX-NOGC ( 1 1 0 0 0)
     EXX-fraction              =        0.00
     nstep                     =           50

     celldm(1)=   8.800765  celldm(2)=   0.000000  celldm(3)=   0.000000
     celldm(4)=   0.000000  celldm(5)=   0.000000  celldm(6)=   0.000000

     crystal axes: (cart. coord. in units of alat)
               a(1) = (   1.000000   0.000000   0.000000 )
               a(2) = (   0.000000   1.083771   0.000000 )
               a(3) = (   0.000000   0.000000   1.511935 )

     reciprocal axes: (cart. coord. in units 2 pi/alat)
               b(1) = (  1.000000  0.000000  0.000000 )
               b(2) = (  0.000000  0.922704  0.000000 )
               b(3) = (  0.000000  0.000000  0.661404 )

     PseudoPot. # 1 for Yb read from file:
     /home/jld5415/pp.La/Yb.UPF
     MD5 check sum: 3e859b81cc28c53ec6aa3a2e888efcdf
     Pseudo is Norm-conserving, Zval = 24.0
     Generated in analytical, separable form
     Using radial grid of 1269 points,  6 beta functions with:
                l(1) =   0
                l(2) =   0
                l(3) =   1
                l(4) =   1
                l(5) =   2
                l(6) =   3

     PseudoPot. # 2 for Pr read from file:
     /home/jld5415/pp.La/Pr.UPF
     MD5 check sum: 70e2b4b153859e92c8c91247dfc63203
     Pseudo is Norm-conserving, Zval = 13.0
     Generated in analytical, separable form
     Using radial grid of 1255 points,  6 beta functions with:
                l(1) =   0
                l(2) =   0
                l(3) =   1
                l(4) =   1
                l(5) =   2
                l(6) =   3

     atomic species   valence    mass     pseudopotential
        Fe            24.00    55.84500     Yb( 1.00)
        C             13.00    12.01070     Pr( 1.00)

      8 Sym. Ops., with inversion, found ( 6 have fractional translation)

   Cartesian axes

     site n.     atom                  positions (alat units)
         1           Fe  tau(   1) = (   0.3472940   0.1827628   1.3947267  )
         2           Fe  tau(   2) = (   0.1527060   0.7246484   0.8731757  )
         3           Fe  tau(   3) = (   0.8472940   0.3591227   0.6387592  )
         4           Fe  tau(   4) = (   0.3396640   0.4879235   0.3779837  )
         5           Fe  tau(   5) = (   0.1527060   0.7246484   1.3947267  )
         6           Fe  tau(   6) = (   0.3472940   0.1827628   0.8731757  )
         7           Fe  tau(   7) = (   0.1603360   1.0298091   0.3779837  )
         8           Fe  tau(   8) = (   0.6527060   0.9010083   0.6387592  )
         9           Fe  tau(   9) = (   0.8472940   0.3591227   0.1172082  )
        10           Fe  tau(  10) = (   0.6603360   0.5958476   1.1339512  )
        11           Fe  tau(  11) = (   0.6527060   0.9010083   0.1172082  )
        12           Fe  tau(  12) = (   0.8396640   0.0539620   1.1339512  )
        13           C   tau(  13) = (   0.0000000   0.0000000   0.0000000  )
        14           C   tau(  14) = (   0.5000000   0.5418856   0.0000000  )
        15           C   tau(  15) = (   0.5000000   0.5418856   0.7559674  )
        16           C   tau(  16) = (   0.0000000   0.0000000   0.7559674  )

     number of k points=    12  gaussian smearing, width (Ry)=  0.1000
                       cart. coord. in units 2pi/alat
        k(    1) = (   0.0000000   0.0000000   0.0000000), wk =   0.0833333
        k(    2) = (   0.0000000   0.0000000   0.1653510), wk =   0.1666667
        k(    3) = (   0.0000000   0.0000000  -0.3307021), wk =   0.0833333
        k(    4) = (   0.0000000   0.3075680   0.0000000), wk =   0.1666667
        k(    5) = (   0.0000000   0.3075680   0.1653510), wk =   0.3333333
        k(    6) = (   0.0000000   0.3075680  -0.3307021), wk =   0.1666667
        k(    7) = (  -0.5000000   0.0000000   0.0000000), wk =   0.0833333
        k(    8) = (  -0.5000000   0.0000000   0.1653510), wk =   0.1666667
        k(    9) = (  -0.5000000   0.0000000  -0.3307021), wk =   0.0833333
        k(   10) = (  -0.5000000   0.3075680   0.0000000), wk =   0.1666667
        k(   11) = (  -0.5000000   0.3075680   0.1653510), wk =   0.3333333
        k(   12) = (  -0.5000000   0.3075680  -0.3307021), wk =   0.1666667

     Largest allocated arrays     est. size (Mb)     dimensions
     Largest temporary arrays     est. size (Mb)     dimensions

     Initial potential from superposition of free atoms
     Check: negative starting charge=   -0.000594

     starting charge   51.96217, renormalised to  340.00000

     negative rho (up, down):  0.389E-02 0.000E+00
     Starting wfc are   80 randomized atomic wfcs

     Self-consistent Calculation

     iteration #  1     ecut=    40.00 Ry     beta=0.70
     CG style diagonalization
     c_bands:  2 eigenvalues not converged
     c_bands:  2 eigenvalues not converged
     c_bands:  1 eigenvalues not converged
     c_bands:  2 eigenvalues not converged
     c_bands:  1 eigenvalues not converged
     c_bands:  2 eigenvalues not converged
     c_bands:  1 eigenvalues not converged
     c_bands:  2 eigenvalues not converged
     c_bands:  2 eigenvalues not converged
     c_bands:  2 eigenvalues not converged
     c_bands:  1 eigenvalues not converged
     ethr =  1.00E-02,  avg # of iterations = 32.2

     negative rho (up, down):  0.116E-02 0.000E+00

     total energy              =   -4325.28915373 Ry
     Harris-Foulkes estimate   =  -11093.64501808 Ry
     estimated scf accuracy    <    7914.77112927 Ry

[...]

     iteration #  4     ecut=    40.00 Ry     beta=0.70
     CG style diagonalization
     ethr =  1.00E-02,  avg # of iterations =  6.6

[...]

     End of self-consistent calculation

          k = 0.0000 0.0000 0.0000 (  4785 PWs)   bands (ev):

   -69.8740 -69.8671 -69.8498 -69.8385 -69.8267 -69.8151 -69.8003 -69.7976
   -69.6130 -69.6097 -69.6019 -69.5764 -30.2126 -30.1534 -29.9726 -29.9395
   -29.9283 -29.9048 -29.7279 -29.7233 -29.6806 -29.6628 -29.6376 -29.5412
   -28.8637 -28.8633 -28.8524 -28.8388 -28.7537 -28.6818 -28.6770 -28.6767
   -28.6316 -28.6211 -28.5084 -28.4732 -28.4429 -28.4221 -28.4211 -28.3917
   -28.3760 -28.3415 -28.2660 -28.2634 -28.2393 -28.2378 -28.0913 -28.0844
     3.9323   4.4688   5.0326   5.6138  17.6597  17.7756  17.8837  18.2925
    18.7286  18.8273  20.1263  20.2352  20.6362  21.1479  21.6981  21.7917
    24.3024  24.3621  24.8678  24.9291  25.1163  25.2609  25.4538  25.8132
    25.9773  26.0876  26.2085  26.2954  26.3362  26.4589  26.4982  26.5527
    26.8005  26.8615  26.8787  26.9601  27.1146  27.1615  27.3695  27.6052
    27.6728  27.7357  28.0152  28.0355  28.0522  28.2040  28.3119  28.5602
    28.6230  28.6803  28.7275  28.8919  29.0964  29.1329  29.2308  29.2403
    29.2545  29.2726  29.3514  30.0798  30.1146  30.2717  30.3209  30.3713
    30.7454  31.2185  31.9779  32.2106  32.2674  33.7195  34.2091  35.1656
    36.4141  36.4466  36.9970  37.3754  37.5424  38.8377  40.6337  41.1014
    41.2381  41.5585  41.8907  42.1871  43.3615  43.7873  44.1922  44.6407
    46.0957  46.8390  46.9284  47.1092  47.2957  47.9107  48.8207  49.1356
    49.5756  50.8359  50.8510  51.0495  51.1362  51.7490  51.7620  52.0806
    52.1347  52.2075  52.5614  52.6313  52.6658  52.6927  53.7461  53.8139
    53.9418  54.3379  54.8779  55.0598  55.2199  55.3815  55.7057  56.2798
    56.3815  56.5443  56.7169  57.0801  57.3386  58.0369  58.2365  58.4682
    58.4738  58.5782  59.3968  59.5409  59.6208  59.7929  59.8470  59.9894
    60.1381  61.0154  61.0661  61.1468  61.2880  61.4337  61.4741  61.4833
    61.6215  61.8332  62.5363  62.7077  62.7434  62.9912  63.0874  63.3792
    63.9415  64.0103  64.1262  64.2326

[...]

          k =-0.5000 0.0000 0.0000 (  4798 PWs)   bands (ev):

[...]

     the Fermi energy is    56.9062 ev

!    total energy              =   -5239.93536555 Ry
     Harris-Foulkes estimate   =   -5239.93541799 Ry
     estimated scf accuracy    <       0.00006177 Ry

     The total energy is the sum of the following terms:

     one-electron contribution =    -382.05811063 Ry
     hartree contribution      =     668.49041981 Ry
     xc contribution           =    -462.01281439 Ry
     ewald contribution        =   -5063.85078362 Ry
     smearing contrib. (-TS)   =      -0.50407671 Ry

     convergence has been achieved in  10 iterations

     Forces acting on atoms (Ry/au):

     atom    1 type  1   force =     0.95077251   -1.10479955   -1.40608149
     atom    2 type  1   force =    -0.95077251   -1.10479955    1.40608149
     atom    3 type  1   force =     0.95077251    1.10479955   -1.40608149
     atom    4 type  1   force =    -1.68992094   -0.68023434    0.00000000
     atom    5 type  1   force =    -0.95077251   -1.10479955   -1.40608149
     atom    6 type  1   force =     0.95077251   -1.10479955    1.40608149
     atom    7 type  1   force =     1.68992094   -0.68023434    0.00000000
     atom    8 type  1   force =    -0.95077251    1.10479955   -1.40608149
     atom    9 type  1   force =     0.95077251    1.10479955    1.40608149
     atom   10 type  1   force =     1.68992094    0.68023434    0.00000000
     atom   11 type  1   force =    -0.95077251    1.10479955    1.40608149
     atom   12 type  1   force =    -1.68992094    0.68023434    0.00000000
     atom   13 type  2   force =     0.00000000    0.00000000    0.00000000
     atom   14 type  2   force =     0.00000000    0.00000000    0.00000000
     atom   15 type  2   force =     0.00000000    0.00000000    0.00000000
     atom   16 type  2   force =     0.00000000    0.00000000    0.00000000

     Total force =     6.788750     Total SCF correction =     0.000000

     entering subroutine stress ...

          total   stress  (Ry/bohr**3)                   (kbar)     P=12256.20
   0.08371706   0.00000000   0.00000000      12315.20      0.00      0.00
   0.00000000   0.08360500   0.00000000          0.00  12298.72      0.00
   0.00000000   0.00000000   0.08262586          0.00      0.00  12154.68

     BFGS Geometry Optimization

     number of scf cycles    =   1
     number of bfgs steps    =   0

     enthalpy new            =   -5239.9353655465 Ry

[...]
        k(   12) = (  -0.4652012   0.2861886  -0.3079653), wk =   0.1666667
     Check: negative starting charge=   -0.004936

     negative rho (up, down):  0.443E-02 0.000E+00
     extrapolated charge  350.06987, renormalised to  340.00000

[...]

          total   stress  (Ry/bohr**3)                   (kbar)     P= 5516.75
   0.03828739   0.00000000   0.00000000       5632.27      0.00      0.00
   0.00000000   0.03649519   0.00000000          0.00   5368.63      0.00
   0.00000000   0.00000000   0.03772375          0.00      0.00   5549.35

[...]

     enthalpy old            =   -5239.9353655465 Ry
     enthalpy new            =   -5256.7856862462 Ry

     CASE: enthalpy_new < enthalpy_old

     small trust_radius: resetting bfgs history

     new trust radius        =       7.1255469872 bohr
     new conv_thr            =       0.0001000000 Ry

[...]

     Writing output data file Prototype-La-oP16-Fe3C.save
     Check: negative starting charge=   -0.004936
     NEW-OLD atomic charge density approx. for the potential
     NEW k-points:
        k(    1) = (   0.0000000   0.0000000   0.0000000), wk =   0.0833333
        k(    2) = (   0.0000000   0.0000000   0.0792461), wk =   0.1666667
        k(    3) = (   0.0000000   0.0000000  -0.1584923), wk =   0.0833333
        k(    4) = (   0.0000000   0.1496505   0.0000000), wk =   0.1666667
        k(    5) = (   0.0000000   0.1496505   0.0792461), wk =   0.3333333
        k(    6) = (   0.0000000   0.1496505  -0.1584923), wk =   0.1666667
        k(    7) = (  -0.2376889   0.0000000   0.0000000), wk =   0.0833333
        k(    8) = (  -0.2376889   0.0000000   0.0792461), wk =   0.1666667
        k(    9) = (  -0.2376889   0.0000000  -0.1584923), wk =   0.0833333
        k(   10) = (  -0.2376889   0.1496505   0.0000000), wk =   0.1666667
        k(   11) = (  -0.2376889   0.1496505   0.0792461), wk =   0.3333333
        k(   12) = (  -0.2376889   0.1496505  -0.1584923), wk =   0.1666667
     Check: negative starting charge=   -1.183038
     extrapolated charge  384.81741, renormalised to  340.00000

[...]

          total   stress  (Ry/bohr**3)                   (kbar)     P=-7529.47
  -0.05192351   0.00000000   0.00000000      -7638.21      0.00      0.00
   0.00000000  -0.05041396   0.00000000          0.00  -7416.15      0.00
   0.00000000   0.00000000  -0.05121549          0.00      0.00  -7534.06

     number of scf cycles    =   3
     number of bfgs steps    =   2

     enthalpy old            =   -5256.7856862462 Ry
     enthalpy new            =   -4890.1281012459 Ry

     CASE: enthalpy_new > enthalpy_old

     new trust radius        =       1.4981583235 bohr

     trust_radius < trust_radius_min

     resetting bfgs history

     Message from routine bfgs:
     history already reset at previous step: stopping
     new conv_thr            =       0.0001000000 Ry

     new unit-cell volume =   1589.24986 a.u.^3 (   235.50253 Ang^3 )

[...]

ATOMIC_POSITIONS (crystal)
Fe       0.352603048   0.162888983   0.917280773
Fe       0.147396952   0.662888983   0.582719227
Fe       0.852603048   0.337111017   0.417280773
Fe       0.330234801   0.446610800   0.250000000
Fe       0.147396952   0.662888983   0.917280773
Fe       0.352603048   0.162888983   0.582719227
Fe       0.169765199   0.946610800   0.250000000
Fe       0.647396952   0.837111017   0.417280773
Fe       0.852603048   0.337111017   0.082719227
Fe       0.669765199   0.553389200   0.750000000
Fe       0.647396952   0.837111017   0.082719227
Fe       0.830234801   0.053389200   0.750000000
C        0.000000000   0.000000000   0.000000000
C        0.500000000   0.500000000   0.000000000
C        0.500000000   0.500000000   0.500000000
C        0.000000000   0.000000000   0.500000000

     Writing output data file Prototype-La-oP16-Fe3C.save
     Check: negative starting charge=   -1.183038
     NEW-OLD atomic charge density approx. for the potential
     NEW k-points:
        k(    1) = (   0.0000000   0.0000000   0.0000000), wk =   0.0833333
        k(    2) = (   0.0000000   0.0000000   0.1470229), wk =   0.1666667
        k(    3) = (   0.0000000   0.0000000  -0.2940457), wk =   0.0833333
        k(    4) = (   0.0000000   0.2740325   0.0000000), wk =   0.1666667
        k(    5) = (   0.0000000   0.2740325   0.1470229), wk =   0.3333333
        k(    6) = (   0.0000000   0.2740325  -0.2940457), wk =   0.1666667
        k(    7) = (  -0.4435789   0.0000000   0.0000000), wk =   0.0833333
        k(    8) = (  -0.4435789   0.0000000   0.1470229), wk =   0.1666667
        k(    9) = (  -0.4435789   0.0000000  -0.2940457), wk =   0.0833333
        k(   10) = (  -0.4435789   0.2740325   0.0000000), wk =   0.1666667
        k(   11) = (  -0.4435789   0.2740325   0.1470229), wk =   0.3333333
        k(   12) = (  -0.4435789   0.2740325  -0.2940457), wk =   0.1666667
     Check: negative starting charge=   -0.009248

     negative rho (up, down):  0.229E+03 0.000E+00
     extrapolated charge   62.51954, renormalised to  340.00000

[...]

     The maximum number of steps has been reached.

     End of BFGS Geometry Optimization
Begin final coordinates
     new unit-cell volume =   1589.24986 a.u.^3 (   235.50253 Ang^3 )

CELL_PARAMETERS (alat=  8.80076499)
   1.127195107   0.000000000   0.000000000
   0.000000000   1.216400755   0.000000000
   0.000000000   0.000000000   1.700415805

ATOMIC_POSITIONS (crystal)
Fe       0.352603048   0.162888983   0.917280773
Fe       0.147396952   0.662888983   0.582719227
Fe       0.852603048   0.337111017   0.417280773
Fe       0.330234801   0.446610800   0.250000000
Fe       0.147396952   0.662888983   0.917280773
Fe       0.352603048   0.162888983   0.582719227
Fe       0.169765199   0.946610800   0.250000000
Fe       0.647396952   0.837111017   0.417280773
Fe       0.852603048   0.337111017   0.082719227
Fe       0.669765199   0.553389200   0.750000000
Fe       0.647396952   0.837111017   0.082719227
Fe       0.830234801   0.053389200   0.750000000
C        0.000000000   0.000000000   0.000000000
C        0.500000000   0.500000000   0.000000000
C        0.500000000   0.500000000   0.500000000
C        0.000000000   0.000000000   0.500000000
End final coordinates

     A final scf calculation at the relaxed structure.
     The G-vectors are recalculated for the final unit cell
     Results may differ from those at the preceding step.

     bravais-lattice index     =            0
     lattice parameter (alat)  =       8.8008  a.u.
     unit-cell volume          =    1589.2499 (a.u.)^3
     number of atoms/cell      =           16
     number of atomic types    =            2
     number of electrons       =       340.00
     number of Kohn-Sham states=          204
     kinetic-energy cutoff     =      40.0000  Ry
     charge density cutoff     =     160.0000  Ry
     convergence threshold     =      1.0E-04
     mixing beta               =       0.7000
     number of iterations used =            8  plain     mixing
     Exchange-correlation      = SLA-PZ-NOGX-NOGC ( 1 1 0 0 0)
     EXX-fraction              =        0.00

     celldm(1)=   8.800765  celldm(2)=   0.000000  celldm(3)=   0.000000
     celldm(4)=   0.000000  celldm(5)=   0.000000  celldm(6)=   0.000000

     crystal axes: (cart. coord. in units of alat)
               a(1) = (   1.127195   0.000000   0.000000 )
               a(2) = (   0.000000   1.216401   0.000000 )
               a(3) = (   0.000000   0.000000   1.700416 )

     reciprocal axes: (cart. coord. in units 2 pi/alat)
               b(1) = (  0.887158  0.000000  0.000000 )
               b(2) = (  0.000000  0.822097  0.000000 )
               b(3) = (  0.000000  0.000000  0.588091 )

     PseudoPot. # 1 for Yb read from file:
     /home/jld5415/pp.La/Yb.UPF
     MD5 check sum: 3e859b81cc28c53ec6aa3a2e888efcdf
     Pseudo is Norm-conserving, Zval = 24.0
     Generated in analytical, separable form
     Using radial grid of 1269 points,  6 beta functions with:
                l(1) =   0
                l(2) =   0
                l(3) =   1
                l(4) =   1
                l(5) =   2
                l(6) =   3

     PseudoPot. # 2 for Pr read from file:
     /home/jld5415/pp.La/Pr.UPF
     MD5 check sum: 70e2b4b153859e92c8c91247dfc63203
     Pseudo is Norm-conserving, Zval = 13.0
     Generated in analytical, separable form
     Using radial grid of 1255 points,  6 beta functions with:
                l(1) =   0
                l(2) =   0
                l(3) =   1
                l(4) =   1
                l(5) =   2
                l(6) =   3

     atomic species   valence    mass     pseudopotential
        Fe            24.00    55.84500     Yb( 1.00)
        C             13.00    12.01070     Pr( 1.00)

      8 Sym. Ops., with inversion, found ( 6 have fractional translation)

   Cartesian axes

     site n.     atom                  positions (alat units)
         1           Fe  tau(   1) = (   0.3974524   0.1981383   1.5597587  )
         2           Fe  tau(   2) = (   0.1661451   0.8063387   0.9908650  )
         3           Fe  tau(   3) = (   0.9610500   0.4100621   0.7095508  )
         4           Fe  tau(   4) = (   0.3722391   0.5432577   0.4251040  )
         5           Fe  tau(   5) = (   0.1661451   0.8063387   1.5597587  )
         6           Fe  tau(   6) = (   0.3974524   0.1981383   0.9908650  )
         7           Fe  tau(   7) = (   0.1913585   1.1514581   0.4251040  )
         8           Fe  tau(   8) = (   0.7297427   1.0182625   0.7095508  )
         9           Fe  tau(   9) = (   0.9610500   0.4100621   0.1406571  )
        10           Fe  tau(  10) = (   0.7549561   0.6731430   1.2753119  )
        11           Fe  tau(  11) = (   0.7297427   1.0182625   0.1406571  )
        12           Fe  tau(  12) = (   0.9358366   0.0649427   1.2753119  )
        13           C   tau(  13) = (   0.0000000   0.0000000   0.0000000  )
        14           C   tau(  14) = (   0.5635976   0.6082004   0.0000000  )
        15           C   tau(  15) = (   0.5635976   0.6082004   0.8502079  )
        16           C   tau(  16) = (   0.0000000   0.0000000   0.8502079  )

     number of k points=    12  gaussian smearing, width (Ry)=  0.1000
                       cart. coord. in units 2pi/alat
        k(    1) = (   0.0000000   0.0000000   0.0000000), wk =   0.0833333
        k(    2) = (   0.0000000   0.0000000   0.1470229), wk =   0.1666667
        k(    3) = (   0.0000000   0.0000000  -0.2940457), wk =   0.0833333
        k(    4) = (   0.0000000   0.2740325   0.0000000), wk =   0.1666667
        k(    5) = (   0.0000000   0.2740325   0.1470229), wk =   0.3333333
        k(    6) = (   0.0000000   0.2740325  -0.2940457), wk =   0.1666667
        k(    7) = (  -0.4435789   0.0000000   0.0000000), wk =   0.0833333
        k(    8) = (  -0.4435789   0.0000000   0.1470229), wk =   0.1666667
        k(    9) = (  -0.4435789   0.0000000  -0.2940457), wk =   0.0833333
        k(   10) = (  -0.4435789   0.2740325   0.0000000), wk =   0.1666667
        k(   11) = (  -0.4435789   0.2740325   0.1470229), wk =   0.3333333
        k(   12) = (  -0.4435789   0.2740325  -0.2940457), wk =   0.1666667

     Largest allocated arrays     est. size (Mb)     dimensions
     Largest temporary arrays     est. size (Mb)     dimensions

     Initial potential from superposition of free atoms
     Check: negative starting charge=   -0.001220

     starting charge   51.96217, renormalised to  340.00000

     negative rho (up, down):  0.798E-02 0.000E+00
     Starting wfc are   80 randomized atomic wfcs

     Writing output data file Prototype-La-oP16-Fe3C.save

     Self-consistent Calculation

[...]

     negative rho (up, down):  0.678E-05 0.000E+00

[...]

     iteration #  5     ecut=    40.00 Ry     beta=0.70
     CG style diagonalization
     ethr =  1.00E-02,  avg # of iterations =  6.3

[...]

     total energy              =   -5269.28953810 Ry
     Harris-Foulkes estimate   =   -5269.28985843 Ry
     estimated scf accuracy    <       0.00058831 Ry

     iteration # 10     ecut=    40.00 Ry     beta=0.70
     CG style diagonalization
     c_bands:  1 eigenvalues not converged
     c_bands:  1 eigenvalues not converged
     ethr =  1.73E-07,  avg # of iterations =  5.4

     End of self-consistent calculation

[...]

          k = 0.0000 0.2740-0.2940 (  6764 PWs)   bands (ev):

[...]

          k =-0.4436 0.2740-0.2940 (  6812 PWs)   bands (ev):

   -85.3801 -85.3801 -85.3754 -85.3754 -85.3681 -85.3681 -85.3575 -85.3575
   -85.1997 -85.1996 -85.1697 -85.1697 -44.5951 -44.5951 -44.5875 -44.5875
   -44.5804 -44.5804 -44.5699 -44.5699 -44.4034 -44.4034 -44.3975 -44.3975
   -44.2576 -44.2576 -44.2540 -44.2540 -44.1929 -44.1929 -44.1888 -44.1888
   -44.1204 -44.1204 -44.1161 -44.1161 -44.0430 -44.0430 -44.0374 -44.0374
   -44.0054 -44.0054 -44.0020 -44.0020 -43.8874 -43.8874 -43.8770 -43.8770
    -6.4018  -6.4018  -6.4010  -6.4010   8.4191   8.4191   8.4246   8.4246
     8.8488   8.8488   8.8774   8.8774   9.3764   9.3764   9.4135   9.4135
    12.1022  12.1022  12.1190  12.1190  12.3067  12.3067  12.3447  12.3447
    12.3669  12.3669  12.6195  12.6195  12.7548  12.7548  12.8288  12.8288
    12.8857  12.8857  13.0799  13.0799  13.0878  13.0878  13.1908  13.1908
    13.3274  13.3274  13.3463  13.3463  13.5165  13.5165  13.5734  13.5734
    13.7549  13.7549  13.8134  13.8134  13.9038  13.9038  13.9558  13.9558
    14.0945  14.0945  14.1266  14.1266  14.2537  14.2537  14.3164  14.3164
    15.9367  15.9367  15.9517  15.9517  16.7579  16.7579  16.9815  16.9815
    17.6052  17.6052  17.6294  17.6294  24.8166  24.8166  24.9659  24.9659
    26.9729  26.9729  27.1743  27.1743  28.4876  28.4876  29.1517  29.1517
    30.1031  30.1031  31.3398  31.3398  32.0771  32.0771  32.1301  32.1301
    33.0309  33.0309  34.0409  34.0409  34.6813  34.6813  34.9334  34.9334
    35.5248  35.5248  36.0015  36.0015  36.6471  36.6471  36.8407  36.8407
    37.5597  37.5597  37.9175  37.9175  39.0029  39.0029  39.3928  39.3928
    40.0840  40.0840  40.3459  40.3459  40.9690  40.9690  41.2897  41.2897
    41.7252  41.7252  41.7739  41.7739  43.2365  43.2365  43.3451  43.3451
    44.1338  44.1336  44.8462  44.8458  45.0637  45.0631  45.1811  45.1808
    45.5162  45.5161  45.6950  45.6945  46.3929  46.3929  46.6523  46.6525
    47.0298  47.0295  47.1086  47.1083

     the Fermi energy is    40.0658 ev

!    total energy              =   -5269.29010628 Ry
     Harris-Foulkes estimate   =   -5269.29014950 Ry
     estimated scf accuracy    <       0.00005911 Ry

     The total energy is the sum of the following terms:

     one-electron contribution =   -1165.42466501 Ry
     hartree contribution      =     862.12503317 Ry
     xc contribution           =    -444.95072193 Ry
     ewald contribution        =   -4520.57044629 Ry
     smearing contrib. (-TS)   =      -0.46930621 Ry

     convergence has been achieved in  10 iterations

     Forces acting on atoms (Ry/au):

     atom    1 type  1   force =     0.38764329   -0.45792344   -0.53682826
     atom    2 type  1   force =    -0.38764329   -0.45792344    0.53682826
     atom    3 type  1   force =     0.38764329    0.45792344   -0.53682826
     atom    4 type  1   force =    -0.69954254   -0.28111858    0.00000000
     atom    5 type  1   force =    -0.38764329   -0.45792344   -0.53682826
     atom    6 type  1   force =     0.38764329   -0.45792344    0.53682826
     atom    7 type  1   force =     0.69954254   -0.28111858    0.00000000
     atom    8 type  1   force =    -0.38764329    0.45792344   -0.53682826
     atom    9 type  1   force =     0.38764329    0.45792344    0.53682826
     atom   10 type  1   force =     0.69954254    0.28111858    0.00000000
     atom   11 type  1   force =    -0.38764329    0.45792344    0.53682826
     atom   12 type  1   force =    -0.69954254    0.28111858    0.00000000
     atom   13 type  2   force =     0.00000000    0.00000000    0.00000000
     atom   14 type  2   force =     0.00000000    0.00000000    0.00000000
     atom   15 type  2   force =     0.00000000    0.00000000    0.00000000
     atom   16 type  2   force =     0.00000000    0.00000000    0.00000000

     Total force =     2.731065     Total SCF correction =     0.000000

     entering subroutine stress ...

          total   stress  (Ry/bohr**3)                   (kbar)     P= 3719.10
   0.02601149   0.00000000   0.00000000       3826.42      0.00      0.00
   0.00000000   0.02438749   0.00000000          0.00   3587.52      0.00
   0.00000000   0.00000000   0.02544690          0.00      0.00   3743.37

     Writing output data file Prototype-La-oP16-Fe3C.save

     General routines

     Parallel routines

   This run was terminated on:  14:46: 8  22Mar2018

   JOB DONE.