     Program PWSCF v.5.0.2 starts on 22Mar2018 at 22:42:45

     Current dimensions of program PWSCF are:
     Max number of different atomic species (ntypx) = 10
     Max number of k-points (npk) =  40000
     Max angular momentum in pseudopotentials (lmaxx) =  3
     Waiting for input...
     Reading input from standard input

     Subspace diagonalization in iterative solution of the eigenvalue problem:
     a serial algorithm will be used

     bravais-lattice index     =            0
     lattice parameter (alat)  =       9.9235  a.u.
     unit-cell volume          =    1361.0366 (a.u.)^3
     number of atoms/cell      =           12
     number of atomic types    =            2
     number of electrons       =       224.00
     number of Kohn-Sham states=          134
     kinetic-energy cutoff     =      40.0000  Ry
     charge density cutoff     =     160.0000  Ry
     convergence threshold     =      1.0E-04
     mixing beta               =       0.7000
     number of iterations used =            8  plain     mixing
     Exchange-correlation      = SLA-PZ-NOGX-NOGC ( 1 1 0 0 0)
     EXX-fraction              =        0.00
     nstep                     =           50

     celldm(1)=   9.923489  celldm(2)=   0.000000  celldm(3)=   0.000000
     celldm(4)=   0.000000  celldm(5)=   0.000000  celldm(6)=   0.000000

     crystal axes: (cart. coord. in units of alat)
               a(1) = (   1.000000   0.000000   0.000000 )
               a(2) = (  -0.500000   0.866025   0.000000 )
               a(3) = (   0.000000   0.000000   1.608222 )

     reciprocal axes: (cart. coord. in units 2 pi/alat)
               b(1) = (  1.000000  0.577350  0.000000 )
               b(2) = (  0.000000  1.154701  0.000000 )
               b(3) = (  0.000000  0.000000  0.621805 )

     PseudoPot. # 1 for Er read from file:
     /home/cwx6513/pp.La/Er.UPF
     MD5 check sum: e152ae21b84514339d8526f066caf99b
     Pseudo is Norm-conserving, Zval = 22.0
     Generated in analytical, separable form
     Using radial grid of 1267 points,  6 beta functions with:
                l(1) =   0
                l(2) =   0
                l(3) =   1
                l(4) =   1
                l(5) =   2
                l(6) =   3

     PseudoPot. # 2 for Eu read from file:
     /home/cwx6513/pp.La/Eu.UPF
     MD5 check sum: 5efdbbfc50c6a10138933a6429836ad2
     Pseudo is Norm-conserving, Zval = 17.0
     Generated in analytical, separable form
     Using radial grid of 1261 points,  6 beta functions with:
                l(1) =   0
                l(2) =   0
                l(3) =   1
                l(4) =   1
                l(5) =   2
                l(6) =   3

     atomic species   valence    mass     pseudopotential
        Mg            22.00    24.30500     Er( 1.00)
        Zn            17.00    65.39000     Eu( 1.00)

     24 Sym. Ops., with inversion, found (12 have fractional translation)

   Cartesian axes

     site n.     atom                  positions (alat units)
         1           Mg  tau(   1) = (  -0.0000005   0.5773506   0.1003820  )
         2           Mg  tau(   2) = (   0.5000005   0.2886748   0.9044931  )
         3           Mg  tau(   3) = (   0.5000005   0.2886748   1.5078402  )
         4           Mg  tau(   4) = (  -0.0000005   0.5773506   0.7037291  )
         5           Zn  tau(   5) = (   0.0000000   0.0000000   0.0000000  )
         6           Zn  tau(   6) = (   0.0000000   0.0000000   0.8041111  )
         7           Zn  tau(   7) = (   0.0000000   0.2950739   1.2061667  )
         8           Zn  tau(   8) = (   0.7444585   0.1475370   0.4020556  )
         9           Zn  tau(   9) = (   0.2555415   0.1475370   0.4020556  )
        10           Zn  tau(  10) = (   0.2444585   0.7184884   1.2061667  )
        11           Zn  tau(  11) = (  -0.2444585   0.7184884   1.2061667  )
        12           Zn  tau(  12) = (   0.5000000   0.5709515   0.4020556  )

     number of k points=    12  gaussian smearing, width (Ry)=  0.1000
                       cart. coord. in units 2pi/alat
        k(    1) = (   0.0000000   0.0000000   0.0000000), wk =   0.0833333
        k(    2) = (   0.0000000   0.0000000   0.1554512), wk =   0.1666667
        k(    3) = (   0.0000000   0.0000000  -0.3109023), wk =   0.0833333
        k(    4) = (   0.0000000   0.3849002   0.0000000), wk =   0.1666667
        k(    5) = (   0.0000000   0.3849002   0.1554512), wk =   0.3333333
        k(    6) = (   0.0000000   0.3849002  -0.3109023), wk =   0.1666667
        k(    7) = (  -0.5000000  -0.2886751   0.0000000), wk =   0.0833333
        k(    8) = (  -0.5000000  -0.2886751   0.1554512), wk =   0.1666667
        k(    9) = (  -0.5000000  -0.2886751  -0.3109023), wk =   0.0833333
        k(   10) = (  -0.5000000   0.0962250   0.0000000), wk =   0.1666667
        k(   11) = (  -0.5000000   0.0962250   0.1554512), wk =   0.3333333
        k(   12) = (  -0.5000000   0.0962250  -0.3109023), wk =   0.1666667

     Largest allocated arrays     est. size (Mb)     dimensions
     Largest temporary arrays     est. size (Mb)     dimensions

     Initial potential from superposition of free atoms

     Starting from uniform charge
     Starting wfc are    0 randomized atomic wfcs

     Self-consistent Calculation

     iteration #  1     ecut=    40.00 Ry     beta=0.70
     CG style diagonalization
     c_bands:  5 eigenvalues not converged
     c_bands:  5 eigenvalues not converged
     c_bands:  5 eigenvalues not converged
     ethr =  1.00E-02,  avg # of iterations = 16.4

     total energy              =   -1919.64573451 Ry
     Harris-Foulkes estimate   =   -3302.84060675 Ry
     estimated scf accuracy    <    1695.46799705 Ry

     iteration #  2     ecut=    40.00 Ry     beta=0.70
     CG style diagonalization
     ethr =  1.00E-02,  avg # of iterations = 15.0

[...]

     End of self-consistent calculation

          k = 0.0000 0.0000 0.0000 (  5769 PWs)   bands (ev):

   -70.2874 -70.2769 -70.2707 -70.2398 -32.9073 -32.7390 -32.5379 -32.3409
   -32.2724 -32.2724 -32.2568 -32.2558 -32.2546 -32.2545 -32.2334 -32.2334
   -32.2289 -32.2289 -32.2225 -32.2000 -32.2000 -32.1964 -32.1842 -32.1842
    -7.8881  -7.3989  -6.9248  -6.2042  -6.2042  -6.0672  -6.0671  -6.0525
    -6.0524  -5.6459  -5.2751  -5.2699  -5.2699  -5.2234  -5.2233  -4.4633
    -4.4633  -4.4578  -4.3936  -4.3856  -4.2232  -4.2232  -4.1386  -4.1386
    14.1527  14.1528  14.1775  14.2089  14.2908  14.2908  14.3335  14.3335
    14.4681  14.4681  14.7324  14.7450  14.7450  14.8505  14.8648  14.8648
    14.9034  14.9034  14.9450  14.9450  18.2716  19.8639  20.7118  20.8367
    21.9560  22.2761  22.2762  22.7129  22.9987  23.0602  23.0602  23.2522
    23.4445  23.4445  23.8759  23.8759  25.0919  25.0919  25.4371  25.4371
    25.6897  25.6897  26.0003  27.4139  27.4140  27.4875  27.6477  28.2978
    28.8987  29.3604  29.3883  29.3884  29.5527  29.5528  29.6568  29.6568
    29.6965  29.6965  29.8811  31.2723  31.2724  31.4844  31.4844  31.6799
    31.6799  31.8431  32.0950  33.1897  33.1898  33.4430  33.4431  34.3042
    34.4298  34.6846  34.7021  34.9117  34.9119  35.1597  36.3377  37.4477
    37.4478  37.6036  37.7404  37.8222  37.8224  38.4861

[...]

          k =-0.5000-0.2887 0.0000 (  5800 PWs)   bands (ev):

[...]

     the Fermi energy is    31.2629 ev

!    total energy              =   -2716.80951599 Ry
     Harris-Foulkes estimate   =   -2716.80953171 Ry
     estimated scf accuracy    <       0.00002155 Ry

     The total energy is the sum of the following terms:

     one-electron contribution =    -286.02105732 Ry
     hartree contribution      =     342.33115114 Ry
     xc contribution           =    -261.26668770 Ry
     ewald contribution        =   -2511.39933192 Ry
     smearing contrib. (-TS)   =      -0.45359021 Ry

     convergence has been achieved in  11 iterations

     Forces acting on atoms (Ry/au):

     atom    1 type  1   force =     0.00000000    0.00000000    0.03042272
     atom    2 type  1   force =     0.00000000    0.00000000    0.03042272
     atom    3 type  1   force =     0.00000000    0.00000000   -0.03042272
     atom    4 type  1   force =     0.00000000    0.00000000   -0.03042272
     atom    5 type  2   force =     0.00000000    0.00000000    0.00000000
     atom    6 type  2   force =     0.00000000    0.00000000    0.00000000
     atom    7 type  2   force =     0.00000000    0.01476585    0.00000000
     atom    8 type  2   force =    -0.01278760    0.00738292    0.00000000
     atom    9 type  2   force =     0.01278760    0.00738292    0.00000000
     atom   10 type  2   force =    -0.01278760   -0.00738292    0.00000000
     atom   11 type  2   force =     0.01278760   -0.00738292    0.00000000
     atom   12 type  2   force =     0.00000000   -0.01476585    0.00000000

     Total force =     0.070784     Total SCF correction =     0.000000

     entering subroutine stress ...

          total   stress  (Ry/bohr**3)                   (kbar)     P=  598.67
   0.00415039   0.00000000   0.00000000        610.54      0.00      0.00
   0.00000000   0.00415039   0.00000000          0.00    610.54      0.00
   0.00000000   0.00000000   0.00390830          0.00      0.00    574.93

     BFGS Geometry Optimization

     number of scf cycles    =   1
     number of bfgs steps    =   0

     enthalpy new            =   -2716.8095159939 Ry

     new trust radius        =       0.5000000000 bohr
     new conv_thr            =       0.0001000000 Ry

     new unit-cell volume =   1650.76844 a.u.^3 (   244.61864 Ang^3 )

CELL_PARAMETERS (alat=  9.92348860)
   1.067764947   0.000000000   0.000000000
  -0.533882474   0.924711570   0.000000000
   0.000000000   0.000000000   1.710846643

ATOMIC_POSITIONS (crystal)
Mg       0.333333000   0.666667000   0.063662985
Mg       0.666667000   0.333333000   0.563662985
Mg       0.666667000   0.333333000   0.936337015
Mg       0.333333000   0.666667000   0.436337015
Zn       0.000000000   0.000000000   0.000000000
Zn       0.000000000   0.000000000   0.500000000
Zn       0.170922061   0.341844121   0.750000000
Zn       0.829077939   0.170922061   0.250000000
Zn       0.341844121   0.170922061   0.250000000
Zn       0.658155879   0.829077939   0.750000000
Zn       0.170922061   0.829077939   0.750000000
Zn       0.829077939   0.658155879   0.250000000

     Writing output data file Prototype-La-hP12-MgZn2.save
     NEW-OLD atomic charge density approx. for the potential
     NEW k-points:
        k(    1) = (   0.0000000   0.0000000   0.0000000), wk =   0.0833333
        k(    2) = (   0.0000000   0.0000000   0.1461265), wk =   0.1666667
        k(    3) = (   0.0000000   0.0000000  -0.2922530), wk =   0.0833333
        k(    4) = (   0.0000000   0.3604728   0.0000000), wk =   0.1666667
        k(    5) = (   0.0000000   0.3604728   0.1461265), wk =   0.3333333
        k(    6) = (   0.0000000   0.3604728  -0.2922530), wk =   0.1666667
        k(    7) = (  -0.4682679  -0.2703546   0.0000000), wk =   0.0833333
        k(    8) = (  -0.4682679  -0.2703546   0.1461265), wk =   0.1666667
        k(    9) = (  -0.4682679  -0.2703546  -0.2922530), wk =   0.0833333
        k(   10) = (  -0.4682679   0.0901182   0.0000000), wk =   0.1666667
        k(   11) = (  -0.4682679   0.0901182   0.1461265), wk =   0.3333333
        k(   12) = (  -0.4682679   0.0901182  -0.2922530), wk =   0.1666667

[...]

     enthalpy old            =   -2716.8095159939 Ry
     enthalpy new            =   -2716.7393737151 Ry

     CASE: enthalpy_new > enthalpy_old

     new trust radius        =       0.2425054359 bohr

     trust_radius < trust_radius_min

     resetting bfgs history

     new conv_thr            =       0.0001000000 Ry

[...]

     number of scf cycles    =   3
     number of bfgs steps    =   1

     enthalpy old            =   -2716.8095159939 Ry
     enthalpy new            =   -2716.7743471524 Ry

     CASE: enthalpy_new > enthalpy_old

     new trust radius        =       0.2417849482 bohr

     trust_radius < trust_radius_min

     resetting bfgs history

     Message from routine bfgs:
     history already reset at previous step: stopping
     new conv_thr            =       0.0001000000 Ry

     new unit-cell volume =   1640.95661 a.u.^3 (   243.16468 Ang^3 )

[...]

ATOMIC_POSITIONS (crystal)
Mg       0.333333000   0.666667000   0.063556514
Mg       0.666667000   0.333333000   0.563556514
Mg       0.666667000   0.333333000   0.936443486
Mg       0.333333000   0.666667000   0.436443486
Zn       0.000000000   0.000000000   0.000000000
Zn       0.000000000   0.000000000   0.500000000
Zn       0.170869957   0.341739913   0.750000000
Zn       0.829130043   0.170869957   0.250000000
Zn       0.341739913   0.170869957   0.250000000
Zn       0.658260087   0.829130043   0.750000000
Zn       0.170869957   0.829130043   0.750000000
Zn       0.829130043   0.658260087   0.250000000

     Writing output data file Prototype-La-hP12-MgZn2.save
     NEW-OLD atomic charge density approx. for the potential
     NEW k-points:
        k(    1) = (   0.0000000   0.0000000   0.0000000), wk =   0.0833333
        k(    2) = (   0.0000000   0.0000000   0.1464529), wk =   0.1666667
        k(    3) = (   0.0000000   0.0000000  -0.2929058), wk =   0.0833333
        k(    4) = (   0.0000000   0.3611457   0.0000000), wk =   0.1666667
        k(    5) = (   0.0000000   0.3611457   0.1464529), wk =   0.3333333
        k(    6) = (   0.0000000   0.3611457  -0.2929058), wk =   0.1666667
        k(    7) = (  -0.4691420  -0.2708593   0.0000000), wk =   0.0833333
        k(    8) = (  -0.4691420  -0.2708593   0.1464529), wk =   0.1666667
        k(    9) = (  -0.4691420  -0.2708593  -0.2929058), wk =   0.0833333
        k(   10) = (  -0.4691420   0.0902864   0.0000000), wk =   0.1666667
        k(   11) = (  -0.4691420   0.0902864   0.1464529), wk =   0.3333333
        k(   12) = (  -0.4691420   0.0902864  -0.2929058), wk =   0.1666667

[...]

     The maximum number of steps has been reached.

     End of BFGS Geometry Optimization
Begin final coordinates
     new unit-cell volume =   1640.95661 a.u.^3 (   243.16468 Ang^3 )

CELL_PARAMETERS (alat=  9.92348860)
   1.065775351   0.000000000   0.000000000
  -0.532887676   0.922988529   0.000000000
   0.000000000   0.000000000   1.707033310

ATOMIC_POSITIONS (crystal)
Mg       0.333333000   0.666667000   0.063556514
Mg       0.666667000   0.333333000   0.563556514
Mg       0.666667000   0.333333000   0.936443486
Mg       0.333333000   0.666667000   0.436443486
Zn       0.000000000   0.000000000   0.000000000
Zn       0.000000000   0.000000000   0.500000000
Zn       0.170869957   0.341739913   0.750000000
Zn       0.829130043   0.170869957   0.250000000
Zn       0.341739913   0.170869957   0.250000000
Zn       0.658260087   0.829130043   0.750000000
Zn       0.170869957   0.829130043   0.750000000
Zn       0.829130043   0.658260087   0.250000000
End final coordinates

     A final scf calculation at the relaxed structure.
     The G-vectors are recalculated for the final unit cell
     Results may differ from those at the preceding step.

     bravais-lattice index     =            0
     lattice parameter (alat)  =       9.9235  a.u.
     unit-cell volume          =    1640.9566 (a.u.)^3
     number of atoms/cell      =           12
     number of atomic types    =            2
     number of electrons       =       224.00
     number of Kohn-Sham states=          134
     kinetic-energy cutoff     =      40.0000  Ry
     charge density cutoff     =     160.0000  Ry
     convergence threshold     =      1.0E-04
     mixing beta               =       0.7000
     number of iterations used =            8  plain     mixing
     Exchange-correlation      = SLA-PZ-NOGX-NOGC ( 1 1 0 0 0)
     EXX-fraction              =        0.00

     celldm(1)=   9.923489  celldm(2)=   0.000000  celldm(3)=   0.000000
     celldm(4)=   0.000000  celldm(5)=   0.000000  celldm(6)=   0.000000

     crystal axes: (cart. coord. in units of alat)
               a(1) = (   1.065775   0.000000   0.000000 )
               a(2) = (  -0.532888   0.922989   0.000000 )
               a(3) = (   0.000000   0.000000   1.707033 )

     reciprocal axes: (cart. coord. in units 2 pi/alat)
               b(1) = (  0.938284  0.541719  0.000000 )
               b(2) = (  0.000000  1.083437  0.000000 )
               b(3) = (  0.000000  0.000000  0.585812 )

     PseudoPot. # 1 for Er read from file:
     /home/cwx6513/pp.La/Er.UPF
     MD5 check sum: e152ae21b84514339d8526f066caf99b
     Pseudo is Norm-conserving, Zval = 22.0
     Generated in analytical, separable form
     Using radial grid of 1267 points,  6 beta functions with:
                l(1) =   0
                l(2) =   0
                l(3) =   1
                l(4) =   1
                l(5) =   2
                l(6) =   3

     PseudoPot. # 2 for Eu read from file:
     /home/cwx6513/pp.La/Eu.UPF
     MD5 check sum: 5efdbbfc50c6a10138933a6429836ad2
     Pseudo is Norm-conserving, Zval = 17.0
     Generated in analytical, separable form
     Using radial grid of 1261 points,  6 beta functions with:
                l(1) =   0
                l(2) =   0
                l(3) =   1
                l(4) =   1
                l(5) =   2
                l(6) =   3

     atomic species   valence    mass     pseudopotential
        Mg            22.00    24.30500     Er( 1.00)
        Zn            17.00    65.39000     Eu( 1.00)

     24 Sym. Ops., with inversion, found (12 have fractional translation)

   Cartesian axes

     site n.     atom                  positions (alat units)
         1           Mg  tau(   1) = (  -0.0000005   0.6153260   0.1084931  )
         2           Mg  tau(   2) = (   0.5328882   0.3076625   0.9620097  )
         3           Mg  tau(   3) = (   0.5328882   0.3076625   1.5985402  )
         4           Mg  tau(   4) = (  -0.0000005   0.6153260   0.7450236  )
         5           Zn  tau(   5) = (   0.0000000   0.0000000   0.0000000  )
         6           Zn  tau(   6) = (   0.0000000   0.0000000   0.8535167  )
         7           Zn  tau(   7) = (   0.0000000   0.3154220   1.2802750  )
         8           Zn  tau(   8) = (   0.7926119   0.1577110   0.4267583  )
         9           Zn  tau(   9) = (   0.2731635   0.1577110   0.4267583  )
        10           Zn  tau(  10) = (   0.2597242   0.7652775   1.2802750  )
        11           Zn  tau(  11) = (  -0.2597242   0.7652775   1.2802750  )
        12           Zn  tau(  12) = (   0.5328877   0.6075665   0.4267583  )

     number of k points=    12  gaussian smearing, width (Ry)=  0.1000
                       cart. coord. in units 2pi/alat
        k(    1) = (   0.0000000   0.0000000   0.0000000), wk =   0.0833333
        k(    2) = (   0.0000000   0.0000000   0.1464529), wk =   0.1666667
        k(    3) = (   0.0000000   0.0000000  -0.2929058), wk =   0.0833333
        k(    4) = (   0.0000000   0.3611457   0.0000000), wk =   0.1666667
        k(    5) = (   0.0000000   0.3611457   0.1464529), wk =   0.3333333
        k(    6) = (   0.0000000   0.3611457  -0.2929058), wk =   0.1666667
        k(    7) = (  -0.4691420  -0.2708593   0.0000000), wk =   0.0833333
        k(    8) = (  -0.4691420  -0.2708593   0.1464529), wk =   0.1666667
        k(    9) = (  -0.4691420  -0.2708593  -0.2929058), wk =   0.0833333
        k(   10) = (  -0.4691420   0.0902864   0.0000000), wk =   0.1666667
        k(   11) = (  -0.4691420   0.0902864   0.1464529), wk =   0.3333333
        k(   12) = (  -0.4691420   0.0902864  -0.2929058), wk =   0.1666667

     Largest allocated arrays     est. size (Mb)     dimensions
     Largest temporary arrays     est. size (Mb)     dimensions

     Initial potential from superposition of free atoms

     Starting from uniform charge
     Starting wfc are    0 randomized atomic wfcs

     Writing output data file Prototype-La-hP12-MgZn2.save

     Self-consistent Calculation

[...]

     iteration #  7     ecut=    40.00 Ry     beta=0.70
     CG style diagonalization
     ethr =  1.25E-03,  avg # of iterations =  3.4

[...]

     total energy              =   -2718.37045241 Ry
     Harris-Foulkes estimate   =   -2718.37117574 Ry
     estimated scf accuracy    <       0.00184951 Ry

     iteration # 11     ecut=    40.00 Ry     beta=0.70
     CG style diagonalization
     c_bands:  1 eigenvalues not converged
     c_bands:  1 eigenvalues not converged
     c_bands:  1 eigenvalues not converged
     ethr =  8.26E-07,  avg # of iterations =  3.5

     End of self-consistent calculation

[...]

          k = 0.0000 0.3611-0.2929 (  6998 PWs)   bands (ev):

[...]

          k =-0.4691 0.0903-0.2929 (  7010 PWs)   bands (ev):

   -76.0864 -76.0864 -76.0829 -76.0829 -38.2322 -38.2322 -38.1394 -38.1394
   -38.0204 -38.0204 -38.0103 -38.0103 -38.0079 -38.0079 -38.0016 -38.0016
   -37.9968 -37.9968 -37.9908 -37.9907 -37.9854 -37.9854 -37.9826 -37.9825
   -11.8975 -11.8975 -11.5267 -11.5267 -11.2185 -11.2185 -11.1805 -11.1805
   -11.1065 -11.1065 -10.9688 -10.9688 -10.7866 -10.7866 -10.6407 -10.6407
   -10.5346 -10.5346 -10.4810 -10.4810 -10.3610 -10.3610 -10.3051 -10.3051
     8.7451   8.7451   8.7707   8.7707   8.8495   8.8495   8.9355   8.9355
     8.9640   8.9641   9.0707   9.0707   9.1048   9.1048   9.1436   9.1437
     9.2595   9.2595   9.2845   9.2845  15.6471  15.6471  16.5208  16.5208
    18.1240  18.1240  18.7621  18.7621  19.0348  19.0348  19.2171  19.2171
    19.2884  19.2884  19.6742  19.6742  19.9820  19.9820  20.1155  20.1155
    20.4175  20.4175  21.0843  21.0843  21.4068  21.4068  21.6662  21.6662
    21.9126  21.9126  22.1667  22.1667  22.5611  22.5611  22.8564  22.8564
    23.2926  23.2926  23.6535  23.6535  23.8367  23.8367  24.4295  24.4296
    25.2502  25.2502  25.5321  25.5321  26.4580  26.4580  26.9350  26.9350
    27.6592  27.6592  28.6920  28.6920  30.2109  30.2110  30.5781  30.5781
    31.1172  31.1173  31.5545  31.5546  32.2881  32.2882

     the Fermi energy is    24.9464 ev

!    total energy              =   -2718.37083688 Ry
     Harris-Foulkes estimate   =   -2718.37084344 Ry
     estimated scf accuracy    <       0.00001024 Ry

     The total energy is the sum of the following terms:

     one-electron contribution =    -504.63646689 Ry
     hartree contribution      =     404.22014682 Ry
     xc contribution           =    -257.64390206 Ry
     ewald contribution        =   -2359.73997238 Ry
     smearing contrib. (-TS)   =      -0.57064237 Ry

     convergence has been achieved in  11 iterations

     Forces acting on atoms (Ry/au):

     atom    1 type  1   force =     0.00000000    0.00000000    0.00810337
     atom    2 type  1   force =     0.00000000    0.00000000    0.00810337
     atom    3 type  1   force =     0.00000000    0.00000000   -0.00810337
     atom    4 type  1   force =     0.00000000    0.00000000   -0.00810337
     atom    5 type  2   force =     0.00000000    0.00000000    0.00000000
     atom    6 type  2   force =     0.00000000    0.00000000    0.00000000
     atom    7 type  2   force =     0.00000000   -0.01580391    0.00000000
     atom    8 type  2   force =     0.01368659   -0.00790195    0.00000000
     atom    9 type  2   force =    -0.01368659   -0.00790195    0.00000000
     atom   10 type  2   force =     0.01368659    0.00790195    0.00000000
     atom   11 type  2   force =    -0.01368659    0.00790195    0.00000000
     atom   12 type  2   force =     0.00000000    0.01580391    0.00000000

     Total force =     0.041967     Total SCF correction =     0.000000

     entering subroutine stress ...

          total   stress  (Ry/bohr**3)                   (kbar)     P= -166.05
  -0.00111098   0.00000000   0.00000000       -163.43      0.00      0.00
   0.00000000  -0.00111098   0.00000000          0.00   -163.43      0.00
   0.00000000   0.00000000  -0.00116448          0.00      0.00   -171.30

     Writing output data file Prototype-La-hP12-MgZn2.save

     General routines

     Parallel routines

   This run was terminated on:  23: 4: 1  22Mar2018

   JOB DONE.