     Program PWSCF v.5.0.2 starts on 22Mar2018 at 22:42:46

     Current dimensions of program PWSCF are:
     Max number of different atomic species (ntypx) = 10
     Max number of k-points (npk) =  40000
     Max angular momentum in pseudopotentials (lmaxx) =  3
     Waiting for input...
     Reading input from standard input

     Subspace diagonalization in iterative solution of the eigenvalue problem:
     a serial algorithm will be used

     bravais-lattice index     =            0
     lattice parameter (alat)  =       7.0151  a.u.
     unit-cell volume          =     862.2778 (a.u.)^3
     number of atoms/cell      =           12
     number of atomic types    =            2
     number of electrons       =       244.00
     number of Kohn-Sham states=          146
     kinetic-energy cutoff     =      40.0000  Ry
     charge density cutoff     =     160.0000  Ry
     convergence threshold     =      1.0E-04
     mixing beta               =       0.7000
     number of iterations used =            8  plain     mixing
     Exchange-correlation      = SLA-PZ-NOGX-NOGC ( 1 1 0 0 0)
     EXX-fraction              =        0.00
     nstep                     =           50

     celldm(1)=   7.015105  celldm(2)=   0.000000  celldm(3)=   0.000000
     celldm(4)=   0.000000  celldm(5)=   0.000000  celldm(6)=   0.000000

     crystal axes: (cart. coord. in units of alat)
               a(1) = (   1.000000   0.000000   0.000000 )
               a(2) = (   0.000000   1.315963   0.000000 )
               a(3) = (   0.000000   0.000000   1.898020 )

     reciprocal axes: (cart. coord. in units 2 pi/alat)
               b(1) = (  1.000000  0.000000  0.000000 )
               b(2) = (  0.000000  0.759900  0.000000 )
               b(3) = (  0.000000  0.000000  0.526865 )

     PseudoPot. # 1 for Er read from file:
     /home/cwx6513/pp.La/Er.UPF
     MD5 check sum: e152ae21b84514339d8526f066caf99b
     Pseudo is Norm-conserving, Zval = 22.0
     Generated in analytical, separable form
     Using radial grid of 1267 points,  6 beta functions with:
                l(1) =   0
                l(2) =   0
                l(3) =   1
                l(4) =   1
                l(5) =   2
                l(6) =   3

     PseudoPot. # 2 for Eu read from file:
     /home/cwx6513/pp.La/Eu.UPF
     MD5 check sum: 5efdbbfc50c6a10138933a6429836ad2
     Pseudo is Norm-conserving, Zval = 17.0
     Generated in analytical, separable form
     Using radial grid of 1261 points,  6 beta functions with:
                l(1) =   0
                l(2) =   0
                l(3) =   1
                l(4) =   1
                l(5) =   2
                l(6) =   3

     atomic species   valence    mass     pseudopotential
        Co            22.00    58.93320     Er( 1.00)
        Si            17.00    28.08550     Eu( 1.00)

      8 Sym. Ops., with inversion, found ( 6 have fractional translation)

   Cartesian axes

     site n.     atom                  positions (alat units)
         1           Co  tau(   1) = (   0.7500000   1.0875135   0.8270358  )
         2           Co  tau(   2) = (   0.2500000   0.2284499   1.0709846  )
         3           Co  tau(   3) = (   0.7500000   0.4295318   0.1219744  )
         4           Co  tau(   4) = (   0.2500000   0.8864316   1.7760460  )
         5           Co  tau(   5) = (   0.2500000   0.7067855   0.5358966  )
         6           Co  tau(   6) = (   0.7500000   0.6091779   1.3621238  )
         7           Co  tau(   7) = (   0.2500000   0.0488038   0.4131136  )
         8           Co  tau(   8) = (   0.7500000   1.2671596   1.4849068  )
         9           Si  tau(   9) = (   0.2500000   0.2669484   1.6960710  )
        10           Si  tau(  10) = (   0.7500000   1.0490149   0.2019494  )
        11           Si  tau(  11) = (   0.2500000   0.9249301   1.1509596  )
        12           Si  tau(  12) = (   0.7500000   0.3910333   0.7470608  )

     number of k points=    12  gaussian smearing, width (Ry)=  0.1000
                       cart. coord. in units 2pi/alat
        k(    1) = (   0.0000000   0.0000000   0.0000000), wk =   0.0833333
        k(    2) = (   0.0000000   0.0000000   0.1317162), wk =   0.1666667
        k(    3) = (   0.0000000   0.0000000  -0.2634324), wk =   0.0833333
        k(    4) = (   0.0000000   0.2532999   0.0000000), wk =   0.1666667
        k(    5) = (   0.0000000   0.2532999   0.1317162), wk =   0.3333333
        k(    6) = (   0.0000000   0.2532999  -0.2634324), wk =   0.1666667
        k(    7) = (  -0.5000000   0.0000000   0.0000000), wk =   0.0833333
        k(    8) = (  -0.5000000   0.0000000   0.1317162), wk =   0.1666667
        k(    9) = (  -0.5000000   0.0000000  -0.2634324), wk =   0.0833333
        k(   10) = (  -0.5000000   0.2532999   0.0000000), wk =   0.1666667
        k(   11) = (  -0.5000000   0.2532999   0.1317162), wk =   0.3333333
        k(   12) = (  -0.5000000   0.2532999  -0.2634324), wk =   0.1666667

     Largest allocated arrays     est. size (Mb)     dimensions
     Largest temporary arrays     est. size (Mb)     dimensions

     Initial potential from superposition of free atoms

     Starting from uniform charge
     Starting wfc are    0 randomized atomic wfcs

     Self-consistent Calculation

     iteration #  1     ecut=    40.00 Ry     beta=0.70
     CG style diagonalization
     c_bands:  2 eigenvalues not converged
     c_bands:  1 eigenvalues not converged
     ethr =  1.00E-02,  avg # of iterations = 11.9

     total energy              =   -2805.57374577 Ry
     Harris-Foulkes estimate   =   -3792.86434005 Ry
     estimated scf accuracy    <    1238.37586097 Ry

[...]

     iteration #  3     ecut=    40.00 Ry     beta=0.70
     CG style diagonalization
     ethr =  1.00E-02,  avg # of iterations =  9.4

[...]

     End of self-consistent calculation

          k = 0.0000 0.0000 0.0000 (  3675 PWs)   bands (ev):

   -49.7698 -49.7291 -49.6666 -49.6538 -49.6449 -49.6050 -49.5842 -49.5659
   -13.5744 -13.3902 -13.2908 -12.7525 -12.5692 -12.4716 -12.3670 -12.3209
   -12.2740 -12.2046 -12.1275 -12.0773 -12.0721 -12.0017 -11.9659 -11.9560
   -11.9037 -11.8494 -11.8105 -11.7283 -11.7140 -11.6260 -11.5979 -11.5074
   -11.4927 -11.4810 -11.3502 -11.2293  13.0020  13.2563  13.2822  13.3038
    13.3905  13.4200  13.4271  13.5131  13.7384  13.9801  14.0265  14.3073
    29.6228  29.9308  30.0325  30.0405  30.1917  30.3192  30.4185  30.7571
    31.2560  31.3020  31.5445  31.9158  32.0311  32.4207  32.5313  33.0773
    33.2380  33.2781  33.2798  33.4473  33.5270  33.6721  33.7323  34.0631
    34.0645  34.2373  34.2933  34.4062  34.5232  34.9010  35.1335  35.3005
    35.3338  35.4449  35.6024  35.9996  36.5264  36.5608  36.7694  36.7833
    37.1620  38.8258  39.2385  39.8884  42.3521  43.0787  43.3440  43.7488
    43.7588  44.4976  44.9105  45.4271  45.6567  45.9983  46.1202  46.4658
    46.7556  46.9324  47.7117  48.2778  48.4537  48.5166  48.7513  48.7620
    48.7672  50.9834  51.7393  52.1857  52.7309  53.2113  53.9837  55.0587
    55.8353  55.8863  56.6235  56.7981  57.3540  57.5672  57.5787  57.6612
    57.8223  58.0045  58.4328  58.4997  58.9418  59.1624  59.3323  59.5029
    59.7474  59.8405  60.0144  60.1631  60.2629  60.3718  60.7623  60.9080
    60.9635  61.0416

[...]

          k =-0.5000 0.0000 0.0000 (  3722 PWs)   bands (ev):

[...]

     the Fermi energy is    55.7919 ev

!    total energy              =   -3317.64749788 Ry
     Harris-Foulkes estimate   =   -3317.64751196 Ry
     estimated scf accuracy    <       0.00001471 Ry

     The total energy is the sum of the following terms:

     one-electron contribution =     169.63218696 Ry
     hartree contribution      =     293.80462691 Ry
     xc contribution           =    -313.34616331 Ry
     ewald contribution        =   -3467.41443948 Ry
     smearing contrib. (-TS)   =      -0.32370896 Ry

     convergence has been achieved in  10 iterations

     Forces acting on atoms (Ry/au):

     atom    1 type  1   force =     0.00000000   -0.13581584   -0.11609507
     atom    2 type  1   force =     0.00000000    0.13581584    0.11609507
     atom    3 type  1   force =     0.00000000   -0.13581584    0.11609507
     atom    4 type  1   force =     0.00000000    0.13581584   -0.11609507
     atom    5 type  1   force =     0.00000000    0.13895580   -0.11348812
     atom    6 type  1   force =     0.00000000   -0.13895580    0.11348812
     atom    7 type  1   force =     0.00000000    0.13895580    0.11348812
     atom    8 type  1   force =     0.00000000   -0.13895580   -0.11348812
     atom    9 type  2   force =     0.00000000   -0.22360701   -0.02040522
     atom   10 type  2   force =     0.00000000    0.22360701    0.02040522
     atom   11 type  2   force =     0.00000000   -0.22360701    0.02040522
     atom   12 type  2   force =     0.00000000    0.22360701   -0.02040522

     Total force =     0.676842     Total SCF correction =     0.000000

     entering subroutine stress ...

          total   stress  (Ry/bohr**3)                   (kbar)     P= 7320.49
   0.05230309   0.00000000   0.00000000       7694.05      0.00      0.00
   0.00000000   0.04718389   0.00000000          0.00   6940.99      0.00
   0.00000000   0.00000000   0.04980411          0.00      0.00   7326.44

     BFGS Geometry Optimization

     number of scf cycles    =   1
     number of bfgs steps    =   0

     enthalpy new            =   -3317.6474978813 Ry

     new trust radius        =       0.5000000000 bohr
     new conv_thr            =       0.0001000000 Ry

     new unit-cell volume =   1089.23505 a.u.^3 (   161.40798 Ang^3 )

CELL_PARAMETERS (alat=  7.01510508)
   1.085136619   0.000000000   0.000000000
   0.000000000   1.417034405   0.000000000
   0.000000000   0.000000000   2.051890837

ATOMIC_POSITIONS (crystal)
Co       0.750000000   0.825443097   0.435168288
Co       0.250000000   0.174556903   0.564831712
Co       0.750000000   0.325443097   0.064831712
Co       0.250000000   0.674556903   0.935168288
Co       0.250000000   0.538066049   0.281790037
Co       0.750000000   0.461933951   0.718209963
Co       0.250000000   0.038066049   0.218209963
Co       0.750000000   0.961933951   0.781790037
Si       0.250000000   0.201276910   0.893500217
Si       0.750000000   0.798723090   0.106499783
Si       0.250000000   0.701276910   0.606499783
Si       0.750000000   0.298723090   0.393500217

     Writing output data file Prototype-La-oP12-Co2Si.save
     NEW-OLD atomic charge density approx. for the potential
     NEW k-points:
        k(    1) = (   0.0000000   0.0000000   0.0000000), wk =   0.0833333
        k(    2) = (   0.0000000   0.0000000   0.1218388), wk =   0.1666667
        k(    3) = (   0.0000000   0.0000000  -0.2436777), wk =   0.0833333
        k(    4) = (   0.0000000   0.2352331   0.0000000), wk =   0.1666667
        k(    5) = (   0.0000000   0.2352331   0.1218388), wk =   0.3333333
        k(    6) = (   0.0000000   0.2352331  -0.2436777), wk =   0.1666667
        k(    7) = (  -0.4607715   0.0000000   0.0000000), wk =   0.0833333
        k(    8) = (  -0.4607715   0.0000000   0.1218388), wk =   0.1666667
        k(    9) = (  -0.4607715   0.0000000  -0.2436777), wk =   0.0833333
        k(   10) = (  -0.4607715   0.2352331   0.0000000), wk =   0.1666667
        k(   11) = (  -0.4607715   0.2352331   0.1218388), wk =   0.3333333
        k(   12) = (  -0.4607715   0.2352331  -0.2436777), wk =   0.1666667

[...]

     enthalpy old            =   -3317.6474978813 Ry
     enthalpy new            =   -3324.5015098521 Ry

     CASE: enthalpy_new < enthalpy_old

     small trust_radius: resetting bfgs history

     new trust radius        =       2.5491731706 bohr
     new conv_thr            =       0.0001000000 Ry

[...]

          total   stress  (Ry/bohr**3)                   (kbar)     P=-3327.32
  -0.02369933   0.00000000   0.00000000      -3486.29      0.00      0.00
   0.00000000  -0.02153204   0.00000000          0.00  -3167.47      0.00
   0.00000000   0.00000000  -0.02262454          0.00      0.00  -3328.18

     number of scf cycles    =   3
     number of bfgs steps    =   2

     enthalpy old            =   -3324.5015098520 Ry
     enthalpy new            =   -3301.6504021071 Ry

     CASE: enthalpy_new > enthalpy_old

     new trust radius        =       0.6529692987 bohr

     trust_radius < trust_radius_min

     resetting bfgs history

     Message from routine bfgs:
     history already reset at previous step: stopping
     new conv_thr            =       0.0001000000 Ry

     new unit-cell volume =   1302.93381 a.u.^3 (   193.07487 Ang^3 )

[...]

ATOMIC_POSITIONS (crystal)
Co       0.750000000   0.824791733   0.434893750
Co       0.250000000   0.175208267   0.565106250
Co       0.750000000   0.324791733   0.065106250
Co       0.250000000   0.675208267   0.934893750
Co       0.250000000   0.539054105   0.281441184
Co       0.750000000   0.460945895   0.718558816
Co       0.250000000   0.039054105   0.218558816
Co       0.750000000   0.960945895   0.781441184
Si       0.250000000   0.199857199   0.893742244
Si       0.750000000   0.800142801   0.106257756
Si       0.250000000   0.699857199   0.606257756
Si       0.750000000   0.300142801   0.393742244

     Writing output data file Prototype-La-oP12-Co2Si.save
     NEW-OLD atomic charge density approx. for the potential
     NEW k-points:
        k(    1) = (   0.0000000   0.0000000   0.0000000), wk =   0.0833333
        k(    2) = (   0.0000000   0.0000000   0.1147357), wk =   0.1666667
        k(    3) = (   0.0000000   0.0000000  -0.2294715), wk =   0.0833333
        k(    4) = (   0.0000000   0.2224847   0.0000000), wk =   0.1666667
        k(    5) = (   0.0000000   0.2224847   0.1147357), wk =   0.3333333
        k(    6) = (   0.0000000   0.2224847  -0.2294715), wk =   0.1666667
        k(    7) = (  -0.4324840   0.0000000   0.0000000), wk =   0.0833333
        k(    8) = (  -0.4324840   0.0000000   0.1147357), wk =   0.1666667
        k(    9) = (  -0.4324840   0.0000000  -0.2294715), wk =   0.0833333
        k(   10) = (  -0.4324840   0.2224847   0.0000000), wk =   0.1666667
        k(   11) = (  -0.4324840   0.2224847   0.1147357), wk =   0.3333333
        k(   12) = (  -0.4324840   0.2224847  -0.2294715), wk =   0.1666667

[...]

     The maximum number of steps has been reached.

     End of BFGS Geometry Optimization
Begin final coordinates
     new unit-cell volume =   1302.93381 a.u.^3 (   193.07487 Ang^3 )

CELL_PARAMETERS (alat=  7.01510508)
   1.156112094   0.000000000   0.000000000
   0.000000000   1.498230277   0.000000000
   0.000000000   0.000000000   2.178920067

ATOMIC_POSITIONS (crystal)
Co       0.750000000   0.824791733   0.434893750
Co       0.250000000   0.175208267   0.565106250
Co       0.750000000   0.324791733   0.065106250
Co       0.250000000   0.675208267   0.934893750
Co       0.250000000   0.539054105   0.281441184
Co       0.750000000   0.460945895   0.718558816
Co       0.250000000   0.039054105   0.218558816
Co       0.750000000   0.960945895   0.781441184
Si       0.250000000   0.199857199   0.893742244
Si       0.750000000   0.800142801   0.106257756
Si       0.250000000   0.699857199   0.606257756
Si       0.750000000   0.300142801   0.393742244
End final coordinates

     A final scf calculation at the relaxed structure.
     The G-vectors are recalculated for the final unit cell
     Results may differ from those at the preceding step.

     bravais-lattice index     =            0
     lattice parameter (alat)  =       7.0151  a.u.
     unit-cell volume          =    1302.9338 (a.u.)^3
     number of atoms/cell      =           12
     number of atomic types    =            2
     number of electrons       =       244.00
     number of Kohn-Sham states=          146
     kinetic-energy cutoff     =      40.0000  Ry
     charge density cutoff     =     160.0000  Ry
     convergence threshold     =      1.0E-04
     mixing beta               =       0.7000
     number of iterations used =            8  plain     mixing
     Exchange-correlation      = SLA-PZ-NOGX-NOGC ( 1 1 0 0 0)
     EXX-fraction              =        0.00

     celldm(1)=   7.015105  celldm(2)=   0.000000  celldm(3)=   0.000000
     celldm(4)=   0.000000  celldm(5)=   0.000000  celldm(6)=   0.000000

     crystal axes: (cart. coord. in units of alat)
               a(1) = (   1.156112   0.000000   0.000000 )
               a(2) = (   0.000000   1.498230   0.000000 )
               a(3) = (   0.000000   0.000000   2.178920 )

     reciprocal axes: (cart. coord. in units 2 pi/alat)
               b(1) = (  0.864968  0.000000  0.000000 )
               b(2) = (  0.000000  0.667454  0.000000 )
               b(3) = (  0.000000  0.000000  0.458943 )

     PseudoPot. # 1 for Er read from file:
     /home/cwx6513/pp.La/Er.UPF
     MD5 check sum: e152ae21b84514339d8526f066caf99b
     Pseudo is Norm-conserving, Zval = 22.0
     Generated in analytical, separable form
     Using radial grid of 1267 points,  6 beta functions with:
                l(1) =   0
                l(2) =   0
                l(3) =   1
                l(4) =   1
                l(5) =   2
                l(6) =   3

     PseudoPot. # 2 for Eu read from file:
     /home/cwx6513/pp.La/Eu.UPF
     MD5 check sum: 5efdbbfc50c6a10138933a6429836ad2
     Pseudo is Norm-conserving, Zval = 17.0
     Generated in analytical, separable form
     Using radial grid of 1261 points,  6 beta functions with:
                l(1) =   0
                l(2) =   0
                l(3) =   1
                l(4) =   1
                l(5) =   2
                l(6) =   3

     atomic species   valence    mass     pseudopotential
        Co            22.00    58.93320     Er( 1.00)
        Si            17.00    28.08550     Eu( 1.00)

      8 Sym. Ops., with inversion, found ( 6 have fractional translation)

   Cartesian axes

     site n.     atom                  positions (alat units)
         1           Co  tau(   1) = (   0.8670841   1.2357279   0.9475987  )
         2           Co  tau(   2) = (   0.2890280   0.2625023   1.2313213  )
         3           Co  tau(   3) = (   0.8670841   0.4866128   0.1418613  )
         4           Co  tau(   4) = (   0.2890280   1.0116175   2.0370588  )
         5           Co  tau(   5) = (   0.2890280   0.8076272   0.6132378  )
         6           Co  tau(   6) = (   0.8670841   0.6906031   1.5656822  )
         7           Co  tau(   7) = (   0.2890280   0.0585120   0.4762222  )
         8           Co  tau(   8) = (   0.8670841   1.4397182   1.7026979  )
         9           Si  tau(   9) = (   0.2890280   0.2994321   1.9473929  )
        10           Si  tau(  10) = (   0.8670841   1.1987982   0.2315272  )
        11           Si  tau(  11) = (   0.2890280   1.0485472   1.3209872  )
        12           Si  tau(  12) = (   0.8670841   0.4496830   0.8579329  )

     number of k points=    12  gaussian smearing, width (Ry)=  0.1000
                       cart. coord. in units 2pi/alat
        k(    1) = (   0.0000000   0.0000000   0.0000000), wk =   0.0833333
        k(    2) = (   0.0000000   0.0000000   0.1147357), wk =   0.1666667
        k(    3) = (   0.0000000   0.0000000  -0.2294715), wk =   0.0833333
        k(    4) = (   0.0000000   0.2224847   0.0000000), wk =   0.1666667
        k(    5) = (   0.0000000   0.2224847   0.1147357), wk =   0.3333333
        k(    6) = (   0.0000000   0.2224847  -0.2294715), wk =   0.1666667
        k(    7) = (  -0.4324840   0.0000000   0.0000000), wk =   0.0833333
        k(    8) = (  -0.4324840   0.0000000   0.1147357), wk =   0.1666667
        k(    9) = (  -0.4324840   0.0000000  -0.2294715), wk =   0.0833333
        k(   10) = (  -0.4324840   0.2224847   0.0000000), wk =   0.1666667
        k(   11) = (  -0.4324840   0.2224847   0.1147357), wk =   0.3333333
        k(   12) = (  -0.4324840   0.2224847  -0.2294715), wk =   0.1666667

     Largest allocated arrays     est. size (Mb)     dimensions
     Largest temporary arrays     est. size (Mb)     dimensions

     Initial potential from superposition of free atoms

     Starting from uniform charge
     Starting wfc are    0 randomized atomic wfcs

     Writing output data file Prototype-La-oP12-Co2Si.save

     Self-consistent Calculation

[...]

     iteration #  6     ecut=    40.00 Ry     beta=0.70
     CG style diagonalization
     ethr =  1.35E-03,  avg # of iterations =  3.8

[...]

     total energy              =   -3331.63432637 Ry
     Harris-Foulkes estimate   =   -3331.63464922 Ry
     estimated scf accuracy    <       0.00063121 Ry

     iteration # 11     ecut=    40.00 Ry     beta=0.70
     CG style diagonalization
     c_bands:  1 eigenvalues not converged
     ethr =  2.59E-07,  avg # of iterations =  3.3

     End of self-consistent calculation

[...]

          k = 0.0000 0.2225-0.2295 (  5558 PWs)   bands (ev):

[...]

          k =-0.4325 0.2225-0.2295 (  5564 PWs)   bands (ev):

   -67.0579 -67.0579 -67.0496 -67.0496 -67.0093 -67.0093 -66.9933 -66.9933
   -29.3275 -29.3275 -29.2917 -29.2917 -29.1850 -29.1850 -29.1103 -29.1103
   -29.1055 -29.1055 -29.0730 -29.0730 -29.0443 -29.0443 -29.0290 -29.0290
   -29.0118 -29.0118 -28.9956 -28.9956 -28.9855 -28.9855 -28.9795 -28.9795
   -28.7903 -28.7903 -28.7750 -28.7750  -2.2800  -2.2800  -2.2582  -2.2582
    -2.1802  -2.1802  -2.1705  -2.1705  -1.9536  -1.9536  -1.9390  -1.9390
    16.1334  16.1334  16.4659  16.4659  16.5757  16.5757  16.6874  16.6874
    16.6914  16.6914  16.7925  16.7925  16.9205  16.9205  17.1873  17.1873
    17.2105  17.2105  17.3430  17.3430  17.3925  17.3925  17.6005  17.6005
    17.6750  17.6750  17.7288  17.7288  17.7826  17.7826  17.8641  17.8641
    18.0467  18.0467  18.3186  18.3186  18.4079  18.4079  18.6624  18.6624
    22.9924  22.9924  23.4106  23.4106  24.8174  24.8174  25.4552  25.4552
    27.7508  27.7508  27.9773  27.9773  28.2563  28.2563  28.7480  28.7480
    29.4249  29.4249  29.5936  29.5936  29.8333  29.8333  30.0869  30.0869
    31.1320  31.1320  31.6607  31.6607  32.5486  32.5486  34.1674  34.1674
    35.1773  35.1773  36.0811  36.0811  36.7324  36.7324  37.8291  37.8291
    39.4462  39.4463  39.8111  39.8111  40.7739  40.7740  40.8752  40.8753
    41.0939  41.0940  41.3858  41.3859  41.8501  41.8503  42.2381  42.2381
    42.7775  42.7777

     the Fermi energy is    35.7668 ev

!    total energy              =   -3331.63442942 Ry
     Harris-Foulkes estimate   =   -3331.63444156 Ry
     estimated scf accuracy    <       0.00001382 Ry

     The total energy is the sum of the following terms:

     one-electron contribution =    -456.31341535 Ry
     hartree contribution      =     448.80776256 Ry
     xc contribution           =    -301.38264436 Ry
     ewald contribution        =   -3022.42315492 Ry
     smearing contrib. (-TS)   =      -0.32297735 Ry

     convergence has been achieved in  11 iterations

     Forces acting on atoms (Ry/au):

     atom    1 type  1   force =     0.00000000   -0.04316136   -0.01749156
     atom    2 type  1   force =     0.00000000    0.04316136    0.01749156
     atom    3 type  1   force =     0.00000000   -0.04316136    0.01749156
     atom    4 type  1   force =     0.00000000    0.04316136   -0.01749156
     atom    5 type  1   force =     0.00000000    0.04667169    0.00522972
     atom    6 type  1   force =     0.00000000   -0.04667169   -0.00522972
     atom    7 type  1   force =     0.00000000    0.04667169   -0.00522972
     atom    8 type  1   force =     0.00000000   -0.04667169    0.00522972
     atom    9 type  2   force =     0.00000000   -0.06503688    0.01992405
     atom   10 type  2   force =     0.00000000    0.06503688   -0.01992405
     atom   11 type  2   force =     0.00000000   -0.06503688   -0.01992405
     atom   12 type  2   force =     0.00000000    0.06503688    0.01992405

     Total force =     0.189749     Total SCF correction =     0.000000

     entering subroutine stress ...

          total   stress  (Ry/bohr**3)                   (kbar)     P= 1031.01
   0.00728798   0.00000000   0.00000000       1072.10      0.00      0.00
   0.00000000   0.00677181   0.00000000          0.00    996.17      0.00
   0.00000000   0.00000000   0.00696613          0.00      0.00   1024.75

     Writing output data file Prototype-La-oP12-Co2Si.save

     General routines

     Parallel routines

   This run was terminated on:  23: 4:24  22Mar2018

   JOB DONE.