     Program PWSCF v.5.0.2 starts on 22Mar2018 at 12:13:46

     Current dimensions of program PWSCF are:
     Max number of different atomic species (ntypx) = 10
     Max number of k-points (npk) =  40000
     Max angular momentum in pseudopotentials (lmaxx) =  3
     Waiting for input...
     Reading input from standard input

     Subspace diagonalization in iterative solution of the eigenvalue problem:
     a serial algorithm will be used

     bravais-lattice index     =            0
     lattice parameter (alat)  =       8.5346  a.u.
     unit-cell volume          =     621.6493 (a.u.)^3
     number of atoms/cell      =            8
     number of atomic types    =            2
     number of electrons       =       176.00
     number of Kohn-Sham states=          106
     kinetic-energy cutoff     =      40.0000  Ry
     charge density cutoff     =     160.0000  Ry
     convergence threshold     =      1.0E-04
     mixing beta               =       0.7000
     number of iterations used =            8  plain     mixing
     Exchange-correlation      = SLA-PZ-NOGX-NOGC ( 1 1 0 0 0)
     EXX-fraction              =        0.00
     nstep                     =           50

     celldm(1)=   8.534573  celldm(2)=   0.000000  celldm(3)=   0.000000
     celldm(4)=   0.000000  celldm(5)=   0.000000  celldm(6)=   0.000000

     crystal axes: (cart. coord. in units of alat)
               a(1) = (   1.000000   0.000000   0.000000 )
               a(2) = (   0.000000   1.000000   0.000000 )
               a(3) = (   0.000000   0.000000   1.000000 )

     reciprocal axes: (cart. coord. in units 2 pi/alat)
               b(1) = (  1.000000  0.000000  0.000000 )
               b(2) = (  0.000000  1.000000  0.000000 )
               b(3) = (  0.000000  0.000000  1.000000 )

     PseudoPot. # 1 for Yb read from file:
     /home/jld5415/pp.La/Yb.UPF
     MD5 check sum: 3e859b81cc28c53ec6aa3a2e888efcdf
     Pseudo is Norm-conserving, Zval = 24.0
     Generated in analytical, separable form
     Using radial grid of 1269 points,  6 beta functions with:
                l(1) =   0
                l(2) =   0
                l(3) =   1
                l(4) =   1
                l(5) =   2
                l(6) =   3

     PseudoPot. # 2 for Sm read from file:
     /home/jld5415/pp.La/Sm.UPF
     MD5 check sum: 5079e8b144a06bfcdbc14fb02b96ab09
     Pseudo is Norm-conserving, Zval = 16.0
     Generated in analytical, separable form
     Using radial grid of 1259 points,  6 beta functions with:
                l(1) =   0
                l(2) =   0
                l(3) =   1
                l(4) =   1
                l(5) =   2
                l(6) =   3

     atomic species   valence    mass     pseudopotential
        Cr            24.00    51.99610     Yb( 1.00)
        Si            16.00    28.08550     Sm( 1.00)

     48 Sym. Ops., with inversion, found (24 have fractional translation)

   Cartesian axes

     site n.     atom                  positions (alat units)
         1           Cr  tau(   1) = (   0.0000000   0.5000000   0.2500000  )
         2           Cr  tau(   2) = (   0.0000000   0.5000000   0.7500000  )
         3           Cr  tau(   3) = (   0.5000000   0.7500000   0.0000000  )
         4           Cr  tau(   4) = (   0.5000000   0.2500000   0.0000000  )
         5           Cr  tau(   5) = (   0.7500000   0.0000000   0.5000000  )
         6           Cr  tau(   6) = (   0.2500000   0.0000000   0.5000000  )
         7           Si  tau(   7) = (   0.5000000   0.5000000   0.5000000  )
         8           Si  tau(   8) = (   0.0000000   0.0000000   0.0000000  )

     number of k points=    48  gaussian smearing, width (Ry)=  0.1000
                       cart. coord. in units 2pi/alat
        k(    1) = (   0.0000000   0.0000000   0.0000000), wk =   0.0095238
        k(    2) = (   0.0000000   0.0000000   0.1428571), wk =   0.0190476
        k(    3) = (   0.0000000   0.0000000   0.2857143), wk =   0.0190476
        k(    4) = (   0.0000000   0.0000000   0.4285714), wk =   0.0190476
        k(    5) = (   0.0000000   0.1666667   0.0000000), wk =   0.0190476
        k(    6) = (   0.0000000   0.1666667   0.1428571), wk =   0.0380952
        k(    7) = (   0.0000000   0.1666667   0.2857143), wk =   0.0380952
        k(    8) = (   0.0000000   0.1666667   0.4285714), wk =   0.0380952
        k(    9) = (   0.0000000   0.3333333   0.0000000), wk =   0.0190476
        k(   10) = (   0.0000000   0.3333333   0.1428571), wk =   0.0380952
        k(   11) = (   0.0000000   0.3333333   0.2857143), wk =   0.0380952
        k(   12) = (   0.0000000   0.3333333   0.4285714), wk =   0.0380952
        k(   13) = (   0.0000000  -0.5000000   0.0000000), wk =   0.0095238
        k(   14) = (   0.0000000  -0.5000000   0.1428571), wk =   0.0190476
        k(   15) = (   0.0000000  -0.5000000   0.2857143), wk =   0.0190476
        k(   16) = (   0.0000000  -0.5000000   0.4285714), wk =   0.0190476
        k(   17) = (   0.2000000   0.0000000   0.0000000), wk =   0.0190476
        k(   18) = (   0.2000000   0.0000000   0.1428571), wk =   0.0380952
        k(   19) = (   0.2000000   0.0000000   0.2857143), wk =   0.0380952
        k(   20) = (   0.2000000   0.0000000   0.4285714), wk =   0.0380952
        k(   21) = (   0.2000000   0.1666667   0.0000000), wk =   0.0380952
        k(   22) = (   0.2000000   0.1666667   0.1428571), wk =   0.0761905
        k(   23) = (   0.2000000   0.1666667   0.2857143), wk =   0.0761905
        k(   24) = (   0.2000000   0.1666667   0.4285714), wk =   0.0761905
        k(   25) = (   0.2000000   0.3333333   0.0000000), wk =   0.0380952
        k(   26) = (   0.2000000   0.3333333   0.1428571), wk =   0.0761905
        k(   27) = (   0.2000000   0.3333333   0.2857143), wk =   0.0761905
        k(   28) = (   0.2000000   0.3333333   0.4285714), wk =   0.0761905
        k(   29) = (   0.2000000  -0.5000000   0.0000000), wk =   0.0190476
        k(   30) = (   0.2000000  -0.5000000   0.1428571), wk =   0.0380952
        k(   31) = (   0.2000000  -0.5000000   0.2857143), wk =   0.0380952
        k(   32) = (   0.2000000  -0.5000000   0.4285714), wk =   0.0380952
        k(   33) = (   0.4000000   0.0000000   0.0000000), wk =   0.0190476
        k(   34) = (   0.4000000   0.0000000   0.1428571), wk =   0.0380952
        k(   35) = (   0.4000000   0.0000000   0.2857143), wk =   0.0380952
        k(   36) = (   0.4000000   0.0000000   0.4285714), wk =   0.0380952
        k(   37) = (   0.4000000   0.1666667   0.0000000), wk =   0.0380952
        k(   38) = (   0.4000000   0.1666667   0.1428571), wk =   0.0761905
        k(   39) = (   0.4000000   0.1666667   0.2857143), wk =   0.0761905
        k(   40) = (   0.4000000   0.1666667   0.4285714), wk =   0.0761905
        k(   41) = (   0.4000000   0.3333333   0.0000000), wk =   0.0380952
        k(   42) = (   0.4000000   0.3333333   0.1428571), wk =   0.0761905
        k(   43) = (   0.4000000   0.3333333   0.2857143), wk =   0.0761905
        k(   44) = (   0.4000000   0.3333333   0.4285714), wk =   0.0761905
        k(   45) = (   0.4000000  -0.5000000   0.0000000), wk =   0.0190476
        k(   46) = (   0.4000000  -0.5000000   0.1428571), wk =   0.0380952
        k(   47) = (   0.4000000  -0.5000000   0.2857143), wk =   0.0380952
        k(   48) = (   0.4000000  -0.5000000   0.4285714), wk =   0.0380952

     Largest allocated arrays     est. size (Mb)     dimensions
     Largest temporary arrays     est. size (Mb)     dimensions

     Initial potential from superposition of free atoms

     Starting from uniform charge
     Starting wfc are    0 randomized atomic wfcs

     Self-consistent Calculation

     iteration #  1     ecut=    40.00 Ry     beta=0.70
     CG style diagonalization
     ethr =  1.00E-02,  avg # of iterations = 17.4

     total energy              =   -2088.28616132 Ry
     Harris-Foulkes estimate   =   -3336.37532651 Ry
     estimated scf accuracy    <    1522.91435039 Ry

     iteration #  2     ecut=    40.00 Ry     beta=0.70
     CG style diagonalization
     c_bands:  4 eigenvalues not converged
     c_bands:  2 eigenvalues not converged
     c_bands:  2 eigenvalues not converged
     c_bands:  3 eigenvalues not converged
     c_bands:  5 eigenvalues not converged
     c_bands:  1 eigenvalues not converged
     c_bands:  1 eigenvalues not converged
     c_bands:  3 eigenvalues not converged
     c_bands:  1 eigenvalues not converged
     c_bands:  2 eigenvalues not converged
     c_bands:  1 eigenvalues not converged
     c_bands:  3 eigenvalues not converged
     c_bands:  3 eigenvalues not converged
     c_bands:  3 eigenvalues not converged
     c_bands:  2 eigenvalues not converged
     c_bands:  1 eigenvalues not converged
     c_bands:  3 eigenvalues not converged
     c_bands:  2 eigenvalues not converged
     c_bands:  1 eigenvalues not converged
     c_bands:  2 eigenvalues not converged
     c_bands:  1 eigenvalues not converged
     c_bands:  2 eigenvalues not converged
     c_bands:  1 eigenvalues not converged
     c_bands:  3 eigenvalues not converged
     c_bands:  1 eigenvalues not converged
     c_bands:  3 eigenvalues not converged
     c_bands:  1 eigenvalues not converged
     c_bands:  1 eigenvalues not converged
     c_bands:  2 eigenvalues not converged
     c_bands:  2 eigenvalues not converged
     c_bands:  1 eigenvalues not converged
     c_bands:  1 eigenvalues not converged
     ethr =  1.00E-02,  avg # of iterations = 13.7

[...]

     End of self-consistent calculation

          k = 0.0000 0.0000 0.0000 (  2601 PWs)   bands (ev):

   -73.3036 -73.3036 -73.0717 -72.9078 -72.9078 -72.9078 -33.1210 -33.1210
   -33.0667 -32.1430 -32.1430 -32.1430 -31.9794 -31.9794 -31.9794 -31.9201
   -31.9201 -31.9201 -31.8820 -31.8820 -31.8820 -31.7977 -31.7977 -31.7977
    -7.7222  -7.7057  15.6088  15.6088  15.6088  15.6949  15.6949  15.6949
    20.2629  20.2829  20.2829  22.3027  22.3027  22.3027  23.7200  24.4408
    24.4408  24.4408  24.4886  24.4886  24.5505  24.5505  24.5505  25.0186
    25.8055  25.8055  25.8055  26.5296  26.5296  26.7184  26.7184  26.7184
    26.7569  26.7569  26.7569  27.9241  27.9241  27.9241  28.5023  34.4824
    34.4824  40.0810  40.0810  40.0810  40.5594  40.5594  41.6011  41.6011
    41.6011  42.8137  42.8137  42.8137  43.7358  46.4445  46.4445  46.4445
    50.3361  50.3361  50.3361  50.3747  50.3747  51.2146  51.2146  53.2090
    54.9444  54.9444  54.9444  55.2606  55.5399  55.5399  55.5399  56.1513
    56.1513  56.1514  57.1082  57.1082  57.1082  57.7215  59.3504  59.3504
    59.3510  60.1846

[...]

     the Fermi energy is    53.3735 ev

!    total energy              =   -2750.23465156 Ry
     Harris-Foulkes estimate   =   -2750.23470252 Ry
     estimated scf accuracy    <       0.00005712 Ry

     The total energy is the sum of the following terms:

     one-electron contribution =    -183.46821295 Ry
     hartree contribution      =     316.27586731 Ry
     xc contribution           =    -234.88182473 Ry
     ewald contribution        =   -2647.83056589 Ry
     smearing contrib. (-TS)   =      -0.32991530 Ry

[...]

     number of scf cycles    =   3
     number of bfgs steps    =   2

     enthalpy old            =   -2754.3998231965 Ry
     enthalpy new            =   -2750.3381768319 Ry

     CASE: enthalpy_new > enthalpy_old

     new trust radius        =       0.1746613946 bohr

     trust_radius < trust_radius_min

     resetting bfgs history

     Message from routine bfgs:
     history already reset at previous step: stopping
     new conv_thr            =       0.0000010000 Ry

     new unit-cell volume =   1045.61300 a.u.^3 (   154.94386 Ang^3 )

[...]

ATOMIC_POSITIONS (crystal)
Cr       0.000000000   0.500000000   0.250000000
Cr       0.000000000   0.500000000   0.750000000
Cr       0.500000000   0.750000000   0.000000000
Cr       0.500000000   0.250000000   0.000000000
Cr       0.750000000   0.000000000   0.500000000
Cr       0.250000000   0.000000000   0.500000000
Si       0.500000000   0.500000000   0.500000000
Si       0.000000000   0.000000000   0.000000000

     Writing output data file Prototype-La-cP8-Cr3Si.save
     NEW-OLD atomic charge density approx. for the potential
     NEW k-points:
        k(    1) = (   0.0000000   0.0000000   0.0000000), wk =   0.0095238
        k(    2) = (   0.0000000   0.0000000   0.1201232), wk =   0.0190476
        k(    3) = (   0.0000000   0.0000000   0.2402463), wk =   0.0190476
        k(    4) = (   0.0000000   0.0000000   0.3603695), wk =   0.0190476
        k(    5) = (   0.0000000   0.1401437   0.0000000), wk =   0.0190476
        k(    6) = (   0.0000000   0.1401437   0.1201232), wk =   0.0380952
        k(    7) = (   0.0000000   0.1401437   0.2402463), wk =   0.0380952
        k(    8) = (   0.0000000   0.1401437   0.3603695), wk =   0.0380952
        k(    9) = (   0.0000000   0.2802874   0.0000000), wk =   0.0190476
        k(   10) = (   0.0000000   0.2802874   0.1201232), wk =   0.0380952
        k(   11) = (   0.0000000   0.2802874   0.2402463), wk =   0.0380952
        k(   12) = (   0.0000000   0.2802874   0.3603695), wk =   0.0380952
        k(   13) = (   0.0000000  -0.4204311   0.0000000), wk =   0.0095238
        k(   14) = (   0.0000000  -0.4204311   0.1201232), wk =   0.0190476
        k(   15) = (   0.0000000  -0.4204311   0.2402463), wk =   0.0190476
        k(   16) = (   0.0000000  -0.4204311   0.3603695), wk =   0.0190476
        k(   17) = (   0.1681724   0.0000000   0.0000000), wk =   0.0190476
        k(   18) = (   0.1681724   0.0000000   0.1201232), wk =   0.0380952
        k(   19) = (   0.1681724   0.0000000   0.2402463), wk =   0.0380952
        k(   20) = (   0.1681724   0.0000000   0.3603695), wk =   0.0380952
        k(   21) = (   0.1681724   0.1401437   0.0000000), wk =   0.0380952
        k(   22) = (   0.1681724   0.1401437   0.1201232), wk =   0.0761905
        k(   23) = (   0.1681724   0.1401437   0.2402463), wk =   0.0761905
        k(   24) = (   0.1681724   0.1401437   0.3603695), wk =   0.0761905
        k(   25) = (   0.1681724   0.2802874   0.0000000), wk =   0.0380952
        k(   26) = (   0.1681724   0.2802874   0.1201232), wk =   0.0761905
        k(   27) = (   0.1681724   0.2802874   0.2402463), wk =   0.0761905
        k(   28) = (   0.1681724   0.2802874   0.3603695), wk =   0.0761905
        k(   29) = (   0.1681724  -0.4204311   0.0000000), wk =   0.0190476
        k(   30) = (   0.1681724  -0.4204311   0.1201232), wk =   0.0380952
        k(   31) = (   0.1681724  -0.4204311   0.2402463), wk =   0.0380952
        k(   32) = (   0.1681724  -0.4204311   0.3603695), wk =   0.0380952
        k(   33) = (   0.3363449   0.0000000   0.0000000), wk =   0.0190476
        k(   34) = (   0.3363449   0.0000000   0.1201232), wk =   0.0380952
        k(   35) = (   0.3363449   0.0000000   0.2402463), wk =   0.0380952
        k(   36) = (   0.3363449   0.0000000   0.3603695), wk =   0.0380952
        k(   37) = (   0.3363449   0.1401437   0.0000000), wk =   0.0380952
        k(   38) = (   0.3363449   0.1401437   0.1201232), wk =   0.0761905
        k(   39) = (   0.3363449   0.1401437   0.2402463), wk =   0.0761905
        k(   40) = (   0.3363449   0.1401437   0.3603695), wk =   0.0761905
        k(   41) = (   0.3363449   0.2802874   0.0000000), wk =   0.0380952
        k(   42) = (   0.3363449   0.2802874   0.1201232), wk =   0.0761905
        k(   43) = (   0.3363449   0.2802874   0.2402463), wk =   0.0761905
        k(   44) = (   0.3363449   0.2802874   0.3603695), wk =   0.0761905
        k(   45) = (   0.3363449  -0.4204311   0.0000000), wk =   0.0190476
        k(   46) = (   0.3363449  -0.4204311   0.1201232), wk =   0.0380952
        k(   47) = (   0.3363449  -0.4204311   0.2402463), wk =   0.0380952
        k(   48) = (   0.3363449  -0.4204311   0.3603695), wk =   0.0380952

[...]

          total   stress  (Ry/bohr**3)                   (kbar)     P=-1467.65
  -0.00997688   0.00000000   0.00000000      -1467.65      0.00      0.00
   0.00000000  -0.00997688   0.00000000          0.00  -1467.65      0.00
   0.00000000   0.00000000  -0.00997688          0.00      0.00  -1467.65

     The maximum number of steps has been reached.

     End of BFGS Geometry Optimization
Begin final coordinates
     new unit-cell volume =   1045.61300 a.u.^3 (   154.94386 Ang^3 )

CELL_PARAMETERS (alat=  8.53457320)
   1.189255541   0.000000000   0.000000000
   0.000000000   1.189255541   0.000000000
   0.000000000   0.000000000   1.189255541

ATOMIC_POSITIONS (crystal)
Cr       0.000000000   0.500000000   0.250000000
Cr       0.000000000   0.500000000   0.750000000
Cr       0.500000000   0.750000000   0.000000000
Cr       0.500000000   0.250000000   0.000000000
Cr       0.750000000   0.000000000   0.500000000
Cr       0.250000000   0.000000000   0.500000000
Si       0.500000000   0.500000000   0.500000000
Si       0.000000000   0.000000000   0.000000000
End final coordinates

     A final scf calculation at the relaxed structure.
     The G-vectors are recalculated for the final unit cell
     Results may differ from those at the preceding step.

     bravais-lattice index     =            0
     lattice parameter (alat)  =       8.5346  a.u.
     unit-cell volume          =    1045.6130 (a.u.)^3
     number of atoms/cell      =            8
     number of atomic types    =            2
     number of electrons       =       176.00
     number of Kohn-Sham states=          106
     kinetic-energy cutoff     =      40.0000  Ry
     charge density cutoff     =     160.0000  Ry
     convergence threshold     =      1.0E-06
     mixing beta               =       0.7000
     number of iterations used =            8  plain     mixing
     Exchange-correlation      = SLA-PZ-NOGX-NOGC ( 1 1 0 0 0)
     EXX-fraction              =        0.00

     celldm(1)=   8.534573  celldm(2)=   0.000000  celldm(3)=   0.000000
     celldm(4)=   0.000000  celldm(5)=   0.000000  celldm(6)=   0.000000

     crystal axes: (cart. coord. in units of alat)
               a(1) = (   1.189256   0.000000   0.000000 )
               a(2) = (   0.000000   1.189256   0.000000 )
               a(3) = (   0.000000   0.000000   1.189256 )

     reciprocal axes: (cart. coord. in units 2 pi/alat)
               b(1) = (  0.840862  0.000000  0.000000 )
               b(2) = (  0.000000  0.840862  0.000000 )
               b(3) = (  0.000000  0.000000  0.840862 )

     PseudoPot. # 1 for Yb read from file:
     /home/jld5415/pp.La/Yb.UPF
     MD5 check sum: 3e859b81cc28c53ec6aa3a2e888efcdf
     Pseudo is Norm-conserving, Zval = 24.0
     Generated in analytical, separable form
     Using radial grid of 1269 points,  6 beta functions with:
                l(1) =   0
                l(2) =   0
                l(3) =   1
                l(4) =   1
                l(5) =   2
                l(6) =   3

     PseudoPot. # 2 for Sm read from file:
     /home/jld5415/pp.La/Sm.UPF
     MD5 check sum: 5079e8b144a06bfcdbc14fb02b96ab09
     Pseudo is Norm-conserving, Zval = 16.0
     Generated in analytical, separable form
     Using radial grid of 1259 points,  6 beta functions with:
                l(1) =   0
                l(2) =   0
                l(3) =   1
                l(4) =   1
                l(5) =   2
                l(6) =   3

     atomic species   valence    mass     pseudopotential
        Cr            24.00    51.99610     Yb( 1.00)
        Si            16.00    28.08550     Sm( 1.00)

     48 Sym. Ops., with inversion, found (24 have fractional translation)

   Cartesian axes

     site n.     atom                  positions (alat units)
         1           Cr  tau(   1) = (   0.0000000   0.5946278   0.2973139  )
         2           Cr  tau(   2) = (   0.0000000   0.5946278   0.8919417  )
         3           Cr  tau(   3) = (   0.5946278   0.8919417   0.0000000  )
         4           Cr  tau(   4) = (   0.5946278   0.2973139   0.0000000  )
         5           Cr  tau(   5) = (   0.8919417   0.0000000   0.5946278  )
         6           Cr  tau(   6) = (   0.2973139   0.0000000   0.5946278  )
         7           Si  tau(   7) = (   0.5946278   0.5946278   0.5946278  )
         8           Si  tau(   8) = (   0.0000000   0.0000000   0.0000000  )

     number of k points=    48  gaussian smearing, width (Ry)=  0.1000
                       cart. coord. in units 2pi/alat
        k(    1) = (   0.0000000   0.0000000   0.0000000), wk =   0.0095238
        k(    2) = (   0.0000000   0.0000000   0.1201232), wk =   0.0190476
        k(    3) = (   0.0000000   0.0000000   0.2402463), wk =   0.0190476
        k(    4) = (   0.0000000   0.0000000   0.3603695), wk =   0.0190476
        k(    5) = (   0.0000000   0.1401437   0.0000000), wk =   0.0190476
        k(    6) = (   0.0000000   0.1401437   0.1201232), wk =   0.0380952
        k(    7) = (   0.0000000   0.1401437   0.2402463), wk =   0.0380952
        k(    8) = (   0.0000000   0.1401437   0.3603695), wk =   0.0380952
        k(    9) = (   0.0000000   0.2802874   0.0000000), wk =   0.0190476
        k(   10) = (   0.0000000   0.2802874   0.1201232), wk =   0.0380952
        k(   11) = (   0.0000000   0.2802874   0.2402463), wk =   0.0380952
        k(   12) = (   0.0000000   0.2802874   0.3603695), wk =   0.0380952
        k(   13) = (   0.0000000  -0.4204311   0.0000000), wk =   0.0095238
        k(   14) = (   0.0000000  -0.4204311   0.1201232), wk =   0.0190476
        k(   15) = (   0.0000000  -0.4204311   0.2402463), wk =   0.0190476
        k(   16) = (   0.0000000  -0.4204311   0.3603695), wk =   0.0190476
        k(   17) = (   0.1681724   0.0000000   0.0000000), wk =   0.0190476
        k(   18) = (   0.1681724   0.0000000   0.1201232), wk =   0.0380952
        k(   19) = (   0.1681724   0.0000000   0.2402463), wk =   0.0380952
        k(   20) = (   0.1681724   0.0000000   0.3603695), wk =   0.0380952
        k(   21) = (   0.1681724   0.1401437   0.0000000), wk =   0.0380952
        k(   22) = (   0.1681724   0.1401437   0.1201232), wk =   0.0761905
        k(   23) = (   0.1681724   0.1401437   0.2402463), wk =   0.0761905
        k(   24) = (   0.1681724   0.1401437   0.3603695), wk =   0.0761905
        k(   25) = (   0.1681724   0.2802874   0.0000000), wk =   0.0380952
        k(   26) = (   0.1681724   0.2802874   0.1201232), wk =   0.0761905
        k(   27) = (   0.1681724   0.2802874   0.2402463), wk =   0.0761905
        k(   28) = (   0.1681724   0.2802874   0.3603695), wk =   0.0761905
        k(   29) = (   0.1681724  -0.4204311   0.0000000), wk =   0.0190476
        k(   30) = (   0.1681724  -0.4204311   0.1201232), wk =   0.0380952
        k(   31) = (   0.1681724  -0.4204311   0.2402463), wk =   0.0380952
        k(   32) = (   0.1681724  -0.4204311   0.3603695), wk =   0.0380952
        k(   33) = (   0.3363449   0.0000000   0.0000000), wk =   0.0190476
        k(   34) = (   0.3363449   0.0000000   0.1201232), wk =   0.0380952
        k(   35) = (   0.3363449   0.0000000   0.2402463), wk =   0.0380952
        k(   36) = (   0.3363449   0.0000000   0.3603695), wk =   0.0380952
        k(   37) = (   0.3363449   0.1401437   0.0000000), wk =   0.0380952
        k(   38) = (   0.3363449   0.1401437   0.1201232), wk =   0.0761905
        k(   39) = (   0.3363449   0.1401437   0.2402463), wk =   0.0761905
        k(   40) = (   0.3363449   0.1401437   0.3603695), wk =   0.0761905
        k(   41) = (   0.3363449   0.2802874   0.0000000), wk =   0.0380952
        k(   42) = (   0.3363449   0.2802874   0.1201232), wk =   0.0761905
        k(   43) = (   0.3363449   0.2802874   0.2402463), wk =   0.0761905
        k(   44) = (   0.3363449   0.2802874   0.3603695), wk =   0.0761905
        k(   45) = (   0.3363449  -0.4204311   0.0000000), wk =   0.0190476
        k(   46) = (   0.3363449  -0.4204311   0.1201232), wk =   0.0380952
        k(   47) = (   0.3363449  -0.4204311   0.2402463), wk =   0.0380952
        k(   48) = (   0.3363449  -0.4204311   0.3603695), wk =   0.0380952

     Largest allocated arrays     est. size (Mb)     dimensions
     Largest temporary arrays     est. size (Mb)     dimensions

     Initial potential from superposition of free atoms

     Starting from uniform charge
     Starting wfc are    0 randomized atomic wfcs

     Writing output data file Prototype-La-cP8-Cr3Si.save

     Self-consistent Calculation

[...]

     iteration # 10     ecut=    40.00 Ry     beta=0.70
     CG style diagonalization
     c_bands:  1 eigenvalues not converged
     ethr =  7.47E-08,  avg # of iterations =  3.6

[...]

     total energy              =   -2759.75289643 Ry
     Harris-Foulkes estimate   =   -2759.75290381 Ry
     estimated scf accuracy    <       0.00001729 Ry

     iteration # 12     ecut=    40.00 Ry     beta=0.70
     CG style diagonalization
     ethr =  9.49E-09,  avg # of iterations =  3.2

     End of self-consistent calculation

[...]

          k = 0.3363-0.4204 0.3604 (  4484 PWs)   bands (ev):

   -94.2042 -94.1970 -94.1944 -94.1941 -94.1922 -94.1877 -53.1249 -53.1202
   -53.1024 -53.1024 -53.0798 -53.0718 -52.9389 -52.9387 -52.9373 -52.9370
   -52.9366 -52.9358 -52.9348 -52.9346 -52.9326 -52.9322 -52.9302 -52.9295
   -27.2113 -27.2113  -2.6082  -2.6079  -2.6070  -2.6065  -2.6057  -2.6054
     4.2021   4.3034   4.5603   4.5608   4.6581   4.6637   4.6869   4.7005
     4.7791   4.7802   4.8012   4.8321   4.8352   4.8548   4.8983   4.9035
     5.0431   5.0433   5.1085   5.1092   5.1274   5.1342   5.1420   5.1591
     5.2408   5.2435   5.2549   5.2550   5.2757   5.2879  15.9219  15.9294
    16.5767  16.5772  17.1382  17.1491  21.4678  21.4678  24.8412  24.8463
    24.9621  24.9688  25.7488  25.8584  26.2280  26.2389  26.6699  26.6937
    27.3458  27.3714  27.9926  28.0043  28.7317  29.1339  30.7304  30.8673
    31.4114  31.4284  31.9210  31.9789  33.2984  33.2997  33.4648  33.4788
    34.0475  34.0730  34.9651  35.0419  35.5064  35.7119  35.8713  35.8738
    38.2306  38.3458

     the Fermi energy is    30.7813 ev

!    total energy              =   -2759.75289993 Ry
     Harris-Foulkes estimate   =   -2759.75290024 Ry
     estimated scf accuracy    <       0.00000036 Ry

     The total energy is the sum of the following terms:

     one-electron contribution =    -791.43629268 Ry
     hartree contribution      =     483.90214978 Ry
     xc contribution           =    -225.41771698 Ry
     ewald contribution        =   -2226.46056729 Ry
     smearing contrib. (-TS)   =      -0.34047276 Ry

     convergence has been achieved in  12 iterations

     Forces acting on atoms (Ry/au):

     atom    1 type  1   force =     0.00000000    0.00000000    0.00000000
     atom    2 type  1   force =     0.00000000    0.00000000    0.00000000
     atom    3 type  1   force =     0.00000000    0.00000000    0.00000000
     atom    4 type  1   force =     0.00000000    0.00000000    0.00000000
     atom    5 type  1   force =     0.00000000    0.00000000    0.00000000
     atom    6 type  1   force =     0.00000000    0.00000000    0.00000000
     atom    7 type  2   force =     0.00000000    0.00000000    0.00000000
     atom    8 type  2   force =     0.00000000    0.00000000    0.00000000

     Total force =     0.000000     Total SCF correction =     0.000000

     entering subroutine stress ...

          total   stress  (Ry/bohr**3)                   (kbar)     P=  275.72
   0.00187429   0.00000000   0.00000000        275.72      0.00      0.00
   0.00000000   0.00187429   0.00000000          0.00    275.72      0.00
   0.00000000   0.00000000   0.00187429          0.00      0.00    275.72

     Writing output data file Prototype-La-cP8-Cr3Si.save

     General routines

     Parallel routines

   This run was terminated on:  12:46:54  22Mar2018

   JOB DONE.