     Program PWSCF v.5.0.2 starts on 22Mar2018 at 17:36:42

     Current dimensions of program PWSCF are:
     Max number of different atomic species (ntypx) = 10
     Max number of k-points (npk) =  40000
     Max angular momentum in pseudopotentials (lmaxx) =  3
     Waiting for input...
     Reading input from standard input

     Subspace diagonalization in iterative solution of the eigenvalue problem:
     a serial algorithm will be used

     bravais-lattice index     =            0
     lattice parameter (alat)  =       8.5346  a.u.
     unit-cell volume          =     621.6493 (a.u.)^3
     number of atoms/cell      =            8
     number of atomic types    =            2
     number of electrons       =       130.00
     number of Kohn-Sham states=           78
     kinetic-energy cutoff     =      40.0000  Ry
     charge density cutoff     =     160.0000  Ry
     convergence threshold     =      1.0E-04
     mixing beta               =       0.7000
     number of iterations used =            8  plain     mixing
     Exchange-correlation      = SLA-PZ-NOGX-NOGC ( 1 1 0 0 0)
     EXX-fraction              =        0.00
     nstep                     =           50

     celldm(1)=   8.534573  celldm(2)=   0.000000  celldm(3)=   0.000000
     celldm(4)=   0.000000  celldm(5)=   0.000000  celldm(6)=   0.000000

     crystal axes: (cart. coord. in units of alat)
               a(1) = (   1.000000   0.000000   0.000000 )
               a(2) = (   0.000000   1.000000   0.000000 )
               a(3) = (   0.000000   0.000000   1.000000 )

     reciprocal axes: (cart. coord. in units 2 pi/alat)
               b(1) = (  1.000000  0.000000  0.000000 )
               b(2) = (  0.000000  1.000000  0.000000 )
               b(3) = (  0.000000  0.000000  1.000000 )

     PseudoPot. # 1 for Nd read from file:
     /home/cwx6513/pp.La/Nd.UPF
     MD5 check sum: c66c5b6abe7b5840ced9b1e244e3bed6
     Pseudo is Norm-conserving, Zval = 14.0
     Generated in analytical, separable form
     Using radial grid of 1257 points,  6 beta functions with:
                l(1) =   0
                l(2) =   0
                l(3) =   1
                l(4) =   1
                l(5) =   2
                l(6) =   3

     PseudoPot. # 2 for Tm read from file:
     /home/cwx6513/pp.La/Tm.UPF
     MD5 check sum: 245516e0878b5372ceeb9443ded2c4e1
     Pseudo is Norm-conserving, Zval = 23.0
     Generated in analytical, separable form
     Using radial grid of 1269 points,  6 beta functions with:
                l(1) =   0
                l(2) =   0
                l(3) =   1
                l(4) =   1
                l(5) =   2
                l(6) =   3

     atomic species   valence    mass     pseudopotential
        Cr            14.00    51.99610     Nd( 1.00)
        Si            23.00    28.08550     Tm( 1.00)

     48 Sym. Ops., with inversion, found (24 have fractional translation)

   Cartesian axes

     site n.     atom                  positions (alat units)
         1           Cr  tau(   1) = (   0.0000000   0.5000000   0.2500000  )
         2           Cr  tau(   2) = (   0.0000000   0.5000000   0.7500000  )
         3           Cr  tau(   3) = (   0.5000000   0.7500000   0.0000000  )
         4           Cr  tau(   4) = (   0.5000000   0.2500000   0.0000000  )
         5           Cr  tau(   5) = (   0.7500000   0.0000000   0.5000000  )
         6           Cr  tau(   6) = (   0.2500000   0.0000000   0.5000000  )
         7           Si  tau(   7) = (   0.5000000   0.5000000   0.5000000  )
         8           Si  tau(   8) = (   0.0000000   0.0000000   0.0000000  )

     number of k points=    48  gaussian smearing, width (Ry)=  0.1000
                       cart. coord. in units 2pi/alat
        k(    1) = (   0.0000000   0.0000000   0.0000000), wk =   0.0095238
        k(    2) = (   0.0000000   0.0000000   0.1428571), wk =   0.0190476
        k(    3) = (   0.0000000   0.0000000   0.2857143), wk =   0.0190476
        k(    4) = (   0.0000000   0.0000000   0.4285714), wk =   0.0190476
        k(    5) = (   0.0000000   0.1666667   0.0000000), wk =   0.0190476
        k(    6) = (   0.0000000   0.1666667   0.1428571), wk =   0.0380952
        k(    7) = (   0.0000000   0.1666667   0.2857143), wk =   0.0380952
        k(    8) = (   0.0000000   0.1666667   0.4285714), wk =   0.0380952
        k(    9) = (   0.0000000   0.3333333   0.0000000), wk =   0.0190476
        k(   10) = (   0.0000000   0.3333333   0.1428571), wk =   0.0380952
        k(   11) = (   0.0000000   0.3333333   0.2857143), wk =   0.0380952
        k(   12) = (   0.0000000   0.3333333   0.4285714), wk =   0.0380952
        k(   13) = (   0.0000000  -0.5000000   0.0000000), wk =   0.0095238
        k(   14) = (   0.0000000  -0.5000000   0.1428571), wk =   0.0190476
        k(   15) = (   0.0000000  -0.5000000   0.2857143), wk =   0.0190476
        k(   16) = (   0.0000000  -0.5000000   0.4285714), wk =   0.0190476
        k(   17) = (   0.2000000   0.0000000   0.0000000), wk =   0.0190476
        k(   18) = (   0.2000000   0.0000000   0.1428571), wk =   0.0380952
        k(   19) = (   0.2000000   0.0000000   0.2857143), wk =   0.0380952
        k(   20) = (   0.2000000   0.0000000   0.4285714), wk =   0.0380952
        k(   21) = (   0.2000000   0.1666667   0.0000000), wk =   0.0380952
        k(   22) = (   0.2000000   0.1666667   0.1428571), wk =   0.0761905
        k(   23) = (   0.2000000   0.1666667   0.2857143), wk =   0.0761905
        k(   24) = (   0.2000000   0.1666667   0.4285714), wk =   0.0761905
        k(   25) = (   0.2000000   0.3333333   0.0000000), wk =   0.0380952
        k(   26) = (   0.2000000   0.3333333   0.1428571), wk =   0.0761905
        k(   27) = (   0.2000000   0.3333333   0.2857143), wk =   0.0761905
        k(   28) = (   0.2000000   0.3333333   0.4285714), wk =   0.0761905
        k(   29) = (   0.2000000  -0.5000000   0.0000000), wk =   0.0190476
        k(   30) = (   0.2000000  -0.5000000   0.1428571), wk =   0.0380952
        k(   31) = (   0.2000000  -0.5000000   0.2857143), wk =   0.0380952
        k(   32) = (   0.2000000  -0.5000000   0.4285714), wk =   0.0380952
        k(   33) = (   0.4000000   0.0000000   0.0000000), wk =   0.0190476
        k(   34) = (   0.4000000   0.0000000   0.1428571), wk =   0.0380952
        k(   35) = (   0.4000000   0.0000000   0.2857143), wk =   0.0380952
        k(   36) = (   0.4000000   0.0000000   0.4285714), wk =   0.0380952
        k(   37) = (   0.4000000   0.1666667   0.0000000), wk =   0.0380952
        k(   38) = (   0.4000000   0.1666667   0.1428571), wk =   0.0761905
        k(   39) = (   0.4000000   0.1666667   0.2857143), wk =   0.0761905
        k(   40) = (   0.4000000   0.1666667   0.4285714), wk =   0.0761905
        k(   41) = (   0.4000000   0.3333333   0.0000000), wk =   0.0380952
        k(   42) = (   0.4000000   0.3333333   0.1428571), wk =   0.0761905
        k(   43) = (   0.4000000   0.3333333   0.2857143), wk =   0.0761905
        k(   44) = (   0.4000000   0.3333333   0.4285714), wk =   0.0761905
        k(   45) = (   0.4000000  -0.5000000   0.0000000), wk =   0.0190476
        k(   46) = (   0.4000000  -0.5000000   0.1428571), wk =   0.0380952
        k(   47) = (   0.4000000  -0.5000000   0.2857143), wk =   0.0380952
        k(   48) = (   0.4000000  -0.5000000   0.4285714), wk =   0.0380952

     Largest allocated arrays     est. size (Mb)     dimensions
     Largest temporary arrays     est. size (Mb)     dimensions

     Initial potential from superposition of free atoms

     Starting from uniform charge
     Starting wfc are    0 randomized atomic wfcs

     Self-consistent Calculation

     iteration #  1     ecut=    40.00 Ry     beta=0.70
     CG style diagonalization
     c_bands:  3 eigenvalues not converged
     c_bands:  3 eigenvalues not converged
     c_bands:  3 eigenvalues not converged
     c_bands:  1 eigenvalues not converged
     c_bands:  4 eigenvalues not converged
     c_bands:  3 eigenvalues not converged
     c_bands:  1 eigenvalues not converged
     c_bands:  1 eigenvalues not converged
     c_bands:  2 eigenvalues not converged
     c_bands:  1 eigenvalues not converged
     c_bands:  1 eigenvalues not converged
     c_bands:  2 eigenvalues not converged
     c_bands:  1 eigenvalues not converged
     c_bands:  2 eigenvalues not converged
     c_bands:  1 eigenvalues not converged
     c_bands:  2 eigenvalues not converged
     c_bands:  1 eigenvalues not converged
     c_bands:  2 eigenvalues not converged
     c_bands:  2 eigenvalues not converged
     c_bands:  2 eigenvalues not converged
     c_bands:  1 eigenvalues not converged
     c_bands:  1 eigenvalues not converged
     c_bands:  4 eigenvalues not converged
     c_bands:  1 eigenvalues not converged
     c_bands:  1 eigenvalues not converged
     c_bands:  2 eigenvalues not converged
     c_bands:  3 eigenvalues not converged
     c_bands:  2 eigenvalues not converged
     c_bands:  2 eigenvalues not converged
     c_bands:  1 eigenvalues not converged
     c_bands:  1 eigenvalues not converged
     c_bands:  1 eigenvalues not converged
     c_bands:  3 eigenvalues not converged
     c_bands:  3 eigenvalues not converged
     c_bands:  2 eigenvalues not converged
     c_bands:  2 eigenvalues not converged
     c_bands:  2 eigenvalues not converged
     c_bands:  1 eigenvalues not converged
     c_bands:  1 eigenvalues not converged
     c_bands:  2 eigenvalues not converged
     c_bands:  1 eigenvalues not converged
     ethr =  1.00E-02,  avg # of iterations = 12.2

     total energy              =    -870.35817261 Ry
     Harris-Foulkes estimate   =   -1745.92593064 Ry
     estimated scf accuracy    <    1044.39488135 Ry

[...]

     iteration #  4     ecut=    40.00 Ry     beta=0.70
     CG style diagonalization
     ethr =  1.00E-02,  avg # of iterations =  3.3

[...]

     End of self-consistent calculation

          k = 0.0000 0.0000 0.0000 (  2601 PWs)   bands (ev):

   -67.3390 -67.2762 -26.2836 -26.2836 -26.2836 -26.2544 -26.2544 -26.2544
    -6.3051  -4.9093  -4.9093  -2.4254  -2.4254  -2.4254  10.9588  10.9588
    12.1022  14.1742  14.1742  14.1742  16.1643  16.1643  16.1643  17.9362
    17.9362  17.9362  17.9368  17.9368  17.9368  21.9032  21.9032  22.4228
    22.4228  23.0066  23.0066  23.0066  23.2282  23.2282  23.2282  23.6911
    23.6911  23.6911  31.0809  31.2256  33.9285  33.9285  33.9285  36.1111
    36.6474  36.6474  36.6474  38.8000  38.8000  38.9153  41.5370  41.5370
    41.5370  41.7885  41.7885  44.1605  44.1605  44.1605  44.8264  44.8264
    44.8264  47.6358  49.3379  49.3380  49.3379  49.7216  49.7219  50.0313
    50.0310  50.0311  51.0413  51.0414  51.0414  51.4929

[...]

     the Fermi energy is    45.7118 ev

!    total energy              =   -1390.40226430 Ry
     Harris-Foulkes estimate   =   -1390.40234312 Ry
     estimated scf accuracy    <       0.00008565 Ry

     The total energy is the sum of the following terms:

     one-electron contribution =      93.54132887 Ry
     hartree contribution      =     133.17983331 Ry
     xc contribution           =    -148.61488972 Ry
[...]

     CASE: enthalpy_new < enthalpy_old

     small trust_radius: resetting bfgs history

     new trust radius        =       0.8973953099 bohr
     new conv_thr            =       0.0000010000 Ry

[...]

          total   stress  (Ry/bohr**3)                   (kbar)     P=-1632.60
  -0.01109816   0.00000000   0.00000000      -1632.60      0.00      0.00
   0.00000000  -0.01109816   0.00000000          0.00  -1632.60      0.00
   0.00000000   0.00000000  -0.01109816          0.00      0.00  -1632.60

     number of scf cycles    =   3
     number of bfgs steps    =   2

     enthalpy old            =   -1394.1910804111 Ry
     enthalpy new            =   -1392.0314074294 Ry

     CASE: enthalpy_new > enthalpy_old

     new trust radius        =       0.2547169856 bohr

     trust_radius < trust_radius_min

     resetting bfgs history

     Message from routine bfgs:
     history already reset at previous step: stopping
     new conv_thr            =       0.0000010000 Ry

     new unit-cell volume =   1045.41218 a.u.^3 (   154.91410 Ang^3 )

[...]

ATOMIC_POSITIONS (crystal)
Cr       0.000000000   0.500000000   0.250000000
Cr       0.000000000   0.500000000   0.750000000
Cr       0.500000000   0.750000000   0.000000000
Cr       0.500000000   0.250000000   0.000000000
Cr       0.750000000   0.000000000   0.500000000
Cr       0.250000000   0.000000000   0.500000000
Si       0.500000000   0.500000000   0.500000000
Si       0.000000000   0.000000000   0.000000000

     Writing output data file Prototype-La-cP8-Cr3Si.save
     NEW-OLD atomic charge density approx. for the potential
     NEW k-points:
        k(    1) = (   0.0000000   0.0000000   0.0000000), wk =   0.0095238
        k(    2) = (   0.0000000   0.0000000   0.1201309), wk =   0.0190476
        k(    3) = (   0.0000000   0.0000000   0.2402617), wk =   0.0190476
        k(    4) = (   0.0000000   0.0000000   0.3603926), wk =   0.0190476
        k(    5) = (   0.0000000   0.1401527   0.0000000), wk =   0.0190476
        k(    6) = (   0.0000000   0.1401527   0.1201309), wk =   0.0380952
        k(    7) = (   0.0000000   0.1401527   0.2402617), wk =   0.0380952
        k(    8) = (   0.0000000   0.1401527   0.3603926), wk =   0.0380952
        k(    9) = (   0.0000000   0.2803053   0.0000000), wk =   0.0190476
        k(   10) = (   0.0000000   0.2803053   0.1201309), wk =   0.0380952
        k(   11) = (   0.0000000   0.2803053   0.2402617), wk =   0.0380952
        k(   12) = (   0.0000000   0.2803053   0.3603926), wk =   0.0380952
        k(   13) = (   0.0000000  -0.4204580   0.0000000), wk =   0.0095238
        k(   14) = (   0.0000000  -0.4204580   0.1201309), wk =   0.0190476
        k(   15) = (   0.0000000  -0.4204580   0.2402617), wk =   0.0190476
        k(   16) = (   0.0000000  -0.4204580   0.3603926), wk =   0.0190476
        k(   17) = (   0.1681832   0.0000000   0.0000000), wk =   0.0190476
        k(   18) = (   0.1681832   0.0000000   0.1201309), wk =   0.0380952
        k(   19) = (   0.1681832   0.0000000   0.2402617), wk =   0.0380952
        k(   20) = (   0.1681832   0.0000000   0.3603926), wk =   0.0380952
        k(   21) = (   0.1681832   0.1401527   0.0000000), wk =   0.0380952
        k(   22) = (   0.1681832   0.1401527   0.1201309), wk =   0.0761905
        k(   23) = (   0.1681832   0.1401527   0.2402617), wk =   0.0761905
        k(   24) = (   0.1681832   0.1401527   0.3603926), wk =   0.0761905
        k(   25) = (   0.1681832   0.2803053   0.0000000), wk =   0.0380952
        k(   26) = (   0.1681832   0.2803053   0.1201309), wk =   0.0761905
        k(   27) = (   0.1681832   0.2803053   0.2402617), wk =   0.0761905
        k(   28) = (   0.1681832   0.2803053   0.3603926), wk =   0.0761905
        k(   29) = (   0.1681832  -0.4204580   0.0000000), wk =   0.0190476
        k(   30) = (   0.1681832  -0.4204580   0.1201309), wk =   0.0380952
        k(   31) = (   0.1681832  -0.4204580   0.2402617), wk =   0.0380952
        k(   32) = (   0.1681832  -0.4204580   0.3603926), wk =   0.0380952
        k(   33) = (   0.3363664   0.0000000   0.0000000), wk =   0.0190476
        k(   34) = (   0.3363664   0.0000000   0.1201309), wk =   0.0380952
        k(   35) = (   0.3363664   0.0000000   0.2402617), wk =   0.0380952
        k(   36) = (   0.3363664   0.0000000   0.3603926), wk =   0.0380952
        k(   37) = (   0.3363664   0.1401527   0.0000000), wk =   0.0380952
        k(   38) = (   0.3363664   0.1401527   0.1201309), wk =   0.0761905
        k(   39) = (   0.3363664   0.1401527   0.2402617), wk =   0.0761905
        k(   40) = (   0.3363664   0.1401527   0.3603926), wk =   0.0761905
        k(   41) = (   0.3363664   0.2803053   0.0000000), wk =   0.0380952
        k(   42) = (   0.3363664   0.2803053   0.1201309), wk =   0.0761905
        k(   43) = (   0.3363664   0.2803053   0.2402617), wk =   0.0761905
        k(   44) = (   0.3363664   0.2803053   0.3603926), wk =   0.0761905
        k(   45) = (   0.3363664  -0.4204580   0.0000000), wk =   0.0190476
        k(   46) = (   0.3363664  -0.4204580   0.1201309), wk =   0.0380952
        k(   47) = (   0.3363664  -0.4204580   0.2402617), wk =   0.0380952
        k(   48) = (   0.3363664  -0.4204580   0.3603926), wk =   0.0380952

[...]

     The maximum number of steps has been reached.

     End of BFGS Geometry Optimization
Begin final coordinates
     new unit-cell volume =   1045.41218 a.u.^3 (   154.91410 Ang^3 )

CELL_PARAMETERS (alat=  8.53457320)
   1.189179400   0.000000000   0.000000000
   0.000000000   1.189179400   0.000000000
   0.000000000   0.000000000   1.189179400

ATOMIC_POSITIONS (crystal)
Cr       0.000000000   0.500000000   0.250000000
Cr       0.000000000   0.500000000   0.750000000
Cr       0.500000000   0.750000000   0.000000000
Cr       0.500000000   0.250000000   0.000000000
Cr       0.750000000   0.000000000   0.500000000
Cr       0.250000000   0.000000000   0.500000000
Si       0.500000000   0.500000000   0.500000000
Si       0.000000000   0.000000000   0.000000000
End final coordinates

     A final scf calculation at the relaxed structure.
     The G-vectors are recalculated for the final unit cell
     Results may differ from those at the preceding step.

     bravais-lattice index     =            0
     lattice parameter (alat)  =       8.5346  a.u.
     unit-cell volume          =    1045.4122 (a.u.)^3
     number of atoms/cell      =            8
     number of atomic types    =            2
     number of electrons       =       130.00
     number of Kohn-Sham states=           78
     kinetic-energy cutoff     =      40.0000  Ry
     charge density cutoff     =     160.0000  Ry
     convergence threshold     =      1.0E-06
     mixing beta               =       0.7000
     number of iterations used =            8  plain     mixing
     Exchange-correlation      = SLA-PZ-NOGX-NOGC ( 1 1 0 0 0)
     EXX-fraction              =        0.00

     celldm(1)=   8.534573  celldm(2)=   0.000000  celldm(3)=   0.000000
     celldm(4)=   0.000000  celldm(5)=   0.000000  celldm(6)=   0.000000

     crystal axes: (cart. coord. in units of alat)
               a(1) = (   1.189179   0.000000   0.000000 )
               a(2) = (   0.000000   1.189179   0.000000 )
               a(3) = (   0.000000   0.000000   1.189179 )

     reciprocal axes: (cart. coord. in units 2 pi/alat)
               b(1) = (  0.840916  0.000000  0.000000 )
               b(2) = (  0.000000  0.840916  0.000000 )
               b(3) = (  0.000000  0.000000  0.840916 )

     PseudoPot. # 1 for Nd read from file:
     /home/cwx6513/pp.La/Nd.UPF
     MD5 check sum: c66c5b6abe7b5840ced9b1e244e3bed6
     Pseudo is Norm-conserving, Zval = 14.0
     Generated in analytical, separable form
     Using radial grid of 1257 points,  6 beta functions with:
                l(1) =   0
                l(2) =   0
                l(3) =   1
                l(4) =   1
                l(5) =   2
                l(6) =   3

     PseudoPot. # 2 for Tm read from file:
     /home/cwx6513/pp.La/Tm.UPF
     MD5 check sum: 245516e0878b5372ceeb9443ded2c4e1
     Pseudo is Norm-conserving, Zval = 23.0
     Generated in analytical, separable form
     Using radial grid of 1269 points,  6 beta functions with:
                l(1) =   0
                l(2) =   0
                l(3) =   1
                l(4) =   1
                l(5) =   2
                l(6) =   3

     atomic species   valence    mass     pseudopotential
        Cr            14.00    51.99610     Nd( 1.00)
        Si            23.00    28.08550     Tm( 1.00)

     48 Sym. Ops., with inversion, found (24 have fractional translation)

   Cartesian axes

     site n.     atom                  positions (alat units)
         1           Cr  tau(   1) = (   0.0000000   0.5945897   0.2972948  )
         2           Cr  tau(   2) = (   0.0000000   0.5945897   0.8918845  )
         3           Cr  tau(   3) = (   0.5945897   0.8918845   0.0000000  )
         4           Cr  tau(   4) = (   0.5945897   0.2972948   0.0000000  )
         5           Cr  tau(   5) = (   0.8918845   0.0000000   0.5945897  )
         6           Cr  tau(   6) = (   0.2972948   0.0000000   0.5945897  )
         7           Si  tau(   7) = (   0.5945897   0.5945897   0.5945897  )
         8           Si  tau(   8) = (   0.0000000   0.0000000   0.0000000  )

     number of k points=    48  gaussian smearing, width (Ry)=  0.1000
                       cart. coord. in units 2pi/alat
        k(    1) = (   0.0000000   0.0000000   0.0000000), wk =   0.0095238
        k(    2) = (   0.0000000   0.0000000   0.1201309), wk =   0.0190476
        k(    3) = (   0.0000000   0.0000000   0.2402617), wk =   0.0190476
        k(    4) = (   0.0000000   0.0000000   0.3603926), wk =   0.0190476
        k(    5) = (   0.0000000   0.1401527   0.0000000), wk =   0.0190476
        k(    6) = (   0.0000000   0.1401527   0.1201309), wk =   0.0380952
        k(    7) = (   0.0000000   0.1401527   0.2402617), wk =   0.0380952
        k(    8) = (   0.0000000   0.1401527   0.3603926), wk =   0.0380952
        k(    9) = (   0.0000000   0.2803053   0.0000000), wk =   0.0190476
        k(   10) = (   0.0000000   0.2803053   0.1201309), wk =   0.0380952
        k(   11) = (   0.0000000   0.2803053   0.2402617), wk =   0.0380952
        k(   12) = (   0.0000000   0.2803053   0.3603926), wk =   0.0380952
        k(   13) = (   0.0000000  -0.4204580   0.0000000), wk =   0.0095238
        k(   14) = (   0.0000000  -0.4204580   0.1201309), wk =   0.0190476
        k(   15) = (   0.0000000  -0.4204580   0.2402617), wk =   0.0190476
        k(   16) = (   0.0000000  -0.4204580   0.3603926), wk =   0.0190476
        k(   17) = (   0.1681832   0.0000000   0.0000000), wk =   0.0190476
        k(   18) = (   0.1681832   0.0000000   0.1201309), wk =   0.0380952
        k(   19) = (   0.1681832   0.0000000   0.2402617), wk =   0.0380952
        k(   20) = (   0.1681832   0.0000000   0.3603926), wk =   0.0380952
        k(   21) = (   0.1681832   0.1401527   0.0000000), wk =   0.0380952
        k(   22) = (   0.1681832   0.1401527   0.1201309), wk =   0.0761905
        k(   23) = (   0.1681832   0.1401527   0.2402617), wk =   0.0761905
        k(   24) = (   0.1681832   0.1401527   0.3603926), wk =   0.0761905
        k(   25) = (   0.1681832   0.2803053   0.0000000), wk =   0.0380952
        k(   26) = (   0.1681832   0.2803053   0.1201309), wk =   0.0761905
        k(   27) = (   0.1681832   0.2803053   0.2402617), wk =   0.0761905
        k(   28) = (   0.1681832   0.2803053   0.3603926), wk =   0.0761905
        k(   29) = (   0.1681832  -0.4204580   0.0000000), wk =   0.0190476
        k(   30) = (   0.1681832  -0.4204580   0.1201309), wk =   0.0380952
        k(   31) = (   0.1681832  -0.4204580   0.2402617), wk =   0.0380952
        k(   32) = (   0.1681832  -0.4204580   0.3603926), wk =   0.0380952
        k(   33) = (   0.3363664   0.0000000   0.0000000), wk =   0.0190476
        k(   34) = (   0.3363664   0.0000000   0.1201309), wk =   0.0380952
        k(   35) = (   0.3363664   0.0000000   0.2402617), wk =   0.0380952
        k(   36) = (   0.3363664   0.0000000   0.3603926), wk =   0.0380952
        k(   37) = (   0.3363664   0.1401527   0.0000000), wk =   0.0380952
        k(   38) = (   0.3363664   0.1401527   0.1201309), wk =   0.0761905
        k(   39) = (   0.3363664   0.1401527   0.2402617), wk =   0.0761905
        k(   40) = (   0.3363664   0.1401527   0.3603926), wk =   0.0761905
        k(   41) = (   0.3363664   0.2803053   0.0000000), wk =   0.0380952
        k(   42) = (   0.3363664   0.2803053   0.1201309), wk =   0.0761905
        k(   43) = (   0.3363664   0.2803053   0.2402617), wk =   0.0761905
        k(   44) = (   0.3363664   0.2803053   0.3603926), wk =   0.0761905
        k(   45) = (   0.3363664  -0.4204580   0.0000000), wk =   0.0190476
        k(   46) = (   0.3363664  -0.4204580   0.1201309), wk =   0.0380952
        k(   47) = (   0.3363664  -0.4204580   0.2402617), wk =   0.0380952
        k(   48) = (   0.3363664  -0.4204580   0.3603926), wk =   0.0380952

     Largest allocated arrays     est. size (Mb)     dimensions
     Largest temporary arrays     est. size (Mb)     dimensions

     Initial potential from superposition of free atoms

     Starting from uniform charge
     Starting wfc are    0 randomized atomic wfcs

     Writing output data file Prototype-La-cP8-Cr3Si.save

     Self-consistent Calculation

[...]

     iteration #  8     ecut=    40.00 Ry     beta=0.70
     CG style diagonalization
     c_bands:  2 eigenvalues not converged
     c_bands:  1 eigenvalues not converged
     c_bands:  1 eigenvalues not converged
     ethr =  2.24E-07,  avg # of iterations =  5.2

     total energy              =   -1397.17504952 Ry
     Harris-Foulkes estimate   =   -1397.17506604 Ry
     estimated scf accuracy    <       0.00002698 Ry

     iteration #  9     ecut=    40.00 Ry     beta=0.70
     CG style diagonalization
     ethr =  2.08E-08,  avg # of iterations =  4.0

     End of self-consistent calculation

[...]

          k = 0.3364-0.4205 0.3604 (  4484 PWs)   bands (ev):

   -85.2589 -85.2588 -43.9083 -43.9083 -43.9030 -43.9029 -43.8995 -43.8995
   -21.9153 -21.8914 -21.8170 -21.8162 -21.7445 -21.7189  -1.2164  -1.0772
    -0.9039  -0.8972  -0.7173  -0.7154  -0.4667  -0.4097  -0.1873  -0.1631
    -0.0902  -0.0750   0.0133   0.0159   0.0829   0.0835   0.0955   0.1611
     5.1322   5.1329   5.1439   5.1450   5.1653   5.1765   5.2076   5.2081
     5.2111   5.2112  16.0415  16.0421  20.6406  20.7498  21.0296  21.0645
    21.1540  21.1683  22.6174  22.6265  22.7478  22.8156  22.9449  22.9933
    24.1415  24.1541  24.3555  24.3659  24.4290  24.6632  25.0063  25.0323
    25.6507  25.7034  27.0301  27.1440  27.1535  27.1694  27.4316  27.4515
    27.8598  28.1046  28.1316  28.2703  28.4996  28.6744

     the Fermi energy is    26.3145 ev

!    total energy              =   -1397.17505814 Ry
     Harris-Foulkes estimate   =   -1397.17505890 Ry
     estimated scf accuracy    <       0.00000087 Ry

     The total energy is the sum of the following terms:

     one-electron contribution =    -227.03579452 Ry
     hartree contribution      =     204.57531619 Ry
     xc contribution           =    -139.68196902 Ry
     ewald contribution        =   -1234.68786491 Ry
     smearing contrib. (-TS)   =      -0.34474589 Ry

     convergence has been achieved in   9 iterations

     Forces acting on atoms (Ry/au):

     atom    1 type  1   force =     0.00000000    0.00000000    0.00000000
     atom    2 type  1   force =     0.00000000    0.00000000    0.00000000
     atom    3 type  1   force =     0.00000000    0.00000000    0.00000000
     atom    4 type  1   force =     0.00000000    0.00000000    0.00000000
     atom    5 type  1   force =     0.00000000    0.00000000    0.00000000
     atom    6 type  1   force =     0.00000000    0.00000000    0.00000000
     atom    7 type  2   force =     0.00000000    0.00000000    0.00000000
     atom    8 type  2   force =     0.00000000    0.00000000    0.00000000

     Total force =     0.000000     Total SCF correction =     0.000000

     entering subroutine stress ...

          total   stress  (Ry/bohr**3)                   (kbar)     P=  159.48
   0.00108413   0.00000000   0.00000000        159.48      0.00      0.00
   0.00000000   0.00108413   0.00000000          0.00    159.48      0.00
   0.00000000   0.00000000   0.00108413          0.00      0.00    159.48

     Writing output data file Prototype-La-cP8-Cr3Si.save

     General routines

     Parallel routines

   This run was terminated on:  17:56:30  22Mar2018

   JOB DONE.