     Program PWSCF v.5.0.2 starts on 22Mar2018 at 17:36:42

     Current dimensions of program PWSCF are:
     Max number of different atomic species (ntypx) = 10
     Max number of k-points (npk) =  40000
     Max angular momentum in pseudopotentials (lmaxx) =  3
     Waiting for input...
     Reading input from standard input

     Subspace diagonalization in iterative solution of the eigenvalue problem:
     a serial algorithm will be used

     bravais-lattice index     =            0
     lattice parameter (alat)  =      12.0168  a.u.
     unit-cell volume          =    1187.3413 (a.u.)^3
     number of atoms/cell      =            8
     number of atomic types    =            2
     number of electrons       =       130.00
     number of Kohn-Sham states=           78
     kinetic-energy cutoff     =      40.0000  Ry
     charge density cutoff     =     160.0000  Ry
     convergence threshold     =      1.0E-04
     mixing beta               =       0.7000
     number of iterations used =            8  plain     mixing
     Exchange-correlation      = SLA-PZ-NOGX-NOGC ( 1 1 0 0 0)
     EXX-fraction              =        0.00
     nstep                     =           50

     celldm(1)=  12.016801  celldm(2)=   0.000000  celldm(3)=   0.000000
     celldm(4)=   0.000000  celldm(5)=   0.000000  celldm(6)=   0.000000

     crystal axes: (cart. coord. in units of alat)
               a(1) = (   1.000000   0.000000   0.000000 )
               a(2) = (  -0.500000   0.866025   0.000000 )
               a(3) = (   0.000000   0.000000   0.790093 )

     reciprocal axes: (cart. coord. in units 2 pi/alat)
               b(1) = (  1.000000  0.577350  0.000000 )
               b(2) = (  0.000000  1.154701  0.000000 )
               b(3) = (  0.000000  0.000000  1.265674 )

     PseudoPot. # 1 for Nd read from file:
     /home/cwx6513/pp.La/Nd.UPF
     MD5 check sum: c66c5b6abe7b5840ced9b1e244e3bed6
     Pseudo is Norm-conserving, Zval = 14.0
     Generated in analytical, separable form
     Using radial grid of 1257 points,  6 beta functions with:
                l(1) =   0
                l(2) =   0
                l(3) =   1
                l(4) =   1
                l(5) =   2
                l(6) =   3

     PseudoPot. # 2 for Tm read from file:
     /home/cwx6513/pp.La/Tm.UPF
     MD5 check sum: 245516e0878b5372ceeb9443ded2c4e1
     Pseudo is Norm-conserving, Zval = 23.0
     Generated in analytical, separable form
     Using radial grid of 1269 points,  6 beta functions with:
                l(1) =   0
                l(2) =   0
                l(3) =   1
                l(4) =   1
                l(5) =   2
                l(6) =   3

     atomic species   valence    mass     pseudopotential
        Mg            14.00    24.30500     Nd( 1.00)
        Cd            23.00   112.41100     Tm( 1.00)

     24 Sym. Ops., with inversion, found (12 have fractional translation)

   Cartesian axes

     site n.     atom                  positions (alat units)
         1           Mg  tau(   1) = (   0.2478935   0.7204716   0.1975233  )
         2           Mg  tau(   2) = (   0.7478935   0.1455538   0.5925699  )
         3           Mg  tau(   3) = (   0.2521065   0.1455538   0.5925699  )
         4           Mg  tau(   4) = (  -0.2478935   0.7204716   0.1975233  )
         5           Mg  tau(   5) = (   0.0000000   0.2911075   0.1975233  )
         6           Mg  tau(   6) = (   0.5000000   0.5749179   0.5925699  )
         7           Cd  tau(   7) = (   0.5000005   0.2886748   0.1975233  )
         8           Cd  tau(   8) = (  -0.0000005   0.5773506   0.5925699  )

     number of k points=    64  gaussian smearing, width (Ry)=  0.1000
                       cart. coord. in units 2pi/alat
        k(    1) = (   0.0000000   0.0000000   0.0000000), wk =   0.0095238
        k(    2) = (   0.0000000   0.0000000   0.1808105), wk =   0.0190476
        k(    3) = (   0.0000000   0.0000000   0.3616210), wk =   0.0190476
        k(    4) = (   0.0000000   0.0000000   0.5424315), wk =   0.0190476
        k(    5) = (   0.0000000   0.1924501   0.0000000), wk =   0.0190476
        k(    6) = (   0.0000000   0.1924501   0.1808105), wk =   0.0380952
        k(    7) = (   0.0000000   0.1924501   0.3616210), wk =   0.0380952
        k(    8) = (   0.0000000   0.1924501   0.5424315), wk =   0.0380952
        k(    9) = (   0.0000000   0.3849002   0.0000000), wk =   0.0190476
        k(   10) = (   0.0000000   0.3849002   0.1808105), wk =   0.0380952
        k(   11) = (   0.0000000   0.3849002   0.3616210), wk =   0.0380952
        k(   12) = (   0.0000000   0.3849002   0.5424315), wk =   0.0380952
        k(   13) = (   0.0000000  -0.5773503   0.0000000), wk =   0.0095238
        k(   14) = (   0.0000000  -0.5773503   0.1808105), wk =   0.0190476
        k(   15) = (   0.0000000  -0.5773503   0.3616210), wk =   0.0190476
        k(   16) = (   0.0000000  -0.5773503   0.5424315), wk =   0.0190476
        k(   17) = (   0.2000000   0.1154701   0.0000000), wk =   0.0190476
        k(   18) = (   0.2000000   0.1154701   0.1808105), wk =   0.0380952
        k(   19) = (   0.2000000   0.1154701   0.3616210), wk =   0.0380952
        k(   20) = (   0.2000000   0.1154701   0.5424315), wk =   0.0380952
        k(   21) = (   0.2000000   0.3079201   0.0000000), wk =   0.0190476
        k(   22) = (   0.2000000   0.3079201   0.1808105), wk =   0.0380952
        k(   23) = (   0.2000000   0.3079201   0.3616210), wk =   0.0380952
        k(   24) = (   0.2000000   0.3079201   0.5424315), wk =   0.0380952
        k(   25) = (   0.2000000   0.5003702   0.0000000), wk =   0.0190476
        k(   26) = (   0.2000000   0.5003702   0.1808105), wk =   0.0380952
        k(   27) = (   0.2000000   0.5003702   0.3616210), wk =   0.0380952
        k(   28) = (   0.2000000   0.5003702   0.5424315), wk =   0.0380952
        k(   29) = (   0.2000000  -0.4618802   0.0000000), wk =   0.0190476
        k(   30) = (   0.2000000  -0.4618802   0.1808105), wk =   0.0380952
        k(   31) = (   0.2000000  -0.4618802   0.3616210), wk =   0.0380952
        k(   32) = (   0.2000000  -0.4618802   0.5424315), wk =   0.0380952
        k(   33) = (   0.2000000  -0.2694301   0.0000000), wk =   0.0190476
        k(   34) = (   0.2000000  -0.2694301   0.1808105), wk =   0.0380952
        k(   35) = (   0.2000000  -0.2694301   0.3616210), wk =   0.0380952
        k(   36) = (   0.2000000  -0.2694301   0.5424315), wk =   0.0380952
        k(   37) = (   0.2000000  -0.0769800   0.0000000), wk =   0.0190476
        k(   38) = (   0.2000000  -0.0769800   0.1808105), wk =   0.0380952
        k(   39) = (   0.2000000  -0.0769800   0.3616210), wk =   0.0380952
        k(   40) = (   0.2000000  -0.0769800   0.5424315), wk =   0.0380952
        k(   41) = (   0.4000000   0.2309401   0.0000000), wk =   0.0190476
        k(   42) = (   0.4000000   0.2309401   0.1808105), wk =   0.0380952
        k(   43) = (   0.4000000   0.2309401   0.3616210), wk =   0.0380952
        k(   44) = (   0.4000000   0.2309401   0.5424315), wk =   0.0380952
        k(   45) = (   0.4000000   0.4233902   0.0000000), wk =   0.0190476
        k(   46) = (   0.4000000   0.4233902   0.1808105), wk =   0.0380952
        k(   47) = (   0.4000000   0.4233902   0.3616210), wk =   0.0380952
        k(   48) = (   0.4000000   0.4233902   0.5424315), wk =   0.0380952
        k(   49) = (   0.4000000   0.6158403   0.0000000), wk =   0.0190476
        k(   50) = (   0.4000000   0.6158403   0.1808105), wk =   0.0380952
        k(   51) = (   0.4000000   0.6158403   0.3616210), wk =   0.0380952
        k(   52) = (   0.4000000   0.6158403   0.5424315), wk =   0.0380952
        k(   53) = (   0.4000000  -0.3464102   0.0000000), wk =   0.0190476
        k(   54) = (   0.4000000  -0.3464102   0.1808105), wk =   0.0380952
        k(   55) = (   0.4000000  -0.3464102   0.3616210), wk =   0.0380952
        k(   56) = (   0.4000000  -0.3464102   0.5424315), wk =   0.0380952
        k(   57) = (   0.4000000  -0.1539601   0.0000000), wk =   0.0190476
        k(   58) = (   0.4000000  -0.1539601   0.1808105), wk =   0.0380952
        k(   59) = (   0.4000000  -0.1539601   0.3616210), wk =   0.0380952
        k(   60) = (   0.4000000  -0.1539601   0.5424315), wk =   0.0380952
        k(   61) = (   0.4000000   0.0384900   0.0000000), wk =   0.0190476
        k(   62) = (   0.4000000   0.0384900   0.1808105), wk =   0.0380952
        k(   63) = (   0.4000000   0.0384900   0.3616210), wk =   0.0380952
        k(   64) = (   0.4000000   0.0384900   0.5424315), wk =   0.0380952

     Largest allocated arrays     est. size (Mb)     dimensions
     Largest temporary arrays     est. size (Mb)     dimensions

     Initial potential from superposition of free atoms

     Starting from uniform charge
     Starting wfc are    0 randomized atomic wfcs

     Self-consistent Calculation

     iteration #  1     ecut=    40.00 Ry     beta=0.70
     CG style diagonalization
     ethr =  1.00E-02,  avg # of iterations = 16.9

     total energy              =    -573.46565452 Ry
     Harris-Foulkes estimate   =   -1965.63673595 Ry
     estimated scf accuracy    <    1646.54942908 Ry

[...]

     iteration #  3     ecut=    40.00 Ry     beta=0.70
     CG style diagonalization
     c_bands:  1 eigenvalues not converged
     c_bands:  1 eigenvalues not converged
     c_bands:  1 eigenvalues not converged
     c_bands:  1 eigenvalues not converged
     c_bands:  1 eigenvalues not converged
     c_bands:  1 eigenvalues not converged
     c_bands:  1 eigenvalues not converged
     c_bands:  1 eigenvalues not converged
     c_bands:  1 eigenvalues not converged
     c_bands:  1 eigenvalues not converged
     c_bands:  1 eigenvalues not converged
     c_bands:  1 eigenvalues not converged
     c_bands:  2 eigenvalues not converged
     c_bands:  1 eigenvalues not converged
     c_bands:  1 eigenvalues not converged
     c_bands:  2 eigenvalues not converged
     c_bands:  1 eigenvalues not converged
     ethr =  1.00E-02,  avg # of iterations = 11.6

[...]

     End of self-consistent calculation

          k = 0.0000 0.0000 0.0000 (  5047 PWs)   bands (ev):

   -88.7137 -88.7064 -47.3567 -47.3509 -47.3354 -47.3354 -47.3265 -47.3265
   -25.4612 -25.2384 -25.2383 -25.2034 -25.1124 -25.1123  -4.5173  -4.4454
    -4.1589  -4.0576  -4.0575  -3.9270  -3.9269  -3.9034  -3.9034  -3.5563
    -3.2413  -3.2412  -2.9975  -2.9899  -2.9700  -2.9699  -2.9629  -2.9629
     1.7904   1.7904   1.8018   1.8070   1.8182   1.8182   1.8285   1.8285
     1.8576   1.8576  11.5680  12.2132  16.7984  18.0220  18.4665  18.4666
    18.5249  18.5250  18.6471  18.9172  19.0909  19.0909  19.4322  19.4323
    20.6028  21.2351  21.2351  21.3807  21.3808  21.5750  22.2579  22.8750
    22.8750  23.4281  23.4281  23.5991  23.8892  24.1759  24.1760  24.1936
    24.1936  25.2953  25.2953  26.5170  27.1295  27.2339

[...]

     the Fermi energy is    22.6343 ev

!    total energy              =   -1397.50127696 Ry
     Harris-Foulkes estimate   =   -1397.50132075 Ry
     estimated scf accuracy    <       0.00005967 Ry

[...]
        k(   10) = (   0.0000000   0.3980522   0.1820166), wk =   0.0380952
        k(   11) = (   0.0000000   0.3980522   0.3640332), wk =   0.0380952
        k(   12) = (   0.0000000   0.3980522   0.5460498), wk =   0.0380952
        k(   13) = (   0.0000000  -0.5970782   0.0000000), wk =   0.0095238
        k(   14) = (   0.0000000  -0.5970782   0.1820166), wk =   0.0190476
        k(   15) = (   0.0000000  -0.5970782   0.3640332), wk =   0.0190476
        k(   16) = (   0.0000000  -0.5970782   0.5460498), wk =   0.0190476
        k(   17) = (   0.2068340   0.1194156   0.0000000), wk =   0.0190476
        k(   18) = (   0.2068340   0.1194156   0.1820166), wk =   0.0380952
        k(   19) = (   0.2068340   0.1194156   0.3640332), wk =   0.0380952
        k(   20) = (   0.2068340   0.1194156   0.5460498), wk =   0.0380952
        k(   21) = (   0.2068340   0.3184417   0.0000000), wk =   0.0190476
        k(   22) = (   0.2068340   0.3184417   0.1820166), wk =   0.0380952
        k(   23) = (   0.2068340   0.3184417   0.3640332), wk =   0.0380952
        k(   24) = (   0.2068340   0.3184417   0.5460498), wk =   0.0380952
        k(   25) = (   0.2068340   0.5174678   0.0000000), wk =   0.0190476
        k(   26) = (   0.2068340   0.5174678   0.1820166), wk =   0.0380952
        k(   27) = (   0.2068340   0.5174678   0.3640332), wk =   0.0380952
        k(   28) = (   0.2068340   0.5174678   0.5460498), wk =   0.0380952
        k(   29) = (   0.2068340  -0.4776626   0.0000000), wk =   0.0190476
        k(   30) = (   0.2068340  -0.4776626   0.1820166), wk =   0.0380952
        k(   31) = (   0.2068340  -0.4776626   0.3640332), wk =   0.0380952
        k(   32) = (   0.2068340  -0.4776626   0.5460498), wk =   0.0380952
        k(   33) = (   0.2068340  -0.2786365   0.0000000), wk =   0.0190476
        k(   34) = (   0.2068340  -0.2786365   0.1820166), wk =   0.0380952
        k(   35) = (   0.2068340  -0.2786365   0.3640332), wk =   0.0380952
        k(   36) = (   0.2068340  -0.2786365   0.5460498), wk =   0.0380952
        k(   37) = (   0.2068340  -0.0796104   0.0000000), wk =   0.0190476
        k(   38) = (   0.2068340  -0.0796104   0.1820166), wk =   0.0380952
        k(   39) = (   0.2068340  -0.0796104   0.3640332), wk =   0.0380952
        k(   40) = (   0.2068340  -0.0796104   0.5460498), wk =   0.0380952
        k(   41) = (   0.4136679   0.2388313   0.0000000), wk =   0.0190476
        k(   42) = (   0.4136679   0.2388313   0.1820166), wk =   0.0380952
        k(   43) = (   0.4136679   0.2388313   0.3640332), wk =   0.0380952
        k(   44) = (   0.4136679   0.2388313   0.5460498), wk =   0.0380952
        k(   45) = (   0.4136679   0.4378574   0.0000000), wk =   0.0190476
        k(   46) = (   0.4136679   0.4378574   0.1820166), wk =   0.0380952
        k(   47) = (   0.4136679   0.4378574   0.3640332), wk =   0.0380952
        k(   48) = (   0.4136679   0.4378574   0.5460498), wk =   0.0380952
        k(   49) = (   0.4136679   0.6368835   0.0000000), wk =   0.0190476
        k(   50) = (   0.4136679   0.6368835   0.1820166), wk =   0.0380952
        k(   51) = (   0.4136679   0.6368835   0.3640332), wk =   0.0380952
        k(   52) = (   0.4136679   0.6368835   0.5460498), wk =   0.0380952
        k(   53) = (   0.4136679  -0.3582469   0.0000000), wk =   0.0190476
        k(   54) = (   0.4136679  -0.3582469   0.1820166), wk =   0.0380952
        k(   55) = (   0.4136679  -0.3582469   0.3640332), wk =   0.0380952
        k(   56) = (   0.4136679  -0.3582469   0.5460498), wk =   0.0380952
        k(   57) = (   0.4136679  -0.1592209   0.0000000), wk =   0.0190476
        k(   58) = (   0.4136679  -0.1592209   0.1820166), wk =   0.0380952
        k(   59) = (   0.4136679  -0.1592209   0.3640332), wk =   0.0380952
        k(   60) = (   0.4136679  -0.1592209   0.5460498), wk =   0.0380952
        k(   61) = (   0.4136679   0.0398052   0.0000000), wk =   0.0190476
        k(   62) = (   0.4136679   0.0398052   0.1820166), wk =   0.0380952
        k(   63) = (   0.4136679   0.0398052   0.3640332), wk =   0.0380952
        k(   64) = (   0.4136679   0.0398052   0.5460498), wk =   0.0380952

[...]

     The maximum number of steps has been reached.

     End of BFGS Geometry Optimization
Begin final coordinates
     new unit-cell volume =   1102.81959 a.u.^3 (   163.42100 Ang^3 )

CELL_PARAMETERS (alat= 12.01680127)
   0.966959151   0.000000000   0.000000000
  -0.483479575   0.837411189   0.000000000
   0.000000000   0.000000000   0.784857742

ATOMIC_POSITIONS (crystal)
Mg       0.670907851   0.835453926   0.250000000
Mg       0.835453926   0.164546074   0.750000000
Mg       0.329092149   0.164546074   0.750000000
Mg       0.164546074   0.835453926   0.250000000
Mg       0.164546074   0.329092149   0.250000000
Mg       0.835453926   0.670907851   0.750000000
Cd       0.666667000   0.333333000   0.250000000
Cd       0.333333000   0.666667000   0.750000000
End final coordinates

     A final scf calculation at the relaxed structure.
     The G-vectors are recalculated for the final unit cell
     Results may differ from those at the preceding step.

     bravais-lattice index     =            0
     lattice parameter (alat)  =      12.0168  a.u.
     unit-cell volume          =    1102.8196 (a.u.)^3
     number of atoms/cell      =            8
     number of atomic types    =            2
     number of electrons       =       130.00
     number of Kohn-Sham states=           78
     kinetic-energy cutoff     =      40.0000  Ry
     charge density cutoff     =     160.0000  Ry
     convergence threshold     =      2.3E-05
     mixing beta               =       0.7000
     number of iterations used =            8  plain     mixing
     Exchange-correlation      = SLA-PZ-NOGX-NOGC ( 1 1 0 0 0)
     EXX-fraction              =        0.00

     celldm(1)=  12.016801  celldm(2)=   0.000000  celldm(3)=   0.000000
     celldm(4)=   0.000000  celldm(5)=   0.000000  celldm(6)=   0.000000

     crystal axes: (cart. coord. in units of alat)
               a(1) = (   0.966959   0.000000   0.000000 )
               a(2) = (  -0.483480   0.837411   0.000000 )
               a(3) = (   0.000000   0.000000   0.784858 )

     reciprocal axes: (cart. coord. in units 2 pi/alat)
               b(1) = (  1.034170  0.597078  0.000000 )
               b(2) = (  0.000000  1.194156  0.000000 )
               b(3) = (  0.000000  0.000000  1.274116 )

     PseudoPot. # 1 for Nd read from file:
     /home/cwx6513/pp.La/Nd.UPF
     MD5 check sum: c66c5b6abe7b5840ced9b1e244e3bed6
     Pseudo is Norm-conserving, Zval = 14.0
     Generated in analytical, separable form
     Using radial grid of 1257 points,  6 beta functions with:
                l(1) =   0
                l(2) =   0
                l(3) =   1
                l(4) =   1
                l(5) =   2
                l(6) =   3

     PseudoPot. # 2 for Tm read from file:
     /home/cwx6513/pp.La/Tm.UPF
     MD5 check sum: 245516e0878b5372ceeb9443ded2c4e1
     Pseudo is Norm-conserving, Zval = 23.0
     Generated in analytical, separable form
     Using radial grid of 1269 points,  6 beta functions with:
                l(1) =   0
                l(2) =   0
                l(3) =   1
                l(4) =   1
                l(5) =   2
                l(6) =   3

     atomic species   valence    mass     pseudopotential
        Mg            14.00    24.30500     Nd( 1.00)
        Cd            23.00   112.41100     Tm( 1.00)

     24 Sym. Ops., with inversion, found (12 have fractional translation)

   Cartesian axes

     site n.     atom                  positions (alat units)
         1           Mg  tau(   1) = (   0.2448156   0.6996185   0.1962144  )
         2           Mg  tau(   2) = (   0.7282952   0.1377927   0.5886433  )
         3           Mg  tau(   3) = (   0.2386640   0.1377927   0.5886433  )
         4           Mg  tau(   4) = (  -0.2448156   0.6996185   0.1962144  )
         5           Mg  tau(   5) = (   0.0000000   0.2755854   0.1962144  )
         6           Mg  tau(   6) = (   0.4834796   0.5618257   0.5886433  )
         7           Cd  tau(   7) = (   0.4834801   0.2791368   0.1962144  )
         8           Cd  tau(   8) = (  -0.0000005   0.5582744   0.5886433  )

     number of k points=    64  gaussian smearing, width (Ry)=  0.1000
                       cart. coord. in units 2pi/alat
        k(    1) = (   0.0000000   0.0000000   0.0000000), wk =   0.0095238
        k(    2) = (   0.0000000   0.0000000   0.1820166), wk =   0.0190476
        k(    3) = (   0.0000000   0.0000000   0.3640332), wk =   0.0190476
        k(    4) = (   0.0000000   0.0000000   0.5460498), wk =   0.0190476
        k(    5) = (   0.0000000   0.1990261   0.0000000), wk =   0.0190476
        k(    6) = (   0.0000000   0.1990261   0.1820166), wk =   0.0380952
        k(    7) = (   0.0000000   0.1990261   0.3640332), wk =   0.0380952
        k(    8) = (   0.0000000   0.1990261   0.5460498), wk =   0.0380952
        k(    9) = (   0.0000000   0.3980522   0.0000000), wk =   0.0190476
        k(   10) = (   0.0000000   0.3980522   0.1820166), wk =   0.0380952
        k(   11) = (   0.0000000   0.3980522   0.3640332), wk =   0.0380952
        k(   12) = (   0.0000000   0.3980522   0.5460498), wk =   0.0380952
        k(   13) = (   0.0000000  -0.5970782   0.0000000), wk =   0.0095238
        k(   14) = (   0.0000000  -0.5970782   0.1820166), wk =   0.0190476
        k(   15) = (   0.0000000  -0.5970782   0.3640332), wk =   0.0190476
        k(   16) = (   0.0000000  -0.5970782   0.5460498), wk =   0.0190476
        k(   17) = (   0.2068340   0.1194156   0.0000000), wk =   0.0190476
        k(   18) = (   0.2068340   0.1194156   0.1820166), wk =   0.0380952
        k(   19) = (   0.2068340   0.1194156   0.3640332), wk =   0.0380952
        k(   20) = (   0.2068340   0.1194156   0.5460498), wk =   0.0380952
        k(   21) = (   0.2068340   0.3184417   0.0000000), wk =   0.0190476
        k(   22) = (   0.2068340   0.3184417   0.1820166), wk =   0.0380952
        k(   23) = (   0.2068340   0.3184417   0.3640332), wk =   0.0380952
        k(   24) = (   0.2068340   0.3184417   0.5460498), wk =   0.0380952
        k(   25) = (   0.2068340   0.5174678   0.0000000), wk =   0.0190476
        k(   26) = (   0.2068340   0.5174678   0.1820166), wk =   0.0380952
        k(   27) = (   0.2068340   0.5174678   0.3640332), wk =   0.0380952
        k(   28) = (   0.2068340   0.5174678   0.5460498), wk =   0.0380952
        k(   29) = (   0.2068340  -0.4776626   0.0000000), wk =   0.0190476
        k(   30) = (   0.2068340  -0.4776626   0.1820166), wk =   0.0380952
        k(   31) = (   0.2068340  -0.4776626   0.3640332), wk =   0.0380952
        k(   32) = (   0.2068340  -0.4776626   0.5460498), wk =   0.0380952
        k(   33) = (   0.2068340  -0.2786365   0.0000000), wk =   0.0190476
        k(   34) = (   0.2068340  -0.2786365   0.1820166), wk =   0.0380952
        k(   35) = (   0.2068340  -0.2786365   0.3640332), wk =   0.0380952
        k(   36) = (   0.2068340  -0.2786365   0.5460498), wk =   0.0380952
        k(   37) = (   0.2068340  -0.0796104   0.0000000), wk =   0.0190476
        k(   38) = (   0.2068340  -0.0796104   0.1820166), wk =   0.0380952
        k(   39) = (   0.2068340  -0.0796104   0.3640332), wk =   0.0380952
        k(   40) = (   0.2068340  -0.0796104   0.5460498), wk =   0.0380952
        k(   41) = (   0.4136679   0.2388313   0.0000000), wk =   0.0190476
        k(   42) = (   0.4136679   0.2388313   0.1820166), wk =   0.0380952
        k(   43) = (   0.4136679   0.2388313   0.3640332), wk =   0.0380952
        k(   44) = (   0.4136679   0.2388313   0.5460498), wk =   0.0380952
        k(   45) = (   0.4136679   0.4378574   0.0000000), wk =   0.0190476
        k(   46) = (   0.4136679   0.4378574   0.1820166), wk =   0.0380952
        k(   47) = (   0.4136679   0.4378574   0.3640332), wk =   0.0380952
        k(   48) = (   0.4136679   0.4378574   0.5460498), wk =   0.0380952
        k(   49) = (   0.4136679   0.6368835   0.0000000), wk =   0.0190476
        k(   50) = (   0.4136679   0.6368835   0.1820166), wk =   0.0380952
        k(   51) = (   0.4136679   0.6368835   0.3640332), wk =   0.0380952
        k(   52) = (   0.4136679   0.6368835   0.5460498), wk =   0.0380952
        k(   53) = (   0.4136679  -0.3582469   0.0000000), wk =   0.0190476
        k(   54) = (   0.4136679  -0.3582469   0.1820166), wk =   0.0380952
        k(   55) = (   0.4136679  -0.3582469   0.3640332), wk =   0.0380952
        k(   56) = (   0.4136679  -0.3582469   0.5460498), wk =   0.0380952
        k(   57) = (   0.4136679  -0.1592209   0.0000000), wk =   0.0190476
        k(   58) = (   0.4136679  -0.1592209   0.1820166), wk =   0.0380952
        k(   59) = (   0.4136679  -0.1592209   0.3640332), wk =   0.0380952
        k(   60) = (   0.4136679  -0.1592209   0.5460498), wk =   0.0380952
        k(   61) = (   0.4136679   0.0398052   0.0000000), wk =   0.0190476
        k(   62) = (   0.4136679   0.0398052   0.1820166), wk =   0.0380952
        k(   63) = (   0.4136679   0.0398052   0.3640332), wk =   0.0380952
        k(   64) = (   0.4136679   0.0398052   0.5460498), wk =   0.0380952

     Largest allocated arrays     est. size (Mb)     dimensions
     Largest temporary arrays     est. size (Mb)     dimensions

     Initial potential from superposition of free atoms

     Starting from uniform charge
     Starting wfc are    0 randomized atomic wfcs

     Writing output data file Prototype-La-hP8-Mg3Cd.save

     Self-consistent Calculation

[...]

     iteration #  6     ecut=    40.00 Ry     beta=0.70
     CG style diagonalization
     ethr =  4.90E-04,  avg # of iterations =  4.4

[...]

     total energy              =   -1397.36469179 Ry
     Harris-Foulkes estimate   =   -1397.36477481 Ry
     estimated scf accuracy    <       0.00014602 Ry

     iteration # 10     ecut=    40.00 Ry     beta=0.70
     CG style diagonalization
     c_bands:  1 eigenvalues not converged
     ethr =  1.12E-07,  avg # of iterations =  3.9

     End of self-consistent calculation

[...]

          k = 0.4137 0.0398 0.5460 (  4702 PWs)   bands (ev):

   -86.7821 -86.7790 -45.4218 -45.4203 -45.4192 -45.4153 -45.4133 -45.4120
   -23.3454 -23.2776 -23.2003 -23.1694 -23.1366 -23.1126  -2.5873  -2.5281
    -2.4917  -2.4597  -2.3020  -2.2648  -1.7746  -1.6602  -1.5196  -1.5142
    -1.3559  -1.2386  -1.1793  -1.1540  -1.1015  -0.9918  -0.9250  -0.9061
     3.6840   3.6881   3.6955   3.7011   3.7070   3.7084   3.7139   3.7179
     3.7565   3.7606  14.2049  14.2057  18.9257  19.0469  19.6134  19.7516
    20.0858  20.1734  20.7211  20.8348  21.1490  21.4175  21.6130  21.7833
    21.9314  21.9729  22.5967  22.7365  23.1503  23.3735  23.5244  24.4643
    24.6787  24.9076  25.4072  25.4348  25.5653  25.6965  25.9613  26.2320
    26.9038  27.0016  27.0371  27.5880  28.0653  28.6822

     the Fermi energy is    24.6754 ev

!    total energy              =   -1397.36472474 Ry
     Harris-Foulkes estimate   =   -1397.36472745 Ry
     estimated scf accuracy    <       0.00000829 Ry

     The total energy is the sum of the following terms:

     one-electron contribution =    -254.27021546 Ry
     hartree contribution      =     211.20298450 Ry
     xc contribution           =    -138.93089910 Ry
     ewald contribution        =   -1214.91370585 Ry
     smearing contrib. (-TS)   =      -0.45288884 Ry

     convergence has been achieved in  10 iterations

     Forces acting on atoms (Ry/au):

     atom    1 type  1   force =     0.01600722    0.00924177    0.00000000
     atom    2 type  1   force =     0.01600722   -0.00924177    0.00000000
     atom    3 type  1   force =    -0.01600722   -0.00924177    0.00000000
     atom    4 type  1   force =    -0.01600722    0.00924177    0.00000000
     atom    5 type  1   force =     0.00000000   -0.01848354    0.00000000
     atom    6 type  1   force =     0.00000000    0.01848354    0.00000000
     atom    7 type  2   force =     0.00000000    0.00000000    0.00000000
     atom    8 type  2   force =     0.00000000    0.00000000    0.00000000

     Total force =     0.045275     Total SCF correction =     0.000000

     entering subroutine stress ...

          total   stress  (Ry/bohr**3)                   (kbar)     P=  -11.89
  -0.00018135   0.00000000   0.00000000        -26.68      0.00      0.00
   0.00000000  -0.00018135   0.00000000          0.00    -26.68      0.00
   0.00000000   0.00000000   0.00012015          0.00      0.00     17.68

     Writing output data file Prototype-La-hP8-Mg3Cd.save

     General routines

     Parallel routines

   This run was terminated on:  18:12:14  22Mar2018

   JOB DONE.