     Program PWSCF v.5.0.2 starts on 22Mar2018 at 17:36:43

     Current dimensions of program PWSCF are:
     Max number of different atomic species (ntypx) = 10
     Max number of k-points (npk) =  40000
     Max angular momentum in pseudopotentials (lmaxx) =  3
     Waiting for input...
     Reading input from standard input

     Subspace diagonalization in iterative solution of the eigenvalue problem:
     a serial algorithm will be used

     bravais-lattice index     =            0
     lattice parameter (alat)  =       7.0151  a.u.
     unit-cell volume          =     862.2778 (a.u.)^3
     number of atoms/cell      =           12
     number of atomic types    =            2
     number of electrons       =       204.00
     number of Kohn-Sham states=          122
     kinetic-energy cutoff     =      40.0000  Ry
     charge density cutoff     =     160.0000  Ry
     convergence threshold     =      1.0E-04
     mixing beta               =       0.7000
     number of iterations used =            8  plain     mixing
     Exchange-correlation      = SLA-PZ-NOGX-NOGC ( 1 1 0 0 0)
     EXX-fraction              =        0.00
     nstep                     =           50

     celldm(1)=   7.015105  celldm(2)=   0.000000  celldm(3)=   0.000000
     celldm(4)=   0.000000  celldm(5)=   0.000000  celldm(6)=   0.000000

     crystal axes: (cart. coord. in units of alat)
               a(1) = (   1.000000   0.000000   0.000000 )
               a(2) = (   0.000000   1.315963   0.000000 )
               a(3) = (   0.000000   0.000000   1.898020 )

     reciprocal axes: (cart. coord. in units 2 pi/alat)
               b(1) = (  1.000000  0.000000  0.000000 )
               b(2) = (  0.000000  0.759900  0.000000 )
               b(3) = (  0.000000  0.000000  0.526865 )

     PseudoPot. # 1 for Nd read from file:
     /home/cwx6513/pp.La/Nd.UPF
     MD5 check sum: c66c5b6abe7b5840ced9b1e244e3bed6
     Pseudo is Norm-conserving, Zval = 14.0
     Generated in analytical, separable form
     Using radial grid of 1257 points,  6 beta functions with:
                l(1) =   0
                l(2) =   0
                l(3) =   1
                l(4) =   1
                l(5) =   2
                l(6) =   3

     PseudoPot. # 2 for Tm read from file:
     /home/cwx6513/pp.La/Tm.UPF
     MD5 check sum: 245516e0878b5372ceeb9443ded2c4e1
     Pseudo is Norm-conserving, Zval = 23.0
     Generated in analytical, separable form
     Using radial grid of 1269 points,  6 beta functions with:
                l(1) =   0
                l(2) =   0
                l(3) =   1
                l(4) =   1
                l(5) =   2
                l(6) =   3

     atomic species   valence    mass     pseudopotential
        Co            14.00    58.93320     Nd( 1.00)
        Si            23.00    28.08550     Tm( 1.00)

      8 Sym. Ops., with inversion, found ( 6 have fractional translation)

   Cartesian axes

     site n.     atom                  positions (alat units)
         1           Co  tau(   1) = (   0.7500000   1.0875135   0.8270358  )
         2           Co  tau(   2) = (   0.2500000   0.2284499   1.0709846  )
         3           Co  tau(   3) = (   0.7500000   0.4295318   0.1219744  )
         4           Co  tau(   4) = (   0.2500000   0.8864316   1.7760460  )
         5           Co  tau(   5) = (   0.2500000   0.7067855   0.5358966  )
         6           Co  tau(   6) = (   0.7500000   0.6091779   1.3621238  )
         7           Co  tau(   7) = (   0.2500000   0.0488038   0.4131136  )
         8           Co  tau(   8) = (   0.7500000   1.2671596   1.4849068  )
         9           Si  tau(   9) = (   0.2500000   0.2669484   1.6960710  )
        10           Si  tau(  10) = (   0.7500000   1.0490149   0.2019494  )
        11           Si  tau(  11) = (   0.2500000   0.9249301   1.1509596  )
        12           Si  tau(  12) = (   0.7500000   0.3910333   0.7470608  )

     number of k points=    12  gaussian smearing, width (Ry)=  0.1000
                       cart. coord. in units 2pi/alat
        k(    1) = (   0.0000000   0.0000000   0.0000000), wk =   0.0833333
        k(    2) = (   0.0000000   0.0000000   0.1317162), wk =   0.1666667
        k(    3) = (   0.0000000   0.0000000  -0.2634324), wk =   0.0833333
        k(    4) = (   0.0000000   0.2532999   0.0000000), wk =   0.1666667
        k(    5) = (   0.0000000   0.2532999   0.1317162), wk =   0.3333333
        k(    6) = (   0.0000000   0.2532999  -0.2634324), wk =   0.1666667
        k(    7) = (  -0.5000000   0.0000000   0.0000000), wk =   0.0833333
        k(    8) = (  -0.5000000   0.0000000   0.1317162), wk =   0.1666667
        k(    9) = (  -0.5000000   0.0000000  -0.2634324), wk =   0.0833333
        k(   10) = (  -0.5000000   0.2532999   0.0000000), wk =   0.1666667
        k(   11) = (  -0.5000000   0.2532999   0.1317162), wk =   0.3333333
        k(   12) = (  -0.5000000   0.2532999  -0.2634324), wk =   0.1666667

     Largest allocated arrays     est. size (Mb)     dimensions
     Largest temporary arrays     est. size (Mb)     dimensions

     Initial potential from superposition of free atoms

     Starting from uniform charge
     Starting wfc are    0 randomized atomic wfcs

     Self-consistent Calculation

     iteration #  1     ecut=    40.00 Ry     beta=0.70
     CG style diagonalization
     ethr =  1.00E-02,  avg # of iterations = 16.6

     total energy              =   -1345.96533266 Ry
     Harris-Foulkes estimate   =   -2936.39030170 Ry
     estimated scf accuracy    <    1898.34255656 Ry

[...]

     iteration #  3     ecut=    40.00 Ry     beta=0.70
     CG style diagonalization
     c_bands:  2 eigenvalues not converged
     c_bands:  1 eigenvalues not converged
     c_bands:  1 eigenvalues not converged
     c_bands:  1 eigenvalues not converged
     c_bands:  1 eigenvalues not converged
     c_bands:  1 eigenvalues not converged
     c_bands:  1 eigenvalues not converged
     ethr =  1.00E-02,  avg # of iterations = 13.1

[...]

     End of self-consistent calculation

          k = 0.0000 0.0000 0.0000 (  3675 PWs)   bands (ev):

   -63.3396 -63.3207 -63.3200 -63.2987 -22.5074 -22.5045 -22.4772 -22.4486
   -22.4478 -22.4409 -22.4397 -22.4360 -22.2791 -22.2572 -22.2224 -22.1892
    -1.7075  -0.5126  -0.2163   0.3705   0.6641   1.0307   1.0890   1.2391
    16.1136  16.6613  17.4402  17.7224  17.8466  17.8934  18.1528  18.8859
    18.9122  19.2808  19.5691  19.7106  20.1430  20.1570  20.6597  21.3433
    21.3946  21.5019  22.1502  22.6829  22.9739  23.6716  23.9520  24.2519
    24.6568  25.2963  25.3728  25.4888  25.5194  25.6116  25.8695  26.1874
    26.3040  26.3434  26.3766  26.9481  26.9587  27.4584  27.7950  28.1308
    28.1920  28.2284  28.5493  28.7422  35.0138  36.1536  37.5067  38.6258
    38.6503  39.5237  40.6563  41.4533  41.5030  42.0990  42.1261  42.2340
    42.4321  42.4492  42.4752  42.8809  43.1299  44.1204  44.3898  44.6721
    45.4811  46.5083  47.1676  47.2871  47.3402  47.8435  48.0329  48.9299
    49.2654  49.5152  49.5805  49.6902  50.1578  50.3502  50.5085  51.3556
    51.5249  51.7216  52.0349  52.4015  52.9234  53.0538  53.4597  54.1294
    54.4838  54.8295  55.5479  55.7030  56.0269  56.7009  56.7835  56.8466
    56.9127  57.1347

[...]

          k =-0.5000 0.0000 0.0000 (  3722 PWs)   bands (ev):

[...]

     the Fermi energy is    50.2849 ev

!    total energy              =   -2338.27860145 Ry
     Harris-Foulkes estimate   =   -2338.27860591 Ry
     estimated scf accuracy    <       0.00000509 Ry

     The total energy is the sum of the following terms:

     one-electron contribution =     151.75686713 Ry
     hartree contribution      =     229.65496935 Ry
     xc contribution           =    -242.60622046 Ry
     ewald contribution        =   -2476.72216257 Ry
     smearing contrib. (-TS)   =      -0.36205490 Ry

     convergence has been achieved in  11 iterations

     Forces acting on atoms (Ry/au):

     atom    1 type  1   force =     0.00000000   -0.03716665   -0.04078956
     atom    2 type  1   force =     0.00000000    0.03716665    0.04078956
     atom    3 type  1   force =     0.00000000   -0.03716665    0.04078956
     atom    4 type  1   force =     0.00000000    0.03716665   -0.04078956
     atom    5 type  1   force =     0.00000000    0.18653628   -0.31126699
     atom    6 type  1   force =     0.00000000   -0.18653628    0.31126699
     atom    7 type  1   force =     0.00000000    0.18653628    0.31126699
     atom    8 type  1   force =     0.00000000   -0.18653628   -0.31126699
     atom    9 type  2   force =     0.00000000   -0.19305865    0.01787465
     atom   10 type  2   force =     0.00000000    0.19305865   -0.01787465
     atom   11 type  2   force =     0.00000000   -0.19305865   -0.01787465
     atom   12 type  2   force =     0.00000000    0.19305865    0.01787465

     Total force =     0.830227     Total SCF correction =     0.000000

     entering subroutine stress ...

          total   stress  (Ry/bohr**3)                   (kbar)     P= 6902.20
   0.05049785   0.00000000   0.00000000       7428.49      0.00      0.00
   0.00000000   0.04332510   0.00000000          0.00   6373.34      0.00
   0.00000000   0.00000000   0.04693775          0.00      0.00   6904.78

     BFGS Geometry Optimization

     number of scf cycles    =   1
     number of bfgs steps    =   0

     enthalpy new            =   -2338.2786014477 Ry

     new trust radius        =       0.5000000000 bohr
     new conv_thr            =       0.0001000000 Ry

     new unit-cell volume =   1083.48936 a.u.^3 (   160.55656 Ang^3 )

CELL_PARAMETERS (alat=  7.01510508)
   1.085136619   0.000000000   0.000000000
   0.000000000   1.412086292   0.000000000
   0.000000000   0.000000000   2.048219293

ATOMIC_POSITIONS (crystal)
Co       0.750000000   0.826129494   0.435529406
Co       0.250000000   0.173870506   0.564470594
Co       0.750000000   0.326129494   0.064470594
Co       0.250000000   0.673870506   0.935529406
Co       0.250000000   0.538448664   0.280768473
Co       0.750000000   0.461551336   0.719231527
Co       0.250000000   0.038448664   0.219231527
Co       0.750000000   0.961551336   0.780768473
Si       0.250000000   0.201443689   0.893690533
Si       0.750000000   0.798556311   0.106309467
Si       0.250000000   0.701443689   0.606309467
Si       0.750000000   0.298556311   0.393690533

     Writing output data file Prototype-La-oP12-Co2Si.save
     NEW-OLD atomic charge density approx. for the potential
     NEW k-points:
        k(    1) = (   0.0000000   0.0000000   0.0000000), wk =   0.0833333
        k(    2) = (   0.0000000   0.0000000   0.1220572), wk =   0.1666667
        k(    3) = (   0.0000000   0.0000000  -0.2441145), wk =   0.0833333
        k(    4) = (   0.0000000   0.2360573   0.0000000), wk =   0.1666667
        k(    5) = (   0.0000000   0.2360573   0.1220572), wk =   0.3333333
        k(    6) = (   0.0000000   0.2360573  -0.2441145), wk =   0.1666667
        k(    7) = (  -0.4607715   0.0000000   0.0000000), wk =   0.0833333
        k(    8) = (  -0.4607715   0.0000000   0.1220572), wk =   0.1666667
        k(    9) = (  -0.4607715   0.0000000  -0.2441145), wk =   0.0833333
        k(   10) = (  -0.4607715   0.2360573   0.0000000), wk =   0.1666667
        k(   11) = (  -0.4607715   0.2360573   0.1220572), wk =   0.3333333
        k(   12) = (  -0.4607715   0.2360573  -0.2441145), wk =   0.1666667

[...]

     enthalpy old            =   -2338.2786014477 Ry
     enthalpy new            =   -2344.8902595941 Ry

     CASE: enthalpy_new < enthalpy_old

     small trust_radius: resetting bfgs history

     new trust radius        =       2.8933227438 bohr
     new conv_thr            =       0.0001000000 Ry

[...]

          total   stress  (Ry/bohr**3)                   (kbar)     P=-2805.99
  -0.02060878   0.00000000   0.00000000      -3031.66      0.00      0.00
   0.00000000  -0.01764720   0.00000000          0.00  -2595.99      0.00
   0.00000000   0.00000000  -0.01896814          0.00      0.00  -2790.31

     number of scf cycles    =   3
     number of bfgs steps    =   2

     enthalpy old            =   -2344.8902595941 Ry
     enthalpy new            =   -2322.9132431593 Ry

     CASE: enthalpy_new > enthalpy_old

     new trust radius        =       0.8250512548 bohr

     trust_radius < trust_radius_min

     resetting bfgs history

     Message from routine bfgs:
     history already reset at previous step: stopping
     new conv_thr            =       0.0001000000 Ry

     new unit-cell volume =   1281.29555 a.u.^3 (   189.86841 Ang^3 )

[...]

ATOMIC_POSITIONS (crystal)
Co       0.750000000   0.825706208   0.435417079
Co       0.250000000   0.174293792   0.564582921
Co       0.750000000   0.325706208   0.064582921
Co       0.250000000   0.674293792   0.935417079
Co       0.250000000   0.539586935   0.279537466
Co       0.750000000   0.460413065   0.720462534
Co       0.250000000   0.039586935   0.220462534
Co       0.750000000   0.960413065   0.779537466
Si       0.250000000   0.199853266   0.893734567
Si       0.750000000   0.800146734   0.106265433
Si       0.250000000   0.699853266   0.606265433
Si       0.750000000   0.300146734   0.393734567

     Writing output data file Prototype-La-oP12-Co2Si.save
     NEW-OLD atomic charge density approx. for the potential
     NEW k-points:
        k(    1) = (   0.0000000   0.0000000   0.0000000), wk =   0.0833333
        k(    2) = (   0.0000000   0.0000000   0.1154507), wk =   0.1666667
        k(    3) = (   0.0000000   0.0000000  -0.2309015), wk =   0.0833333
        k(    4) = (   0.0000000   0.2249282   0.0000000), wk =   0.1666667
        k(    5) = (   0.0000000   0.2249282   0.1154507), wk =   0.3333333
        k(    6) = (   0.0000000   0.2249282  -0.2309015), wk =   0.1666667
        k(    7) = (  -0.4323161   0.0000000   0.0000000), wk =   0.0833333
        k(    8) = (  -0.4323161   0.0000000   0.1154507), wk =   0.1666667
        k(    9) = (  -0.4323161   0.0000000  -0.2309015), wk =   0.0833333
        k(   10) = (  -0.4323161   0.2249282   0.0000000), wk =   0.1666667
        k(   11) = (  -0.4323161   0.2249282   0.1154507), wk =   0.3333333
        k(   12) = (  -0.4323161   0.2249282  -0.2309015), wk =   0.1666667

[...]

     The maximum number of steps has been reached.

     End of BFGS Geometry Optimization
Begin final coordinates
     new unit-cell volume =   1281.29555 a.u.^3 (   189.86841 Ang^3 )

CELL_PARAMETERS (alat=  7.01510508)
   1.156561193   0.000000000   0.000000000
   0.000000000   1.481954631   0.000000000
   0.000000000   0.000000000   2.165425519

ATOMIC_POSITIONS (crystal)
Co       0.750000000   0.825706208   0.435417079
Co       0.250000000   0.174293792   0.564582921
Co       0.750000000   0.325706208   0.064582921
Co       0.250000000   0.674293792   0.935417079
Co       0.250000000   0.539586935   0.279537466
Co       0.750000000   0.460413065   0.720462534
Co       0.250000000   0.039586935   0.220462534
Co       0.750000000   0.960413065   0.779537466
Si       0.250000000   0.199853266   0.893734567
Si       0.750000000   0.800146734   0.106265433
Si       0.250000000   0.699853266   0.606265433
Si       0.750000000   0.300146734   0.393734567
End final coordinates

     A final scf calculation at the relaxed structure.
     The G-vectors are recalculated for the final unit cell
     Results may differ from those at the preceding step.

     bravais-lattice index     =            0
     lattice parameter (alat)  =       7.0151  a.u.
     unit-cell volume          =    1281.2955 (a.u.)^3
     number of atoms/cell      =           12
     number of atomic types    =            2
     number of electrons       =       204.00
     number of Kohn-Sham states=          122
     kinetic-energy cutoff     =      40.0000  Ry
     charge density cutoff     =     160.0000  Ry
     convergence threshold     =      1.0E-04
     mixing beta               =       0.7000
     number of iterations used =            8  plain     mixing
     Exchange-correlation      = SLA-PZ-NOGX-NOGC ( 1 1 0 0 0)
     EXX-fraction              =        0.00

     celldm(1)=   7.015105  celldm(2)=   0.000000  celldm(3)=   0.000000
     celldm(4)=   0.000000  celldm(5)=   0.000000  celldm(6)=   0.000000

     crystal axes: (cart. coord. in units of alat)
               a(1) = (   1.156561   0.000000   0.000000 )
               a(2) = (   0.000000   1.481955   0.000000 )
               a(3) = (   0.000000   0.000000   2.165426 )

     reciprocal axes: (cart. coord. in units 2 pi/alat)
               b(1) = (  0.864632  0.000000  0.000000 )
               b(2) = (  0.000000  0.674784  0.000000 )
               b(3) = (  0.000000  0.000000  0.461803 )

     PseudoPot. # 1 for Nd read from file:
     /home/cwx6513/pp.La/Nd.UPF
     MD5 check sum: c66c5b6abe7b5840ced9b1e244e3bed6
     Pseudo is Norm-conserving, Zval = 14.0
     Generated in analytical, separable form
     Using radial grid of 1257 points,  6 beta functions with:
                l(1) =   0
                l(2) =   0
                l(3) =   1
                l(4) =   1
                l(5) =   2
                l(6) =   3

     PseudoPot. # 2 for Tm read from file:
     /home/cwx6513/pp.La/Tm.UPF
     MD5 check sum: 245516e0878b5372ceeb9443ded2c4e1
     Pseudo is Norm-conserving, Zval = 23.0
     Generated in analytical, separable form
     Using radial grid of 1269 points,  6 beta functions with:
                l(1) =   0
                l(2) =   0
                l(3) =   1
                l(4) =   1
                l(5) =   2
                l(6) =   3

     atomic species   valence    mass     pseudopotential
        Co            14.00    58.93320     Nd( 1.00)
        Si            23.00    28.08550     Tm( 1.00)

      8 Sym. Ops., with inversion, found ( 6 have fractional translation)

   Cartesian axes

     site n.     atom                  positions (alat units)
         1           Co  tau(   1) = (   0.8674209   1.2236591   0.9428633  )
         2           Co  tau(   2) = (   0.2891403   0.2582955   1.2225623  )
         3           Co  tau(   3) = (   0.8674209   0.4826818   0.1398495  )
         4           Co  tau(   4) = (   0.2891403   0.9992728   2.0255760  )
         5           Co  tau(   5) = (   0.2891403   0.7996434   0.6053176  )
         6           Co  tau(   6) = (   0.8674209   0.6823113   1.5601080  )
         7           Co  tau(   7) = (   0.2891403   0.0586660   0.4773952  )
         8           Co  tau(   8) = (   0.8674209   1.4232886   1.6880303  )
         9           Si  tau(   9) = (   0.2891403   0.2961735   1.9353156  )
        10           Si  tau(  10) = (   0.8674209   1.1857812   0.2301099  )
        11           Si  tau(  11) = (   0.2891403   1.0371508   1.3128226  )
        12           Si  tau(  12) = (   0.8674209   0.4448038   0.8526029  )

     number of k points=    12  gaussian smearing, width (Ry)=  0.1000
                       cart. coord. in units 2pi/alat
        k(    1) = (   0.0000000   0.0000000   0.0000000), wk =   0.0833333
        k(    2) = (   0.0000000   0.0000000   0.1154507), wk =   0.1666667
        k(    3) = (   0.0000000   0.0000000  -0.2309015), wk =   0.0833333
        k(    4) = (   0.0000000   0.2249282   0.0000000), wk =   0.1666667
        k(    5) = (   0.0000000   0.2249282   0.1154507), wk =   0.3333333
        k(    6) = (   0.0000000   0.2249282  -0.2309015), wk =   0.1666667
        k(    7) = (  -0.4323161   0.0000000   0.0000000), wk =   0.0833333
        k(    8) = (  -0.4323161   0.0000000   0.1154507), wk =   0.1666667
        k(    9) = (  -0.4323161   0.0000000  -0.2309015), wk =   0.0833333
        k(   10) = (  -0.4323161   0.2249282   0.0000000), wk =   0.1666667
        k(   11) = (  -0.4323161   0.2249282   0.1154507), wk =   0.3333333
        k(   12) = (  -0.4323161   0.2249282  -0.2309015), wk =   0.1666667

     Largest allocated arrays     est. size (Mb)     dimensions
     Largest temporary arrays     est. size (Mb)     dimensions

     Initial potential from superposition of free atoms

     Starting from uniform charge
     Starting wfc are    0 randomized atomic wfcs

     Writing output data file Prototype-La-oP12-Co2Si.save

     Self-consistent Calculation

[...]

     iteration # 10     ecut=    40.00 Ry     beta=0.70
     CG style diagonalization
     c_bands:  2 eigenvalues not converged
     ethr =  1.93E-06,  avg # of iterations =  4.0

     total energy              =   -2350.21436466 Ry
     Harris-Foulkes estimate   =   -2350.21486970 Ry
     estimated scf accuracy    <       0.00113082 Ry

     iteration # 11     ecut=    40.00 Ry     beta=0.70
     CG style diagonalization
     ethr =  5.54E-07,  avg # of iterations =  3.5

     End of self-consistent calculation

[...]

          k = 0.0000 0.2249-0.2309 (  5468 PWs)   bands (ev):

[...]

          k =-0.4323 0.2249-0.2309 (  5504 PWs)   bands (ev):

   -78.6272 -78.6272 -78.6195 -78.6195 -37.3794 -37.3794 -37.3756 -37.3756
   -37.3617 -37.3617 -37.3591 -37.3591 -37.3294 -37.3294 -37.3283 -37.3283
   -15.0140 -15.0140 -14.8473 -14.8473 -14.7383 -14.7383 -14.6872 -14.6872
     4.8349   4.8349   5.1383   5.1383   5.2745   5.2745   5.4429   5.4429
     5.4702   5.4702   6.2445   6.2445   6.4600   6.4600   6.6902   6.6902
     6.9842   6.9842   7.0014   7.0014   7.2457   7.2457   7.4089   7.4089
    11.3432  11.3432  11.3451  11.3451  11.4607  11.4607  11.4681  11.4681
    11.6540  11.6540  11.7106  11.7106  11.7825  11.7825  11.7939  11.7939
    11.8673  11.8673  11.9271  11.9271  21.8395  21.8395  22.5273  22.5273
    26.3702  26.3702  26.4592  26.4592  27.4200  27.4200  27.9245  27.9245
    28.0078  28.0078  28.7067  28.7067  28.7284  28.7284  29.0926  29.0926
    29.5732  29.5732  30.1827  30.1827  30.4459  30.4459  31.5189  31.5189
    31.8638  31.8638  32.1069  32.1069  32.7411  32.7411  33.3601  33.3601
    33.5261  33.5261  33.6171  33.6171  34.1888  34.1888  35.0698  35.0698
    36.7819  36.7819  37.3651  37.3653  38.5535  38.5536  39.0753  39.0754
    39.6083  39.6085

     the Fermi energy is    33.1460 ev

!    total energy              =   -2350.21461384 Ry
     Harris-Foulkes estimate   =   -2350.21466247 Ry
     estimated scf accuracy    <       0.00005500 Ry

     The total energy is the sum of the following terms:

     one-electron contribution =    -266.02122358 Ry
     hartree contribution      =     318.88534124 Ry
     xc contribution           =    -230.79974860 Ry
     ewald contribution        =   -2171.74645643 Ry
     smearing contrib. (-TS)   =      -0.53252647 Ry

     convergence has been achieved in  11 iterations

     Forces acting on atoms (Ry/au):

     atom    1 type  1   force =     0.00000000   -0.03966136    0.01175543
     atom    2 type  1   force =     0.00000000    0.03966136   -0.01175543
     atom    3 type  1   force =     0.00000000   -0.03966136   -0.01175543
     atom    4 type  1   force =     0.00000000    0.03966136    0.01175543
     atom    5 type  1   force =     0.00000000    0.06020580   -0.10785422
     atom    6 type  1   force =     0.00000000   -0.06020580    0.10785422
     atom    7 type  1   force =     0.00000000    0.06020580    0.10785422
     atom    8 type  1   force =     0.00000000   -0.06020580   -0.10785422
     atom    9 type  2   force =     0.00000000   -0.09048528    0.01619092
     atom   10 type  2   force =     0.00000000    0.09048528   -0.01619092
     atom   11 type  2   force =     0.00000000   -0.09048528   -0.01619092
     atom   12 type  2   force =     0.00000000    0.09048528    0.01619092

     Total force =     0.318862     Total SCF correction =     0.000000

     entering subroutine stress ...

          total   stress  (Ry/bohr**3)                   (kbar)     P= 1225.72
   0.00904674   0.00000000   0.00000000       1330.82      0.00      0.00
   0.00000000   0.00767880   0.00000000          0.00   1129.59      0.00
   0.00000000   0.00000000   0.00827134          0.00      0.00   1216.76

     Writing output data file Prototype-La-oP12-Co2Si.save

     General routines

     Parallel routines

   This run was terminated on:  17:51:14  22Mar2018

   JOB DONE.