     Program PWSCF v.5.0.2 starts on 22Mar2018 at 18:41:47

     Current dimensions of program PWSCF are:
     Max number of different atomic species (ntypx) = 10
     Max number of k-points (npk) =  40000
     Max angular momentum in pseudopotentials (lmaxx) =  3
     Waiting for input...
     Reading input from standard input

     Subspace diagonalization in iterative solution of the eigenvalue problem:
     a serial algorithm will be used

     bravais-lattice index     =            0
     lattice parameter (alat)  =      12.0168  a.u.
     unit-cell volume          =    1187.3413 (a.u.)^3
     number of atoms/cell      =            8
     number of atomic types    =            2
     number of electrons       =       120.00
     number of Kohn-Sham states=           72
     kinetic-energy cutoff     =      40.0000  Ry
     charge density cutoff     =     160.0000  Ry
     convergence threshold     =      1.0E-04
     mixing beta               =       0.7000
     number of iterations used =            8  plain     mixing
     Exchange-correlation      = SLA-PZ-NOGX-NOGC ( 1 1 0 0 0)
     EXX-fraction              =        0.00
     nstep                     =           50

     celldm(1)=  12.016801  celldm(2)=   0.000000  celldm(3)=   0.000000
     celldm(4)=   0.000000  celldm(5)=   0.000000  celldm(6)=   0.000000

     crystal axes: (cart. coord. in units of alat)
               a(1) = (   1.000000   0.000000   0.000000 )
               a(2) = (  -0.500000   0.866025   0.000000 )
               a(3) = (   0.000000   0.000000   0.790093 )

     reciprocal axes: (cart. coord. in units 2 pi/alat)
               b(1) = (  1.000000  0.577350  0.000000 )
               b(2) = (  0.000000  1.154701  0.000000 )
               b(3) = (  0.000000  0.000000  1.265674 )

     PseudoPot. # 1 for Sm read from file:
     /home/cwx6513/pp.La/Sm.UPF
     MD5 check sum: 5079e8b144a06bfcdbc14fb02b96ab09
     Pseudo is Norm-conserving, Zval = 16.0
     Generated in analytical, separable form
     Using radial grid of 1259 points,  6 beta functions with:
                l(1) =   0
                l(2) =   0
                l(3) =   1
                l(4) =   1
                l(5) =   2
                l(6) =   3

     PseudoPot. # 2 for Ce read from file:
     /home/cwx6513/pp.La/Ce.UPF
     MD5 check sum: 44451aa79a44a00cf2bc029dc19922f6
     Pseudo is Norm-conserving, Zval = 12.0
     Generated in analytical, separable form
     Using radial grid of 1255 points,  6 beta functions with:
                l(1) =   0
                l(2) =   0
                l(3) =   1
                l(4) =   1
                l(5) =   2
                l(6) =   3

     atomic species   valence    mass     pseudopotential
        Mg            16.00    24.30500     Sm( 1.00)
        Cd            12.00   112.41100     Ce( 1.00)

     24 Sym. Ops., with inversion, found (12 have fractional translation)

   Cartesian axes

     site n.     atom                  positions (alat units)
         1           Mg  tau(   1) = (   0.2478935   0.7204716   0.1975233  )
         2           Mg  tau(   2) = (   0.7478935   0.1455538   0.5925699  )
         3           Mg  tau(   3) = (   0.2521065   0.1455538   0.5925699  )
         4           Mg  tau(   4) = (  -0.2478935   0.7204716   0.1975233  )
         5           Mg  tau(   5) = (   0.0000000   0.2911075   0.1975233  )
         6           Mg  tau(   6) = (   0.5000000   0.5749179   0.5925699  )
         7           Cd  tau(   7) = (   0.5000005   0.2886748   0.1975233  )
         8           Cd  tau(   8) = (  -0.0000005   0.5773506   0.5925699  )

     number of k points=    64  gaussian smearing, width (Ry)=  0.1000
                       cart. coord. in units 2pi/alat
        k(    1) = (   0.0000000   0.0000000   0.0000000), wk =   0.0095238
        k(    2) = (   0.0000000   0.0000000   0.1808105), wk =   0.0190476
        k(    3) = (   0.0000000   0.0000000   0.3616210), wk =   0.0190476
        k(    4) = (   0.0000000   0.0000000   0.5424315), wk =   0.0190476
        k(    5) = (   0.0000000   0.1924501   0.0000000), wk =   0.0190476
        k(    6) = (   0.0000000   0.1924501   0.1808105), wk =   0.0380952
        k(    7) = (   0.0000000   0.1924501   0.3616210), wk =   0.0380952
        k(    8) = (   0.0000000   0.1924501   0.5424315), wk =   0.0380952
        k(    9) = (   0.0000000   0.3849002   0.0000000), wk =   0.0190476
        k(   10) = (   0.0000000   0.3849002   0.1808105), wk =   0.0380952
        k(   11) = (   0.0000000   0.3849002   0.3616210), wk =   0.0380952
        k(   12) = (   0.0000000   0.3849002   0.5424315), wk =   0.0380952
        k(   13) = (   0.0000000  -0.5773503   0.0000000), wk =   0.0095238
        k(   14) = (   0.0000000  -0.5773503   0.1808105), wk =   0.0190476
        k(   15) = (   0.0000000  -0.5773503   0.3616210), wk =   0.0190476
        k(   16) = (   0.0000000  -0.5773503   0.5424315), wk =   0.0190476
        k(   17) = (   0.2000000   0.1154701   0.0000000), wk =   0.0190476
        k(   18) = (   0.2000000   0.1154701   0.1808105), wk =   0.0380952
        k(   19) = (   0.2000000   0.1154701   0.3616210), wk =   0.0380952
        k(   20) = (   0.2000000   0.1154701   0.5424315), wk =   0.0380952
        k(   21) = (   0.2000000   0.3079201   0.0000000), wk =   0.0190476
        k(   22) = (   0.2000000   0.3079201   0.1808105), wk =   0.0380952
        k(   23) = (   0.2000000   0.3079201   0.3616210), wk =   0.0380952
        k(   24) = (   0.2000000   0.3079201   0.5424315), wk =   0.0380952
        k(   25) = (   0.2000000   0.5003702   0.0000000), wk =   0.0190476
        k(   26) = (   0.2000000   0.5003702   0.1808105), wk =   0.0380952
        k(   27) = (   0.2000000   0.5003702   0.3616210), wk =   0.0380952
        k(   28) = (   0.2000000   0.5003702   0.5424315), wk =   0.0380952
        k(   29) = (   0.2000000  -0.4618802   0.0000000), wk =   0.0190476
        k(   30) = (   0.2000000  -0.4618802   0.1808105), wk =   0.0380952
        k(   31) = (   0.2000000  -0.4618802   0.3616210), wk =   0.0380952
        k(   32) = (   0.2000000  -0.4618802   0.5424315), wk =   0.0380952
        k(   33) = (   0.2000000  -0.2694301   0.0000000), wk =   0.0190476
        k(   34) = (   0.2000000  -0.2694301   0.1808105), wk =   0.0380952
        k(   35) = (   0.2000000  -0.2694301   0.3616210), wk =   0.0380952
        k(   36) = (   0.2000000  -0.2694301   0.5424315), wk =   0.0380952
        k(   37) = (   0.2000000  -0.0769800   0.0000000), wk =   0.0190476
        k(   38) = (   0.2000000  -0.0769800   0.1808105), wk =   0.0380952
        k(   39) = (   0.2000000  -0.0769800   0.3616210), wk =   0.0380952
        k(   40) = (   0.2000000  -0.0769800   0.5424315), wk =   0.0380952
        k(   41) = (   0.4000000   0.2309401   0.0000000), wk =   0.0190476
        k(   42) = (   0.4000000   0.2309401   0.1808105), wk =   0.0380952
        k(   43) = (   0.4000000   0.2309401   0.3616210), wk =   0.0380952
        k(   44) = (   0.4000000   0.2309401   0.5424315), wk =   0.0380952
        k(   45) = (   0.4000000   0.4233902   0.0000000), wk =   0.0190476
        k(   46) = (   0.4000000   0.4233902   0.1808105), wk =   0.0380952
        k(   47) = (   0.4000000   0.4233902   0.3616210), wk =   0.0380952
        k(   48) = (   0.4000000   0.4233902   0.5424315), wk =   0.0380952
        k(   49) = (   0.4000000   0.6158403   0.0000000), wk =   0.0190476
        k(   50) = (   0.4000000   0.6158403   0.1808105), wk =   0.0380952
        k(   51) = (   0.4000000   0.6158403   0.3616210), wk =   0.0380952
        k(   52) = (   0.4000000   0.6158403   0.5424315), wk =   0.0380952
        k(   53) = (   0.4000000  -0.3464102   0.0000000), wk =   0.0190476
        k(   54) = (   0.4000000  -0.3464102   0.1808105), wk =   0.0380952
        k(   55) = (   0.4000000  -0.3464102   0.3616210), wk =   0.0380952
        k(   56) = (   0.4000000  -0.3464102   0.5424315), wk =   0.0380952
        k(   57) = (   0.4000000  -0.1539601   0.0000000), wk =   0.0190476
        k(   58) = (   0.4000000  -0.1539601   0.1808105), wk =   0.0380952
        k(   59) = (   0.4000000  -0.1539601   0.3616210), wk =   0.0380952
        k(   60) = (   0.4000000  -0.1539601   0.5424315), wk =   0.0380952
        k(   61) = (   0.4000000   0.0384900   0.0000000), wk =   0.0190476
        k(   62) = (   0.4000000   0.0384900   0.1808105), wk =   0.0380952
        k(   63) = (   0.4000000   0.0384900   0.3616210), wk =   0.0380952
        k(   64) = (   0.4000000   0.0384900   0.5424315), wk =   0.0380952

     Largest allocated arrays     est. size (Mb)     dimensions
     Largest temporary arrays     est. size (Mb)     dimensions

     Initial potential from superposition of free atoms

     Starting from uniform charge
     Starting wfc are    0 randomized atomic wfcs

     Self-consistent Calculation

     iteration #  1     ecut=    40.00 Ry     beta=0.70
     CG style diagonalization
     c_bands:  3 eigenvalues not converged
     c_bands:  3 eigenvalues not converged
     c_bands:  3 eigenvalues not converged
     c_bands:  1 eigenvalues not converged
     c_bands:  2 eigenvalues not converged
     c_bands:  5 eigenvalues not converged
     c_bands:  4 eigenvalues not converged
     c_bands:  2 eigenvalues not converged
     c_bands:  5 eigenvalues not converged
     c_bands:  4 eigenvalues not converged
     c_bands:  1 eigenvalues not converged
     c_bands:  3 eigenvalues not converged
     c_bands:  2 eigenvalues not converged
     c_bands:  5 eigenvalues not converged
     c_bands:  1 eigenvalues not converged
     c_bands:  2 eigenvalues not converged
     c_bands:  3 eigenvalues not converged
     c_bands:  4 eigenvalues not converged
     c_bands:  4 eigenvalues not converged
     c_bands:  3 eigenvalues not converged
     c_bands:  1 eigenvalues not converged
     c_bands:  2 eigenvalues not converged
     c_bands:  2 eigenvalues not converged
     c_bands:  2 eigenvalues not converged
     c_bands:  4 eigenvalues not converged
     c_bands:  5 eigenvalues not converged
     c_bands:  5 eigenvalues not converged
     c_bands:  5 eigenvalues not converged
     c_bands:  2 eigenvalues not converged
     c_bands:  3 eigenvalues not converged
     c_bands:  4 eigenvalues not converged
     c_bands:  3 eigenvalues not converged
     c_bands:  2 eigenvalues not converged
     ethr =  1.00E-02,  avg # of iterations = 11.7

     total energy              =    -899.68107232 Ry
     Harris-Foulkes estimate   =   -1264.76055695 Ry
     estimated scf accuracy    <     469.18029874 Ry

[...]

     iteration #  4     ecut=    40.00 Ry     beta=0.70
     CG style diagonalization
     ethr =  1.00E-02,  avg # of iterations =  6.1

[...]

     End of self-consistent calculation

          k = 0.0000 0.0000 0.0000 (  5047 PWs)   bands (ev):

   -36.5950 -36.4987 -36.4987 -36.4820 -36.4435 -36.4435 -16.9659 -16.9599
   -12.0922 -12.0894 -11.9059 -11.8336 -11.8336 -11.8006 -11.8006 -11.7692
   -11.7691 -11.5803 -11.4276 -11.4276 -11.3194 -11.3194 -11.3140 -11.2997
   -11.2996 -11.2821   1.0738   1.1238   1.1238   1.1240   1.1658   1.1658
[...]
        k(   10) = (   0.0000000   0.3923977   0.1827842), wk =   0.0380952
        k(   11) = (   0.0000000   0.3923977   0.3655684), wk =   0.0380952
        k(   12) = (   0.0000000   0.3923977   0.5483526), wk =   0.0380952
        k(   13) = (   0.0000000  -0.5885965   0.0000000), wk =   0.0095238
        k(   14) = (   0.0000000  -0.5885965   0.1827842), wk =   0.0190476
        k(   15) = (   0.0000000  -0.5885965   0.3655684), wk =   0.0190476
        k(   16) = (   0.0000000  -0.5885965   0.5483526), wk =   0.0190476
        k(   17) = (   0.2038958   0.1177193   0.0000000), wk =   0.0190476
        k(   18) = (   0.2038958   0.1177193   0.1827842), wk =   0.0380952
        k(   19) = (   0.2038958   0.1177193   0.3655684), wk =   0.0380952
        k(   20) = (   0.2038958   0.1177193   0.5483526), wk =   0.0380952
        k(   21) = (   0.2038958   0.3139181   0.0000000), wk =   0.0190476
        k(   22) = (   0.2038958   0.3139181   0.1827842), wk =   0.0380952
        k(   23) = (   0.2038958   0.3139181   0.3655684), wk =   0.0380952
        k(   24) = (   0.2038958   0.3139181   0.5483526), wk =   0.0380952
        k(   25) = (   0.2038958   0.5101169   0.0000000), wk =   0.0190476
        k(   26) = (   0.2038958   0.5101169   0.1827842), wk =   0.0380952
        k(   27) = (   0.2038958   0.5101169   0.3655684), wk =   0.0380952
        k(   28) = (   0.2038958   0.5101169   0.5483526), wk =   0.0380952
        k(   29) = (   0.2038958  -0.4708772   0.0000000), wk =   0.0190476
        k(   30) = (   0.2038958  -0.4708772   0.1827842), wk =   0.0380952
        k(   31) = (   0.2038958  -0.4708772   0.3655684), wk =   0.0380952
        k(   32) = (   0.2038958  -0.4708772   0.5483526), wk =   0.0380952
        k(   33) = (   0.2038958  -0.2746784   0.0000000), wk =   0.0190476
        k(   34) = (   0.2038958  -0.2746784   0.1827842), wk =   0.0380952
        k(   35) = (   0.2038958  -0.2746784   0.3655684), wk =   0.0380952
        k(   36) = (   0.2038958  -0.2746784   0.5483526), wk =   0.0380952
        k(   37) = (   0.2038958  -0.0784795   0.0000000), wk =   0.0190476
        k(   38) = (   0.2038958  -0.0784795   0.1827842), wk =   0.0380952
        k(   39) = (   0.2038958  -0.0784795   0.3655684), wk =   0.0380952
        k(   40) = (   0.2038958  -0.0784795   0.5483526), wk =   0.0380952
        k(   41) = (   0.4077916   0.2354386   0.0000000), wk =   0.0190476
        k(   42) = (   0.4077916   0.2354386   0.1827842), wk =   0.0380952
        k(   43) = (   0.4077916   0.2354386   0.3655684), wk =   0.0380952
        k(   44) = (   0.4077916   0.2354386   0.5483526), wk =   0.0380952
        k(   45) = (   0.4077916   0.4316374   0.0000000), wk =   0.0190476
        k(   46) = (   0.4077916   0.4316374   0.1827842), wk =   0.0380952
        k(   47) = (   0.4077916   0.4316374   0.3655684), wk =   0.0380952
        k(   48) = (   0.4077916   0.4316374   0.5483526), wk =   0.0380952
        k(   49) = (   0.4077916   0.6278362   0.0000000), wk =   0.0190476
        k(   50) = (   0.4077916   0.6278362   0.1827842), wk =   0.0380952
        k(   51) = (   0.4077916   0.6278362   0.3655684), wk =   0.0380952
        k(   52) = (   0.4077916   0.6278362   0.5483526), wk =   0.0380952
        k(   53) = (   0.4077916  -0.3531579   0.0000000), wk =   0.0190476
        k(   54) = (   0.4077916  -0.3531579   0.1827842), wk =   0.0380952
        k(   55) = (   0.4077916  -0.3531579   0.3655684), wk =   0.0380952
        k(   56) = (   0.4077916  -0.3531579   0.5483526), wk =   0.0380952
        k(   57) = (   0.4077916  -0.1569591   0.0000000), wk =   0.0190476
        k(   58) = (   0.4077916  -0.1569591   0.1827842), wk =   0.0380952
        k(   59) = (   0.4077916  -0.1569591   0.3655684), wk =   0.0380952
        k(   60) = (   0.4077916  -0.1569591   0.5483526), wk =   0.0380952
        k(   61) = (   0.4077916   0.0392398   0.0000000), wk =   0.0190476
        k(   62) = (   0.4077916   0.0392398   0.1827842), wk =   0.0380952
        k(   63) = (   0.4077916   0.0392398   0.3655684), wk =   0.0380952
        k(   64) = (   0.4077916   0.0392398   0.5483526), wk =   0.0380952

[...]

     The maximum number of steps has been reached.

     End of BFGS Geometry Optimization
Begin final coordinates
     new unit-cell volume =   1130.06649 a.u.^3 (   167.45858 Ang^3 )

CELL_PARAMETERS (alat= 12.01680127)
   0.980893175   0.000000000   0.000000000
  -0.490446587   0.849478408   0.000000000
   0.000000000   0.000000000   0.781561764

ATOMIC_POSITIONS (crystal)
Mg       0.669004160   0.834502080   0.250000000
Mg       0.834502080   0.165497920   0.750000000
Mg       0.330995840   0.165497920   0.750000000
Mg       0.165497920   0.834502080   0.250000000
Mg       0.165497920   0.330995840   0.250000000
Mg       0.834502080   0.669004160   0.750000000
Cd       0.666667000   0.333333000   0.250000000
Cd       0.333333000   0.666667000   0.750000000
End final coordinates

     A final scf calculation at the relaxed structure.
     The G-vectors are recalculated for the final unit cell
     Results may differ from those at the preceding step.

     bravais-lattice index     =            0
     lattice parameter (alat)  =      12.0168  a.u.
     unit-cell volume          =    1130.0665 (a.u.)^3
     number of atoms/cell      =            8
     number of atomic types    =            2
     number of electrons       =       120.00
     number of Kohn-Sham states=           72
     kinetic-energy cutoff     =      40.0000  Ry
     charge density cutoff     =     160.0000  Ry
     convergence threshold     =      7.7E-06
     mixing beta               =       0.7000
     number of iterations used =            8  plain     mixing
     Exchange-correlation      = SLA-PZ-NOGX-NOGC ( 1 1 0 0 0)
     EXX-fraction              =        0.00

     celldm(1)=  12.016801  celldm(2)=   0.000000  celldm(3)=   0.000000
     celldm(4)=   0.000000  celldm(5)=   0.000000  celldm(6)=   0.000000

     crystal axes: (cart. coord. in units of alat)
               a(1) = (   0.980893   0.000000   0.000000 )
               a(2) = (  -0.490447   0.849478   0.000000 )
               a(3) = (   0.000000   0.000000   0.781562 )

     reciprocal axes: (cart. coord. in units 2 pi/alat)
               b(1) = (  1.019479  0.588596  0.000000 )
               b(2) = (  0.000000  1.177193  0.000000 )
               b(3) = (  0.000000  0.000000  1.279489 )

     PseudoPot. # 1 for Sm read from file:
     /home/cwx6513/pp.La/Sm.UPF
     MD5 check sum: 5079e8b144a06bfcdbc14fb02b96ab09
     Pseudo is Norm-conserving, Zval = 16.0
     Generated in analytical, separable form
     Using radial grid of 1259 points,  6 beta functions with:
                l(1) =   0
                l(2) =   0
                l(3) =   1
                l(4) =   1
                l(5) =   2
                l(6) =   3

     PseudoPot. # 2 for Ce read from file:
     /home/cwx6513/pp.La/Ce.UPF
     MD5 check sum: 44451aa79a44a00cf2bc029dc19922f6
     Pseudo is Norm-conserving, Zval = 12.0
     Generated in analytical, separable form
     Using radial grid of 1255 points,  6 beta functions with:
                l(1) =   0
                l(2) =   0
                l(3) =   1
                l(4) =   1
                l(5) =   2
                l(6) =   3

     atomic species   valence    mass     pseudopotential
        Mg            16.00    24.30500     Sm( 1.00)
        Cd            12.00   112.41100     Ce( 1.00)

     24 Sym. Ops., with inversion, found (12 have fractional translation)

   Cartesian axes

     site n.     atom                  positions (alat units)
         1           Mg  tau(   1) = (   0.2469429   0.7088915   0.1953904  )
         2           Mg  tau(   2) = (   0.7373895   0.1405869   0.5861713  )
         3           Mg  tau(   3) = (   0.2435037   0.1405869   0.5861713  )
         4           Mg  tau(   4) = (  -0.2469429   0.7088915   0.1953904  )
         5           Mg  tau(   5) = (   0.0000000   0.2811738   0.1953904  )
         6           Mg  tau(   6) = (   0.4904466   0.5683046   0.5861713  )
         7           Cd  tau(   7) = (   0.4904471   0.2831592   0.1953904  )
         8           Cd  tau(   8) = (  -0.0000005   0.5663192   0.5861713  )

     number of k points=    64  gaussian smearing, width (Ry)=  0.1000
                       cart. coord. in units 2pi/alat
        k(    1) = (   0.0000000   0.0000000   0.0000000), wk =   0.0095238
        k(    2) = (   0.0000000   0.0000000   0.1827842), wk =   0.0190476
        k(    3) = (   0.0000000   0.0000000   0.3655684), wk =   0.0190476
        k(    4) = (   0.0000000   0.0000000   0.5483526), wk =   0.0190476
        k(    5) = (   0.0000000   0.1961988   0.0000000), wk =   0.0190476
        k(    6) = (   0.0000000   0.1961988   0.1827842), wk =   0.0380952
        k(    7) = (   0.0000000   0.1961988   0.3655684), wk =   0.0380952
        k(    8) = (   0.0000000   0.1961988   0.5483526), wk =   0.0380952
        k(    9) = (   0.0000000   0.3923977   0.0000000), wk =   0.0190476
        k(   10) = (   0.0000000   0.3923977   0.1827842), wk =   0.0380952
        k(   11) = (   0.0000000   0.3923977   0.3655684), wk =   0.0380952
        k(   12) = (   0.0000000   0.3923977   0.5483526), wk =   0.0380952
        k(   13) = (   0.0000000  -0.5885965   0.0000000), wk =   0.0095238
        k(   14) = (   0.0000000  -0.5885965   0.1827842), wk =   0.0190476
        k(   15) = (   0.0000000  -0.5885965   0.3655684), wk =   0.0190476
        k(   16) = (   0.0000000  -0.5885965   0.5483526), wk =   0.0190476
        k(   17) = (   0.2038958   0.1177193   0.0000000), wk =   0.0190476
        k(   18) = (   0.2038958   0.1177193   0.1827842), wk =   0.0380952
        k(   19) = (   0.2038958   0.1177193   0.3655684), wk =   0.0380952
        k(   20) = (   0.2038958   0.1177193   0.5483526), wk =   0.0380952
        k(   21) = (   0.2038958   0.3139181   0.0000000), wk =   0.0190476
        k(   22) = (   0.2038958   0.3139181   0.1827842), wk =   0.0380952
        k(   23) = (   0.2038958   0.3139181   0.3655684), wk =   0.0380952
        k(   24) = (   0.2038958   0.3139181   0.5483526), wk =   0.0380952
        k(   25) = (   0.2038958   0.5101169   0.0000000), wk =   0.0190476
        k(   26) = (   0.2038958   0.5101169   0.1827842), wk =   0.0380952
        k(   27) = (   0.2038958   0.5101169   0.3655684), wk =   0.0380952
        k(   28) = (   0.2038958   0.5101169   0.5483526), wk =   0.0380952
        k(   29) = (   0.2038958  -0.4708772   0.0000000), wk =   0.0190476
        k(   30) = (   0.2038958  -0.4708772   0.1827842), wk =   0.0380952
        k(   31) = (   0.2038958  -0.4708772   0.3655684), wk =   0.0380952
        k(   32) = (   0.2038958  -0.4708772   0.5483526), wk =   0.0380952
        k(   33) = (   0.2038958  -0.2746784   0.0000000), wk =   0.0190476
        k(   34) = (   0.2038958  -0.2746784   0.1827842), wk =   0.0380952
        k(   35) = (   0.2038958  -0.2746784   0.3655684), wk =   0.0380952
        k(   36) = (   0.2038958  -0.2746784   0.5483526), wk =   0.0380952
        k(   37) = (   0.2038958  -0.0784795   0.0000000), wk =   0.0190476
        k(   38) = (   0.2038958  -0.0784795   0.1827842), wk =   0.0380952
        k(   39) = (   0.2038958  -0.0784795   0.3655684), wk =   0.0380952
        k(   40) = (   0.2038958  -0.0784795   0.5483526), wk =   0.0380952
        k(   41) = (   0.4077916   0.2354386   0.0000000), wk =   0.0190476
        k(   42) = (   0.4077916   0.2354386   0.1827842), wk =   0.0380952
        k(   43) = (   0.4077916   0.2354386   0.3655684), wk =   0.0380952
        k(   44) = (   0.4077916   0.2354386   0.5483526), wk =   0.0380952
        k(   45) = (   0.4077916   0.4316374   0.0000000), wk =   0.0190476
        k(   46) = (   0.4077916   0.4316374   0.1827842), wk =   0.0380952
        k(   47) = (   0.4077916   0.4316374   0.3655684), wk =   0.0380952
        k(   48) = (   0.4077916   0.4316374   0.5483526), wk =   0.0380952
        k(   49) = (   0.4077916   0.6278362   0.0000000), wk =   0.0190476
        k(   50) = (   0.4077916   0.6278362   0.1827842), wk =   0.0380952
        k(   51) = (   0.4077916   0.6278362   0.3655684), wk =   0.0380952
        k(   52) = (   0.4077916   0.6278362   0.5483526), wk =   0.0380952
        k(   53) = (   0.4077916  -0.3531579   0.0000000), wk =   0.0190476
        k(   54) = (   0.4077916  -0.3531579   0.1827842), wk =   0.0380952
        k(   55) = (   0.4077916  -0.3531579   0.3655684), wk =   0.0380952
        k(   56) = (   0.4077916  -0.3531579   0.5483526), wk =   0.0380952
        k(   57) = (   0.4077916  -0.1569591   0.0000000), wk =   0.0190476
        k(   58) = (   0.4077916  -0.1569591   0.1827842), wk =   0.0380952
        k(   59) = (   0.4077916  -0.1569591   0.3655684), wk =   0.0380952
        k(   60) = (   0.4077916  -0.1569591   0.5483526), wk =   0.0380952
        k(   61) = (   0.4077916   0.0392398   0.0000000), wk =   0.0190476
        k(   62) = (   0.4077916   0.0392398   0.1827842), wk =   0.0380952
        k(   63) = (   0.4077916   0.0392398   0.3655684), wk =   0.0380952
        k(   64) = (   0.4077916   0.0392398   0.5483526), wk =   0.0380952

     Largest allocated arrays     est. size (Mb)     dimensions
     Largest temporary arrays     est. size (Mb)     dimensions

     Initial potential from superposition of free atoms

     Starting from uniform charge
     Starting wfc are    0 randomized atomic wfcs

     Writing output data file Prototype-La-hP8-Mg3Cd.save

     Self-consistent Calculation

[...]

     iteration # 11     ecut=    40.00 Ry     beta=0.70
     CG style diagonalization
     c_bands:  1 eigenvalues not converged
     c_bands:  1 eigenvalues not converged
     ethr =  2.45E-07,  avg # of iterations =  4.3

[...]

     total energy              =   -1064.37613752 Ry
     Harris-Foulkes estimate   =   -1064.37614288 Ry
     estimated scf accuracy    <       0.00001319 Ry

     iteration # 13     ecut=    40.00 Ry     beta=0.70
     CG style diagonalization
     ethr =  1.10E-08,  avg # of iterations =  3.9

     End of self-consistent calculation

[...]

          k = 0.4078 0.0392 0.5484 (  4833 PWs)   bands (ev):

   -35.3188 -35.2905 -35.2649 -35.2516 -35.2401 -35.2304 -15.6353 -15.6349
   -10.8606 -10.8496 -10.8117 -10.7805 -10.7487 -10.7208 -10.4815 -10.4034
   -10.3417 -10.3346 -10.2687 -10.2227 -10.1809 -10.1614 -10.1432 -10.1014
   -10.0718 -10.0643   2.3536   2.3568   2.4121   2.4185   2.4378   2.4421
    16.8597  16.9901  17.0765  17.2633  17.3579  17.4792  17.8156  17.9467
    18.0156  18.0536  18.2068  18.5154  18.5425  18.7445  18.9762  19.1209
    19.4856  19.7182  20.2091  20.3405  20.4303  20.5632  20.6110  20.7407
    20.8927  20.9897  21.5921  21.6656  21.9422  21.9835  22.3771  22.6293
    22.9349  23.5083  24.3197  24.5499  24.8116  24.8662  25.3000  25.5373

     the Fermi energy is    21.8670 ev

!    total energy              =   -1064.37614087 Ry
     Harris-Foulkes estimate   =   -1064.37614139 Ry
     estimated scf accuracy    <       0.00000062 Ry

     The total energy is the sum of the following terms:

     one-electron contribution =     -55.21264001 Ry
     hartree contribution      =     113.95422300 Ry
     xc contribution           =    -118.48836153 Ry
     ewald contribution        =   -1004.09535031 Ry
     smearing contrib. (-TS)   =      -0.53401201 Ry

     convergence has been achieved in  13 iterations

     Forces acting on atoms (Ry/au):

     atom    1 type  1   force =     0.01229109    0.00709627    0.00000000
     atom    2 type  1   force =     0.01229109   -0.00709627    0.00000000
     atom    3 type  1   force =    -0.01229109   -0.00709627    0.00000000
     atom    4 type  1   force =    -0.01229109    0.00709627    0.00000000
     atom    5 type  1   force =     0.00000000   -0.01419253    0.00000000
     atom    6 type  1   force =     0.00000000    0.01419253    0.00000000
     atom    7 type  2   force =     0.00000000    0.00000000    0.00000000
     atom    8 type  2   force =     0.00000000    0.00000000    0.00000000

     Total force =     0.034764     Total SCF correction =     0.000000

     entering subroutine stress ...

          total   stress  (Ry/bohr**3)                   (kbar)     P=  -17.16
  -0.00014181   0.00000000   0.00000000        -20.86      0.00      0.00
   0.00000000  -0.00014181   0.00000000          0.00    -20.86      0.00
   0.00000000   0.00000000  -0.00006631          0.00      0.00     -9.75

     Writing output data file Prototype-La-hP8-Mg3Cd.save

     General routines

     Parallel routines

   This run was terminated on:  19:28:45  22Mar2018

   JOB DONE.