     Program PWSCF v.5.0.2 starts on 22Mar2018 at 18:41:46

     Current dimensions of program PWSCF are:
     Max number of different atomic species (ntypx) = 10
     Max number of k-points (npk) =  40000
     Max angular momentum in pseudopotentials (lmaxx) =  3
     Waiting for input...
     Reading input from standard input

     Subspace diagonalization in iterative solution of the eigenvalue problem:
     a serial algorithm will be used

     bravais-lattice index     =            0
     lattice parameter (alat)  =       9.9235  a.u.
     unit-cell volume          =    1361.0366 (a.u.)^3
     number of atoms/cell      =           12
     number of atomic types    =            2
     number of electrons       =       160.00
     number of Kohn-Sham states=           96
     kinetic-energy cutoff     =      40.0000  Ry
     charge density cutoff     =     160.0000  Ry
     convergence threshold     =      1.0E-04
     mixing beta               =       0.7000
     number of iterations used =            8  plain     mixing
     Exchange-correlation      = SLA-PZ-NOGX-NOGC ( 1 1 0 0 0)
     EXX-fraction              =        0.00
     nstep                     =           50

     celldm(1)=   9.923489  celldm(2)=   0.000000  celldm(3)=   0.000000
     celldm(4)=   0.000000  celldm(5)=   0.000000  celldm(6)=   0.000000

     crystal axes: (cart. coord. in units of alat)
               a(1) = (   1.000000   0.000000   0.000000 )
               a(2) = (  -0.500000   0.866025   0.000000 )
               a(3) = (   0.000000   0.000000   1.608222 )

     reciprocal axes: (cart. coord. in units 2 pi/alat)
               b(1) = (  1.000000  0.577350  0.000000 )
               b(2) = (  0.000000  1.154701  0.000000 )
               b(3) = (  0.000000  0.000000  0.621805 )

     PseudoPot. # 1 for Sm read from file:
     /home/cwx6513/pp.La/Sm.UPF
     MD5 check sum: 5079e8b144a06bfcdbc14fb02b96ab09
     Pseudo is Norm-conserving, Zval = 16.0
     Generated in analytical, separable form
     Using radial grid of 1259 points,  6 beta functions with:
                l(1) =   0
                l(2) =   0
                l(3) =   1
                l(4) =   1
                l(5) =   2
                l(6) =   3

     PseudoPot. # 2 for Ce read from file:
     /home/cwx6513/pp.La/Ce.UPF
     MD5 check sum: 44451aa79a44a00cf2bc029dc19922f6
     Pseudo is Norm-conserving, Zval = 12.0
     Generated in analytical, separable form
     Using radial grid of 1255 points,  6 beta functions with:
                l(1) =   0
                l(2) =   0
                l(3) =   1
                l(4) =   1
                l(5) =   2
                l(6) =   3

     atomic species   valence    mass     pseudopotential
        Mg            16.00    24.30500     Sm( 1.00)
        Zn            12.00    65.39000     Ce( 1.00)

     24 Sym. Ops., with inversion, found (12 have fractional translation)

   Cartesian axes

     site n.     atom                  positions (alat units)
         1           Mg  tau(   1) = (  -0.0000005   0.5773506   0.1003820  )
         2           Mg  tau(   2) = (   0.5000005   0.2886748   0.9044931  )
         3           Mg  tau(   3) = (   0.5000005   0.2886748   1.5078402  )
         4           Mg  tau(   4) = (  -0.0000005   0.5773506   0.7037291  )
         5           Zn  tau(   5) = (   0.0000000   0.0000000   0.0000000  )
         6           Zn  tau(   6) = (   0.0000000   0.0000000   0.8041111  )
         7           Zn  tau(   7) = (   0.0000000   0.2950739   1.2061667  )
         8           Zn  tau(   8) = (   0.7444585   0.1475370   0.4020556  )
         9           Zn  tau(   9) = (   0.2555415   0.1475370   0.4020556  )
        10           Zn  tau(  10) = (   0.2444585   0.7184884   1.2061667  )
        11           Zn  tau(  11) = (  -0.2444585   0.7184884   1.2061667  )
        12           Zn  tau(  12) = (   0.5000000   0.5709515   0.4020556  )

     number of k points=    12  gaussian smearing, width (Ry)=  0.1000
                       cart. coord. in units 2pi/alat
        k(    1) = (   0.0000000   0.0000000   0.0000000), wk =   0.0833333
        k(    2) = (   0.0000000   0.0000000   0.1554512), wk =   0.1666667
        k(    3) = (   0.0000000   0.0000000  -0.3109023), wk =   0.0833333
        k(    4) = (   0.0000000   0.3849002   0.0000000), wk =   0.1666667
        k(    5) = (   0.0000000   0.3849002   0.1554512), wk =   0.3333333
        k(    6) = (   0.0000000   0.3849002  -0.3109023), wk =   0.1666667
        k(    7) = (  -0.5000000  -0.2886751   0.0000000), wk =   0.0833333
        k(    8) = (  -0.5000000  -0.2886751   0.1554512), wk =   0.1666667
        k(    9) = (  -0.5000000  -0.2886751  -0.3109023), wk =   0.0833333
        k(   10) = (  -0.5000000   0.0962250   0.0000000), wk =   0.1666667
        k(   11) = (  -0.5000000   0.0962250   0.1554512), wk =   0.3333333
        k(   12) = (  -0.5000000   0.0962250  -0.3109023), wk =   0.1666667

     Largest allocated arrays     est. size (Mb)     dimensions
     Largest temporary arrays     est. size (Mb)     dimensions

     Initial potential from superposition of free atoms

     Starting from uniform charge
     Starting wfc are    0 randomized atomic wfcs

     Self-consistent Calculation

     iteration #  1     ecut=    40.00 Ry     beta=0.70
     CG style diagonalization
     ethr =  1.00E-02,  avg # of iterations = 16.5

     total energy              =    -972.95508151 Ry
     Harris-Foulkes estimate   =   -1365.15464035 Ry
     estimated scf accuracy    <     500.48853958 Ry

     iteration #  2     ecut=    40.00 Ry     beta=0.70
     CG style diagonalization
     c_bands:  4 eigenvalues not converged
     c_bands:  5 eigenvalues not converged
     c_bands:  3 eigenvalues not converged
     c_bands:  1 eigenvalues not converged
     c_bands:  1 eigenvalues not converged
     c_bands:  4 eigenvalues not converged
     c_bands:  2 eigenvalues not converged
     c_bands:  4 eigenvalues not converged
     c_bands:  1 eigenvalues not converged
     ethr =  1.00E-02,  avg # of iterations = 11.3

[...]

     End of self-consistent calculation

          k = 0.0000 0.0000 0.0000 (  5769 PWs)   bands (ev):

   -29.5756 -29.5502 -29.5103 -29.4848 -12.5274 -11.9975 -10.6284  -9.8065
    -9.7400  -9.7400  -9.7139  -9.7138  -4.9942  -4.9942  -4.9902  -4.9363
    -4.9363  -4.9046  -4.7187  -4.6907  -4.6907  -4.6873  -4.6480  -4.6480
     1.3197   2.4714   3.4735   5.0649   5.0649   5.4101   5.4102   5.5059
     5.5060   6.6800   7.6953   7.6954   7.7585   7.7585   8.4179   9.9437
    10.2773  10.2773  10.3254  10.3418  10.8902  10.8902  11.1248  11.1249
    20.1684  21.2819  21.4974  22.6657  22.6657  23.1753  23.2057  23.2058
    23.2318  23.2319  23.2520  23.6759  23.6759  23.6880  23.8895  23.8896
    24.1372  24.4044  24.4044  24.4329  24.6180  24.6180  25.6570  25.6570
    26.0662  26.0662  26.3584  26.4533  26.4533  26.6655  26.6655  26.7524
    27.4538  27.4538  28.3023  28.7084  28.7084  28.8202  28.8202  30.1694
    30.8286  30.8286  30.9568  31.1849  31.7194  31.9109  32.0678  32.0679

[...]

          k =-0.5000-0.2887 0.0000 (  5800 PWs)   bands (ev):

[...]

     the Fermi energy is    27.7956 ev

!    total energy              =   -1222.30510469 Ry
     Harris-Foulkes estimate   =   -1222.30514784 Ry
     estimated scf accuracy    <       0.00005319 Ry

     The total energy is the sum of the following terms:

     one-electron contribution =     128.44888720 Ry
     hartree contribution      =      87.42841817 Ry
     xc contribution           =    -152.57833542 Ry
     ewald contribution        =   -1285.01023813 Ry
     smearing contrib. (-TS)   =      -0.59383651 Ry

     convergence has been achieved in  10 iterations

     Forces acting on atoms (Ry/au):

     atom    1 type  1   force =     0.00000000    0.00000000   -0.00919006
     atom    2 type  1   force =     0.00000000    0.00000000   -0.00919006
     atom    3 type  1   force =     0.00000000    0.00000000    0.00919006
     atom    4 type  1   force =     0.00000000    0.00000000    0.00919006
     atom    5 type  2   force =     0.00000000    0.00000000    0.00000000
     atom    6 type  2   force =     0.00000000    0.00000000    0.00000000
     atom    7 type  2   force =     0.00000000    0.10108338    0.00000000
     atom    8 type  2   force =    -0.08754078    0.05054169    0.00000000
     atom    9 type  2   force =     0.08754078    0.05054169    0.00000000
     atom   10 type  2   force =    -0.08754078   -0.05054169    0.00000000
     atom   11 type  2   force =     0.08754078   -0.05054169    0.00000000
     atom   12 type  2   force =     0.00000000   -0.10108338    0.00000000

     Total force =     0.248284     Total SCF correction =     0.000000

     entering subroutine stress ...

          total   stress  (Ry/bohr**3)                   (kbar)     P= 1039.66
   0.00707832   0.00000000   0.00000000       1041.26      0.00      0.00
   0.00000000   0.00707832   0.00000000          0.00   1041.26      0.00
   0.00000000   0.00000000   0.00704568          0.00      0.00   1036.45

     BFGS Geometry Optimization

     number of scf cycles    =   1
     number of bfgs steps    =   0

     enthalpy new            =   -1222.3051046868 Ry

     new trust radius        =       0.5000000000 bohr
     new conv_thr            =       0.0001000000 Ry

     new unit-cell volume =   1656.41689 a.u.^3 (   245.45566 Ang^3 )

CELL_PARAMETERS (alat=  9.92348860)
   1.067764947   0.000000000   0.000000000
  -0.533882474   0.924711570   0.000000000
   0.000000000   0.000000000   1.716700660

ATOMIC_POSITIONS (crystal)
Mg       0.333333000   0.666667000   0.062197483
Mg       0.666667000   0.333333000   0.562197483
Mg       0.666667000   0.333333000   0.937802517
Mg       0.333333000   0.666667000   0.437802517
Zn       0.000000000   0.000000000   0.000000000
Zn       0.000000000   0.000000000   0.500000000
Zn       0.172613109   0.345226218   0.750000000
Zn       0.827386891   0.172613109   0.250000000
Zn       0.345226218   0.172613109   0.250000000
Zn       0.654773782   0.827386891   0.750000000
Zn       0.172613109   0.827386891   0.750000000
Zn       0.827386891   0.654773782   0.250000000

     Writing output data file Prototype-La-hP12-MgZn2.save
     NEW-OLD atomic charge density approx. for the potential
     NEW k-points:
        k(    1) = (   0.0000000   0.0000000   0.0000000), wk =   0.0833333
        k(    2) = (   0.0000000   0.0000000   0.1456282), wk =   0.1666667
        k(    3) = (   0.0000000   0.0000000  -0.2912564), wk =   0.0833333
        k(    4) = (   0.0000000   0.3604728   0.0000000), wk =   0.1666667
        k(    5) = (   0.0000000   0.3604728   0.1456282), wk =   0.3333333
        k(    6) = (   0.0000000   0.3604728  -0.2912564), wk =   0.1666667
        k(    7) = (  -0.4682679  -0.2703546   0.0000000), wk =   0.0833333
        k(    8) = (  -0.4682679  -0.2703546   0.1456282), wk =   0.1666667
        k(    9) = (  -0.4682679  -0.2703546  -0.2912564), wk =   0.0833333
        k(   10) = (  -0.4682679   0.0901182   0.0000000), wk =   0.1666667
        k(   11) = (  -0.4682679   0.0901182   0.1456282), wk =   0.3333333
        k(   12) = (  -0.4682679   0.0901182  -0.2912564), wk =   0.1666667

[...]

     enthalpy old            =   -1222.3051046868 Ry
     enthalpy new            =   -1223.4704712193 Ry

     CASE: enthalpy_new < enthalpy_old

     small trust_radius: resetting bfgs history

[...]

     number of scf cycles    =   3
     number of bfgs steps    =   2

     enthalpy old            =   -1223.4704712193 Ry
     enthalpy new            =   -1223.5488015444 Ry

     CASE: enthalpy_new < enthalpy_old

     Message from routine bfgs:
     history already reset at previous step: stopping
     small trust_radius: resetting bfgs history

     new trust radius        =       0.1298215788 bohr
     new conv_thr            =       0.0000052557 Ry

     new unit-cell volume =   1778.91138 a.u.^3 (   263.60747 Ang^3 )

[...]

ATOMIC_POSITIONS (crystal)
Mg       0.333333000   0.666667000   0.061925682
Mg       0.666667000   0.333333000   0.561925682
Mg       0.666667000   0.333333000   0.938074318
Mg       0.333333000   0.666667000   0.438074318
Zn       0.000000000   0.000000000   0.000000000
Zn       0.000000000   0.000000000   0.500000000
Zn       0.173832389   0.347664777   0.750000000
Zn       0.826167611   0.173832389   0.250000000
Zn       0.347664777   0.173832389   0.250000000
Zn       0.652335223   0.826167611   0.750000000
Zn       0.173832389   0.826167611   0.750000000
Zn       0.826167611   0.652335223   0.250000000

     Writing output data file Prototype-La-hP12-MgZn2.save
     NEW-OLD atomic charge density approx. for the potential
     NEW k-points:
        k(    1) = (   0.0000000   0.0000000   0.0000000), wk =   0.0833333
        k(    2) = (   0.0000000   0.0000000   0.1429829), wk =   0.1666667
        k(    3) = (   0.0000000   0.0000000  -0.2859658), wk =   0.0833333
        k(    4) = (   0.0000000   0.3510434   0.0000000), wk =   0.1666667
        k(    5) = (   0.0000000   0.3510434   0.1429829), wk =   0.3333333
        k(    6) = (   0.0000000   0.3510434  -0.2859658), wk =   0.1666667
        k(    7) = (  -0.4560188  -0.2632826   0.0000000), wk =   0.0833333
        k(    8) = (  -0.4560188  -0.2632826   0.1429829), wk =   0.1666667
        k(    9) = (  -0.4560188  -0.2632826  -0.2859658), wk =   0.0833333
        k(   10) = (  -0.4560188   0.0877609   0.0000000), wk =   0.1666667
        k(   11) = (  -0.4560188   0.0877609   0.1429829), wk =   0.3333333
        k(   12) = (  -0.4560188   0.0877609  -0.2859658), wk =   0.1666667

[...]

     The maximum number of steps has been reached.

     End of BFGS Geometry Optimization
Begin final coordinates
     new unit-cell volume =   1778.91138 a.u.^3 (   263.60747 Ang^3 )

CELL_PARAMETERS (alat=  9.92348860)
   1.096446114   0.000000000   0.000000000
  -0.548223057   0.949550189   0.000000000
   0.000000000   0.000000000   1.748461082

ATOMIC_POSITIONS (crystal)
Mg       0.333333000   0.666667000   0.061925682
Mg       0.666667000   0.333333000   0.561925682
Mg       0.666667000   0.333333000   0.938074318
Mg       0.333333000   0.666667000   0.438074318
Zn       0.000000000   0.000000000   0.000000000
Zn       0.000000000   0.000000000   0.500000000
Zn       0.173832389   0.347664777   0.750000000
Zn       0.826167611   0.173832389   0.250000000
Zn       0.347664777   0.173832389   0.250000000
Zn       0.652335223   0.826167611   0.750000000
Zn       0.173832389   0.826167611   0.750000000
Zn       0.826167611   0.652335223   0.250000000
End final coordinates

     A final scf calculation at the relaxed structure.
     The G-vectors are recalculated for the final unit cell
     Results may differ from those at the preceding step.

     bravais-lattice index     =            0
     lattice parameter (alat)  =       9.9235  a.u.
     unit-cell volume          =    1778.9114 (a.u.)^3
     number of atoms/cell      =           12
     number of atomic types    =            2
     number of electrons       =       160.00
     number of Kohn-Sham states=           96
     kinetic-energy cutoff     =      40.0000  Ry
     charge density cutoff     =     160.0000  Ry
     convergence threshold     =      5.3E-06
     mixing beta               =       0.7000
     number of iterations used =            8  plain     mixing
     Exchange-correlation      = SLA-PZ-NOGX-NOGC ( 1 1 0 0 0)
     EXX-fraction              =        0.00

     celldm(1)=   9.923489  celldm(2)=   0.000000  celldm(3)=   0.000000
     celldm(4)=   0.000000  celldm(5)=   0.000000  celldm(6)=   0.000000

     crystal axes: (cart. coord. in units of alat)
               a(1) = (   1.096446   0.000000   0.000000 )
               a(2) = (  -0.548223   0.949550   0.000000 )
               a(3) = (   0.000000   0.000000   1.748461 )

     reciprocal axes: (cart. coord. in units 2 pi/alat)
               b(1) = (  0.912038  0.526565  0.000000 )
               b(2) = (  0.000000  1.053130  0.000000 )
               b(3) = (  0.000000  0.000000  0.571932 )

     PseudoPot. # 1 for Sm read from file:
     /home/cwx6513/pp.La/Sm.UPF
     MD5 check sum: 5079e8b144a06bfcdbc14fb02b96ab09
     Pseudo is Norm-conserving, Zval = 16.0
     Generated in analytical, separable form
     Using radial grid of 1259 points,  6 beta functions with:
                l(1) =   0
                l(2) =   0
                l(3) =   1
                l(4) =   1
                l(5) =   2
                l(6) =   3

     PseudoPot. # 2 for Ce read from file:
     /home/cwx6513/pp.La/Ce.UPF
     MD5 check sum: 44451aa79a44a00cf2bc029dc19922f6
     Pseudo is Norm-conserving, Zval = 12.0
     Generated in analytical, separable form
     Using radial grid of 1255 points,  6 beta functions with:
                l(1) =   0
                l(2) =   0
                l(3) =   1
                l(4) =   1
                l(5) =   2
                l(6) =   3

     atomic species   valence    mass     pseudopotential
        Mg            16.00    24.30500     Sm( 1.00)
        Zn            12.00    65.39000     Ce( 1.00)

     24 Sym. Ops., with inversion, found (12 have fractional translation)

   Cartesian axes

     site n.     atom                  positions (alat units)
         1           Mg  tau(   1) = (  -0.0000005   0.6330338   0.1082746  )
         2           Mg  tau(   2) = (   0.5482236   0.3165164   0.9825052  )
         3           Mg  tau(   3) = (   0.5482236   0.3165164   1.6401864  )
         4           Mg  tau(   4) = (  -0.0000005   0.6330338   0.7659559  )
         5           Zn  tau(   5) = (   0.0000000   0.0000000   0.0000000  )
         6           Zn  tau(   6) = (   0.0000000   0.0000000   0.8742305  )
         7           Zn  tau(   7) = (   0.0000000   0.3301252   1.3113458  )
         8           Zn  tau(   8) = (   0.8105493   0.1650626   0.4371153  )
         9           Zn  tau(   9) = (   0.2858968   0.1650626   0.4371153  )
        10           Zn  tau(  10) = (   0.2623263   0.7844876   1.3113458  )
        11           Zn  tau(  11) = (  -0.2623263   0.7844876   1.3113458  )
        12           Zn  tau(  12) = (   0.5482231   0.6194250   0.4371153  )

     number of k points=    12  gaussian smearing, width (Ry)=  0.1000
                       cart. coord. in units 2pi/alat
        k(    1) = (   0.0000000   0.0000000   0.0000000), wk =   0.0833333
        k(    2) = (   0.0000000   0.0000000   0.1429829), wk =   0.1666667
        k(    3) = (   0.0000000   0.0000000  -0.2859658), wk =   0.0833333
        k(    4) = (   0.0000000   0.3510434   0.0000000), wk =   0.1666667
        k(    5) = (   0.0000000   0.3510434   0.1429829), wk =   0.3333333
        k(    6) = (   0.0000000   0.3510434  -0.2859658), wk =   0.1666667
        k(    7) = (  -0.4560188  -0.2632826   0.0000000), wk =   0.0833333
        k(    8) = (  -0.4560188  -0.2632826   0.1429829), wk =   0.1666667
        k(    9) = (  -0.4560188  -0.2632826  -0.2859658), wk =   0.0833333
        k(   10) = (  -0.4560188   0.0877609   0.0000000), wk =   0.1666667
        k(   11) = (  -0.4560188   0.0877609   0.1429829), wk =   0.3333333
        k(   12) = (  -0.4560188   0.0877609  -0.2859658), wk =   0.1666667

     Largest allocated arrays     est. size (Mb)     dimensions
     Largest temporary arrays     est. size (Mb)     dimensions

     Initial potential from superposition of free atoms

     Starting from uniform charge
     Starting wfc are    0 randomized atomic wfcs

     Writing output data file Prototype-La-hP12-MgZn2.save

     Self-consistent Calculation

[...]

     iteration # 11     ecut=    40.00 Ry     beta=0.70
     CG style diagonalization
     c_bands:  1 eigenvalues not converged
     ethr =  4.53E-07,  avg # of iterations =  3.9

     total energy              =   -1224.03871594 Ry
     Harris-Foulkes estimate   =   -1224.03874016 Ry
     estimated scf accuracy    <       0.00007633 Ry

     iteration # 12     ecut=    40.00 Ry     beta=0.70
     CG style diagonalization
     ethr =  4.77E-08,  avg # of iterations =  4.6

     End of self-consistent calculation

[...]

          k = 0.0000 0.3510-0.2860 (  7590 PWs)   bands (ev):

[...]

          k =-0.4560 0.0878-0.2860 (  7612 PWs)   bands (ev):

   -36.4626 -36.4626 -36.4529 -36.4528 -17.8448 -17.8448 -17.5170 -17.5170
   -16.9280 -16.9280 -16.8827 -16.8827 -11.6579 -11.6579 -11.6211 -11.6211
   -11.5841 -11.5841 -11.5358 -11.5358 -11.5088 -11.5088 -11.4896 -11.4896
    -1.8613  -1.8613  -0.9549  -0.9549  -0.2372  -0.2372  -0.1151  -0.1151
     0.0607   0.0607   0.3085   0.3085   0.9733   0.9733   1.3595   1.3595
     1.6935   1.6935   1.9555   1.9555   2.4124   2.4124   2.5249   2.5249
    16.2570  16.2570  16.5709  16.5709  16.9610  16.9610  17.1921  17.1921
    17.2804  17.2804  17.5494  17.5494  17.9222  17.9222  18.0880  18.0880
    18.2432  18.2432  18.5968  18.5968  18.8626  18.8626  19.0248  19.0248
    19.3571  19.3571  19.6677  19.6677  20.1459  20.1459  20.3018  20.3018
    20.7186  20.7186  20.8640  20.8640  21.4022  21.4022  21.8497  21.8497
    22.0217  22.0217  22.6429  22.6429  23.0117  23.0118  23.4189  23.4195

     the Fermi energy is    20.5005 ev

!    total energy              =   -1224.03874825 Ry
     Harris-Foulkes estimate   =   -1224.03874939 Ry
     estimated scf accuracy    <       0.00000143 Ry

     The total energy is the sum of the following terms:

     one-electron contribution =     -19.71774368 Ry
     hartree contribution      =     119.57221350 Ry
     xc contribution           =    -147.73848735 Ry
     ewald contribution        =   -1175.36379602 Ry
     smearing contrib. (-TS)   =      -0.79093470 Ry

     convergence has been achieved in  12 iterations

     Forces acting on atoms (Ry/au):

     atom    1 type  1   force =     0.00000000    0.00000000    0.00162115
     atom    2 type  1   force =     0.00000000    0.00000000    0.00162115
     atom    3 type  1   force =     0.00000000    0.00000000   -0.00162115
     atom    4 type  1   force =     0.00000000    0.00000000   -0.00162115
     atom    5 type  2   force =     0.00000000    0.00000000    0.00000000
     atom    6 type  2   force =     0.00000000    0.00000000    0.00000000
     atom    7 type  2   force =     0.00000000    0.00324427    0.00000000
     atom    8 type  2   force =    -0.00280962    0.00162214    0.00000000
     atom    9 type  2   force =     0.00280962    0.00162214    0.00000000
     atom   10 type  2   force =    -0.00280962   -0.00162214    0.00000000
     atom   11 type  2   force =     0.00280962   -0.00162214    0.00000000
     atom   12 type  2   force =     0.00000000   -0.00324427    0.00000000

     Total force =     0.008583     Total SCF correction =     0.000000

     entering subroutine stress ...

          total   stress  (Ry/bohr**3)                   (kbar)     P=  158.47
   0.00112807   0.00000000   0.00000000        165.94      0.00      0.00
   0.00000000   0.00112807   0.00000000          0.00    165.94      0.00
   0.00000000   0.00000000   0.00097560          0.00      0.00    143.52

     Writing output data file Prototype-La-hP12-MgZn2.save

     General routines

     Parallel routines

   This run was terminated on:  18:57:54  22Mar2018

   JOB DONE.