     Program PWSCF v.5.0.2 starts on 22Mar2018 at 16:17:16

     Current dimensions of program PWSCF are:
     Max number of different atomic species (ntypx) = 10
     Max number of k-points (npk) =  40000
     Max angular momentum in pseudopotentials (lmaxx) =  3
     Waiting for input...
     Reading input from standard input

     Subspace diagonalization in iterative solution of the eigenvalue problem:
     a serial algorithm will be used

     bravais-lattice index     =            0
     lattice parameter (alat)  =       9.3790  a.u.
     unit-cell volume          =     583.3913 (a.u.)^3
     number of atoms/cell      =            6
     number of atomic types    =            2
     number of electrons       =        74.00
     number of Kohn-Sham states=           44
     kinetic-energy cutoff     =      40.0000  Ry
     charge density cutoff     =     160.0000  Ry
     convergence threshold     =      1.0E-04
     mixing beta               =       0.7000
     number of iterations used =            8  plain     mixing
     Exchange-correlation      = SLA-PZ-NOGX-NOGC ( 1 1 0 0 0)
     EXX-fraction              =        0.00
     nstep                     =           50

     celldm(1)=   9.379038  celldm(2)=   0.000000  celldm(3)=   0.000000
     celldm(4)=   0.000000  celldm(5)=   0.000000  celldm(6)=   0.000000

     crystal axes: (cart. coord. in units of alat)
               a(1) = (   1.000000   0.000000   0.000000 )
               a(2) = (   0.500000   0.866025   0.000000 )
               a(3) = (   0.500000   0.288675   0.816497 )

     reciprocal axes: (cart. coord. in units 2 pi/alat)
               b(1) = (  1.000000 -0.577350 -0.408248 )
               b(2) = (  0.000000  1.154701 -0.408248 )
               b(3) = (  0.000000  0.000000  1.224745 )

     PseudoPot. # 1 for Pr read from file:
     /home/cwx6513/pp.La/Pr.UPF
     MD5 check sum: 70e2b4b153859e92c8c91247dfc63203
     Pseudo is Norm-conserving, Zval = 13.0
     Generated in analytical, separable form
     Using radial grid of 1255 points,  6 beta functions with:
                l(1) =   0
                l(2) =   0
                l(3) =   1
                l(4) =   1
                l(5) =   2
                l(6) =   3

     PseudoPot. # 2 for Ce read from file:
     /home/cwx6513/pp.La/Ce.UPF
     MD5 check sum: 44451aa79a44a00cf2bc029dc19922f6
     Pseudo is Norm-conserving, Zval = 12.0
     Generated in analytical, separable form
     Using radial grid of 1255 points,  6 beta functions with:
                l(1) =   0
                l(2) =   0
                l(3) =   1
                l(4) =   1
                l(5) =   2
                l(6) =   3

     atomic species   valence    mass     pseudopotential
        Mg            13.00    24.30500     Pr( 1.00)
        Cu            12.00    63.54600     Ce( 1.00)

     12 Sym. Ops., with inversion, found ( 6 have fractional translation)

   Cartesian axes

     site n.     atom                  positions (alat units)
         1           Mg  tau(   1) = (   1.5000000   0.8660254   0.6123724  )
         2           Mg  tau(   2) = (   1.0000000   0.5773503   0.4082483  )
         3           Cu  tau(   3) = (   0.2500000   0.1443376   0.1020621  )
         4           Cu  tau(   4) = (   0.7500000   0.1443376   0.1020621  )
         5           Cu  tau(   5) = (   0.5000000   0.5773503   0.1020621  )
         6           Cu  tau(   6) = (   0.5000000   0.2886751   0.5103104  )

     number of k points=   170  gaussian smearing, width (Ry)=  0.1000

     Number of k-points >= 100: set verbosity='high' to print them.

     Largest allocated arrays     est. size (Mb)     dimensions
     Largest temporary arrays     est. size (Mb)     dimensions

     Initial potential from superposition of free atoms
     Check: negative starting charge=   -0.000165

     starting charge   25.98109, renormalised to   74.00000

     negative rho (up, down):  0.470E-03 0.000E+00
     Starting wfc are   40 randomized atomic wfcs

     Self-consistent Calculation

     iteration #  1     ecut=    40.00 Ry     beta=0.70
     CG style diagonalization
     c_bands:  1 eigenvalues not converged
     c_bands:  1 eigenvalues not converged
     c_bands:  2 eigenvalues not converged
     c_bands:  1 eigenvalues not converged
     ethr =  1.00E-02,  avg # of iterations = 22.2

     negative rho (up, down):  0.138E-03 0.000E+00

     total energy              =    -269.94272793 Ry
     Harris-Foulkes estimate   =   -1253.38838965 Ry
     estimated scf accuracy    <    1156.56972181 Ry

[...]

     iteration #  4     ecut=    40.00 Ry     beta=0.70
     CG style diagonalization
     ethr =  1.00E-02,  avg # of iterations =  8.5

[...]

     End of self-consistent calculation

     Number of k-points >= 100: set verbosity='high' to print the bands.

     the Fermi energy is    32.4752 ev

!    total energy              =    -492.38340597 Ry
     Harris-Foulkes estimate   =    -492.38341638 Ry
     estimated scf accuracy    <       0.00001133 Ry

     The total energy is the sum of the following terms:

     one-electron contribution =     124.47784688 Ry
     hartree contribution      =      21.40353462 Ry
     xc contribution           =     -68.81708214 Ry
     ewald contribution        =    -569.17855316 Ry
     smearing contrib. (-TS)   =      -0.26915217 Ry

     convergence has been achieved in  13 iterations

     Forces acting on atoms (Ry/au):

     atom    1 type  1   force =     0.00000000    0.00000000    0.00018171
     atom    2 type  1   force =     0.00000000    0.00000000   -0.00018171
     atom    3 type  2   force =     0.00000000    0.00000000    0.00000000
     atom    4 type  2   force =     0.00000000    0.00000000    0.00000000
     atom    5 type  2   force =     0.00000000    0.00000000    0.00000000
     atom    6 type  2   force =     0.00000000    0.00000000    0.00000000

     Total force =     0.000257     Total SCF correction =     0.001997
     SCF correction compared to forces is large: reduce conv_thr to get better values

     entering subroutine stress ...

          total   stress  (Ry/bohr**3)                   (kbar)     P= 2195.71
   0.01492836   0.00000000   0.00000000       2196.04      0.00      0.00
   0.00000000   0.01492836   0.00000000          0.00   2196.04      0.00
   0.00000000   0.00000000   0.01492161          0.00      0.00   2195.04

     BFGS Geometry Optimization

     number of scf cycles    =   1
     number of bfgs steps    =   0

     enthalpy new            =    -492.3834059748 Ry

     new trust radius        =       0.5000000000 bohr
     new conv_thr            =       0.0001000000 Ry

     new unit-cell volume =    783.90612 a.u.^3 (   116.16290 Ang^3 )

CELL_PARAMETERS (alat=  9.37903830)
   1.103504695   0.000000000   0.000000000
   0.551752347   0.955663099   0.000000000
   0.551752347   0.318554366   0.900969573

ATOMIC_POSITIONS (crystal)
Mg       0.749997806   0.749997806   0.750006581
Mg       0.500002194   0.500002194   0.499993419
Cu       0.125000000   0.125000000   0.125000000
Cu       0.625000000   0.125000000   0.125000000
Cu       0.125000000   0.625000000   0.125000000
Cu       0.125000000   0.125000000   0.625000000

     Writing output data file Prototype-La-cF24-Cu2Mg.save
     Check: negative starting charge=   -0.000165
     NEW-OLD atomic charge density approx. for the potential
     NEW k-points: (use verbosity='high' to print them)
     Check: negative starting charge=   -0.002289

     negative rho (up, down):  0.217E-02 0.000E+00
     extrapolated charge   80.64569, renormalised to   74.00000

[...]

     enthalpy old            =    -492.3834059748 Ry
     enthalpy new            =    -493.9646893233 Ry

     CASE: enthalpy_new < enthalpy_old

     small trust_radius: resetting bfgs history

[...]

     number of scf cycles    =   3
     number of bfgs steps    =   2

     enthalpy old            =    -493.9646893233 Ry
     enthalpy new            =    -494.0620014657 Ry

     CASE: enthalpy_new < enthalpy_old

     Message from routine bfgs:
     history already reset at previous step: stopping
     small trust_radius: resetting bfgs history

     new trust radius        =       0.2253721270 bohr
     new conv_thr            =       0.0000010000 Ry

     new unit-cell volume =    873.46559 a.u.^3 (   129.43424 Ang^3 )

[...]

ATOMIC_POSITIONS (crystal)
Mg       0.750007746   0.750007746   0.749976763
Mg       0.499992254   0.499992254   0.500023237
Cu       0.125000000   0.125000000   0.125000000
Cu       0.625000000   0.125000000   0.125000000
Cu       0.125000000   0.625000000   0.125000000
Cu       0.125000000   0.125000000   0.625000000

     Writing output data file Prototype-La-cF24-Cu2Mg.save
     Check: negative starting charge=   -0.004996
     NEW-OLD atomic charge density approx. for the potential
     NEW k-points: (use verbosity='high' to print them)
     Check: negative starting charge=   -0.003514

     negative rho (up, down):  0.787E-01 0.000E+00
     extrapolated charge   70.97249, renormalised to   74.00000

[...]

     The maximum number of steps has been reached.

     End of BFGS Geometry Optimization
Begin final coordinates
     new unit-cell volume =    873.46559 a.u.^3 (   129.43424 Ang^3 )

CELL_PARAMETERS (alat=  9.37903830)
   1.144028156   0.000000000   0.000000000
   0.572014078   0.990757446   0.000000000
   0.572014078   0.330252482   0.934042875

ATOMIC_POSITIONS (crystal)
Mg       0.750007746   0.750007746   0.749976763
Mg       0.499992254   0.499992254   0.500023237
Cu       0.125000000   0.125000000   0.125000000
Cu       0.625000000   0.125000000   0.125000000
Cu       0.125000000   0.625000000   0.125000000
Cu       0.125000000   0.125000000   0.625000000
End final coordinates

     A final scf calculation at the relaxed structure.
     The G-vectors are recalculated for the final unit cell
     Results may differ from those at the preceding step.

     bravais-lattice index     =            0
     lattice parameter (alat)  =       9.3790  a.u.
     unit-cell volume          =     873.4656 (a.u.)^3
     number of atoms/cell      =            6
     number of atomic types    =            2
     number of electrons       =        74.00
     number of Kohn-Sham states=           44
     kinetic-energy cutoff     =      40.0000  Ry
     charge density cutoff     =     160.0000  Ry
     convergence threshold     =      1.0E-06
     mixing beta               =       0.7000
     number of iterations used =            8  plain     mixing
     Exchange-correlation      = SLA-PZ-NOGX-NOGC ( 1 1 0 0 0)
     EXX-fraction              =        0.00

     celldm(1)=   9.379038  celldm(2)=   0.000000  celldm(3)=   0.000000
     celldm(4)=   0.000000  celldm(5)=   0.000000  celldm(6)=   0.000000

     crystal axes: (cart. coord. in units of alat)
               a(1) = (   1.144028   0.000000   0.000000 )
               a(2) = (   0.572014   0.990757   0.000000 )
               a(3) = (   0.572014   0.330252   0.934043 )

     reciprocal axes: (cart. coord. in units 2 pi/alat)
               b(1) = (  0.874104 -0.504664 -0.356872 )
               b(2) = (  0.000000  1.009329 -0.356872 )
               b(3) = (  0.000000  0.000000  1.070615 )

     PseudoPot. # 1 for Pr read from file:
     /home/cwx6513/pp.La/Pr.UPF
     MD5 check sum: 70e2b4b153859e92c8c91247dfc63203
     Pseudo is Norm-conserving, Zval = 13.0
     Generated in analytical, separable form
     Using radial grid of 1255 points,  6 beta functions with:
                l(1) =   0
                l(2) =   0
                l(3) =   1
                l(4) =   1
                l(5) =   2
                l(6) =   3

     PseudoPot. # 2 for Ce read from file:
     /home/cwx6513/pp.La/Ce.UPF
     MD5 check sum: 44451aa79a44a00cf2bc029dc19922f6
     Pseudo is Norm-conserving, Zval = 12.0
     Generated in analytical, separable form
     Using radial grid of 1255 points,  6 beta functions with:
                l(1) =   0
                l(2) =   0
                l(3) =   1
                l(4) =   1
                l(5) =   2
                l(6) =   3

     atomic species   valence    mass     pseudopotential
        Mg            13.00    24.30500     Pr( 1.00)
        Cu            12.00    63.54600     Ce( 1.00)

     12 Sym. Ops., with inversion, found ( 6 have fractional translation)

   Cartesian axes

     site n.     atom                  positions (alat units)
         1           Mg  tau(   1) = (   1.7160422   0.9907574   0.7005105  )
         2           Mg  tau(   2) = (   1.1440282   0.6605050   0.4670431  )
         3           Cu  tau(   3) = (   0.2860070   0.1651262   0.1167554  )
         4           Cu  tau(   4) = (   0.8580211   0.1651262   0.1167554  )
         5           Cu  tau(   5) = (   0.5720141   0.6605050   0.1167554  )
         6           Cu  tau(   6) = (   0.5720141   0.3302525   0.5837768  )

     number of k points=   170  gaussian smearing, width (Ry)=  0.1000

     Number of k-points >= 100: set verbosity='high' to print them.

     Largest allocated arrays     est. size (Mb)     dimensions
     Largest temporary arrays     est. size (Mb)     dimensions

     Initial potential from superposition of free atoms
     Check: negative starting charge=   -0.001135

     starting charge   25.98109, renormalised to   74.00000

     negative rho (up, down):  0.323E-02 0.000E+00
     Starting wfc are   40 randomized atomic wfcs

     Writing output data file Prototype-La-cF24-Cu2Mg.save

     Self-consistent Calculation

[...]

     negative rho (up, down):  0.145E-04 0.000E+00

[...]

     iteration # 16     ecut=    40.00 Ry     beta=0.70
     CG style diagonalization
     ethr =  6.31E-08,  avg # of iterations =  3.7

     total energy              =    -494.52052571 Ry
     Harris-Foulkes estimate   =    -494.52053402 Ry
     estimated scf accuracy    <       0.00002495 Ry

     iteration # 17     ecut=    40.00 Ry     beta=0.70
     CG style diagonalization
     c_bands:  1 eigenvalues not converged
     ethr =  3.37E-08,  avg # of iterations =  3.8

     End of self-consistent calculation

     Number of k-points >= 100: set verbosity='high' to print the bands.

     the Fermi energy is    21.0044 ev

!    total energy              =    -494.52053133 Ry
     Harris-Foulkes estimate   =    -494.52053143 Ry
     estimated scf accuracy    <       0.00000011 Ry

     The total energy is the sum of the following terms:

     one-electron contribution =      30.68757292 Ry
     hartree contribution      =      37.53102320 Ry
     xc contribution           =     -64.79525585 Ry
     ewald contribution        =    -497.53072316 Ry
     smearing contrib. (-TS)   =      -0.41314843 Ry

     convergence has been achieved in  17 iterations

     Forces acting on atoms (Ry/au):

     atom    1 type  1   force =     0.00000000    0.00000000    0.00008278
     atom    2 type  1   force =     0.00000000    0.00000000   -0.00008278
     atom    3 type  2   force =     0.00000000    0.00000000    0.00000000
     atom    4 type  2   force =     0.00000000    0.00000000    0.00000000
     atom    5 type  2   force =     0.00000000    0.00000000    0.00000000
     atom    6 type  2   force =     0.00000000    0.00000000    0.00000000

     Total force =     0.000117     Total SCF correction =     0.000382
     SCF correction compared to forces is large: reduce conv_thr to get better values

     entering subroutine stress ...

          total   stress  (Ry/bohr**3)                   (kbar)     P=  326.69
   0.00222097   0.00000000   0.00000000        326.72      0.00      0.00
   0.00000000   0.00222097   0.00000000          0.00    326.72      0.00
   0.00000000   0.00000000   0.00222040          0.00      0.00    326.63

     Writing output data file Prototype-La-cF24-Cu2Mg.save

     General routines

     Parallel routines

   This run was terminated on:  17:31:10  22Mar2018

   JOB DONE.