     Program PWSCF v.5.0.2 starts on 22Mar2018 at 16:17:19

     Current dimensions of program PWSCF are:
     Max number of different atomic species (ntypx) = 10
     Max number of k-points (npk) =  40000
     Max angular momentum in pseudopotentials (lmaxx) =  3
     Waiting for input...
     Reading input from standard input

     Subspace diagonalization in iterative solution of the eigenvalue problem:
     a serial algorithm will be used

     bravais-lattice index     =            0
     lattice parameter (alat)  =       9.9235  a.u.
     unit-cell volume          =    1361.0366 (a.u.)^3
     number of atoms/cell      =           12
     number of atomic types    =            2
     number of electrons       =       148.00
     number of Kohn-Sham states=           89
     kinetic-energy cutoff     =      40.0000  Ry
     charge density cutoff     =     160.0000  Ry
     convergence threshold     =      1.0E-04
     mixing beta               =       0.7000
     number of iterations used =            8  plain     mixing
     Exchange-correlation      = SLA-PZ-NOGX-NOGC ( 1 1 0 0 0)
     EXX-fraction              =        0.00
     nstep                     =           50

     celldm(1)=   9.923489  celldm(2)=   0.000000  celldm(3)=   0.000000
     celldm(4)=   0.000000  celldm(5)=   0.000000  celldm(6)=   0.000000

     crystal axes: (cart. coord. in units of alat)
               a(1) = (   1.000000   0.000000   0.000000 )
               a(2) = (  -0.500000   0.866025   0.000000 )
               a(3) = (   0.000000   0.000000   1.608222 )

     reciprocal axes: (cart. coord. in units 2 pi/alat)
               b(1) = (  1.000000  0.577350  0.000000 )
               b(2) = (  0.000000  1.154701  0.000000 )
               b(3) = (  0.000000  0.000000  0.621805 )

     PseudoPot. # 1 for Pr read from file:
     /home/cwx6513/pp.La/Pr.UPF
     MD5 check sum: 70e2b4b153859e92c8c91247dfc63203
     Pseudo is Norm-conserving, Zval = 13.0
     Generated in analytical, separable form
     Using radial grid of 1255 points,  6 beta functions with:
                l(1) =   0
                l(2) =   0
                l(3) =   1
                l(4) =   1
                l(5) =   2
                l(6) =   3

     PseudoPot. # 2 for Ce read from file:
     /home/cwx6513/pp.La/Ce.UPF
     MD5 check sum: 44451aa79a44a00cf2bc029dc19922f6
     Pseudo is Norm-conserving, Zval = 12.0
     Generated in analytical, separable form
     Using radial grid of 1255 points,  6 beta functions with:
                l(1) =   0
                l(2) =   0
                l(3) =   1
                l(4) =   1
                l(5) =   2
                l(6) =   3

     atomic species   valence    mass     pseudopotential
        Mg            13.00    24.30500     Pr( 1.00)
        Zn            12.00    65.39000     Ce( 1.00)

     24 Sym. Ops., with inversion, found (12 have fractional translation)

   Cartesian axes

     site n.     atom                  positions (alat units)
         1           Mg  tau(   1) = (  -0.0000005   0.5773506   0.1003820  )
         2           Mg  tau(   2) = (   0.5000005   0.2886748   0.9044931  )
         3           Mg  tau(   3) = (   0.5000005   0.2886748   1.5078402  )
         4           Mg  tau(   4) = (  -0.0000005   0.5773506   0.7037291  )
         5           Zn  tau(   5) = (   0.0000000   0.0000000   0.0000000  )
         6           Zn  tau(   6) = (   0.0000000   0.0000000   0.8041111  )
         7           Zn  tau(   7) = (   0.0000000   0.2950739   1.2061667  )
         8           Zn  tau(   8) = (   0.7444585   0.1475370   0.4020556  )
         9           Zn  tau(   9) = (   0.2555415   0.1475370   0.4020556  )
        10           Zn  tau(  10) = (   0.2444585   0.7184884   1.2061667  )
        11           Zn  tau(  11) = (  -0.2444585   0.7184884   1.2061667  )
        12           Zn  tau(  12) = (   0.5000000   0.5709515   0.4020556  )

     number of k points=    12  gaussian smearing, width (Ry)=  0.1000
                       cart. coord. in units 2pi/alat
        k(    1) = (   0.0000000   0.0000000   0.0000000), wk =   0.0833333
        k(    2) = (   0.0000000   0.0000000   0.1554512), wk =   0.1666667
        k(    3) = (   0.0000000   0.0000000  -0.3109023), wk =   0.0833333
        k(    4) = (   0.0000000   0.3849002   0.0000000), wk =   0.1666667
        k(    5) = (   0.0000000   0.3849002   0.1554512), wk =   0.3333333
        k(    6) = (   0.0000000   0.3849002  -0.3109023), wk =   0.1666667
        k(    7) = (  -0.5000000  -0.2886751   0.0000000), wk =   0.0833333
        k(    8) = (  -0.5000000  -0.2886751   0.1554512), wk =   0.1666667
        k(    9) = (  -0.5000000  -0.2886751  -0.3109023), wk =   0.0833333
        k(   10) = (  -0.5000000   0.0962250   0.0000000), wk =   0.1666667
        k(   11) = (  -0.5000000   0.0962250   0.1554512), wk =   0.3333333
        k(   12) = (  -0.5000000   0.0962250  -0.3109023), wk =   0.1666667

     Largest allocated arrays     est. size (Mb)     dimensions
     Largest temporary arrays     est. size (Mb)     dimensions

     Initial potential from superposition of free atoms
     Check: negative starting charge=   -0.002087

     starting charge   51.96217, renormalised to  148.00000

     negative rho (up, down):  0.594E-02 0.000E+00
     Starting wfc are   80 randomized atomic wfcs

     Self-consistent Calculation

     iteration #  1     ecut=    40.00 Ry     beta=0.70
     CG style diagonalization
     c_bands:  1 eigenvalues not converged
     ethr =  1.00E-02,  avg # of iterations = 23.2

     negative rho (up, down):  0.174E-02 0.000E+00

     total energy              =    -430.18731977 Ry
     Harris-Foulkes estimate   =   -2607.20359354 Ry
     estimated scf accuracy    <    2551.82621868 Ry

[...]

     iteration #  4     ecut=    40.00 Ry     beta=0.70
     CG style diagonalization
     ethr =  1.00E-02,  avg # of iterations =  5.8

[...]

     End of self-consistent calculation

          k = 0.0000 0.0000 0.0000 (  5769 PWs)   bands (ev):

   -15.4456 -15.2809 -15.1167 -15.0170 -12.5024 -12.0811 -10.6954  -9.9042
    -9.8379  -9.8379  -9.8113  -9.8113   1.1491   2.1851   2.8435   3.3196
     3.3197   3.6848   3.6848   4.1347   4.1347   4.2010   4.2010   4.3459
     4.3673   4.7906   5.2548   6.1146   6.1146   6.1500   6.1500   6.2162
     6.2162   6.7902   7.6199   7.6200   7.6644   7.6644   8.3514  10.1578
    10.1578  10.1581  10.1657  10.1761  10.8160  10.8160  11.1409  11.1409
    20.6014  21.8135  21.8914  23.1905  23.1906  23.6425  23.8376  23.8376
    23.8850  23.8850  24.2198  24.2198  24.2727  24.2727  24.6075  24.7834
    24.7950  25.4587  25.4855  25.4855  26.2861  26.2861  27.7007  27.7007
    27.7588  27.7589  27.7865  27.8402  27.8402  28.0876  28.5747  28.5747
    28.6474  28.6474  29.1391  29.1391  29.9212  29.9212  30.4210  30.5862
    31.5484

[...]

          k =-0.5000-0.2887 0.0000 (  5800 PWs)   bands (ev):

[...]

     the Fermi energy is    27.6660 ev

!    total energy              =    -987.19134833 Ry
     Harris-Foulkes estimate   =    -987.19138840 Ry
     estimated scf accuracy    <       0.00004505 Ry

     The total energy is the sum of the following terms:

     one-electron contribution =     176.38462866 Ry
     hartree contribution      =      53.33258746 Ry
     xc contribution           =    -134.14444117 Ry
     ewald contribution        =   -1082.14649010 Ry
     smearing contrib. (-TS)   =      -0.61763318 Ry

     convergence has been achieved in  11 iterations

     Forces acting on atoms (Ry/au):

     atom    1 type  1   force =     0.00000000    0.00000000    0.01172395
     atom    2 type  1   force =     0.00000000    0.00000000    0.01172395
     atom    3 type  1   force =     0.00000000    0.00000000   -0.01172395
     atom    4 type  1   force =     0.00000000    0.00000000   -0.01172395
     atom    5 type  2   force =     0.00000000    0.00000000    0.00000000
     atom    6 type  2   force =     0.00000000    0.00000000    0.00000000
     atom    7 type  2   force =     0.00000000    0.09961964    0.00000000
     atom    8 type  2   force =    -0.08627314    0.04980982    0.00000000
     atom    9 type  2   force =     0.08627314    0.04980982    0.00000000
     atom   10 type  2   force =    -0.08627314   -0.04980982    0.00000000
     atom   11 type  2   force =     0.08627314   -0.04980982    0.00000000
     atom   12 type  2   force =     0.00000000   -0.09961964    0.00000000

     Total force =     0.245141     Total SCF correction =     0.000044

     entering subroutine stress ...

          total   stress  (Ry/bohr**3)                   (kbar)     P= 1154.49
   0.00777529   0.00000000   0.00000000       1143.78      0.00      0.00
   0.00000000   0.00777529   0.00000000          0.00   1143.78      0.00
   0.00000000   0.00000000   0.00799372          0.00      0.00   1175.92

     BFGS Geometry Optimization

     number of scf cycles    =   1
     number of bfgs steps    =   0

     enthalpy new            =    -987.1913483288 Ry

     new trust radius        =       0.5000000000 bohr
     new conv_thr            =       0.0001000000 Ry

     new unit-cell volume =   1651.16019 a.u.^3 (   244.67669 Ang^3 )

CELL_PARAMETERS (alat=  9.92348860)
   1.065913266   0.000000000   0.000000000
  -0.532956633   0.923107966   0.000000000
   0.000000000   0.000000000   1.717203317

ATOMIC_POSITIONS (crystal)
Mg       0.333333000   0.666667000   0.062667103
Mg       0.666667000   0.333333000   0.562667103
Mg       0.666667000   0.333333000   0.937332897
Mg       0.333333000   0.666667000   0.437332897
Zn       0.000000000   0.000000000   0.000000000
Zn       0.000000000   0.000000000   0.500000000
Zn       0.172326334   0.344652668   0.750000000
Zn       0.827673666   0.172326334   0.250000000
Zn       0.344652668   0.172326334   0.250000000
Zn       0.655347332   0.827673666   0.750000000
Zn       0.172326334   0.827673666   0.750000000
Zn       0.827673666   0.655347332   0.250000000

     Writing output data file Prototype-La-hP12-MgZn2.save
     Check: negative starting charge=   -0.002087
     NEW-OLD atomic charge density approx. for the potential
     NEW k-points:
        k(    1) = (   0.0000000   0.0000000   0.0000000), wk =   0.0833333
        k(    2) = (   0.0000000   0.0000000   0.1455856), wk =   0.1666667
        k(    3) = (   0.0000000   0.0000000  -0.2911711), wk =   0.0833333
        k(    4) = (   0.0000000   0.3610990   0.0000000), wk =   0.1666667
        k(    5) = (   0.0000000   0.3610990   0.1455856), wk =   0.3333333
        k(    6) = (   0.0000000   0.3610990  -0.2911711), wk =   0.1666667
        k(    7) = (  -0.4690813  -0.2708242   0.0000000), wk =   0.0833333
        k(    8) = (  -0.4690813  -0.2708242   0.1455856), wk =   0.1666667
        k(    9) = (  -0.4690813  -0.2708242  -0.2911711), wk =   0.0833333
        k(   10) = (  -0.4690813   0.0902747   0.0000000), wk =   0.1666667
        k(   11) = (  -0.4690813   0.0902747   0.1455856), wk =   0.3333333
        k(   12) = (  -0.4690813   0.0902747  -0.2911711), wk =   0.1666667
     Check: negative starting charge=   -0.006982

     negative rho (up, down):  0.465E-02 0.000E+00
     extrapolated charge  157.13022, renormalised to  148.00000

[...]

     Total force =     0.075269     Total SCF correction =     0.024173
     SCF correction compared to forces is large: reduce conv_thr to get better values

[...]

     enthalpy old            =    -987.1913483288 Ry
     enthalpy new            =    -988.5930408580 Ry

     CASE: enthalpy_new < enthalpy_old

     small trust_radius: resetting bfgs history

[...]

     number of scf cycles    =   3
     number of bfgs steps    =   2

     enthalpy old            =    -988.5930408580 Ry
     enthalpy new            =    -988.8299737040 Ry

     CASE: enthalpy_new < enthalpy_old

     Message from routine bfgs:
     history already reset at previous step: stopping
     small trust_radius: resetting bfgs history

     new trust radius        =       0.1508844737 bohr
     new conv_thr            =       0.0000084044 Ry

     new unit-cell volume =   1877.80845 a.u.^3 (   278.26250 Ang^3 )

[...]

ATOMIC_POSITIONS (crystal)
Mg       0.333333000   0.666667000   0.063045716
Mg       0.666667000   0.333333000   0.563045716
Mg       0.666667000   0.333333000   0.936954284
Mg       0.333333000   0.666667000   0.436954284
Zn       0.000000000   0.000000000   0.000000000
Zn       0.000000000   0.000000000   0.500000000
Zn       0.173552977   0.347105954   0.750000000
Zn       0.826447023   0.173552977   0.250000000
Zn       0.347105954   0.173552977   0.250000000
Zn       0.652894046   0.826447023   0.750000000
Zn       0.173552977   0.826447023   0.750000000
Zn       0.826447023   0.652894046   0.250000000

     Writing output data file Prototype-La-hP12-MgZn2.save
     Check: negative starting charge=   -0.012522
     NEW-OLD atomic charge density approx. for the potential
     NEW k-points:
        k(    1) = (   0.0000000   0.0000000   0.0000000), wk =   0.0833333
        k(    2) = (   0.0000000   0.0000000   0.1398323), wk =   0.1666667
        k(    3) = (   0.0000000   0.0000000  -0.2796646), wk =   0.0833333
        k(    4) = (   0.0000000   0.3455020   0.0000000), wk =   0.1666667
        k(    5) = (   0.0000000   0.3455020   0.1398323), wk =   0.3333333
        k(    6) = (   0.0000000   0.3455020  -0.2796646), wk =   0.1666667
        k(    7) = (  -0.4488203  -0.2591265   0.0000000), wk =   0.0833333
        k(    8) = (  -0.4488203  -0.2591265   0.1398323), wk =   0.1666667
        k(    9) = (  -0.4488203  -0.2591265  -0.2796646), wk =   0.0833333
        k(   10) = (  -0.4488203   0.0863755   0.0000000), wk =   0.1666667
        k(   11) = (  -0.4488203   0.0863755   0.1398323), wk =   0.3333333
        k(   12) = (  -0.4488203   0.0863755  -0.2796646), wk =   0.1666667
     Check: negative starting charge=   -0.010974

     negative rho (up, down):  0.504E-02 0.000E+00
     extrapolated charge  145.49578, renormalised to  148.00000

[...]

     Total force =     0.007688     Total SCF correction =     0.000802
     SCF correction compared to forces is large: reduce conv_thr to get better values

[...]

     The maximum number of steps has been reached.

     End of BFGS Geometry Optimization
Begin final coordinates
     new unit-cell volume =   1877.80845 a.u.^3 (   278.26250 Ang^3 )

CELL_PARAMETERS (alat=  9.92348860)
   1.114031619   0.000000000   0.000000000
  -0.557015809   0.964779683   0.000000000
   0.000000000   0.000000000   1.787855837

ATOMIC_POSITIONS (crystal)
Mg       0.333333000   0.666667000   0.063045716
Mg       0.666667000   0.333333000   0.563045716
Mg       0.666667000   0.333333000   0.936954284
Mg       0.333333000   0.666667000   0.436954284
Zn       0.000000000   0.000000000   0.000000000
Zn       0.000000000   0.000000000   0.500000000
Zn       0.173552977   0.347105954   0.750000000
Zn       0.826447023   0.173552977   0.250000000
Zn       0.347105954   0.173552977   0.250000000
Zn       0.652894046   0.826447023   0.750000000
Zn       0.173552977   0.826447023   0.750000000
Zn       0.826447023   0.652894046   0.250000000
End final coordinates

     A final scf calculation at the relaxed structure.
     The G-vectors are recalculated for the final unit cell
     Results may differ from those at the preceding step.

     bravais-lattice index     =            0
     lattice parameter (alat)  =       9.9235  a.u.
     unit-cell volume          =    1877.8084 (a.u.)^3
     number of atoms/cell      =           12
     number of atomic types    =            2
     number of electrons       =       148.00
     number of Kohn-Sham states=           89
     kinetic-energy cutoff     =      40.0000  Ry
     charge density cutoff     =     160.0000  Ry
     convergence threshold     =      8.4E-06
     mixing beta               =       0.7000
     number of iterations used =            8  plain     mixing
     Exchange-correlation      = SLA-PZ-NOGX-NOGC ( 1 1 0 0 0)
     EXX-fraction              =        0.00

     celldm(1)=   9.923489  celldm(2)=   0.000000  celldm(3)=   0.000000
     celldm(4)=   0.000000  celldm(5)=   0.000000  celldm(6)=   0.000000

     crystal axes: (cart. coord. in units of alat)
               a(1) = (   1.114032   0.000000   0.000000 )
               a(2) = (  -0.557016   0.964780   0.000000 )
               a(3) = (   0.000000   0.000000   1.787856 )

     reciprocal axes: (cart. coord. in units 2 pi/alat)
               b(1) = (  0.897641  0.518253  0.000000 )
               b(2) = (  0.000000  1.036506  0.000000 )
               b(3) = (  0.000000  0.000000  0.559329 )

     PseudoPot. # 1 for Pr read from file:
     /home/cwx6513/pp.La/Pr.UPF
     MD5 check sum: 70e2b4b153859e92c8c91247dfc63203
     Pseudo is Norm-conserving, Zval = 13.0
     Generated in analytical, separable form
     Using radial grid of 1255 points,  6 beta functions with:
                l(1) =   0
                l(2) =   0
                l(3) =   1
                l(4) =   1
                l(5) =   2
                l(6) =   3

     PseudoPot. # 2 for Ce read from file:
     /home/cwx6513/pp.La/Ce.UPF
     MD5 check sum: 44451aa79a44a00cf2bc029dc19922f6
     Pseudo is Norm-conserving, Zval = 12.0
     Generated in analytical, separable form
     Using radial grid of 1255 points,  6 beta functions with:
                l(1) =   0
                l(2) =   0
                l(3) =   1
                l(4) =   1
                l(5) =   2
                l(6) =   3

     atomic species   valence    mass     pseudopotential
        Mg            13.00    24.30500     Pr( 1.00)
        Zn            12.00    65.39000     Ce( 1.00)

     24 Sym. Ops., with inversion, found (12 have fractional translation)

   Cartesian axes

     site n.     atom                  positions (alat units)
         1           Mg  tau(   1) = (  -0.0000006   0.6431868   0.1127167  )
         2           Mg  tau(   2) = (   0.5570164   0.3215929   1.0066446  )
         3           Mg  tau(   3) = (   0.5570164   0.3215929   1.6751392  )
         4           Mg  tau(   4) = (  -0.0000006   0.6431868   0.7812113  )
         5           Zn  tau(   5) = (   0.0000000   0.0000000   0.0000000  )
         6           Zn  tau(   6) = (   0.0000000   0.0000000   0.8939279  )
         7           Zn  tau(   7) = (   0.0000000   0.3348808   1.3408919  )
         8           Zn  tau(   8) = (   0.8240164   0.1674404   0.4469640  )
         9           Zn  tau(   9) = (   0.2900153   0.1674404   0.4469640  )
        10           Zn  tau(  10) = (   0.2670006   0.7973393   1.3408919  )
        11           Zn  tau(  11) = (  -0.2670006   0.7973393   1.3408919  )
        12           Zn  tau(  12) = (   0.5570158   0.6298989   0.4469640  )

     number of k points=    12  gaussian smearing, width (Ry)=  0.1000
                       cart. coord. in units 2pi/alat
        k(    1) = (   0.0000000   0.0000000   0.0000000), wk =   0.0833333
        k(    2) = (   0.0000000   0.0000000   0.1398323), wk =   0.1666667
        k(    3) = (   0.0000000   0.0000000  -0.2796646), wk =   0.0833333
        k(    4) = (   0.0000000   0.3455020   0.0000000), wk =   0.1666667
        k(    5) = (   0.0000000   0.3455020   0.1398323), wk =   0.3333333
        k(    6) = (   0.0000000   0.3455020  -0.2796646), wk =   0.1666667
        k(    7) = (  -0.4488203  -0.2591265   0.0000000), wk =   0.0833333
        k(    8) = (  -0.4488203  -0.2591265   0.1398323), wk =   0.1666667
        k(    9) = (  -0.4488203  -0.2591265  -0.2796646), wk =   0.0833333
        k(   10) = (  -0.4488203   0.0863755   0.0000000), wk =   0.1666667
        k(   11) = (  -0.4488203   0.0863755   0.1398323), wk =   0.3333333
        k(   12) = (  -0.4488203   0.0863755  -0.2796646), wk =   0.1666667

     Largest allocated arrays     est. size (Mb)     dimensions
     Largest temporary arrays     est. size (Mb)     dimensions

     Initial potential from superposition of free atoms
     Check: negative starting charge=   -0.001490

     starting charge   51.96217, renormalised to  148.00000

     negative rho (up, down):  0.424E-02 0.000E+00
     Starting wfc are   80 randomized atomic wfcs

     Writing output data file Prototype-La-hP12-MgZn2.save

     Self-consistent Calculation

[...]

     negative rho (up, down):  0.245E-03 0.000E+00

[...]

     iteration # 13     ecut=    40.00 Ry     beta=0.70
     CG style diagonalization
     c_bands:  1 eigenvalues not converged
     ethr =  7.48E-07,  avg # of iterations =  3.9

[...]

     total energy              =    -989.39208889 Ry
     Harris-Foulkes estimate   =    -989.39209925 Ry
     estimated scf accuracy    <       0.00002669 Ry

     iteration # 15     ecut=    40.00 Ry     beta=0.70
     CG style diagonalization
     ethr =  1.80E-08,  avg # of iterations =  3.5

     End of self-consistent calculation

[...]

          k = 0.0000 0.3455-0.2797 (  8014 PWs)   bands (ev):

[...]

          k =-0.4488 0.0864-0.2797 (  8026 PWs)   bands (ev):

   -23.5289 -23.5288 -23.4959 -23.4959 -18.6883 -18.6883 -18.4071 -18.4071
   -17.9048 -17.9048 -17.8778 -17.8778  -3.7406  -3.7405  -3.6585  -3.6585
    -3.5297  -3.5297  -3.3637  -3.3637  -3.2858  -3.2858  -3.2403  -3.2403
    -2.4732  -2.4732  -1.6775  -1.6775  -0.9987  -0.9986  -0.8811  -0.8811
    -0.7365  -0.7365  -0.5489  -0.5489   0.0267   0.0267   0.3726   0.3726
     0.6510   0.6510   0.8684   0.8684   1.2978   1.2978   1.3961   1.3961
    15.8198  15.8198  16.1673  16.1673  16.6667  16.6667  16.8733  16.8733
    17.0846  17.0846  17.2472  17.2472  17.6076  17.6076  17.7501  17.7501
    17.9102  17.9102  18.2091  18.2091  18.4669  18.4669  18.8264  18.8264
    19.2153  19.2153  19.4022  19.4022  19.8332  19.8332  20.4010  20.4010
    20.6761  20.6761  20.7680  20.7680  21.3413  21.3413  21.6482  21.6486
    21.7936

     the Fermi energy is    19.3987 ev

!    total energy              =    -989.39209369 Ry
     Harris-Foulkes estimate   =    -989.39209490 Ry
     estimated scf accuracy    <       0.00000136 Ry

     The total energy is the sum of the following terms:

     one-electron contribution =      31.71421076 Ry
     hartree contribution      =      80.60482641 Ry
     xc contribution           =    -128.39329613 Ry
     ewald contribution        =    -972.47737612 Ry
     smearing contrib. (-TS)   =      -0.84045862 Ry

     convergence has been achieved in  15 iterations

     Forces acting on atoms (Ry/au):

     atom    1 type  1   force =     0.00000000    0.00000000    0.00202520
     atom    2 type  1   force =     0.00000000    0.00000000    0.00202520
     atom    3 type  1   force =     0.00000000    0.00000000   -0.00202520
     atom    4 type  1   force =     0.00000000    0.00000000   -0.00202520
     atom    5 type  2   force =     0.00000000    0.00000000    0.00000000
     atom    6 type  2   force =     0.00000000    0.00000000    0.00000000
     atom    7 type  2   force =     0.00000000    0.00469488    0.00000000
     atom    8 type  2   force =    -0.00406589    0.00234744    0.00000000
     atom    9 type  2   force =     0.00406589    0.00234744    0.00000000
     atom   10 type  2   force =    -0.00406589   -0.00234744    0.00000000
     atom   11 type  2   force =     0.00406589   -0.00234744    0.00000000
     atom   12 type  2   force =     0.00000000   -0.00469488    0.00000000

     Total force =     0.012193     Total SCF correction =     0.000891

     entering subroutine stress ...

          total   stress  (Ry/bohr**3)                   (kbar)     P=  176.33
   0.00122161   0.00000000   0.00000000        179.70      0.00      0.00
   0.00000000   0.00122161   0.00000000          0.00    179.70      0.00
   0.00000000   0.00000000   0.00115271          0.00      0.00    169.57

     Writing output data file Prototype-La-hP12-MgZn2.save

     General routines

     Parallel routines

   This run was terminated on:  16:52:53  22Mar2018

   JOB DONE.