     Program PWSCF v.5.0.2 starts on 22Mar2018 at 16:17:21

     Current dimensions of program PWSCF are:
     Max number of different atomic species (ntypx) = 10
     Max number of k-points (npk) =  40000
     Max angular momentum in pseudopotentials (lmaxx) =  3
     Waiting for input...
     Reading input from standard input

     Subspace diagonalization in iterative solution of the eigenvalue problem:
     a serial algorithm will be used

     bravais-lattice index     =            0
     lattice parameter (alat)  =       8.5346  a.u.
     unit-cell volume          =     621.6493 (a.u.)^3
     number of atoms/cell      =            8
     number of atomic types    =            2
     number of electrons       =       102.00
     number of Kohn-Sham states=           61
     kinetic-energy cutoff     =      40.0000  Ry
     charge density cutoff     =     160.0000  Ry
     convergence threshold     =      1.0E-04
     mixing beta               =       0.7000
     number of iterations used =            8  plain     mixing
     Exchange-correlation      = SLA-PZ-NOGX-NOGC ( 1 1 0 0 0)
     EXX-fraction              =        0.00
     nstep                     =           50

     celldm(1)=   8.534573  celldm(2)=   0.000000  celldm(3)=   0.000000
     celldm(4)=   0.000000  celldm(5)=   0.000000  celldm(6)=   0.000000

     crystal axes: (cart. coord. in units of alat)
               a(1) = (   1.000000   0.000000   0.000000 )
               a(2) = (   0.000000   1.000000   0.000000 )
               a(3) = (   0.000000   0.000000   1.000000 )

     reciprocal axes: (cart. coord. in units 2 pi/alat)
               b(1) = (  1.000000  0.000000  0.000000 )
               b(2) = (  0.000000  1.000000  0.000000 )
               b(3) = (  0.000000  0.000000  1.000000 )

     PseudoPot. # 1 for Pr read from file:
     /home/cwx6513/pp.La/Pr.UPF
     MD5 check sum: 70e2b4b153859e92c8c91247dfc63203
     Pseudo is Norm-conserving, Zval = 13.0
     Generated in analytical, separable form
     Using radial grid of 1255 points,  6 beta functions with:
                l(1) =   0
                l(2) =   0
                l(3) =   1
                l(4) =   1
                l(5) =   2
                l(6) =   3

     PseudoPot. # 2 for Ce read from file:
     /home/cwx6513/pp.La/Ce.UPF
     MD5 check sum: 44451aa79a44a00cf2bc029dc19922f6
     Pseudo is Norm-conserving, Zval = 12.0
     Generated in analytical, separable form
     Using radial grid of 1255 points,  6 beta functions with:
                l(1) =   0
                l(2) =   0
                l(3) =   1
                l(4) =   1
                l(5) =   2
                l(6) =   3

     atomic species   valence    mass     pseudopotential
        Cr            13.00    51.99610     Pr( 1.00)
        Si            12.00    28.08550     Ce( 1.00)

     48 Sym. Ops., with inversion, found (24 have fractional translation)

   Cartesian axes

     site n.     atom                  positions (alat units)
         1           Cr  tau(   1) = (   0.0000000   0.5000000   0.2500000  )
         2           Cr  tau(   2) = (   0.0000000   0.5000000   0.7500000  )
         3           Cr  tau(   3) = (   0.5000000   0.7500000   0.0000000  )
         4           Cr  tau(   4) = (   0.5000000   0.2500000   0.0000000  )
         5           Cr  tau(   5) = (   0.7500000   0.0000000   0.5000000  )
         6           Cr  tau(   6) = (   0.2500000   0.0000000   0.5000000  )
         7           Si  tau(   7) = (   0.5000000   0.5000000   0.5000000  )
         8           Si  tau(   8) = (   0.0000000   0.0000000   0.0000000  )

     number of k points=    48  gaussian smearing, width (Ry)=  0.1000
                       cart. coord. in units 2pi/alat
        k(    1) = (   0.0000000   0.0000000   0.0000000), wk =   0.0095238
        k(    2) = (   0.0000000   0.0000000   0.1428571), wk =   0.0190476
        k(    3) = (   0.0000000   0.0000000   0.2857143), wk =   0.0190476
        k(    4) = (   0.0000000   0.0000000   0.4285714), wk =   0.0190476
        k(    5) = (   0.0000000   0.1666667   0.0000000), wk =   0.0190476
        k(    6) = (   0.0000000   0.1666667   0.1428571), wk =   0.0380952
        k(    7) = (   0.0000000   0.1666667   0.2857143), wk =   0.0380952
        k(    8) = (   0.0000000   0.1666667   0.4285714), wk =   0.0380952
        k(    9) = (   0.0000000   0.3333333   0.0000000), wk =   0.0190476
        k(   10) = (   0.0000000   0.3333333   0.1428571), wk =   0.0380952
        k(   11) = (   0.0000000   0.3333333   0.2857143), wk =   0.0380952
        k(   12) = (   0.0000000   0.3333333   0.4285714), wk =   0.0380952
        k(   13) = (   0.0000000  -0.5000000   0.0000000), wk =   0.0095238
        k(   14) = (   0.0000000  -0.5000000   0.1428571), wk =   0.0190476
        k(   15) = (   0.0000000  -0.5000000   0.2857143), wk =   0.0190476
        k(   16) = (   0.0000000  -0.5000000   0.4285714), wk =   0.0190476
        k(   17) = (   0.2000000   0.0000000   0.0000000), wk =   0.0190476
        k(   18) = (   0.2000000   0.0000000   0.1428571), wk =   0.0380952
        k(   19) = (   0.2000000   0.0000000   0.2857143), wk =   0.0380952
        k(   20) = (   0.2000000   0.0000000   0.4285714), wk =   0.0380952
        k(   21) = (   0.2000000   0.1666667   0.0000000), wk =   0.0380952
        k(   22) = (   0.2000000   0.1666667   0.1428571), wk =   0.0761905
        k(   23) = (   0.2000000   0.1666667   0.2857143), wk =   0.0761905
        k(   24) = (   0.2000000   0.1666667   0.4285714), wk =   0.0761905
        k(   25) = (   0.2000000   0.3333333   0.0000000), wk =   0.0380952
        k(   26) = (   0.2000000   0.3333333   0.1428571), wk =   0.0761905
        k(   27) = (   0.2000000   0.3333333   0.2857143), wk =   0.0761905
        k(   28) = (   0.2000000   0.3333333   0.4285714), wk =   0.0761905
        k(   29) = (   0.2000000  -0.5000000   0.0000000), wk =   0.0190476
        k(   30) = (   0.2000000  -0.5000000   0.1428571), wk =   0.0380952
        k(   31) = (   0.2000000  -0.5000000   0.2857143), wk =   0.0380952
        k(   32) = (   0.2000000  -0.5000000   0.4285714), wk =   0.0380952
        k(   33) = (   0.4000000   0.0000000   0.0000000), wk =   0.0190476
        k(   34) = (   0.4000000   0.0000000   0.1428571), wk =   0.0380952
        k(   35) = (   0.4000000   0.0000000   0.2857143), wk =   0.0380952
        k(   36) = (   0.4000000   0.0000000   0.4285714), wk =   0.0380952
        k(   37) = (   0.4000000   0.1666667   0.0000000), wk =   0.0380952
        k(   38) = (   0.4000000   0.1666667   0.1428571), wk =   0.0761905
        k(   39) = (   0.4000000   0.1666667   0.2857143), wk =   0.0761905
        k(   40) = (   0.4000000   0.1666667   0.4285714), wk =   0.0761905
        k(   41) = (   0.4000000   0.3333333   0.0000000), wk =   0.0380952
        k(   42) = (   0.4000000   0.3333333   0.1428571), wk =   0.0761905
        k(   43) = (   0.4000000   0.3333333   0.2857143), wk =   0.0761905
        k(   44) = (   0.4000000   0.3333333   0.4285714), wk =   0.0761905
        k(   45) = (   0.4000000  -0.5000000   0.0000000), wk =   0.0190476
        k(   46) = (   0.4000000  -0.5000000   0.1428571), wk =   0.0380952
        k(   47) = (   0.4000000  -0.5000000   0.2857143), wk =   0.0380952
        k(   48) = (   0.4000000  -0.5000000   0.4285714), wk =   0.0380952

     Largest allocated arrays     est. size (Mb)     dimensions
     Largest temporary arrays     est. size (Mb)     dimensions

     Initial potential from superposition of free atoms

     starting charge   77.94326, renormalised to  102.00000
     Starting wfc are  120 randomized atomic wfcs

     Self-consistent Calculation

     iteration #  1     ecut=    40.00 Ry     beta=0.70
     CG style diagonalization
     c_bands:  1 eigenvalues not converged
     c_bands:  2 eigenvalues not converged
     c_bands:  2 eigenvalues not converged
     c_bands:  2 eigenvalues not converged
     c_bands:  1 eigenvalues not converged
     c_bands:  4 eigenvalues not converged
     c_bands:  4 eigenvalues not converged
     c_bands:  4 eigenvalues not converged
     c_bands:  1 eigenvalues not converged
     c_bands:  3 eigenvalues not converged
     c_bands:  2 eigenvalues not converged
     c_bands:  2 eigenvalues not converged
     c_bands:  2 eigenvalues not converged
     c_bands:  3 eigenvalues not converged
     c_bands:  2 eigenvalues not converged
     c_bands:  2 eigenvalues not converged
     c_bands:  5 eigenvalues not converged
     c_bands:  2 eigenvalues not converged
     c_bands:  3 eigenvalues not converged
     c_bands:  2 eigenvalues not converged
     c_bands:  2 eigenvalues not converged
     c_bands:  3 eigenvalues not converged
     c_bands:  2 eigenvalues not converged
     c_bands:  2 eigenvalues not converged
     c_bands:  4 eigenvalues not converged
     c_bands:  5 eigenvalues not converged
     c_bands:  4 eigenvalues not converged
     c_bands:  2 eigenvalues not converged
     c_bands:  1 eigenvalues not converged
     c_bands:  3 eigenvalues not converged
     c_bands:  2 eigenvalues not converged
     c_bands:  1 eigenvalues not converged
     c_bands:  3 eigenvalues not converged
     c_bands:  4 eigenvalues not converged
     c_bands:  4 eigenvalues not converged
     c_bands:  2 eigenvalues not converged
     c_bands:  2 eigenvalues not converged
     c_bands:  4 eigenvalues not converged
     c_bands:  2 eigenvalues not converged
     c_bands:  4 eigenvalues not converged
     c_bands:  3 eigenvalues not converged
     c_bands:  4 eigenvalues not converged
     c_bands:  3 eigenvalues not converged
     ethr =  1.00E-02,  avg # of iterations = 12.0

     total energy              =    -309.89655978 Ry
     Harris-Foulkes estimate   =    -884.80718387 Ry
     estimated scf accuracy    <     698.70534817 Ry

[...]

     iteration #  4     ecut=    40.00 Ry     beta=0.70
     CG style diagonalization
     ethr =  1.00E-02,  avg # of iterations =  3.7

[...]

     End of self-consistent calculation

          k = 0.0000 0.0000 0.0000 (  2601 PWs)   bands (ev):

    -6.6970  -4.3437  -4.3437  -1.4481  -1.4481  -1.4481   1.4611   3.0492
     9.8528   9.8528  11.5235  11.5235  11.5235  12.1907  14.8370  14.8370
    14.8370  16.1087  16.1087  16.1087  18.2313  18.2313  18.2313  21.5868
    21.5868  21.5868  21.6858  21.6858  21.6858  24.0141  24.0141  24.0141
    33.4047  33.9716  33.9716  33.9716  34.2008  34.6208  34.6208  37.5822
    37.5822  37.5822  37.8771  37.8771  40.2396  40.3827  40.3827  40.3827
    40.6269  40.6269  40.6269  41.1925  41.1925  42.0198  43.0463  43.0463
    43.0463  44.9831  44.9835  44.9857  45.1045

[...]

     the Fermi energy is    41.6503 ev

!    total energy              =    -705.92241933 Ry
     Harris-Foulkes estimate   =    -705.92242600 Ry
     estimated scf accuracy    <       0.00001305 Ry

     The total energy is the sum of the following terms:

     one-electron contribution =     253.94241151 Ry
     hartree contribution      =      19.30794100 Ry
     xc contribution           =    -100.15303251 Ry
     ewald contribution        =    -878.75614836 Ry
[...]
        k(   45) = (   0.2976156  -0.3720195   0.0000000), wk =   0.0190476
        k(   46) = (   0.2976156  -0.3720195   0.1062913), wk =   0.0380952
        k(   47) = (   0.2976156  -0.3720195   0.2125826), wk =   0.0380952
        k(   48) = (   0.2976156  -0.3720195   0.3188739), wk =   0.0380952
     Check: negative starting charge=   -0.047516

[...]

     number of scf cycles    =   3
     number of bfgs steps    =   2

     enthalpy old            =    -709.7115809684 Ry
     enthalpy new            =    -708.5934337465 Ry

     CASE: enthalpy_new > enthalpy_old

     new trust radius        =       0.5731342902 bohr

     trust_radius < trust_radius_min

     resetting bfgs history

     Message from routine bfgs:
     history already reset at previous step: stopping
     new conv_thr            =       0.0000010000 Ry

     new unit-cell volume =   1039.04180 a.u.^3 (   153.97011 Ang^3 )

[...]

ATOMIC_POSITIONS (crystal)
Cr       0.000000000   0.500000000   0.250000000
Cr       0.000000000   0.500000000   0.750000000
Cr       0.500000000   0.750000000   0.000000000
Cr       0.500000000   0.250000000   0.000000000
Cr       0.750000000   0.000000000   0.500000000
Cr       0.250000000   0.000000000   0.500000000
Si       0.500000000   0.500000000   0.500000000
Si       0.000000000   0.000000000   0.000000000

     Writing output data file Prototype-La-cP8-Cr3Si.save
     Check: negative starting charge=   -0.047516
     NEW-OLD atomic charge density approx. for the potential
     NEW k-points:
        k(    1) = (   0.0000000   0.0000000   0.0000000), wk =   0.0095238
        k(    2) = (   0.0000000   0.0000000   0.1203759), wk =   0.0190476
        k(    3) = (   0.0000000   0.0000000   0.2407517), wk =   0.0190476
        k(    4) = (   0.0000000   0.0000000   0.3611276), wk =   0.0190476
        k(    5) = (   0.0000000   0.1404385   0.0000000), wk =   0.0190476
        k(    6) = (   0.0000000   0.1404385   0.1203759), wk =   0.0380952
        k(    7) = (   0.0000000   0.1404385   0.2407517), wk =   0.0380952
        k(    8) = (   0.0000000   0.1404385   0.3611276), wk =   0.0380952
        k(    9) = (   0.0000000   0.2808770   0.0000000), wk =   0.0190476
        k(   10) = (   0.0000000   0.2808770   0.1203759), wk =   0.0380952
        k(   11) = (   0.0000000   0.2808770   0.2407517), wk =   0.0380952
        k(   12) = (   0.0000000   0.2808770   0.3611276), wk =   0.0380952
        k(   13) = (   0.0000000  -0.4213155   0.0000000), wk =   0.0095238
        k(   14) = (   0.0000000  -0.4213155   0.1203759), wk =   0.0190476
        k(   15) = (   0.0000000  -0.4213155   0.2407517), wk =   0.0190476
        k(   16) = (   0.0000000  -0.4213155   0.3611276), wk =   0.0190476
        k(   17) = (   0.1685262   0.0000000   0.0000000), wk =   0.0190476
        k(   18) = (   0.1685262   0.0000000   0.1203759), wk =   0.0380952
        k(   19) = (   0.1685262   0.0000000   0.2407517), wk =   0.0380952
        k(   20) = (   0.1685262   0.0000000   0.3611276), wk =   0.0380952
        k(   21) = (   0.1685262   0.1404385   0.0000000), wk =   0.0380952
        k(   22) = (   0.1685262   0.1404385   0.1203759), wk =   0.0761905
        k(   23) = (   0.1685262   0.1404385   0.2407517), wk =   0.0761905
        k(   24) = (   0.1685262   0.1404385   0.3611276), wk =   0.0761905
        k(   25) = (   0.1685262   0.2808770   0.0000000), wk =   0.0380952
        k(   26) = (   0.1685262   0.2808770   0.1203759), wk =   0.0761905
        k(   27) = (   0.1685262   0.2808770   0.2407517), wk =   0.0761905
        k(   28) = (   0.1685262   0.2808770   0.3611276), wk =   0.0761905
        k(   29) = (   0.1685262  -0.4213155   0.0000000), wk =   0.0190476
        k(   30) = (   0.1685262  -0.4213155   0.1203759), wk =   0.0380952
        k(   31) = (   0.1685262  -0.4213155   0.2407517), wk =   0.0380952
        k(   32) = (   0.1685262  -0.4213155   0.3611276), wk =   0.0380952
        k(   33) = (   0.3370524   0.0000000   0.0000000), wk =   0.0190476
        k(   34) = (   0.3370524   0.0000000   0.1203759), wk =   0.0380952
        k(   35) = (   0.3370524   0.0000000   0.2407517), wk =   0.0380952
        k(   36) = (   0.3370524   0.0000000   0.3611276), wk =   0.0380952
        k(   37) = (   0.3370524   0.1404385   0.0000000), wk =   0.0380952
        k(   38) = (   0.3370524   0.1404385   0.1203759), wk =   0.0761905
        k(   39) = (   0.3370524   0.1404385   0.2407517), wk =   0.0761905
        k(   40) = (   0.3370524   0.1404385   0.3611276), wk =   0.0761905
        k(   41) = (   0.3370524   0.2808770   0.0000000), wk =   0.0380952
        k(   42) = (   0.3370524   0.2808770   0.1203759), wk =   0.0761905
        k(   43) = (   0.3370524   0.2808770   0.2407517), wk =   0.0761905
        k(   44) = (   0.3370524   0.2808770   0.3611276), wk =   0.0761905
        k(   45) = (   0.3370524  -0.4213155   0.0000000), wk =   0.0190476
        k(   46) = (   0.3370524  -0.4213155   0.1203759), wk =   0.0380952
        k(   47) = (   0.3370524  -0.4213155   0.2407517), wk =   0.0380952
        k(   48) = (   0.3370524  -0.4213155   0.3611276), wk =   0.0380952
     Check: negative starting charge=   -0.020820

     negative rho (up, down):  0.456E+01 0.000E+00
     extrapolated charge   66.72831, renormalised to  102.00000

[...]

     The maximum number of steps has been reached.

     End of BFGS Geometry Optimization
Begin final coordinates
     new unit-cell volume =   1039.04180 a.u.^3 (   153.97011 Ang^3 )

CELL_PARAMETERS (alat=  8.53457320)
   1.186758997   0.000000000   0.000000000
   0.000000000   1.186758997   0.000000000
   0.000000000   0.000000000   1.186758997

ATOMIC_POSITIONS (crystal)
Cr       0.000000000   0.500000000   0.250000000
Cr       0.000000000   0.500000000   0.750000000
Cr       0.500000000   0.750000000   0.000000000
Cr       0.500000000   0.250000000   0.000000000
Cr       0.750000000   0.000000000   0.500000000
Cr       0.250000000   0.000000000   0.500000000
Si       0.500000000   0.500000000   0.500000000
Si       0.000000000   0.000000000   0.000000000
End final coordinates

     A final scf calculation at the relaxed structure.
     The G-vectors are recalculated for the final unit cell
     Results may differ from those at the preceding step.

     bravais-lattice index     =            0
     lattice parameter (alat)  =       8.5346  a.u.
     unit-cell volume          =    1039.0418 (a.u.)^3
     number of atoms/cell      =            8
     number of atomic types    =            2
     number of electrons       =       102.00
     number of Kohn-Sham states=           61
     kinetic-energy cutoff     =      40.0000  Ry
     charge density cutoff     =     160.0000  Ry
     convergence threshold     =      1.0E-06
     mixing beta               =       0.7000
     number of iterations used =            8  plain     mixing
     Exchange-correlation      = SLA-PZ-NOGX-NOGC ( 1 1 0 0 0)
     EXX-fraction              =        0.00

     celldm(1)=   8.534573  celldm(2)=   0.000000  celldm(3)=   0.000000
     celldm(4)=   0.000000  celldm(5)=   0.000000  celldm(6)=   0.000000

     crystal axes: (cart. coord. in units of alat)
               a(1) = (   1.186759   0.000000   0.000000 )
               a(2) = (   0.000000   1.186759   0.000000 )
               a(3) = (   0.000000   0.000000   1.186759 )

     reciprocal axes: (cart. coord. in units 2 pi/alat)
               b(1) = (  0.842631  0.000000  0.000000 )
               b(2) = (  0.000000  0.842631  0.000000 )
               b(3) = (  0.000000  0.000000  0.842631 )

     PseudoPot. # 1 for Pr read from file:
     /home/cwx6513/pp.La/Pr.UPF
     MD5 check sum: 70e2b4b153859e92c8c91247dfc63203
     Pseudo is Norm-conserving, Zval = 13.0
     Generated in analytical, separable form
     Using radial grid of 1255 points,  6 beta functions with:
                l(1) =   0
                l(2) =   0
                l(3) =   1
                l(4) =   1
                l(5) =   2
                l(6) =   3

     PseudoPot. # 2 for Ce read from file:
     /home/cwx6513/pp.La/Ce.UPF
     MD5 check sum: 44451aa79a44a00cf2bc029dc19922f6
     Pseudo is Norm-conserving, Zval = 12.0
     Generated in analytical, separable form
     Using radial grid of 1255 points,  6 beta functions with:
                l(1) =   0
                l(2) =   0
                l(3) =   1
                l(4) =   1
                l(5) =   2
                l(6) =   3

     atomic species   valence    mass     pseudopotential
        Cr            13.00    51.99610     Pr( 1.00)
        Si            12.00    28.08550     Ce( 1.00)

     48 Sym. Ops., with inversion, found (24 have fractional translation)

   Cartesian axes

     site n.     atom                  positions (alat units)
         1           Cr  tau(   1) = (   0.0000000   0.5933795   0.2966897  )
         2           Cr  tau(   2) = (   0.0000000   0.5933795   0.8900692  )
         3           Cr  tau(   3) = (   0.5933795   0.8900692   0.0000000  )
         4           Cr  tau(   4) = (   0.5933795   0.2966897   0.0000000  )
         5           Cr  tau(   5) = (   0.8900692   0.0000000   0.5933795  )
         6           Cr  tau(   6) = (   0.2966897   0.0000000   0.5933795  )
         7           Si  tau(   7) = (   0.5933795   0.5933795   0.5933795  )
         8           Si  tau(   8) = (   0.0000000   0.0000000   0.0000000  )

     number of k points=    48  gaussian smearing, width (Ry)=  0.1000
                       cart. coord. in units 2pi/alat
        k(    1) = (   0.0000000   0.0000000   0.0000000), wk =   0.0095238
        k(    2) = (   0.0000000   0.0000000   0.1203759), wk =   0.0190476
        k(    3) = (   0.0000000   0.0000000   0.2407517), wk =   0.0190476
        k(    4) = (   0.0000000   0.0000000   0.3611276), wk =   0.0190476
        k(    5) = (   0.0000000   0.1404385   0.0000000), wk =   0.0190476
        k(    6) = (   0.0000000   0.1404385   0.1203759), wk =   0.0380952
        k(    7) = (   0.0000000   0.1404385   0.2407517), wk =   0.0380952
        k(    8) = (   0.0000000   0.1404385   0.3611276), wk =   0.0380952
        k(    9) = (   0.0000000   0.2808770   0.0000000), wk =   0.0190476
        k(   10) = (   0.0000000   0.2808770   0.1203759), wk =   0.0380952
        k(   11) = (   0.0000000   0.2808770   0.2407517), wk =   0.0380952
        k(   12) = (   0.0000000   0.2808770   0.3611276), wk =   0.0380952
        k(   13) = (   0.0000000  -0.4213155   0.0000000), wk =   0.0095238
        k(   14) = (   0.0000000  -0.4213155   0.1203759), wk =   0.0190476
        k(   15) = (   0.0000000  -0.4213155   0.2407517), wk =   0.0190476
        k(   16) = (   0.0000000  -0.4213155   0.3611276), wk =   0.0190476
        k(   17) = (   0.1685262   0.0000000   0.0000000), wk =   0.0190476
        k(   18) = (   0.1685262   0.0000000   0.1203759), wk =   0.0380952
        k(   19) = (   0.1685262   0.0000000   0.2407517), wk =   0.0380952
        k(   20) = (   0.1685262   0.0000000   0.3611276), wk =   0.0380952
        k(   21) = (   0.1685262   0.1404385   0.0000000), wk =   0.0380952
        k(   22) = (   0.1685262   0.1404385   0.1203759), wk =   0.0761905
        k(   23) = (   0.1685262   0.1404385   0.2407517), wk =   0.0761905
        k(   24) = (   0.1685262   0.1404385   0.3611276), wk =   0.0761905
        k(   25) = (   0.1685262   0.2808770   0.0000000), wk =   0.0380952
        k(   26) = (   0.1685262   0.2808770   0.1203759), wk =   0.0761905
        k(   27) = (   0.1685262   0.2808770   0.2407517), wk =   0.0761905
        k(   28) = (   0.1685262   0.2808770   0.3611276), wk =   0.0761905
        k(   29) = (   0.1685262  -0.4213155   0.0000000), wk =   0.0190476
        k(   30) = (   0.1685262  -0.4213155   0.1203759), wk =   0.0380952
        k(   31) = (   0.1685262  -0.4213155   0.2407517), wk =   0.0380952
        k(   32) = (   0.1685262  -0.4213155   0.3611276), wk =   0.0380952
        k(   33) = (   0.3370524   0.0000000   0.0000000), wk =   0.0190476
        k(   34) = (   0.3370524   0.0000000   0.1203759), wk =   0.0380952
        k(   35) = (   0.3370524   0.0000000   0.2407517), wk =   0.0380952
        k(   36) = (   0.3370524   0.0000000   0.3611276), wk =   0.0380952
        k(   37) = (   0.3370524   0.1404385   0.0000000), wk =   0.0380952
        k(   38) = (   0.3370524   0.1404385   0.1203759), wk =   0.0761905
        k(   39) = (   0.3370524   0.1404385   0.2407517), wk =   0.0761905
        k(   40) = (   0.3370524   0.1404385   0.3611276), wk =   0.0761905
        k(   41) = (   0.3370524   0.2808770   0.0000000), wk =   0.0380952
        k(   42) = (   0.3370524   0.2808770   0.1203759), wk =   0.0761905
        k(   43) = (   0.3370524   0.2808770   0.2407517), wk =   0.0761905
        k(   44) = (   0.3370524   0.2808770   0.3611276), wk =   0.0761905
        k(   45) = (   0.3370524  -0.4213155   0.0000000), wk =   0.0190476
        k(   46) = (   0.3370524  -0.4213155   0.1203759), wk =   0.0380952
        k(   47) = (   0.3370524  -0.4213155   0.2407517), wk =   0.0380952
        k(   48) = (   0.3370524  -0.4213155   0.3611276), wk =   0.0380952

     Largest allocated arrays     est. size (Mb)     dimensions
     Largest temporary arrays     est. size (Mb)     dimensions

     Initial potential from superposition of free atoms
     Check: negative starting charge=   -0.001292

     starting charge   77.94326, renormalised to  102.00000

     negative rho (up, down):  0.169E-02 0.000E+00
     Starting wfc are  120 randomized atomic wfcs

     Writing output data file Prototype-La-cP8-Cr3Si.save

     Self-consistent Calculation

[...]

     negative rho (up, down):  0.167E-03 0.000E+00

[...]

     iteration # 16     ecut=    40.00 Ry     beta=0.70
     CG style diagonalization
     c_bands:  1 eigenvalues not converged
     ethr =  1.62E-08,  avg # of iterations =  3.0

[...]

     total energy              =    -711.61343400 Ry
     Harris-Foulkes estimate   =    -711.61344131 Ry
     estimated scf accuracy    <       0.00000768 Ry

     iteration # 21     ecut=    40.00 Ry     beta=0.70
     CG style diagonalization
     ethr =  3.23E-09,  avg # of iterations =  3.8

     End of self-consistent calculation

[...]

          k = 0.3371-0.4213 0.3611 (  4454 PWs)   bands (ev):

   -18.9036 -18.8717 -18.7633 -18.7615 -18.6588 -18.6229 -13.4254 -13.4254
    -0.1984  -0.0259   0.3584   0.3584   0.5053   0.5122   0.6753   0.7313
     1.2692   1.2973   1.3971   1.3974   1.5850   1.6052   1.6416   1.6661
     1.6768   1.7337   4.6850   4.6883   4.7203   4.7473   4.7513   4.7610
    19.9583  19.9999  20.2459  20.2598  20.4818  20.5780  21.1299  21.1376
    21.2878  21.2974  21.7039  21.7482  21.9219  21.9454  22.4644  22.5249
    23.8553  23.8557  24.3841  24.5743  25.1321  25.1544  25.6345  25.7892
    26.1196  26.1464  26.6220  26.6613  27.5048

     the Fermi energy is    24.1991 ev

!    total energy              =    -711.61343497 Ry
     Harris-Foulkes estimate   =    -711.61343506 Ry
     estimated scf accuracy    <       0.00000011 Ry

     The total energy is the sum of the following terms:

     one-electron contribution =      75.34275547 Ry
     hartree contribution      =      45.95929742 Ry
     xc contribution           =     -91.99418407 Ry
     ewald contribution        =    -740.46723114 Ry
     smearing contrib. (-TS)   =      -0.45407266 Ry

     convergence has been achieved in  21 iterations

     Forces acting on atoms (Ry/au):

     atom    1 type  1   force =     0.00000000    0.00000000    0.00000000
     atom    2 type  1   force =     0.00000000    0.00000000    0.00000000
     atom    3 type  1   force =     0.00000000    0.00000000    0.00000000
     atom    4 type  1   force =     0.00000000    0.00000000    0.00000000
     atom    5 type  1   force =     0.00000000    0.00000000    0.00000000
     atom    6 type  1   force =     0.00000000    0.00000000    0.00000000
     atom    7 type  2   force =     0.00000000    0.00000000    0.00000000
     atom    8 type  2   force =     0.00000000    0.00000000    0.00000000

     Total force =     0.000000     Total SCF correction =     0.000000

     entering subroutine stress ...

          total   stress  (Ry/bohr**3)                   (kbar)     P=  497.23
   0.00338008   0.00000000   0.00000000        497.23      0.00      0.00
   0.00000000   0.00338008   0.00000000          0.00    497.23      0.00
   0.00000000   0.00000000   0.00338008          0.00      0.00    497.23

     Writing output data file Prototype-La-cP8-Cr3Si.save

     General routines

     Parallel routines

   This run was terminated on:  16:46:34  22Mar2018

   JOB DONE.