     Program PWSCF v.5.0.2 starts on 22Mar2018 at 17:32:57

     Current dimensions of program PWSCF are:
     Max number of different atomic species (ntypx) = 10
     Max number of k-points (npk) =  40000
     Max angular momentum in pseudopotentials (lmaxx) =  3
     Waiting for input...
     Reading input from standard input

     Subspace diagonalization in iterative solution of the eigenvalue problem:
     a serial algorithm will be used

     bravais-lattice index     =            0
     lattice parameter (alat)  =       8.5346  a.u.
     unit-cell volume          =     621.6493 (a.u.)^3
     number of atoms/cell      =            8
     number of atomic types    =            2
     number of electrons       =       120.00
     number of Kohn-Sham states=           72
     kinetic-energy cutoff     =      40.0000  Ry
     charge density cutoff     =     160.0000  Ry
     convergence threshold     =      1.0E-04
     mixing beta               =       0.7000
     number of iterations used =            8  plain     mixing
     Exchange-correlation      = SLA-PZ-NOGX-NOGC ( 1 1 0 0 0)
     EXX-fraction              =        0.00
     nstep                     =           50

     celldm(1)=   8.534573  celldm(2)=   0.000000  celldm(3)=   0.000000
     celldm(4)=   0.000000  celldm(5)=   0.000000  celldm(6)=   0.000000

     crystal axes: (cart. coord. in units of alat)
               a(1) = (   1.000000   0.000000   0.000000 )
               a(2) = (   0.000000   1.000000   0.000000 )
               a(3) = (   0.000000   0.000000   1.000000 )

     reciprocal axes: (cart. coord. in units 2 pi/alat)
               b(1) = (  1.000000  0.000000  0.000000 )
               b(2) = (  0.000000  1.000000  0.000000 )
               b(3) = (  0.000000  0.000000  1.000000 )

     PseudoPot. # 1 for Nd read from file:
     /home/cwx6513/pp.La/Nd.UPF
     MD5 check sum: c66c5b6abe7b5840ced9b1e244e3bed6
     Pseudo is Norm-conserving, Zval = 14.0
     Generated in analytical, separable form
     Using radial grid of 1257 points,  6 beta functions with:
                l(1) =   0
                l(2) =   0
                l(3) =   1
                l(4) =   1
                l(5) =   2
                l(6) =   3

     PseudoPot. # 2 for Gd read from file:
     /home/cwx6513/pp.La/Gd.UPF
     MD5 check sum: 09a8be538722f05520810cb6aac0efd2
     Pseudo is Norm-conserving, Zval = 18.0
     Generated in analytical, separable form
     Using radial grid of 1263 points,  6 beta functions with:
                l(1) =   0
                l(2) =   0
                l(3) =   1
                l(4) =   1
                l(5) =   2
                l(6) =   3

     atomic species   valence    mass     pseudopotential
        Cr            14.00    51.99610     Nd( 1.00)
        Si            18.00    28.08550     Gd( 1.00)

     48 Sym. Ops., with inversion, found (24 have fractional translation)

   Cartesian axes

     site n.     atom                  positions (alat units)
         1           Cr  tau(   1) = (   0.0000000   0.5000000   0.2500000  )
         2           Cr  tau(   2) = (   0.0000000   0.5000000   0.7500000  )
         3           Cr  tau(   3) = (   0.5000000   0.7500000   0.0000000  )
         4           Cr  tau(   4) = (   0.5000000   0.2500000   0.0000000  )
         5           Cr  tau(   5) = (   0.7500000   0.0000000   0.5000000  )
         6           Cr  tau(   6) = (   0.2500000   0.0000000   0.5000000  )
         7           Si  tau(   7) = (   0.5000000   0.5000000   0.5000000  )
         8           Si  tau(   8) = (   0.0000000   0.0000000   0.0000000  )

     number of k points=    48  gaussian smearing, width (Ry)=  0.1000
                       cart. coord. in units 2pi/alat
        k(    1) = (   0.0000000   0.0000000   0.0000000), wk =   0.0095238
        k(    2) = (   0.0000000   0.0000000   0.1428571), wk =   0.0190476
        k(    3) = (   0.0000000   0.0000000   0.2857143), wk =   0.0190476
        k(    4) = (   0.0000000   0.0000000   0.4285714), wk =   0.0190476
        k(    5) = (   0.0000000   0.1666667   0.0000000), wk =   0.0190476
        k(    6) = (   0.0000000   0.1666667   0.1428571), wk =   0.0380952
        k(    7) = (   0.0000000   0.1666667   0.2857143), wk =   0.0380952
        k(    8) = (   0.0000000   0.1666667   0.4285714), wk =   0.0380952
        k(    9) = (   0.0000000   0.3333333   0.0000000), wk =   0.0190476
        k(   10) = (   0.0000000   0.3333333   0.1428571), wk =   0.0380952
        k(   11) = (   0.0000000   0.3333333   0.2857143), wk =   0.0380952
        k(   12) = (   0.0000000   0.3333333   0.4285714), wk =   0.0380952
        k(   13) = (   0.0000000  -0.5000000   0.0000000), wk =   0.0095238
        k(   14) = (   0.0000000  -0.5000000   0.1428571), wk =   0.0190476
        k(   15) = (   0.0000000  -0.5000000   0.2857143), wk =   0.0190476
        k(   16) = (   0.0000000  -0.5000000   0.4285714), wk =   0.0190476
        k(   17) = (   0.2000000   0.0000000   0.0000000), wk =   0.0190476
        k(   18) = (   0.2000000   0.0000000   0.1428571), wk =   0.0380952
        k(   19) = (   0.2000000   0.0000000   0.2857143), wk =   0.0380952
        k(   20) = (   0.2000000   0.0000000   0.4285714), wk =   0.0380952
        k(   21) = (   0.2000000   0.1666667   0.0000000), wk =   0.0380952
        k(   22) = (   0.2000000   0.1666667   0.1428571), wk =   0.0761905
        k(   23) = (   0.2000000   0.1666667   0.2857143), wk =   0.0761905
        k(   24) = (   0.2000000   0.1666667   0.4285714), wk =   0.0761905
        k(   25) = (   0.2000000   0.3333333   0.0000000), wk =   0.0380952
        k(   26) = (   0.2000000   0.3333333   0.1428571), wk =   0.0761905
        k(   27) = (   0.2000000   0.3333333   0.2857143), wk =   0.0761905
        k(   28) = (   0.2000000   0.3333333   0.4285714), wk =   0.0761905
        k(   29) = (   0.2000000  -0.5000000   0.0000000), wk =   0.0190476
        k(   30) = (   0.2000000  -0.5000000   0.1428571), wk =   0.0380952
        k(   31) = (   0.2000000  -0.5000000   0.2857143), wk =   0.0380952
        k(   32) = (   0.2000000  -0.5000000   0.4285714), wk =   0.0380952
        k(   33) = (   0.4000000   0.0000000   0.0000000), wk =   0.0190476
        k(   34) = (   0.4000000   0.0000000   0.1428571), wk =   0.0380952
        k(   35) = (   0.4000000   0.0000000   0.2857143), wk =   0.0380952
        k(   36) = (   0.4000000   0.0000000   0.4285714), wk =   0.0380952
        k(   37) = (   0.4000000   0.1666667   0.0000000), wk =   0.0380952
        k(   38) = (   0.4000000   0.1666667   0.1428571), wk =   0.0761905
        k(   39) = (   0.4000000   0.1666667   0.2857143), wk =   0.0761905
        k(   40) = (   0.4000000   0.1666667   0.4285714), wk =   0.0761905
        k(   41) = (   0.4000000   0.3333333   0.0000000), wk =   0.0380952
        k(   42) = (   0.4000000   0.3333333   0.1428571), wk =   0.0761905
        k(   43) = (   0.4000000   0.3333333   0.2857143), wk =   0.0761905
        k(   44) = (   0.4000000   0.3333333   0.4285714), wk =   0.0761905
        k(   45) = (   0.4000000  -0.5000000   0.0000000), wk =   0.0190476
        k(   46) = (   0.4000000  -0.5000000   0.1428571), wk =   0.0380952
        k(   47) = (   0.4000000  -0.5000000   0.2857143), wk =   0.0380952
        k(   48) = (   0.4000000  -0.5000000   0.4285714), wk =   0.0380952

     Largest allocated arrays     est. size (Mb)     dimensions
     Largest temporary arrays     est. size (Mb)     dimensions

     Initial potential from superposition of free atoms

     Starting from uniform charge
     Starting wfc are    0 randomized atomic wfcs

     Self-consistent Calculation

     iteration #  1     ecut=    40.00 Ry     beta=0.70
     CG style diagonalization
     c_bands:  1 eigenvalues not converged
     c_bands:  1 eigenvalues not converged
     c_bands:  1 eigenvalues not converged
     c_bands:  1 eigenvalues not converged
     c_bands:  2 eigenvalues not converged
     c_bands:  1 eigenvalues not converged
     c_bands:  1 eigenvalues not converged
     c_bands:  3 eigenvalues not converged
     c_bands:  1 eigenvalues not converged
     c_bands:  1 eigenvalues not converged
     c_bands:  1 eigenvalues not converged
     c_bands:  1 eigenvalues not converged
     c_bands:  1 eigenvalues not converged
     c_bands:  1 eigenvalues not converged
     c_bands:  1 eigenvalues not converged
     c_bands:  1 eigenvalues not converged
     c_bands:  1 eigenvalues not converged
     c_bands:  2 eigenvalues not converged
     c_bands:  1 eigenvalues not converged
     c_bands:  1 eigenvalues not converged
     c_bands:  1 eigenvalues not converged
     ethr =  1.00E-02,  avg # of iterations = 11.3

     total energy              =    -752.84240821 Ry
     Harris-Foulkes estimate   =   -1169.08622359 Ry
     estimated scf accuracy    <     509.71068115 Ry

[...]

     iteration #  4     ecut=    40.00 Ry     beta=0.70
     CG style diagonalization
     ethr =  1.00E-02,  avg # of iterations =  3.8

[...]

     End of self-consistent calculation

          k = 0.0000 0.0000 0.0000 (  2601 PWs)   bands (ev):

   -27.9918 -27.9792  -7.9708  -6.7211  -6.7211  -4.4015  -4.4015  -4.4015
     0.3435   0.3435   0.3435   0.4024   0.4024   0.4024   9.3680   9.3680
    10.6164  13.1707  13.1707  13.1707  15.3072  15.3072  15.3072  16.7209
    16.7209  16.7209  16.9568  16.9568  16.9568  21.2449  21.2449  21.2449
    32.7746  32.7746  33.3662  33.3662  33.3662  33.6768  34.9492  35.2151
    35.2151  35.2151  35.3512  35.3512  35.5681  35.5681  35.5681  35.7107
    37.6548  37.6548  37.6548  38.0050  38.0050  39.2375  42.1664  42.1664
    42.1664  42.5354  42.5354  43.8875  43.8875  43.8875  44.5754  44.5754
    44.5754  48.1213  48.1214  48.5581  48.5582  48.5582  48.7005  49.6051

[...]

     the Fermi energy is    43.6988 ev

!    total energy              =   -1059.43095870 Ry
     Harris-Foulkes estimate   =   -1059.43097050 Ry
     estimated scf accuracy    <       0.00001273 Ry

     The total energy is the sum of the following terms:

     one-electron contribution =     236.39890428 Ry
     hartree contribution      =      56.40740624 Ry
     xc contribution           =    -128.17980918 Ry
     ewald contribution        =   -1223.77289839 Ry
     smearing contrib. (-TS)   =      -0.28456165 Ry

     convergence has been achieved in   9 iterations

     Forces acting on atoms (Ry/au):

     atom    1 type  1   force =     0.00000000    0.00000000    0.00000000
     atom    2 type  1   force =     0.00000000    0.00000000    0.00000000
     atom    3 type  1   force =     0.00000000    0.00000000    0.00000000
     atom    4 type  1   force =     0.00000000    0.00000000    0.00000000
     atom    5 type  1   force =     0.00000000    0.00000000    0.00000000
     atom    6 type  1   force =     0.00000000    0.00000000    0.00000000
     atom    7 type  2   force =     0.00000000    0.00000000    0.00000000
     atom    8 type  2   force =     0.00000000    0.00000000    0.00000000

     Total force =     0.000000     Total SCF correction =     0.000000

     entering subroutine stress ...

[...]

[...]

     enthalpy old            =   -1059.4309586986 Ry
     enthalpy new            =   -1063.1411787024 Ry

     CASE: enthalpy_new < enthalpy_old

     small trust_radius: resetting bfgs history

     new trust radius        =       1.0227391692 bohr
     new conv_thr            =       0.0000010000 Ry

[...]

          total   stress  (Ry/bohr**3)                   (kbar)     P=-1184.12
  -0.00804948   0.00000000   0.00000000      -1184.12      0.00      0.00
   0.00000000  -0.00804948   0.00000000          0.00  -1184.12      0.00
   0.00000000   0.00000000  -0.00804948          0.00      0.00  -1184.12

     number of scf cycles    =   3
     number of bfgs steps    =   2

     enthalpy old            =   -1063.1411787024 Ry
     enthalpy new            =   -1061.4642290444 Ry

     CASE: enthalpy_new > enthalpy_old

     new trust radius        =       0.3616718803 bohr

     trust_radius < trust_radius_min

     resetting bfgs history

     Message from routine bfgs:
     history already reset at previous step: stopping
     new conv_thr            =       0.0000010000 Ry

     new unit-cell volume =   1043.23538 a.u.^3 (   154.59153 Ang^3 )

[...]

ATOMIC_POSITIONS (crystal)
Cr       0.000000000   0.500000000   0.250000000
Cr       0.000000000   0.500000000   0.750000000
Cr       0.500000000   0.750000000   0.000000000
Cr       0.500000000   0.250000000   0.000000000
Cr       0.750000000   0.000000000   0.500000000
Cr       0.250000000   0.000000000   0.500000000
Si       0.500000000   0.500000000   0.500000000
Si       0.000000000   0.000000000   0.000000000

     Writing output data file Prototype-La-cP8-Cr3Si.save
     NEW-OLD atomic charge density approx. for the potential
     NEW k-points:
        k(    1) = (   0.0000000   0.0000000   0.0000000), wk =   0.0095238
        k(    2) = (   0.0000000   0.0000000   0.1202144), wk =   0.0190476
        k(    3) = (   0.0000000   0.0000000   0.2404287), wk =   0.0190476
        k(    4) = (   0.0000000   0.0000000   0.3606431), wk =   0.0190476
        k(    5) = (   0.0000000   0.1402501   0.0000000), wk =   0.0190476
        k(    6) = (   0.0000000   0.1402501   0.1202144), wk =   0.0380952
        k(    7) = (   0.0000000   0.1402501   0.2404287), wk =   0.0380952
        k(    8) = (   0.0000000   0.1402501   0.3606431), wk =   0.0380952
        k(    9) = (   0.0000000   0.2805002   0.0000000), wk =   0.0190476
        k(   10) = (   0.0000000   0.2805002   0.1202144), wk =   0.0380952
        k(   11) = (   0.0000000   0.2805002   0.2404287), wk =   0.0380952
        k(   12) = (   0.0000000   0.2805002   0.3606431), wk =   0.0380952
        k(   13) = (   0.0000000  -0.4207502   0.0000000), wk =   0.0095238
        k(   14) = (   0.0000000  -0.4207502   0.1202144), wk =   0.0190476
        k(   15) = (   0.0000000  -0.4207502   0.2404287), wk =   0.0190476
        k(   16) = (   0.0000000  -0.4207502   0.3606431), wk =   0.0190476
        k(   17) = (   0.1683001   0.0000000   0.0000000), wk =   0.0190476
        k(   18) = (   0.1683001   0.0000000   0.1202144), wk =   0.0380952
        k(   19) = (   0.1683001   0.0000000   0.2404287), wk =   0.0380952
        k(   20) = (   0.1683001   0.0000000   0.3606431), wk =   0.0380952
        k(   21) = (   0.1683001   0.1402501   0.0000000), wk =   0.0380952
        k(   22) = (   0.1683001   0.1402501   0.1202144), wk =   0.0761905
        k(   23) = (   0.1683001   0.1402501   0.2404287), wk =   0.0761905
        k(   24) = (   0.1683001   0.1402501   0.3606431), wk =   0.0761905
        k(   25) = (   0.1683001   0.2805002   0.0000000), wk =   0.0380952
        k(   26) = (   0.1683001   0.2805002   0.1202144), wk =   0.0761905
        k(   27) = (   0.1683001   0.2805002   0.2404287), wk =   0.0761905
        k(   28) = (   0.1683001   0.2805002   0.3606431), wk =   0.0761905
        k(   29) = (   0.1683001  -0.4207502   0.0000000), wk =   0.0190476
        k(   30) = (   0.1683001  -0.4207502   0.1202144), wk =   0.0380952
        k(   31) = (   0.1683001  -0.4207502   0.2404287), wk =   0.0380952
        k(   32) = (   0.1683001  -0.4207502   0.3606431), wk =   0.0380952
        k(   33) = (   0.3366002   0.0000000   0.0000000), wk =   0.0190476
        k(   34) = (   0.3366002   0.0000000   0.1202144), wk =   0.0380952
        k(   35) = (   0.3366002   0.0000000   0.2404287), wk =   0.0380952
        k(   36) = (   0.3366002   0.0000000   0.3606431), wk =   0.0380952
        k(   37) = (   0.3366002   0.1402501   0.0000000), wk =   0.0380952
        k(   38) = (   0.3366002   0.1402501   0.1202144), wk =   0.0761905
        k(   39) = (   0.3366002   0.1402501   0.2404287), wk =   0.0761905
        k(   40) = (   0.3366002   0.1402501   0.3606431), wk =   0.0761905
        k(   41) = (   0.3366002   0.2805002   0.0000000), wk =   0.0380952
        k(   42) = (   0.3366002   0.2805002   0.1202144), wk =   0.0761905
        k(   43) = (   0.3366002   0.2805002   0.2404287), wk =   0.0761905
        k(   44) = (   0.3366002   0.2805002   0.3606431), wk =   0.0761905
        k(   45) = (   0.3366002  -0.4207502   0.0000000), wk =   0.0190476
        k(   46) = (   0.3366002  -0.4207502   0.1202144), wk =   0.0380952
        k(   47) = (   0.3366002  -0.4207502   0.2404287), wk =   0.0380952
        k(   48) = (   0.3366002  -0.4207502   0.3606431), wk =   0.0380952

[...]

     The maximum number of steps has been reached.

     End of BFGS Geometry Optimization
Begin final coordinates
     new unit-cell volume =   1043.23538 a.u.^3 (   154.59153 Ang^3 )

CELL_PARAMETERS (alat=  8.53457320)
   1.188353443   0.000000000   0.000000000
   0.000000000   1.188353443   0.000000000
   0.000000000   0.000000000   1.188353443

ATOMIC_POSITIONS (crystal)
Cr       0.000000000   0.500000000   0.250000000
Cr       0.000000000   0.500000000   0.750000000
Cr       0.500000000   0.750000000   0.000000000
Cr       0.500000000   0.250000000   0.000000000
Cr       0.750000000   0.000000000   0.500000000
Cr       0.250000000   0.000000000   0.500000000
Si       0.500000000   0.500000000   0.500000000
Si       0.000000000   0.000000000   0.000000000
End final coordinates

     A final scf calculation at the relaxed structure.
     The G-vectors are recalculated for the final unit cell
     Results may differ from those at the preceding step.

     bravais-lattice index     =            0
     lattice parameter (alat)  =       8.5346  a.u.
     unit-cell volume          =    1043.2354 (a.u.)^3
     number of atoms/cell      =            8
     number of atomic types    =            2
     number of electrons       =       120.00
     number of Kohn-Sham states=           72
     kinetic-energy cutoff     =      40.0000  Ry
     charge density cutoff     =     160.0000  Ry
     convergence threshold     =      1.0E-06
     mixing beta               =       0.7000
     number of iterations used =            8  plain     mixing
     Exchange-correlation      = SLA-PZ-NOGX-NOGC ( 1 1 0 0 0)
     EXX-fraction              =        0.00

     celldm(1)=   8.534573  celldm(2)=   0.000000  celldm(3)=   0.000000
     celldm(4)=   0.000000  celldm(5)=   0.000000  celldm(6)=   0.000000

     crystal axes: (cart. coord. in units of alat)
               a(1) = (   1.188353   0.000000   0.000000 )
               a(2) = (   0.000000   1.188353   0.000000 )
               a(3) = (   0.000000   0.000000   1.188353 )

     reciprocal axes: (cart. coord. in units 2 pi/alat)
               b(1) = (  0.841500  0.000000  0.000000 )
               b(2) = (  0.000000  0.841500  0.000000 )
               b(3) = (  0.000000  0.000000  0.841500 )

     PseudoPot. # 1 for Nd read from file:
     /home/cwx6513/pp.La/Nd.UPF
     MD5 check sum: c66c5b6abe7b5840ced9b1e244e3bed6
     Pseudo is Norm-conserving, Zval = 14.0
     Generated in analytical, separable form
     Using radial grid of 1257 points,  6 beta functions with:
                l(1) =   0
                l(2) =   0
                l(3) =   1
                l(4) =   1
                l(5) =   2
                l(6) =   3

     PseudoPot. # 2 for Gd read from file:
     /home/cwx6513/pp.La/Gd.UPF
     MD5 check sum: 09a8be538722f05520810cb6aac0efd2
     Pseudo is Norm-conserving, Zval = 18.0
     Generated in analytical, separable form
     Using radial grid of 1263 points,  6 beta functions with:
                l(1) =   0
                l(2) =   0
                l(3) =   1
                l(4) =   1
                l(5) =   2
                l(6) =   3

     atomic species   valence    mass     pseudopotential
        Cr            14.00    51.99610     Nd( 1.00)
        Si            18.00    28.08550     Gd( 1.00)

     48 Sym. Ops., with inversion, found (24 have fractional translation)

   Cartesian axes

     site n.     atom                  positions (alat units)
         1           Cr  tau(   1) = (   0.0000000   0.5941767   0.2970884  )
         2           Cr  tau(   2) = (   0.0000000   0.5941767   0.8912651  )
         3           Cr  tau(   3) = (   0.5941767   0.8912651   0.0000000  )
         4           Cr  tau(   4) = (   0.5941767   0.2970884   0.0000000  )
         5           Cr  tau(   5) = (   0.8912651   0.0000000   0.5941767  )
         6           Cr  tau(   6) = (   0.2970884   0.0000000   0.5941767  )
         7           Si  tau(   7) = (   0.5941767   0.5941767   0.5941767  )
         8           Si  tau(   8) = (   0.0000000   0.0000000   0.0000000  )

     number of k points=    48  gaussian smearing, width (Ry)=  0.1000
                       cart. coord. in units 2pi/alat
        k(    1) = (   0.0000000   0.0000000   0.0000000), wk =   0.0095238
        k(    2) = (   0.0000000   0.0000000   0.1202144), wk =   0.0190476
        k(    3) = (   0.0000000   0.0000000   0.2404287), wk =   0.0190476
        k(    4) = (   0.0000000   0.0000000   0.3606431), wk =   0.0190476
        k(    5) = (   0.0000000   0.1402501   0.0000000), wk =   0.0190476
        k(    6) = (   0.0000000   0.1402501   0.1202144), wk =   0.0380952
        k(    7) = (   0.0000000   0.1402501   0.2404287), wk =   0.0380952
        k(    8) = (   0.0000000   0.1402501   0.3606431), wk =   0.0380952
        k(    9) = (   0.0000000   0.2805002   0.0000000), wk =   0.0190476
        k(   10) = (   0.0000000   0.2805002   0.1202144), wk =   0.0380952
        k(   11) = (   0.0000000   0.2805002   0.2404287), wk =   0.0380952
        k(   12) = (   0.0000000   0.2805002   0.3606431), wk =   0.0380952
        k(   13) = (   0.0000000  -0.4207502   0.0000000), wk =   0.0095238
        k(   14) = (   0.0000000  -0.4207502   0.1202144), wk =   0.0190476
        k(   15) = (   0.0000000  -0.4207502   0.2404287), wk =   0.0190476
        k(   16) = (   0.0000000  -0.4207502   0.3606431), wk =   0.0190476
        k(   17) = (   0.1683001   0.0000000   0.0000000), wk =   0.0190476
        k(   18) = (   0.1683001   0.0000000   0.1202144), wk =   0.0380952
        k(   19) = (   0.1683001   0.0000000   0.2404287), wk =   0.0380952
        k(   20) = (   0.1683001   0.0000000   0.3606431), wk =   0.0380952
        k(   21) = (   0.1683001   0.1402501   0.0000000), wk =   0.0380952
        k(   22) = (   0.1683001   0.1402501   0.1202144), wk =   0.0761905
        k(   23) = (   0.1683001   0.1402501   0.2404287), wk =   0.0761905
        k(   24) = (   0.1683001   0.1402501   0.3606431), wk =   0.0761905
        k(   25) = (   0.1683001   0.2805002   0.0000000), wk =   0.0380952
        k(   26) = (   0.1683001   0.2805002   0.1202144), wk =   0.0761905
        k(   27) = (   0.1683001   0.2805002   0.2404287), wk =   0.0761905
        k(   28) = (   0.1683001   0.2805002   0.3606431), wk =   0.0761905
        k(   29) = (   0.1683001  -0.4207502   0.0000000), wk =   0.0190476
        k(   30) = (   0.1683001  -0.4207502   0.1202144), wk =   0.0380952
        k(   31) = (   0.1683001  -0.4207502   0.2404287), wk =   0.0380952
        k(   32) = (   0.1683001  -0.4207502   0.3606431), wk =   0.0380952
        k(   33) = (   0.3366002   0.0000000   0.0000000), wk =   0.0190476
        k(   34) = (   0.3366002   0.0000000   0.1202144), wk =   0.0380952
        k(   35) = (   0.3366002   0.0000000   0.2404287), wk =   0.0380952
        k(   36) = (   0.3366002   0.0000000   0.3606431), wk =   0.0380952
        k(   37) = (   0.3366002   0.1402501   0.0000000), wk =   0.0380952
        k(   38) = (   0.3366002   0.1402501   0.1202144), wk =   0.0761905
        k(   39) = (   0.3366002   0.1402501   0.2404287), wk =   0.0761905
        k(   40) = (   0.3366002   0.1402501   0.3606431), wk =   0.0761905
        k(   41) = (   0.3366002   0.2805002   0.0000000), wk =   0.0380952
        k(   42) = (   0.3366002   0.2805002   0.1202144), wk =   0.0761905
        k(   43) = (   0.3366002   0.2805002   0.2404287), wk =   0.0761905
        k(   44) = (   0.3366002   0.2805002   0.3606431), wk =   0.0761905
        k(   45) = (   0.3366002  -0.4207502   0.0000000), wk =   0.0190476
        k(   46) = (   0.3366002  -0.4207502   0.1202144), wk =   0.0380952
        k(   47) = (   0.3366002  -0.4207502   0.2404287), wk =   0.0380952
        k(   48) = (   0.3366002  -0.4207502   0.3606431), wk =   0.0380952

     Largest allocated arrays     est. size (Mb)     dimensions
     Largest temporary arrays     est. size (Mb)     dimensions

     Initial potential from superposition of free atoms

     Starting from uniform charge
     Starting wfc are    0 randomized atomic wfcs

     Writing output data file Prototype-La-cP8-Cr3Si.save

     Self-consistent Calculation

[...]

     iteration # 13     ecut=    40.00 Ry     beta=0.70
     CG style diagonalization
     c_bands:  1 eigenvalues not converged
     c_bands:  1 eigenvalues not converged
     ethr =  1.05E-07,  avg # of iterations =  4.0

[...]

     total energy              =   -1065.20390065 Ry
     Harris-Foulkes estimate   =   -1065.20390219 Ry
     estimated scf accuracy    <       0.00000355 Ry

     iteration # 17     ecut=    40.00 Ry     beta=0.70
     CG style diagonalization
     ethr =  2.96E-09,  avg # of iterations =  3.9

     End of self-consistent calculation

[...]

          k = 0.3366-0.4208 0.3606 (  4470 PWs)   bands (ev):

   -44.3156 -44.3156 -23.5081 -23.4841 -23.4089 -23.4084 -23.3361 -23.3104
   -15.3265 -15.3263 -15.3220 -15.3220 -15.3187 -15.3184  -2.7169  -2.5754
    -2.2921  -2.2831  -2.2029  -2.1973  -1.9435  -1.8816  -1.6706  -1.6413
    -1.5565  -1.5440  -1.4400  -1.4285  -1.4084  -1.3927  -1.3884  -1.3569
    18.4153  18.4416  18.5815  18.5956  18.7102  18.7542  18.8824  18.8936
    18.9502  18.9647  20.3457  20.3477  21.0919  21.0946  21.6097  21.7003
    21.7139  21.7430  22.6902  22.7568  23.1425  23.1791  23.6049  23.6169
    23.8753  24.1307  24.8383  24.9554  25.1143  25.3207  25.4714  25.5354
    25.9467  25.9489  26.3944  26.6576  26.6613  26.8288  26.8554  26.9717

     the Fermi energy is    24.5648 ev

!    total energy              =   -1065.20390160 Ry
     Harris-Foulkes estimate   =   -1065.20390184 Ry
     estimated scf accuracy    <       0.00000026 Ry

     The total energy is the sum of the following terms:

     one-electron contribution =     -21.81887547 Ry
     hartree contribution      =     106.26925126 Ry
     xc contribution           =    -119.40200869 Ry
     ewald contribution        =   -1029.80548868 Ry
     smearing contrib. (-TS)   =      -0.44678002 Ry

     convergence has been achieved in  17 iterations

     Forces acting on atoms (Ry/au):

     atom    1 type  1   force =     0.00000000    0.00000000    0.00000000
     atom    2 type  1   force =     0.00000000    0.00000000    0.00000000
     atom    3 type  1   force =     0.00000000    0.00000000    0.00000000
     atom    4 type  1   force =     0.00000000    0.00000000    0.00000000
     atom    5 type  1   force =     0.00000000    0.00000000    0.00000000
     atom    6 type  1   force =     0.00000000    0.00000000    0.00000000
     atom    7 type  2   force =     0.00000000    0.00000000    0.00000000
     atom    8 type  2   force =     0.00000000    0.00000000    0.00000000

     Total force =     0.000000     Total SCF correction =     0.000000

     entering subroutine stress ...

          total   stress  (Ry/bohr**3)                   (kbar)     P=  202.47
   0.00137634   0.00000000   0.00000000        202.47      0.00      0.00
   0.00000000   0.00137634   0.00000000          0.00    202.47      0.00
   0.00000000   0.00000000   0.00137634          0.00      0.00    202.47

     Writing output data file Prototype-La-cP8-Cr3Si.save

     General routines

     Parallel routines

   This run was terminated on:  17:53: 6  22Mar2018

   JOB DONE.