     Program PWSCF v.5.0.2 starts on 22Mar2018 at 17:32:59

     Current dimensions of program PWSCF are:
     Max number of different atomic species (ntypx) = 10
     Max number of k-points (npk) =  40000
     Max angular momentum in pseudopotentials (lmaxx) =  3
     Waiting for input...
     Reading input from standard input

     Subspace diagonalization in iterative solution of the eigenvalue problem:
     a serial algorithm will be used

     bravais-lattice index     =            0
     lattice parameter (alat)  =      12.0168  a.u.
     unit-cell volume          =    1187.3413 (a.u.)^3
     number of atoms/cell      =            8
     number of atomic types    =            2
     number of electrons       =       120.00
     number of Kohn-Sham states=           72
     kinetic-energy cutoff     =      40.0000  Ry
     charge density cutoff     =     160.0000  Ry
     convergence threshold     =      1.0E-04
     mixing beta               =       0.7000
     number of iterations used =            8  plain     mixing
     Exchange-correlation      = SLA-PZ-NOGX-NOGC ( 1 1 0 0 0)
     EXX-fraction              =        0.00
     nstep                     =           50

     celldm(1)=  12.016801  celldm(2)=   0.000000  celldm(3)=   0.000000
     celldm(4)=   0.000000  celldm(5)=   0.000000  celldm(6)=   0.000000

     crystal axes: (cart. coord. in units of alat)
               a(1) = (   1.000000   0.000000   0.000000 )
               a(2) = (  -0.500000   0.866025   0.000000 )
               a(3) = (   0.000000   0.000000   0.790093 )

     reciprocal axes: (cart. coord. in units 2 pi/alat)
               b(1) = (  1.000000  0.577350  0.000000 )
               b(2) = (  0.000000  1.154701  0.000000 )
               b(3) = (  0.000000  0.000000  1.265674 )

     PseudoPot. # 1 for Nd read from file:
     /home/cwx6513/pp.La/Nd.UPF
     MD5 check sum: c66c5b6abe7b5840ced9b1e244e3bed6
     Pseudo is Norm-conserving, Zval = 14.0
     Generated in analytical, separable form
     Using radial grid of 1257 points,  6 beta functions with:
                l(1) =   0
                l(2) =   0
                l(3) =   1
                l(4) =   1
                l(5) =   2
                l(6) =   3

     PseudoPot. # 2 for Gd read from file:
     /home/cwx6513/pp.La/Gd.UPF
     MD5 check sum: 09a8be538722f05520810cb6aac0efd2
     Pseudo is Norm-conserving, Zval = 18.0
     Generated in analytical, separable form
     Using radial grid of 1263 points,  6 beta functions with:
                l(1) =   0
                l(2) =   0
                l(3) =   1
                l(4) =   1
                l(5) =   2
                l(6) =   3

     atomic species   valence    mass     pseudopotential
        Mg            14.00    24.30500     Nd( 1.00)
        Cd            18.00   112.41100     Gd( 1.00)

     24 Sym. Ops., with inversion, found (12 have fractional translation)

   Cartesian axes

     site n.     atom                  positions (alat units)
         1           Mg  tau(   1) = (   0.2478935   0.7204716   0.1975233  )
         2           Mg  tau(   2) = (   0.7478935   0.1455538   0.5925699  )
         3           Mg  tau(   3) = (   0.2521065   0.1455538   0.5925699  )
         4           Mg  tau(   4) = (  -0.2478935   0.7204716   0.1975233  )
         5           Mg  tau(   5) = (   0.0000000   0.2911075   0.1975233  )
         6           Mg  tau(   6) = (   0.5000000   0.5749179   0.5925699  )
         7           Cd  tau(   7) = (   0.5000005   0.2886748   0.1975233  )
         8           Cd  tau(   8) = (  -0.0000005   0.5773506   0.5925699  )

     number of k points=    64  gaussian smearing, width (Ry)=  0.1000
                       cart. coord. in units 2pi/alat
        k(    1) = (   0.0000000   0.0000000   0.0000000), wk =   0.0095238
        k(    2) = (   0.0000000   0.0000000   0.1808105), wk =   0.0190476
        k(    3) = (   0.0000000   0.0000000   0.3616210), wk =   0.0190476
        k(    4) = (   0.0000000   0.0000000   0.5424315), wk =   0.0190476
        k(    5) = (   0.0000000   0.1924501   0.0000000), wk =   0.0190476
        k(    6) = (   0.0000000   0.1924501   0.1808105), wk =   0.0380952
        k(    7) = (   0.0000000   0.1924501   0.3616210), wk =   0.0380952
        k(    8) = (   0.0000000   0.1924501   0.5424315), wk =   0.0380952
        k(    9) = (   0.0000000   0.3849002   0.0000000), wk =   0.0190476
        k(   10) = (   0.0000000   0.3849002   0.1808105), wk =   0.0380952
        k(   11) = (   0.0000000   0.3849002   0.3616210), wk =   0.0380952
        k(   12) = (   0.0000000   0.3849002   0.5424315), wk =   0.0380952
        k(   13) = (   0.0000000  -0.5773503   0.0000000), wk =   0.0095238
        k(   14) = (   0.0000000  -0.5773503   0.1808105), wk =   0.0190476
        k(   15) = (   0.0000000  -0.5773503   0.3616210), wk =   0.0190476
        k(   16) = (   0.0000000  -0.5773503   0.5424315), wk =   0.0190476
        k(   17) = (   0.2000000   0.1154701   0.0000000), wk =   0.0190476
        k(   18) = (   0.2000000   0.1154701   0.1808105), wk =   0.0380952
        k(   19) = (   0.2000000   0.1154701   0.3616210), wk =   0.0380952
        k(   20) = (   0.2000000   0.1154701   0.5424315), wk =   0.0380952
        k(   21) = (   0.2000000   0.3079201   0.0000000), wk =   0.0190476
        k(   22) = (   0.2000000   0.3079201   0.1808105), wk =   0.0380952
        k(   23) = (   0.2000000   0.3079201   0.3616210), wk =   0.0380952
        k(   24) = (   0.2000000   0.3079201   0.5424315), wk =   0.0380952
        k(   25) = (   0.2000000   0.5003702   0.0000000), wk =   0.0190476
        k(   26) = (   0.2000000   0.5003702   0.1808105), wk =   0.0380952
        k(   27) = (   0.2000000   0.5003702   0.3616210), wk =   0.0380952
        k(   28) = (   0.2000000   0.5003702   0.5424315), wk =   0.0380952
        k(   29) = (   0.2000000  -0.4618802   0.0000000), wk =   0.0190476
        k(   30) = (   0.2000000  -0.4618802   0.1808105), wk =   0.0380952
        k(   31) = (   0.2000000  -0.4618802   0.3616210), wk =   0.0380952
        k(   32) = (   0.2000000  -0.4618802   0.5424315), wk =   0.0380952
        k(   33) = (   0.2000000  -0.2694301   0.0000000), wk =   0.0190476
        k(   34) = (   0.2000000  -0.2694301   0.1808105), wk =   0.0380952
        k(   35) = (   0.2000000  -0.2694301   0.3616210), wk =   0.0380952
        k(   36) = (   0.2000000  -0.2694301   0.5424315), wk =   0.0380952
        k(   37) = (   0.2000000  -0.0769800   0.0000000), wk =   0.0190476
        k(   38) = (   0.2000000  -0.0769800   0.1808105), wk =   0.0380952
        k(   39) = (   0.2000000  -0.0769800   0.3616210), wk =   0.0380952
        k(   40) = (   0.2000000  -0.0769800   0.5424315), wk =   0.0380952
        k(   41) = (   0.4000000   0.2309401   0.0000000), wk =   0.0190476
        k(   42) = (   0.4000000   0.2309401   0.1808105), wk =   0.0380952
        k(   43) = (   0.4000000   0.2309401   0.3616210), wk =   0.0380952
        k(   44) = (   0.4000000   0.2309401   0.5424315), wk =   0.0380952
        k(   45) = (   0.4000000   0.4233902   0.0000000), wk =   0.0190476
        k(   46) = (   0.4000000   0.4233902   0.1808105), wk =   0.0380952
        k(   47) = (   0.4000000   0.4233902   0.3616210), wk =   0.0380952
        k(   48) = (   0.4000000   0.4233902   0.5424315), wk =   0.0380952
        k(   49) = (   0.4000000   0.6158403   0.0000000), wk =   0.0190476
        k(   50) = (   0.4000000   0.6158403   0.1808105), wk =   0.0380952
        k(   51) = (   0.4000000   0.6158403   0.3616210), wk =   0.0380952
        k(   52) = (   0.4000000   0.6158403   0.5424315), wk =   0.0380952
        k(   53) = (   0.4000000  -0.3464102   0.0000000), wk =   0.0190476
        k(   54) = (   0.4000000  -0.3464102   0.1808105), wk =   0.0380952
        k(   55) = (   0.4000000  -0.3464102   0.3616210), wk =   0.0380952
        k(   56) = (   0.4000000  -0.3464102   0.5424315), wk =   0.0380952
        k(   57) = (   0.4000000  -0.1539601   0.0000000), wk =   0.0190476
        k(   58) = (   0.4000000  -0.1539601   0.1808105), wk =   0.0380952
        k(   59) = (   0.4000000  -0.1539601   0.3616210), wk =   0.0380952
        k(   60) = (   0.4000000  -0.1539601   0.5424315), wk =   0.0380952
        k(   61) = (   0.4000000   0.0384900   0.0000000), wk =   0.0190476
        k(   62) = (   0.4000000   0.0384900   0.1808105), wk =   0.0380952
        k(   63) = (   0.4000000   0.0384900   0.3616210), wk =   0.0380952
        k(   64) = (   0.4000000   0.0384900   0.5424315), wk =   0.0380952

     Largest allocated arrays     est. size (Mb)     dimensions
     Largest temporary arrays     est. size (Mb)     dimensions

     Initial potential from superposition of free atoms

     Starting from uniform charge
     Starting wfc are    0 randomized atomic wfcs

     Self-consistent Calculation

     iteration #  1     ecut=    40.00 Ry     beta=0.70
     CG style diagonalization
     c_bands:  1 eigenvalues not converged
     c_bands:  2 eigenvalues not converged
     c_bands:  1 eigenvalues not converged
     c_bands:  1 eigenvalues not converged
     c_bands:  1 eigenvalues not converged
     c_bands:  1 eigenvalues not converged
     c_bands:  1 eigenvalues not converged
     c_bands:  1 eigenvalues not converged
     c_bands:  1 eigenvalues not converged
     c_bands:  1 eigenvalues not converged
     c_bands:  2 eigenvalues not converged
     c_bands:  1 eigenvalues not converged
     c_bands:  1 eigenvalues not converged
     c_bands:  1 eigenvalues not converged
     c_bands:  1 eigenvalues not converged
     c_bands:  1 eigenvalues not converged
     ethr =  1.00E-02,  avg # of iterations = 11.2

     total energy              =    -599.45639464 Ry
     Harris-Foulkes estimate   =   -1312.24764627 Ry
     estimated scf accuracy    <     866.99816327 Ry

[...]

     iteration #  4     ecut=    40.00 Ry     beta=0.70
     CG style diagonalization
     ethr =  1.00E-02,  avg # of iterations =  6.0

[...]

     End of self-consistent calculation

          k = 0.0000 0.0000 0.0000 (  5047 PWs)   bands (ev):

   -47.4673 -47.4664 -27.0639 -26.8484 -26.8484 -26.8133 -26.7251 -26.7251
   -18.4469 -18.4381 -18.3951 -18.3951 -18.3934 -18.3934  -6.0660  -5.9204
    -5.7055  -5.5112  -5.5111  -5.4281  -5.4280  -5.4158  -5.4158  -5.0619
    -4.7444  -4.7443  -4.5649  -4.5649  -4.5281  -4.5281  -4.5199  -4.5005
    14.8462  15.1870  15.1870  15.3168  15.3614  15.7282  15.7283  16.0421
    16.0421  16.2826  16.5924  17.0149  17.0149  18.3848  18.7420  18.7421
    19.0052  19.2787  19.2787  19.3474  19.9793  19.9793  20.0129  20.1842
    20.1843  20.5564  20.5565  20.7232  20.9491  20.9491  23.1455  23.3063
    23.3064  23.6334  23.6336  23.6627  23.6628  24.0678  24.0679  25.0474

[...]

     the Fermi energy is    20.9548 ev

!    total energy              =   -1065.44871898 Ry
     Harris-Foulkes estimate   =   -1065.44875689 Ry
     estimated scf accuracy    <       0.00005215 Ry

     The total energy is the sum of the following terms:

     one-electron contribution =     -79.96502789 Ry
[...]
        k(   10) = (   0.0000000   0.3943339   0.1831906), wk =   0.0380952
        k(   11) = (   0.0000000   0.3943339   0.3663813), wk =   0.0380952
        k(   12) = (   0.0000000   0.3943339   0.5495719), wk =   0.0380952
        k(   13) = (   0.0000000  -0.5915008   0.0000000), wk =   0.0095238
        k(   14) = (   0.0000000  -0.5915008   0.1831906), wk =   0.0190476
        k(   15) = (   0.0000000  -0.5915008   0.3663813), wk =   0.0190476
        k(   16) = (   0.0000000  -0.5915008   0.5495719), wk =   0.0190476
        k(   17) = (   0.2049019   0.1183002   0.0000000), wk =   0.0190476
        k(   18) = (   0.2049019   0.1183002   0.1831906), wk =   0.0380952
        k(   19) = (   0.2049019   0.1183002   0.3663813), wk =   0.0380952
        k(   20) = (   0.2049019   0.1183002   0.5495719), wk =   0.0380952
        k(   21) = (   0.2049019   0.3154671   0.0000000), wk =   0.0190476
        k(   22) = (   0.2049019   0.3154671   0.1831906), wk =   0.0380952
        k(   23) = (   0.2049019   0.3154671   0.3663813), wk =   0.0380952
        k(   24) = (   0.2049019   0.3154671   0.5495719), wk =   0.0380952
        k(   25) = (   0.2049019   0.5126340   0.0000000), wk =   0.0190476
        k(   26) = (   0.2049019   0.5126340   0.1831906), wk =   0.0380952
        k(   27) = (   0.2049019   0.5126340   0.3663813), wk =   0.0380952
        k(   28) = (   0.2049019   0.5126340   0.5495719), wk =   0.0380952
        k(   29) = (   0.2049019  -0.4732006   0.0000000), wk =   0.0190476
        k(   30) = (   0.2049019  -0.4732006   0.1831906), wk =   0.0380952
        k(   31) = (   0.2049019  -0.4732006   0.3663813), wk =   0.0380952
        k(   32) = (   0.2049019  -0.4732006   0.5495719), wk =   0.0380952
        k(   33) = (   0.2049019  -0.2760337   0.0000000), wk =   0.0190476
        k(   34) = (   0.2049019  -0.2760337   0.1831906), wk =   0.0380952
        k(   35) = (   0.2049019  -0.2760337   0.3663813), wk =   0.0380952
        k(   36) = (   0.2049019  -0.2760337   0.5495719), wk =   0.0380952
        k(   37) = (   0.2049019  -0.0788668   0.0000000), wk =   0.0190476
        k(   38) = (   0.2049019  -0.0788668   0.1831906), wk =   0.0380952
        k(   39) = (   0.2049019  -0.0788668   0.3663813), wk =   0.0380952
        k(   40) = (   0.2049019  -0.0788668   0.5495719), wk =   0.0380952
        k(   41) = (   0.4098038   0.2366003   0.0000000), wk =   0.0190476
        k(   42) = (   0.4098038   0.2366003   0.1831906), wk =   0.0380952
        k(   43) = (   0.4098038   0.2366003   0.3663813), wk =   0.0380952
        k(   44) = (   0.4098038   0.2366003   0.5495719), wk =   0.0380952
        k(   45) = (   0.4098038   0.4337673   0.0000000), wk =   0.0190476
        k(   46) = (   0.4098038   0.4337673   0.1831906), wk =   0.0380952
        k(   47) = (   0.4098038   0.4337673   0.3663813), wk =   0.0380952
        k(   48) = (   0.4098038   0.4337673   0.5495719), wk =   0.0380952
        k(   49) = (   0.4098038   0.6309342   0.0000000), wk =   0.0190476
        k(   50) = (   0.4098038   0.6309342   0.1831906), wk =   0.0380952
        k(   51) = (   0.4098038   0.6309342   0.3663813), wk =   0.0380952
        k(   52) = (   0.4098038   0.6309342   0.5495719), wk =   0.0380952
        k(   53) = (   0.4098038  -0.3549005   0.0000000), wk =   0.0190476
        k(   54) = (   0.4098038  -0.3549005   0.1831906), wk =   0.0380952
        k(   55) = (   0.4098038  -0.3549005   0.3663813), wk =   0.0380952
        k(   56) = (   0.4098038  -0.3549005   0.5495719), wk =   0.0380952
        k(   57) = (   0.4098038  -0.1577335   0.0000000), wk =   0.0190476
        k(   58) = (   0.4098038  -0.1577335   0.1831906), wk =   0.0380952
        k(   59) = (   0.4098038  -0.1577335   0.3663813), wk =   0.0380952
        k(   60) = (   0.4098038  -0.1577335   0.5495719), wk =   0.0380952
        k(   61) = (   0.4098038   0.0394334   0.0000000), wk =   0.0190476
        k(   62) = (   0.4098038   0.0394334   0.1831906), wk =   0.0380952
        k(   63) = (   0.4098038   0.0394334   0.3663813), wk =   0.0380952
        k(   64) = (   0.4098038   0.0394334   0.5495719), wk =   0.0380952

[...]

     The maximum number of steps has been reached.

     End of BFGS Geometry Optimization
Begin final coordinates
     new unit-cell volume =   1116.51361 a.u.^3 (   165.45025 Ang^3 )

CELL_PARAMETERS (alat= 12.01680127)
   0.976076909   0.000000000   0.000000000
  -0.488038455   0.845307400   0.000000000
   0.000000000   0.000000000   0.779827732

ATOMIC_POSITIONS (crystal)
Mg       0.668640621   0.834320310   0.250000000
Mg       0.834320310   0.165679690   0.750000000
Mg       0.331359379   0.165679690   0.750000000
Mg       0.165679690   0.834320310   0.250000000
Mg       0.165679690   0.331359379   0.250000000
Mg       0.834320310   0.668640621   0.750000000
Cd       0.666667000   0.333333000   0.250000000
Cd       0.333333000   0.666667000   0.750000000
End final coordinates

     A final scf calculation at the relaxed structure.
     The G-vectors are recalculated for the final unit cell
     Results may differ from those at the preceding step.

     bravais-lattice index     =            0
     lattice parameter (alat)  =      12.0168  a.u.
     unit-cell volume          =    1116.5136 (a.u.)^3
     number of atoms/cell      =            8
     number of atomic types    =            2
     number of electrons       =       120.00
     number of Kohn-Sham states=           72
     kinetic-energy cutoff     =      40.0000  Ry
     charge density cutoff     =     160.0000  Ry
     convergence threshold     =      1.3E-06
     mixing beta               =       0.7000
     number of iterations used =            8  plain     mixing
     Exchange-correlation      = SLA-PZ-NOGX-NOGC ( 1 1 0 0 0)
     EXX-fraction              =        0.00

     celldm(1)=  12.016801  celldm(2)=   0.000000  celldm(3)=   0.000000
     celldm(4)=   0.000000  celldm(5)=   0.000000  celldm(6)=   0.000000

     crystal axes: (cart. coord. in units of alat)
               a(1) = (   0.976077   0.000000   0.000000 )
               a(2) = (  -0.488038   0.845307   0.000000 )
               a(3) = (   0.000000   0.000000   0.779828 )

     reciprocal axes: (cart. coord. in units 2 pi/alat)
               b(1) = (  1.024509  0.591501  0.000000 )
               b(2) = (  0.000000  1.183002  0.000000 )
               b(3) = (  0.000000  0.000000  1.282334 )

     PseudoPot. # 1 for Nd read from file:
     /home/cwx6513/pp.La/Nd.UPF
     MD5 check sum: c66c5b6abe7b5840ced9b1e244e3bed6
     Pseudo is Norm-conserving, Zval = 14.0
     Generated in analytical, separable form
     Using radial grid of 1257 points,  6 beta functions with:
                l(1) =   0
                l(2) =   0
                l(3) =   1
                l(4) =   1
                l(5) =   2
                l(6) =   3

     PseudoPot. # 2 for Gd read from file:
     /home/cwx6513/pp.La/Gd.UPF
     MD5 check sum: 09a8be538722f05520810cb6aac0efd2
     Pseudo is Norm-conserving, Zval = 18.0
     Generated in analytical, separable form
     Using radial grid of 1263 points,  6 beta functions with:
                l(1) =   0
                l(2) =   0
                l(3) =   1
                l(4) =   1
                l(5) =   2
                l(6) =   3

     atomic species   valence    mass     pseudopotential
        Mg            14.00    24.30500     Nd( 1.00)
        Cd            18.00   112.41100     Gd( 1.00)

     24 Sym. Ops., with inversion, found (12 have fractional translation)

   Cartesian axes

     site n.     atom                  positions (alat units)
         1           Mg  tau(   1) = (   0.2454643   0.7052571   0.1949569  )
         2           Mg  tau(   2) = (   0.7335027   0.1400503   0.5848708  )
         3           Mg  tau(   3) = (   0.2425742   0.1400503   0.5848708  )
         4           Mg  tau(   4) = (  -0.2454643   0.7052571   0.1949569  )
         5           Mg  tau(   5) = (   0.0000000   0.2801005   0.1949569  )
         6           Mg  tau(   6) = (   0.4880385   0.5652069   0.5848708  )
         7           Cd  tau(   7) = (   0.4880389   0.2817689   0.1949569  )
         8           Cd  tau(   8) = (  -0.0000005   0.5635385   0.5848708  )

     number of k points=    64  gaussian smearing, width (Ry)=  0.1000
                       cart. coord. in units 2pi/alat
        k(    1) = (   0.0000000   0.0000000   0.0000000), wk =   0.0095238
        k(    2) = (   0.0000000   0.0000000   0.1831906), wk =   0.0190476
        k(    3) = (   0.0000000   0.0000000   0.3663813), wk =   0.0190476
        k(    4) = (   0.0000000   0.0000000   0.5495719), wk =   0.0190476
        k(    5) = (   0.0000000   0.1971669   0.0000000), wk =   0.0190476
        k(    6) = (   0.0000000   0.1971669   0.1831906), wk =   0.0380952
        k(    7) = (   0.0000000   0.1971669   0.3663813), wk =   0.0380952
        k(    8) = (   0.0000000   0.1971669   0.5495719), wk =   0.0380952
        k(    9) = (   0.0000000   0.3943339   0.0000000), wk =   0.0190476
        k(   10) = (   0.0000000   0.3943339   0.1831906), wk =   0.0380952
        k(   11) = (   0.0000000   0.3943339   0.3663813), wk =   0.0380952
        k(   12) = (   0.0000000   0.3943339   0.5495719), wk =   0.0380952
        k(   13) = (   0.0000000  -0.5915008   0.0000000), wk =   0.0095238
        k(   14) = (   0.0000000  -0.5915008   0.1831906), wk =   0.0190476
        k(   15) = (   0.0000000  -0.5915008   0.3663813), wk =   0.0190476
        k(   16) = (   0.0000000  -0.5915008   0.5495719), wk =   0.0190476
        k(   17) = (   0.2049019   0.1183002   0.0000000), wk =   0.0190476
        k(   18) = (   0.2049019   0.1183002   0.1831906), wk =   0.0380952
        k(   19) = (   0.2049019   0.1183002   0.3663813), wk =   0.0380952
        k(   20) = (   0.2049019   0.1183002   0.5495719), wk =   0.0380952
        k(   21) = (   0.2049019   0.3154671   0.0000000), wk =   0.0190476
        k(   22) = (   0.2049019   0.3154671   0.1831906), wk =   0.0380952
        k(   23) = (   0.2049019   0.3154671   0.3663813), wk =   0.0380952
        k(   24) = (   0.2049019   0.3154671   0.5495719), wk =   0.0380952
        k(   25) = (   0.2049019   0.5126340   0.0000000), wk =   0.0190476
        k(   26) = (   0.2049019   0.5126340   0.1831906), wk =   0.0380952
        k(   27) = (   0.2049019   0.5126340   0.3663813), wk =   0.0380952
        k(   28) = (   0.2049019   0.5126340   0.5495719), wk =   0.0380952
        k(   29) = (   0.2049019  -0.4732006   0.0000000), wk =   0.0190476
        k(   30) = (   0.2049019  -0.4732006   0.1831906), wk =   0.0380952
        k(   31) = (   0.2049019  -0.4732006   0.3663813), wk =   0.0380952
        k(   32) = (   0.2049019  -0.4732006   0.5495719), wk =   0.0380952
        k(   33) = (   0.2049019  -0.2760337   0.0000000), wk =   0.0190476
        k(   34) = (   0.2049019  -0.2760337   0.1831906), wk =   0.0380952
        k(   35) = (   0.2049019  -0.2760337   0.3663813), wk =   0.0380952
        k(   36) = (   0.2049019  -0.2760337   0.5495719), wk =   0.0380952
        k(   37) = (   0.2049019  -0.0788668   0.0000000), wk =   0.0190476
        k(   38) = (   0.2049019  -0.0788668   0.1831906), wk =   0.0380952
        k(   39) = (   0.2049019  -0.0788668   0.3663813), wk =   0.0380952
        k(   40) = (   0.2049019  -0.0788668   0.5495719), wk =   0.0380952
        k(   41) = (   0.4098038   0.2366003   0.0000000), wk =   0.0190476
        k(   42) = (   0.4098038   0.2366003   0.1831906), wk =   0.0380952
        k(   43) = (   0.4098038   0.2366003   0.3663813), wk =   0.0380952
        k(   44) = (   0.4098038   0.2366003   0.5495719), wk =   0.0380952
        k(   45) = (   0.4098038   0.4337673   0.0000000), wk =   0.0190476
        k(   46) = (   0.4098038   0.4337673   0.1831906), wk =   0.0380952
        k(   47) = (   0.4098038   0.4337673   0.3663813), wk =   0.0380952
        k(   48) = (   0.4098038   0.4337673   0.5495719), wk =   0.0380952
        k(   49) = (   0.4098038   0.6309342   0.0000000), wk =   0.0190476
        k(   50) = (   0.4098038   0.6309342   0.1831906), wk =   0.0380952
        k(   51) = (   0.4098038   0.6309342   0.3663813), wk =   0.0380952
        k(   52) = (   0.4098038   0.6309342   0.5495719), wk =   0.0380952
        k(   53) = (   0.4098038  -0.3549005   0.0000000), wk =   0.0190476
        k(   54) = (   0.4098038  -0.3549005   0.1831906), wk =   0.0380952
        k(   55) = (   0.4098038  -0.3549005   0.3663813), wk =   0.0380952
        k(   56) = (   0.4098038  -0.3549005   0.5495719), wk =   0.0380952
        k(   57) = (   0.4098038  -0.1577335   0.0000000), wk =   0.0190476
        k(   58) = (   0.4098038  -0.1577335   0.1831906), wk =   0.0380952
        k(   59) = (   0.4098038  -0.1577335   0.3663813), wk =   0.0380952
        k(   60) = (   0.4098038  -0.1577335   0.5495719), wk =   0.0380952
        k(   61) = (   0.4098038   0.0394334   0.0000000), wk =   0.0190476
        k(   62) = (   0.4098038   0.0394334   0.1831906), wk =   0.0380952
        k(   63) = (   0.4098038   0.0394334   0.3663813), wk =   0.0380952
        k(   64) = (   0.4098038   0.0394334   0.5495719), wk =   0.0380952

     Largest allocated arrays     est. size (Mb)     dimensions
     Largest temporary arrays     est. size (Mb)     dimensions

     Initial potential from superposition of free atoms

     Starting from uniform charge
     Starting wfc are    0 randomized atomic wfcs

     Writing output data file Prototype-La-hP8-Mg3Cd.save

     Self-consistent Calculation

[...]

     iteration # 14     ecut=    40.00 Ry     beta=0.70
     CG style diagonalization
     c_bands:  1 eigenvalues not converged
     ethr =  7.55E-08,  avg # of iterations =  4.4

[...]

     total energy              =   -1065.41462858 Ry
     Harris-Foulkes estimate   =   -1065.41463353 Ry
     estimated scf accuracy    <       0.00001382 Ry

     iteration # 17     ecut=    40.00 Ry     beta=0.70
     CG style diagonalization
     ethr =  1.15E-08,  avg # of iterations =  3.4

     End of self-consistent calculation

[...]

          k = 0.4098 0.0394 0.5496 (  4760 PWs)   bands (ev):

   -46.0076 -46.0069 -25.3241 -25.2612 -25.1978 -25.1665 -25.1383 -25.1157
   -16.9832 -16.9818 -16.9728 -16.9716 -16.9695 -16.9665  -4.3940  -4.3681
    -4.2958  -4.2629  -4.1283  -4.0818  -3.6420  -3.5370  -3.4017  -3.3908
    -3.2467  -3.1573  -3.0939  -3.0521  -3.0084  -2.9286  -2.8765  -2.8584
    16.9406  17.0051  17.1388  17.2442  17.3960  17.5238  17.6219  17.7548
    17.8047  17.8794  18.1439  18.3629  18.9393  19.2595  19.3348  19.5661
    19.9323  20.1407  20.5548  20.6891  20.8291  20.9772  21.4066  21.5269
    21.6822  21.7525  21.8407  22.2262  22.6900  22.8091  22.8735  23.4556
    24.0012  24.4939  24.8254  24.8813  25.0686  25.4278  25.4614  25.8651

     the Fermi energy is    22.5503 ev

!    total energy              =   -1065.41463035 Ry
     Harris-Foulkes estimate   =   -1065.41463080 Ry
     estimated scf accuracy    <       0.00000071 Ry

     The total energy is the sum of the following terms:

     one-electron contribution =     -50.02363154 Ry
     hartree contribution      =     112.45669316 Ry
     xc contribution           =    -118.52971650 Ry
     ewald contribution        =   -1008.82649241 Ry
     smearing contrib. (-TS)   =      -0.49148305 Ry

     convergence has been achieved in  17 iterations

     Forces acting on atoms (Ry/au):

     atom    1 type  1   force =     0.01088225    0.00628287    0.00000000
     atom    2 type  1   force =     0.01088225   -0.00628287    0.00000000
     atom    3 type  1   force =    -0.01088225   -0.00628287    0.00000000
     atom    4 type  1   force =    -0.01088225    0.00628287    0.00000000
     atom    5 type  1   force =     0.00000000   -0.01256575    0.00000000
     atom    6 type  1   force =     0.00000000    0.01256575    0.00000000
     atom    7 type  2   force =     0.00000000    0.00000000    0.00000000
     atom    8 type  2   force =     0.00000000    0.00000000    0.00000000

     Total force =     0.030780     Total SCF correction =     0.000000

     entering subroutine stress ...

          total   stress  (Ry/bohr**3)                   (kbar)     P=  -27.25
  -0.00021373   0.00000000   0.00000000        -31.44      0.00      0.00
   0.00000000  -0.00021373   0.00000000          0.00    -31.44      0.00
   0.00000000   0.00000000  -0.00012837          0.00      0.00    -18.88

     Writing output data file Prototype-La-hP8-Mg3Cd.save

     General routines

     Parallel routines

   This run was terminated on:  18:10:26  22Mar2018

   JOB DONE.