     Program PWSCF v.5.0.2 starts on 22Mar2018 at 22:45:37

     Current dimensions of program PWSCF are:
     Max number of different atomic species (ntypx) = 10
     Max number of k-points (npk) =  40000
     Max angular momentum in pseudopotentials (lmaxx) =  3
     Waiting for input...
     Reading input from standard input

     Subspace diagonalization in iterative solution of the eigenvalue problem:
     a serial algorithm will be used

     bravais-lattice index     =            0
     lattice parameter (alat)  =      12.0168  a.u.
     unit-cell volume          =    1187.3413 (a.u.)^3
     number of atoms/cell      =            8
     number of atomic types    =            2
     number of electrons       =       160.00
     number of Kohn-Sham states=           96
     kinetic-energy cutoff     =      40.0000  Ry
     charge density cutoff     =     160.0000  Ry
     convergence threshold     =      1.0E-04
     mixing beta               =       0.7000
     number of iterations used =            8  plain     mixing
     Exchange-correlation      = SLA-PZ-NOGX-NOGC ( 1 1 0 0 0)
     EXX-fraction              =        0.00
     nstep                     =           50

     celldm(1)=  12.016801  celldm(2)=   0.000000  celldm(3)=   0.000000
     celldm(4)=   0.000000  celldm(5)=   0.000000  celldm(6)=   0.000000

     crystal axes: (cart. coord. in units of alat)
               a(1) = (   1.000000   0.000000   0.000000 )
               a(2) = (  -0.500000   0.866025   0.000000 )
               a(3) = (   0.000000   0.000000   0.790093 )

     reciprocal axes: (cart. coord. in units 2 pi/alat)
               b(1) = (  1.000000  0.577350  0.000000 )
               b(2) = (  0.000000  1.154701  0.000000 )
               b(3) = (  0.000000  0.000000  1.265674 )

     PseudoPot. # 1 for Er read from file:
     /home/cwx6513/pp.La/Er.UPF
     MD5 check sum: e152ae21b84514339d8526f066caf99b
     Pseudo is Norm-conserving, Zval = 22.0
     Generated in analytical, separable form
     Using radial grid of 1267 points,  6 beta functions with:
                l(1) =   0
                l(2) =   0
                l(3) =   1
                l(4) =   1
                l(5) =   2
                l(6) =   3

     PseudoPot. # 2 for Nd read from file:
     /home/cwx6513/pp.La/Nd.UPF
     MD5 check sum: c66c5b6abe7b5840ced9b1e244e3bed6
     Pseudo is Norm-conserving, Zval = 14.0
     Generated in analytical, separable form
     Using radial grid of 1257 points,  6 beta functions with:
                l(1) =   0
                l(2) =   0
                l(3) =   1
                l(4) =   1
                l(5) =   2
                l(6) =   3

     atomic species   valence    mass     pseudopotential
        Mg            22.00    24.30500     Er( 1.00)
        Cd            14.00   112.41100     Nd( 1.00)

     24 Sym. Ops., with inversion, found (12 have fractional translation)

   Cartesian axes

     site n.     atom                  positions (alat units)
         1           Mg  tau(   1) = (   0.2478935   0.7204716   0.1975233  )
         2           Mg  tau(   2) = (   0.7478935   0.1455538   0.5925699  )
         3           Mg  tau(   3) = (   0.2521065   0.1455538   0.5925699  )
         4           Mg  tau(   4) = (  -0.2478935   0.7204716   0.1975233  )
         5           Mg  tau(   5) = (   0.0000000   0.2911075   0.1975233  )
         6           Mg  tau(   6) = (   0.5000000   0.5749179   0.5925699  )
         7           Cd  tau(   7) = (   0.5000005   0.2886748   0.1975233  )
         8           Cd  tau(   8) = (  -0.0000005   0.5773506   0.5925699  )

     number of k points=    64  gaussian smearing, width (Ry)=  0.1000
                       cart. coord. in units 2pi/alat
        k(    1) = (   0.0000000   0.0000000   0.0000000), wk =   0.0095238
        k(    2) = (   0.0000000   0.0000000   0.1808105), wk =   0.0190476
        k(    3) = (   0.0000000   0.0000000   0.3616210), wk =   0.0190476
        k(    4) = (   0.0000000   0.0000000   0.5424315), wk =   0.0190476
        k(    5) = (   0.0000000   0.1924501   0.0000000), wk =   0.0190476
        k(    6) = (   0.0000000   0.1924501   0.1808105), wk =   0.0380952
        k(    7) = (   0.0000000   0.1924501   0.3616210), wk =   0.0380952
        k(    8) = (   0.0000000   0.1924501   0.5424315), wk =   0.0380952
        k(    9) = (   0.0000000   0.3849002   0.0000000), wk =   0.0190476
        k(   10) = (   0.0000000   0.3849002   0.1808105), wk =   0.0380952
        k(   11) = (   0.0000000   0.3849002   0.3616210), wk =   0.0380952
        k(   12) = (   0.0000000   0.3849002   0.5424315), wk =   0.0380952
        k(   13) = (   0.0000000  -0.5773503   0.0000000), wk =   0.0095238
        k(   14) = (   0.0000000  -0.5773503   0.1808105), wk =   0.0190476
        k(   15) = (   0.0000000  -0.5773503   0.3616210), wk =   0.0190476
        k(   16) = (   0.0000000  -0.5773503   0.5424315), wk =   0.0190476
        k(   17) = (   0.2000000   0.1154701   0.0000000), wk =   0.0190476
        k(   18) = (   0.2000000   0.1154701   0.1808105), wk =   0.0380952
        k(   19) = (   0.2000000   0.1154701   0.3616210), wk =   0.0380952
        k(   20) = (   0.2000000   0.1154701   0.5424315), wk =   0.0380952
        k(   21) = (   0.2000000   0.3079201   0.0000000), wk =   0.0190476
        k(   22) = (   0.2000000   0.3079201   0.1808105), wk =   0.0380952
        k(   23) = (   0.2000000   0.3079201   0.3616210), wk =   0.0380952
        k(   24) = (   0.2000000   0.3079201   0.5424315), wk =   0.0380952
        k(   25) = (   0.2000000   0.5003702   0.0000000), wk =   0.0190476
        k(   26) = (   0.2000000   0.5003702   0.1808105), wk =   0.0380952
        k(   27) = (   0.2000000   0.5003702   0.3616210), wk =   0.0380952
        k(   28) = (   0.2000000   0.5003702   0.5424315), wk =   0.0380952
        k(   29) = (   0.2000000  -0.4618802   0.0000000), wk =   0.0190476
        k(   30) = (   0.2000000  -0.4618802   0.1808105), wk =   0.0380952
        k(   31) = (   0.2000000  -0.4618802   0.3616210), wk =   0.0380952
        k(   32) = (   0.2000000  -0.4618802   0.5424315), wk =   0.0380952
        k(   33) = (   0.2000000  -0.2694301   0.0000000), wk =   0.0190476
        k(   34) = (   0.2000000  -0.2694301   0.1808105), wk =   0.0380952
        k(   35) = (   0.2000000  -0.2694301   0.3616210), wk =   0.0380952
        k(   36) = (   0.2000000  -0.2694301   0.5424315), wk =   0.0380952
        k(   37) = (   0.2000000  -0.0769800   0.0000000), wk =   0.0190476
        k(   38) = (   0.2000000  -0.0769800   0.1808105), wk =   0.0380952
        k(   39) = (   0.2000000  -0.0769800   0.3616210), wk =   0.0380952
        k(   40) = (   0.2000000  -0.0769800   0.5424315), wk =   0.0380952
        k(   41) = (   0.4000000   0.2309401   0.0000000), wk =   0.0190476
        k(   42) = (   0.4000000   0.2309401   0.1808105), wk =   0.0380952
        k(   43) = (   0.4000000   0.2309401   0.3616210), wk =   0.0380952
        k(   44) = (   0.4000000   0.2309401   0.5424315), wk =   0.0380952
        k(   45) = (   0.4000000   0.4233902   0.0000000), wk =   0.0190476
        k(   46) = (   0.4000000   0.4233902   0.1808105), wk =   0.0380952
        k(   47) = (   0.4000000   0.4233902   0.3616210), wk =   0.0380952
        k(   48) = (   0.4000000   0.4233902   0.5424315), wk =   0.0380952
        k(   49) = (   0.4000000   0.6158403   0.0000000), wk =   0.0190476
        k(   50) = (   0.4000000   0.6158403   0.1808105), wk =   0.0380952
        k(   51) = (   0.4000000   0.6158403   0.3616210), wk =   0.0380952
        k(   52) = (   0.4000000   0.6158403   0.5424315), wk =   0.0380952
        k(   53) = (   0.4000000  -0.3464102   0.0000000), wk =   0.0190476
        k(   54) = (   0.4000000  -0.3464102   0.1808105), wk =   0.0380952
        k(   55) = (   0.4000000  -0.3464102   0.3616210), wk =   0.0380952
        k(   56) = (   0.4000000  -0.3464102   0.5424315), wk =   0.0380952
        k(   57) = (   0.4000000  -0.1539601   0.0000000), wk =   0.0190476
        k(   58) = (   0.4000000  -0.1539601   0.1808105), wk =   0.0380952
        k(   59) = (   0.4000000  -0.1539601   0.3616210), wk =   0.0380952
        k(   60) = (   0.4000000  -0.1539601   0.5424315), wk =   0.0380952
        k(   61) = (   0.4000000   0.0384900   0.0000000), wk =   0.0190476
        k(   62) = (   0.4000000   0.0384900   0.1808105), wk =   0.0380952
        k(   63) = (   0.4000000   0.0384900   0.3616210), wk =   0.0380952
        k(   64) = (   0.4000000   0.0384900   0.5424315), wk =   0.0380952

     Largest allocated arrays     est. size (Mb)     dimensions
     Largest temporary arrays     est. size (Mb)     dimensions

     Initial potential from superposition of free atoms

     Starting from uniform charge
     Starting wfc are    0 randomized atomic wfcs

     Self-consistent Calculation

     iteration #  1     ecut=    40.00 Ry     beta=0.70
     CG style diagonalization
     c_bands:  1 eigenvalues not converged
     c_bands:  1 eigenvalues not converged
     c_bands:  2 eigenvalues not converged
     c_bands:  1 eigenvalues not converged
     ethr =  1.00E-02,  avg # of iterations = 13.3

     total energy              =   -1592.92488060 Ry
     Harris-Foulkes estimate   =   -2916.64610938 Ry
     estimated scf accuracy    <    1625.24777997 Ry

[...]

     iteration #  4     ecut=    40.00 Ry     beta=0.70
     CG style diagonalization
     ethr =  1.00E-02,  avg # of iterations =  7.3

[...]

     End of self-consistent calculation

          k = 0.0000 0.0000 0.0000 (  5047 PWs)   bands (ev):

   -76.4895 -76.4895 -76.4883 -76.4592 -76.4591 -76.4436 -38.5210 -38.4924
   -38.4826 -38.4654 -38.4653 -38.4400 -38.4400 -38.4167 -38.4166 -38.3951
   -38.3950 -38.3948 -38.3810 -38.3810 -38.3612 -38.3562 -38.3562 -38.3280
   -22.7778 -22.7738  -1.3048  -1.2743  -1.2743  -1.2648  -1.2351  -1.2351
     7.4788   7.5806   7.5806   7.6904   7.7747   7.9741   7.9742   7.9914
     7.9974   7.9974   8.0686   8.2018   8.2018   8.4860   8.5864   8.5865
     8.7021   8.7021   8.7056   8.7733   8.7733   8.8520   8.8520   9.0363
     9.0363   9.2256   9.2256   9.2607   9.3925   9.4297  11.6377  16.8645
    16.8859  16.8860  18.1345  18.6519  18.6520  19.8111  21.6176  21.8689
    21.8689  22.4405  22.4405  23.8880  23.8880  24.0778  24.0779  24.6915
    25.5344  25.5344  26.2131  26.2131  26.4727  26.5527  27.4687  27.4687
    28.6087  28.7197  28.8099  29.5745  29.5745  30.6887  30.6891  30.7752

[...]

     the Fermi energy is    25.0270 ev

!    total energy              =   -2196.33231810 Ry
     Harris-Foulkes estimate   =   -2196.33233196 Ry
     estimated scf accuracy    <       0.00001645 Ry

     The total energy is the sum of the following terms:

     one-electron contribution =    -630.28805366 Ry
     hartree contribution      =     399.27432041 Ry
     xc contribution           =    -193.43993584 Ry
     ewald contribution        =   -1771.52531352 Ry
     smearing contrib. (-TS)   =      -0.35333550 Ry

     convergence has been achieved in  12 iterations

     Forces acting on atoms (Ry/au):

[...]
        k(   14) = (   0.0000000  -0.5813097   0.1768854), wk =   0.0190476
        k(   15) = (   0.0000000  -0.5813097   0.3537709), wk =   0.0190476
        k(   16) = (   0.0000000  -0.5813097   0.5306563), wk =   0.0190476
        k(   17) = (   0.2013716   0.1162619   0.0000000), wk =   0.0190476
        k(   18) = (   0.2013716   0.1162619   0.1768854), wk =   0.0380952
        k(   19) = (   0.2013716   0.1162619   0.3537709), wk =   0.0380952
        k(   20) = (   0.2013716   0.1162619   0.5306563), wk =   0.0380952
        k(   21) = (   0.2013716   0.3100318   0.0000000), wk =   0.0190476
        k(   22) = (   0.2013716   0.3100318   0.1768854), wk =   0.0380952
        k(   23) = (   0.2013716   0.3100318   0.3537709), wk =   0.0380952
        k(   24) = (   0.2013716   0.3100318   0.5306563), wk =   0.0380952
        k(   25) = (   0.2013716   0.5038017   0.0000000), wk =   0.0190476
        k(   26) = (   0.2013716   0.5038017   0.1768854), wk =   0.0380952
        k(   27) = (   0.2013716   0.5038017   0.3537709), wk =   0.0380952
        k(   28) = (   0.2013716   0.5038017   0.5306563), wk =   0.0380952
        k(   29) = (   0.2013716  -0.4650478   0.0000000), wk =   0.0190476
        k(   30) = (   0.2013716  -0.4650478   0.1768854), wk =   0.0380952
        k(   31) = (   0.2013716  -0.4650478   0.3537709), wk =   0.0380952
        k(   32) = (   0.2013716  -0.4650478   0.5306563), wk =   0.0380952
        k(   33) = (   0.2013716  -0.2712779   0.0000000), wk =   0.0190476
        k(   34) = (   0.2013716  -0.2712779   0.1768854), wk =   0.0380952
        k(   35) = (   0.2013716  -0.2712779   0.3537709), wk =   0.0380952
        k(   36) = (   0.2013716  -0.2712779   0.5306563), wk =   0.0380952
        k(   37) = (   0.2013716  -0.0775080   0.0000000), wk =   0.0190476
        k(   38) = (   0.2013716  -0.0775080   0.1768854), wk =   0.0380952
        k(   39) = (   0.2013716  -0.0775080   0.3537709), wk =   0.0380952
        k(   40) = (   0.2013716  -0.0775080   0.5306563), wk =   0.0380952
        k(   41) = (   0.4027432   0.2325239   0.0000000), wk =   0.0190476
        k(   42) = (   0.4027432   0.2325239   0.1768854), wk =   0.0380952
        k(   43) = (   0.4027432   0.2325239   0.3537709), wk =   0.0380952
        k(   44) = (   0.4027432   0.2325239   0.5306563), wk =   0.0380952
        k(   45) = (   0.4027432   0.4262938   0.0000000), wk =   0.0190476
        k(   46) = (   0.4027432   0.4262938   0.1768854), wk =   0.0380952
        k(   47) = (   0.4027432   0.4262938   0.3537709), wk =   0.0380952
        k(   48) = (   0.4027432   0.4262938   0.5306563), wk =   0.0380952
        k(   49) = (   0.4027432   0.6200637   0.0000000), wk =   0.0190476
        k(   50) = (   0.4027432   0.6200637   0.1768854), wk =   0.0380952
        k(   51) = (   0.4027432   0.6200637   0.3537709), wk =   0.0380952
        k(   52) = (   0.4027432   0.6200637   0.5306563), wk =   0.0380952
        k(   53) = (   0.4027432  -0.3487858   0.0000000), wk =   0.0190476
        k(   54) = (   0.4027432  -0.3487858   0.1768854), wk =   0.0380952
        k(   55) = (   0.4027432  -0.3487858   0.3537709), wk =   0.0380952
        k(   56) = (   0.4027432  -0.3487858   0.5306563), wk =   0.0380952
        k(   57) = (   0.4027432  -0.1550159   0.0000000), wk =   0.0190476
        k(   58) = (   0.4027432  -0.1550159   0.1768854), wk =   0.0380952
        k(   59) = (   0.4027432  -0.1550159   0.3537709), wk =   0.0380952
        k(   60) = (   0.4027432  -0.1550159   0.5306563), wk =   0.0380952
        k(   61) = (   0.4027432   0.0387540   0.0000000), wk =   0.0190476
        k(   62) = (   0.4027432   0.0387540   0.1768854), wk =   0.0380952
        k(   63) = (   0.4027432   0.0387540   0.3537709), wk =   0.0380952
        k(   64) = (   0.4027432   0.0387540   0.5306563), wk =   0.0380952

[...]

     The maximum number of steps has been reached.

     End of BFGS Geometry Optimization
Begin final coordinates
     new unit-cell volume =   1197.21115 a.u.^3 (   177.40839 Ang^3 )

CELL_PARAMETERS (alat= 12.01680127)
   0.993188772   0.000000000   0.000000000
  -0.496594386   0.860126707   0.000000000
   0.000000000   0.000000000   0.807625236

ATOMIC_POSITIONS (crystal)
Mg       0.656133197   0.828066598   0.250000000
Mg       0.828066598   0.171933402   0.750000000
Mg       0.343866803   0.171933402   0.750000000
Mg       0.171933402   0.828066598   0.250000000
Mg       0.171933402   0.343866803   0.250000000
Mg       0.828066598   0.656133197   0.750000000
Cd       0.666667000   0.333333000   0.250000000
Cd       0.333333000   0.666667000   0.750000000
End final coordinates

     A final scf calculation at the relaxed structure.
     The G-vectors are recalculated for the final unit cell
     Results may differ from those at the preceding step.

     bravais-lattice index     =            0
     lattice parameter (alat)  =      12.0168  a.u.
     unit-cell volume          =    1197.2111 (a.u.)^3
     number of atoms/cell      =            8
     number of atomic types    =            2
     number of electrons       =       160.00
     number of Kohn-Sham states=           96
     kinetic-energy cutoff     =      40.0000  Ry
     charge density cutoff     =     160.0000  Ry
     convergence threshold     =      3.8E-05
     mixing beta               =       0.7000
     number of iterations used =            8  plain     mixing
     Exchange-correlation      = SLA-PZ-NOGX-NOGC ( 1 1 0 0 0)
     EXX-fraction              =        0.00

     celldm(1)=  12.016801  celldm(2)=   0.000000  celldm(3)=   0.000000
     celldm(4)=   0.000000  celldm(5)=   0.000000  celldm(6)=   0.000000

     crystal axes: (cart. coord. in units of alat)
               a(1) = (   0.993189   0.000000   0.000000 )
               a(2) = (  -0.496594   0.860127   0.000000 )
               a(3) = (   0.000000   0.000000   0.807625 )

     reciprocal axes: (cart. coord. in units 2 pi/alat)
               b(1) = (  1.006858  0.581310  0.000000 )
               b(2) = (  0.000000  1.162619  0.000000 )
               b(3) = (  0.000000  0.000000  1.238198 )

     PseudoPot. # 1 for Er read from file:
     /home/cwx6513/pp.La/Er.UPF
     MD5 check sum: e152ae21b84514339d8526f066caf99b
     Pseudo is Norm-conserving, Zval = 22.0
     Generated in analytical, separable form
     Using radial grid of 1267 points,  6 beta functions with:
                l(1) =   0
                l(2) =   0
                l(3) =   1
                l(4) =   1
                l(5) =   2
                l(6) =   3

     PseudoPot. # 2 for Nd read from file:
     /home/cwx6513/pp.La/Nd.UPF
     MD5 check sum: c66c5b6abe7b5840ced9b1e244e3bed6
     Pseudo is Norm-conserving, Zval = 14.0
     Generated in analytical, separable form
     Using radial grid of 1257 points,  6 beta functions with:
                l(1) =   0
                l(2) =   0
                l(3) =   1
                l(4) =   1
                l(5) =   2
                l(6) =   3

     atomic species   valence    mass     pseudopotential
        Mg            22.00    24.30500     Er( 1.00)
        Cd            14.00   112.41100     Nd( 1.00)

     24 Sym. Ops., with inversion, found (12 have fractional translation)

   Cartesian axes

     site n.     atom                  positions (alat units)
         1           Mg  tau(   1) = (   0.2404509   0.7122422   0.2019063  )
         2           Mg  tau(   2) = (   0.7370453   0.1478845   0.6057189  )
         3           Mg  tau(   3) = (   0.2561435   0.1478845   0.6057189  )
         4           Mg  tau(   4) = (  -0.2404509   0.7122422   0.2019063  )
         5           Mg  tau(   5) = (   0.0000000   0.2957690   0.2019063  )
         6           Mg  tau(   6) = (   0.4965944   0.5643577   0.6057189  )
         7           Cd  tau(   7) = (   0.4965949   0.2867086   0.2019063  )
         8           Cd  tau(   8) = (  -0.0000005   0.5734181   0.6057189  )

     number of k points=    64  gaussian smearing, width (Ry)=  0.1000
                       cart. coord. in units 2pi/alat
        k(    1) = (   0.0000000   0.0000000   0.0000000), wk =   0.0095238
        k(    2) = (   0.0000000   0.0000000   0.1768854), wk =   0.0190476
        k(    3) = (   0.0000000   0.0000000   0.3537709), wk =   0.0190476
        k(    4) = (   0.0000000   0.0000000   0.5306563), wk =   0.0190476
        k(    5) = (   0.0000000   0.1937699   0.0000000), wk =   0.0190476
        k(    6) = (   0.0000000   0.1937699   0.1768854), wk =   0.0380952
        k(    7) = (   0.0000000   0.1937699   0.3537709), wk =   0.0380952
        k(    8) = (   0.0000000   0.1937699   0.5306563), wk =   0.0380952
        k(    9) = (   0.0000000   0.3875398   0.0000000), wk =   0.0190476
        k(   10) = (   0.0000000   0.3875398   0.1768854), wk =   0.0380952
        k(   11) = (   0.0000000   0.3875398   0.3537709), wk =   0.0380952
        k(   12) = (   0.0000000   0.3875398   0.5306563), wk =   0.0380952
        k(   13) = (   0.0000000  -0.5813097   0.0000000), wk =   0.0095238
        k(   14) = (   0.0000000  -0.5813097   0.1768854), wk =   0.0190476
        k(   15) = (   0.0000000  -0.5813097   0.3537709), wk =   0.0190476
        k(   16) = (   0.0000000  -0.5813097   0.5306563), wk =   0.0190476
        k(   17) = (   0.2013716   0.1162619   0.0000000), wk =   0.0190476
        k(   18) = (   0.2013716   0.1162619   0.1768854), wk =   0.0380952
        k(   19) = (   0.2013716   0.1162619   0.3537709), wk =   0.0380952
        k(   20) = (   0.2013716   0.1162619   0.5306563), wk =   0.0380952
        k(   21) = (   0.2013716   0.3100318   0.0000000), wk =   0.0190476
        k(   22) = (   0.2013716   0.3100318   0.1768854), wk =   0.0380952
        k(   23) = (   0.2013716   0.3100318   0.3537709), wk =   0.0380952
        k(   24) = (   0.2013716   0.3100318   0.5306563), wk =   0.0380952
        k(   25) = (   0.2013716   0.5038017   0.0000000), wk =   0.0190476
        k(   26) = (   0.2013716   0.5038017   0.1768854), wk =   0.0380952
        k(   27) = (   0.2013716   0.5038017   0.3537709), wk =   0.0380952
        k(   28) = (   0.2013716   0.5038017   0.5306563), wk =   0.0380952
        k(   29) = (   0.2013716  -0.4650478   0.0000000), wk =   0.0190476
        k(   30) = (   0.2013716  -0.4650478   0.1768854), wk =   0.0380952
        k(   31) = (   0.2013716  -0.4650478   0.3537709), wk =   0.0380952
        k(   32) = (   0.2013716  -0.4650478   0.5306563), wk =   0.0380952
        k(   33) = (   0.2013716  -0.2712779   0.0000000), wk =   0.0190476
        k(   34) = (   0.2013716  -0.2712779   0.1768854), wk =   0.0380952
        k(   35) = (   0.2013716  -0.2712779   0.3537709), wk =   0.0380952
        k(   36) = (   0.2013716  -0.2712779   0.5306563), wk =   0.0380952
        k(   37) = (   0.2013716  -0.0775080   0.0000000), wk =   0.0190476
        k(   38) = (   0.2013716  -0.0775080   0.1768854), wk =   0.0380952
        k(   39) = (   0.2013716  -0.0775080   0.3537709), wk =   0.0380952
        k(   40) = (   0.2013716  -0.0775080   0.5306563), wk =   0.0380952
        k(   41) = (   0.4027432   0.2325239   0.0000000), wk =   0.0190476
        k(   42) = (   0.4027432   0.2325239   0.1768854), wk =   0.0380952
        k(   43) = (   0.4027432   0.2325239   0.3537709), wk =   0.0380952
        k(   44) = (   0.4027432   0.2325239   0.5306563), wk =   0.0380952
        k(   45) = (   0.4027432   0.4262938   0.0000000), wk =   0.0190476
        k(   46) = (   0.4027432   0.4262938   0.1768854), wk =   0.0380952
        k(   47) = (   0.4027432   0.4262938   0.3537709), wk =   0.0380952
        k(   48) = (   0.4027432   0.4262938   0.5306563), wk =   0.0380952
        k(   49) = (   0.4027432   0.6200637   0.0000000), wk =   0.0190476
        k(   50) = (   0.4027432   0.6200637   0.1768854), wk =   0.0380952
        k(   51) = (   0.4027432   0.6200637   0.3537709), wk =   0.0380952
        k(   52) = (   0.4027432   0.6200637   0.5306563), wk =   0.0380952
        k(   53) = (   0.4027432  -0.3487858   0.0000000), wk =   0.0190476
        k(   54) = (   0.4027432  -0.3487858   0.1768854), wk =   0.0380952
        k(   55) = (   0.4027432  -0.3487858   0.3537709), wk =   0.0380952
        k(   56) = (   0.4027432  -0.3487858   0.5306563), wk =   0.0380952
        k(   57) = (   0.4027432  -0.1550159   0.0000000), wk =   0.0190476
        k(   58) = (   0.4027432  -0.1550159   0.1768854), wk =   0.0380952
        k(   59) = (   0.4027432  -0.1550159   0.3537709), wk =   0.0380952
        k(   60) = (   0.4027432  -0.1550159   0.5306563), wk =   0.0380952
        k(   61) = (   0.4027432   0.0387540   0.0000000), wk =   0.0190476
        k(   62) = (   0.4027432   0.0387540   0.1768854), wk =   0.0380952
        k(   63) = (   0.4027432   0.0387540   0.3537709), wk =   0.0380952
        k(   64) = (   0.4027432   0.0387540   0.5306563), wk =   0.0380952

     Largest allocated arrays     est. size (Mb)     dimensions
     Largest temporary arrays     est. size (Mb)     dimensions

     Initial potential from superposition of free atoms

     Starting from uniform charge
     Starting wfc are    0 randomized atomic wfcs

     Writing output data file Prototype-La-hP8-Mg3Cd.save

     Self-consistent Calculation

[...]

     iteration #  9     ecut=    40.00 Ry     beta=0.70
     CG style diagonalization
     ethr =  1.71E-04,  avg # of iterations =  3.2

[...]

     total energy              =   -2196.37992517 Ry
     Harris-Foulkes estimate   =   -2196.37997219 Ry
     estimated scf accuracy    <       0.00011660 Ry

     iteration # 12     ecut=    40.00 Ry     beta=0.70
     CG style diagonalization
     c_bands:  1 eigenvalues not converged
     c_bands:  1 eigenvalues not converged
     c_bands:  1 eigenvalues not converged
     c_bands:  1 eigenvalues not converged
     ethr =  7.29E-08,  avg # of iterations =  3.9

     End of self-consistent calculation

[...]

          k = 0.4027 0.0388 0.5307 (  5117 PWs)   bands (ev):

   -76.7065 -76.7026 -76.7012 -76.6986 -76.6898 -76.6843 -38.7121 -38.7048
   -38.6743 -38.6697 -38.6648 -38.6592 -38.6498 -38.6426 -38.6309 -38.6290
   -38.6241 -38.6168 -38.6061 -38.5938 -38.5933 -38.5860 -38.5789 -38.5762
   -23.0455 -23.0450  -1.5747  -1.5696  -1.5400  -1.5343  -1.5286  -1.5264
     7.5018   7.5278   7.6235   7.6648   7.7560   7.7736   7.8426   7.8938
     7.9015   7.9249   8.0225   8.0346   8.2048   8.2688   8.2958   8.3331
     8.3433   8.4441   8.4683   8.4840   8.5413   8.5956   8.6056   8.6253
     8.6872   8.7074   8.9045   8.9277   8.9929   9.0610  13.7348  14.7033
    15.7452  16.1797  17.1109  17.4877  19.7322  20.2531  20.3253  20.7484
    21.9485  22.2081  22.6393  22.8746  23.4930  23.7528  24.4908  24.6049
    24.6893  24.9819  26.2322  26.6837  26.7995  27.1474  27.7714  28.6455
    28.9893  29.3310  29.4226  29.9303  30.3021  30.5608  30.7358  30.7916

     the Fermi energy is    24.7673 ev

!    total energy              =   -2196.37993437 Ry
     Harris-Foulkes estimate   =   -2196.37995546 Ry
     estimated scf accuracy    <       0.00002423 Ry

     The total energy is the sum of the following terms:

     one-electron contribution =    -635.42673498 Ry
     hartree contribution      =     400.51600956 Ry
     xc contribution           =    -193.36894874 Ry
     ewald contribution        =   -1767.75370595 Ry
     smearing contrib. (-TS)   =      -0.34655427 Ry

     convergence has been achieved in  12 iterations

     Forces acting on atoms (Ry/au):

     atom    1 type  1   force =     0.01239510    0.00715632    0.00000000
     atom    2 type  1   force =     0.01239510   -0.00715632    0.00000000
     atom    3 type  1   force =    -0.01239510   -0.00715632    0.00000000
     atom    4 type  1   force =    -0.01239510    0.00715632    0.00000000
     atom    5 type  1   force =     0.00000000   -0.01431263    0.00000000
     atom    6 type  1   force =     0.00000000    0.01431263    0.00000000
     atom    7 type  2   force =     0.00000000    0.00000000    0.00000000
     atom    8 type  2   force =     0.00000000    0.00000000    0.00000000

     Total force =     0.035059     Total SCF correction =     0.000000

     entering subroutine stress ...

          total   stress  (Ry/bohr**3)                   (kbar)     P= -216.23
  -0.00155976   0.00000000   0.00000000       -229.45      0.00      0.00
   0.00000000  -0.00155976   0.00000000          0.00   -229.45      0.00
   0.00000000   0.00000000  -0.00129019          0.00      0.00   -189.79

     Writing output data file Prototype-La-hP8-Mg3Cd.save

     General routines

     Parallel routines

   This run was terminated on:  23:58:51  22Mar2018

   JOB DONE.