     Program PWSCF v.5.0.2 starts on 22Mar2018 at 22:45:38

     Current dimensions of program PWSCF are:
     Max number of different atomic species (ntypx) = 10
     Max number of k-points (npk) =  40000
     Max angular momentum in pseudopotentials (lmaxx) =  3
     Waiting for input...
     Reading input from standard input

     Subspace diagonalization in iterative solution of the eigenvalue problem:
     a serial algorithm will be used

     bravais-lattice index     =            0
     lattice parameter (alat)  =       7.0151  a.u.
     unit-cell volume          =     862.2778 (a.u.)^3
     number of atoms/cell      =           12
     number of atomic types    =            2
     number of electrons       =       232.00
     number of Kohn-Sham states=          139
     kinetic-energy cutoff     =      40.0000  Ry
     charge density cutoff     =     160.0000  Ry
     convergence threshold     =      1.0E-04
     mixing beta               =       0.7000
     number of iterations used =            8  plain     mixing
     Exchange-correlation      = SLA-PZ-NOGX-NOGC ( 1 1 0 0 0)
     EXX-fraction              =        0.00
     nstep                     =           50

     celldm(1)=   7.015105  celldm(2)=   0.000000  celldm(3)=   0.000000
     celldm(4)=   0.000000  celldm(5)=   0.000000  celldm(6)=   0.000000

     crystal axes: (cart. coord. in units of alat)
               a(1) = (   1.000000   0.000000   0.000000 )
               a(2) = (   0.000000   1.315963   0.000000 )
               a(3) = (   0.000000   0.000000   1.898020 )

     reciprocal axes: (cart. coord. in units 2 pi/alat)
               b(1) = (  1.000000  0.000000  0.000000 )
               b(2) = (  0.000000  0.759900  0.000000 )
               b(3) = (  0.000000  0.000000  0.526865 )

     PseudoPot. # 1 for Er read from file:
     /home/cwx6513/pp.La/Er.UPF
     MD5 check sum: e152ae21b84514339d8526f066caf99b
     Pseudo is Norm-conserving, Zval = 22.0
     Generated in analytical, separable form
     Using radial grid of 1267 points,  6 beta functions with:
                l(1) =   0
                l(2) =   0
                l(3) =   1
                l(4) =   1
                l(5) =   2
                l(6) =   3

     PseudoPot. # 2 for Nd read from file:
     /home/cwx6513/pp.La/Nd.UPF
     MD5 check sum: c66c5b6abe7b5840ced9b1e244e3bed6
     Pseudo is Norm-conserving, Zval = 14.0
     Generated in analytical, separable form
     Using radial grid of 1257 points,  6 beta functions with:
                l(1) =   0
                l(2) =   0
                l(3) =   1
                l(4) =   1
                l(5) =   2
                l(6) =   3

     atomic species   valence    mass     pseudopotential
        Co            22.00    58.93320     Er( 1.00)
        Si            14.00    28.08550     Nd( 1.00)

      8 Sym. Ops., with inversion, found ( 6 have fractional translation)

   Cartesian axes

     site n.     atom                  positions (alat units)
         1           Co  tau(   1) = (   0.7500000   1.0875135   0.8270358  )
         2           Co  tau(   2) = (   0.2500000   0.2284499   1.0709846  )
         3           Co  tau(   3) = (   0.7500000   0.4295318   0.1219744  )
         4           Co  tau(   4) = (   0.2500000   0.8864316   1.7760460  )
         5           Co  tau(   5) = (   0.2500000   0.7067855   0.5358966  )
         6           Co  tau(   6) = (   0.7500000   0.6091779   1.3621238  )
         7           Co  tau(   7) = (   0.2500000   0.0488038   0.4131136  )
         8           Co  tau(   8) = (   0.7500000   1.2671596   1.4849068  )
         9           Si  tau(   9) = (   0.2500000   0.2669484   1.6960710  )
        10           Si  tau(  10) = (   0.7500000   1.0490149   0.2019494  )
        11           Si  tau(  11) = (   0.2500000   0.9249301   1.1509596  )
        12           Si  tau(  12) = (   0.7500000   0.3910333   0.7470608  )

     number of k points=    12  gaussian smearing, width (Ry)=  0.1000
                       cart. coord. in units 2pi/alat
        k(    1) = (   0.0000000   0.0000000   0.0000000), wk =   0.0833333
        k(    2) = (   0.0000000   0.0000000   0.1317162), wk =   0.1666667
        k(    3) = (   0.0000000   0.0000000  -0.2634324), wk =   0.0833333
        k(    4) = (   0.0000000   0.2532999   0.0000000), wk =   0.1666667
        k(    5) = (   0.0000000   0.2532999   0.1317162), wk =   0.3333333
        k(    6) = (   0.0000000   0.2532999  -0.2634324), wk =   0.1666667
        k(    7) = (  -0.5000000   0.0000000   0.0000000), wk =   0.0833333
        k(    8) = (  -0.5000000   0.0000000   0.1317162), wk =   0.1666667
        k(    9) = (  -0.5000000   0.0000000  -0.2634324), wk =   0.0833333
        k(   10) = (  -0.5000000   0.2532999   0.0000000), wk =   0.1666667
        k(   11) = (  -0.5000000   0.2532999   0.1317162), wk =   0.3333333
        k(   12) = (  -0.5000000   0.2532999  -0.2634324), wk =   0.1666667

     Largest allocated arrays     est. size (Mb)     dimensions
     Largest temporary arrays     est. size (Mb)     dimensions

     Initial potential from superposition of free atoms

     Starting from uniform charge
     Starting wfc are    0 randomized atomic wfcs

     Self-consistent Calculation

     iteration #  1     ecut=    40.00 Ry     beta=0.70
     CG style diagonalization
     c_bands:  5 eigenvalues not converged
     ethr =  1.00E-02,  avg # of iterations = 15.8

     total energy              =   -2322.31231721 Ry
     Harris-Foulkes estimate   =   -3598.71613100 Ry
     estimated scf accuracy    <    1575.63891023 Ry

[...]

     iteration #  4     ecut=    40.00 Ry     beta=0.70
     CG style diagonalization
     ethr =  1.00E-02,  avg # of iterations =  4.3

[...]

     End of self-consistent calculation

          k = 0.0000 0.0000 0.0000 (  3675 PWs)   bands (ev):

   -50.9672 -50.9556 -50.8466 -50.8187 -50.7804 -50.7799 -50.7682 -50.7472
   -14.0179 -13.8665 -13.7007 -13.6344 -13.5426 -13.4766 -13.4513 -13.3223
   -13.3074 -13.2317 -13.2279 -13.1646 -13.1379 -13.0827 -13.0312 -13.0128
   -13.0036 -12.9853 -12.8965 -12.8779 -12.8442 -12.7640 -12.7512 -12.6833
     2.7890   3.1285   3.1600   3.2057  21.1396  21.5655  21.7119  21.7834
    22.0772  22.2386  22.2403  22.5121  22.6982  22.9375  23.4000  24.0782
    28.6898  29.0040  29.0379  29.0949  29.4100  29.4536  29.5818  29.9733
    30.7866  30.8215  31.0569  31.3046  31.3621  31.4076  31.9332  32.3091
    32.4353  32.6455  32.6598  32.6805  32.9937  33.0909  33.1765  33.1922
    33.2615  33.4433  33.9025  34.3292  34.7573  34.7990  35.0345  35.0970
    35.2709  35.4394  35.6410  35.7639  35.8627  36.0046  36.2239  36.2478
    36.3918  38.9735  40.6853  41.1325  43.5504  44.3661  44.9932  45.0548
    45.1422  46.2553  46.6469  46.8757  47.0197  47.3421  48.3048  48.4438
    48.8278  48.8939  49.3225  49.7952  50.6612  51.2950  51.3420  51.5602
    51.6210  51.6629  51.8131  53.2511  54.4372  54.4409  55.1540  55.7979
    55.8126  56.7453  57.0210  57.2105  57.2166  57.2359  57.2993  57.5877
    57.8185  58.2828  58.5876  59.2128  59.5509  59.6295  60.0589  60.1630
    60.2218  60.5452  60.8561

[...]

          k =-0.5000 0.0000 0.0000 (  3722 PWs)   bands (ev):

[...]

     the Fermi energy is    53.5339 ev

!    total energy              =   -3058.70425765 Ry
     Harris-Foulkes estimate   =   -3058.70430787 Ry
     estimated scf accuracy    <       0.00005553 Ry

     The total energy is the sum of the following terms:

     one-electron contribution =     121.31020206 Ry
     hartree contribution      =     292.24861921 Ry
     xc contribution           =    -293.42843358 Ry
     ewald contribution        =   -3178.56443609 Ry
     smearing contrib. (-TS)   =      -0.27020925 Ry

     convergence has been achieved in  10 iterations

     Forces acting on atoms (Ry/au):

     atom    1 type  1   force =     0.00000000   -0.10077299   -0.05743779
     atom    2 type  1   force =     0.00000000    0.10077299    0.05743779
     atom    3 type  1   force =     0.00000000   -0.10077299    0.05743779
     atom    4 type  1   force =     0.00000000    0.10077299   -0.05743779
     atom    5 type  1   force =     0.00000000    0.16088017   -0.15721373
     atom    6 type  1   force =     0.00000000   -0.16088017    0.15721373
     atom    7 type  1   force =     0.00000000    0.16088017    0.15721373
     atom    8 type  1   force =     0.00000000   -0.16088017   -0.15721373
     atom    9 type  2   force =     0.00000000   -0.21540963   -0.00670937
     atom   10 type  2   force =     0.00000000    0.21540963    0.00670937
     atom   11 type  2   force =     0.00000000   -0.21540963    0.00670937
     atom   12 type  2   force =     0.00000000    0.21540963   -0.00670937

     Total force =     0.664828     Total SCF correction =     0.000000

     entering subroutine stress ...

          total   stress  (Ry/bohr**3)                   (kbar)     P= 7327.64
   0.05399979   0.00000000   0.00000000       7943.64      0.00      0.00
   0.00000000   0.04626868   0.00000000          0.00   6806.36      0.00
   0.00000000   0.00000000   0.04916837          0.00      0.00   7232.92

     BFGS Geometry Optimization

     number of scf cycles    =   1
     number of bfgs steps    =   0

     enthalpy new            =   -3058.7042576478 Ry

     new trust radius        =       0.5000000000 bohr
     new conv_thr            =       0.0001000000 Ry

     new unit-cell volume =   1081.77083 a.u.^3 (   160.30190 Ang^3 )

CELL_PARAMETERS (alat=  7.01510508)
   1.085136619   0.000000000   0.000000000
   0.000000000   1.411959852   0.000000000
   0.000000000   0.000000000   2.045153723

ATOMIC_POSITIONS (crystal)
Co       0.750000000   0.825712585   0.435463951
Co       0.250000000   0.174287415   0.564536049
Co       0.750000000   0.325712585   0.064536049
Co       0.250000000   0.674287415   0.935463951
Co       0.250000000   0.538185028   0.281600371
Co       0.750000000   0.461814972   0.718399629
Co       0.250000000   0.038185028   0.218399629
Co       0.750000000   0.961814972   0.781600371
Si       0.250000000   0.201382462   0.893568222
Si       0.750000000   0.798617538   0.106431778
Si       0.250000000   0.701382462   0.606431778
Si       0.750000000   0.298617538   0.393568222

     Writing output data file Prototype-La-oP12-Co2Si.save
     NEW-OLD atomic charge density approx. for the potential
     NEW k-points:
        k(    1) = (   0.0000000   0.0000000   0.0000000), wk =   0.0833333
        k(    2) = (   0.0000000   0.0000000   0.1222402), wk =   0.1666667
        k(    3) = (   0.0000000   0.0000000  -0.2444804), wk =   0.0833333
        k(    4) = (   0.0000000   0.2360785   0.0000000), wk =   0.1666667
        k(    5) = (   0.0000000   0.2360785   0.1222402), wk =   0.3333333
        k(    6) = (   0.0000000   0.2360785  -0.2444804), wk =   0.1666667
        k(    7) = (  -0.4607715   0.0000000   0.0000000), wk =   0.0833333
        k(    8) = (  -0.4607715   0.0000000   0.1222402), wk =   0.1666667
        k(    9) = (  -0.4607715   0.0000000  -0.2444804), wk =   0.0833333
        k(   10) = (  -0.4607715   0.2360785   0.0000000), wk =   0.1666667
        k(   11) = (  -0.4607715   0.2360785   0.1222402), wk =   0.3333333
        k(   12) = (  -0.4607715   0.2360785  -0.2444804), wk =   0.1666667

[...]

     enthalpy old            =   -3058.7042576478 Ry
     enthalpy new            =   -3065.5420246215 Ry

     CASE: enthalpy_new < enthalpy_old

     small trust_radius: resetting bfgs history

     new trust radius        =       2.9057223991 bohr
     new conv_thr            =       0.0001000000 Ry

[...]

          total   stress  (Ry/bohr**3)                   (kbar)     P=-3420.53
  -0.02540024   0.00000000   0.00000000      -3736.50      0.00      0.00
   0.00000000  -0.02120676   0.00000000          0.00  -3119.62      0.00
   0.00000000   0.00000000  -0.02314998          0.00      0.00  -3405.48

     number of scf cycles    =   3
     number of bfgs steps    =   2

     enthalpy old            =   -3065.5420246214 Ry
     enthalpy new            =   -3039.6006220077 Ry

     CASE: enthalpy_new > enthalpy_old

     new trust radius        =       0.7687040800 bohr

     trust_radius < trust_radius_min

     resetting bfgs history

     Message from routine bfgs:
     history already reset at previous step: stopping
     new conv_thr            =       0.0001000000 Ry

     new unit-cell volume =   1280.69846 a.u.^3 (   189.77993 Ang^3 )

[...]

ATOMIC_POSITIONS (crystal)
Co       0.750000000   0.825119220   0.435300186
Co       0.250000000   0.174880780   0.564699814
Co       0.750000000   0.325119220   0.064699814
Co       0.250000000   0.674880780   0.935300186
Co       0.250000000   0.539347098   0.280939781
Co       0.750000000   0.460652902   0.719060219
Co       0.250000000   0.039347098   0.219060219
Co       0.750000000   0.960652902   0.780939781
Si       0.250000000   0.199900578   0.893411111
Si       0.750000000   0.800099422   0.106588889
Si       0.250000000   0.699900578   0.606588889
Si       0.750000000   0.300099422   0.393411111

     Writing output data file Prototype-La-oP12-Co2Si.save
     NEW-OLD atomic charge density approx. for the potential
     NEW k-points:
        k(    1) = (   0.0000000   0.0000000   0.0000000), wk =   0.0833333
        k(    2) = (   0.0000000   0.0000000   0.1155048), wk =   0.1666667
        k(    3) = (   0.0000000   0.0000000  -0.2310096), wk =   0.0833333
        k(    4) = (   0.0000000   0.2248926   0.0000000), wk =   0.1666667
        k(    5) = (   0.0000000   0.2248926   0.1155048), wk =   0.3333333
        k(    6) = (   0.0000000   0.2248926  -0.2310096), wk =   0.1666667
        k(    7) = (  -0.4323836   0.0000000   0.0000000), wk =   0.0833333
        k(    8) = (  -0.4323836   0.0000000   0.1155048), wk =   0.1666667
        k(    9) = (  -0.4323836   0.0000000  -0.2310096), wk =   0.0833333
        k(   10) = (  -0.4323836   0.2248926   0.0000000), wk =   0.1666667
        k(   11) = (  -0.4323836   0.2248926   0.1155048), wk =   0.3333333
        k(   12) = (  -0.4323836   0.2248926  -0.2310096), wk =   0.1666667

[...]

     The maximum number of steps has been reached.

     End of BFGS Geometry Optimization
Begin final coordinates
     new unit-cell volume =   1280.69846 a.u.^3 (   189.77993 Ang^3 )

CELL_PARAMETERS (alat=  7.01510508)
   1.156380531   0.000000000   0.000000000
   0.000000000   1.482188794   0.000000000
   0.000000000   0.000000000   2.164412571

ATOMIC_POSITIONS (crystal)
Co       0.750000000   0.825119220   0.435300186
Co       0.250000000   0.174880780   0.564699814
Co       0.750000000   0.325119220   0.064699814
Co       0.250000000   0.674880780   0.935300186
Co       0.250000000   0.539347098   0.280939781
Co       0.750000000   0.460652902   0.719060219
Co       0.250000000   0.039347098   0.219060219
Co       0.750000000   0.960652902   0.780939781
Si       0.250000000   0.199900578   0.893411111
Si       0.750000000   0.800099422   0.106588889
Si       0.250000000   0.699900578   0.606588889
Si       0.750000000   0.300099422   0.393411111
End final coordinates

     A final scf calculation at the relaxed structure.
     The G-vectors are recalculated for the final unit cell
     Results may differ from those at the preceding step.

     bravais-lattice index     =            0
     lattice parameter (alat)  =       7.0151  a.u.
     unit-cell volume          =    1280.6985 (a.u.)^3
     number of atoms/cell      =           12
     number of atomic types    =            2
     number of electrons       =       232.00
     number of Kohn-Sham states=          139
     kinetic-energy cutoff     =      40.0000  Ry
     charge density cutoff     =     160.0000  Ry
     convergence threshold     =      1.0E-04
     mixing beta               =       0.7000
     number of iterations used =            8  plain     mixing
     Exchange-correlation      = SLA-PZ-NOGX-NOGC ( 1 1 0 0 0)
     EXX-fraction              =        0.00

     celldm(1)=   7.015105  celldm(2)=   0.000000  celldm(3)=   0.000000
     celldm(4)=   0.000000  celldm(5)=   0.000000  celldm(6)=   0.000000

     crystal axes: (cart. coord. in units of alat)
               a(1) = (   1.156381   0.000000   0.000000 )
               a(2) = (   0.000000   1.482189   0.000000 )
               a(3) = (   0.000000   0.000000   2.164413 )

     reciprocal axes: (cart. coord. in units 2 pi/alat)
               b(1) = (  0.864767  0.000000  0.000000 )
               b(2) = (  0.000000  0.674678  0.000000 )
               b(3) = (  0.000000  0.000000  0.462019 )

     PseudoPot. # 1 for Er read from file:
     /home/cwx6513/pp.La/Er.UPF
     MD5 check sum: e152ae21b84514339d8526f066caf99b
     Pseudo is Norm-conserving, Zval = 22.0
     Generated in analytical, separable form
     Using radial grid of 1267 points,  6 beta functions with:
                l(1) =   0
                l(2) =   0
                l(3) =   1
                l(4) =   1
                l(5) =   2
                l(6) =   3

     PseudoPot. # 2 for Nd read from file:
     /home/cwx6513/pp.La/Nd.UPF
     MD5 check sum: c66c5b6abe7b5840ced9b1e244e3bed6
     Pseudo is Norm-conserving, Zval = 14.0
     Generated in analytical, separable form
     Using radial grid of 1257 points,  6 beta functions with:
                l(1) =   0
                l(2) =   0
                l(3) =   1
                l(4) =   1
                l(5) =   2
                l(6) =   3

     atomic species   valence    mass     pseudopotential
        Co            22.00    58.93320     Er( 1.00)
        Si            14.00    28.08550     Nd( 1.00)

      8 Sym. Ops., with inversion, found ( 6 have fractional translation)

   Cartesian axes

     site n.     atom                  positions (alat units)
         1           Co  tau(   1) = (   0.8672854   1.2229825   0.9421692  )
         2           Co  tau(   2) = (   0.2890951   0.2592063   1.2222434  )
         3           Co  tau(   3) = (   0.8672854   0.4818881   0.1400371  )
         4           Co  tau(   4) = (   0.2890951   1.0003007   2.0243755  )
         5           Co  tau(   5) = (   0.2890951   0.7994142   0.6080696  )
         6           Co  tau(   6) = (   0.8672854   0.6827746   1.5563430  )
         7           Co  tau(   7) = (   0.2890951   0.0583198   0.4741367  )
         8           Co  tau(   8) = (   0.8672854   1.4238690   1.6902759  )
         9           Si  tau(   9) = (   0.2890951   0.2962904   1.9337102  )
        10           Si  tau(  10) = (   0.8672854   1.1858984   0.2307023  )
        11           Si  tau(  11) = (   0.2890951   1.0373848   1.3129086  )
        12           Si  tau(  12) = (   0.8672854   0.4448040   0.8515040  )

     number of k points=    12  gaussian smearing, width (Ry)=  0.1000
                       cart. coord. in units 2pi/alat
        k(    1) = (   0.0000000   0.0000000   0.0000000), wk =   0.0833333
        k(    2) = (   0.0000000   0.0000000   0.1155048), wk =   0.1666667
        k(    3) = (   0.0000000   0.0000000  -0.2310096), wk =   0.0833333
        k(    4) = (   0.0000000   0.2248926   0.0000000), wk =   0.1666667
        k(    5) = (   0.0000000   0.2248926   0.1155048), wk =   0.3333333
        k(    6) = (   0.0000000   0.2248926  -0.2310096), wk =   0.1666667
        k(    7) = (  -0.4323836   0.0000000   0.0000000), wk =   0.0833333
        k(    8) = (  -0.4323836   0.0000000   0.1155048), wk =   0.1666667
        k(    9) = (  -0.4323836   0.0000000  -0.2310096), wk =   0.0833333
        k(   10) = (  -0.4323836   0.2248926   0.0000000), wk =   0.1666667
        k(   11) = (  -0.4323836   0.2248926   0.1155048), wk =   0.3333333
        k(   12) = (  -0.4323836   0.2248926  -0.2310096), wk =   0.1666667

     Largest allocated arrays     est. size (Mb)     dimensions
     Largest temporary arrays     est. size (Mb)     dimensions

     Initial potential from superposition of free atoms

     Starting from uniform charge
     Starting wfc are    0 randomized atomic wfcs

     Writing output data file Prototype-La-oP12-Co2Si.save

     Self-consistent Calculation

[...]

     iteration # 10     ecut=    40.00 Ry     beta=0.70
     CG style diagonalization
     c_bands:  1 eigenvalues not converged
     ethr =  5.01E-07,  avg # of iterations =  3.6

     total energy              =   -3072.09009891 Ry
     Harris-Foulkes estimate   =   -3072.09021260 Ry
     estimated scf accuracy    <       0.00018962 Ry

     iteration # 11     ecut=    40.00 Ry     beta=0.70
     CG style diagonalization
     ethr =  8.17E-08,  avg # of iterations =  3.7

     End of self-consistent calculation

[...]

          k = 0.0000 0.2249-0.2310 (  5468 PWs)   bands (ev):

[...]

          k =-0.4324 0.2249-0.2310 (  5504 PWs)   bands (ev):

   -67.0439 -67.0439 -67.0395 -67.0395 -66.8431 -66.8431 -66.8347 -66.8347
   -29.2066 -29.2066 -29.0902 -29.0902 -29.0770 -29.0770 -29.0580 -29.0580
   -29.0576 -29.0576 -29.0305 -29.0305 -28.9084 -28.9084 -28.8925 -28.8925
   -28.8797 -28.8797 -28.8711 -28.8711 -28.8409 -28.8409 -28.8367 -28.8367
   -12.7571 -12.7571 -12.7486 -12.7486   7.7452   7.7452   7.8510   7.8510
     7.9816   7.9816   7.9961   7.9961   8.2434   8.2434   8.2673   8.2673
    16.1222  16.1222  16.5261  16.5261  16.6602  16.6602  16.7507  16.7507
    16.8020  16.8020  16.9754  16.9754  17.1079  17.1079  17.3201  17.3201
    17.3591  17.3591  17.5314  17.5314  17.6985  17.6985  17.7790  17.7790
    17.8273  17.8273  17.9276  17.9276  17.9549  17.9549  18.1628  18.1628
    18.2388  18.2388  18.5911  18.5911  18.6850  18.6850  18.7956  18.7956
    23.9504  23.9504  24.3469  24.3469  25.9623  25.9623  26.6868  26.6868
    29.5251  29.5251  29.7161  29.7161  30.1371  30.1371  30.6963  30.6963
    31.6886  31.6886  32.2185  32.2185  32.5265  32.5265  33.0664  33.0664
    33.2737  33.2737  34.4962  34.4962  35.8379  35.8379  36.3766  36.3766
    37.3887  37.3887  38.6362  38.6363  39.0362  39.0362  39.4479  39.4479
    40.4592  40.4592  41.1396  41.1397  41.4325  41.4326  41.7808  41.7811
    42.0892  42.0893  42.7213

     the Fermi energy is    35.3401 ev

!    total energy              =   -3072.09015249 Ry
     Harris-Foulkes estimate   =   -3072.09015494 Ry
     estimated scf accuracy    <       0.00000247 Ry

     The total energy is the sum of the following terms:

     one-electron contribution =    -429.46662906 Ry
     hartree contribution      =     425.83202450 Ry
     xc contribution           =    -281.81212551 Ry
     ewald contribution        =   -2786.32694112 Ry
     smearing contrib. (-TS)   =      -0.31648130 Ry

     convergence has been achieved in  11 iterations

     Forces acting on atoms (Ry/au):

     atom    1 type  1   force =     0.00000000   -0.04411151   -0.00559630
     atom    2 type  1   force =     0.00000000    0.04411151    0.00559630
     atom    3 type  1   force =     0.00000000   -0.04411151    0.00559630
     atom    4 type  1   force =     0.00000000    0.04411151   -0.00559630
     atom    5 type  1   force =     0.00000000    0.07189107   -0.05514654
     atom    6 type  1   force =     0.00000000   -0.07189107    0.05514654
     atom    7 type  1   force =     0.00000000    0.07189107    0.05514654
     atom    8 type  1   force =     0.00000000   -0.07189107   -0.05514654
     atom    9 type  2   force =     0.00000000   -0.10432122   -0.02814781
     atom   10 type  2   force =     0.00000000    0.10432122    0.02814781
     atom   11 type  2   force =     0.00000000   -0.10432122    0.02814781
     atom   12 type  2   force =     0.00000000    0.10432122   -0.02814781

     Total force =     0.295715     Total SCF correction =     0.000000

     entering subroutine stress ...

          total   stress  (Ry/bohr**3)                   (kbar)     P= 1237.27
   0.00900575   0.00000000   0.00000000       1324.79      0.00      0.00
   0.00000000   0.00764924   0.00000000          0.00   1125.24      0.00
   0.00000000   0.00000000   0.00857745          0.00      0.00   1261.79

     Writing output data file Prototype-La-oP12-Co2Si.save

     General routines

     Parallel routines

   This run was terminated on:  23: 5: 0  22Mar2018

   JOB DONE.