     Program PWSCF v.5.0.2 starts on 22Mar2018 at 22:44:19

     Current dimensions of program PWSCF are:
     Max number of different atomic species (ntypx) = 10
     Max number of k-points (npk) =  40000
     Max angular momentum in pseudopotentials (lmaxx) =  3
     Waiting for input...
     Reading input from standard input

     Subspace diagonalization in iterative solution of the eigenvalue problem:
     a serial algorithm will be used

     bravais-lattice index     =            0
     lattice parameter (alat)  =       9.9235  a.u.
     unit-cell volume          =    1361.0366 (a.u.)^3
     number of atoms/cell      =           12
     number of atomic types    =            2
     number of electrons       =       200.00
     number of Kohn-Sham states=          120
     kinetic-energy cutoff     =      40.0000  Ry
     charge density cutoff     =     160.0000  Ry
     convergence threshold     =      1.0E-04
     mixing beta               =       0.7000
     number of iterations used =            8  plain     mixing
     Exchange-correlation      = SLA-PZ-NOGX-NOGC ( 1 1 0 0 0)
     EXX-fraction              =        0.00
     nstep                     =           50

     celldm(1)=   9.923489  celldm(2)=   0.000000  celldm(3)=   0.000000
     celldm(4)=   0.000000  celldm(5)=   0.000000  celldm(6)=   0.000000

     crystal axes: (cart. coord. in units of alat)
               a(1) = (   1.000000   0.000000   0.000000 )
               a(2) = (  -0.500000   0.866025   0.000000 )
               a(3) = (   0.000000   0.000000   1.608222 )

     reciprocal axes: (cart. coord. in units 2 pi/alat)
               b(1) = (  1.000000  0.577350  0.000000 )
               b(2) = (  0.000000  1.154701  0.000000 )
               b(3) = (  0.000000  0.000000  0.621805 )

     PseudoPot. # 1 for Er read from file:
     /home/cwx6513/pp.La/Er.UPF
     MD5 check sum: e152ae21b84514339d8526f066caf99b
     Pseudo is Norm-conserving, Zval = 22.0
     Generated in analytical, separable form
     Using radial grid of 1267 points,  6 beta functions with:
                l(1) =   0
                l(2) =   0
                l(3) =   1
                l(4) =   1
                l(5) =   2
                l(6) =   3

     PseudoPot. # 2 for Nd read from file:
     /home/cwx6513/pp.La/Nd.UPF
     MD5 check sum: c66c5b6abe7b5840ced9b1e244e3bed6
     Pseudo is Norm-conserving, Zval = 14.0
     Generated in analytical, separable form
     Using radial grid of 1257 points,  6 beta functions with:
                l(1) =   0
                l(2) =   0
                l(3) =   1
                l(4) =   1
                l(5) =   2
                l(6) =   3

     atomic species   valence    mass     pseudopotential
        Mg            22.00    24.30500     Er( 1.00)
        Zn            14.00    65.39000     Nd( 1.00)

     24 Sym. Ops., with inversion, found (12 have fractional translation)

   Cartesian axes

     site n.     atom                  positions (alat units)
         1           Mg  tau(   1) = (  -0.0000005   0.5773506   0.1003820  )
         2           Mg  tau(   2) = (   0.5000005   0.2886748   0.9044931  )
         3           Mg  tau(   3) = (   0.5000005   0.2886748   1.5078402  )
         4           Mg  tau(   4) = (  -0.0000005   0.5773506   0.7037291  )
         5           Zn  tau(   5) = (   0.0000000   0.0000000   0.0000000  )
         6           Zn  tau(   6) = (   0.0000000   0.0000000   0.8041111  )
         7           Zn  tau(   7) = (   0.0000000   0.2950739   1.2061667  )
         8           Zn  tau(   8) = (   0.7444585   0.1475370   0.4020556  )
         9           Zn  tau(   9) = (   0.2555415   0.1475370   0.4020556  )
        10           Zn  tau(  10) = (   0.2444585   0.7184884   1.2061667  )
        11           Zn  tau(  11) = (  -0.2444585   0.7184884   1.2061667  )
        12           Zn  tau(  12) = (   0.5000000   0.5709515   0.4020556  )

     number of k points=    12  gaussian smearing, width (Ry)=  0.1000
                       cart. coord. in units 2pi/alat
        k(    1) = (   0.0000000   0.0000000   0.0000000), wk =   0.0833333
        k(    2) = (   0.0000000   0.0000000   0.1554512), wk =   0.1666667
        k(    3) = (   0.0000000   0.0000000  -0.3109023), wk =   0.0833333
        k(    4) = (   0.0000000   0.3849002   0.0000000), wk =   0.1666667
        k(    5) = (   0.0000000   0.3849002   0.1554512), wk =   0.3333333
        k(    6) = (   0.0000000   0.3849002  -0.3109023), wk =   0.1666667
        k(    7) = (  -0.5000000  -0.2886751   0.0000000), wk =   0.0833333
        k(    8) = (  -0.5000000  -0.2886751   0.1554512), wk =   0.1666667
        k(    9) = (  -0.5000000  -0.2886751  -0.3109023), wk =   0.0833333
        k(   10) = (  -0.5000000   0.0962250   0.0000000), wk =   0.1666667
        k(   11) = (  -0.5000000   0.0962250   0.1554512), wk =   0.3333333
        k(   12) = (  -0.5000000   0.0962250  -0.3109023), wk =   0.1666667

     Largest allocated arrays     est. size (Mb)     dimensions
     Largest temporary arrays     est. size (Mb)     dimensions

     Initial potential from superposition of free atoms

     Starting from uniform charge
     Starting wfc are    0 randomized atomic wfcs

     Self-consistent Calculation

     iteration #  1     ecut=    40.00 Ry     beta=0.70
     CG style diagonalization
     c_bands:  3 eigenvalues not converged
     ethr =  1.00E-02,  avg # of iterations = 12.4

     total energy              =   -1005.22641901 Ry
     Harris-Foulkes estimate   =   -2838.68622650 Ry
     estimated scf accuracy    <    2187.16121478 Ry

     iteration #  2     ecut=    40.00 Ry     beta=0.70
     CG style diagonalization
     ethr =  1.00E-02,  avg # of iterations = 19.2

[...]

     End of self-consistent calculation

          k = 0.0000 0.0000 0.0000 (  5769 PWs)   bands (ev):

   -70.6369 -70.6264 -70.6202 -70.5894 -32.6408 -32.6241 -32.6150 -32.6149
   -32.5931 -32.5930 -32.5888 -32.5625 -32.5594 -32.5594 -32.5508 -32.5508
   -18.6167 -18.2652 -17.4374 -17.0265 -17.0264 -17.0201 -17.0200 -17.0128
    -0.4872   0.3098   1.1504   2.2071   2.2071   2.4369   2.4370   2.5946
     2.5946   3.2785   4.1470   4.1471   4.1502   4.1503   4.5686   5.7620
     5.7633   5.7649   5.8046   5.8047   6.2361   6.2362   6.3870   6.3870
    13.7783  13.7783  13.8010  13.8184  13.9735  13.9735  14.0220  14.0220
    14.1376  14.1377  14.3433  14.3646  14.3646  14.4814  14.4814  14.5434
    14.5494  14.5494  14.5811  14.5811  18.2959  20.1121  20.6794  22.7573
    22.8337  22.8338  24.1133  24.1210  24.2281  24.5594  24.5594  24.5849
    25.3130  25.3130  25.5463  25.5464  26.5417  26.5417  27.2931  27.6016
    27.6016  27.6225  28.0278  28.0278  29.7816  29.7817  30.4763  31.2431
    31.2931  31.6799  32.1117  32.1118  32.2351  32.2352  32.4739  32.6448
    32.6448  32.7113  32.7114  33.1740  33.1740  33.5908  33.5909  34.0863
    34.1113  34.4029  34.7072  34.7072  35.9258  35.9259  36.2722  37.1926

[...]

          k =-0.5000-0.2887 0.0000 (  5800 PWs)   bands (ev):

[...]

     the Fermi energy is    30.9404 ev

!    total energy              =   -2198.32561380 Ry
     Harris-Foulkes estimate   =   -2198.32562581 Ry
     estimated scf accuracy    <       0.00001423 Ry

     The total energy is the sum of the following terms:

     one-electron contribution =    -208.87614556 Ry
     hartree contribution      =     279.72409693 Ry
     xc contribution           =    -221.53423251 Ry
     ewald contribution        =   -2047.10459740 Ry
     smearing contrib. (-TS)   =      -0.53473526 Ry

     convergence has been achieved in  11 iterations

     Forces acting on atoms (Ry/au):

     atom    1 type  1   force =     0.00000000    0.00000000    0.01899189
     atom    2 type  1   force =     0.00000000    0.00000000    0.01899189
     atom    3 type  1   force =     0.00000000    0.00000000   -0.01899189
     atom    4 type  1   force =     0.00000000    0.00000000   -0.01899189
     atom    5 type  2   force =     0.00000000    0.00000000    0.00000000
     atom    6 type  2   force =     0.00000000    0.00000000    0.00000000
     atom    7 type  2   force =     0.00000000    0.04253324    0.00000000
     atom    8 type  2   force =    -0.03683486    0.02126662    0.00000000
     atom    9 type  2   force =     0.03683486    0.02126662    0.00000000
     atom   10 type  2   force =    -0.03683486   -0.02126662    0.00000000
     atom   11 type  2   force =     0.03683486   -0.02126662    0.00000000
     atom   12 type  2   force =     0.00000000   -0.04253324    0.00000000

     Total force =     0.110893     Total SCF correction =     0.000000

     entering subroutine stress ...

          total   stress  (Ry/bohr**3)                   (kbar)     P=  900.31
   0.00592238   0.00000000   0.00000000        871.21      0.00      0.00
   0.00000000   0.00592238   0.00000000          0.00    871.21      0.00
   0.00000000   0.00000000   0.00651574          0.00      0.00    958.50

     BFGS Geometry Optimization

     number of scf cycles    =   1
     number of bfgs steps    =   0

     enthalpy new            =   -2198.3256138034 Ry

     new trust radius        =       0.5000000000 bohr
     new conv_thr            =       0.0001000000 Ry

     new unit-cell volume =   1637.80547 a.u.^3 (   242.69773 Ang^3 )

CELL_PARAMETERS (alat=  9.92348860)
   1.061593915   0.000000000   0.000000000
  -0.530796957   0.919367298   0.000000000
   0.000000000   0.000000000   1.717203317

ATOMIC_POSITIONS (crystal)
Mg       0.333333000   0.666667000   0.062913061
Mg       0.666667000   0.333333000   0.562913061
Mg       0.666667000   0.333333000   0.937086939
Mg       0.333333000   0.666667000   0.437086939
Zn       0.000000000   0.000000000   0.000000000
Zn       0.000000000   0.000000000   0.500000000
Zn       0.171390449   0.342780897   0.750000000
Zn       0.828609551   0.171390449   0.250000000
Zn       0.342780897   0.171390449   0.250000000
Zn       0.657219103   0.828609551   0.750000000
Zn       0.171390449   0.828609551   0.750000000
Zn       0.828609551   0.657219103   0.250000000

     Writing output data file Prototype-La-hP12-MgZn2.save
     NEW-OLD atomic charge density approx. for the potential
     NEW k-points:
        k(    1) = (   0.0000000   0.0000000   0.0000000), wk =   0.0833333
        k(    2) = (   0.0000000   0.0000000   0.1455856), wk =   0.1666667
        k(    3) = (   0.0000000   0.0000000  -0.2911711), wk =   0.0833333
        k(    4) = (   0.0000000   0.3625682   0.0000000), wk =   0.1666667
        k(    5) = (   0.0000000   0.3625682   0.1455856), wk =   0.3333333
        k(    6) = (   0.0000000   0.3625682  -0.2911711), wk =   0.1666667
        k(    7) = (  -0.4709899  -0.2719261   0.0000000), wk =   0.0833333
        k(    8) = (  -0.4709899  -0.2719261   0.1455856), wk =   0.1666667
        k(    9) = (  -0.4709899  -0.2719261  -0.2911711), wk =   0.0833333
        k(   10) = (  -0.4709899   0.0906420   0.0000000), wk =   0.1666667
        k(   11) = (  -0.4709899   0.0906420   0.1455856), wk =   0.3333333
        k(   12) = (  -0.4709899   0.0906420  -0.2911711), wk =   0.1666667

[...]

     enthalpy old            =   -2198.3256138034 Ry
     enthalpy new            =   -2198.9674555771 Ry

     CASE: enthalpy_new < enthalpy_old

     small trust_radius: resetting bfgs history

     new trust radius        =       0.1652607517 bohr
     new conv_thr            =       0.0000156412 Ry

[...]

     number of scf cycles    =   3
     number of bfgs steps    =   2

     enthalpy old            =   -2198.9674555771 Ry
     enthalpy new            =   -2198.9573643499 Ry

     CASE: enthalpy_new > enthalpy_old

     new trust radius        =       0.0721676550 bohr

     trust_radius < trust_radius_min

     resetting bfgs history

     Message from routine bfgs:
     history already reset at previous step: stopping
     new conv_thr            =       0.0000156412 Ry

     new unit-cell volume =   1543.96095 a.u.^3 (   228.79141 Ang^3 )

[...]

ATOMIC_POSITIONS (crystal)
Mg       0.333333000   0.666667000   0.063861978
Mg       0.666667000   0.333333000   0.563861978
Mg       0.666667000   0.333333000   0.936138022
Mg       0.333333000   0.666667000   0.436138022
Zn       0.000000000   0.000000000   0.000000000
Zn       0.000000000   0.000000000   0.500000000
Zn       0.172147633   0.344295267   0.750000000
Zn       0.827852367   0.172147633   0.250000000
Zn       0.344295267   0.172147633   0.250000000
Zn       0.655704733   0.827852367   0.750000000
Zn       0.172147633   0.827852367   0.750000000
Zn       0.827852367   0.655704733   0.250000000

     Writing output data file Prototype-La-hP12-MgZn2.save
     NEW-OLD atomic charge density approx. for the potential
     NEW k-points:
        k(    1) = (   0.0000000   0.0000000   0.0000000), wk =   0.0833333
        k(    2) = (   0.0000000   0.0000000   0.1480889), wk =   0.1666667
        k(    3) = (   0.0000000   0.0000000  -0.2961777), wk =   0.0833333
        k(    4) = (   0.0000000   0.3702547   0.0000000), wk =   0.1666667
        k(    5) = (   0.0000000   0.3702547   0.1480889), wk =   0.3333333
        k(    6) = (   0.0000000   0.3702547  -0.2961777), wk =   0.1666667
        k(    7) = (  -0.4809750  -0.2776911   0.0000000), wk =   0.0833333
        k(    8) = (  -0.4809750  -0.2776911   0.1480889), wk =   0.1666667
        k(    9) = (  -0.4809750  -0.2776911  -0.2961777), wk =   0.0833333
        k(   10) = (  -0.4809750   0.0925637   0.0000000), wk =   0.1666667
        k(   11) = (  -0.4809750   0.0925637   0.1480889), wk =   0.3333333
        k(   12) = (  -0.4809750   0.0925637  -0.2961777), wk =   0.1666667

[...]

     The maximum number of steps has been reached.

     End of BFGS Geometry Optimization
Begin final coordinates
     new unit-cell volume =   1543.96095 a.u.^3 (   228.79141 Ang^3 )

CELL_PARAMETERS (alat=  9.92348860)
   1.039555035   0.000000000   0.000000000
  -0.519777518   0.900281069   0.000000000
   0.000000000   0.000000000   1.688175459

ATOMIC_POSITIONS (crystal)
Mg       0.333333000   0.666667000   0.063861978
Mg       0.666667000   0.333333000   0.563861978
Mg       0.666667000   0.333333000   0.936138022
Mg       0.333333000   0.666667000   0.436138022
Zn       0.000000000   0.000000000   0.000000000
Zn       0.000000000   0.000000000   0.500000000
Zn       0.172147633   0.344295267   0.750000000
Zn       0.827852367   0.172147633   0.250000000
Zn       0.344295267   0.172147633   0.250000000
Zn       0.655704733   0.827852367   0.750000000
Zn       0.172147633   0.827852367   0.750000000
Zn       0.827852367   0.655704733   0.250000000
End final coordinates

     A final scf calculation at the relaxed structure.
     The G-vectors are recalculated for the final unit cell
     Results may differ from those at the preceding step.

     bravais-lattice index     =            0
     lattice parameter (alat)  =       9.9235  a.u.
     unit-cell volume          =    1543.9610 (a.u.)^3
     number of atoms/cell      =           12
     number of atomic types    =            2
     number of electrons       =       200.00
     number of Kohn-Sham states=          120
     kinetic-energy cutoff     =      40.0000  Ry
     charge density cutoff     =     160.0000  Ry
     convergence threshold     =      1.6E-05
     mixing beta               =       0.7000
     number of iterations used =            8  plain     mixing
     Exchange-correlation      = SLA-PZ-NOGX-NOGC ( 1 1 0 0 0)
     EXX-fraction              =        0.00

     celldm(1)=   9.923489  celldm(2)=   0.000000  celldm(3)=   0.000000
     celldm(4)=   0.000000  celldm(5)=   0.000000  celldm(6)=   0.000000

     crystal axes: (cart. coord. in units of alat)
               a(1) = (   1.039555   0.000000   0.000000 )
               a(2) = (  -0.519778   0.900281   0.000000 )
               a(3) = (   0.000000   0.000000   1.688175 )

     reciprocal axes: (cart. coord. in units 2 pi/alat)
               b(1) = (  0.961950  0.555382  0.000000 )
               b(2) = (  0.000000  1.110764  0.000000 )
               b(3) = (  0.000000  0.000000  0.592355 )

     PseudoPot. # 1 for Er read from file:
     /home/cwx6513/pp.La/Er.UPF
     MD5 check sum: e152ae21b84514339d8526f066caf99b
     Pseudo is Norm-conserving, Zval = 22.0
     Generated in analytical, separable form
     Using radial grid of 1267 points,  6 beta functions with:
                l(1) =   0
                l(2) =   0
                l(3) =   1
                l(4) =   1
                l(5) =   2
                l(6) =   3

     PseudoPot. # 2 for Nd read from file:
     /home/cwx6513/pp.La/Nd.UPF
     MD5 check sum: c66c5b6abe7b5840ced9b1e244e3bed6
     Pseudo is Norm-conserving, Zval = 14.0
     Generated in analytical, separable form
     Using radial grid of 1257 points,  6 beta functions with:
                l(1) =   0
                l(2) =   0
                l(3) =   1
                l(4) =   1
                l(5) =   2
                l(6) =   3

     atomic species   valence    mass     pseudopotential
        Mg            22.00    24.30500     Er( 1.00)
        Zn            14.00    65.39000     Nd( 1.00)

     24 Sym. Ops., with inversion, found (12 have fractional translation)

   Cartesian axes

     site n.     atom                  positions (alat units)
         1           Mg  tau(   1) = (  -0.0000005   0.6001877   0.1078102  )
         2           Mg  tau(   2) = (   0.5197780   0.3000934   0.9518980  )
         3           Mg  tau(   3) = (   0.5197780   0.3000934   1.5803652  )
         4           Mg  tau(   4) = (  -0.0000005   0.6001877   0.7362775  )
         5           Zn  tau(   5) = (   0.0000000   0.0000000   0.0000000  )
         6           Zn  tau(   6) = (   0.0000000   0.0000000   0.8440877  )
         7           Zn  tau(   7) = (   0.0000000   0.3099625   1.2661316  )
         8           Zn  tau(   8) = (   0.7711196   0.1549813   0.4220439  )
         9           Zn  tau(   9) = (   0.2684354   0.1549813   0.4220439  )
        10           Zn  tau(  10) = (   0.2513421   0.7452998   1.2661316  )
        11           Zn  tau(  11) = (  -0.2513421   0.7452998   1.2661316  )
        12           Zn  tau(  12) = (   0.5197775   0.5903186   0.4220439  )

     number of k points=    12  gaussian smearing, width (Ry)=  0.1000
                       cart. coord. in units 2pi/alat
        k(    1) = (   0.0000000   0.0000000   0.0000000), wk =   0.0833333
        k(    2) = (   0.0000000   0.0000000   0.1480889), wk =   0.1666667
        k(    3) = (   0.0000000   0.0000000  -0.2961777), wk =   0.0833333
        k(    4) = (   0.0000000   0.3702547   0.0000000), wk =   0.1666667
        k(    5) = (   0.0000000   0.3702547   0.1480889), wk =   0.3333333
        k(    6) = (   0.0000000   0.3702547  -0.2961777), wk =   0.1666667
        k(    7) = (  -0.4809750  -0.2776911   0.0000000), wk =   0.0833333
        k(    8) = (  -0.4809750  -0.2776911   0.1480889), wk =   0.1666667
        k(    9) = (  -0.4809750  -0.2776911  -0.2961777), wk =   0.0833333
        k(   10) = (  -0.4809750   0.0925637   0.0000000), wk =   0.1666667
        k(   11) = (  -0.4809750   0.0925637   0.1480889), wk =   0.3333333
        k(   12) = (  -0.4809750   0.0925637  -0.2961777), wk =   0.1666667

     Largest allocated arrays     est. size (Mb)     dimensions
     Largest temporary arrays     est. size (Mb)     dimensions

     Initial potential from superposition of free atoms

     Starting from uniform charge
     Starting wfc are    0 randomized atomic wfcs

     Writing output data file Prototype-La-hP12-MgZn2.save

     Self-consistent Calculation

[...]

     iteration #  9     ecut=    40.00 Ry     beta=0.70
     CG style diagonalization
     c_bands:  1 eigenvalues not converged
     c_bands:  1 eigenvalues not converged
     c_bands:  2 eigenvalues not converged
     ethr =  1.36E-05,  avg # of iterations =  4.2

[...]

     total energy              =   -2199.66332869 Ry
     Harris-Foulkes estimate   =   -2199.66334062 Ry
     estimated scf accuracy    <       0.00002944 Ry

     iteration # 12     ecut=    40.00 Ry     beta=0.70
     CG style diagonalization
     ethr =  1.47E-08,  avg # of iterations =  3.9

     End of self-consistent calculation

[...]

          k = 0.0000 0.3703-0.2962 (  6602 PWs)   bands (ev):

[...]

          k =-0.4810 0.0926-0.2962 (  6594 PWs)   bands (ev):

   -74.3656 -74.3656 -74.3550 -74.3550 -36.3156 -36.3156 -36.2950 -36.2950
   -36.2926 -36.2926 -36.2896 -36.2896 -36.2850 -36.2850 -36.2821 -36.2820
   -21.6761 -21.6761 -21.4005 -21.4005 -20.9499 -20.9499 -20.9215 -20.9215
    -2.0192  -2.0192  -1.2006  -1.2006  -0.6160  -0.6160  -0.5450  -0.5450
    -0.3503  -0.3503  -0.1433  -0.1433   0.3929   0.3929   0.7840   0.7840
     1.0446   1.0446   1.2542   1.2542   1.7081   1.7081   1.8150   1.8150
    10.3105  10.3105  10.3275  10.3275  10.4334  10.4335  10.5416  10.5416
    10.5860  10.5860  10.6849  10.6849  10.7116  10.7116  10.7601  10.7601
    10.9147  10.9147  10.9520  10.9520  17.4202  17.4202  18.2054  18.2054
    21.1419  21.1419  21.3751  21.3751  21.9526  21.9526  22.1324  22.1324
    22.4462  22.4462  22.8770  22.8770  23.3068  23.3068  23.5873  23.5873
    23.8102  23.8102  24.7276  24.7276  25.3190  25.3190  25.4224  25.4224
    26.1331  26.1331  26.3801  26.3801  26.8609  26.8609  27.1235  27.1235
    27.5426  27.5426  28.3996  28.3996  28.6075  28.6075  29.2770  29.2770
    30.1831  30.1831  30.5723  30.5724  30.9833  30.9833  31.3213  31.3215

     the Fermi energy is    26.8514 ev

!    total energy              =   -2199.66333722 Ry
     Harris-Foulkes estimate   =   -2199.66333770 Ry
     estimated scf accuracy    <       0.00000066 Ry

     The total energy is the sum of the following terms:

     one-electron contribution =    -328.38977920 Ry
     hartree contribution      =     311.12241615 Ry
     xc contribution           =    -218.93097365 Ry
     ewald contribution        =   -1962.87201266 Ry
     smearing contrib. (-TS)   =      -0.59298785 Ry

     convergence has been achieved in  12 iterations

     Forces acting on atoms (Ry/au):

     atom    1 type  1   force =     0.00000000    0.00000000    0.00678058
     atom    2 type  1   force =     0.00000000    0.00000000    0.00678058
     atom    3 type  1   force =     0.00000000    0.00000000   -0.00678058
     atom    4 type  1   force =     0.00000000    0.00000000   -0.00678058
     atom    5 type  2   force =     0.00000000    0.00000000    0.00000000
     atom    6 type  2   force =     0.00000000    0.00000000    0.00000000
     atom    7 type  2   force =     0.00000000   -0.01401474    0.00000000
     atom    8 type  2   force =     0.01213712   -0.00700737    0.00000000
     atom    9 type  2   force =    -0.01213712   -0.00700737    0.00000000
     atom   10 type  2   force =     0.01213712    0.00700737    0.00000000
     atom   11 type  2   force =    -0.01213712    0.00700737    0.00000000
     atom   12 type  2   force =     0.00000000    0.01401474    0.00000000

     Total force =     0.036910     Total SCF correction =     0.000000

     entering subroutine stress ...

          total   stress  (Ry/bohr**3)                   (kbar)     P=  317.80
   0.00210700   0.00000000   0.00000000        309.95      0.00      0.00
   0.00000000   0.00210700   0.00000000          0.00    309.95      0.00
   0.00000000   0.00000000   0.00226698          0.00      0.00    333.48

     Writing output data file Prototype-La-hP12-MgZn2.save

     General routines

     Parallel routines

   This run was terminated on:  23:11:54  22Mar2018

   JOB DONE.