     Program PWSCF v.5.0.2 starts on 22Mar2018 at 22:47:32

     Current dimensions of program PWSCF are:
     Max number of different atomic species (ntypx) = 10
     Max number of k-points (npk) =  40000
     Max angular momentum in pseudopotentials (lmaxx) =  3
     Waiting for input...
     Reading input from standard input

     Subspace diagonalization in iterative solution of the eigenvalue problem:
     a serial algorithm will be used

     bravais-lattice index     =            0
     lattice parameter (alat)  =       8.5346  a.u.
     unit-cell volume          =     621.6493 (a.u.)^3
     number of atoms/cell      =            8
     number of atomic types    =            2
     number of electrons       =       136.00
     number of Kohn-Sham states=           82
     kinetic-energy cutoff     =      40.0000  Ry
     charge density cutoff     =     160.0000  Ry
     convergence threshold     =      1.0E-04
     mixing beta               =       0.7000
     number of iterations used =            8  plain     mixing
     Exchange-correlation      = SLA-PZ-NOGX-NOGC ( 1 1 0 0 0)
     EXX-fraction              =        0.00
     nstep                     =           50

     celldm(1)=   8.534573  celldm(2)=   0.000000  celldm(3)=   0.000000
     celldm(4)=   0.000000  celldm(5)=   0.000000  celldm(6)=   0.000000

     crystal axes: (cart. coord. in units of alat)
               a(1) = (   1.000000   0.000000   0.000000 )
               a(2) = (   0.000000   1.000000   0.000000 )
               a(3) = (   0.000000   0.000000   1.000000 )

     reciprocal axes: (cart. coord. in units 2 pi/alat)
               b(1) = (  1.000000  0.000000  0.000000 )
               b(2) = (  0.000000  1.000000  0.000000 )
               b(3) = (  0.000000  0.000000  1.000000 )

     PseudoPot. # 1 for Gd read from file:
     /home/cwx6513/pp.La/Gd.UPF
     MD5 check sum: 09a8be538722f05520810cb6aac0efd2
     Pseudo is Norm-conserving, Zval = 18.0
     Generated in analytical, separable form
     Using radial grid of 1263 points,  6 beta functions with:
                l(1) =   0
                l(2) =   0
                l(3) =   1
                l(4) =   1
                l(5) =   2
                l(6) =   3

     PseudoPot. # 2 for Nd read from file:
     /home/cwx6513/pp.La/Nd.UPF
     MD5 check sum: c66c5b6abe7b5840ced9b1e244e3bed6
     Pseudo is Norm-conserving, Zval = 14.0
     Generated in analytical, separable form
     Using radial grid of 1257 points,  6 beta functions with:
                l(1) =   0
                l(2) =   0
                l(3) =   1
                l(4) =   1
                l(5) =   2
                l(6) =   3

     atomic species   valence    mass     pseudopotential
        Cr            18.00    51.99610     Gd( 1.00)
        Si            14.00    28.08550     Nd( 1.00)

     48 Sym. Ops., with inversion, found (24 have fractional translation)

   Cartesian axes

     site n.     atom                  positions (alat units)
         1           Cr  tau(   1) = (   0.0000000   0.5000000   0.2500000  )
         2           Cr  tau(   2) = (   0.0000000   0.5000000   0.7500000  )
         3           Cr  tau(   3) = (   0.5000000   0.7500000   0.0000000  )
         4           Cr  tau(   4) = (   0.5000000   0.2500000   0.0000000  )
         5           Cr  tau(   5) = (   0.7500000   0.0000000   0.5000000  )
         6           Cr  tau(   6) = (   0.2500000   0.0000000   0.5000000  )
         7           Si  tau(   7) = (   0.5000000   0.5000000   0.5000000  )
         8           Si  tau(   8) = (   0.0000000   0.0000000   0.0000000  )

     number of k points=    48  gaussian smearing, width (Ry)=  0.1000
                       cart. coord. in units 2pi/alat
        k(    1) = (   0.0000000   0.0000000   0.0000000), wk =   0.0095238
        k(    2) = (   0.0000000   0.0000000   0.1428571), wk =   0.0190476
        k(    3) = (   0.0000000   0.0000000   0.2857143), wk =   0.0190476
        k(    4) = (   0.0000000   0.0000000   0.4285714), wk =   0.0190476
        k(    5) = (   0.0000000   0.1666667   0.0000000), wk =   0.0190476
        k(    6) = (   0.0000000   0.1666667   0.1428571), wk =   0.0380952
        k(    7) = (   0.0000000   0.1666667   0.2857143), wk =   0.0380952
        k(    8) = (   0.0000000   0.1666667   0.4285714), wk =   0.0380952
        k(    9) = (   0.0000000   0.3333333   0.0000000), wk =   0.0190476
        k(   10) = (   0.0000000   0.3333333   0.1428571), wk =   0.0380952
        k(   11) = (   0.0000000   0.3333333   0.2857143), wk =   0.0380952
        k(   12) = (   0.0000000   0.3333333   0.4285714), wk =   0.0380952
        k(   13) = (   0.0000000  -0.5000000   0.0000000), wk =   0.0095238
        k(   14) = (   0.0000000  -0.5000000   0.1428571), wk =   0.0190476
        k(   15) = (   0.0000000  -0.5000000   0.2857143), wk =   0.0190476
        k(   16) = (   0.0000000  -0.5000000   0.4285714), wk =   0.0190476
        k(   17) = (   0.2000000   0.0000000   0.0000000), wk =   0.0190476
        k(   18) = (   0.2000000   0.0000000   0.1428571), wk =   0.0380952
        k(   19) = (   0.2000000   0.0000000   0.2857143), wk =   0.0380952
        k(   20) = (   0.2000000   0.0000000   0.4285714), wk =   0.0380952
        k(   21) = (   0.2000000   0.1666667   0.0000000), wk =   0.0380952
        k(   22) = (   0.2000000   0.1666667   0.1428571), wk =   0.0761905
        k(   23) = (   0.2000000   0.1666667   0.2857143), wk =   0.0761905
        k(   24) = (   0.2000000   0.1666667   0.4285714), wk =   0.0761905
        k(   25) = (   0.2000000   0.3333333   0.0000000), wk =   0.0380952
        k(   26) = (   0.2000000   0.3333333   0.1428571), wk =   0.0761905
        k(   27) = (   0.2000000   0.3333333   0.2857143), wk =   0.0761905
        k(   28) = (   0.2000000   0.3333333   0.4285714), wk =   0.0761905
        k(   29) = (   0.2000000  -0.5000000   0.0000000), wk =   0.0190476
        k(   30) = (   0.2000000  -0.5000000   0.1428571), wk =   0.0380952
        k(   31) = (   0.2000000  -0.5000000   0.2857143), wk =   0.0380952
        k(   32) = (   0.2000000  -0.5000000   0.4285714), wk =   0.0380952
        k(   33) = (   0.4000000   0.0000000   0.0000000), wk =   0.0190476
        k(   34) = (   0.4000000   0.0000000   0.1428571), wk =   0.0380952
        k(   35) = (   0.4000000   0.0000000   0.2857143), wk =   0.0380952
        k(   36) = (   0.4000000   0.0000000   0.4285714), wk =   0.0380952
        k(   37) = (   0.4000000   0.1666667   0.0000000), wk =   0.0380952
        k(   38) = (   0.4000000   0.1666667   0.1428571), wk =   0.0761905
        k(   39) = (   0.4000000   0.1666667   0.2857143), wk =   0.0761905
        k(   40) = (   0.4000000   0.1666667   0.4285714), wk =   0.0761905
        k(   41) = (   0.4000000   0.3333333   0.0000000), wk =   0.0380952
        k(   42) = (   0.4000000   0.3333333   0.1428571), wk =   0.0761905
        k(   43) = (   0.4000000   0.3333333   0.2857143), wk =   0.0761905
        k(   44) = (   0.4000000   0.3333333   0.4285714), wk =   0.0761905
        k(   45) = (   0.4000000  -0.5000000   0.0000000), wk =   0.0190476
        k(   46) = (   0.4000000  -0.5000000   0.1428571), wk =   0.0380952
        k(   47) = (   0.4000000  -0.5000000   0.2857143), wk =   0.0380952
        k(   48) = (   0.4000000  -0.5000000   0.4285714), wk =   0.0380952

     Largest allocated arrays     est. size (Mb)     dimensions
     Largest temporary arrays     est. size (Mb)     dimensions

     Initial potential from superposition of free atoms

     Starting from uniform charge
     Starting wfc are    0 randomized atomic wfcs

     Self-consistent Calculation

     iteration #  1     ecut=    40.00 Ry     beta=0.70
     CG style diagonalization
     c_bands:  2 eigenvalues not converged
     c_bands:  4 eigenvalues not converged
     c_bands:  3 eigenvalues not converged
     c_bands:  3 eigenvalues not converged
     c_bands:  5 eigenvalues not converged
     c_bands:  3 eigenvalues not converged
     c_bands:  1 eigenvalues not converged
     c_bands:  3 eigenvalues not converged
     c_bands:  1 eigenvalues not converged
     c_bands:  3 eigenvalues not converged
     c_bands:  3 eigenvalues not converged
     c_bands:  1 eigenvalues not converged
     c_bands:  3 eigenvalues not converged
     c_bands:  4 eigenvalues not converged
     c_bands:  2 eigenvalues not converged
     c_bands:  4 eigenvalues not converged
     c_bands:  1 eigenvalues not converged
     c_bands:  1 eigenvalues not converged
     c_bands:  1 eigenvalues not converged
     c_bands:  2 eigenvalues not converged
     c_bands:  2 eigenvalues not converged
     c_bands:  2 eigenvalues not converged
     c_bands:  2 eigenvalues not converged
     c_bands:  2 eigenvalues not converged
     c_bands:  2 eigenvalues not converged
     c_bands:  1 eigenvalues not converged
     c_bands:  4 eigenvalues not converged
     c_bands:  2 eigenvalues not converged
     c_bands:  1 eigenvalues not converged
     c_bands:  1 eigenvalues not converged
     c_bands:  2 eigenvalues not converged
     c_bands:  1 eigenvalues not converged
     c_bands:  1 eigenvalues not converged
     c_bands:  2 eigenvalues not converged
     c_bands:  3 eigenvalues not converged
     ethr =  1.00E-02,  avg # of iterations = 12.1

     total energy              =   -1312.99273056 Ry
     Harris-Foulkes estimate   =   -1573.94171062 Ry
     estimated scf accuracy    <     338.22009586 Ry

     iteration #  2     ecut=    40.00 Ry     beta=0.70
     CG style diagonalization
     ethr =  1.00E-02,  avg # of iterations =  9.3

[...]

     End of self-consistent calculation

          k = 0.0000 0.0000 0.0000 (  2601 PWs)   bands (ev):

   -27.0837 -26.7100 -26.7100 -25.7199 -25.7199 -25.7199  -4.6970  -4.2692
    -1.2427  -1.2427  -0.2534   1.0722   1.0722   1.0722   2.6283   2.6283
     2.6283   2.6320   2.6320   2.6320   3.1189   3.1189   3.1189   4.9053
     4.9053   4.9053  16.5003  16.5003  16.5003  16.7871  16.7871  16.7871
    31.0355  31.0355  31.4005  31.4222  31.4222  31.4222  32.9903  34.2588
    34.3072  34.3072  34.3072  34.9332  34.9332  36.0813  36.0813  36.0813
    36.2446  39.1578  39.1578  39.2649  39.2649  39.2649  39.7612  39.7612
    39.7612  40.7868  40.7868  40.7868  40.9759  40.9759  40.9759  41.8277
    41.8277  43.7785  43.7785  43.7785  43.8883  43.8883  47.7788  47.7789
    47.7789  50.1188  50.1188  50.1189  50.7916  50.7916  50.7916  52.6019
    52.6021  52.6022

[...]

     the Fermi energy is    45.1783 ev

!    total energy              =   -1423.13267646 Ry
     Harris-Foulkes estimate   =   -1423.13268846 Ry
     estimated scf accuracy    <       0.00001327 Ry

     The total energy is the sum of the following terms:

     one-electron contribution =     206.00732813 Ry
     hartree contribution      =      96.03817671 Ry
     xc contribution           =    -155.36992811 Ry
     ewald contribution        =   -1569.57865020 Ry
     smearing contrib. (-TS)   =      -0.22960299 Ry

     convergence has been achieved in   9 iterations

     Forces acting on atoms (Ry/au):

[...]

     CASE: enthalpy_new < enthalpy_old

     small trust_radius: resetting bfgs history

     new trust radius        =       0.7373670420 bohr
     new conv_thr            =       0.0000010000 Ry

[...]

          total   stress  (Ry/bohr**3)                   (kbar)     P=-1100.35
  -0.00748006   0.00000000   0.00000000      -1100.35      0.00      0.00
   0.00000000  -0.00748006   0.00000000          0.00  -1100.35      0.00
   0.00000000   0.00000000  -0.00748006          0.00      0.00  -1100.35

     number of scf cycles    =   3
     number of bfgs steps    =   2

     enthalpy old            =   -1426.6336315184 Ry
     enthalpy new            =   -1425.5405535443 Ry

     CASE: enthalpy_new > enthalpy_old

     new trust radius        =       0.2344664090 bohr

     trust_radius < trust_radius_min

     resetting bfgs history

     Message from routine bfgs:
     history already reset at previous step: stopping
     new conv_thr            =       0.0000010000 Ry

     new unit-cell volume =   1048.28704 a.u.^3 (   155.34011 Ang^3 )

[...]

ATOMIC_POSITIONS (crystal)
Cr       0.000000000   0.500000000   0.250000000
Cr       0.000000000   0.500000000   0.750000000
Cr       0.500000000   0.750000000   0.000000000
Cr       0.500000000   0.250000000   0.000000000
Cr       0.750000000   0.000000000   0.500000000
Cr       0.250000000   0.000000000   0.500000000
Si       0.500000000   0.500000000   0.500000000
Si       0.000000000   0.000000000   0.000000000

     Writing output data file Prototype-La-cP8-Cr3Si.save
     NEW-OLD atomic charge density approx. for the potential
     NEW k-points:
        k(    1) = (   0.0000000   0.0000000   0.0000000), wk =   0.0095238
        k(    2) = (   0.0000000   0.0000000   0.1200209), wk =   0.0190476
        k(    3) = (   0.0000000   0.0000000   0.2400419), wk =   0.0190476
        k(    4) = (   0.0000000   0.0000000   0.3600628), wk =   0.0190476
        k(    5) = (   0.0000000   0.1400244   0.0000000), wk =   0.0190476
        k(    6) = (   0.0000000   0.1400244   0.1200209), wk =   0.0380952
        k(    7) = (   0.0000000   0.1400244   0.2400419), wk =   0.0380952
        k(    8) = (   0.0000000   0.1400244   0.3600628), wk =   0.0380952
        k(    9) = (   0.0000000   0.2800489   0.0000000), wk =   0.0190476
        k(   10) = (   0.0000000   0.2800489   0.1200209), wk =   0.0380952
        k(   11) = (   0.0000000   0.2800489   0.2400419), wk =   0.0380952
        k(   12) = (   0.0000000   0.2800489   0.3600628), wk =   0.0380952
        k(   13) = (   0.0000000  -0.4200733   0.0000000), wk =   0.0095238
        k(   14) = (   0.0000000  -0.4200733   0.1200209), wk =   0.0190476
        k(   15) = (   0.0000000  -0.4200733   0.2400419), wk =   0.0190476
        k(   16) = (   0.0000000  -0.4200733   0.3600628), wk =   0.0190476
        k(   17) = (   0.1680293   0.0000000   0.0000000), wk =   0.0190476
        k(   18) = (   0.1680293   0.0000000   0.1200209), wk =   0.0380952
        k(   19) = (   0.1680293   0.0000000   0.2400419), wk =   0.0380952
        k(   20) = (   0.1680293   0.0000000   0.3600628), wk =   0.0380952
        k(   21) = (   0.1680293   0.1400244   0.0000000), wk =   0.0380952
        k(   22) = (   0.1680293   0.1400244   0.1200209), wk =   0.0761905
        k(   23) = (   0.1680293   0.1400244   0.2400419), wk =   0.0761905
        k(   24) = (   0.1680293   0.1400244   0.3600628), wk =   0.0761905
        k(   25) = (   0.1680293   0.2800489   0.0000000), wk =   0.0380952
        k(   26) = (   0.1680293   0.2800489   0.1200209), wk =   0.0761905
        k(   27) = (   0.1680293   0.2800489   0.2400419), wk =   0.0761905
        k(   28) = (   0.1680293   0.2800489   0.3600628), wk =   0.0761905
        k(   29) = (   0.1680293  -0.4200733   0.0000000), wk =   0.0190476
        k(   30) = (   0.1680293  -0.4200733   0.1200209), wk =   0.0380952
        k(   31) = (   0.1680293  -0.4200733   0.2400419), wk =   0.0380952
        k(   32) = (   0.1680293  -0.4200733   0.3600628), wk =   0.0380952
        k(   33) = (   0.3360586   0.0000000   0.0000000), wk =   0.0190476
        k(   34) = (   0.3360586   0.0000000   0.1200209), wk =   0.0380952
        k(   35) = (   0.3360586   0.0000000   0.2400419), wk =   0.0380952
        k(   36) = (   0.3360586   0.0000000   0.3600628), wk =   0.0380952
        k(   37) = (   0.3360586   0.1400244   0.0000000), wk =   0.0380952
        k(   38) = (   0.3360586   0.1400244   0.1200209), wk =   0.0761905
        k(   39) = (   0.3360586   0.1400244   0.2400419), wk =   0.0761905
        k(   40) = (   0.3360586   0.1400244   0.3600628), wk =   0.0761905
        k(   41) = (   0.3360586   0.2800489   0.0000000), wk =   0.0380952
        k(   42) = (   0.3360586   0.2800489   0.1200209), wk =   0.0761905
        k(   43) = (   0.3360586   0.2800489   0.2400419), wk =   0.0761905
        k(   44) = (   0.3360586   0.2800489   0.3600628), wk =   0.0761905
        k(   45) = (   0.3360586  -0.4200733   0.0000000), wk =   0.0190476
        k(   46) = (   0.3360586  -0.4200733   0.1200209), wk =   0.0380952
        k(   47) = (   0.3360586  -0.4200733   0.2400419), wk =   0.0380952
        k(   48) = (   0.3360586  -0.4200733   0.3600628), wk =   0.0380952

[...]

     The maximum number of steps has been reached.

     End of BFGS Geometry Optimization
Begin final coordinates
     new unit-cell volume =   1048.28704 a.u.^3 (   155.34011 Ang^3 )

CELL_PARAMETERS (alat=  8.53457320)
   1.190268477   0.000000000   0.000000000
   0.000000000   1.190268477   0.000000000
   0.000000000   0.000000000   1.190268477

ATOMIC_POSITIONS (crystal)
Cr       0.000000000   0.500000000   0.250000000
Cr       0.000000000   0.500000000   0.750000000
Cr       0.500000000   0.750000000   0.000000000
Cr       0.500000000   0.250000000   0.000000000
Cr       0.750000000   0.000000000   0.500000000
Cr       0.250000000   0.000000000   0.500000000
Si       0.500000000   0.500000000   0.500000000
Si       0.000000000   0.000000000   0.000000000
End final coordinates

     A final scf calculation at the relaxed structure.
     The G-vectors are recalculated for the final unit cell
     Results may differ from those at the preceding step.

     bravais-lattice index     =            0
     lattice parameter (alat)  =       8.5346  a.u.
     unit-cell volume          =    1048.2870 (a.u.)^3
     number of atoms/cell      =            8
     number of atomic types    =            2
     number of electrons       =       136.00
     number of Kohn-Sham states=           82
     kinetic-energy cutoff     =      40.0000  Ry
     charge density cutoff     =     160.0000  Ry
     convergence threshold     =      1.0E-06
     mixing beta               =       0.7000
     number of iterations used =            8  plain     mixing
     Exchange-correlation      = SLA-PZ-NOGX-NOGC ( 1 1 0 0 0)
     EXX-fraction              =        0.00

     celldm(1)=   8.534573  celldm(2)=   0.000000  celldm(3)=   0.000000
     celldm(4)=   0.000000  celldm(5)=   0.000000  celldm(6)=   0.000000

     crystal axes: (cart. coord. in units of alat)
               a(1) = (   1.190268   0.000000   0.000000 )
               a(2) = (   0.000000   1.190268   0.000000 )
               a(3) = (   0.000000   0.000000   1.190268 )

     reciprocal axes: (cart. coord. in units 2 pi/alat)
               b(1) = (  0.840147  0.000000  0.000000 )
               b(2) = (  0.000000  0.840147  0.000000 )
               b(3) = (  0.000000  0.000000  0.840147 )

     PseudoPot. # 1 for Gd read from file:
     /home/cwx6513/pp.La/Gd.UPF
     MD5 check sum: 09a8be538722f05520810cb6aac0efd2
     Pseudo is Norm-conserving, Zval = 18.0
     Generated in analytical, separable form
     Using radial grid of 1263 points,  6 beta functions with:
                l(1) =   0
                l(2) =   0
                l(3) =   1
                l(4) =   1
                l(5) =   2
                l(6) =   3

     PseudoPot. # 2 for Nd read from file:
     /home/cwx6513/pp.La/Nd.UPF
     MD5 check sum: c66c5b6abe7b5840ced9b1e244e3bed6
     Pseudo is Norm-conserving, Zval = 14.0
     Generated in analytical, separable form
     Using radial grid of 1257 points,  6 beta functions with:
                l(1) =   0
                l(2) =   0
                l(3) =   1
                l(4) =   1
                l(5) =   2
                l(6) =   3

     atomic species   valence    mass     pseudopotential
        Cr            18.00    51.99610     Gd( 1.00)
        Si            14.00    28.08550     Nd( 1.00)

     48 Sym. Ops., with inversion, found (24 have fractional translation)

   Cartesian axes

     site n.     atom                  positions (alat units)
         1           Cr  tau(   1) = (   0.0000000   0.5951342   0.2975671  )
         2           Cr  tau(   2) = (   0.0000000   0.5951342   0.8927014  )
         3           Cr  tau(   3) = (   0.5951342   0.8927014   0.0000000  )
         4           Cr  tau(   4) = (   0.5951342   0.2975671   0.0000000  )
         5           Cr  tau(   5) = (   0.8927014   0.0000000   0.5951342  )
         6           Cr  tau(   6) = (   0.2975671   0.0000000   0.5951342  )
         7           Si  tau(   7) = (   0.5951342   0.5951342   0.5951342  )
         8           Si  tau(   8) = (   0.0000000   0.0000000   0.0000000  )

     number of k points=    48  gaussian smearing, width (Ry)=  0.1000
                       cart. coord. in units 2pi/alat
        k(    1) = (   0.0000000   0.0000000   0.0000000), wk =   0.0095238
        k(    2) = (   0.0000000   0.0000000   0.1200209), wk =   0.0190476
        k(    3) = (   0.0000000   0.0000000   0.2400419), wk =   0.0190476
        k(    4) = (   0.0000000   0.0000000   0.3600628), wk =   0.0190476
        k(    5) = (   0.0000000   0.1400244   0.0000000), wk =   0.0190476
        k(    6) = (   0.0000000   0.1400244   0.1200209), wk =   0.0380952
        k(    7) = (   0.0000000   0.1400244   0.2400419), wk =   0.0380952
        k(    8) = (   0.0000000   0.1400244   0.3600628), wk =   0.0380952
        k(    9) = (   0.0000000   0.2800489   0.0000000), wk =   0.0190476
        k(   10) = (   0.0000000   0.2800489   0.1200209), wk =   0.0380952
        k(   11) = (   0.0000000   0.2800489   0.2400419), wk =   0.0380952
        k(   12) = (   0.0000000   0.2800489   0.3600628), wk =   0.0380952
        k(   13) = (   0.0000000  -0.4200733   0.0000000), wk =   0.0095238
        k(   14) = (   0.0000000  -0.4200733   0.1200209), wk =   0.0190476
        k(   15) = (   0.0000000  -0.4200733   0.2400419), wk =   0.0190476
        k(   16) = (   0.0000000  -0.4200733   0.3600628), wk =   0.0190476
        k(   17) = (   0.1680293   0.0000000   0.0000000), wk =   0.0190476
        k(   18) = (   0.1680293   0.0000000   0.1200209), wk =   0.0380952
        k(   19) = (   0.1680293   0.0000000   0.2400419), wk =   0.0380952
        k(   20) = (   0.1680293   0.0000000   0.3600628), wk =   0.0380952
        k(   21) = (   0.1680293   0.1400244   0.0000000), wk =   0.0380952
        k(   22) = (   0.1680293   0.1400244   0.1200209), wk =   0.0761905
        k(   23) = (   0.1680293   0.1400244   0.2400419), wk =   0.0761905
        k(   24) = (   0.1680293   0.1400244   0.3600628), wk =   0.0761905
        k(   25) = (   0.1680293   0.2800489   0.0000000), wk =   0.0380952
        k(   26) = (   0.1680293   0.2800489   0.1200209), wk =   0.0761905
        k(   27) = (   0.1680293   0.2800489   0.2400419), wk =   0.0761905
        k(   28) = (   0.1680293   0.2800489   0.3600628), wk =   0.0761905
        k(   29) = (   0.1680293  -0.4200733   0.0000000), wk =   0.0190476
        k(   30) = (   0.1680293  -0.4200733   0.1200209), wk =   0.0380952
        k(   31) = (   0.1680293  -0.4200733   0.2400419), wk =   0.0380952
        k(   32) = (   0.1680293  -0.4200733   0.3600628), wk =   0.0380952
        k(   33) = (   0.3360586   0.0000000   0.0000000), wk =   0.0190476
        k(   34) = (   0.3360586   0.0000000   0.1200209), wk =   0.0380952
        k(   35) = (   0.3360586   0.0000000   0.2400419), wk =   0.0380952
        k(   36) = (   0.3360586   0.0000000   0.3600628), wk =   0.0380952
        k(   37) = (   0.3360586   0.1400244   0.0000000), wk =   0.0380952
        k(   38) = (   0.3360586   0.1400244   0.1200209), wk =   0.0761905
        k(   39) = (   0.3360586   0.1400244   0.2400419), wk =   0.0761905
        k(   40) = (   0.3360586   0.1400244   0.3600628), wk =   0.0761905
        k(   41) = (   0.3360586   0.2800489   0.0000000), wk =   0.0380952
        k(   42) = (   0.3360586   0.2800489   0.1200209), wk =   0.0761905
        k(   43) = (   0.3360586   0.2800489   0.2400419), wk =   0.0761905
        k(   44) = (   0.3360586   0.2800489   0.3600628), wk =   0.0761905
        k(   45) = (   0.3360586  -0.4200733   0.0000000), wk =   0.0190476
        k(   46) = (   0.3360586  -0.4200733   0.1200209), wk =   0.0380952
        k(   47) = (   0.3360586  -0.4200733   0.2400419), wk =   0.0380952
        k(   48) = (   0.3360586  -0.4200733   0.3600628), wk =   0.0380952

     Largest allocated arrays     est. size (Mb)     dimensions
     Largest temporary arrays     est. size (Mb)     dimensions

     Initial potential from superposition of free atoms

     Starting from uniform charge
     Starting wfc are    0 randomized atomic wfcs

     Writing output data file Prototype-La-cP8-Cr3Si.save

     Self-consistent Calculation

[...]

     iteration # 10     ecut=    40.00 Ry     beta=0.70
     CG style diagonalization
     c_bands:  1 eigenvalues not converged
     c_bands:  1 eigenvalues not converged
     ethr =  1.32E-06,  avg # of iterations =  3.9

[...]

     total energy              =   -1428.97670144 Ry
     Harris-Foulkes estimate   =   -1428.97670215 Ry
     estimated scf accuracy    <       0.00000249 Ry

     iteration # 16     ecut=    40.00 Ry     beta=0.70
     CG style diagonalization
     ethr =  1.61E-09,  avg # of iterations =  3.1

     End of self-consistent calculation

[...]

          k = 0.3361-0.4201 0.3601 (  4496 PWs)   bands (ev):

   -44.0727 -44.0658 -44.0476 -44.0475 -44.0297 -44.0228 -23.9829 -23.9829
   -15.4543 -15.3945 -15.2426 -15.2420 -15.0980 -15.0886 -15.0880 -15.0541
   -14.9883 -14.9755 -14.9596 -14.9494 -14.9305 -14.9259 -14.9065 -14.9050
   -14.8965 -14.8941  -2.3076  -2.3066  -2.3014  -2.3013  -2.2983  -2.2980
    17.9316  17.9335  18.0345  18.0955  18.1926  18.1968  18.7221  18.7312
    18.7741  18.7996  18.9135  18.9306  18.9974  19.0317  19.1260  19.2667
    19.7202  19.7363  19.9481  20.0317  20.3824  20.4007  20.9384  21.0966
    21.2207  21.2592  21.5534  21.5704  21.7955  21.8813  23.4458  23.4478
    23.7890  23.8048  23.9717  24.0713  25.6044  25.6420  25.7652  25.8018
    25.8037  25.9515  26.0263  26.0646  26.7147  26.7665  27.5384  27.7972
    32.5674  32.8594

     the Fermi energy is    24.4060 ev

!    total energy              =   -1428.97670160 Ry
     Harris-Foulkes estimate   =   -1428.97670170 Ry
     estimated scf accuracy    <       0.00000011 Ry

     The total energy is the sum of the following terms:

     one-electron contribution =    -138.43192823 Ry
     hartree contribution      =     175.34274424 Ry
     xc contribution           =    -146.82974896 Ry
     ewald contribution        =   -1318.67614810 Ry
     smearing contrib. (-TS)   =      -0.38162055 Ry

     convergence has been achieved in  16 iterations

     Forces acting on atoms (Ry/au):

     atom    1 type  1   force =     0.00000000    0.00000000    0.00000000
     atom    2 type  1   force =     0.00000000    0.00000000    0.00000000
     atom    3 type  1   force =     0.00000000    0.00000000    0.00000000
     atom    4 type  1   force =     0.00000000    0.00000000    0.00000000
     atom    5 type  1   force =     0.00000000    0.00000000    0.00000000
     atom    6 type  1   force =     0.00000000    0.00000000    0.00000000
     atom    7 type  2   force =     0.00000000    0.00000000    0.00000000
     atom    8 type  2   force =     0.00000000    0.00000000    0.00000000

     Total force =     0.000000     Total SCF correction =     0.000000

     entering subroutine stress ...

          total   stress  (Ry/bohr**3)                   (kbar)     P=   20.00
   0.00013596   0.00000000   0.00000000         20.00      0.00      0.00
   0.00000000   0.00013596   0.00000000          0.00     20.00      0.00
   0.00000000   0.00000000   0.00013596          0.00      0.00     20.00

     Writing output data file Prototype-La-cP8-Cr3Si.save

     General routines

     Parallel routines

   This run was terminated on:  23:12:51  22Mar2018

   JOB DONE.