     Program PWSCF v.5.0.2 starts on 22Mar2018 at 22:48:53

     Current dimensions of program PWSCF are:
     Max number of different atomic species (ntypx) = 10
     Max number of k-points (npk) =  40000
     Max angular momentum in pseudopotentials (lmaxx) =  3
     Waiting for input...
     Reading input from standard input

     Subspace diagonalization in iterative solution of the eigenvalue problem:
     a serial algorithm will be used

     bravais-lattice index     =            0
     lattice parameter (alat)  =      12.0168  a.u.
     unit-cell volume          =    1187.3413 (a.u.)^3
     number of atoms/cell      =            8
     number of atomic types    =            2
     number of electrons       =       136.00
     number of Kohn-Sham states=           82
     kinetic-energy cutoff     =      40.0000  Ry
     charge density cutoff     =     160.0000  Ry
     convergence threshold     =      1.0E-04
     mixing beta               =       0.7000
     number of iterations used =            8  plain     mixing
     Exchange-correlation      = SLA-PZ-NOGX-NOGC ( 1 1 0 0 0)
     EXX-fraction              =        0.00
     nstep                     =           50

     celldm(1)=  12.016801  celldm(2)=   0.000000  celldm(3)=   0.000000
     celldm(4)=   0.000000  celldm(5)=   0.000000  celldm(6)=   0.000000

     crystal axes: (cart. coord. in units of alat)
               a(1) = (   1.000000   0.000000   0.000000 )
               a(2) = (  -0.500000   0.866025   0.000000 )
               a(3) = (   0.000000   0.000000   0.790093 )

     reciprocal axes: (cart. coord. in units 2 pi/alat)
               b(1) = (  1.000000  0.577350  0.000000 )
               b(2) = (  0.000000  1.154701  0.000000 )
               b(3) = (  0.000000  0.000000  1.265674 )

     PseudoPot. # 1 for Gd read from file:
     /home/cwx6513/pp.La/Gd.UPF
     MD5 check sum: 09a8be538722f05520810cb6aac0efd2
     Pseudo is Norm-conserving, Zval = 18.0
     Generated in analytical, separable form
     Using radial grid of 1263 points,  6 beta functions with:
                l(1) =   0
                l(2) =   0
                l(3) =   1
                l(4) =   1
                l(5) =   2
                l(6) =   3

     PseudoPot. # 2 for Nd read from file:
     /home/cwx6513/pp.La/Nd.UPF
     MD5 check sum: c66c5b6abe7b5840ced9b1e244e3bed6
     Pseudo is Norm-conserving, Zval = 14.0
     Generated in analytical, separable form
     Using radial grid of 1257 points,  6 beta functions with:
                l(1) =   0
                l(2) =   0
                l(3) =   1
                l(4) =   1
                l(5) =   2
                l(6) =   3

     atomic species   valence    mass     pseudopotential
        Mg            18.00    24.30500     Gd( 1.00)
        Cd            14.00   112.41100     Nd( 1.00)

     24 Sym. Ops., with inversion, found (12 have fractional translation)

   Cartesian axes

     site n.     atom                  positions (alat units)
         1           Mg  tau(   1) = (   0.2478935   0.7204716   0.1975233  )
         2           Mg  tau(   2) = (   0.7478935   0.1455538   0.5925699  )
         3           Mg  tau(   3) = (   0.2521065   0.1455538   0.5925699  )
         4           Mg  tau(   4) = (  -0.2478935   0.7204716   0.1975233  )
         5           Mg  tau(   5) = (   0.0000000   0.2911075   0.1975233  )
         6           Mg  tau(   6) = (   0.5000000   0.5749179   0.5925699  )
         7           Cd  tau(   7) = (   0.5000005   0.2886748   0.1975233  )
         8           Cd  tau(   8) = (  -0.0000005   0.5773506   0.5925699  )

     number of k points=    64  gaussian smearing, width (Ry)=  0.1000
                       cart. coord. in units 2pi/alat
        k(    1) = (   0.0000000   0.0000000   0.0000000), wk =   0.0095238
        k(    2) = (   0.0000000   0.0000000   0.1808105), wk =   0.0190476
        k(    3) = (   0.0000000   0.0000000   0.3616210), wk =   0.0190476
        k(    4) = (   0.0000000   0.0000000   0.5424315), wk =   0.0190476
        k(    5) = (   0.0000000   0.1924501   0.0000000), wk =   0.0190476
        k(    6) = (   0.0000000   0.1924501   0.1808105), wk =   0.0380952
        k(    7) = (   0.0000000   0.1924501   0.3616210), wk =   0.0380952
        k(    8) = (   0.0000000   0.1924501   0.5424315), wk =   0.0380952
        k(    9) = (   0.0000000   0.3849002   0.0000000), wk =   0.0190476
        k(   10) = (   0.0000000   0.3849002   0.1808105), wk =   0.0380952
        k(   11) = (   0.0000000   0.3849002   0.3616210), wk =   0.0380952
        k(   12) = (   0.0000000   0.3849002   0.5424315), wk =   0.0380952
        k(   13) = (   0.0000000  -0.5773503   0.0000000), wk =   0.0095238
        k(   14) = (   0.0000000  -0.5773503   0.1808105), wk =   0.0190476
        k(   15) = (   0.0000000  -0.5773503   0.3616210), wk =   0.0190476
        k(   16) = (   0.0000000  -0.5773503   0.5424315), wk =   0.0190476
        k(   17) = (   0.2000000   0.1154701   0.0000000), wk =   0.0190476
        k(   18) = (   0.2000000   0.1154701   0.1808105), wk =   0.0380952
        k(   19) = (   0.2000000   0.1154701   0.3616210), wk =   0.0380952
        k(   20) = (   0.2000000   0.1154701   0.5424315), wk =   0.0380952
        k(   21) = (   0.2000000   0.3079201   0.0000000), wk =   0.0190476
        k(   22) = (   0.2000000   0.3079201   0.1808105), wk =   0.0380952
        k(   23) = (   0.2000000   0.3079201   0.3616210), wk =   0.0380952
        k(   24) = (   0.2000000   0.3079201   0.5424315), wk =   0.0380952
        k(   25) = (   0.2000000   0.5003702   0.0000000), wk =   0.0190476
        k(   26) = (   0.2000000   0.5003702   0.1808105), wk =   0.0380952
        k(   27) = (   0.2000000   0.5003702   0.3616210), wk =   0.0380952
        k(   28) = (   0.2000000   0.5003702   0.5424315), wk =   0.0380952
        k(   29) = (   0.2000000  -0.4618802   0.0000000), wk =   0.0190476
        k(   30) = (   0.2000000  -0.4618802   0.1808105), wk =   0.0380952
        k(   31) = (   0.2000000  -0.4618802   0.3616210), wk =   0.0380952
        k(   32) = (   0.2000000  -0.4618802   0.5424315), wk =   0.0380952
        k(   33) = (   0.2000000  -0.2694301   0.0000000), wk =   0.0190476
        k(   34) = (   0.2000000  -0.2694301   0.1808105), wk =   0.0380952
        k(   35) = (   0.2000000  -0.2694301   0.3616210), wk =   0.0380952
        k(   36) = (   0.2000000  -0.2694301   0.5424315), wk =   0.0380952
        k(   37) = (   0.2000000  -0.0769800   0.0000000), wk =   0.0190476
        k(   38) = (   0.2000000  -0.0769800   0.1808105), wk =   0.0380952
        k(   39) = (   0.2000000  -0.0769800   0.3616210), wk =   0.0380952
        k(   40) = (   0.2000000  -0.0769800   0.5424315), wk =   0.0380952
        k(   41) = (   0.4000000   0.2309401   0.0000000), wk =   0.0190476
        k(   42) = (   0.4000000   0.2309401   0.1808105), wk =   0.0380952
        k(   43) = (   0.4000000   0.2309401   0.3616210), wk =   0.0380952
        k(   44) = (   0.4000000   0.2309401   0.5424315), wk =   0.0380952
        k(   45) = (   0.4000000   0.4233902   0.0000000), wk =   0.0190476
        k(   46) = (   0.4000000   0.4233902   0.1808105), wk =   0.0380952
        k(   47) = (   0.4000000   0.4233902   0.3616210), wk =   0.0380952
        k(   48) = (   0.4000000   0.4233902   0.5424315), wk =   0.0380952
        k(   49) = (   0.4000000   0.6158403   0.0000000), wk =   0.0190476
        k(   50) = (   0.4000000   0.6158403   0.1808105), wk =   0.0380952
        k(   51) = (   0.4000000   0.6158403   0.3616210), wk =   0.0380952
        k(   52) = (   0.4000000   0.6158403   0.5424315), wk =   0.0380952
        k(   53) = (   0.4000000  -0.3464102   0.0000000), wk =   0.0190476
        k(   54) = (   0.4000000  -0.3464102   0.1808105), wk =   0.0380952
        k(   55) = (   0.4000000  -0.3464102   0.3616210), wk =   0.0380952
        k(   56) = (   0.4000000  -0.3464102   0.5424315), wk =   0.0380952
        k(   57) = (   0.4000000  -0.1539601   0.0000000), wk =   0.0190476
        k(   58) = (   0.4000000  -0.1539601   0.1808105), wk =   0.0380952
        k(   59) = (   0.4000000  -0.1539601   0.3616210), wk =   0.0380952
        k(   60) = (   0.4000000  -0.1539601   0.5424315), wk =   0.0380952
        k(   61) = (   0.4000000   0.0384900   0.0000000), wk =   0.0190476
        k(   62) = (   0.4000000   0.0384900   0.1808105), wk =   0.0380952
        k(   63) = (   0.4000000   0.0384900   0.3616210), wk =   0.0380952
        k(   64) = (   0.4000000   0.0384900   0.5424315), wk =   0.0380952

     Largest allocated arrays     est. size (Mb)     dimensions
     Largest temporary arrays     est. size (Mb)     dimensions

     Initial potential from superposition of free atoms

     Starting from uniform charge
     Starting wfc are    0 randomized atomic wfcs

     Self-consistent Calculation

     iteration #  1     ecut=    40.00 Ry     beta=0.70
     CG style diagonalization
     c_bands:  4 eigenvalues not converged
     c_bands:  1 eigenvalues not converged
     c_bands:  2 eigenvalues not converged
     c_bands:  1 eigenvalues not converged
     c_bands:  4 eigenvalues not converged
     c_bands:  1 eigenvalues not converged
     c_bands:  1 eigenvalues not converged
     c_bands:  2 eigenvalues not converged
     c_bands:  1 eigenvalues not converged
     c_bands:  1 eigenvalues not converged
     c_bands:  2 eigenvalues not converged
     c_bands:  3 eigenvalues not converged
     c_bands:  2 eigenvalues not converged
     c_bands:  1 eigenvalues not converged
     c_bands:  3 eigenvalues not converged
     c_bands:  2 eigenvalues not converged
     c_bands:  3 eigenvalues not converged
     c_bands:  1 eigenvalues not converged
     c_bands:  4 eigenvalues not converged
     c_bands:  3 eigenvalues not converged
     c_bands:  1 eigenvalues not converged
     c_bands:  1 eigenvalues not converged
     c_bands:  2 eigenvalues not converged
     c_bands:  4 eigenvalues not converged
     c_bands:  2 eigenvalues not converged
     c_bands:  1 eigenvalues not converged
     c_bands:  4 eigenvalues not converged
     ethr =  1.00E-02,  avg # of iterations = 12.1

     total energy              =   -1250.95313319 Ry
     Harris-Foulkes estimate   =   -1744.11370462 Ry
     estimated scf accuracy    <     632.64957113 Ry

[...]

     iteration #  5     ecut=    40.00 Ry     beta=0.70
     CG style diagonalization
     ethr =  1.00E-02,  avg # of iterations =  3.6

[...]

     End of self-consistent calculation

          k = 0.0000 0.0000 0.0000 (  5047 PWs)   bands (ev):

   -47.3105 -47.2735 -47.2734 -47.2691 -47.2539 -47.2538 -27.5397 -27.5377
   -18.4721 -18.4303 -18.3410 -18.3227 -18.3226 -18.3167 -18.3166 -18.2910
   -18.2910 -18.2070 -18.1100 -18.1099 -18.0392 -18.0386 -18.0259 -18.0258
   -18.0191 -18.0190  -5.7819  -5.7639  -5.7469  -5.7469  -5.7312  -5.7312
    13.8941  14.6066  14.6112  14.6112  14.6410  15.1497  15.2390  15.2391
    15.2893  15.2893  15.3479  16.4834  16.7915  16.7915  17.1738  17.1767
    17.1767  17.5981  17.6478  17.6478  17.8420  17.8420  18.0855  18.0856
[...]
        k(   12) = (   0.0000000   0.4049793   0.5580164), wk =   0.0380952
        k(   13) = (   0.0000000  -0.6074690   0.0000000), wk =   0.0095238
        k(   14) = (   0.0000000  -0.6074690   0.1860055), wk =   0.0190476
        k(   15) = (   0.0000000  -0.6074690   0.3720109), wk =   0.0190476
        k(   16) = (   0.0000000  -0.6074690   0.5580164), wk =   0.0190476
        k(   17) = (   0.2104334   0.1214938   0.0000000), wk =   0.0190476
        k(   18) = (   0.2104334   0.1214938   0.1860055), wk =   0.0380952
        k(   19) = (   0.2104334   0.1214938   0.3720109), wk =   0.0380952
        k(   20) = (   0.2104334   0.1214938   0.5580164), wk =   0.0380952
        k(   21) = (   0.2104334   0.3239835   0.0000000), wk =   0.0190476
        k(   22) = (   0.2104334   0.3239835   0.1860055), wk =   0.0380952
        k(   23) = (   0.2104334   0.3239835   0.3720109), wk =   0.0380952
        k(   24) = (   0.2104334   0.3239835   0.5580164), wk =   0.0380952
        k(   25) = (   0.2104334   0.5264731   0.0000000), wk =   0.0190476
        k(   26) = (   0.2104334   0.5264731   0.1860055), wk =   0.0380952
        k(   27) = (   0.2104334   0.5264731   0.3720109), wk =   0.0380952
        k(   28) = (   0.2104334   0.5264731   0.5580164), wk =   0.0380952
        k(   29) = (   0.2104334  -0.4859752   0.0000000), wk =   0.0190476
        k(   30) = (   0.2104334  -0.4859752   0.1860055), wk =   0.0380952
        k(   31) = (   0.2104334  -0.4859752   0.3720109), wk =   0.0380952
        k(   32) = (   0.2104334  -0.4859752   0.5580164), wk =   0.0380952
        k(   33) = (   0.2104334  -0.2834855   0.0000000), wk =   0.0190476
        k(   34) = (   0.2104334  -0.2834855   0.1860055), wk =   0.0380952
        k(   35) = (   0.2104334  -0.2834855   0.3720109), wk =   0.0380952
        k(   36) = (   0.2104334  -0.2834855   0.5580164), wk =   0.0380952
        k(   37) = (   0.2104334  -0.0809959   0.0000000), wk =   0.0190476
        k(   38) = (   0.2104334  -0.0809959   0.1860055), wk =   0.0380952
        k(   39) = (   0.2104334  -0.0809959   0.3720109), wk =   0.0380952
        k(   40) = (   0.2104334  -0.0809959   0.5580164), wk =   0.0380952
        k(   41) = (   0.4208669   0.2429876   0.0000000), wk =   0.0190476
        k(   42) = (   0.4208669   0.2429876   0.1860055), wk =   0.0380952
        k(   43) = (   0.4208669   0.2429876   0.3720109), wk =   0.0380952
        k(   44) = (   0.4208669   0.2429876   0.5580164), wk =   0.0380952
        k(   45) = (   0.4208669   0.4454773   0.0000000), wk =   0.0190476
        k(   46) = (   0.4208669   0.4454773   0.1860055), wk =   0.0380952
        k(   47) = (   0.4208669   0.4454773   0.3720109), wk =   0.0380952
        k(   48) = (   0.4208669   0.4454773   0.5580164), wk =   0.0380952
        k(   49) = (   0.4208669   0.6479669   0.0000000), wk =   0.0190476
        k(   50) = (   0.4208669   0.6479669   0.1860055), wk =   0.0380952
        k(   51) = (   0.4208669   0.6479669   0.3720109), wk =   0.0380952
        k(   52) = (   0.4208669   0.6479669   0.5580164), wk =   0.0380952
        k(   53) = (   0.4208669  -0.3644814   0.0000000), wk =   0.0190476
        k(   54) = (   0.4208669  -0.3644814   0.1860055), wk =   0.0380952
        k(   55) = (   0.4208669  -0.3644814   0.3720109), wk =   0.0380952
        k(   56) = (   0.4208669  -0.3644814   0.5580164), wk =   0.0380952
        k(   57) = (   0.4208669  -0.1619917   0.0000000), wk =   0.0190476
        k(   58) = (   0.4208669  -0.1619917   0.1860055), wk =   0.0380952
        k(   59) = (   0.4208669  -0.1619917   0.3720109), wk =   0.0380952
        k(   60) = (   0.4208669  -0.1619917   0.5580164), wk =   0.0380952
        k(   61) = (   0.4208669   0.0404979   0.0000000), wk =   0.0190476
        k(   62) = (   0.4208669   0.0404979   0.1860055), wk =   0.0380952
        k(   63) = (   0.4208669   0.0404979   0.3720109), wk =   0.0380952
        k(   64) = (   0.4208669   0.0404979   0.5580164), wk =   0.0380952

[...]

     The maximum number of steps has been reached.

     End of BFGS Geometry Optimization
Begin final coordinates
     new unit-cell volume =   1042.56723 a.u.^3 (   154.49252 Ang^3 )

CELL_PARAMETERS (alat= 12.01680127)
   0.950419320   0.000000000   0.000000000
  -0.475209660   0.823087276   0.000000000
   0.000000000   0.000000000   0.768026647

ATOMIC_POSITIONS (crystal)
Mg       0.664448369   0.832224184   0.250000000
Mg       0.832224184   0.167775816   0.750000000
Mg       0.335551631   0.167775816   0.750000000
Mg       0.167775816   0.832224184   0.250000000
Mg       0.167775816   0.335551631   0.250000000
Mg       0.832224184   0.664448369   0.750000000
Cd       0.666667000   0.333333000   0.250000000
Cd       0.333333000   0.666667000   0.750000000
End final coordinates

     A final scf calculation at the relaxed structure.
     The G-vectors are recalculated for the final unit cell
     Results may differ from those at the preceding step.

     bravais-lattice index     =            0
     lattice parameter (alat)  =      12.0168  a.u.
     unit-cell volume          =    1042.5672 (a.u.)^3
     number of atoms/cell      =            8
     number of atomic types    =            2
     number of electrons       =       136.00
     number of Kohn-Sham states=           82
     kinetic-energy cutoff     =      40.0000  Ry
     charge density cutoff     =     160.0000  Ry
     convergence threshold     =      7.4E-06
     mixing beta               =       0.7000
     number of iterations used =            8  plain     mixing
     Exchange-correlation      = SLA-PZ-NOGX-NOGC ( 1 1 0 0 0)
     EXX-fraction              =        0.00

     celldm(1)=  12.016801  celldm(2)=   0.000000  celldm(3)=   0.000000
     celldm(4)=   0.000000  celldm(5)=   0.000000  celldm(6)=   0.000000

     crystal axes: (cart. coord. in units of alat)
               a(1) = (   0.950419   0.000000   0.000000 )
               a(2) = (  -0.475210   0.823087   0.000000 )
               a(3) = (   0.000000   0.000000   0.768027 )

     reciprocal axes: (cart. coord. in units 2 pi/alat)
               b(1) = (  1.052167  0.607469  0.000000 )
               b(2) = (  0.000000  1.214938  0.000000 )
               b(3) = (  0.000000  0.000000  1.302038 )

     PseudoPot. # 1 for Gd read from file:
     /home/cwx6513/pp.La/Gd.UPF
     MD5 check sum: 09a8be538722f05520810cb6aac0efd2
     Pseudo is Norm-conserving, Zval = 18.0
     Generated in analytical, separable form
     Using radial grid of 1263 points,  6 beta functions with:
                l(1) =   0
                l(2) =   0
                l(3) =   1
                l(4) =   1
                l(5) =   2
                l(6) =   3

     PseudoPot. # 2 for Nd read from file:
     /home/cwx6513/pp.La/Nd.UPF
     MD5 check sum: c66c5b6abe7b5840ced9b1e244e3bed6
     Pseudo is Norm-conserving, Zval = 14.0
     Generated in analytical, separable form
     Using radial grid of 1257 points,  6 beta functions with:
                l(1) =   0
                l(2) =   0
                l(3) =   1
                l(4) =   1
                l(5) =   2
                l(6) =   3

     atomic species   valence    mass     pseudopotential
        Mg            18.00    24.30500     Gd( 1.00)
        Cd            14.00   112.41100     Nd( 1.00)

     24 Sym. Ops., with inversion, found (12 have fractional translation)

   Cartesian axes

     site n.     atom                  positions (alat units)
         1           Mg  tau(   1) = (   0.2360236   0.6849931   0.1920067  )
         2           Mg  tau(   2) = (   0.7112333   0.1380941   0.5760200  )
         3           Mg  tau(   3) = (   0.2391861   0.1380941   0.5760200  )
         4           Mg  tau(   4) = (  -0.2360236   0.6849931   0.1920067  )
         5           Mg  tau(   5) = (   0.0000000   0.2761883   0.1920067  )
         6           Mg  tau(   6) = (   0.4752097   0.5468990   0.5760200  )
         7           Cd  tau(   7) = (   0.4752101   0.2743622   0.1920067  )
         8           Cd  tau(   8) = (  -0.0000005   0.5487251   0.5760200  )

     number of k points=    64  gaussian smearing, width (Ry)=  0.1000
                       cart. coord. in units 2pi/alat
        k(    1) = (   0.0000000   0.0000000   0.0000000), wk =   0.0095238
        k(    2) = (   0.0000000   0.0000000   0.1860055), wk =   0.0190476
        k(    3) = (   0.0000000   0.0000000   0.3720109), wk =   0.0190476
        k(    4) = (   0.0000000   0.0000000   0.5580164), wk =   0.0190476
        k(    5) = (   0.0000000   0.2024897   0.0000000), wk =   0.0190476
        k(    6) = (   0.0000000   0.2024897   0.1860055), wk =   0.0380952
        k(    7) = (   0.0000000   0.2024897   0.3720109), wk =   0.0380952
        k(    8) = (   0.0000000   0.2024897   0.5580164), wk =   0.0380952
        k(    9) = (   0.0000000   0.4049793   0.0000000), wk =   0.0190476
        k(   10) = (   0.0000000   0.4049793   0.1860055), wk =   0.0380952
        k(   11) = (   0.0000000   0.4049793   0.3720109), wk =   0.0380952
        k(   12) = (   0.0000000   0.4049793   0.5580164), wk =   0.0380952
        k(   13) = (   0.0000000  -0.6074690   0.0000000), wk =   0.0095238
        k(   14) = (   0.0000000  -0.6074690   0.1860055), wk =   0.0190476
        k(   15) = (   0.0000000  -0.6074690   0.3720109), wk =   0.0190476
        k(   16) = (   0.0000000  -0.6074690   0.5580164), wk =   0.0190476
        k(   17) = (   0.2104334   0.1214938   0.0000000), wk =   0.0190476
        k(   18) = (   0.2104334   0.1214938   0.1860055), wk =   0.0380952
        k(   19) = (   0.2104334   0.1214938   0.3720109), wk =   0.0380952
        k(   20) = (   0.2104334   0.1214938   0.5580164), wk =   0.0380952
        k(   21) = (   0.2104334   0.3239835   0.0000000), wk =   0.0190476
        k(   22) = (   0.2104334   0.3239835   0.1860055), wk =   0.0380952
        k(   23) = (   0.2104334   0.3239835   0.3720109), wk =   0.0380952
        k(   24) = (   0.2104334   0.3239835   0.5580164), wk =   0.0380952
        k(   25) = (   0.2104334   0.5264731   0.0000000), wk =   0.0190476
        k(   26) = (   0.2104334   0.5264731   0.1860055), wk =   0.0380952
        k(   27) = (   0.2104334   0.5264731   0.3720109), wk =   0.0380952
        k(   28) = (   0.2104334   0.5264731   0.5580164), wk =   0.0380952
        k(   29) = (   0.2104334  -0.4859752   0.0000000), wk =   0.0190476
        k(   30) = (   0.2104334  -0.4859752   0.1860055), wk =   0.0380952
        k(   31) = (   0.2104334  -0.4859752   0.3720109), wk =   0.0380952
        k(   32) = (   0.2104334  -0.4859752   0.5580164), wk =   0.0380952
        k(   33) = (   0.2104334  -0.2834855   0.0000000), wk =   0.0190476
        k(   34) = (   0.2104334  -0.2834855   0.1860055), wk =   0.0380952
        k(   35) = (   0.2104334  -0.2834855   0.3720109), wk =   0.0380952
        k(   36) = (   0.2104334  -0.2834855   0.5580164), wk =   0.0380952
        k(   37) = (   0.2104334  -0.0809959   0.0000000), wk =   0.0190476
        k(   38) = (   0.2104334  -0.0809959   0.1860055), wk =   0.0380952
        k(   39) = (   0.2104334  -0.0809959   0.3720109), wk =   0.0380952
        k(   40) = (   0.2104334  -0.0809959   0.5580164), wk =   0.0380952
        k(   41) = (   0.4208669   0.2429876   0.0000000), wk =   0.0190476
        k(   42) = (   0.4208669   0.2429876   0.1860055), wk =   0.0380952
        k(   43) = (   0.4208669   0.2429876   0.3720109), wk =   0.0380952
        k(   44) = (   0.4208669   0.2429876   0.5580164), wk =   0.0380952
        k(   45) = (   0.4208669   0.4454773   0.0000000), wk =   0.0190476
        k(   46) = (   0.4208669   0.4454773   0.1860055), wk =   0.0380952
        k(   47) = (   0.4208669   0.4454773   0.3720109), wk =   0.0380952
        k(   48) = (   0.4208669   0.4454773   0.5580164), wk =   0.0380952
        k(   49) = (   0.4208669   0.6479669   0.0000000), wk =   0.0190476
        k(   50) = (   0.4208669   0.6479669   0.1860055), wk =   0.0380952
        k(   51) = (   0.4208669   0.6479669   0.3720109), wk =   0.0380952
        k(   52) = (   0.4208669   0.6479669   0.5580164), wk =   0.0380952
        k(   53) = (   0.4208669  -0.3644814   0.0000000), wk =   0.0190476
        k(   54) = (   0.4208669  -0.3644814   0.1860055), wk =   0.0380952
        k(   55) = (   0.4208669  -0.3644814   0.3720109), wk =   0.0380952
        k(   56) = (   0.4208669  -0.3644814   0.5580164), wk =   0.0380952
        k(   57) = (   0.4208669  -0.1619917   0.0000000), wk =   0.0190476
        k(   58) = (   0.4208669  -0.1619917   0.1860055), wk =   0.0380952
        k(   59) = (   0.4208669  -0.1619917   0.3720109), wk =   0.0380952
        k(   60) = (   0.4208669  -0.1619917   0.5580164), wk =   0.0380952
        k(   61) = (   0.4208669   0.0404979   0.0000000), wk =   0.0190476
        k(   62) = (   0.4208669   0.0404979   0.1860055), wk =   0.0380952
        k(   63) = (   0.4208669   0.0404979   0.3720109), wk =   0.0380952
        k(   64) = (   0.4208669   0.0404979   0.5580164), wk =   0.0380952

     Largest allocated arrays     est. size (Mb)     dimensions
     Largest temporary arrays     est. size (Mb)     dimensions

     Initial potential from superposition of free atoms

     Starting from uniform charge
     Starting wfc are    0 randomized atomic wfcs

     Writing output data file Prototype-La-hP8-Mg3Cd.save

     Self-consistent Calculation

[...]

     negative rho (up, down):  0.809E-05 0.000E+00

[...]

     iteration # 12     ecut=    40.00 Ry     beta=0.70
     CG style diagonalization
     c_bands:  1 eigenvalues not converged
     ethr =  1.77E-07,  avg # of iterations =  4.3

     total energy              =   -1429.11736580 Ry
     Harris-Foulkes estimate   =   -1429.11737037 Ry
     estimated scf accuracy    <       0.00000863 Ry

     iteration # 13     ecut=    40.00 Ry     beta=0.70
     CG style diagonalization
     ethr =  6.34E-09,  avg # of iterations =  4.5

     End of self-consistent calculation

[...]

          k = 0.4209 0.0405 0.5580 (  4449 PWs)   bands (ev):

   -43.9683 -43.9539 -43.9331 -43.9240 -43.9153 -43.9099 -23.7430 -23.7427
   -15.2157 -15.2080 -15.1855 -15.1748 -15.1217 -15.1106 -14.9709 -14.9339
   -14.8809 -14.8804 -14.8231 -14.7885 -14.7515 -14.7418 -14.7377 -14.7033
   -14.6754 -14.6698  -2.0966  -2.0946  -2.0603  -2.0573  -2.0472  -2.0439
    17.6994  17.8000  17.8816  18.0477  18.1152  18.2714  18.5297  18.6322
    18.6765  18.7293  18.8776  19.0861  19.1859  19.3135  19.4570  19.5802
    20.0832  20.1191  20.5813  20.7995  20.8584  21.0294  21.0609  21.1838
    21.3297  21.4429  21.9547  22.0000  22.2746  22.4010  22.8366  22.9911
    23.2038  23.5175  24.4553  24.6043  24.8998  24.9521  25.2944  25.5670
    25.9615  26.2314  26.3702  26.7469  27.3744  27.7448  29.9095  30.1648
    32.5051  32.7319

     the Fermi energy is    24.6479 ev

!    total energy              =   -1429.11736957 Ry
     Harris-Foulkes estimate   =   -1429.11737385 Ry
     estimated scf accuracy    <       0.00000471 Ry

     The total energy is the sum of the following terms:

     one-electron contribution =    -129.72649323 Ry
     hartree contribution      =     171.68358091 Ry
     xc contribution           =    -146.71599943 Ry
     ewald contribution        =   -1323.93269453 Ry
     smearing contrib. (-TS)   =      -0.42576330 Ry

     convergence has been achieved in  13 iterations

     Forces acting on atoms (Ry/au):

     atom    1 type  1   force =     0.00454459    0.00262382    0.00000000
     atom    2 type  1   force =     0.00454459   -0.00262382    0.00000000
     atom    3 type  1   force =    -0.00454459   -0.00262382    0.00000000
     atom    4 type  1   force =    -0.00454459    0.00262382    0.00000000
     atom    5 type  1   force =     0.00000000   -0.00524764    0.00000000
     atom    6 type  1   force =     0.00000000    0.00524764    0.00000000
     atom    7 type  2   force =     0.00000000    0.00000000    0.00000000
     atom    8 type  2   force =     0.00000000    0.00000000    0.00000000

     Total force =     0.012854     Total SCF correction =     0.000000

     entering subroutine stress ...

          total   stress  (Ry/bohr**3)                   (kbar)     P=  -26.37
  -0.00026793   0.00000000   0.00000000        -39.41      0.00      0.00
   0.00000000  -0.00026793   0.00000000          0.00    -39.41      0.00
   0.00000000   0.00000000  -0.00000183          0.00      0.00     -0.27

     Writing output data file Prototype-La-hP8-Mg3Cd.save

     General routines

     Parallel routines

   This run was terminated on:  23:40: 1  22Mar2018

   JOB DONE.