     Program PWSCF v.5.0.2 starts on 23Mar2018 at  0:55:58

     Current dimensions of program PWSCF are:
     Max number of different atomic species (ntypx) = 10
     Max number of k-points (npk) =  40000
     Max angular momentum in pseudopotentials (lmaxx) =  3
     Waiting for input...
     Reading input from standard input

     Subspace diagonalization in iterative solution of the eigenvalue problem:
     a serial algorithm will be used

     bravais-lattice index     =            0
     lattice parameter (alat)  =       8.5346  a.u.
     unit-cell volume          =     621.6493 (a.u.)^3
     number of atoms/cell      =            8
     number of atomic types    =            2
     number of electrons       =       162.00
     number of Kohn-Sham states=           97
     kinetic-energy cutoff     =      40.0000  Ry
     charge density cutoff     =     160.0000  Ry
     convergence threshold     =      1.0E-04
     mixing beta               =       0.7000
     number of iterations used =            8  plain     mixing
     Exchange-correlation      = SLA-PZ-NOGX-NOGC ( 1 1 0 0 0)
     EXX-fraction              =        0.00
     nstep                     =           50

     celldm(1)=   8.534573  celldm(2)=   0.000000  celldm(3)=   0.000000
     celldm(4)=   0.000000  celldm(5)=   0.000000  celldm(6)=   0.000000

     crystal axes: (cart. coord. in units of alat)
               a(1) = (   1.000000   0.000000   0.000000 )
               a(2) = (   0.000000   1.000000   0.000000 )
               a(3) = (   0.000000   0.000000   1.000000 )

     reciprocal axes: (cart. coord. in units 2 pi/alat)
               b(1) = (  1.000000  0.000000  0.000000 )
               b(2) = (  0.000000  1.000000  0.000000 )
               b(3) = (  0.000000  0.000000  1.000000 )

     PseudoPot. # 1 for Ho read from file:
     /home/cwx6513/pp.La/Ho.UPF
     MD5 check sum: f307ee11bce99f5b724fa279e3790763
     Pseudo is Norm-conserving, Zval = 21.0
     Generated in analytical, separable form
     Using radial grid of 1265 points,  6 beta functions with:
                l(1) =   0
                l(2) =   0
                l(3) =   1
                l(4) =   1
                l(5) =   2
                l(6) =   3

     PseudoPot. # 2 for Gd read from file:
     /home/cwx6513/pp.La/Gd.UPF
     MD5 check sum: 09a8be538722f05520810cb6aac0efd2
     Pseudo is Norm-conserving, Zval = 18.0
     Generated in analytical, separable form
     Using radial grid of 1263 points,  6 beta functions with:
                l(1) =   0
                l(2) =   0
                l(3) =   1
                l(4) =   1
                l(5) =   2
                l(6) =   3

     atomic species   valence    mass     pseudopotential
        Cr            21.00    51.99610     Ho( 1.00)
        Si            18.00    28.08550     Gd( 1.00)

     48 Sym. Ops., with inversion, found (24 have fractional translation)

   Cartesian axes

     site n.     atom                  positions (alat units)
         1           Cr  tau(   1) = (   0.0000000   0.5000000   0.2500000  )
         2           Cr  tau(   2) = (   0.0000000   0.5000000   0.7500000  )
         3           Cr  tau(   3) = (   0.5000000   0.7500000   0.0000000  )
         4           Cr  tau(   4) = (   0.5000000   0.2500000   0.0000000  )
         5           Cr  tau(   5) = (   0.7500000   0.0000000   0.5000000  )
         6           Cr  tau(   6) = (   0.2500000   0.0000000   0.5000000  )
         7           Si  tau(   7) = (   0.5000000   0.5000000   0.5000000  )
         8           Si  tau(   8) = (   0.0000000   0.0000000   0.0000000  )

     number of k points=    48  gaussian smearing, width (Ry)=  0.1000
                       cart. coord. in units 2pi/alat
        k(    1) = (   0.0000000   0.0000000   0.0000000), wk =   0.0095238
        k(    2) = (   0.0000000   0.0000000   0.1428571), wk =   0.0190476
        k(    3) = (   0.0000000   0.0000000   0.2857143), wk =   0.0190476
        k(    4) = (   0.0000000   0.0000000   0.4285714), wk =   0.0190476
        k(    5) = (   0.0000000   0.1666667   0.0000000), wk =   0.0190476
        k(    6) = (   0.0000000   0.1666667   0.1428571), wk =   0.0380952
        k(    7) = (   0.0000000   0.1666667   0.2857143), wk =   0.0380952
        k(    8) = (   0.0000000   0.1666667   0.4285714), wk =   0.0380952
        k(    9) = (   0.0000000   0.3333333   0.0000000), wk =   0.0190476
        k(   10) = (   0.0000000   0.3333333   0.1428571), wk =   0.0380952
        k(   11) = (   0.0000000   0.3333333   0.2857143), wk =   0.0380952
        k(   12) = (   0.0000000   0.3333333   0.4285714), wk =   0.0380952
        k(   13) = (   0.0000000  -0.5000000   0.0000000), wk =   0.0095238
        k(   14) = (   0.0000000  -0.5000000   0.1428571), wk =   0.0190476
        k(   15) = (   0.0000000  -0.5000000   0.2857143), wk =   0.0190476
        k(   16) = (   0.0000000  -0.5000000   0.4285714), wk =   0.0190476
        k(   17) = (   0.2000000   0.0000000   0.0000000), wk =   0.0190476
        k(   18) = (   0.2000000   0.0000000   0.1428571), wk =   0.0380952
        k(   19) = (   0.2000000   0.0000000   0.2857143), wk =   0.0380952
        k(   20) = (   0.2000000   0.0000000   0.4285714), wk =   0.0380952
        k(   21) = (   0.2000000   0.1666667   0.0000000), wk =   0.0380952
        k(   22) = (   0.2000000   0.1666667   0.1428571), wk =   0.0761905
        k(   23) = (   0.2000000   0.1666667   0.2857143), wk =   0.0761905
        k(   24) = (   0.2000000   0.1666667   0.4285714), wk =   0.0761905
        k(   25) = (   0.2000000   0.3333333   0.0000000), wk =   0.0380952
        k(   26) = (   0.2000000   0.3333333   0.1428571), wk =   0.0761905
        k(   27) = (   0.2000000   0.3333333   0.2857143), wk =   0.0761905
        k(   28) = (   0.2000000   0.3333333   0.4285714), wk =   0.0761905
        k(   29) = (   0.2000000  -0.5000000   0.0000000), wk =   0.0190476
        k(   30) = (   0.2000000  -0.5000000   0.1428571), wk =   0.0380952
        k(   31) = (   0.2000000  -0.5000000   0.2857143), wk =   0.0380952
        k(   32) = (   0.2000000  -0.5000000   0.4285714), wk =   0.0380952
        k(   33) = (   0.4000000   0.0000000   0.0000000), wk =   0.0190476
        k(   34) = (   0.4000000   0.0000000   0.1428571), wk =   0.0380952
        k(   35) = (   0.4000000   0.0000000   0.2857143), wk =   0.0380952
        k(   36) = (   0.4000000   0.0000000   0.4285714), wk =   0.0380952
        k(   37) = (   0.4000000   0.1666667   0.0000000), wk =   0.0380952
        k(   38) = (   0.4000000   0.1666667   0.1428571), wk =   0.0761905
        k(   39) = (   0.4000000   0.1666667   0.2857143), wk =   0.0761905
        k(   40) = (   0.4000000   0.1666667   0.4285714), wk =   0.0761905
        k(   41) = (   0.4000000   0.3333333   0.0000000), wk =   0.0380952
        k(   42) = (   0.4000000   0.3333333   0.1428571), wk =   0.0761905
        k(   43) = (   0.4000000   0.3333333   0.2857143), wk =   0.0761905
        k(   44) = (   0.4000000   0.3333333   0.4285714), wk =   0.0761905
        k(   45) = (   0.4000000  -0.5000000   0.0000000), wk =   0.0190476
        k(   46) = (   0.4000000  -0.5000000   0.1428571), wk =   0.0380952
        k(   47) = (   0.4000000  -0.5000000   0.2857143), wk =   0.0380952
        k(   48) = (   0.4000000  -0.5000000   0.4285714), wk =   0.0380952

     Largest allocated arrays     est. size (Mb)     dimensions
     Largest temporary arrays     est. size (Mb)     dimensions

     Initial potential from superposition of free atoms

     Starting from uniform charge
     Starting wfc are    0 randomized atomic wfcs

     Self-consistent Calculation

     iteration #  1     ecut=    40.00 Ry     beta=0.70
     CG style diagonalization
     c_bands:  5 eigenvalues not converged
     c_bands:  5 eigenvalues not converged
     c_bands:  5 eigenvalues not converged
     c_bands:  5 eigenvalues not converged
     c_bands:  4 eigenvalues not converged
     c_bands:  5 eigenvalues not converged
     c_bands:  4 eigenvalues not converged
     ethr =  1.00E-02,  avg # of iterations = 15.2

     total energy              =   -1863.20484389 Ry
     Harris-Foulkes estimate   =   -2450.98811663 Ry
     estimated scf accuracy    <     741.37483407 Ry

[...]

     iteration #  3     ecut=    40.00 Ry     beta=0.70
     CG style diagonalization
     ethr =  1.00E-02,  avg # of iterations =  8.7

[...]

     End of self-consistent calculation

          k = 0.0000 0.0000 0.0000 (  2601 PWs)   bands (ev):

   -45.4761 -45.4514 -45.4514 -44.9314 -44.9314 -44.9314 -22.2768 -22.2418
   -11.8637 -11.8637 -11.6027 -10.1095 -10.1095 -10.1095  -9.4562  -9.4562
    -9.4562  -9.3832  -9.3832  -9.3832  -9.2116  -9.2116  -9.2116  -8.5091
    -8.5091  -8.5091   6.0944   6.0944   6.0944   6.1353   6.1353   6.1353
    27.5173  27.5173  27.7194  28.6310  28.6310  28.6310  30.6544  30.7393
    31.3345  31.3345  31.3345  31.6974  31.6974  31.6974  31.8096  31.8096
    31.8794  34.7441  34.7441  34.7441  36.0117  36.0117  36.0117  36.0904
    36.0904  36.0904  36.2081  36.2081  36.2081  36.2642  36.2642  36.6367
    36.6367  40.4011  40.4011  40.4011  40.9133  40.9133  42.1608  42.1608
    42.1608  44.6635  44.6635  44.6635  49.6162  49.8248  49.8248  51.4333
    51.4459  51.4459  51.4459  52.1272  52.1272  52.1272  54.8420  54.8421
    55.6608  55.6608  55.6610  55.8323  55.8324  55.8325  56.0166  56.0168
    56.0173

[...]

     the Fermi energy is    51.5715 ev

!    total energy              =   -2155.28553268 Ry
     Harris-Foulkes estimate   =   -2155.28553815 Ry
     estimated scf accuracy    <       0.00000658 Ry

     The total energy is the sum of the following terms:

     one-electron contribution =      73.32013083 Ry
     hartree contribution      =     196.30562430 Ry
     xc contribution           =    -204.72334218 Ry
     ewald contribution        =   -2220.00331926 Ry
     smearing contrib. (-TS)   =      -0.18462637 Ry

     convergence has been achieved in   9 iterations

     Forces acting on atoms (Ry/au):

     atom    1 type  1   force =     0.00000000    0.00000000    0.00000000
     atom    2 type  1   force =     0.00000000    0.00000000    0.00000000
     atom    3 type  1   force =     0.00000000    0.00000000    0.00000000
     atom    4 type  1   force =     0.00000000    0.00000000    0.00000000
     atom    5 type  1   force =     0.00000000    0.00000000    0.00000000
     atom    6 type  1   force =     0.00000000    0.00000000    0.00000000
     atom    7 type  2   force =     0.00000000    0.00000000    0.00000000
     atom    8 type  2   force =     0.00000000    0.00000000    0.00000000

     Total force =     0.000000     Total SCF correction =     0.000000

     entering subroutine stress ...

          total   stress  (Ry/bohr**3)                   (kbar)     P= 5695.49
   0.03871716   0.00000000   0.00000000       5695.49      0.00      0.00
   0.00000000   0.03871716   0.00000000          0.00   5695.49      0.00
   0.00000000   0.00000000   0.03871716          0.00      0.00   5695.49

     BFGS Geometry Optimization

     number of scf cycles    =   1
[...]
     new conv_thr            =       0.0000010000 Ry

[...]

          total   stress  (Ry/bohr**3)                   (kbar)     P=-1541.42
  -0.01047837   0.00000000   0.00000000      -1541.42      0.00      0.00
   0.00000000  -0.01047837   0.00000000          0.00  -1541.42      0.00
   0.00000000   0.00000000  -0.01047837          0.00      0.00  -1541.42

     number of scf cycles    =   3
     number of bfgs steps    =   2

     enthalpy old            =   -2159.2642023382 Ry
     enthalpy new            =   -2157.4040328982 Ry

     CASE: enthalpy_new > enthalpy_old

     new trust radius        =       0.2155422883 bohr

     trust_radius < trust_radius_min

     resetting bfgs history

     Message from routine bfgs:
     history already reset at previous step: stopping
     new conv_thr            =       0.0000010000 Ry

     new unit-cell volume =   1047.19055 a.u.^3 (   155.17763 Ang^3 )

[...]

ATOMIC_POSITIONS (crystal)
Cr       0.000000000   0.500000000   0.250000000
Cr       0.000000000   0.500000000   0.750000000
Cr       0.500000000   0.750000000   0.000000000
Cr       0.500000000   0.250000000   0.000000000
Cr       0.750000000   0.000000000   0.500000000
Cr       0.250000000   0.000000000   0.500000000
Si       0.500000000   0.500000000   0.500000000
Si       0.000000000   0.000000000   0.000000000

     Writing output data file Prototype-La-cP8-Cr3Si.save
     NEW-OLD atomic charge density approx. for the potential
     NEW k-points:
        k(    1) = (   0.0000000   0.0000000   0.0000000), wk =   0.0095238
        k(    2) = (   0.0000000   0.0000000   0.1200628), wk =   0.0190476
        k(    3) = (   0.0000000   0.0000000   0.2401256), wk =   0.0190476
        k(    4) = (   0.0000000   0.0000000   0.3601885), wk =   0.0190476
        k(    5) = (   0.0000000   0.1400733   0.0000000), wk =   0.0190476
        k(    6) = (   0.0000000   0.1400733   0.1200628), wk =   0.0380952
        k(    7) = (   0.0000000   0.1400733   0.2401256), wk =   0.0380952
        k(    8) = (   0.0000000   0.1400733   0.3601885), wk =   0.0380952
        k(    9) = (   0.0000000   0.2801466   0.0000000), wk =   0.0190476
        k(   10) = (   0.0000000   0.2801466   0.1200628), wk =   0.0380952
        k(   11) = (   0.0000000   0.2801466   0.2401256), wk =   0.0380952
        k(   12) = (   0.0000000   0.2801466   0.3601885), wk =   0.0380952
        k(   13) = (   0.0000000  -0.4202199   0.0000000), wk =   0.0095238
        k(   14) = (   0.0000000  -0.4202199   0.1200628), wk =   0.0190476
        k(   15) = (   0.0000000  -0.4202199   0.2401256), wk =   0.0190476
        k(   16) = (   0.0000000  -0.4202199   0.3601885), wk =   0.0190476
        k(   17) = (   0.1680879   0.0000000   0.0000000), wk =   0.0190476
        k(   18) = (   0.1680879   0.0000000   0.1200628), wk =   0.0380952
        k(   19) = (   0.1680879   0.0000000   0.2401256), wk =   0.0380952
        k(   20) = (   0.1680879   0.0000000   0.3601885), wk =   0.0380952
        k(   21) = (   0.1680879   0.1400733   0.0000000), wk =   0.0380952
        k(   22) = (   0.1680879   0.1400733   0.1200628), wk =   0.0761905
        k(   23) = (   0.1680879   0.1400733   0.2401256), wk =   0.0761905
        k(   24) = (   0.1680879   0.1400733   0.3601885), wk =   0.0761905
        k(   25) = (   0.1680879   0.2801466   0.0000000), wk =   0.0380952
        k(   26) = (   0.1680879   0.2801466   0.1200628), wk =   0.0761905
        k(   27) = (   0.1680879   0.2801466   0.2401256), wk =   0.0761905
        k(   28) = (   0.1680879   0.2801466   0.3601885), wk =   0.0761905
        k(   29) = (   0.1680879  -0.4202199   0.0000000), wk =   0.0190476
        k(   30) = (   0.1680879  -0.4202199   0.1200628), wk =   0.0380952
        k(   31) = (   0.1680879  -0.4202199   0.2401256), wk =   0.0380952
        k(   32) = (   0.1680879  -0.4202199   0.3601885), wk =   0.0380952
        k(   33) = (   0.3361759   0.0000000   0.0000000), wk =   0.0190476
        k(   34) = (   0.3361759   0.0000000   0.1200628), wk =   0.0380952
        k(   35) = (   0.3361759   0.0000000   0.2401256), wk =   0.0380952
        k(   36) = (   0.3361759   0.0000000   0.3601885), wk =   0.0380952
        k(   37) = (   0.3361759   0.1400733   0.0000000), wk =   0.0380952
        k(   38) = (   0.3361759   0.1400733   0.1200628), wk =   0.0761905
        k(   39) = (   0.3361759   0.1400733   0.2401256), wk =   0.0761905
        k(   40) = (   0.3361759   0.1400733   0.3601885), wk =   0.0761905
        k(   41) = (   0.3361759   0.2801466   0.0000000), wk =   0.0380952
        k(   42) = (   0.3361759   0.2801466   0.1200628), wk =   0.0761905
        k(   43) = (   0.3361759   0.2801466   0.2401256), wk =   0.0761905
        k(   44) = (   0.3361759   0.2801466   0.3601885), wk =   0.0761905
        k(   45) = (   0.3361759  -0.4202199   0.0000000), wk =   0.0190476
        k(   46) = (   0.3361759  -0.4202199   0.1200628), wk =   0.0380952
        k(   47) = (   0.3361759  -0.4202199   0.2401256), wk =   0.0380952
        k(   48) = (   0.3361759  -0.4202199   0.3601885), wk =   0.0380952

[...]

     The maximum number of steps has been reached.

     End of BFGS Geometry Optimization
Begin final coordinates
     new unit-cell volume =   1047.19055 a.u.^3 (   155.17763 Ang^3 )

CELL_PARAMETERS (alat=  8.53457320)
   1.189853330   0.000000000   0.000000000
   0.000000000   1.189853330   0.000000000
   0.000000000   0.000000000   1.189853330

ATOMIC_POSITIONS (crystal)
Cr       0.000000000   0.500000000   0.250000000
Cr       0.000000000   0.500000000   0.750000000
Cr       0.500000000   0.750000000   0.000000000
Cr       0.500000000   0.250000000   0.000000000
Cr       0.750000000   0.000000000   0.500000000
Cr       0.250000000   0.000000000   0.500000000
Si       0.500000000   0.500000000   0.500000000
Si       0.000000000   0.000000000   0.000000000
End final coordinates

     A final scf calculation at the relaxed structure.
     The G-vectors are recalculated for the final unit cell
     Results may differ from those at the preceding step.

     bravais-lattice index     =            0
     lattice parameter (alat)  =       8.5346  a.u.
     unit-cell volume          =    1047.1905 (a.u.)^3
     number of atoms/cell      =            8
     number of atomic types    =            2
     number of electrons       =       162.00
     number of Kohn-Sham states=           97
     kinetic-energy cutoff     =      40.0000  Ry
     charge density cutoff     =     160.0000  Ry
     convergence threshold     =      1.0E-06
     mixing beta               =       0.7000
     number of iterations used =            8  plain     mixing
     Exchange-correlation      = SLA-PZ-NOGX-NOGC ( 1 1 0 0 0)
     EXX-fraction              =        0.00

     celldm(1)=   8.534573  celldm(2)=   0.000000  celldm(3)=   0.000000
     celldm(4)=   0.000000  celldm(5)=   0.000000  celldm(6)=   0.000000

     crystal axes: (cart. coord. in units of alat)
               a(1) = (   1.189853   0.000000   0.000000 )
               a(2) = (   0.000000   1.189853   0.000000 )
               a(3) = (   0.000000   0.000000   1.189853 )

     reciprocal axes: (cart. coord. in units 2 pi/alat)
               b(1) = (  0.840440  0.000000  0.000000 )
               b(2) = (  0.000000  0.840440  0.000000 )
               b(3) = (  0.000000  0.000000  0.840440 )

     PseudoPot. # 1 for Ho read from file:
     /home/cwx6513/pp.La/Ho.UPF
     MD5 check sum: f307ee11bce99f5b724fa279e3790763
     Pseudo is Norm-conserving, Zval = 21.0
     Generated in analytical, separable form
     Using radial grid of 1265 points,  6 beta functions with:
                l(1) =   0
                l(2) =   0
                l(3) =   1
                l(4) =   1
                l(5) =   2
                l(6) =   3

     PseudoPot. # 2 for Gd read from file:
     /home/cwx6513/pp.La/Gd.UPF
     MD5 check sum: 09a8be538722f05520810cb6aac0efd2
     Pseudo is Norm-conserving, Zval = 18.0
     Generated in analytical, separable form
     Using radial grid of 1263 points,  6 beta functions with:
                l(1) =   0
                l(2) =   0
                l(3) =   1
                l(4) =   1
                l(5) =   2
                l(6) =   3

     atomic species   valence    mass     pseudopotential
        Cr            21.00    51.99610     Ho( 1.00)
        Si            18.00    28.08550     Gd( 1.00)

     48 Sym. Ops., with inversion, found (24 have fractional translation)

   Cartesian axes

     site n.     atom                  positions (alat units)
         1           Cr  tau(   1) = (   0.0000000   0.5949267   0.2974633  )
         2           Cr  tau(   2) = (   0.0000000   0.5949267   0.8923900  )
         3           Cr  tau(   3) = (   0.5949267   0.8923900   0.0000000  )
         4           Cr  tau(   4) = (   0.5949267   0.2974633   0.0000000  )
         5           Cr  tau(   5) = (   0.8923900   0.0000000   0.5949267  )
         6           Cr  tau(   6) = (   0.2974633   0.0000000   0.5949267  )
         7           Si  tau(   7) = (   0.5949267   0.5949267   0.5949267  )
         8           Si  tau(   8) = (   0.0000000   0.0000000   0.0000000  )

     number of k points=    48  gaussian smearing, width (Ry)=  0.1000
                       cart. coord. in units 2pi/alat
        k(    1) = (   0.0000000   0.0000000   0.0000000), wk =   0.0095238
        k(    2) = (   0.0000000   0.0000000   0.1200628), wk =   0.0190476
        k(    3) = (   0.0000000   0.0000000   0.2401256), wk =   0.0190476
        k(    4) = (   0.0000000   0.0000000   0.3601885), wk =   0.0190476
        k(    5) = (   0.0000000   0.1400733   0.0000000), wk =   0.0190476
        k(    6) = (   0.0000000   0.1400733   0.1200628), wk =   0.0380952
        k(    7) = (   0.0000000   0.1400733   0.2401256), wk =   0.0380952
        k(    8) = (   0.0000000   0.1400733   0.3601885), wk =   0.0380952
        k(    9) = (   0.0000000   0.2801466   0.0000000), wk =   0.0190476
        k(   10) = (   0.0000000   0.2801466   0.1200628), wk =   0.0380952
        k(   11) = (   0.0000000   0.2801466   0.2401256), wk =   0.0380952
        k(   12) = (   0.0000000   0.2801466   0.3601885), wk =   0.0380952
        k(   13) = (   0.0000000  -0.4202199   0.0000000), wk =   0.0095238
        k(   14) = (   0.0000000  -0.4202199   0.1200628), wk =   0.0190476
        k(   15) = (   0.0000000  -0.4202199   0.2401256), wk =   0.0190476
        k(   16) = (   0.0000000  -0.4202199   0.3601885), wk =   0.0190476
        k(   17) = (   0.1680879   0.0000000   0.0000000), wk =   0.0190476
        k(   18) = (   0.1680879   0.0000000   0.1200628), wk =   0.0380952
        k(   19) = (   0.1680879   0.0000000   0.2401256), wk =   0.0380952
        k(   20) = (   0.1680879   0.0000000   0.3601885), wk =   0.0380952
        k(   21) = (   0.1680879   0.1400733   0.0000000), wk =   0.0380952
        k(   22) = (   0.1680879   0.1400733   0.1200628), wk =   0.0761905
        k(   23) = (   0.1680879   0.1400733   0.2401256), wk =   0.0761905
        k(   24) = (   0.1680879   0.1400733   0.3601885), wk =   0.0761905
        k(   25) = (   0.1680879   0.2801466   0.0000000), wk =   0.0380952
        k(   26) = (   0.1680879   0.2801466   0.1200628), wk =   0.0761905
        k(   27) = (   0.1680879   0.2801466   0.2401256), wk =   0.0761905
        k(   28) = (   0.1680879   0.2801466   0.3601885), wk =   0.0761905
        k(   29) = (   0.1680879  -0.4202199   0.0000000), wk =   0.0190476
        k(   30) = (   0.1680879  -0.4202199   0.1200628), wk =   0.0380952
        k(   31) = (   0.1680879  -0.4202199   0.2401256), wk =   0.0380952
        k(   32) = (   0.1680879  -0.4202199   0.3601885), wk =   0.0380952
        k(   33) = (   0.3361759   0.0000000   0.0000000), wk =   0.0190476
        k(   34) = (   0.3361759   0.0000000   0.1200628), wk =   0.0380952
        k(   35) = (   0.3361759   0.0000000   0.2401256), wk =   0.0380952
        k(   36) = (   0.3361759   0.0000000   0.3601885), wk =   0.0380952
        k(   37) = (   0.3361759   0.1400733   0.0000000), wk =   0.0380952
        k(   38) = (   0.3361759   0.1400733   0.1200628), wk =   0.0761905
        k(   39) = (   0.3361759   0.1400733   0.2401256), wk =   0.0761905
        k(   40) = (   0.3361759   0.1400733   0.3601885), wk =   0.0761905
        k(   41) = (   0.3361759   0.2801466   0.0000000), wk =   0.0380952
        k(   42) = (   0.3361759   0.2801466   0.1200628), wk =   0.0761905
        k(   43) = (   0.3361759   0.2801466   0.2401256), wk =   0.0761905
        k(   44) = (   0.3361759   0.2801466   0.3601885), wk =   0.0761905
        k(   45) = (   0.3361759  -0.4202199   0.0000000), wk =   0.0190476
        k(   46) = (   0.3361759  -0.4202199   0.1200628), wk =   0.0380952
        k(   47) = (   0.3361759  -0.4202199   0.2401256), wk =   0.0380952
        k(   48) = (   0.3361759  -0.4202199   0.3601885), wk =   0.0380952

     Largest allocated arrays     est. size (Mb)     dimensions
     Largest temporary arrays     est. size (Mb)     dimensions

     Initial potential from superposition of free atoms

     Starting from uniform charge
     Starting wfc are    0 randomized atomic wfcs

     Writing output data file Prototype-La-cP8-Cr3Si.save

     Self-consistent Calculation

[...]

     iteration #  9     ecut=    40.00 Ry     beta=0.70
     CG style diagonalization
     c_bands:  1 eigenvalues not converged
     c_bands:  1 eigenvalues not converged
     c_bands:  1 eigenvalues not converged
     ethr =  1.48E-06,  avg # of iterations =  3.3

[...]

     total energy              =   -2163.71075741 Ry
     Harris-Foulkes estimate   =   -2163.71076570 Ry
     estimated scf accuracy    <       0.00001219 Ry

     iteration # 11     ecut=    40.00 Ry     beta=0.70
     CG style diagonalization
     ethr =  7.52E-09,  avg # of iterations =  4.1

     End of self-consistent calculation

[...]

          k = 0.3362-0.4202 0.3602 (  4492 PWs)   bands (ev):

   -64.6196 -64.6171 -64.6139 -64.6125 -64.6068 -64.6060 -41.2588 -41.2588
   -29.0149 -28.9906 -28.9238 -28.9237 -28.8495 -28.8221 -28.7527 -28.7522
   -28.7328 -28.7312 -28.7257 -28.7231 -28.7194 -28.7152 -28.7099 -28.7068
   -28.6992 -28.6977 -12.3322 -12.3321 -12.3307 -12.3307 -12.3287 -12.3287
    13.8644  14.0202  14.1234  14.1275  14.1880  14.1938  14.3392  14.3401
    14.3828  14.3919  14.4994  14.5103  14.6043  14.6061  14.6920  14.7001
    15.0399  15.0402  15.1087  15.1218  15.1710  15.1936  15.3979  15.5107
    15.6233  15.6693  15.7239  15.7426  15.7899  15.7922  19.2716  19.2779
    19.8774  19.8848  20.2524  20.2976  22.7368  22.7377  22.9979  23.0104
    23.0228  23.0342  23.5701  23.6559  23.9808  24.0042  24.3620  24.4400
    30.4641  30.7322  31.5214  31.5475  32.5074  32.9090  33.3633  33.4296
    33.7248  33.7326  34.0678  34.1082  34.3675  34.4797  34.8354  34.8512
    35.0839

     the Fermi energy is    28.3316 ev

!    total energy              =   -2163.71076285 Ry
     Harris-Foulkes estimate   =   -2163.71076349 Ry
     estimated scf accuracy    <       0.00000081 Ry

     The total energy is the sum of the following terms:

     one-electron contribution =    -433.76021442 Ry
     hartree contribution      =     332.44250407 Ry
     xc contribution           =    -196.45050477 Ry
     ewald contribution        =   -1865.77896934 Ry
     smearing contrib. (-TS)   =      -0.16357839 Ry

     convergence has been achieved in  11 iterations

     Forces acting on atoms (Ry/au):

     atom    1 type  1   force =     0.00000000    0.00000000    0.00000000
     atom    2 type  1   force =     0.00000000    0.00000000    0.00000000
     atom    3 type  1   force =     0.00000000    0.00000000    0.00000000
     atom    4 type  1   force =     0.00000000    0.00000000    0.00000000
     atom    5 type  1   force =     0.00000000    0.00000000    0.00000000
     atom    6 type  1   force =     0.00000000    0.00000000    0.00000000
     atom    7 type  2   force =     0.00000000    0.00000000    0.00000000
     atom    8 type  2   force =     0.00000000    0.00000000    0.00000000

     Total force =     0.000000     Total SCF correction =     0.000000

     entering subroutine stress ...

          total   stress  (Ry/bohr**3)                   (kbar)     P=   98.85
   0.00067198   0.00000000   0.00000000         98.85      0.00      0.00
   0.00000000   0.00067198   0.00000000          0.00     98.85      0.00
   0.00000000   0.00000000   0.00067198          0.00      0.00     98.85

     Writing output data file Prototype-La-cP8-Cr3Si.save

     General routines

     Parallel routines

   This run was terminated on:   1:27: 3  23Mar2018

   JOB DONE.