     Program PWSCF v.5.0.2 starts on 23Mar2018 at  0:56: 0

     Current dimensions of program PWSCF are:
     Max number of different atomic species (ntypx) = 10
     Max number of k-points (npk) =  40000
     Max angular momentum in pseudopotentials (lmaxx) =  3
     Waiting for input...
     Reading input from standard input

     Subspace diagonalization in iterative solution of the eigenvalue problem:
     a serial algorithm will be used

     bravais-lattice index     =            0
     lattice parameter (alat)  =      12.0168  a.u.
     unit-cell volume          =    1187.3413 (a.u.)^3
     number of atoms/cell      =            8
     number of atomic types    =            2
     number of electrons       =       162.00
     number of Kohn-Sham states=           97
     kinetic-energy cutoff     =      40.0000  Ry
     charge density cutoff     =     160.0000  Ry
     convergence threshold     =      1.0E-04
     mixing beta               =       0.7000
     number of iterations used =            8  plain     mixing
     Exchange-correlation      = SLA-PZ-NOGX-NOGC ( 1 1 0 0 0)
     EXX-fraction              =        0.00
     nstep                     =           50

     celldm(1)=  12.016801  celldm(2)=   0.000000  celldm(3)=   0.000000
     celldm(4)=   0.000000  celldm(5)=   0.000000  celldm(6)=   0.000000

     crystal axes: (cart. coord. in units of alat)
               a(1) = (   1.000000   0.000000   0.000000 )
               a(2) = (  -0.500000   0.866025   0.000000 )
               a(3) = (   0.000000   0.000000   0.790093 )

     reciprocal axes: (cart. coord. in units 2 pi/alat)
               b(1) = (  1.000000  0.577350  0.000000 )
               b(2) = (  0.000000  1.154701  0.000000 )
               b(3) = (  0.000000  0.000000  1.265674 )

     PseudoPot. # 1 for Ho read from file:
     /home/cwx6513/pp.La/Ho.UPF
     MD5 check sum: f307ee11bce99f5b724fa279e3790763
     Pseudo is Norm-conserving, Zval = 21.0
     Generated in analytical, separable form
     Using radial grid of 1265 points,  6 beta functions with:
                l(1) =   0
                l(2) =   0
                l(3) =   1
                l(4) =   1
                l(5) =   2
                l(6) =   3

     PseudoPot. # 2 for Gd read from file:
     /home/cwx6513/pp.La/Gd.UPF
     MD5 check sum: 09a8be538722f05520810cb6aac0efd2
     Pseudo is Norm-conserving, Zval = 18.0
     Generated in analytical, separable form
     Using radial grid of 1263 points,  6 beta functions with:
                l(1) =   0
                l(2) =   0
                l(3) =   1
                l(4) =   1
                l(5) =   2
                l(6) =   3

     atomic species   valence    mass     pseudopotential
        Mg            21.00    24.30500     Ho( 1.00)
        Cd            18.00   112.41100     Gd( 1.00)

     24 Sym. Ops., with inversion, found (12 have fractional translation)

   Cartesian axes

     site n.     atom                  positions (alat units)
         1           Mg  tau(   1) = (   0.2478935   0.7204716   0.1975233  )
         2           Mg  tau(   2) = (   0.7478935   0.1455538   0.5925699  )
         3           Mg  tau(   3) = (   0.2521065   0.1455538   0.5925699  )
         4           Mg  tau(   4) = (  -0.2478935   0.7204716   0.1975233  )
         5           Mg  tau(   5) = (   0.0000000   0.2911075   0.1975233  )
         6           Mg  tau(   6) = (   0.5000000   0.5749179   0.5925699  )
         7           Cd  tau(   7) = (   0.5000005   0.2886748   0.1975233  )
         8           Cd  tau(   8) = (  -0.0000005   0.5773506   0.5925699  )

     number of k points=    64  gaussian smearing, width (Ry)=  0.1000
                       cart. coord. in units 2pi/alat
        k(    1) = (   0.0000000   0.0000000   0.0000000), wk =   0.0095238
        k(    2) = (   0.0000000   0.0000000   0.1808105), wk =   0.0190476
        k(    3) = (   0.0000000   0.0000000   0.3616210), wk =   0.0190476
        k(    4) = (   0.0000000   0.0000000   0.5424315), wk =   0.0190476
        k(    5) = (   0.0000000   0.1924501   0.0000000), wk =   0.0190476
        k(    6) = (   0.0000000   0.1924501   0.1808105), wk =   0.0380952
        k(    7) = (   0.0000000   0.1924501   0.3616210), wk =   0.0380952
        k(    8) = (   0.0000000   0.1924501   0.5424315), wk =   0.0380952
        k(    9) = (   0.0000000   0.3849002   0.0000000), wk =   0.0190476
        k(   10) = (   0.0000000   0.3849002   0.1808105), wk =   0.0380952
        k(   11) = (   0.0000000   0.3849002   0.3616210), wk =   0.0380952
        k(   12) = (   0.0000000   0.3849002   0.5424315), wk =   0.0380952
        k(   13) = (   0.0000000  -0.5773503   0.0000000), wk =   0.0095238
        k(   14) = (   0.0000000  -0.5773503   0.1808105), wk =   0.0190476
        k(   15) = (   0.0000000  -0.5773503   0.3616210), wk =   0.0190476
        k(   16) = (   0.0000000  -0.5773503   0.5424315), wk =   0.0190476
        k(   17) = (   0.2000000   0.1154701   0.0000000), wk =   0.0190476
        k(   18) = (   0.2000000   0.1154701   0.1808105), wk =   0.0380952
        k(   19) = (   0.2000000   0.1154701   0.3616210), wk =   0.0380952
        k(   20) = (   0.2000000   0.1154701   0.5424315), wk =   0.0380952
        k(   21) = (   0.2000000   0.3079201   0.0000000), wk =   0.0190476
        k(   22) = (   0.2000000   0.3079201   0.1808105), wk =   0.0380952
        k(   23) = (   0.2000000   0.3079201   0.3616210), wk =   0.0380952
        k(   24) = (   0.2000000   0.3079201   0.5424315), wk =   0.0380952
        k(   25) = (   0.2000000   0.5003702   0.0000000), wk =   0.0190476
        k(   26) = (   0.2000000   0.5003702   0.1808105), wk =   0.0380952
        k(   27) = (   0.2000000   0.5003702   0.3616210), wk =   0.0380952
        k(   28) = (   0.2000000   0.5003702   0.5424315), wk =   0.0380952
        k(   29) = (   0.2000000  -0.4618802   0.0000000), wk =   0.0190476
        k(   30) = (   0.2000000  -0.4618802   0.1808105), wk =   0.0380952
        k(   31) = (   0.2000000  -0.4618802   0.3616210), wk =   0.0380952
        k(   32) = (   0.2000000  -0.4618802   0.5424315), wk =   0.0380952
        k(   33) = (   0.2000000  -0.2694301   0.0000000), wk =   0.0190476
        k(   34) = (   0.2000000  -0.2694301   0.1808105), wk =   0.0380952
        k(   35) = (   0.2000000  -0.2694301   0.3616210), wk =   0.0380952
        k(   36) = (   0.2000000  -0.2694301   0.5424315), wk =   0.0380952
        k(   37) = (   0.2000000  -0.0769800   0.0000000), wk =   0.0190476
        k(   38) = (   0.2000000  -0.0769800   0.1808105), wk =   0.0380952
        k(   39) = (   0.2000000  -0.0769800   0.3616210), wk =   0.0380952
        k(   40) = (   0.2000000  -0.0769800   0.5424315), wk =   0.0380952
        k(   41) = (   0.4000000   0.2309401   0.0000000), wk =   0.0190476
        k(   42) = (   0.4000000   0.2309401   0.1808105), wk =   0.0380952
        k(   43) = (   0.4000000   0.2309401   0.3616210), wk =   0.0380952
        k(   44) = (   0.4000000   0.2309401   0.5424315), wk =   0.0380952
        k(   45) = (   0.4000000   0.4233902   0.0000000), wk =   0.0190476
        k(   46) = (   0.4000000   0.4233902   0.1808105), wk =   0.0380952
        k(   47) = (   0.4000000   0.4233902   0.3616210), wk =   0.0380952
        k(   48) = (   0.4000000   0.4233902   0.5424315), wk =   0.0380952
        k(   49) = (   0.4000000   0.6158403   0.0000000), wk =   0.0190476
        k(   50) = (   0.4000000   0.6158403   0.1808105), wk =   0.0380952
        k(   51) = (   0.4000000   0.6158403   0.3616210), wk =   0.0380952
        k(   52) = (   0.4000000   0.6158403   0.5424315), wk =   0.0380952
        k(   53) = (   0.4000000  -0.3464102   0.0000000), wk =   0.0190476
        k(   54) = (   0.4000000  -0.3464102   0.1808105), wk =   0.0380952
        k(   55) = (   0.4000000  -0.3464102   0.3616210), wk =   0.0380952
        k(   56) = (   0.4000000  -0.3464102   0.5424315), wk =   0.0380952
        k(   57) = (   0.4000000  -0.1539601   0.0000000), wk =   0.0190476
        k(   58) = (   0.4000000  -0.1539601   0.1808105), wk =   0.0380952
        k(   59) = (   0.4000000  -0.1539601   0.3616210), wk =   0.0380952
        k(   60) = (   0.4000000  -0.1539601   0.5424315), wk =   0.0380952
        k(   61) = (   0.4000000   0.0384900   0.0000000), wk =   0.0190476
        k(   62) = (   0.4000000   0.0384900   0.1808105), wk =   0.0380952
        k(   63) = (   0.4000000   0.0384900   0.3616210), wk =   0.0380952
        k(   64) = (   0.4000000   0.0384900   0.5424315), wk =   0.0380952

     Largest allocated arrays     est. size (Mb)     dimensions
     Largest temporary arrays     est. size (Mb)     dimensions

     Initial potential from superposition of free atoms

     Starting from uniform charge
     Starting wfc are    0 randomized atomic wfcs

     Self-consistent Calculation

     iteration #  1     ecut=    40.00 Ry     beta=0.70
     CG style diagonalization
     ethr =  1.00E-02,  avg # of iterations = 18.5

     total energy              =   -1770.89667123 Ry
     Harris-Foulkes estimate   =   -2725.70920054 Ry
     estimated scf accuracy    <    1194.33494946 Ry

     iteration #  2     ecut=    40.00 Ry     beta=0.70
     CG style diagonalization
     c_bands:  5 eigenvalues not converged
     ethr =  1.00E-02,  avg # of iterations = 15.3

[...]

     End of self-consistent calculation

          k = 0.0000 0.0000 0.0000 (  5047 PWs)   bands (ev):

   -68.0865 -68.0851 -68.0850 -68.0682 -68.0682 -68.0633 -44.5423 -44.5415
   -32.3423 -32.3114 -32.2909 -32.2714 -32.2713 -32.2445 -32.2445 -32.2311
   -32.2311 -32.1976 -32.1792 -32.1791 -32.1565 -32.1565 -32.1379 -32.1371
   -32.1371 -32.1137 -15.6006 -15.5943 -15.5367 -15.5367 -15.5361 -15.5361
    10.3452  10.4810  10.4810  10.5176  10.6359  10.9493  10.9775  10.9775
    10.9851  10.9852  11.1325  11.3915  11.3915  11.6907  11.8211  11.8212
    11.8921  12.0321  12.0321  12.1300  12.1301  12.2085  12.2665  12.2666
    12.4904  12.4904  12.7092  12.7092  12.8625  13.0399  13.0790  17.1849
    17.8182  17.8183  18.0216  18.7121  18.7122  19.5739  19.5739  19.7285
    19.7285  19.9153  20.9548  20.9548  21.3457  21.7362  21.7362  22.2046
    23.1988  25.4185  25.4186  26.2546  26.2547  26.2574  26.2574  26.3981
    27.5066  27.6125  28.7394  28.7394  29.0350  29.2273  30.6337  30.6338
    31.0831

[...]

     the Fermi energy is    24.1359 ev

!    total energy              =   -2164.35414237 Ry
     Harris-Foulkes estimate   =   -2164.35414863 Ry
     estimated scf accuracy    <       0.00000767 Ry

     The total energy is the sum of the following terms:

     one-electron contribution =    -541.62893302 Ry
     hartree contribution      =     365.68756635 Ry
     xc contribution           =    -195.16681197 Ry
     ewald contribution        =   -1793.03572957 Ry
     smearing contrib. (-TS)   =      -0.21023417 Ry

     convergence has been achieved in  11 iterations

     Forces acting on atoms (Ry/au):

     atom    1 type  1   force =    -0.01216363   -0.00702268    0.00000000
[...]
        k(   15) = (   0.0000000  -0.5781079   0.3565557), wk =   0.0190476
        k(   16) = (   0.0000000  -0.5781079   0.5348335), wk =   0.0190476
        k(   17) = (   0.2002625   0.1156216   0.0000000), wk =   0.0190476
        k(   18) = (   0.2002625   0.1156216   0.1782778), wk =   0.0380952
        k(   19) = (   0.2002625   0.1156216   0.3565557), wk =   0.0380952
        k(   20) = (   0.2002625   0.1156216   0.5348335), wk =   0.0380952
        k(   21) = (   0.2002625   0.3083242   0.0000000), wk =   0.0190476
        k(   22) = (   0.2002625   0.3083242   0.1782778), wk =   0.0380952
        k(   23) = (   0.2002625   0.3083242   0.3565557), wk =   0.0380952
        k(   24) = (   0.2002625   0.3083242   0.5348335), wk =   0.0380952
        k(   25) = (   0.2002625   0.5010269   0.0000000), wk =   0.0190476
        k(   26) = (   0.2002625   0.5010269   0.1782778), wk =   0.0380952
        k(   27) = (   0.2002625   0.5010269   0.3565557), wk =   0.0380952
        k(   28) = (   0.2002625   0.5010269   0.5348335), wk =   0.0380952
        k(   29) = (   0.2002625  -0.4624863   0.0000000), wk =   0.0190476
        k(   30) = (   0.2002625  -0.4624863   0.1782778), wk =   0.0380952
        k(   31) = (   0.2002625  -0.4624863   0.3565557), wk =   0.0380952
        k(   32) = (   0.2002625  -0.4624863   0.5348335), wk =   0.0380952
        k(   33) = (   0.2002625  -0.2697837   0.0000000), wk =   0.0190476
        k(   34) = (   0.2002625  -0.2697837   0.1782778), wk =   0.0380952
        k(   35) = (   0.2002625  -0.2697837   0.3565557), wk =   0.0380952
        k(   36) = (   0.2002625  -0.2697837   0.5348335), wk =   0.0380952
        k(   37) = (   0.2002625  -0.0770811   0.0000000), wk =   0.0190476
        k(   38) = (   0.2002625  -0.0770811   0.1782778), wk =   0.0380952
        k(   39) = (   0.2002625  -0.0770811   0.3565557), wk =   0.0380952
        k(   40) = (   0.2002625  -0.0770811   0.5348335), wk =   0.0380952
        k(   41) = (   0.4005249   0.2312432   0.0000000), wk =   0.0190476
        k(   42) = (   0.4005249   0.2312432   0.1782778), wk =   0.0380952
        k(   43) = (   0.4005249   0.2312432   0.3565557), wk =   0.0380952
        k(   44) = (   0.4005249   0.2312432   0.5348335), wk =   0.0380952
        k(   45) = (   0.4005249   0.4239458   0.0000000), wk =   0.0190476
        k(   46) = (   0.4005249   0.4239458   0.1782778), wk =   0.0380952
        k(   47) = (   0.4005249   0.4239458   0.3565557), wk =   0.0380952
        k(   48) = (   0.4005249   0.4239458   0.5348335), wk =   0.0380952
        k(   49) = (   0.4005249   0.6166485   0.0000000), wk =   0.0190476
        k(   50) = (   0.4005249   0.6166485   0.1782778), wk =   0.0380952
        k(   51) = (   0.4005249   0.6166485   0.3565557), wk =   0.0380952
        k(   52) = (   0.4005249   0.6166485   0.5348335), wk =   0.0380952
        k(   53) = (   0.4005249  -0.3468648   0.0000000), wk =   0.0190476
        k(   54) = (   0.4005249  -0.3468648   0.1782778), wk =   0.0380952
        k(   55) = (   0.4005249  -0.3468648   0.3565557), wk =   0.0380952
        k(   56) = (   0.4005249  -0.3468648   0.5348335), wk =   0.0380952
        k(   57) = (   0.4005249  -0.1541621   0.0000000), wk =   0.0190476
        k(   58) = (   0.4005249  -0.1541621   0.1782778), wk =   0.0380952
        k(   59) = (   0.4005249  -0.1541621   0.3565557), wk =   0.0380952
        k(   60) = (   0.4005249  -0.1541621   0.5348335), wk =   0.0380952
        k(   61) = (   0.4005249   0.0385405   0.0000000), wk =   0.0190476
        k(   62) = (   0.4005249   0.0385405   0.1782778), wk =   0.0380952
        k(   63) = (   0.4005249   0.0385405   0.3565557), wk =   0.0380952
        k(   64) = (   0.4005249   0.0385405   0.5348335), wk =   0.0380952

[...]

     The maximum number of steps has been reached.

     End of BFGS Geometry Optimization
Begin final coordinates
     new unit-cell volume =   1201.05461 a.u.^3 (   177.97793 Ang^3 )

CELL_PARAMETERS (alat= 12.01680127)
   0.998689427   0.000000000   0.000000000
  -0.499344713   0.864890414   0.000000000
   0.000000000   0.000000000   0.801317418

ATOMIC_POSITIONS (crystal)
Mg       0.662997828   0.831498914   0.250000000
Mg       0.831498914   0.168501086   0.750000000
Mg       0.337002172   0.168501086   0.750000000
Mg       0.168501086   0.831498914   0.250000000
Mg       0.168501086   0.337002172   0.250000000
Mg       0.831498914   0.662997828   0.750000000
Cd       0.666667000   0.333333000   0.250000000
Cd       0.333333000   0.666667000   0.750000000
End final coordinates

     A final scf calculation at the relaxed structure.
     The G-vectors are recalculated for the final unit cell
     Results may differ from those at the preceding step.

     bravais-lattice index     =            0
     lattice parameter (alat)  =      12.0168  a.u.
     unit-cell volume          =    1201.0546 (a.u.)^3
     number of atoms/cell      =            8
     number of atomic types    =            2
     number of electrons       =       162.00
     number of Kohn-Sham states=           97
     kinetic-energy cutoff     =      40.0000  Ry
     charge density cutoff     =     160.0000  Ry
     convergence threshold     =      5.4E-06
     mixing beta               =       0.7000
     number of iterations used =            8  plain     mixing
     Exchange-correlation      = SLA-PZ-NOGX-NOGC ( 1 1 0 0 0)
     EXX-fraction              =        0.00

     celldm(1)=  12.016801  celldm(2)=   0.000000  celldm(3)=   0.000000
     celldm(4)=   0.000000  celldm(5)=   0.000000  celldm(6)=   0.000000

     crystal axes: (cart. coord. in units of alat)
               a(1) = (   0.998689   0.000000   0.000000 )
               a(2) = (  -0.499345   0.864890   0.000000 )
               a(3) = (   0.000000   0.000000   0.801317 )

     reciprocal axes: (cart. coord. in units 2 pi/alat)
               b(1) = (  1.001312  0.578108  0.000000 )
               b(2) = (  0.000000  1.156216  0.000000 )
               b(3) = (  0.000000  0.000000  1.247945 )

     PseudoPot. # 1 for Ho read from file:
     /home/cwx6513/pp.La/Ho.UPF
     MD5 check sum: f307ee11bce99f5b724fa279e3790763
     Pseudo is Norm-conserving, Zval = 21.0
     Generated in analytical, separable form
     Using radial grid of 1265 points,  6 beta functions with:
                l(1) =   0
                l(2) =   0
                l(3) =   1
                l(4) =   1
                l(5) =   2
                l(6) =   3

     PseudoPot. # 2 for Gd read from file:
     /home/cwx6513/pp.La/Gd.UPF
     MD5 check sum: 09a8be538722f05520810cb6aac0efd2
     Pseudo is Norm-conserving, Zval = 18.0
     Generated in analytical, separable form
     Using radial grid of 1263 points,  6 beta functions with:
                l(1) =   0
                l(2) =   0
                l(3) =   1
                l(4) =   1
                l(5) =   2
                l(6) =   3

     atomic species   valence    mass     pseudopotential
        Mg            21.00    24.30500     Ho( 1.00)
        Cd            18.00   112.41100     Gd( 1.00)

     24 Sym. Ops., with inversion, found (12 have fractional translation)

   Cartesian axes

     site n.     atom                  positions (alat units)
         1           Mg  tau(   1) = (   0.2469243   0.7191554   0.2003294  )
         2           Mg  tau(   2) = (   0.7462690   0.1457350   0.6009881  )
         3           Mg  tau(   3) = (   0.2524204   0.1457350   0.6009881  )
         4           Mg  tau(   4) = (  -0.2469243   0.7191554   0.2003294  )
         5           Mg  tau(   5) = (   0.0000000   0.2914699   0.2003294  )
         6           Mg  tau(   6) = (   0.4993447   0.5734205   0.6009881  )
         7           Cd  tau(   7) = (   0.4993452   0.2882965   0.2003294  )
         8           Cd  tau(   8) = (  -0.0000005   0.5765939   0.6009881  )

     number of k points=    64  gaussian smearing, width (Ry)=  0.1000
                       cart. coord. in units 2pi/alat
        k(    1) = (   0.0000000   0.0000000   0.0000000), wk =   0.0095238
        k(    2) = (   0.0000000   0.0000000   0.1782778), wk =   0.0190476
        k(    3) = (   0.0000000   0.0000000   0.3565557), wk =   0.0190476
        k(    4) = (   0.0000000   0.0000000   0.5348335), wk =   0.0190476
        k(    5) = (   0.0000000   0.1927026   0.0000000), wk =   0.0190476
        k(    6) = (   0.0000000   0.1927026   0.1782778), wk =   0.0380952
        k(    7) = (   0.0000000   0.1927026   0.3565557), wk =   0.0380952
        k(    8) = (   0.0000000   0.1927026   0.5348335), wk =   0.0380952
        k(    9) = (   0.0000000   0.3854053   0.0000000), wk =   0.0190476
        k(   10) = (   0.0000000   0.3854053   0.1782778), wk =   0.0380952
        k(   11) = (   0.0000000   0.3854053   0.3565557), wk =   0.0380952
        k(   12) = (   0.0000000   0.3854053   0.5348335), wk =   0.0380952
        k(   13) = (   0.0000000  -0.5781079   0.0000000), wk =   0.0095238
        k(   14) = (   0.0000000  -0.5781079   0.1782778), wk =   0.0190476
        k(   15) = (   0.0000000  -0.5781079   0.3565557), wk =   0.0190476
        k(   16) = (   0.0000000  -0.5781079   0.5348335), wk =   0.0190476
        k(   17) = (   0.2002625   0.1156216   0.0000000), wk =   0.0190476
        k(   18) = (   0.2002625   0.1156216   0.1782778), wk =   0.0380952
        k(   19) = (   0.2002625   0.1156216   0.3565557), wk =   0.0380952
        k(   20) = (   0.2002625   0.1156216   0.5348335), wk =   0.0380952
        k(   21) = (   0.2002625   0.3083242   0.0000000), wk =   0.0190476
        k(   22) = (   0.2002625   0.3083242   0.1782778), wk =   0.0380952
        k(   23) = (   0.2002625   0.3083242   0.3565557), wk =   0.0380952
        k(   24) = (   0.2002625   0.3083242   0.5348335), wk =   0.0380952
        k(   25) = (   0.2002625   0.5010269   0.0000000), wk =   0.0190476
        k(   26) = (   0.2002625   0.5010269   0.1782778), wk =   0.0380952
        k(   27) = (   0.2002625   0.5010269   0.3565557), wk =   0.0380952
        k(   28) = (   0.2002625   0.5010269   0.5348335), wk =   0.0380952
        k(   29) = (   0.2002625  -0.4624863   0.0000000), wk =   0.0190476
        k(   30) = (   0.2002625  -0.4624863   0.1782778), wk =   0.0380952
        k(   31) = (   0.2002625  -0.4624863   0.3565557), wk =   0.0380952
        k(   32) = (   0.2002625  -0.4624863   0.5348335), wk =   0.0380952
        k(   33) = (   0.2002625  -0.2697837   0.0000000), wk =   0.0190476
        k(   34) = (   0.2002625  -0.2697837   0.1782778), wk =   0.0380952
        k(   35) = (   0.2002625  -0.2697837   0.3565557), wk =   0.0380952
        k(   36) = (   0.2002625  -0.2697837   0.5348335), wk =   0.0380952
        k(   37) = (   0.2002625  -0.0770811   0.0000000), wk =   0.0190476
        k(   38) = (   0.2002625  -0.0770811   0.1782778), wk =   0.0380952
        k(   39) = (   0.2002625  -0.0770811   0.3565557), wk =   0.0380952
        k(   40) = (   0.2002625  -0.0770811   0.5348335), wk =   0.0380952
        k(   41) = (   0.4005249   0.2312432   0.0000000), wk =   0.0190476
        k(   42) = (   0.4005249   0.2312432   0.1782778), wk =   0.0380952
        k(   43) = (   0.4005249   0.2312432   0.3565557), wk =   0.0380952
        k(   44) = (   0.4005249   0.2312432   0.5348335), wk =   0.0380952
        k(   45) = (   0.4005249   0.4239458   0.0000000), wk =   0.0190476
        k(   46) = (   0.4005249   0.4239458   0.1782778), wk =   0.0380952
        k(   47) = (   0.4005249   0.4239458   0.3565557), wk =   0.0380952
        k(   48) = (   0.4005249   0.4239458   0.5348335), wk =   0.0380952
        k(   49) = (   0.4005249   0.6166485   0.0000000), wk =   0.0190476
        k(   50) = (   0.4005249   0.6166485   0.1782778), wk =   0.0380952
        k(   51) = (   0.4005249   0.6166485   0.3565557), wk =   0.0380952
        k(   52) = (   0.4005249   0.6166485   0.5348335), wk =   0.0380952
        k(   53) = (   0.4005249  -0.3468648   0.0000000), wk =   0.0190476
        k(   54) = (   0.4005249  -0.3468648   0.1782778), wk =   0.0380952
        k(   55) = (   0.4005249  -0.3468648   0.3565557), wk =   0.0380952
        k(   56) = (   0.4005249  -0.3468648   0.5348335), wk =   0.0380952
        k(   57) = (   0.4005249  -0.1541621   0.0000000), wk =   0.0190476
        k(   58) = (   0.4005249  -0.1541621   0.1782778), wk =   0.0380952
        k(   59) = (   0.4005249  -0.1541621   0.3565557), wk =   0.0380952
        k(   60) = (   0.4005249  -0.1541621   0.5348335), wk =   0.0380952
        k(   61) = (   0.4005249   0.0385405   0.0000000), wk =   0.0190476
        k(   62) = (   0.4005249   0.0385405   0.1782778), wk =   0.0380952
        k(   63) = (   0.4005249   0.0385405   0.3565557), wk =   0.0380952
        k(   64) = (   0.4005249   0.0385405   0.5348335), wk =   0.0380952

     Largest allocated arrays     est. size (Mb)     dimensions
     Largest temporary arrays     est. size (Mb)     dimensions

     Initial potential from superposition of free atoms

     Starting from uniform charge
     Starting wfc are    0 randomized atomic wfcs

     Writing output data file Prototype-La-hP8-Mg3Cd.save

     Self-consistent Calculation

[...]

     iteration # 10     ecut=    40.00 Ry     beta=0.70
     CG style diagonalization
     c_bands:  1 eigenvalues not converged
     c_bands:  2 eigenvalues not converged
     c_bands:  1 eigenvalues not converged
     c_bands:  1 eigenvalues not converged
     c_bands:  1 eigenvalues not converged
     ethr =  6.43E-07,  avg # of iterations =  3.9

[...]

     total energy              =   -2164.39449642 Ry
     Harris-Foulkes estimate   =   -2164.39450052 Ry
     estimated scf accuracy    <       0.00000689 Ry

     iteration # 12     ecut=    40.00 Ry     beta=0.70
     CG style diagonalization
     ethr =  4.25E-09,  avg # of iterations =  4.3

     End of self-consistent calculation

[...]

          k = 0.4005 0.0385 0.5348 (  5131 PWs)   bands (ev):

   -68.3945 -68.3895 -68.3884 -68.3842 -68.3800 -68.3765 -44.8433 -44.8426
   -32.6052 -32.5999 -32.5797 -32.5718 -32.5702 -32.5614 -32.5283 -32.5163
   -32.5130 -32.5011 -32.4957 -32.4902 -32.4813 -32.4750 -32.4665 -32.4597
   -32.4532 -32.4502 -15.8841 -15.8820 -15.8436 -15.8431 -15.8409 -15.8392
    10.4383  10.4532  10.5373  10.6065  10.6655  10.7040  10.7210  10.7909
    10.8207  10.8341  11.0361  11.0995  11.2972  11.3841  11.4143  11.4272
    11.4820  11.6372  11.6707  11.7454  11.7919  11.8410  11.9139  11.9681
    11.9943  12.0139  12.2777  12.3030  12.4647  12.5797  14.2730  15.3088
    16.3511  16.8255  17.3624  17.6921  18.6916  18.7936  19.0318  19.0982
    19.5105  19.5946  19.9636  20.1176  20.4256  20.6394  21.9607  22.2484
    23.4429  23.9400  25.4082  26.0566  26.6209  26.8181  27.5805  27.8291
    28.7667  29.0447  29.7865  30.0067  30.3776  30.5090  30.6709  30.8899
    31.0982

     the Fermi energy is    23.7831 ev

!    total energy              =   -2164.39450151 Ry
     Harris-Foulkes estimate   =   -2164.39450174 Ry
     estimated scf accuracy    <       0.00000027 Ry

     The total energy is the sum of the following terms:

     one-electron contribution =    -551.64597094 Ry
     hartree contribution      =     368.92157595 Ry
     xc contribution           =    -195.06802905 Ry
     ewald contribution        =   -1786.38978083 Ry
     smearing contrib. (-TS)   =      -0.21229665 Ry

     convergence has been achieved in  12 iterations

     Forces acting on atoms (Ry/au):

     atom    1 type  1   force =    -0.01269594   -0.00733000    0.00000000
     atom    2 type  1   force =    -0.01269594    0.00733000    0.00000000
     atom    3 type  1   force =     0.01269594    0.00733000    0.00000000
     atom    4 type  1   force =     0.01269594   -0.00733000    0.00000000
     atom    5 type  1   force =     0.00000000    0.01466001    0.00000000
     atom    6 type  1   force =     0.00000000   -0.01466001    0.00000000
     atom    7 type  2   force =     0.00000000    0.00000000    0.00000000
     atom    8 type  2   force =     0.00000000    0.00000000    0.00000000

     Total force =     0.035910     Total SCF correction =     0.000000

     entering subroutine stress ...

          total   stress  (Ry/bohr**3)                   (kbar)     P= -282.83
  -0.00197444   0.00000000   0.00000000       -290.45      0.00      0.00
   0.00000000  -0.00197444   0.00000000          0.00   -290.45      0.00
   0.00000000   0.00000000  -0.00181908          0.00      0.00   -267.60

     Writing output data file Prototype-La-hP8-Mg3Cd.save

     General routines

     Parallel routines

   This run was terminated on:   2:58:34  23Mar2018

   JOB DONE.