     Program PWSCF v.5.0.2 starts on 23Mar2018 at  0:55:59

     Current dimensions of program PWSCF are:
     Max number of different atomic species (ntypx) = 10
     Max number of k-points (npk) =  40000
     Max angular momentum in pseudopotentials (lmaxx) =  3
     Waiting for input...
     Reading input from standard input

     Subspace diagonalization in iterative solution of the eigenvalue problem:
     a serial algorithm will be used

     bravais-lattice index     =            0
     lattice parameter (alat)  =       9.9235  a.u.
     unit-cell volume          =    1361.0366 (a.u.)^3
     number of atoms/cell      =           12
     number of atomic types    =            2
     number of electrons       =       228.00
     number of Kohn-Sham states=          137
     kinetic-energy cutoff     =      40.0000  Ry
     charge density cutoff     =     160.0000  Ry
     convergence threshold     =      1.0E-04
     mixing beta               =       0.7000
     number of iterations used =            8  plain     mixing
     Exchange-correlation      = SLA-PZ-NOGX-NOGC ( 1 1 0 0 0)
     EXX-fraction              =        0.00
     nstep                     =           50

     celldm(1)=   9.923489  celldm(2)=   0.000000  celldm(3)=   0.000000
     celldm(4)=   0.000000  celldm(5)=   0.000000  celldm(6)=   0.000000

     crystal axes: (cart. coord. in units of alat)
               a(1) = (   1.000000   0.000000   0.000000 )
               a(2) = (  -0.500000   0.866025   0.000000 )
               a(3) = (   0.000000   0.000000   1.608222 )

     reciprocal axes: (cart. coord. in units 2 pi/alat)
               b(1) = (  1.000000  0.577350  0.000000 )
               b(2) = (  0.000000  1.154701  0.000000 )
               b(3) = (  0.000000  0.000000  0.621805 )

     PseudoPot. # 1 for Ho read from file:
     /home/cwx6513/pp.La/Ho.UPF
     MD5 check sum: f307ee11bce99f5b724fa279e3790763
     Pseudo is Norm-conserving, Zval = 21.0
     Generated in analytical, separable form
     Using radial grid of 1265 points,  6 beta functions with:
                l(1) =   0
                l(2) =   0
                l(3) =   1
                l(4) =   1
                l(5) =   2
                l(6) =   3

     PseudoPot. # 2 for Gd read from file:
     /home/cwx6513/pp.La/Gd.UPF
     MD5 check sum: 09a8be538722f05520810cb6aac0efd2
     Pseudo is Norm-conserving, Zval = 18.0
     Generated in analytical, separable form
     Using radial grid of 1263 points,  6 beta functions with:
                l(1) =   0
                l(2) =   0
                l(3) =   1
                l(4) =   1
                l(5) =   2
                l(6) =   3

     atomic species   valence    mass     pseudopotential
        Mg            21.00    24.30500     Ho( 1.00)
        Zn            18.00    65.39000     Gd( 1.00)

     24 Sym. Ops., with inversion, found (12 have fractional translation)

   Cartesian axes

     site n.     atom                  positions (alat units)
         1           Mg  tau(   1) = (  -0.0000005   0.5773506   0.1003820  )
         2           Mg  tau(   2) = (   0.5000005   0.2886748   0.9044931  )
         3           Mg  tau(   3) = (   0.5000005   0.2886748   1.5078402  )
         4           Mg  tau(   4) = (  -0.0000005   0.5773506   0.7037291  )
         5           Zn  tau(   5) = (   0.0000000   0.0000000   0.0000000  )
         6           Zn  tau(   6) = (   0.0000000   0.0000000   0.8041111  )
         7           Zn  tau(   7) = (   0.0000000   0.2950739   1.2061667  )
         8           Zn  tau(   8) = (   0.7444585   0.1475370   0.4020556  )
         9           Zn  tau(   9) = (   0.2555415   0.1475370   0.4020556  )
        10           Zn  tau(  10) = (   0.2444585   0.7184884   1.2061667  )
        11           Zn  tau(  11) = (  -0.2444585   0.7184884   1.2061667  )
        12           Zn  tau(  12) = (   0.5000000   0.5709515   0.4020556  )

     number of k points=    12  gaussian smearing, width (Ry)=  0.1000
                       cart. coord. in units 2pi/alat
        k(    1) = (   0.0000000   0.0000000   0.0000000), wk =   0.0833333
        k(    2) = (   0.0000000   0.0000000   0.1554512), wk =   0.1666667
        k(    3) = (   0.0000000   0.0000000  -0.3109023), wk =   0.0833333
        k(    4) = (   0.0000000   0.3849002   0.0000000), wk =   0.1666667
        k(    5) = (   0.0000000   0.3849002   0.1554512), wk =   0.3333333
        k(    6) = (   0.0000000   0.3849002  -0.3109023), wk =   0.1666667
        k(    7) = (  -0.5000000  -0.2886751   0.0000000), wk =   0.0833333
        k(    8) = (  -0.5000000  -0.2886751   0.1554512), wk =   0.1666667
        k(    9) = (  -0.5000000  -0.2886751  -0.3109023), wk =   0.0833333
        k(   10) = (  -0.5000000   0.0962250   0.0000000), wk =   0.1666667
        k(   11) = (  -0.5000000   0.0962250   0.1554512), wk =   0.3333333
        k(   12) = (  -0.5000000   0.0962250  -0.3109023), wk =   0.1666667

     Largest allocated arrays     est. size (Mb)     dimensions
     Largest temporary arrays     est. size (Mb)     dimensions

     Initial potential from superposition of free atoms

     Starting from uniform charge
     Starting wfc are    0 randomized atomic wfcs

     Self-consistent Calculation

     iteration #  1     ecut=    40.00 Ry     beta=0.70
     CG style diagonalization
     ethr =  1.00E-02,  avg # of iterations = 17.2

     total energy              =   -2557.32448911 Ry
     Harris-Foulkes estimate   =   -3300.38865675 Ry
     estimated scf accuracy    <     959.96461202 Ry

     iteration #  2     ecut=    40.00 Ry     beta=0.70
     CG style diagonalization
     c_bands:  1 eigenvalues not converged
     c_bands:  1 eigenvalues not converged
     ethr =  1.00E-02,  avg # of iterations =  9.3

[...]

     End of self-consistent calculation

          k = 0.0000 0.0000 0.0000 (  5769 PWs)   bands (ev):

   -61.3443 -61.3391 -61.3317 -61.3155 -38.8165 -38.7444 -38.4032 -38.4031
   -38.4013 -38.4012 -38.3547 -38.2696 -25.5420 -25.5323 -25.5323 -25.5289
   -25.5087 -25.5087 -25.4773 -25.4587 -25.4587 -25.4518 -25.4518 -25.4508
   -11.6632 -11.3191 -10.7496 -10.3072 -10.3072 -10.2300 -10.2300 -10.0526
   -10.0526  -9.8274  -9.5138  -9.5137  -9.4284  -9.3977  -9.3977  -8.9367
    -8.9296  -8.8354  -8.8354  -8.8218  -8.8218  -8.8204  -8.7359  -8.7359
    17.5471  17.5622  17.5623  17.6956  17.7012  17.7013  17.9403  17.9403
    18.0116  18.0116  18.2721  18.4544  18.4544  18.4693  18.5738  18.5738
    18.6667  18.6668  18.7571  18.7571  18.7975  19.5725  19.9046  20.3141
    21.2624  21.6261  21.6261  21.9454  21.9454  22.1535  22.1535  22.3420
    22.5871  22.7067  23.0495  23.0496  24.2547  24.2547  24.3761  24.3761
    24.8639  24.8639  25.4736  26.0061  26.3526  26.3526  27.1512  27.3189
    27.6204  27.8878  27.8878  27.9012  27.9013  28.0160  28.0160  28.1015
    28.1016  29.0399  29.8178  29.8178  30.2007  30.2007  30.2169  31.4302
    31.6538  31.7104  31.7104  31.8350  31.8351  32.1498  32.1582  33.4738
    33.4740  33.8590  34.2672  34.8880  35.0873  35.0875  35.8689  37.3520
    37.3521  37.7488  37.9240  38.2194  38.2195  38.4173  38.4175  38.4583
    39.2813

[...]

          k =-0.5000-0.2887 0.0000 (  5800 PWs)   bands (ev):

[...]

     the Fermi energy is    30.9444 ev

!    total energy              =   -2783.65894199 Ry
     Harris-Foulkes estimate   =   -2783.65900011 Ry
     estimated scf accuracy    <       0.00007366 Ry

     The total energy is the sum of the following terms:

     one-electron contribution =    -286.15071473 Ry
     hartree contribution      =     350.87174446 Ry
     xc contribution           =    -267.96980313 Ry
     ewald contribution        =   -2580.04473059 Ry
     smearing contrib. (-TS)   =      -0.36543799 Ry

     convergence has been achieved in   9 iterations

     Forces acting on atoms (Ry/au):

     atom    1 type  1   force =     0.00000000    0.00000000    0.02851184
     atom    2 type  1   force =     0.00000000    0.00000000    0.02851184
     atom    3 type  1   force =     0.00000000    0.00000000   -0.02851184
     atom    4 type  1   force =     0.00000000    0.00000000   -0.02851184
     atom    5 type  2   force =     0.00000000    0.00000000    0.00000000
     atom    6 type  2   force =     0.00000000    0.00000000    0.00000000
     atom    7 type  2   force =     0.00000000    0.01202177    0.00000000
     atom    8 type  2   force =    -0.01041116    0.00601088    0.00000000
     atom    9 type  2   force =     0.01041116    0.00601088    0.00000000
     atom   10 type  2   force =    -0.01041116   -0.00601088    0.00000000
     atom   11 type  2   force =     0.01041116   -0.00601088    0.00000000
     atom   12 type  2   force =     0.00000000   -0.01202177    0.00000000

     Total force =     0.064178     Total SCF correction =     0.000000

     entering subroutine stress ...

          total   stress  (Ry/bohr**3)                   (kbar)     P=  698.87
   0.00473919   0.00000000   0.00000000        697.16      0.00      0.00
   0.00000000   0.00473919   0.00000000          0.00    697.16      0.00
   0.00000000   0.00000000   0.00477408          0.00      0.00    702.29

     BFGS Geometry Optimization

     number of scf cycles    =   1
     number of bfgs steps    =   0

     enthalpy new            =   -2783.6589419903 Ry

     new trust radius        =       0.5000000000 bohr
     new conv_thr            =       0.0001000000 Ry

     new unit-cell volume =   1655.36542 a.u.^3 (   245.29984 Ang^3 )

CELL_PARAMETERS (alat=  9.92348860)
   1.067269754   0.000000000   0.000000000
  -0.533634877   0.924282720   0.000000000
   0.000000000   0.000000000   1.717203317

ATOMIC_POSITIONS (crystal)
Mg       0.333333000   0.666667000   0.063432356
Mg       0.666667000   0.333333000   0.563432356
Mg       0.666667000   0.333333000   0.936567644
Mg       0.333333000   0.666667000   0.436567644
Zn       0.000000000   0.000000000   0.000000000
Zn       0.000000000   0.000000000   0.500000000
Zn       0.170758118   0.341516235   0.750000000
Zn       0.829241882   0.170758118   0.250000000
Zn       0.341516235   0.170758118   0.250000000
Zn       0.658483765   0.829241882   0.750000000
Zn       0.170758118   0.829241882   0.750000000
Zn       0.829241882   0.658483765   0.250000000

     Writing output data file Prototype-La-hP12-MgZn2.save
     NEW-OLD atomic charge density approx. for the potential
     NEW k-points:
        k(    1) = (   0.0000000   0.0000000   0.0000000), wk =   0.0833333
        k(    2) = (   0.0000000   0.0000000   0.1455856), wk =   0.1666667
        k(    3) = (   0.0000000   0.0000000  -0.2911711), wk =   0.0833333
        k(    4) = (   0.0000000   0.3606400   0.0000000), wk =   0.1666667
        k(    5) = (   0.0000000   0.3606400   0.1455856), wk =   0.3333333
        k(    6) = (   0.0000000   0.3606400  -0.2911711), wk =   0.1666667
        k(    7) = (  -0.4684851  -0.2704800   0.0000000), wk =   0.0833333
        k(    8) = (  -0.4684851  -0.2704800   0.1455856), wk =   0.1666667
        k(    9) = (  -0.4684851  -0.2704800  -0.2911711), wk =   0.0833333
        k(   10) = (  -0.4684851   0.0901600   0.0000000), wk =   0.1666667
        k(   11) = (  -0.4684851   0.0901600   0.1455856), wk =   0.3333333
        k(   12) = (  -0.4684851   0.0901600  -0.2911711), wk =   0.1666667

[...]

     enthalpy old            =   -2783.6589419903 Ry
     enthalpy new            =   -2783.8144809140 Ry

     CASE: enthalpy_new < enthalpy_old

     small trust_radius: resetting bfgs history

     new trust radius        =       0.5541219738 bohr
     new conv_thr            =       0.0000159899 Ry

[...]

     number of scf cycles    =   3
     number of bfgs steps    =   2

     enthalpy old            =   -2783.8144809140 Ry
     enthalpy new            =   -2783.5689856258 Ry

     CASE: enthalpy_new > enthalpy_old

     new trust radius        =       0.2103318949 bohr

     trust_radius < trust_radius_min

     resetting bfgs history

     Message from routine bfgs:
     history already reset at previous step: stopping
     new conv_thr            =       0.0000159899 Ry

     new unit-cell volume =   1362.67130 a.u.^3 (   201.92705 Ang^3 )

[...]

ATOMIC_POSITIONS (crystal)
Mg       0.333333000   0.666667000   0.063632724
Mg       0.666667000   0.333333000   0.563632724
Mg       0.666667000   0.333333000   0.936367276
Mg       0.333333000   0.666667000   0.436367276
Zn       0.000000000   0.000000000   0.000000000
Zn       0.000000000   0.000000000   0.500000000
Zn       0.169885157   0.339770315   0.750000000
Zn       0.830114843   0.169885157   0.250000000
Zn       0.339770315   0.169885157   0.250000000
Zn       0.660229685   0.830114843   0.750000000
Zn       0.169885157   0.830114843   0.750000000
Zn       0.830114843   0.660229685   0.250000000

     Writing output data file Prototype-La-hP12-MgZn2.save
     NEW-OLD atomic charge density approx. for the potential
     NEW k-points:
        k(    1) = (   0.0000000   0.0000000   0.0000000), wk =   0.0833333
        k(    2) = (   0.0000000   0.0000000   0.1554662), wk =   0.1666667
        k(    3) = (   0.0000000   0.0000000  -0.3109323), wk =   0.0833333
        k(    4) = (   0.0000000   0.3846507   0.0000000), wk =   0.1666667
        k(    5) = (   0.0000000   0.3846507   0.1554662), wk =   0.3333333
        k(    6) = (   0.0000000   0.3846507  -0.3109323), wk =   0.1666667
        k(    7) = (  -0.4996759  -0.2884880   0.0000000), wk =   0.0833333
        k(    8) = (  -0.4996759  -0.2884880   0.1554662), wk =   0.1666667
        k(    9) = (  -0.4996759  -0.2884880  -0.3109323), wk =   0.0833333
        k(   10) = (  -0.4996759   0.0961627   0.0000000), wk =   0.1666667
        k(   11) = (  -0.4996759   0.0961627   0.1554662), wk =   0.3333333
        k(   12) = (  -0.4996759   0.0961627  -0.3109323), wk =   0.1666667

[...]

     The maximum number of steps has been reached.

     End of BFGS Geometry Optimization
Begin final coordinates
     new unit-cell volume =   1362.67130 a.u.^3 (   201.92705 Ang^3 )

CELL_PARAMETERS (alat=  9.92348860)
   1.000648671   0.000000000   0.000000000
  -0.500324335   0.866587169   0.000000000
   0.000000000   0.000000000   1.608066881

ATOMIC_POSITIONS (crystal)
Mg       0.333333000   0.666667000   0.063632724
Mg       0.666667000   0.333333000   0.563632724
Mg       0.666667000   0.333333000   0.936367276
Mg       0.333333000   0.666667000   0.436367276
Zn       0.000000000   0.000000000   0.000000000
Zn       0.000000000   0.000000000   0.500000000
Zn       0.169885157   0.339770315   0.750000000
Zn       0.830114843   0.169885157   0.250000000
Zn       0.339770315   0.169885157   0.250000000
Zn       0.660229685   0.830114843   0.750000000
Zn       0.169885157   0.830114843   0.750000000
Zn       0.830114843   0.660229685   0.250000000
End final coordinates

     A final scf calculation at the relaxed structure.
     The G-vectors are recalculated for the final unit cell
     Results may differ from those at the preceding step.

     bravais-lattice index     =            0
     lattice parameter (alat)  =       9.9235  a.u.
     unit-cell volume          =    1362.6713 (a.u.)^3
     number of atoms/cell      =           12
     number of atomic types    =            2
     number of electrons       =       228.00
     number of Kohn-Sham states=          137
     kinetic-energy cutoff     =      40.0000  Ry
     charge density cutoff     =     160.0000  Ry
     convergence threshold     =      1.6E-05
     mixing beta               =       0.7000
     number of iterations used =            8  plain     mixing
     Exchange-correlation      = SLA-PZ-NOGX-NOGC ( 1 1 0 0 0)
     EXX-fraction              =        0.00

     celldm(1)=   9.923489  celldm(2)=   0.000000  celldm(3)=   0.000000
     celldm(4)=   0.000000  celldm(5)=   0.000000  celldm(6)=   0.000000

     crystal axes: (cart. coord. in units of alat)
               a(1) = (   1.000649   0.000000   0.000000 )
               a(2) = (  -0.500324   0.866587   0.000000 )
               a(3) = (   0.000000   0.000000   1.608067 )

     reciprocal axes: (cart. coord. in units 2 pi/alat)
               b(1) = (  0.999352  0.576976  0.000000 )
               b(2) = (  0.000000  1.153952  0.000000 )
               b(3) = (  0.000000  0.000000  0.621865 )

     PseudoPot. # 1 for Ho read from file:
     /home/cwx6513/pp.La/Ho.UPF
     MD5 check sum: f307ee11bce99f5b724fa279e3790763
     Pseudo is Norm-conserving, Zval = 21.0
     Generated in analytical, separable form
     Using radial grid of 1265 points,  6 beta functions with:
                l(1) =   0
                l(2) =   0
                l(3) =   1
                l(4) =   1
                l(5) =   2
                l(6) =   3

     PseudoPot. # 2 for Gd read from file:
     /home/cwx6513/pp.La/Gd.UPF
     MD5 check sum: 09a8be538722f05520810cb6aac0efd2
     Pseudo is Norm-conserving, Zval = 18.0
     Generated in analytical, separable form
     Using radial grid of 1263 points,  6 beta functions with:
                l(1) =   0
                l(2) =   0
                l(3) =   1
                l(4) =   1
                l(5) =   2
                l(6) =   3

     atomic species   valence    mass     pseudopotential
        Mg            21.00    24.30500     Ho( 1.00)
        Zn            18.00    65.39000     Gd( 1.00)

     24 Sym. Ops., with inversion, found (12 have fractional translation)

   Cartesian axes

     site n.     atom                  positions (alat units)
         1           Mg  tau(   1) = (  -0.0000005   0.5777251   0.1023257  )
         2           Mg  tau(   2) = (   0.5003248   0.2888621   0.9063591  )
         3           Mg  tau(   3) = (   0.5003248   0.2888621   1.5057412  )
         4           Mg  tau(   4) = (  -0.0000005   0.5777251   0.7017078  )
         5           Zn  tau(   5) = (   0.0000000   0.0000000   0.0000000  )
         6           Zn  tau(   6) = (   0.0000000   0.0000000   0.8040334  )
         7           Zn  tau(   7) = (   0.0000000   0.2944406   1.2060502  )
         8           Zn  tau(   8) = (   0.7456556   0.1472203   0.4020167  )
         9           Zn  tau(   9) = (   0.2549930   0.1472203   0.4020167  )
        10           Zn  tau(  10) = (   0.2453313   0.7193669   1.2060502  )
        11           Zn  tau(  11) = (  -0.2453313   0.7193669   1.2060502  )
        12           Zn  tau(  12) = (   0.5003243   0.5721466   0.4020167  )

     number of k points=    12  gaussian smearing, width (Ry)=  0.1000
                       cart. coord. in units 2pi/alat
        k(    1) = (   0.0000000   0.0000000   0.0000000), wk =   0.0833333
        k(    2) = (   0.0000000   0.0000000   0.1554662), wk =   0.1666667
        k(    3) = (   0.0000000   0.0000000  -0.3109323), wk =   0.0833333
        k(    4) = (   0.0000000   0.3846507   0.0000000), wk =   0.1666667
        k(    5) = (   0.0000000   0.3846507   0.1554662), wk =   0.3333333
        k(    6) = (   0.0000000   0.3846507  -0.3109323), wk =   0.1666667
        k(    7) = (  -0.4996759  -0.2884880   0.0000000), wk =   0.0833333
        k(    8) = (  -0.4996759  -0.2884880   0.1554662), wk =   0.1666667
        k(    9) = (  -0.4996759  -0.2884880  -0.3109323), wk =   0.0833333
        k(   10) = (  -0.4996759   0.0961627   0.0000000), wk =   0.1666667
        k(   11) = (  -0.4996759   0.0961627   0.1554662), wk =   0.3333333
        k(   12) = (  -0.4996759   0.0961627  -0.3109323), wk =   0.1666667

     Largest allocated arrays     est. size (Mb)     dimensions
     Largest temporary arrays     est. size (Mb)     dimensions

     Initial potential from superposition of free atoms

     Starting from uniform charge
     Starting wfc are    0 randomized atomic wfcs

     Writing output data file Prototype-La-hP12-MgZn2.save

     Self-consistent Calculation

[...]

     iteration # 10     ecut=    40.00 Ry     beta=0.70
     CG style diagonalization
     c_bands:  1 eigenvalues not converged
     ethr =  6.16E-08,  avg # of iterations =  3.7

     total energy              =   -2783.66975607 Ry
     Harris-Foulkes estimate   =   -2783.66976486 Ry
     estimated scf accuracy    <       0.00001647 Ry

     iteration # 11     ecut=    40.00 Ry     beta=0.70
     CG style diagonalization
     ethr =  7.22E-09,  avg # of iterations =  3.6

     End of self-consistent calculation

[...]

          k = 0.0000 0.3847-0.3109 (  5820 PWs)   bands (ev):

[...]

          k =-0.4997 0.0962-0.3109 (  5832 PWs)   bands (ev):

   -61.3971 -61.3970 -61.3914 -61.3913 -38.7114 -38.7114 -38.5908 -38.5908
   -38.4445 -38.4445 -38.3323 -38.3323 -25.5935 -25.5934 -25.5826 -25.5825
   -25.5651 -25.5651 -25.5406 -25.5405 -25.5148 -25.5148 -25.5107 -25.5107
   -11.0320 -11.0320 -10.5012 -10.5012 -10.1049 -10.1049 -10.0441 -10.0441
    -9.9265  -9.9265  -9.8180  -9.8180  -9.6306  -9.6306  -9.3721  -9.3721
    -9.1706  -9.1706  -9.0595  -9.0595  -8.9225  -8.9225  -8.8774  -8.8774
    17.4950  17.4950  17.5584  17.5585  17.6050  17.6050  17.8346  17.8346
    17.9607  17.9608  18.1269  18.1269  18.3202  18.3202  18.3931  18.3931
    18.6702  18.6703  18.7984  18.7984  21.0067  21.0067  21.3624  21.3624
    21.7868  21.7868  22.4285  22.4285  22.6144  22.6144  22.9291  22.9291
    23.2550  23.2550  23.6830  23.6830  24.1122  24.1122  24.2535  24.2535
    24.6078  24.6078  25.3089  25.3089  25.4709  25.4709  25.9689  25.9689
    26.2991  26.2991  26.5200  26.5200  26.8393  26.8394  27.3417  27.3417
    27.7393  27.7394  27.9415  27.9415  28.3491  28.3491  29.4332  29.4332
    30.2457  30.2457  31.7055  31.7056  32.5072  32.5072  33.0959  33.0959
    34.2958  34.2958  35.6853  35.6853  37.0900  37.0900  37.5186  37.5186
    37.8362  37.8362  38.5573  38.5573  39.0053  39.0054  39.6824  39.6825
    40.0182

     the Fermi energy is    30.8985 ev

!    total energy              =   -2783.66975772 Ry
     Harris-Foulkes estimate   =   -2783.66976151 Ry
     estimated scf accuracy    <       0.00000429 Ry

     The total energy is the sum of the following terms:

     one-electron contribution =    -288.07066663 Ry
     hartree contribution      =     351.52913926 Ry
     xc contribution           =    -267.95542955 Ry
     ewald contribution        =   -2578.80727328 Ry
     smearing contrib. (-TS)   =      -0.36552753 Ry

     convergence has been achieved in  11 iterations

     Forces acting on atoms (Ry/au):

     atom    1 type  1   force =     0.00000000    0.00000000    0.00579957
     atom    2 type  1   force =     0.00000000    0.00000000    0.00579957
     atom    3 type  1   force =     0.00000000    0.00000000   -0.00579957
     atom    4 type  1   force =     0.00000000    0.00000000   -0.00579957
     atom    5 type  2   force =     0.00000000    0.00000000    0.00000000
     atom    6 type  2   force =     0.00000000    0.00000000    0.00000000
     atom    7 type  2   force =     0.00000000    0.04293960    0.00000000
     atom    8 type  2   force =    -0.03718678    0.02146980    0.00000000
     atom    9 type  2   force =     0.03718678    0.02146980    0.00000000
     atom   10 type  2   force =    -0.03718678   -0.02146980    0.00000000
     atom   11 type  2   force =     0.03718678   -0.02146980    0.00000000
     atom   12 type  2   force =     0.00000000   -0.04293960    0.00000000

     Total force =     0.105818     Total SCF correction =     0.000000

     entering subroutine stress ...

          total   stress  (Ry/bohr**3)                   (kbar)     P=  696.00
   0.00470462   0.00000000   0.00000000        692.07      0.00      0.00
   0.00000000   0.00470462   0.00000000          0.00    692.07      0.00
   0.00000000   0.00000000   0.00478480          0.00      0.00    703.87

     Writing output data file Prototype-La-hP12-MgZn2.save

     General routines

     Parallel routines

   This run was terminated on:   1:15:31  23Mar2018

   JOB DONE.