     Program PWSCF v.5.0.2 starts on 23Mar2018 at  1: 1:23

     Current dimensions of program PWSCF are:
     Max number of different atomic species (ntypx) = 10
     Max number of k-points (npk) =  40000
     Max angular momentum in pseudopotentials (lmaxx) =  3
     Waiting for input...
     Reading input from standard input

     Subspace diagonalization in iterative solution of the eigenvalue problem:
     a serial algorithm will be used

     bravais-lattice index     =            0
     lattice parameter (alat)  =      12.0168  a.u.
     unit-cell volume          =    1187.3413 (a.u.)^3
     number of atoms/cell      =            8
     number of atomic types    =            2
     number of electrons       =       164.00
     number of Kohn-Sham states=           98
     kinetic-energy cutoff     =      40.0000  Ry
     charge density cutoff     =     160.0000  Ry
     convergence threshold     =      1.0E-04
     mixing beta               =       0.7000
     number of iterations used =            8  plain     mixing
     Exchange-correlation      = SLA-PZ-NOGX-NOGC ( 1 1 0 0 0)
     EXX-fraction              =        0.00
     nstep                     =           50

     celldm(1)=  12.016801  celldm(2)=   0.000000  celldm(3)=   0.000000
     celldm(4)=   0.000000  celldm(5)=   0.000000  celldm(6)=   0.000000

     crystal axes: (cart. coord. in units of alat)
               a(1) = (   1.000000   0.000000   0.000000 )
               a(2) = (  -0.500000   0.866025   0.000000 )
               a(3) = (   0.000000   0.000000   0.790093 )

     reciprocal axes: (cart. coord. in units 2 pi/alat)
               b(1) = (  1.000000  0.577350  0.000000 )
               b(2) = (  0.000000  1.154701  0.000000 )
               b(3) = (  0.000000  0.000000  1.265674 )

     PseudoPot. # 1 for Ho read from file:
     /home/cwx6513/pp.La/Ho.UPF
     MD5 check sum: f307ee11bce99f5b724fa279e3790763
     Pseudo is Norm-conserving, Zval = 21.0
     Generated in analytical, separable form
     Using radial grid of 1265 points,  6 beta functions with:
                l(1) =   0
                l(2) =   0
                l(3) =   1
                l(4) =   1
                l(5) =   2
                l(6) =   3

     PseudoPot. # 2 for Tb read from file:
     /home/cwx6513/pp.La/Tb.UPF
     MD5 check sum: 3d6088a3f0cf7fd2e110c43f7f8e95c2
     Pseudo is Norm-conserving, Zval = 19.0
     Generated in analytical, separable form
     Using radial grid of 1263 points,  6 beta functions with:
                l(1) =   0
                l(2) =   0
                l(3) =   1
                l(4) =   1
                l(5) =   2
                l(6) =   3

     atomic species   valence    mass     pseudopotential
        Mg            21.00    24.30500     Ho( 1.00)
        Cd            19.00   112.41100     Tb( 1.00)

     24 Sym. Ops., with inversion, found (12 have fractional translation)

   Cartesian axes

     site n.     atom                  positions (alat units)
         1           Mg  tau(   1) = (   0.2478935   0.7204716   0.1975233  )
         2           Mg  tau(   2) = (   0.7478935   0.1455538   0.5925699  )
         3           Mg  tau(   3) = (   0.2521065   0.1455538   0.5925699  )
         4           Mg  tau(   4) = (  -0.2478935   0.7204716   0.1975233  )
         5           Mg  tau(   5) = (   0.0000000   0.2911075   0.1975233  )
         6           Mg  tau(   6) = (   0.5000000   0.5749179   0.5925699  )
         7           Cd  tau(   7) = (   0.5000005   0.2886748   0.1975233  )
         8           Cd  tau(   8) = (  -0.0000005   0.5773506   0.5925699  )

     number of k points=    64  gaussian smearing, width (Ry)=  0.1000
                       cart. coord. in units 2pi/alat
        k(    1) = (   0.0000000   0.0000000   0.0000000), wk =   0.0095238
        k(    2) = (   0.0000000   0.0000000   0.1808105), wk =   0.0190476
        k(    3) = (   0.0000000   0.0000000   0.3616210), wk =   0.0190476
        k(    4) = (   0.0000000   0.0000000   0.5424315), wk =   0.0190476
        k(    5) = (   0.0000000   0.1924501   0.0000000), wk =   0.0190476
        k(    6) = (   0.0000000   0.1924501   0.1808105), wk =   0.0380952
        k(    7) = (   0.0000000   0.1924501   0.3616210), wk =   0.0380952
        k(    8) = (   0.0000000   0.1924501   0.5424315), wk =   0.0380952
        k(    9) = (   0.0000000   0.3849002   0.0000000), wk =   0.0190476
        k(   10) = (   0.0000000   0.3849002   0.1808105), wk =   0.0380952
        k(   11) = (   0.0000000   0.3849002   0.3616210), wk =   0.0380952
        k(   12) = (   0.0000000   0.3849002   0.5424315), wk =   0.0380952
        k(   13) = (   0.0000000  -0.5773503   0.0000000), wk =   0.0095238
        k(   14) = (   0.0000000  -0.5773503   0.1808105), wk =   0.0190476
        k(   15) = (   0.0000000  -0.5773503   0.3616210), wk =   0.0190476
        k(   16) = (   0.0000000  -0.5773503   0.5424315), wk =   0.0190476
        k(   17) = (   0.2000000   0.1154701   0.0000000), wk =   0.0190476
        k(   18) = (   0.2000000   0.1154701   0.1808105), wk =   0.0380952
        k(   19) = (   0.2000000   0.1154701   0.3616210), wk =   0.0380952
        k(   20) = (   0.2000000   0.1154701   0.5424315), wk =   0.0380952
        k(   21) = (   0.2000000   0.3079201   0.0000000), wk =   0.0190476
        k(   22) = (   0.2000000   0.3079201   0.1808105), wk =   0.0380952
        k(   23) = (   0.2000000   0.3079201   0.3616210), wk =   0.0380952
        k(   24) = (   0.2000000   0.3079201   0.5424315), wk =   0.0380952
        k(   25) = (   0.2000000   0.5003702   0.0000000), wk =   0.0190476
        k(   26) = (   0.2000000   0.5003702   0.1808105), wk =   0.0380952
        k(   27) = (   0.2000000   0.5003702   0.3616210), wk =   0.0380952
        k(   28) = (   0.2000000   0.5003702   0.5424315), wk =   0.0380952
        k(   29) = (   0.2000000  -0.4618802   0.0000000), wk =   0.0190476
        k(   30) = (   0.2000000  -0.4618802   0.1808105), wk =   0.0380952
        k(   31) = (   0.2000000  -0.4618802   0.3616210), wk =   0.0380952
        k(   32) = (   0.2000000  -0.4618802   0.5424315), wk =   0.0380952
        k(   33) = (   0.2000000  -0.2694301   0.0000000), wk =   0.0190476
        k(   34) = (   0.2000000  -0.2694301   0.1808105), wk =   0.0380952
        k(   35) = (   0.2000000  -0.2694301   0.3616210), wk =   0.0380952
        k(   36) = (   0.2000000  -0.2694301   0.5424315), wk =   0.0380952
        k(   37) = (   0.2000000  -0.0769800   0.0000000), wk =   0.0190476
        k(   38) = (   0.2000000  -0.0769800   0.1808105), wk =   0.0380952
        k(   39) = (   0.2000000  -0.0769800   0.3616210), wk =   0.0380952
        k(   40) = (   0.2000000  -0.0769800   0.5424315), wk =   0.0380952
        k(   41) = (   0.4000000   0.2309401   0.0000000), wk =   0.0190476
        k(   42) = (   0.4000000   0.2309401   0.1808105), wk =   0.0380952
        k(   43) = (   0.4000000   0.2309401   0.3616210), wk =   0.0380952
        k(   44) = (   0.4000000   0.2309401   0.5424315), wk =   0.0380952
        k(   45) = (   0.4000000   0.4233902   0.0000000), wk =   0.0190476
        k(   46) = (   0.4000000   0.4233902   0.1808105), wk =   0.0380952
        k(   47) = (   0.4000000   0.4233902   0.3616210), wk =   0.0380952
        k(   48) = (   0.4000000   0.4233902   0.5424315), wk =   0.0380952
        k(   49) = (   0.4000000   0.6158403   0.0000000), wk =   0.0190476
        k(   50) = (   0.4000000   0.6158403   0.1808105), wk =   0.0380952
        k(   51) = (   0.4000000   0.6158403   0.3616210), wk =   0.0380952
        k(   52) = (   0.4000000   0.6158403   0.5424315), wk =   0.0380952
        k(   53) = (   0.4000000  -0.3464102   0.0000000), wk =   0.0190476
        k(   54) = (   0.4000000  -0.3464102   0.1808105), wk =   0.0380952
        k(   55) = (   0.4000000  -0.3464102   0.3616210), wk =   0.0380952
        k(   56) = (   0.4000000  -0.3464102   0.5424315), wk =   0.0380952
        k(   57) = (   0.4000000  -0.1539601   0.0000000), wk =   0.0190476
        k(   58) = (   0.4000000  -0.1539601   0.1808105), wk =   0.0380952
        k(   59) = (   0.4000000  -0.1539601   0.3616210), wk =   0.0380952
        k(   60) = (   0.4000000  -0.1539601   0.5424315), wk =   0.0380952
        k(   61) = (   0.4000000   0.0384900   0.0000000), wk =   0.0190476
        k(   62) = (   0.4000000   0.0384900   0.1808105), wk =   0.0380952
        k(   63) = (   0.4000000   0.0384900   0.3616210), wk =   0.0380952
        k(   64) = (   0.4000000   0.0384900   0.5424315), wk =   0.0380952

     Largest allocated arrays     est. size (Mb)     dimensions
     Largest temporary arrays     est. size (Mb)     dimensions

     Initial potential from superposition of free atoms

     Starting from uniform charge
     Starting wfc are    0 randomized atomic wfcs

     Self-consistent Calculation

     iteration #  1     ecut=    40.00 Ry     beta=0.70
     CG style diagonalization
     c_bands:  1 eigenvalues not converged
     c_bands:  1 eigenvalues not converged
     c_bands:  1 eigenvalues not converged
     c_bands:  1 eigenvalues not converged
     c_bands:  1 eigenvalues not converged
     c_bands:  1 eigenvalues not converged
     ethr =  1.00E-02,  avg # of iterations = 11.8

     total energy              =   -1982.20318386 Ry
     Harris-Foulkes estimate   =   -2777.12631453 Ry
     estimated scf accuracy    <    1010.56396666 Ry

[...]

     iteration #  3     ecut=    40.00 Ry     beta=0.70
     CG style diagonalization
     ethr =  1.00E-02,  avg # of iterations =  5.1

[...]

     End of self-consistent calculation

          k = 0.0000 0.0000 0.0000 (  5047 PWs)   bands (ev):

   -67.8309 -67.8295 -67.8294 -67.8126 -67.8126 -67.8077 -51.4906 -51.4891
   -32.0921 -32.0547 -32.0343 -32.0207 -32.0207 -31.9944 -31.9944 -31.9864
   -31.9863 -31.9533 -31.9284 -31.9284 -31.9003 -31.9002 -31.8873 -31.8860
   -31.8860 -31.8692 -19.8785 -19.8706 -19.8281 -19.8281 -19.8203 -19.8203
    10.5611  10.6793  10.6793  10.7387  10.8443  11.1009  11.1783  11.1784
    11.1950  11.1950  11.3562  11.6217  11.6218  11.8864  12.0390  12.0391
    12.0946  12.2239  12.2259  12.2260  12.3227  12.3228  12.4716  12.4717
    12.7026  12.7026  12.9337  12.9337  13.1029  13.2800  13.3121  16.4507
    17.2160  17.2160  17.3300  17.9270  17.9271  17.9788  17.9788  18.1378
    18.1378  19.9010  19.9359  19.9359  20.2763  20.6233  20.6233  21.5512
    22.5554  25.3731  25.3732  25.8514  26.0572  26.0572  26.3082  26.3083
    27.1542  27.7254  28.3284  28.5641  28.5641  29.3601  30.2323  30.2324
    31.1889  31.3799

[...]

     the Fermi energy is    24.4662 ev

!    total energy              =   -2220.31531124 Ry
     Harris-Foulkes estimate   =   -2220.31531350 Ry
     estimated scf accuracy    <       0.00000265 Ry

     The total energy is the sum of the following terms:

     one-electron contribution =    -563.32915610 Ry
     hartree contribution      =     377.66562569 Ry
     xc contribution           =    -199.06508438 Ry
     ewald contribution        =   -1835.37559232 Ry
     smearing contrib. (-TS)   =      -0.21110413 Ry

[...]
        k(   17) = (   0.2108460   0.1217320   0.0000000), wk =   0.0190476
        k(   18) = (   0.2108460   0.1217320   0.1890709), wk =   0.0380952
        k(   19) = (   0.2108460   0.1217320   0.3781419), wk =   0.0380952
        k(   20) = (   0.2108460   0.1217320   0.5672128), wk =   0.0380952
        k(   21) = (   0.2108460   0.3246186   0.0000000), wk =   0.0190476
        k(   22) = (   0.2108460   0.3246186   0.1890709), wk =   0.0380952
        k(   23) = (   0.2108460   0.3246186   0.3781419), wk =   0.0380952
        k(   24) = (   0.2108460   0.3246186   0.5672128), wk =   0.0380952
        k(   25) = (   0.2108460   0.5275052   0.0000000), wk =   0.0190476
        k(   26) = (   0.2108460   0.5275052   0.1890709), wk =   0.0380952
        k(   27) = (   0.2108460   0.5275052   0.3781419), wk =   0.0380952
        k(   28) = (   0.2108460   0.5275052   0.5672128), wk =   0.0380952
        k(   29) = (   0.2108460  -0.4869279   0.0000000), wk =   0.0190476
        k(   30) = (   0.2108460  -0.4869279   0.1890709), wk =   0.0380952
        k(   31) = (   0.2108460  -0.4869279   0.3781419), wk =   0.0380952
        k(   32) = (   0.2108460  -0.4869279   0.5672128), wk =   0.0380952
        k(   33) = (   0.2108460  -0.2840413   0.0000000), wk =   0.0190476
        k(   34) = (   0.2108460  -0.2840413   0.1890709), wk =   0.0380952
        k(   35) = (   0.2108460  -0.2840413   0.3781419), wk =   0.0380952
        k(   36) = (   0.2108460  -0.2840413   0.5672128), wk =   0.0380952
        k(   37) = (   0.2108460  -0.0811546   0.0000000), wk =   0.0190476
        k(   38) = (   0.2108460  -0.0811546   0.1890709), wk =   0.0380952
        k(   39) = (   0.2108460  -0.0811546   0.3781419), wk =   0.0380952
        k(   40) = (   0.2108460  -0.0811546   0.5672128), wk =   0.0380952
        k(   41) = (   0.4216919   0.2434639   0.0000000), wk =   0.0190476
        k(   42) = (   0.4216919   0.2434639   0.1890709), wk =   0.0380952
        k(   43) = (   0.4216919   0.2434639   0.3781419), wk =   0.0380952
        k(   44) = (   0.4216919   0.2434639   0.5672128), wk =   0.0380952
        k(   45) = (   0.4216919   0.4463506   0.0000000), wk =   0.0190476
        k(   46) = (   0.4216919   0.4463506   0.1890709), wk =   0.0380952
        k(   47) = (   0.4216919   0.4463506   0.3781419), wk =   0.0380952
        k(   48) = (   0.4216919   0.4463506   0.5672128), wk =   0.0380952
        k(   49) = (   0.4216919   0.6492372   0.0000000), wk =   0.0190476
        k(   50) = (   0.4216919   0.6492372   0.1890709), wk =   0.0380952
        k(   51) = (   0.4216919   0.6492372   0.3781419), wk =   0.0380952
        k(   52) = (   0.4216919   0.6492372   0.5672128), wk =   0.0380952
        k(   53) = (   0.4216919  -0.3651959   0.0000000), wk =   0.0190476
        k(   54) = (   0.4216919  -0.3651959   0.1890709), wk =   0.0380952
        k(   55) = (   0.4216919  -0.3651959   0.3781419), wk =   0.0380952
        k(   56) = (   0.4216919  -0.3651959   0.5672128), wk =   0.0380952
        k(   57) = (   0.4216919  -0.1623093   0.0000000), wk =   0.0190476
        k(   58) = (   0.4216919  -0.1623093   0.1890709), wk =   0.0380952
        k(   59) = (   0.4216919  -0.1623093   0.3781419), wk =   0.0380952
        k(   60) = (   0.4216919  -0.1623093   0.5672128), wk =   0.0380952
        k(   61) = (   0.4216919   0.0405773   0.0000000), wk =   0.0190476
        k(   62) = (   0.4216919   0.0405773   0.1890709), wk =   0.0380952
        k(   63) = (   0.4216919   0.0405773   0.3781419), wk =   0.0380952
        k(   64) = (   0.4216919   0.0405773   0.5672128), wk =   0.0380952

[...]

     The maximum number of steps has been reached.

     End of BFGS Geometry Optimization
Begin final coordinates
     new unit-cell volume =   1021.65400 a.u.^3 (   151.39350 Ang^3 )

CELL_PARAMETERS (alat= 12.01680127)
   0.948559773   0.000000000   0.000000000
  -0.474279887   0.821476861   0.000000000
   0.000000000   0.000000000   0.755574279

ATOMIC_POSITIONS (crystal)
Mg       0.663482081   0.831741041   0.250000000
Mg       0.831741041   0.168258959   0.750000000
Mg       0.336517919   0.168258959   0.750000000
Mg       0.168258959   0.831741041   0.250000000
Mg       0.168258959   0.336517919   0.250000000
Mg       0.831741041   0.663482081   0.750000000
Cd       0.666667000   0.333333000   0.250000000
Cd       0.333333000   0.666667000   0.750000000
End final coordinates

     A final scf calculation at the relaxed structure.
     The G-vectors are recalculated for the final unit cell
     Results may differ from those at the preceding step.

     bravais-lattice index     =            0
     lattice parameter (alat)  =      12.0168  a.u.
     unit-cell volume          =    1021.6540 (a.u.)^3
     number of atoms/cell      =            8
     number of atomic types    =            2
     number of electrons       =       164.00
     number of Kohn-Sham states=           98
     kinetic-energy cutoff     =      40.0000  Ry
     charge density cutoff     =     160.0000  Ry
     convergence threshold     =      1.0E-04
     mixing beta               =       0.7000
     number of iterations used =            8  plain     mixing
     Exchange-correlation      = SLA-PZ-NOGX-NOGC ( 1 1 0 0 0)
     EXX-fraction              =        0.00

     celldm(1)=  12.016801  celldm(2)=   0.000000  celldm(3)=   0.000000
     celldm(4)=   0.000000  celldm(5)=   0.000000  celldm(6)=   0.000000

     crystal axes: (cart. coord. in units of alat)
               a(1) = (   0.948560   0.000000   0.000000 )
               a(2) = (  -0.474280   0.821477   0.000000 )
               a(3) = (   0.000000   0.000000   0.755574 )

     reciprocal axes: (cart. coord. in units 2 pi/alat)
               b(1) = (  1.054230  0.608660  0.000000 )
               b(2) = (  0.000000  1.217320  0.000000 )
               b(3) = (  0.000000  0.000000  1.323497 )

     PseudoPot. # 1 for Ho read from file:
     /home/cwx6513/pp.La/Ho.UPF
     MD5 check sum: f307ee11bce99f5b724fa279e3790763
     Pseudo is Norm-conserving, Zval = 21.0
     Generated in analytical, separable form
     Using radial grid of 1265 points,  6 beta functions with:
                l(1) =   0
                l(2) =   0
                l(3) =   1
                l(4) =   1
                l(5) =   2
                l(6) =   3

     PseudoPot. # 2 for Tb read from file:
     /home/cwx6513/pp.La/Tb.UPF
     MD5 check sum: 3d6088a3f0cf7fd2e110c43f7f8e95c2
     Pseudo is Norm-conserving, Zval = 19.0
     Generated in analytical, separable form
     Using radial grid of 1263 points,  6 beta functions with:
                l(1) =   0
                l(2) =   0
                l(3) =   1
                l(4) =   1
                l(5) =   2
                l(6) =   3

     atomic species   valence    mass     pseudopotential
        Mg            21.00    24.30500     Ho( 1.00)
        Cd            19.00   112.41100     Tb( 1.00)

     24 Sym. Ops., with inversion, found (12 have fractional translation)

   Cartesian axes

     site n.     atom                  positions (alat units)
         1           Mg  tau(   1) = (   0.2348744   0.6832560   0.1888936  )
         2           Mg  tau(   2) = (   0.7091543   0.1382208   0.5666807  )
         3           Mg  tau(   3) = (   0.2394055   0.1382208   0.5666807  )
         4           Mg  tau(   4) = (  -0.2348744   0.6832560   0.1888936  )
         5           Mg  tau(   5) = (   0.0000000   0.2764417   0.1888936  )
         6           Mg  tau(   6) = (   0.4742799   0.5450352   0.5666807  )
         7           Cd  tau(   7) = (   0.4742804   0.2738253   0.1888936  )
         8           Cd  tau(   8) = (  -0.0000005   0.5476515   0.5666807  )

     number of k points=    64  gaussian smearing, width (Ry)=  0.1000
                       cart. coord. in units 2pi/alat
        k(    1) = (   0.0000000   0.0000000   0.0000000), wk =   0.0095238
        k(    2) = (   0.0000000   0.0000000   0.1890709), wk =   0.0190476
        k(    3) = (   0.0000000   0.0000000   0.3781419), wk =   0.0190476
        k(    4) = (   0.0000000   0.0000000   0.5672128), wk =   0.0190476
        k(    5) = (   0.0000000   0.2028866   0.0000000), wk =   0.0190476
        k(    6) = (   0.0000000   0.2028866   0.1890709), wk =   0.0380952
        k(    7) = (   0.0000000   0.2028866   0.3781419), wk =   0.0380952
        k(    8) = (   0.0000000   0.2028866   0.5672128), wk =   0.0380952
        k(    9) = (   0.0000000   0.4057732   0.0000000), wk =   0.0190476
        k(   10) = (   0.0000000   0.4057732   0.1890709), wk =   0.0380952
        k(   11) = (   0.0000000   0.4057732   0.3781419), wk =   0.0380952
        k(   12) = (   0.0000000   0.4057732   0.5672128), wk =   0.0380952
        k(   13) = (   0.0000000  -0.6086599   0.0000000), wk =   0.0095238
        k(   14) = (   0.0000000  -0.6086599   0.1890709), wk =   0.0190476
        k(   15) = (   0.0000000  -0.6086599   0.3781419), wk =   0.0190476
        k(   16) = (   0.0000000  -0.6086599   0.5672128), wk =   0.0190476
        k(   17) = (   0.2108460   0.1217320   0.0000000), wk =   0.0190476
        k(   18) = (   0.2108460   0.1217320   0.1890709), wk =   0.0380952
        k(   19) = (   0.2108460   0.1217320   0.3781419), wk =   0.0380952
        k(   20) = (   0.2108460   0.1217320   0.5672128), wk =   0.0380952
        k(   21) = (   0.2108460   0.3246186   0.0000000), wk =   0.0190476
        k(   22) = (   0.2108460   0.3246186   0.1890709), wk =   0.0380952
        k(   23) = (   0.2108460   0.3246186   0.3781419), wk =   0.0380952
        k(   24) = (   0.2108460   0.3246186   0.5672128), wk =   0.0380952
        k(   25) = (   0.2108460   0.5275052   0.0000000), wk =   0.0190476
        k(   26) = (   0.2108460   0.5275052   0.1890709), wk =   0.0380952
        k(   27) = (   0.2108460   0.5275052   0.3781419), wk =   0.0380952
        k(   28) = (   0.2108460   0.5275052   0.5672128), wk =   0.0380952
        k(   29) = (   0.2108460  -0.4869279   0.0000000), wk =   0.0190476
        k(   30) = (   0.2108460  -0.4869279   0.1890709), wk =   0.0380952
        k(   31) = (   0.2108460  -0.4869279   0.3781419), wk =   0.0380952
        k(   32) = (   0.2108460  -0.4869279   0.5672128), wk =   0.0380952
        k(   33) = (   0.2108460  -0.2840413   0.0000000), wk =   0.0190476
        k(   34) = (   0.2108460  -0.2840413   0.1890709), wk =   0.0380952
        k(   35) = (   0.2108460  -0.2840413   0.3781419), wk =   0.0380952
        k(   36) = (   0.2108460  -0.2840413   0.5672128), wk =   0.0380952
        k(   37) = (   0.2108460  -0.0811546   0.0000000), wk =   0.0190476
        k(   38) = (   0.2108460  -0.0811546   0.1890709), wk =   0.0380952
        k(   39) = (   0.2108460  -0.0811546   0.3781419), wk =   0.0380952
        k(   40) = (   0.2108460  -0.0811546   0.5672128), wk =   0.0380952
        k(   41) = (   0.4216919   0.2434639   0.0000000), wk =   0.0190476
        k(   42) = (   0.4216919   0.2434639   0.1890709), wk =   0.0380952
        k(   43) = (   0.4216919   0.2434639   0.3781419), wk =   0.0380952
        k(   44) = (   0.4216919   0.2434639   0.5672128), wk =   0.0380952
        k(   45) = (   0.4216919   0.4463506   0.0000000), wk =   0.0190476
        k(   46) = (   0.4216919   0.4463506   0.1890709), wk =   0.0380952
        k(   47) = (   0.4216919   0.4463506   0.3781419), wk =   0.0380952
        k(   48) = (   0.4216919   0.4463506   0.5672128), wk =   0.0380952
        k(   49) = (   0.4216919   0.6492372   0.0000000), wk =   0.0190476
        k(   50) = (   0.4216919   0.6492372   0.1890709), wk =   0.0380952
        k(   51) = (   0.4216919   0.6492372   0.3781419), wk =   0.0380952
        k(   52) = (   0.4216919   0.6492372   0.5672128), wk =   0.0380952
        k(   53) = (   0.4216919  -0.3651959   0.0000000), wk =   0.0190476
        k(   54) = (   0.4216919  -0.3651959   0.1890709), wk =   0.0380952
        k(   55) = (   0.4216919  -0.3651959   0.3781419), wk =   0.0380952
        k(   56) = (   0.4216919  -0.3651959   0.5672128), wk =   0.0380952
        k(   57) = (   0.4216919  -0.1623093   0.0000000), wk =   0.0190476
        k(   58) = (   0.4216919  -0.1623093   0.1890709), wk =   0.0380952
        k(   59) = (   0.4216919  -0.1623093   0.3781419), wk =   0.0380952
        k(   60) = (   0.4216919  -0.1623093   0.5672128), wk =   0.0380952
        k(   61) = (   0.4216919   0.0405773   0.0000000), wk =   0.0190476
        k(   62) = (   0.4216919   0.0405773   0.1890709), wk =   0.0380952
        k(   63) = (   0.4216919   0.0405773   0.3781419), wk =   0.0380952
        k(   64) = (   0.4216919   0.0405773   0.5672128), wk =   0.0380952

     Largest allocated arrays     est. size (Mb)     dimensions
     Largest temporary arrays     est. size (Mb)     dimensions

     Initial potential from superposition of free atoms

     Starting from uniform charge
     Starting wfc are    0 randomized atomic wfcs

     Writing output data file Prototype-La-hP8-Mg3Cd.save

     Self-consistent Calculation

[...]

     iteration #  6     ecut=    40.00 Ry     beta=0.70
     CG style diagonalization
     ethr =  4.61E-04,  avg # of iterations =  3.6

[...]

     total energy              =   -2219.48451961 Ry
     Harris-Foulkes estimate   =   -2219.48575050 Ry
     estimated scf accuracy    <       0.00192767 Ry

     iteration #  9     ecut=    40.00 Ry     beta=0.70
     CG style diagonalization
     c_bands:  1 eigenvalues not converged
     c_bands:  1 eigenvalues not converged
     c_bands:  1 eigenvalues not converged
     c_bands:  1 eigenvalues not converged
     c_bands:  1 eigenvalues not converged
     c_bands:  1 eigenvalues not converged
     c_bands:  1 eigenvalues not converged
     c_bands:  1 eigenvalues not converged
     ethr =  1.18E-06,  avg # of iterations =  3.7

     End of self-consistent calculation

[...]

          k = 0.4217 0.0406 0.5672 (  4377 PWs)   bands (ev):

   -63.5694 -63.5659 -63.5537 -63.5519 -63.5426 -63.5374 -47.4078 -47.4075
   -27.8504 -27.8448 -27.8341 -27.8292 -27.8073 -27.8007 -27.7674 -27.7410
   -27.7172 -27.7106 -27.7062 -27.6965 -27.6730 -27.6716 -27.6664 -27.6595
   -27.6530 -27.6438 -15.8628 -15.8597 -15.8185 -15.8150 -15.8128 -15.8104
    14.5065  14.5239  14.6756  14.7217  14.7868  14.8700  14.9223  15.0034
    15.0361  15.0810  15.3149  15.4486  15.6723  15.7631  15.7956  15.8662
    15.9256  16.1555  16.1734  16.4030  16.4184  16.4509  16.6065  16.7148
    16.7342  16.7556  17.1332  17.1661  17.4731  17.6483  18.2410  19.2199
    20.2601  20.7247  20.9875  21.1832  21.5509  21.5865  21.8746  21.9936
    22.3182  22.3760  23.0249  23.3344  23.9441  24.3325  26.3820  26.7634
    28.6301  29.1178  30.7804  31.4988  31.9424  32.1486  32.8149  33.2681
    34.2149  34.5584  35.1587  35.3126  35.5950  35.6973  35.8508  36.2566
    36.3644  36.4909

     the Fermi energy is    29.5331 ev

!    total energy              =   -2219.48499230 Ry
     Harris-Foulkes estimate   =   -2219.48506200 Ry
     estimated scf accuracy    <       0.00008716 Ry

     The total energy is the sum of the following terms:

     one-electron contribution =    -421.46044844 Ry
     hartree contribution      =     332.47919214 Ry
     xc contribution           =    -200.51706530 Ry
     ewald contribution        =   -1929.78192626 Ry
     smearing contrib. (-TS)   =      -0.20474444 Ry

     convergence has been achieved in   9 iterations

     Forces acting on atoms (Ry/au):

     atom    1 type  1   force =     0.03546278    0.02047444    0.00000000
     atom    2 type  1   force =     0.03546278   -0.02047444    0.00000000
     atom    3 type  1   force =    -0.03546278   -0.02047444    0.00000000
     atom    4 type  1   force =    -0.03546278    0.02047444    0.00000000
     atom    5 type  1   force =     0.00000000   -0.04094889    0.00000000
     atom    6 type  1   force =     0.00000000    0.04094889    0.00000000
     atom    7 type  2   force =     0.00000000    0.00000000    0.00000000
     atom    8 type  2   force =     0.00000000    0.00000000    0.00000000

     Total force =     0.100304     Total SCF correction =     0.000000

     entering subroutine stress ...

          total   stress  (Ry/bohr**3)                   (kbar)     P=  136.11
   0.00076711   0.00000000   0.00000000        112.85      0.00      0.00
   0.00000000   0.00076711   0.00000000          0.00    112.85      0.00
   0.00000000   0.00000000   0.00124145          0.00      0.00    182.62

     Writing output data file Prototype-La-hP8-Mg3Cd.save

     General routines

     Parallel routines

   This run was terminated on:   1:50:33  23Mar2018

   JOB DONE.