     Program PWSCF v.5.0.2 starts on 22Mar2018 at 12: 9:39

     Current dimensions of program PWSCF are:
     Max number of different atomic species (ntypx) = 10
     Max number of k-points (npk) =  40000
     Max angular momentum in pseudopotentials (lmaxx) =  3
     Waiting for input...
     Reading input from standard input

     Subspace diagonalization in iterative solution of the eigenvalue problem:
     a serial algorithm will be used

     bravais-lattice index     =            0
     lattice parameter (alat)  =       7.0151  a.u.
     unit-cell volume          =     862.2778 (a.u.)^3
     number of atoms/cell      =           12
     number of atomic types    =            2
     number of electrons       =       276.00
     number of Kohn-Sham states=          166
     kinetic-energy cutoff     =      40.0000  Ry
     charge density cutoff     =     160.0000  Ry
     convergence threshold     =      1.0E-04
     mixing beta               =       0.7000
     number of iterations used =            8  plain     mixing
     Exchange-correlation      = SLA-PZ-NOGX-NOGC ( 1 1 0 0 0)
     EXX-fraction              =        0.00
     nstep                     =           50

     celldm(1)=   7.015105  celldm(2)=   0.000000  celldm(3)=   0.000000
     celldm(4)=   0.000000  celldm(5)=   0.000000  celldm(6)=   0.000000

     crystal axes: (cart. coord. in units of alat)
               a(1) = (   1.000000   0.000000   0.000000 )
               a(2) = (   0.000000   1.315963   0.000000 )
               a(3) = (   0.000000   0.000000   1.898020 )

     reciprocal axes: (cart. coord. in units 2 pi/alat)
               b(1) = (  1.000000  0.000000  0.000000 )
               b(2) = (  0.000000  0.759900  0.000000 )
               b(3) = (  0.000000  0.000000  0.526865 )

     PseudoPot. # 1 for Yb read from file:
     /home/jld5415/pp.La/Yb.UPF
     MD5 check sum: 3e859b81cc28c53ec6aa3a2e888efcdf
     Pseudo is Norm-conserving, Zval = 24.0
     Generated in analytical, separable form
     Using radial grid of 1269 points,  6 beta functions with:
                l(1) =   0
                l(2) =   0
                l(3) =   1
                l(4) =   1
                l(5) =   2
                l(6) =   3

     PseudoPot. # 2 for Ho read from file:
     /home/jld5415/pp.La/Ho.UPF
     MD5 check sum: f307ee11bce99f5b724fa279e3790763
     Pseudo is Norm-conserving, Zval = 21.0
     Generated in analytical, separable form
     Using radial grid of 1265 points,  6 beta functions with:
                l(1) =   0
                l(2) =   0
                l(3) =   1
                l(4) =   1
                l(5) =   2
                l(6) =   3

     atomic species   valence    mass     pseudopotential
        Co            24.00    58.93320     Yb( 1.00)
        Si            21.00    28.08550     Ho( 1.00)

      8 Sym. Ops., with inversion, found ( 6 have fractional translation)

   Cartesian axes

     site n.     atom                  positions (alat units)
         1           Co  tau(   1) = (   0.7500000   1.0875135   0.8270358  )
         2           Co  tau(   2) = (   0.2500000   0.2284499   1.0709846  )
         3           Co  tau(   3) = (   0.7500000   0.4295318   0.1219744  )
         4           Co  tau(   4) = (   0.2500000   0.8864316   1.7760460  )
         5           Co  tau(   5) = (   0.2500000   0.7067855   0.5358966  )
         6           Co  tau(   6) = (   0.7500000   0.6091779   1.3621238  )
         7           Co  tau(   7) = (   0.2500000   0.0488038   0.4131136  )
         8           Co  tau(   8) = (   0.7500000   1.2671596   1.4849068  )
         9           Si  tau(   9) = (   0.2500000   0.2669484   1.6960710  )
        10           Si  tau(  10) = (   0.7500000   1.0490149   0.2019494  )
        11           Si  tau(  11) = (   0.2500000   0.9249301   1.1509596  )
        12           Si  tau(  12) = (   0.7500000   0.3910333   0.7470608  )

     number of k points=    12  gaussian smearing, width (Ry)=  0.1000
                       cart. coord. in units 2pi/alat
        k(    1) = (   0.0000000   0.0000000   0.0000000), wk =   0.0833333
        k(    2) = (   0.0000000   0.0000000   0.1317162), wk =   0.1666667
        k(    3) = (   0.0000000   0.0000000  -0.2634324), wk =   0.0833333
        k(    4) = (   0.0000000   0.2532999   0.0000000), wk =   0.1666667
        k(    5) = (   0.0000000   0.2532999   0.1317162), wk =   0.3333333
        k(    6) = (   0.0000000   0.2532999  -0.2634324), wk =   0.1666667
        k(    7) = (  -0.5000000   0.0000000   0.0000000), wk =   0.0833333
        k(    8) = (  -0.5000000   0.0000000   0.1317162), wk =   0.1666667
        k(    9) = (  -0.5000000   0.0000000  -0.2634324), wk =   0.0833333
        k(   10) = (  -0.5000000   0.2532999   0.0000000), wk =   0.1666667
        k(   11) = (  -0.5000000   0.2532999   0.1317162), wk =   0.3333333
        k(   12) = (  -0.5000000   0.2532999  -0.2634324), wk =   0.1666667

     Largest allocated arrays     est. size (Mb)     dimensions
     Largest temporary arrays     est. size (Mb)     dimensions

     Initial potential from superposition of free atoms

     Starting from uniform charge
     Starting wfc are    0 randomized atomic wfcs

     Self-consistent Calculation

     iteration #  1     ecut=    40.00 Ry     beta=0.70
     CG style diagonalization
     c_bands:  4 eigenvalues not converged
     c_bands:  4 eigenvalues not converged
     c_bands:  2 eigenvalues not converged
     c_bands:  4 eigenvalues not converged
     c_bands:  5 eigenvalues not converged
     c_bands:  4 eigenvalues not converged
     c_bands:  4 eigenvalues not converged
     c_bands:  5 eigenvalues not converged
     c_bands:  2 eigenvalues not converged
     c_bands:  2 eigenvalues not converged
     c_bands:  3 eigenvalues not converged
     ethr =  1.00E-02,  avg # of iterations = 13.8

     total energy              =   -3989.31103826 Ry
     Harris-Foulkes estimate   =   -5110.20242015 Ry
     estimated scf accuracy    <    1418.95714207 Ry

[...]

     iteration #  3     ecut=    40.00 Ry     beta=0.70
     CG style diagonalization
     ethr =  1.00E-02,  avg # of iterations =  5.9

[...]

     End of self-consistent calculation

          k = 0.0000 0.0000 0.0000 (  3675 PWs)   bands (ev):

   -67.9345 -67.9298 -67.9179 -67.8788 -67.6444 -67.5925 -67.5492 -67.5420
   -38.2616 -38.2613 -38.2536 -38.2492 -27.1349 -27.1326 -27.1288 -27.0819
   -27.0724 -27.0591 -27.0135 -27.0090 -26.9702 -26.9536 -26.9137 -26.8626
   -26.8280 -26.8057 -26.6869 -26.6859 -26.6753 -26.6650 -26.5882 -26.5794
   -26.5680 -26.5179 -26.4045 -26.3909  -3.2092  -3.1447  -3.1310  -3.1232
    -3.1167  -3.1145  -3.1045  -3.0884  -2.7841  -2.7317  -2.7095  -2.6333
    27.0154  27.0576  27.0814  27.1217  27.2048  27.4568  27.5192  27.5480
    27.8559  27.9376  28.0242  28.2275  28.3786  28.6424  28.7550  29.1126
    29.1628  29.3052  29.3210  29.3761  29.5421  29.6378  29.6654  29.6896
    29.9841  30.1023  30.3596  30.3623  30.3974  30.5046  30.5213  30.6926
    30.8446  30.9771  31.3167  31.5235  31.7596  31.8606  31.9909  32.0964
    32.1516  35.2052  35.3673  35.8546  37.3434  38.3182  38.3288  38.5025
    38.6330  39.1096  39.4767  39.8479  39.8676  40.0015  40.2297  40.3013
    40.8283  41.3906  41.4617  41.4638  41.4914  41.5633  41.7116  42.5591
    44.4637  45.8713  46.1823  46.7668  47.4808  48.7540  48.9249  52.2608
    52.5845  52.6951  53.4131  53.5636  53.6052  53.6447  54.5384  54.8337
    55.6097  55.7736  55.9522  56.1254  56.6193  56.6506  56.7077  56.9344
    57.1260  57.3572  57.6013  57.8410  58.1108  58.6600  58.8003  58.9566
    58.9788  59.3446  59.6836  61.0252  61.0872  61.4784  61.6046  61.9594
    62.3137  62.6290  62.7222  62.9318  63.0902  63.3127  63.4417  64.6980
    64.7096  64.8367  65.5364  65.6961  66.0031  66.2398

[...]

          k =-0.5000 0.0000 0.0000 (  3722 PWs)   bands (ev):

[...]

     the Fermi energy is    58.3739 ev

!    total energy              =   -4428.28113055 Ry
     Harris-Foulkes estimate   =   -4428.28117634 Ry
     estimated scf accuracy    <       0.00005597 Ry

     The total energy is the sum of the following terms:

     one-electron contribution =     -84.80176764 Ry
     hartree contribution      =     445.61517149 Ry
     xc contribution           =    -377.54904921 Ry
     ewald contribution        =   -4411.03843335 Ry
     smearing contrib. (-TS)   =      -0.50705183 Ry

     convergence has been achieved in   9 iterations

     Forces acting on atoms (Ry/au):

     atom    1 type  1   force =     0.00000000   -0.03225884   -0.09568376
     atom    2 type  1   force =     0.00000000    0.03225884    0.09568376
     atom    3 type  1   force =     0.00000000   -0.03225884    0.09568376
     atom    4 type  1   force =     0.00000000    0.03225884   -0.09568376
     atom    5 type  1   force =     0.00000000    0.09239609   -0.23400158
     atom    6 type  1   force =     0.00000000   -0.09239609    0.23400158
     atom    7 type  1   force =     0.00000000    0.09239609    0.23400158
     atom    8 type  1   force =     0.00000000   -0.09239609   -0.23400158
     atom    9 type  2   force =     0.00000000   -0.19762042    0.02187641
     atom   10 type  2   force =     0.00000000    0.19762042   -0.02187641
     atom   11 type  2   force =     0.00000000   -0.19762042   -0.02187641
     atom   12 type  2   force =     0.00000000    0.19762042    0.02187641

     Total force =     0.672375     Total SCF correction =     0.000000

     entering subroutine stress ...

          total   stress  (Ry/bohr**3)                   (kbar)     P= 7977.70
   0.05813685   0.00000000   0.00000000       8552.22      0.00      0.00
   0.00000000   0.05111407   0.00000000          0.00   7519.14      0.00
   0.00000000   0.00000000   0.05344299          0.00      0.00   7861.73

     BFGS Geometry Optimization

     number of scf cycles    =   1
     number of bfgs steps    =   0

     enthalpy new            =   -4428.2811305488 Ry

     new trust radius        =       0.5000000000 bohr
     new conv_thr            =       0.0001000000 Ry

     new unit-cell volume =   1084.43892 a.u.^3 (   160.69727 Ang^3 )

CELL_PARAMETERS (alat=  7.01510508)
   1.085136619   0.000000000   0.000000000
   0.000000000   1.414466331   0.000000000
   0.000000000   0.000000000   2.046564888

ATOMIC_POSITIONS (crystal)
Co       0.750000000   0.826196310   0.435315052
Co       0.250000000   0.173803690   0.564684948
Co       0.750000000   0.326196310   0.064684948
Co       0.250000000   0.673803690   0.935315052
Co       0.250000000   0.537672274   0.281315542
Co       0.750000000   0.462327726   0.718684458
Co       0.250000000   0.037672274   0.218684458
Co       0.750000000   0.962327726   0.781315542
Si       0.250000000   0.201600054   0.893696242
Si       0.750000000   0.798399946   0.106303758
Si       0.250000000   0.701600054   0.606303758
Si       0.750000000   0.298399946   0.393696242

     Writing output data file Prototype-La-oP12-Co2Si.save
     NEW-OLD atomic charge density approx. for the potential
     NEW k-points:
        k(    1) = (   0.0000000   0.0000000   0.0000000), wk =   0.0833333
        k(    2) = (   0.0000000   0.0000000   0.1221559), wk =   0.1666667
        k(    3) = (   0.0000000   0.0000000  -0.2443118), wk =   0.0833333
        k(    4) = (   0.0000000   0.2356601   0.0000000), wk =   0.1666667
        k(    5) = (   0.0000000   0.2356601   0.1221559), wk =   0.3333333
        k(    6) = (   0.0000000   0.2356601  -0.2443118), wk =   0.1666667
        k(    7) = (  -0.4607715   0.0000000   0.0000000), wk =   0.0833333
        k(    8) = (  -0.4607715   0.0000000   0.1221559), wk =   0.1666667
        k(    9) = (  -0.4607715   0.0000000  -0.2443118), wk =   0.0833333
        k(   10) = (  -0.4607715   0.2356601   0.0000000), wk =   0.1666667
        k(   11) = (  -0.4607715   0.2356601   0.1221559), wk =   0.3333333
        k(   12) = (  -0.4607715   0.2356601  -0.2443118), wk =   0.1666667

[...]

     enthalpy old            =   -4428.2811305488 Ry
     enthalpy new            =   -4436.0695337391 Ry

     CASE: enthalpy_new < enthalpy_old

     small trust_radius: resetting bfgs history

     new trust radius        =       3.3002457604 bohr
     new conv_thr            =       0.0001000000 Ry

[...]

          total   stress  (Ry/bohr**3)                   (kbar)     P=-7168.89
  -0.05113567   0.00000000   0.00000000      -7522.32      0.00      0.00
   0.00000000  -0.04649903   0.00000000          0.00  -6840.24      0.00
   0.00000000   0.00000000  -0.04856478          0.00      0.00  -7144.12

     number of scf cycles    =   3
     number of bfgs steps    =   2

     enthalpy old            =   -4436.0695337391 Ry
     enthalpy new            =   -4366.2015837140 Ry

     CASE: enthalpy_new > enthalpy_old

     new trust radius        =       0.6080103986 bohr

     trust_radius < trust_radius_min

     resetting bfgs history

     Message from routine bfgs:
     history already reset at previous step: stopping
     new conv_thr            =       0.0001000000 Ry

     new unit-cell volume =   1290.31594 a.u.^3 (   191.20509 Ang^3 )

[...]

ATOMIC_POSITIONS (crystal)
Co       0.750000000   0.825790694   0.435176810
Co       0.250000000   0.174209306   0.564823190
Co       0.750000000   0.325790694   0.064823190
Co       0.250000000   0.674209306   0.935176810
Co       0.250000000   0.538024740   0.280622954
Co       0.750000000   0.461975260   0.719377046
Co       0.250000000   0.038024740   0.219377046
Co       0.750000000   0.961975260   0.780622954
Si       0.250000000   0.200380442   0.893955634
Si       0.750000000   0.799619558   0.106044366
Si       0.250000000   0.700380442   0.606044366
Si       0.750000000   0.299619558   0.393955634

     Writing output data file Prototype-La-oP12-Co2Si.save
     NEW-OLD atomic charge density approx. for the potential
     NEW k-points:
        k(    1) = (   0.0000000   0.0000000   0.0000000), wk =   0.0833333
        k(    2) = (   0.0000000   0.0000000   0.1152432), wk =   0.1666667
        k(    3) = (   0.0000000   0.0000000  -0.2304865), wk =   0.0833333
        k(    4) = (   0.0000000   0.2231644   0.0000000), wk =   0.1666667
        k(    5) = (   0.0000000   0.2231644   0.1152432), wk =   0.3333333
        k(    6) = (   0.0000000   0.2231644  -0.2304865), wk =   0.1666667
        k(    7) = (  -0.4334658   0.0000000   0.0000000), wk =   0.0833333
        k(    8) = (  -0.4334658   0.0000000   0.1152432), wk =   0.1666667
        k(    9) = (  -0.4334658   0.0000000  -0.2304865), wk =   0.0833333
        k(   10) = (  -0.4334658   0.2231644   0.0000000), wk =   0.1666667
        k(   11) = (  -0.4334658   0.2231644   0.1152432), wk =   0.3333333
        k(   12) = (  -0.4334658   0.2231644  -0.2304865), wk =   0.1666667

[...]

     The maximum number of steps has been reached.

     End of BFGS Geometry Optimization
Begin final coordinates
     new unit-cell volume =   1290.31594 a.u.^3 (   191.20509 Ang^3 )

CELL_PARAMETERS (alat=  7.01510508)
   1.153493537   0.000000000   0.000000000
   0.000000000   1.493666961   0.000000000
   0.000000000   0.000000000   2.169324791

ATOMIC_POSITIONS (crystal)
Co       0.750000000   0.825790694   0.435176810
Co       0.250000000   0.174209306   0.564823190
Co       0.750000000   0.325790694   0.064823190
Co       0.250000000   0.674209306   0.935176810
Co       0.250000000   0.538024740   0.280622954
Co       0.750000000   0.461975260   0.719377046
Co       0.250000000   0.038024740   0.219377046
Co       0.750000000   0.961975260   0.780622954
Si       0.250000000   0.200380442   0.893955634
Si       0.750000000   0.799619558   0.106044366
Si       0.250000000   0.700380442   0.606044366
Si       0.750000000   0.299619558   0.393955634
End final coordinates

     A final scf calculation at the relaxed structure.
     The G-vectors are recalculated for the final unit cell
     Results may differ from those at the preceding step.

     bravais-lattice index     =            0
     lattice parameter (alat)  =       7.0151  a.u.
     unit-cell volume          =    1290.3159 (a.u.)^3
     number of atoms/cell      =           12
     number of atomic types    =            2
     number of electrons       =       276.00
     number of Kohn-Sham states=          166
     kinetic-energy cutoff     =      40.0000  Ry
     charge density cutoff     =     160.0000  Ry
     convergence threshold     =      1.0E-04
     mixing beta               =       0.7000
     number of iterations used =            8  plain     mixing
     Exchange-correlation      = SLA-PZ-NOGX-NOGC ( 1 1 0 0 0)
     EXX-fraction              =        0.00

     celldm(1)=   7.015105  celldm(2)=   0.000000  celldm(3)=   0.000000
     celldm(4)=   0.000000  celldm(5)=   0.000000  celldm(6)=   0.000000

     crystal axes: (cart. coord. in units of alat)
               a(1) = (   1.153494   0.000000   0.000000 )
               a(2) = (   0.000000   1.493667   0.000000 )
               a(3) = (   0.000000   0.000000   2.169325 )

     reciprocal axes: (cart. coord. in units 2 pi/alat)
               b(1) = (  0.866932  0.000000  0.000000 )
               b(2) = (  0.000000  0.669493  0.000000 )
               b(3) = (  0.000000  0.000000  0.460973 )

     PseudoPot. # 1 for Yb read from file:
     /home/jld5415/pp.La/Yb.UPF
     MD5 check sum: 3e859b81cc28c53ec6aa3a2e888efcdf
     Pseudo is Norm-conserving, Zval = 24.0
     Generated in analytical, separable form
     Using radial grid of 1269 points,  6 beta functions with:
                l(1) =   0
                l(2) =   0
                l(3) =   1
                l(4) =   1
                l(5) =   2
                l(6) =   3

     PseudoPot. # 2 for Ho read from file:
     /home/jld5415/pp.La/Ho.UPF
     MD5 check sum: f307ee11bce99f5b724fa279e3790763
     Pseudo is Norm-conserving, Zval = 21.0
     Generated in analytical, separable form
     Using radial grid of 1265 points,  6 beta functions with:
                l(1) =   0
                l(2) =   0
                l(3) =   1
                l(4) =   1
                l(5) =   2
                l(6) =   3

     atomic species   valence    mass     pseudopotential
        Co            24.00    58.93320     Yb( 1.00)
        Si            21.00    28.08550     Ho( 1.00)

      8 Sym. Ops., with inversion, found ( 6 have fractional translation)

   Cartesian axes

     site n.     atom                  positions (alat units)
         1           Co  tau(   1) = (   0.8651202   1.2334563   0.9440398  )
         2           Co  tau(   2) = (   0.2883734   0.2602107   1.2252849  )
         3           Co  tau(   3) = (   0.8651202   0.4866228   0.1406226  )
         4           Co  tau(   4) = (   0.2883734   1.0070442   2.0287022  )
         5           Co  tau(   5) = (   0.2883734   0.8036298   0.6087623  )
         6           Co  tau(   6) = (   0.8651202   0.6900372   1.5605625  )
         7           Co  tau(   7) = (   0.2883734   0.0567963   0.4759001  )
         8           Co  tau(   8) = (   0.8651202   1.4368707   1.6934247  )
         9           Si  tau(   9) = (   0.2883734   0.2993016   1.9392801  )
        10           Si  tau(  10) = (   0.8651202   1.1943653   0.2300447  )
        11           Si  tau(  11) = (   0.2883734   1.0461351   1.3147071  )
        12           Si  tau(  12) = (   0.8651202   0.4475318   0.8546177  )

     number of k points=    12  gaussian smearing, width (Ry)=  0.1000
                       cart. coord. in units 2pi/alat
        k(    1) = (   0.0000000   0.0000000   0.0000000), wk =   0.0833333
        k(    2) = (   0.0000000   0.0000000   0.1152432), wk =   0.1666667
        k(    3) = (   0.0000000   0.0000000  -0.2304865), wk =   0.0833333
        k(    4) = (   0.0000000   0.2231644   0.0000000), wk =   0.1666667
        k(    5) = (   0.0000000   0.2231644   0.1152432), wk =   0.3333333
        k(    6) = (   0.0000000   0.2231644  -0.2304865), wk =   0.1666667
        k(    7) = (  -0.4334658   0.0000000   0.0000000), wk =   0.0833333
        k(    8) = (  -0.4334658   0.0000000   0.1152432), wk =   0.1666667
        k(    9) = (  -0.4334658   0.0000000  -0.2304865), wk =   0.0833333
        k(   10) = (  -0.4334658   0.2231644   0.0000000), wk =   0.1666667
        k(   11) = (  -0.4334658   0.2231644   0.1152432), wk =   0.3333333
        k(   12) = (  -0.4334658   0.2231644  -0.2304865), wk =   0.1666667

     Largest allocated arrays     est. size (Mb)     dimensions
     Largest temporary arrays     est. size (Mb)     dimensions

     Initial potential from superposition of free atoms

     Starting from uniform charge
     Starting wfc are    0 randomized atomic wfcs

     Writing output data file Prototype-La-oP12-Co2Si.save

     Self-consistent Calculation

[...]

     iteration #  8     ecut=    40.00 Ry     beta=0.70
     CG style diagonalization
     c_bands:  1 eigenvalues not converged
     c_bands:  1 eigenvalues not converged
     ethr =  3.62E-06,  avg # of iterations =  4.5

[...]

     total energy              =   -4445.04991048 Ry
     Harris-Foulkes estimate   =   -4445.05002075 Ry
     estimated scf accuracy    <       0.00020493 Ry

     iteration # 10     ecut=    40.00 Ry     beta=0.70
     CG style diagonalization
     ethr =  7.42E-08,  avg # of iterations =  4.0

     End of self-consistent calculation

[...]

          k = 0.0000 0.2232-0.2305 (  5502 PWs)   bands (ev):

[...]

          k =-0.4335 0.2232-0.2305 (  5532 PWs)   bands (ev):

   -86.3615 -86.3615 -86.3451 -86.3451 -86.1547 -86.1547 -86.1515 -86.1515
   -55.0564 -55.0564 -55.0562 -55.0562 -45.2309 -45.2309 -45.2304 -45.2304
   -45.2165 -45.2165 -45.2160 -45.2160 -45.1738 -45.1738 -45.1713 -45.1713
   -45.0360 -45.0360 -45.0350 -45.0350 -45.0262 -45.0262 -44.9927 -44.9927
   -44.9714 -44.9714 -44.9671 -44.9671 -19.4566 -19.4566 -19.4514 -19.4514
   -19.4258 -19.4258 -19.4208 -19.4208 -19.2972 -19.2972 -19.2958 -19.2958
    11.7616  11.7616  11.8732  11.8732  11.9208  11.9208  11.9927  11.9927
    12.0117  12.0117  12.1036  12.1036  12.1401  12.1401  12.2764  12.2764
    12.3237  12.3237  12.3661  12.3661  12.3906  12.3906  12.5633  12.5633
    12.6069  12.6069  12.6698  12.6698  12.6885  12.6885  12.7585  12.7585
    12.8462  12.8462  13.0128  13.0128  13.0775  13.0775  13.3172  13.3172
    20.9517  20.9517  21.1079  21.1079  22.0899  22.0899  22.2381  22.2381
    23.3730  23.3730  23.4149  23.4149  23.6687  23.6687  23.8415  23.8415
    23.9309  23.9309  23.9716  23.9716  24.0925  24.0925  24.3788  24.3788
    26.2104  26.2104  26.4271  26.4271  28.3853  28.3853  30.0824  30.0824
    31.1015  31.1015  31.5096  31.5096  33.0778  33.0778  34.4165  34.4165
    37.3972  37.3972  37.5010  37.5010  38.5485  38.5485  38.6899  38.6899
    39.3148  39.3148  39.6381  39.6381  40.6402  40.6402  40.8658  40.8658
    41.4416  41.4416  41.5506  41.5506  41.7588  41.7588  42.2555  42.2555
    42.2744  42.2744  42.4262  42.4262  43.2426  43.2427  44.8753  44.8754
    45.4295  45.4295  45.6048  45.6048  46.7552  46.7553

     the Fermi energy is    39.1494 ev

!    total energy              =   -4445.04997686 Ry
     Harris-Foulkes estimate   =   -4445.04998783 Ry
     estimated scf accuracy    <       0.00001267 Ry

     The total energy is the sum of the following terms:

     one-electron contribution =    -877.57362732 Ry
     hartree contribution      =     655.36000080 Ry
     xc contribution           =    -365.01761605 Ry
     ewald contribution        =   -3857.46065369 Ry
     smearing contrib. (-TS)   =      -0.35808060 Ry

     convergence has been achieved in  10 iterations

     Forces acting on atoms (Ry/au):

     atom    1 type  1   force =     0.00000000   -0.01773524   -0.01316681
     atom    2 type  1   force =     0.00000000    0.01773524    0.01316681
     atom    3 type  1   force =     0.00000000   -0.01773524    0.01316681
     atom    4 type  1   force =     0.00000000    0.01773524   -0.01316681
     atom    5 type  1   force =     0.00000000    0.02674995   -0.09729360
     atom    6 type  1   force =     0.00000000   -0.02674995    0.09729360
     atom    7 type  1   force =     0.00000000    0.02674995    0.09729360
     atom    8 type  1   force =     0.00000000   -0.02674995   -0.09729360
     atom    9 type  2   force =     0.00000000   -0.07790670    0.02198726
     atom   10 type  2   force =     0.00000000    0.07790670   -0.02198726
     atom   11 type  2   force =     0.00000000   -0.07790670   -0.02198726
     atom   12 type  2   force =     0.00000000    0.07790670    0.02198726

     Total force =     0.262468     Total SCF correction =     0.000000

     entering subroutine stress ...

          total   stress  (Ry/bohr**3)                   (kbar)     P= 1635.12
   0.01118350   0.00000000   0.00000000       1645.15      0.00      0.00
   0.00000000   0.01091742   0.00000000          0.00   1606.01      0.00
   0.00000000   0.00000000   0.01124508          0.00      0.00   1654.21

     Writing output data file Prototype-La-oP12-Co2Si.save

     General routines

     Parallel routines

   This run was terminated on:  12:43:53  22Mar2018

   JOB DONE.