     Program PWSCF v.5.0.2 starts on 22Mar2018 at 12: 9:39

     Current dimensions of program PWSCF are:
     Max number of different atomic species (ntypx) = 10
     Max number of k-points (npk) =  40000
     Max angular momentum in pseudopotentials (lmaxx) =  3
     Waiting for input...
     Reading input from standard input

     Subspace diagonalization in iterative solution of the eigenvalue problem:
     a serial algorithm will be used

     bravais-lattice index     =            0
     lattice parameter (alat)  =      12.0168  a.u.
     unit-cell volume          =    1187.3413 (a.u.)^3
     number of atoms/cell      =            8
     number of atomic types    =            2
     number of electrons       =       186.00
     number of Kohn-Sham states=          112
     kinetic-energy cutoff     =      40.0000  Ry
     charge density cutoff     =     160.0000  Ry
     convergence threshold     =      1.0E-04
     mixing beta               =       0.7000
     number of iterations used =            8  plain     mixing
     Exchange-correlation      = SLA-PZ-NOGX-NOGC ( 1 1 0 0 0)
     EXX-fraction              =        0.00
     nstep                     =           50

     celldm(1)=  12.016801  celldm(2)=   0.000000  celldm(3)=   0.000000
     celldm(4)=   0.000000  celldm(5)=   0.000000  celldm(6)=   0.000000

     crystal axes: (cart. coord. in units of alat)
               a(1) = (   1.000000   0.000000   0.000000 )
               a(2) = (  -0.500000   0.866025   0.000000 )
               a(3) = (   0.000000   0.000000   0.790093 )

     reciprocal axes: (cart. coord. in units 2 pi/alat)
               b(1) = (  1.000000  0.577350  0.000000 )
               b(2) = (  0.000000  1.154701  0.000000 )
               b(3) = (  0.000000  0.000000  1.265674 )

     PseudoPot. # 1 for Yb read from file:
     /home/jld5415/pp.La/Yb.UPF
     MD5 check sum: 3e859b81cc28c53ec6aa3a2e888efcdf
     Pseudo is Norm-conserving, Zval = 24.0
     Generated in analytical, separable form
     Using radial grid of 1269 points,  6 beta functions with:
                l(1) =   0
                l(2) =   0
                l(3) =   1
                l(4) =   1
                l(5) =   2
                l(6) =   3

     PseudoPot. # 2 for Ho read from file:
     /home/jld5415/pp.La/Ho.UPF
     MD5 check sum: f307ee11bce99f5b724fa279e3790763
     Pseudo is Norm-conserving, Zval = 21.0
     Generated in analytical, separable form
     Using radial grid of 1265 points,  6 beta functions with:
                l(1) =   0
                l(2) =   0
                l(3) =   1
                l(4) =   1
                l(5) =   2
                l(6) =   3

     atomic species   valence    mass     pseudopotential
        Mg            24.00    24.30500     Yb( 1.00)
        Cd            21.00   112.41100     Ho( 1.00)

     24 Sym. Ops., with inversion, found (12 have fractional translation)

   Cartesian axes

     site n.     atom                  positions (alat units)
         1           Mg  tau(   1) = (   0.2478935   0.7204716   0.1975233  )
         2           Mg  tau(   2) = (   0.7478935   0.1455538   0.5925699  )
         3           Mg  tau(   3) = (   0.2521065   0.1455538   0.5925699  )
         4           Mg  tau(   4) = (  -0.2478935   0.7204716   0.1975233  )
         5           Mg  tau(   5) = (   0.0000000   0.2911075   0.1975233  )
         6           Mg  tau(   6) = (   0.5000000   0.5749179   0.5925699  )
         7           Cd  tau(   7) = (   0.5000005   0.2886748   0.1975233  )
         8           Cd  tau(   8) = (  -0.0000005   0.5773506   0.5925699  )

     number of k points=    64  gaussian smearing, width (Ry)=  0.1000
                       cart. coord. in units 2pi/alat
        k(    1) = (   0.0000000   0.0000000   0.0000000), wk =   0.0095238
        k(    2) = (   0.0000000   0.0000000   0.1808105), wk =   0.0190476
        k(    3) = (   0.0000000   0.0000000   0.3616210), wk =   0.0190476
        k(    4) = (   0.0000000   0.0000000   0.5424315), wk =   0.0190476
        k(    5) = (   0.0000000   0.1924501   0.0000000), wk =   0.0190476
        k(    6) = (   0.0000000   0.1924501   0.1808105), wk =   0.0380952
        k(    7) = (   0.0000000   0.1924501   0.3616210), wk =   0.0380952
        k(    8) = (   0.0000000   0.1924501   0.5424315), wk =   0.0380952
        k(    9) = (   0.0000000   0.3849002   0.0000000), wk =   0.0190476
        k(   10) = (   0.0000000   0.3849002   0.1808105), wk =   0.0380952
        k(   11) = (   0.0000000   0.3849002   0.3616210), wk =   0.0380952
        k(   12) = (   0.0000000   0.3849002   0.5424315), wk =   0.0380952
        k(   13) = (   0.0000000  -0.5773503   0.0000000), wk =   0.0095238
        k(   14) = (   0.0000000  -0.5773503   0.1808105), wk =   0.0190476
        k(   15) = (   0.0000000  -0.5773503   0.3616210), wk =   0.0190476
        k(   16) = (   0.0000000  -0.5773503   0.5424315), wk =   0.0190476
        k(   17) = (   0.2000000   0.1154701   0.0000000), wk =   0.0190476
        k(   18) = (   0.2000000   0.1154701   0.1808105), wk =   0.0380952
        k(   19) = (   0.2000000   0.1154701   0.3616210), wk =   0.0380952
        k(   20) = (   0.2000000   0.1154701   0.5424315), wk =   0.0380952
        k(   21) = (   0.2000000   0.3079201   0.0000000), wk =   0.0190476
        k(   22) = (   0.2000000   0.3079201   0.1808105), wk =   0.0380952
        k(   23) = (   0.2000000   0.3079201   0.3616210), wk =   0.0380952
        k(   24) = (   0.2000000   0.3079201   0.5424315), wk =   0.0380952
        k(   25) = (   0.2000000   0.5003702   0.0000000), wk =   0.0190476
        k(   26) = (   0.2000000   0.5003702   0.1808105), wk =   0.0380952
        k(   27) = (   0.2000000   0.5003702   0.3616210), wk =   0.0380952
        k(   28) = (   0.2000000   0.5003702   0.5424315), wk =   0.0380952
        k(   29) = (   0.2000000  -0.4618802   0.0000000), wk =   0.0190476
        k(   30) = (   0.2000000  -0.4618802   0.1808105), wk =   0.0380952
        k(   31) = (   0.2000000  -0.4618802   0.3616210), wk =   0.0380952
        k(   32) = (   0.2000000  -0.4618802   0.5424315), wk =   0.0380952
        k(   33) = (   0.2000000  -0.2694301   0.0000000), wk =   0.0190476
        k(   34) = (   0.2000000  -0.2694301   0.1808105), wk =   0.0380952
        k(   35) = (   0.2000000  -0.2694301   0.3616210), wk =   0.0380952
        k(   36) = (   0.2000000  -0.2694301   0.5424315), wk =   0.0380952
        k(   37) = (   0.2000000  -0.0769800   0.0000000), wk =   0.0190476
        k(   38) = (   0.2000000  -0.0769800   0.1808105), wk =   0.0380952
        k(   39) = (   0.2000000  -0.0769800   0.3616210), wk =   0.0380952
        k(   40) = (   0.2000000  -0.0769800   0.5424315), wk =   0.0380952
        k(   41) = (   0.4000000   0.2309401   0.0000000), wk =   0.0190476
        k(   42) = (   0.4000000   0.2309401   0.1808105), wk =   0.0380952
        k(   43) = (   0.4000000   0.2309401   0.3616210), wk =   0.0380952
        k(   44) = (   0.4000000   0.2309401   0.5424315), wk =   0.0380952
        k(   45) = (   0.4000000   0.4233902   0.0000000), wk =   0.0190476
        k(   46) = (   0.4000000   0.4233902   0.1808105), wk =   0.0380952
        k(   47) = (   0.4000000   0.4233902   0.3616210), wk =   0.0380952
        k(   48) = (   0.4000000   0.4233902   0.5424315), wk =   0.0380952
        k(   49) = (   0.4000000   0.6158403   0.0000000), wk =   0.0190476
        k(   50) = (   0.4000000   0.6158403   0.1808105), wk =   0.0380952
        k(   51) = (   0.4000000   0.6158403   0.3616210), wk =   0.0380952
        k(   52) = (   0.4000000   0.6158403   0.5424315), wk =   0.0380952
        k(   53) = (   0.4000000  -0.3464102   0.0000000), wk =   0.0190476
        k(   54) = (   0.4000000  -0.3464102   0.1808105), wk =   0.0380952
        k(   55) = (   0.4000000  -0.3464102   0.3616210), wk =   0.0380952
        k(   56) = (   0.4000000  -0.3464102   0.5424315), wk =   0.0380952
        k(   57) = (   0.4000000  -0.1539601   0.0000000), wk =   0.0190476
        k(   58) = (   0.4000000  -0.1539601   0.1808105), wk =   0.0380952
        k(   59) = (   0.4000000  -0.1539601   0.3616210), wk =   0.0380952
        k(   60) = (   0.4000000  -0.1539601   0.5424315), wk =   0.0380952
        k(   61) = (   0.4000000   0.0384900   0.0000000), wk =   0.0190476
        k(   62) = (   0.4000000   0.0384900   0.1808105), wk =   0.0380952
        k(   63) = (   0.4000000   0.0384900   0.3616210), wk =   0.0380952
        k(   64) = (   0.4000000   0.0384900   0.5424315), wk =   0.0380952

     Largest allocated arrays     est. size (Mb)     dimensions
     Largest temporary arrays     est. size (Mb)     dimensions

     Initial potential from superposition of free atoms

     Starting from uniform charge
     Starting wfc are    0 randomized atomic wfcs

     Self-consistent Calculation

     iteration #  1     ecut=    40.00 Ry     beta=0.70
     CG style diagonalization
     c_bands:  1 eigenvalues not converged
     c_bands:  2 eigenvalues not converged
     c_bands:  2 eigenvalues not converged
     c_bands:  1 eigenvalues not converged
     c_bands:  1 eigenvalues not converged
     c_bands:  1 eigenvalues not converged
     c_bands:  1 eigenvalues not converged
     c_bands:  1 eigenvalues not converged
     c_bands:  1 eigenvalues not converged
     c_bands:  1 eigenvalues not converged
     ethr =  1.00E-02,  avg # of iterations = 14.0

     total energy              =   -2487.74617791 Ry
     Harris-Foulkes estimate   =   -3942.22368291 Ry
     estimated scf accuracy    <    1789.08259600 Ry

[...]

     iteration #  5     ecut=    40.00 Ry     beta=0.70
     CG style diagonalization
     ethr =  1.00E-02,  avg # of iterations =  4.0

[...]

     End of self-consistent calculation

          k = 0.0000 0.0000 0.0000 (  5047 PWs)   bands (ev):

   -97.0927 -97.0927 -97.0867 -97.0288 -97.0287 -96.9908 -64.8536 -64.8496
   -55.9177 -55.8951 -55.8950 -55.8773 -55.8761 -55.8675 -55.8674 -55.8661
   -55.8661 -55.8607 -55.8606 -55.8560 -55.8537 -55.8397 -55.8396 -55.8355
   -55.8355 -55.8284 -29.0526 -29.0461 -29.0144 -29.0144 -29.0056 -29.0056
     1.6568   1.7026   1.7026   1.7403   1.8540   1.8762   1.9000   1.9001
     1.9401   1.9401   1.9439   2.0061   2.0061   2.1483   2.2090   2.2091
     2.2250   2.2486   2.2486   2.3120   2.3121   2.3457   2.3458   2.4471
     2.4472   2.5545   2.5546   2.5567   2.6292   2.6312  10.2583  13.3824
    13.7030  13.7030  14.5156  14.6432  14.6432  14.6519  14.6519  14.7175
    14.7175  16.4328  16.4328  16.8223  16.8224  17.3579  17.6943  18.1320
    19.2015  21.8851  21.8852  22.4706  22.4707  22.6693  22.6694  23.5535
    24.8971  24.9601  25.4232  26.6917  26.6917  26.7239  26.7239  27.7281
    29.8402  29.8402  30.2436  31.3144  31.3145  31.7163  31.7544  32.4702
    32.4703  32.9203  32.9261  32.9567  33.2545  33.2546  34.6710  34.6710

[...]

     the Fermi energy is    27.3113 ev

!    total energy              =   -3044.41064276 Ry
     Harris-Foulkes estimate   =   -3044.41065735 Ry
     estimated scf accuracy    <       0.00002109 Ry

[...]
        k(   18) = (   0.2033030   0.1173770   0.1833793), wk =   0.0380952
        k(   19) = (   0.2033030   0.1173770   0.3667585), wk =   0.0380952
        k(   20) = (   0.2033030   0.1173770   0.5501378), wk =   0.0380952
        k(   21) = (   0.2033030   0.3130054   0.0000000), wk =   0.0190476
        k(   22) = (   0.2033030   0.3130054   0.1833793), wk =   0.0380952
        k(   23) = (   0.2033030   0.3130054   0.3667585), wk =   0.0380952
        k(   24) = (   0.2033030   0.3130054   0.5501378), wk =   0.0380952
        k(   25) = (   0.2033030   0.5086338   0.0000000), wk =   0.0190476
        k(   26) = (   0.2033030   0.5086338   0.1833793), wk =   0.0380952
        k(   27) = (   0.2033030   0.5086338   0.3667585), wk =   0.0380952
        k(   28) = (   0.2033030   0.5086338   0.5501378), wk =   0.0380952
        k(   29) = (   0.2033030  -0.4695081   0.0000000), wk =   0.0190476
        k(   30) = (   0.2033030  -0.4695081   0.1833793), wk =   0.0380952
        k(   31) = (   0.2033030  -0.4695081   0.3667585), wk =   0.0380952
        k(   32) = (   0.2033030  -0.4695081   0.5501378), wk =   0.0380952
        k(   33) = (   0.2033030  -0.2738798   0.0000000), wk =   0.0190476
        k(   34) = (   0.2033030  -0.2738798   0.1833793), wk =   0.0380952
        k(   35) = (   0.2033030  -0.2738798   0.3667585), wk =   0.0380952
        k(   36) = (   0.2033030  -0.2738798   0.5501378), wk =   0.0380952
        k(   37) = (   0.2033030  -0.0782514   0.0000000), wk =   0.0190476
        k(   38) = (   0.2033030  -0.0782514   0.1833793), wk =   0.0380952
        k(   39) = (   0.2033030  -0.0782514   0.3667585), wk =   0.0380952
        k(   40) = (   0.2033030  -0.0782514   0.5501378), wk =   0.0380952
        k(   41) = (   0.4066060   0.2347541   0.0000000), wk =   0.0190476
        k(   42) = (   0.4066060   0.2347541   0.1833793), wk =   0.0380952
        k(   43) = (   0.4066060   0.2347541   0.3667585), wk =   0.0380952
        k(   44) = (   0.4066060   0.2347541   0.5501378), wk =   0.0380952
        k(   45) = (   0.4066060   0.4303825   0.0000000), wk =   0.0190476
        k(   46) = (   0.4066060   0.4303825   0.1833793), wk =   0.0380952
        k(   47) = (   0.4066060   0.4303825   0.3667585), wk =   0.0380952
        k(   48) = (   0.4066060   0.4303825   0.5501378), wk =   0.0380952
        k(   49) = (   0.4066060   0.6260109   0.0000000), wk =   0.0190476
        k(   50) = (   0.4066060   0.6260109   0.1833793), wk =   0.0380952
        k(   51) = (   0.4066060   0.6260109   0.3667585), wk =   0.0380952
        k(   52) = (   0.4066060   0.6260109   0.5501378), wk =   0.0380952
        k(   53) = (   0.4066060  -0.3521311   0.0000000), wk =   0.0190476
        k(   54) = (   0.4066060  -0.3521311   0.1833793), wk =   0.0380952
        k(   55) = (   0.4066060  -0.3521311   0.3667585), wk =   0.0380952
        k(   56) = (   0.4066060  -0.3521311   0.5501378), wk =   0.0380952
        k(   57) = (   0.4066060  -0.1565027   0.0000000), wk =   0.0190476
        k(   58) = (   0.4066060  -0.1565027   0.1833793), wk =   0.0380952
        k(   59) = (   0.4066060  -0.1565027   0.3667585), wk =   0.0380952
        k(   60) = (   0.4066060  -0.1565027   0.5501378), wk =   0.0380952
        k(   61) = (   0.4066060   0.0391257   0.0000000), wk =   0.0190476
        k(   62) = (   0.4066060   0.0391257   0.1833793), wk =   0.0380952
        k(   63) = (   0.4066060   0.0391257   0.3667585), wk =   0.0380952
        k(   64) = (   0.4066060   0.0391257   0.5501378), wk =   0.0380952

[...]

     Threshold (ethr) on eigenvalues was too large:
     Diagonalizing with lowered threshold

     CG style diagonalization
     ethr =  7.52E-08,  avg # of iterations =  3.0

[...]

     The maximum number of steps has been reached.

     End of BFGS Geometry Optimization
Begin final coordinates
     new unit-cell volume =   1132.97802 a.u.^3 (   167.89002 Ang^3 )

CELL_PARAMETERS (alat= 12.01680127)
   0.983753354   0.000000000   0.000000000
  -0.491876677   0.851955395   0.000000000
   0.000000000   0.000000000   0.779025662

ATOMIC_POSITIONS (crystal)
Mg       0.664510913   0.832255457   0.250000000
Mg       0.832255457   0.167744543   0.750000000
Mg       0.335489087   0.167744543   0.750000000
Mg       0.167744543   0.832255457   0.250000000
Mg       0.167744543   0.335489087   0.250000000
Mg       0.832255457   0.664510913   0.750000000
Cd       0.666667000   0.333333000   0.250000000
Cd       0.333333000   0.666667000   0.750000000
End final coordinates

     A final scf calculation at the relaxed structure.
     The G-vectors are recalculated for the final unit cell
     Results may differ from those at the preceding step.

     bravais-lattice index     =            0
     lattice parameter (alat)  =      12.0168  a.u.
     unit-cell volume          =    1132.9780 (a.u.)^3
     number of atoms/cell      =            8
     number of atomic types    =            2
     number of electrons       =       186.00
     number of Kohn-Sham states=          112
     kinetic-energy cutoff     =      40.0000  Ry
     charge density cutoff     =     160.0000  Ry
     convergence threshold     =      1.0E-04
     mixing beta               =       0.7000
     number of iterations used =            8  plain     mixing
     Exchange-correlation      = SLA-PZ-NOGX-NOGC ( 1 1 0 0 0)
     EXX-fraction              =        0.00

     celldm(1)=  12.016801  celldm(2)=   0.000000  celldm(3)=   0.000000
     celldm(4)=   0.000000  celldm(5)=   0.000000  celldm(6)=   0.000000

     crystal axes: (cart. coord. in units of alat)
               a(1) = (   0.983753   0.000000   0.000000 )
               a(2) = (  -0.491877   0.851955   0.000000 )
               a(3) = (   0.000000   0.000000   0.779026 )

     reciprocal axes: (cart. coord. in units 2 pi/alat)
               b(1) = (  1.016515  0.586885  0.000000 )
               b(2) = (  0.000000  1.173770  0.000000 )
               b(3) = (  0.000000  0.000000  1.283655 )

     PseudoPot. # 1 for Yb read from file:
     /home/jld5415/pp.La/Yb.UPF
     MD5 check sum: 3e859b81cc28c53ec6aa3a2e888efcdf
     Pseudo is Norm-conserving, Zval = 24.0
     Generated in analytical, separable form
     Using radial grid of 1269 points,  6 beta functions with:
                l(1) =   0
                l(2) =   0
                l(3) =   1
                l(4) =   1
                l(5) =   2
                l(6) =   3

     PseudoPot. # 2 for Ho read from file:
     /home/jld5415/pp.La/Ho.UPF
     MD5 check sum: f307ee11bce99f5b724fa279e3790763
     Pseudo is Norm-conserving, Zval = 21.0
     Generated in analytical, separable form
     Using radial grid of 1265 points,  6 beta functions with:
                l(1) =   0
                l(2) =   0
                l(3) =   1
                l(4) =   1
                l(5) =   2
                l(6) =   3

     atomic species   valence    mass     pseudopotential
        Mg            24.00    24.30500     Yb( 1.00)
        Cd            21.00   112.41100     Ho( 1.00)

     24 Sym. Ops., with inversion, found (12 have fractional translation)

   Cartesian axes

     site n.     atom                  positions (alat units)
         1           Mg  tau(   1) = (   0.2443478   0.7090445   0.1947564  )
         2           Mg  tau(   2) = (   0.7362245   0.1429109   0.5842692  )
         3           Mg  tau(   3) = (   0.2475289   0.1429109   0.5842692  )
         4           Mg  tau(   4) = (  -0.2443478   0.7090445   0.1947564  )
         5           Mg  tau(   5) = (   0.0000000   0.2858217   0.1947564  )
         6           Mg  tau(   6) = (   0.4918767   0.5661337   0.5842692  )
         7           Cd  tau(   7) = (   0.4918772   0.2839848   0.1947564  )
         8           Cd  tau(   8) = (  -0.0000005   0.5679705   0.5842692  )

     number of k points=    64  gaussian smearing, width (Ry)=  0.1000
                       cart. coord. in units 2pi/alat
        k(    1) = (   0.0000000   0.0000000   0.0000000), wk =   0.0095238
        k(    2) = (   0.0000000   0.0000000   0.1833793), wk =   0.0190476
        k(    3) = (   0.0000000   0.0000000   0.3667585), wk =   0.0190476
        k(    4) = (   0.0000000   0.0000000   0.5501378), wk =   0.0190476
        k(    5) = (   0.0000000   0.1956284   0.0000000), wk =   0.0190476
        k(    6) = (   0.0000000   0.1956284   0.1833793), wk =   0.0380952
        k(    7) = (   0.0000000   0.1956284   0.3667585), wk =   0.0380952
        k(    8) = (   0.0000000   0.1956284   0.5501378), wk =   0.0380952
        k(    9) = (   0.0000000   0.3912568   0.0000000), wk =   0.0190476
        k(   10) = (   0.0000000   0.3912568   0.1833793), wk =   0.0380952
        k(   11) = (   0.0000000   0.3912568   0.3667585), wk =   0.0380952
        k(   12) = (   0.0000000   0.3912568   0.5501378), wk =   0.0380952
        k(   13) = (   0.0000000  -0.5868852   0.0000000), wk =   0.0095238
        k(   14) = (   0.0000000  -0.5868852   0.1833793), wk =   0.0190476
        k(   15) = (   0.0000000  -0.5868852   0.3667585), wk =   0.0190476
        k(   16) = (   0.0000000  -0.5868852   0.5501378), wk =   0.0190476
        k(   17) = (   0.2033030   0.1173770   0.0000000), wk =   0.0190476
        k(   18) = (   0.2033030   0.1173770   0.1833793), wk =   0.0380952
        k(   19) = (   0.2033030   0.1173770   0.3667585), wk =   0.0380952
        k(   20) = (   0.2033030   0.1173770   0.5501378), wk =   0.0380952
        k(   21) = (   0.2033030   0.3130054   0.0000000), wk =   0.0190476
        k(   22) = (   0.2033030   0.3130054   0.1833793), wk =   0.0380952
        k(   23) = (   0.2033030   0.3130054   0.3667585), wk =   0.0380952
        k(   24) = (   0.2033030   0.3130054   0.5501378), wk =   0.0380952
        k(   25) = (   0.2033030   0.5086338   0.0000000), wk =   0.0190476
        k(   26) = (   0.2033030   0.5086338   0.1833793), wk =   0.0380952
        k(   27) = (   0.2033030   0.5086338   0.3667585), wk =   0.0380952
        k(   28) = (   0.2033030   0.5086338   0.5501378), wk =   0.0380952
        k(   29) = (   0.2033030  -0.4695081   0.0000000), wk =   0.0190476
        k(   30) = (   0.2033030  -0.4695081   0.1833793), wk =   0.0380952
        k(   31) = (   0.2033030  -0.4695081   0.3667585), wk =   0.0380952
        k(   32) = (   0.2033030  -0.4695081   0.5501378), wk =   0.0380952
        k(   33) = (   0.2033030  -0.2738798   0.0000000), wk =   0.0190476
        k(   34) = (   0.2033030  -0.2738798   0.1833793), wk =   0.0380952
        k(   35) = (   0.2033030  -0.2738798   0.3667585), wk =   0.0380952
        k(   36) = (   0.2033030  -0.2738798   0.5501378), wk =   0.0380952
        k(   37) = (   0.2033030  -0.0782514   0.0000000), wk =   0.0190476
        k(   38) = (   0.2033030  -0.0782514   0.1833793), wk =   0.0380952
        k(   39) = (   0.2033030  -0.0782514   0.3667585), wk =   0.0380952
        k(   40) = (   0.2033030  -0.0782514   0.5501378), wk =   0.0380952
        k(   41) = (   0.4066060   0.2347541   0.0000000), wk =   0.0190476
        k(   42) = (   0.4066060   0.2347541   0.1833793), wk =   0.0380952
        k(   43) = (   0.4066060   0.2347541   0.3667585), wk =   0.0380952
        k(   44) = (   0.4066060   0.2347541   0.5501378), wk =   0.0380952
        k(   45) = (   0.4066060   0.4303825   0.0000000), wk =   0.0190476
        k(   46) = (   0.4066060   0.4303825   0.1833793), wk =   0.0380952
        k(   47) = (   0.4066060   0.4303825   0.3667585), wk =   0.0380952
        k(   48) = (   0.4066060   0.4303825   0.5501378), wk =   0.0380952
        k(   49) = (   0.4066060   0.6260109   0.0000000), wk =   0.0190476
        k(   50) = (   0.4066060   0.6260109   0.1833793), wk =   0.0380952
        k(   51) = (   0.4066060   0.6260109   0.3667585), wk =   0.0380952
        k(   52) = (   0.4066060   0.6260109   0.5501378), wk =   0.0380952
        k(   53) = (   0.4066060  -0.3521311   0.0000000), wk =   0.0190476
        k(   54) = (   0.4066060  -0.3521311   0.1833793), wk =   0.0380952
        k(   55) = (   0.4066060  -0.3521311   0.3667585), wk =   0.0380952
        k(   56) = (   0.4066060  -0.3521311   0.5501378), wk =   0.0380952
        k(   57) = (   0.4066060  -0.1565027   0.0000000), wk =   0.0190476
        k(   58) = (   0.4066060  -0.1565027   0.1833793), wk =   0.0380952
        k(   59) = (   0.4066060  -0.1565027   0.3667585), wk =   0.0380952
        k(   60) = (   0.4066060  -0.1565027   0.5501378), wk =   0.0380952
        k(   61) = (   0.4066060   0.0391257   0.0000000), wk =   0.0190476
        k(   62) = (   0.4066060   0.0391257   0.1833793), wk =   0.0380952
        k(   63) = (   0.4066060   0.0391257   0.3667585), wk =   0.0380952
        k(   64) = (   0.4066060   0.0391257   0.5501378), wk =   0.0380952

     Largest allocated arrays     est. size (Mb)     dimensions
     Largest temporary arrays     est. size (Mb)     dimensions

     Initial potential from superposition of free atoms

     Starting from uniform charge
     Starting wfc are    0 randomized atomic wfcs

     Writing output data file Prototype-La-hP8-Mg3Cd.save

     Self-consistent Calculation

[...]

     iteration #  6     ecut=    40.00 Ry     beta=0.70
     CG style diagonalization
     ethr =  2.71E-03,  avg # of iterations =  3.4

[...]

     total energy              =   -3044.05615717 Ry
     Harris-Foulkes estimate   =   -3044.05640003 Ry
     estimated scf accuracy    <       0.00047309 Ry

     iteration # 10     ecut=    40.00 Ry     beta=0.70
     CG style diagonalization
     c_bands:  1 eigenvalues not converged
     c_bands:  1 eigenvalues not converged
     ethr =  2.54E-07,  avg # of iterations =  3.7

     End of self-consistent calculation

[...]

          k = 0.4066 0.0391 0.5501 (  4842 PWs)   bands (ev):

   -95.6843 -95.6739 -95.6512 -95.6461 -95.6386 -95.6317 -63.4836 -63.4818
   -54.4804 -54.4791 -54.4749 -54.4731 -54.4713 -54.4675 -54.4593 -54.4552
   -54.4490 -54.4472 -54.4458 -54.4438 -54.4386 -54.4368 -54.4336 -54.4322
   -54.4270 -54.4254 -27.6818 -27.6814 -27.6632 -27.6619 -27.6614 -27.6572
     3.0725   3.0766   3.1322   3.1713   3.1743   3.1839   3.2486   3.2905
     3.2970   3.3073   3.3954   3.4173   3.4379   3.5257   3.5373   3.5441
     3.5571   3.6141   3.6239   3.6369   3.6742   3.7190   3.7273   3.7297
     3.7893   3.8166   3.9013   3.9201   3.9633   4.0088  13.0925  13.9196
    14.6226  14.8846  15.1683  15.2897  15.8285  15.8770  15.9841  15.9978
    16.0672  16.1302  16.9202  17.1542  17.6500  18.0246  19.7838  20.5781
    20.9168  21.8305  23.3297  23.7703  25.0446  25.2051  25.6572  26.1413
    27.5333  27.5936  28.1369  28.6007  29.1600  29.6074  29.7321  29.7609
    30.7645  30.9285  31.1772  31.6225  32.0395  32.3684  32.5349  32.8619
    33.9446  34.2735  34.6594  34.9362  35.2546  35.4907  35.6155  36.4899

     the Fermi energy is    28.8630 ev

!    total energy              =   -3044.05619845 Ry
     Harris-Foulkes estimate   =   -3044.05627069 Ry
     estimated scf accuracy    <       0.00008804 Ry

     The total energy is the sum of the following terms:

     one-electron contribution =    -956.64236955 Ry
     hartree contribution      =     556.03618609 Ry
     xc contribution           =    -243.49334573 Ry
     ewald contribution        =   -2399.67210112 Ry
     smearing contrib. (-TS)   =      -0.28456816 Ry

     convergence has been achieved in  10 iterations

     Forces acting on atoms (Ry/au):

     atom    1 type  1   force =    -0.02821580   -0.01629040    0.00000000
     atom    2 type  1   force =    -0.02821580    0.01629040    0.00000000
     atom    3 type  1   force =     0.02821580    0.01629040    0.00000000
     atom    4 type  1   force =     0.02821580   -0.01629040    0.00000000
     atom    5 type  1   force =     0.00000000    0.03258079    0.00000000
     atom    6 type  1   force =     0.00000000   -0.03258079    0.00000000
     atom    7 type  2   force =     0.00000000    0.00000000    0.00000000
     atom    8 type  2   force =     0.00000000    0.00000000    0.00000000

     Total force =     0.079806     Total SCF correction =     0.000000

     entering subroutine stress ...

          total   stress  (Ry/bohr**3)                   (kbar)     P=   53.47
   0.00033940   0.00000000   0.00000000         49.93      0.00      0.00
   0.00000000   0.00033940   0.00000000          0.00     49.93      0.00
   0.00000000   0.00000000   0.00041167          0.00      0.00     60.56

     Writing output data file Prototype-La-hP8-Mg3Cd.save

     General routines

     Parallel routines

   This run was terminated on:  13:24:38  22Mar2018

   JOB DONE.