     Program PWSCF v.5.0.2 starts on 22Mar2018 at 12: 9:40

     Current dimensions of program PWSCF are:
     Max number of different atomic species (ntypx) = 10
     Max number of k-points (npk) =  40000
     Max angular momentum in pseudopotentials (lmaxx) =  3
     Waiting for input...
     Reading input from standard input

     Subspace diagonalization in iterative solution of the eigenvalue problem:
     a serial algorithm will be used

     bravais-lattice index     =            0
     lattice parameter (alat)  =      13.3930  a.u.
     unit-cell volume          =    1134.0956 (a.u.)^3
     number of atoms/cell      =            4
     number of atomic types    =            2
     number of electrons       =        90.00
     number of Kohn-Sham states=           54
     kinetic-energy cutoff     =      40.0000  Ry
     charge density cutoff     =     160.0000  Ry
     convergence threshold     =      1.0E-04
     mixing beta               =       0.7000
     number of iterations used =            8  plain     mixing
     Exchange-correlation      = SLA-PZ-NOGX-NOGC ( 1 1 0 0 0)
     EXX-fraction              =        0.00
     nstep                     =           50

     celldm(1)=  13.392972  celldm(2)=   0.000000  celldm(3)=   0.000000
     celldm(4)=   0.000000  celldm(5)=   0.000000  celldm(6)=   0.000000

     crystal axes: (cart. coord. in units of alat)
               a(1) = (   1.000000   0.000000   0.000000 )
               a(2) = (  -0.776311   0.630350   0.000000 )
               a(3) = (   0.000000   0.000000   0.748922 )

     reciprocal axes: (cart. coord. in units 2 pi/alat)
               b(1) = (  1.000000  1.231554  0.000000 )
               b(2) = (  0.000000  1.586419  0.000000 )
               b(3) = (  0.000000  0.000000  1.335252 )

     PseudoPot. # 1 for Yb read from file:
     /home/jld5415/pp.La/Yb.UPF
     MD5 check sum: 3e859b81cc28c53ec6aa3a2e888efcdf
     Pseudo is Norm-conserving, Zval = 24.0
     Generated in analytical, separable form
     Using radial grid of 1269 points,  6 beta functions with:
                l(1) =   0
                l(2) =   0
                l(3) =   1
                l(4) =   1
                l(5) =   2
                l(6) =   3

     PseudoPot. # 2 for Ho read from file:
     /home/jld5415/pp.La/Ho.UPF
     MD5 check sum: f307ee11bce99f5b724fa279e3790763
     Pseudo is Norm-conserving, Zval = 21.0
     Generated in analytical, separable form
     Using radial grid of 1265 points,  6 beta functions with:
                l(1) =   0
                l(2) =   0
                l(3) =   1
                l(4) =   1
                l(5) =   2
                l(6) =   3

     atomic species   valence    mass     pseudopotential
        Tl            24.00   204.38300     Yb( 1.00)
        I             21.00   126.90400     Ho( 1.00)

      2 Sym. Ops., with inversion, found
          (note:  2 additional sym.ops. were found but ignored
           their fractional translations are incommensurate with FFT grid)

   Cartesian axes

     site n.     atom                  positions (alat units)
         1           Tl  tau(   1) = (  -0.0906317   0.3870269   0.5616917  )
         2           Tl  tau(   2) = (   0.3143210   0.2433234   0.1872306  )
         3           I   tau(   3) = (  -0.5408004   0.5467760   0.5616917  )
         4           I   tau(   4) = (   0.7644896   0.0835744   0.1872306  )

     number of k points=   106  gaussian smearing, width (Ry)=  0.1000

     Number of k-points >= 100: set verbosity='high' to print them.

     Largest allocated arrays     est. size (Mb)     dimensions
     Largest temporary arrays     est. size (Mb)     dimensions

     Initial potential from superposition of free atoms

     Starting from uniform charge
     Starting wfc are    0 randomized atomic wfcs

     Self-consistent Calculation

     iteration #  1     ecut=    40.00 Ry     beta=0.70
     CG style diagonalization
     ethr =  1.00E-02,  avg # of iterations = 20.8

     total energy              =   -1012.02682022 Ry
     Harris-Foulkes estimate   =   -2001.68845211 Ry
     estimated scf accuracy    <    1201.60764801 Ry

     iteration #  2     ecut=    40.00 Ry     beta=0.70
     CG style diagonalization
     c_bands:  1 eigenvalues not converged
     c_bands:  1 eigenvalues not converged
     c_bands:  1 eigenvalues not converged
     c_bands:  1 eigenvalues not converged
     c_bands:  1 eigenvalues not converged
     c_bands:  1 eigenvalues not converged
     c_bands:  1 eigenvalues not converged
     c_bands:  1 eigenvalues not converged
     ethr =  1.00E-02,  avg # of iterations = 11.6

[...]

     End of self-consistent calculation

     Number of k-points >= 100: set verbosity='high' to print the bands.

     the Fermi energy is    11.3391 ev

!    total energy              =   -1406.89762904 Ry
     Harris-Foulkes estimate   =   -1406.89764797 Ry
     estimated scf accuracy    <       0.00002228 Ry

     The total energy is the sum of the following terms:

     one-electron contribution =    -804.73546603 Ry
     hartree contribution      =     394.42756034 Ry
     xc contribution           =    -113.49695142 Ry
     ewald contribution        =    -882.93836484 Ry
     smearing contrib. (-TS)   =      -0.15440709 Ry

     convergence has been achieved in  11 iterations

     Forces acting on atoms (Ry/au):

     atom    1 type  1   force =    -0.03321251    0.01213946   -0.01191789
     atom    2 type  1   force =     0.03321251   -0.01213946    0.01191789
     atom    3 type  2   force =     0.00954292   -0.00346803   -0.01196342
     atom    4 type  2   force =    -0.00954292    0.00346803    0.01196342

     Total force =     0.057248     Total SCF correction =     0.000000

     entering subroutine stress ...

          total   stress  (Ry/bohr**3)                   (kbar)     P= -465.65
  -0.00312169  -0.00002747  -0.00000008       -459.22     -4.04     -0.01
  -0.00002747  -0.00318868   0.00000009         -4.04   -469.07      0.01
  -0.00000008   0.00000009  -0.00318596         -0.01      0.01   -468.67

     BFGS Geometry Optimization

     number of scf cycles    =   1
     number of bfgs steps    =   0

     enthalpy new            =   -1406.8976290419 Ry

     new trust radius        =       0.5000000000 bohr
     new conv_thr            =       0.0001000000 Ry

     new unit-cell volume =    901.39437 a.u.^3 (   133.57286 Ang^3 )

CELL_PARAMETERS (alat= 13.39297219)
   0.927326292  -0.000639506  -0.000001940
  -0.720296482   0.584053827   0.000002829
  -0.000001453   0.000001572   0.693374737

ATOMIC_POSITIONS (crystal)
Tl       0.384743241   0.615326023   0.748893547
Tl       0.615256759   0.384673977   0.251106453
I        0.132950551   0.867033465   0.748889319
I        0.867049449   0.132966535   0.251110681

     Writing output data file Prototype-La-oS8-TlI.save
     NEW-OLD atomic charge density approx. for the potential
     NEW k-points: (use verbosity='high' to print them)

[...]

     enthalpy old            =   -1406.8976290420 Ry
     enthalpy new            =   -1407.4756447170 Ry

     CASE: enthalpy_new < enthalpy_old

     small trust_radius: resetting bfgs history

[...]

     number of scf cycles    =   3
     number of bfgs steps    =   2

     enthalpy old            =   -1407.4756447170 Ry
     enthalpy new            =   -1407.5759875687 Ry

     CASE: enthalpy_new < enthalpy_old

     Message from routine bfgs:
     history already reset at previous step: stopping
     small trust_radius: resetting bfgs history

     new trust radius        =       0.0726738193 bohr
     new conv_thr            =       0.0000393235 Ry

     new unit-cell volume =    778.89705 a.u.^3 (   115.42063 Ang^3 )

[...]

ATOMIC_POSITIONS (crystal)
Tl       0.386360272   0.613493765   0.749015526
Tl       0.613639728   0.386506235   0.250984474
I        0.131265750   0.868601735   0.748593677
I        0.868734250   0.131398265   0.251406323

     Writing output data file Prototype-La-oS8-TlI.save
     NEW-OLD atomic charge density approx. for the potential
     NEW k-points: (use verbosity='high' to print them)

[...]

     The maximum number of steps has been reached.

     End of BFGS Geometry Optimization
Begin final coordinates
     new unit-cell volume =    778.89705 a.u.^3 (   115.42063 Ang^3 )

CELL_PARAMETERS (alat= 13.39297219)
   0.886556569  -0.003991299   0.000064909
  -0.690759275   0.555826822  -0.000064428
   0.000048409  -0.000016613   0.661667621

ATOMIC_POSITIONS (crystal)
Tl       0.386360272   0.613493765   0.749015526
Tl       0.613639728   0.386506235   0.250984474
I        0.131265750   0.868601735   0.748593677
I        0.868734250   0.131398265   0.251406323
End final coordinates

     A final scf calculation at the relaxed structure.
     The G-vectors are recalculated for the final unit cell
     Results may differ from those at the preceding step.

     bravais-lattice index     =            0
     lattice parameter (alat)  =      13.3930  a.u.
     unit-cell volume          =     778.8971 (a.u.)^3
     number of atoms/cell      =            4
     number of atomic types    =            2
     number of electrons       =        90.00
     number of Kohn-Sham states=           54
     kinetic-energy cutoff     =      40.0000  Ry
     charge density cutoff     =     160.0000  Ry
     convergence threshold     =      3.9E-05
     mixing beta               =       0.7000
     number of iterations used =            8  plain     mixing
     Exchange-correlation      = SLA-PZ-NOGX-NOGC ( 1 1 0 0 0)
     EXX-fraction              =        0.00

     celldm(1)=  13.392972  celldm(2)=   0.000000  celldm(3)=   0.000000
     celldm(4)=   0.000000  celldm(5)=   0.000000  celldm(6)=   0.000000

     crystal axes: (cart. coord. in units of alat)
               a(1) = (   0.886557  -0.003991   0.000065 )
               a(2) = (  -0.690759   0.555827  -0.000064 )
               a(3) = (   0.000048  -0.000017   0.661668 )

     reciprocal axes: (cart. coord. in units 2 pi/alat)
               b(1) = (  1.134306  1.409670 -0.000048 )
               b(2) = (  0.008145  1.809244  0.000045 )
               b(3) = ( -0.000110  0.000038  1.511333 )

     PseudoPot. # 1 for Yb read from file:
     /home/jld5415/pp.La/Yb.UPF
     MD5 check sum: 3e859b81cc28c53ec6aa3a2e888efcdf
     Pseudo is Norm-conserving, Zval = 24.0
     Generated in analytical, separable form
     Using radial grid of 1269 points,  6 beta functions with:
                l(1) =   0
                l(2) =   0
                l(3) =   1
                l(4) =   1
                l(5) =   2
                l(6) =   3

     PseudoPot. # 2 for Ho read from file:
     /home/jld5415/pp.La/Ho.UPF
     MD5 check sum: f307ee11bce99f5b724fa279e3790763
     Pseudo is Norm-conserving, Zval = 21.0
     Generated in analytical, separable form
     Using radial grid of 1265 points,  6 beta functions with:
                l(1) =   0
                l(2) =   0
                l(3) =   1
                l(4) =   1
                l(5) =   2
                l(6) =   3

     atomic species   valence    mass     pseudopotential
        Tl            24.00   204.38300     Yb( 1.00)
        I             21.00   126.90400     Ho( 1.00)

      2 Sym. Ops., with inversion, found
          (note:  2 additional sym.ops. were found but ignored
           their fractional translations are incommensurate with FFT grid)

   Cartesian axes

     site n.     atom                  positions (alat units)
         1           Tl  tau(   1) = (  -0.0812100   0.3394418   0.4955849  )
         2           Tl  tau(   2) = (   0.2770557   0.2123771   0.1660832  )
         3           I   tau(   3) = (  -0.4835840   0.4822558   0.4952728  )
         4           I   tau(   4) = (   0.6794297   0.0695631   0.1663953  )

     number of k points=   106  gaussian smearing, width (Ry)=  0.1000

     Number of k-points >= 100: set verbosity='high' to print them.

     Largest allocated arrays     est. size (Mb)     dimensions
     Largest temporary arrays     est. size (Mb)     dimensions

     Initial potential from superposition of free atoms

     Starting from uniform charge
     Starting wfc are    0 randomized atomic wfcs

     Writing output data file Prototype-La-oS8-TlI.save

     Self-consistent Calculation

[...]

     iteration #  9     ecut=    40.00 Ry     beta=0.70
     CG style diagonalization
     c_bands:  1 eigenvalues not converged
     c_bands:  1 eigenvalues not converged
     c_bands:  1 eigenvalues not converged
     c_bands:  1 eigenvalues not converged
     ethr =  1.36E-06,  avg # of iterations =  4.3

     total energy              =   -1406.69895868 Ry
     Harris-Foulkes estimate   =   -1406.69918517 Ry
     estimated scf accuracy    <       0.00038652 Ry

     iteration # 10     ecut=    40.00 Ry     beta=0.70
     CG style diagonalization
     ethr =  4.29E-07,  avg # of iterations =  3.6

     End of self-consistent calculation

     Number of k-points >= 100: set verbosity='high' to print the bands.

     the Fermi energy is    19.0959 ev

!    total energy              =   -1406.69902227 Ry
     Harris-Foulkes estimate   =   -1406.69904613 Ry
     estimated scf accuracy    <       0.00002710 Ry

     The total energy is the sum of the following terms:

     one-electron contribution =    -613.32979973 Ry
     hartree contribution      =     322.05317706 Ry
     xc contribution           =    -114.50840704 Ry
     ewald contribution        =   -1000.80089393 Ry
     smearing contrib. (-TS)   =      -0.11309864 Ry

     convergence has been achieved in  10 iterations

     Forces acting on atoms (Ry/au):

     atom    1 type  1   force =     0.01394746   -0.00501554    0.02524522
     atom    2 type  1   force =    -0.01394746    0.00501554   -0.02524522
     atom    3 type  2   force =    -0.02711011    0.00964955    0.02262518
     atom    4 type  2   force =     0.02711011   -0.00964955   -0.02262518

     Total force =     0.066287     Total SCF correction =     0.000000

     entering subroutine stress ...

          total   stress  (Ry/bohr**3)                   (kbar)     P= -422.79
  -0.00286830  -0.00006422   0.00000097       -421.94     -9.45      0.14
  -0.00006422  -0.00302225  -0.00000003         -9.45   -444.59      0.00
   0.00000097  -0.00000003  -0.00273174          0.14      0.00   -401.85

     Writing output data file Prototype-La-oS8-TlI.save

     General routines

     Parallel routines

   This run was terminated on:  13:15:17  22Mar2018

   JOB DONE.