     Program PWSCF v.5.0.2 starts on 23Mar2018 at  1: 2:31

     Current dimensions of program PWSCF are:
     Max number of different atomic species (ntypx) = 10
     Max number of k-points (npk) =  40000
     Max angular momentum in pseudopotentials (lmaxx) =  3
     Waiting for input...
     Reading input from standard input

     Subspace diagonalization in iterative solution of the eigenvalue problem:
     a serial algorithm will be used

     bravais-lattice index     =            0
     lattice parameter (alat)  =       8.5346  a.u.
     unit-cell volume          =     621.6493 (a.u.)^3
     number of atoms/cell      =            8
     number of atomic types    =            2
     number of electrons       =       174.00
     number of Kohn-Sham states=          104
     kinetic-energy cutoff     =      40.0000  Ry
     charge density cutoff     =     160.0000  Ry
     convergence threshold     =      1.0E-04
     mixing beta               =       0.7000
     number of iterations used =            8  plain     mixing
     Exchange-correlation      = SLA-PZ-NOGX-NOGC ( 1 1 0 0 0)
     EXX-fraction              =        0.00
     nstep                     =           50

     celldm(1)=   8.534573  celldm(2)=   0.000000  celldm(3)=   0.000000
     celldm(4)=   0.000000  celldm(5)=   0.000000  celldm(6)=   0.000000

     crystal axes: (cart. coord. in units of alat)
               a(1) = (   1.000000   0.000000   0.000000 )
               a(2) = (   0.000000   1.000000   0.000000 )
               a(3) = (   0.000000   0.000000   1.000000 )

     reciprocal axes: (cart. coord. in units 2 pi/alat)
               b(1) = (  1.000000  0.000000  0.000000 )
               b(2) = (  0.000000  1.000000  0.000000 )
               b(3) = (  0.000000  0.000000  1.000000 )

     PseudoPot. # 1 for Ho read from file:
     /home/cwx6513/pp.La/Ho.UPF
     MD5 check sum: f307ee11bce99f5b724fa279e3790763
     Pseudo is Norm-conserving, Zval = 21.0
     Generated in analytical, separable form
     Using radial grid of 1265 points,  6 beta functions with:
                l(1) =   0
                l(2) =   0
                l(3) =   1
                l(4) =   1
                l(5) =   2
                l(6) =   3

     PseudoPot. # 2 for Yb read from file:
     /home/cwx6513/pp.La/Yb.UPF
     MD5 check sum: 3e859b81cc28c53ec6aa3a2e888efcdf
     Pseudo is Norm-conserving, Zval = 24.0
     Generated in analytical, separable form
     Using radial grid of 1269 points,  6 beta functions with:
                l(1) =   0
                l(2) =   0
                l(3) =   1
                l(4) =   1
                l(5) =   2
                l(6) =   3

     atomic species   valence    mass     pseudopotential
        Cr            21.00    51.99610     Ho( 1.00)
        Si            24.00    28.08550     Yb( 1.00)

     48 Sym. Ops., with inversion, found (24 have fractional translation)

   Cartesian axes

     site n.     atom                  positions (alat units)
         1           Cr  tau(   1) = (   0.0000000   0.5000000   0.2500000  )
         2           Cr  tau(   2) = (   0.0000000   0.5000000   0.7500000  )
         3           Cr  tau(   3) = (   0.5000000   0.7500000   0.0000000  )
         4           Cr  tau(   4) = (   0.5000000   0.2500000   0.0000000  )
         5           Cr  tau(   5) = (   0.7500000   0.0000000   0.5000000  )
         6           Cr  tau(   6) = (   0.2500000   0.0000000   0.5000000  )
         7           Si  tau(   7) = (   0.5000000   0.5000000   0.5000000  )
         8           Si  tau(   8) = (   0.0000000   0.0000000   0.0000000  )

     number of k points=    48  gaussian smearing, width (Ry)=  0.1000
                       cart. coord. in units 2pi/alat
        k(    1) = (   0.0000000   0.0000000   0.0000000), wk =   0.0095238
        k(    2) = (   0.0000000   0.0000000   0.1428571), wk =   0.0190476
        k(    3) = (   0.0000000   0.0000000   0.2857143), wk =   0.0190476
        k(    4) = (   0.0000000   0.0000000   0.4285714), wk =   0.0190476
        k(    5) = (   0.0000000   0.1666667   0.0000000), wk =   0.0190476
        k(    6) = (   0.0000000   0.1666667   0.1428571), wk =   0.0380952
        k(    7) = (   0.0000000   0.1666667   0.2857143), wk =   0.0380952
        k(    8) = (   0.0000000   0.1666667   0.4285714), wk =   0.0380952
        k(    9) = (   0.0000000   0.3333333   0.0000000), wk =   0.0190476
        k(   10) = (   0.0000000   0.3333333   0.1428571), wk =   0.0380952
        k(   11) = (   0.0000000   0.3333333   0.2857143), wk =   0.0380952
        k(   12) = (   0.0000000   0.3333333   0.4285714), wk =   0.0380952
        k(   13) = (   0.0000000  -0.5000000   0.0000000), wk =   0.0095238
        k(   14) = (   0.0000000  -0.5000000   0.1428571), wk =   0.0190476
        k(   15) = (   0.0000000  -0.5000000   0.2857143), wk =   0.0190476
        k(   16) = (   0.0000000  -0.5000000   0.4285714), wk =   0.0190476
        k(   17) = (   0.2000000   0.0000000   0.0000000), wk =   0.0190476
        k(   18) = (   0.2000000   0.0000000   0.1428571), wk =   0.0380952
        k(   19) = (   0.2000000   0.0000000   0.2857143), wk =   0.0380952
        k(   20) = (   0.2000000   0.0000000   0.4285714), wk =   0.0380952
        k(   21) = (   0.2000000   0.1666667   0.0000000), wk =   0.0380952
        k(   22) = (   0.2000000   0.1666667   0.1428571), wk =   0.0761905
        k(   23) = (   0.2000000   0.1666667   0.2857143), wk =   0.0761905
        k(   24) = (   0.2000000   0.1666667   0.4285714), wk =   0.0761905
        k(   25) = (   0.2000000   0.3333333   0.0000000), wk =   0.0380952
        k(   26) = (   0.2000000   0.3333333   0.1428571), wk =   0.0761905
        k(   27) = (   0.2000000   0.3333333   0.2857143), wk =   0.0761905
        k(   28) = (   0.2000000   0.3333333   0.4285714), wk =   0.0761905
        k(   29) = (   0.2000000  -0.5000000   0.0000000), wk =   0.0190476
        k(   30) = (   0.2000000  -0.5000000   0.1428571), wk =   0.0380952
        k(   31) = (   0.2000000  -0.5000000   0.2857143), wk =   0.0380952
        k(   32) = (   0.2000000  -0.5000000   0.4285714), wk =   0.0380952
        k(   33) = (   0.4000000   0.0000000   0.0000000), wk =   0.0190476
        k(   34) = (   0.4000000   0.0000000   0.1428571), wk =   0.0380952
        k(   35) = (   0.4000000   0.0000000   0.2857143), wk =   0.0380952
        k(   36) = (   0.4000000   0.0000000   0.4285714), wk =   0.0380952
        k(   37) = (   0.4000000   0.1666667   0.0000000), wk =   0.0380952
        k(   38) = (   0.4000000   0.1666667   0.1428571), wk =   0.0761905
        k(   39) = (   0.4000000   0.1666667   0.2857143), wk =   0.0761905
        k(   40) = (   0.4000000   0.1666667   0.4285714), wk =   0.0761905
        k(   41) = (   0.4000000   0.3333333   0.0000000), wk =   0.0380952
        k(   42) = (   0.4000000   0.3333333   0.1428571), wk =   0.0761905
        k(   43) = (   0.4000000   0.3333333   0.2857143), wk =   0.0761905
        k(   44) = (   0.4000000   0.3333333   0.4285714), wk =   0.0761905
        k(   45) = (   0.4000000  -0.5000000   0.0000000), wk =   0.0190476
        k(   46) = (   0.4000000  -0.5000000   0.1428571), wk =   0.0380952
        k(   47) = (   0.4000000  -0.5000000   0.2857143), wk =   0.0380952
        k(   48) = (   0.4000000  -0.5000000   0.4285714), wk =   0.0380952

     Largest allocated arrays     est. size (Mb)     dimensions
     Largest temporary arrays     est. size (Mb)     dimensions

     Initial potential from superposition of free atoms

     Starting from uniform charge
     Starting wfc are    0 randomized atomic wfcs

     Self-consistent Calculation

     iteration #  1     ecut=    40.00 Ry     beta=0.70
     CG style diagonalization
     c_bands:  2 eigenvalues not converged
     c_bands:  2 eigenvalues not converged
     c_bands:  2 eigenvalues not converged
     c_bands:  3 eigenvalues not converged
     c_bands:  2 eigenvalues not converged
     c_bands:  2 eigenvalues not converged
     c_bands:  1 eigenvalues not converged
     c_bands:  2 eigenvalues not converged
     c_bands:  2 eigenvalues not converged
     c_bands:  1 eigenvalues not converged
     c_bands:  1 eigenvalues not converged
     c_bands:  1 eigenvalues not converged
     c_bands:  1 eigenvalues not converged
     c_bands:  1 eigenvalues not converged
     c_bands:  2 eigenvalues not converged
     c_bands:  2 eigenvalues not converged
     c_bands:  1 eigenvalues not converged
     c_bands:  1 eigenvalues not converged
     c_bands:  2 eigenvalues not converged
     c_bands:  1 eigenvalues not converged
     c_bands:  2 eigenvalues not converged
     c_bands:  1 eigenvalues not converged
     c_bands:  1 eigenvalues not converged
     c_bands:  1 eigenvalues not converged
     c_bands:  1 eigenvalues not converged
     c_bands:  1 eigenvalues not converged
     ethr =  1.00E-02,  avg # of iterations = 11.9

     total energy              =   -2224.98928933 Ry
     Harris-Foulkes estimate   =   -2998.07886171 Ry
     estimated scf accuracy    <     968.08437046 Ry

[...]

     iteration #  4     ecut=    40.00 Ry     beta=0.70
     CG style diagonalization
     ethr =  1.00E-02,  avg # of iterations =  4.2

[...]

     End of self-consistent calculation

          k = 0.0000 0.0000 0.0000 (  2601 PWs)   bands (ev):

   -73.7283 -73.6397 -43.4610 -43.4408 -43.4408 -42.9214 -42.9214 -42.9214
   -32.7668 -32.7668 -32.7668 -32.7558 -32.7558 -32.7558  -9.8488  -9.8488
    -9.6231  -8.0823  -8.0823  -8.0823  -7.4466  -7.4466  -7.4466  -7.4089
    -7.4089  -7.4089  -7.2318  -7.2318  -7.2318  -6.4832  -6.4832  -6.4832
    23.4644  23.4644  23.8216  23.8216  23.9298  23.9298  23.9298  24.1322
    24.1322  24.1322  28.8850  29.7171  30.1072  30.1091  30.1091  30.1161
    30.1161  30.1161  31.6785  31.6785  31.6785  32.5220  34.7150  34.7150
    34.7150  34.9506  34.9506  36.4671  36.4671  36.4671  36.4933  36.4933
    36.4933  38.2083  38.2083  38.8105  38.8105  38.8105  39.0326  39.0326
    39.0326  44.0091  44.0091  44.0091  45.2348  45.5352  45.5352  46.7038
    50.0534  50.0534  50.0534  52.5820  52.5820  52.5820  52.8516  52.8516
    52.8516  53.1011  53.1011  53.6880  53.6880  53.6880  53.9092  53.9092
    53.9092  56.3322  56.3322  56.3322  57.2763  59.2354  60.4651  60.5786

[...]

     the Fermi energy is    53.2755 ev

!    total energy              =   -2568.98481518 Ry
     Harris-Foulkes estimate   =   -2568.98483265 Ry
     estimated scf accuracy    <       0.00002046 Ry

     The total energy is the sum of the following terms:

     one-electron contribution =     -40.32473137 Ry
     hartree contribution      =     260.97514717 Ry
     xc contribution           =    -228.93829530 Ry
     ewald contribution        =   -2560.30966831 Ry
     smearing contrib. (-TS)   =      -0.38726737 Ry

     convergence has been achieved in   8 iterations

     Forces acting on atoms (Ry/au):

     atom    1 type  1   force =     0.00000000    0.00000000    0.00000000
     atom    2 type  1   force =     0.00000000    0.00000000    0.00000000
[...]

     new trust radius        =       0.2585872466 bohr

     trust_radius < trust_radius_min

     resetting bfgs history

     Message from routine bfgs:
     history already reset at previous step: stopping
     new conv_thr            =       0.0000010000 Ry

     new unit-cell volume =   1042.21762 a.u.^3 (   154.44071 Ang^3 )

[...]

ATOMIC_POSITIONS (crystal)
Cr       0.000000000   0.500000000   0.250000000
Cr       0.000000000   0.500000000   0.750000000
Cr       0.500000000   0.750000000   0.000000000
Cr       0.500000000   0.250000000   0.000000000
Cr       0.750000000   0.000000000   0.500000000
Cr       0.250000000   0.000000000   0.500000000
Si       0.500000000   0.500000000   0.500000000
Si       0.000000000   0.000000000   0.000000000

     Writing output data file Prototype-La-cP8-Cr3Si.save
     NEW-OLD atomic charge density approx. for the potential
     NEW k-points:
        k(    1) = (   0.0000000   0.0000000   0.0000000), wk =   0.0095238
        k(    2) = (   0.0000000   0.0000000   0.1202535), wk =   0.0190476
        k(    3) = (   0.0000000   0.0000000   0.2405069), wk =   0.0190476
        k(    4) = (   0.0000000   0.0000000   0.3607604), wk =   0.0190476
        k(    5) = (   0.0000000   0.1402957   0.0000000), wk =   0.0190476
        k(    6) = (   0.0000000   0.1402957   0.1202535), wk =   0.0380952
        k(    7) = (   0.0000000   0.1402957   0.2405069), wk =   0.0380952
        k(    8) = (   0.0000000   0.1402957   0.3607604), wk =   0.0380952
        k(    9) = (   0.0000000   0.2805914   0.0000000), wk =   0.0190476
        k(   10) = (   0.0000000   0.2805914   0.1202535), wk =   0.0380952
        k(   11) = (   0.0000000   0.2805914   0.2405069), wk =   0.0380952
        k(   12) = (   0.0000000   0.2805914   0.3607604), wk =   0.0380952
        k(   13) = (   0.0000000  -0.4208872   0.0000000), wk =   0.0095238
        k(   14) = (   0.0000000  -0.4208872   0.1202535), wk =   0.0190476
        k(   15) = (   0.0000000  -0.4208872   0.2405069), wk =   0.0190476
        k(   16) = (   0.0000000  -0.4208872   0.3607604), wk =   0.0190476
        k(   17) = (   0.1683549   0.0000000   0.0000000), wk =   0.0190476
        k(   18) = (   0.1683549   0.0000000   0.1202535), wk =   0.0380952
        k(   19) = (   0.1683549   0.0000000   0.2405069), wk =   0.0380952
        k(   20) = (   0.1683549   0.0000000   0.3607604), wk =   0.0380952
        k(   21) = (   0.1683549   0.1402957   0.0000000), wk =   0.0380952
        k(   22) = (   0.1683549   0.1402957   0.1202535), wk =   0.0761905
        k(   23) = (   0.1683549   0.1402957   0.2405069), wk =   0.0761905
        k(   24) = (   0.1683549   0.1402957   0.3607604), wk =   0.0761905
        k(   25) = (   0.1683549   0.2805914   0.0000000), wk =   0.0380952
        k(   26) = (   0.1683549   0.2805914   0.1202535), wk =   0.0761905
        k(   27) = (   0.1683549   0.2805914   0.2405069), wk =   0.0761905
        k(   28) = (   0.1683549   0.2805914   0.3607604), wk =   0.0761905
        k(   29) = (   0.1683549  -0.4208872   0.0000000), wk =   0.0190476
        k(   30) = (   0.1683549  -0.4208872   0.1202535), wk =   0.0380952
        k(   31) = (   0.1683549  -0.4208872   0.2405069), wk =   0.0380952
        k(   32) = (   0.1683549  -0.4208872   0.3607604), wk =   0.0380952
        k(   33) = (   0.3367097   0.0000000   0.0000000), wk =   0.0190476
        k(   34) = (   0.3367097   0.0000000   0.1202535), wk =   0.0380952
        k(   35) = (   0.3367097   0.0000000   0.2405069), wk =   0.0380952
        k(   36) = (   0.3367097   0.0000000   0.3607604), wk =   0.0380952
        k(   37) = (   0.3367097   0.1402957   0.0000000), wk =   0.0380952
        k(   38) = (   0.3367097   0.1402957   0.1202535), wk =   0.0761905
        k(   39) = (   0.3367097   0.1402957   0.2405069), wk =   0.0761905
        k(   40) = (   0.3367097   0.1402957   0.3607604), wk =   0.0761905
        k(   41) = (   0.3367097   0.2805914   0.0000000), wk =   0.0380952
        k(   42) = (   0.3367097   0.2805914   0.1202535), wk =   0.0761905
        k(   43) = (   0.3367097   0.2805914   0.2405069), wk =   0.0761905
        k(   44) = (   0.3367097   0.2805914   0.3607604), wk =   0.0761905
        k(   45) = (   0.3367097  -0.4208872   0.0000000), wk =   0.0190476
        k(   46) = (   0.3367097  -0.4208872   0.1202535), wk =   0.0380952
        k(   47) = (   0.3367097  -0.4208872   0.2405069), wk =   0.0380952
        k(   48) = (   0.3367097  -0.4208872   0.3607604), wk =   0.0380952

[...]

          total   stress  (Ry/bohr**3)                   (kbar)     P=-1015.37
  -0.00690235   0.00000000   0.00000000      -1015.37      0.00      0.00
   0.00000000  -0.00690235   0.00000000          0.00  -1015.37      0.00
   0.00000000   0.00000000  -0.00690235          0.00      0.00  -1015.37

     The maximum number of steps has been reached.

     End of BFGS Geometry Optimization
Begin final coordinates
     new unit-cell volume =   1042.21762 a.u.^3 (   154.44071 Ang^3 )

CELL_PARAMETERS (alat=  8.53457320)
   1.187966869   0.000000000   0.000000000
   0.000000000   1.187966869   0.000000000
   0.000000000   0.000000000   1.187966869

ATOMIC_POSITIONS (crystal)
Cr       0.000000000   0.500000000   0.250000000
Cr       0.000000000   0.500000000   0.750000000
Cr       0.500000000   0.750000000   0.000000000
Cr       0.500000000   0.250000000   0.000000000
Cr       0.750000000   0.000000000   0.500000000
Cr       0.250000000   0.000000000   0.500000000
Si       0.500000000   0.500000000   0.500000000
Si       0.000000000   0.000000000   0.000000000
End final coordinates

     A final scf calculation at the relaxed structure.
     The G-vectors are recalculated for the final unit cell
     Results may differ from those at the preceding step.

     bravais-lattice index     =            0
     lattice parameter (alat)  =       8.5346  a.u.
     unit-cell volume          =    1042.2176 (a.u.)^3
     number of atoms/cell      =            8
     number of atomic types    =            2
     number of electrons       =       174.00
     number of Kohn-Sham states=          104
     kinetic-energy cutoff     =      40.0000  Ry
     charge density cutoff     =     160.0000  Ry
     convergence threshold     =      1.0E-06
     mixing beta               =       0.7000
     number of iterations used =            8  plain     mixing
     Exchange-correlation      = SLA-PZ-NOGX-NOGC ( 1 1 0 0 0)
     EXX-fraction              =        0.00

     celldm(1)=   8.534573  celldm(2)=   0.000000  celldm(3)=   0.000000
     celldm(4)=   0.000000  celldm(5)=   0.000000  celldm(6)=   0.000000

     crystal axes: (cart. coord. in units of alat)
               a(1) = (   1.187967   0.000000   0.000000 )
               a(2) = (   0.000000   1.187967   0.000000 )
               a(3) = (   0.000000   0.000000   1.187967 )

     reciprocal axes: (cart. coord. in units 2 pi/alat)
               b(1) = (  0.841774  0.000000  0.000000 )
               b(2) = (  0.000000  0.841774  0.000000 )
               b(3) = (  0.000000  0.000000  0.841774 )

     PseudoPot. # 1 for Ho read from file:
     /home/cwx6513/pp.La/Ho.UPF
     MD5 check sum: f307ee11bce99f5b724fa279e3790763
     Pseudo is Norm-conserving, Zval = 21.0
     Generated in analytical, separable form
     Using radial grid of 1265 points,  6 beta functions with:
                l(1) =   0
                l(2) =   0
                l(3) =   1
                l(4) =   1
                l(5) =   2
                l(6) =   3

     PseudoPot. # 2 for Yb read from file:
     /home/cwx6513/pp.La/Yb.UPF
     MD5 check sum: 3e859b81cc28c53ec6aa3a2e888efcdf
     Pseudo is Norm-conserving, Zval = 24.0
     Generated in analytical, separable form
     Using radial grid of 1269 points,  6 beta functions with:
                l(1) =   0
                l(2) =   0
                l(3) =   1
                l(4) =   1
                l(5) =   2
                l(6) =   3

     atomic species   valence    mass     pseudopotential
        Cr            21.00    51.99610     Ho( 1.00)
        Si            24.00    28.08550     Yb( 1.00)

     48 Sym. Ops., with inversion, found (24 have fractional translation)

   Cartesian axes

     site n.     atom                  positions (alat units)
         1           Cr  tau(   1) = (   0.0000000   0.5939834   0.2969917  )
         2           Cr  tau(   2) = (   0.0000000   0.5939834   0.8909752  )
         3           Cr  tau(   3) = (   0.5939834   0.8909752   0.0000000  )
         4           Cr  tau(   4) = (   0.5939834   0.2969917   0.0000000  )
         5           Cr  tau(   5) = (   0.8909752   0.0000000   0.5939834  )
         6           Cr  tau(   6) = (   0.2969917   0.0000000   0.5939834  )
         7           Si  tau(   7) = (   0.5939834   0.5939834   0.5939834  )
         8           Si  tau(   8) = (   0.0000000   0.0000000   0.0000000  )

     number of k points=    48  gaussian smearing, width (Ry)=  0.1000
                       cart. coord. in units 2pi/alat
        k(    1) = (   0.0000000   0.0000000   0.0000000), wk =   0.0095238
        k(    2) = (   0.0000000   0.0000000   0.1202535), wk =   0.0190476
        k(    3) = (   0.0000000   0.0000000   0.2405069), wk =   0.0190476
        k(    4) = (   0.0000000   0.0000000   0.3607604), wk =   0.0190476
        k(    5) = (   0.0000000   0.1402957   0.0000000), wk =   0.0190476
        k(    6) = (   0.0000000   0.1402957   0.1202535), wk =   0.0380952
        k(    7) = (   0.0000000   0.1402957   0.2405069), wk =   0.0380952
        k(    8) = (   0.0000000   0.1402957   0.3607604), wk =   0.0380952
        k(    9) = (   0.0000000   0.2805914   0.0000000), wk =   0.0190476
        k(   10) = (   0.0000000   0.2805914   0.1202535), wk =   0.0380952
        k(   11) = (   0.0000000   0.2805914   0.2405069), wk =   0.0380952
        k(   12) = (   0.0000000   0.2805914   0.3607604), wk =   0.0380952
        k(   13) = (   0.0000000  -0.4208872   0.0000000), wk =   0.0095238
        k(   14) = (   0.0000000  -0.4208872   0.1202535), wk =   0.0190476
        k(   15) = (   0.0000000  -0.4208872   0.2405069), wk =   0.0190476
        k(   16) = (   0.0000000  -0.4208872   0.3607604), wk =   0.0190476
        k(   17) = (   0.1683549   0.0000000   0.0000000), wk =   0.0190476
        k(   18) = (   0.1683549   0.0000000   0.1202535), wk =   0.0380952
        k(   19) = (   0.1683549   0.0000000   0.2405069), wk =   0.0380952
        k(   20) = (   0.1683549   0.0000000   0.3607604), wk =   0.0380952
        k(   21) = (   0.1683549   0.1402957   0.0000000), wk =   0.0380952
        k(   22) = (   0.1683549   0.1402957   0.1202535), wk =   0.0761905
        k(   23) = (   0.1683549   0.1402957   0.2405069), wk =   0.0761905
        k(   24) = (   0.1683549   0.1402957   0.3607604), wk =   0.0761905
        k(   25) = (   0.1683549   0.2805914   0.0000000), wk =   0.0380952
        k(   26) = (   0.1683549   0.2805914   0.1202535), wk =   0.0761905
        k(   27) = (   0.1683549   0.2805914   0.2405069), wk =   0.0761905
        k(   28) = (   0.1683549   0.2805914   0.3607604), wk =   0.0761905
        k(   29) = (   0.1683549  -0.4208872   0.0000000), wk =   0.0190476
        k(   30) = (   0.1683549  -0.4208872   0.1202535), wk =   0.0380952
        k(   31) = (   0.1683549  -0.4208872   0.2405069), wk =   0.0380952
        k(   32) = (   0.1683549  -0.4208872   0.3607604), wk =   0.0380952
        k(   33) = (   0.3367097   0.0000000   0.0000000), wk =   0.0190476
        k(   34) = (   0.3367097   0.0000000   0.1202535), wk =   0.0380952
        k(   35) = (   0.3367097   0.0000000   0.2405069), wk =   0.0380952
        k(   36) = (   0.3367097   0.0000000   0.3607604), wk =   0.0380952
        k(   37) = (   0.3367097   0.1402957   0.0000000), wk =   0.0380952
        k(   38) = (   0.3367097   0.1402957   0.1202535), wk =   0.0761905
        k(   39) = (   0.3367097   0.1402957   0.2405069), wk =   0.0761905
        k(   40) = (   0.3367097   0.1402957   0.3607604), wk =   0.0761905
        k(   41) = (   0.3367097   0.2805914   0.0000000), wk =   0.0380952
        k(   42) = (   0.3367097   0.2805914   0.1202535), wk =   0.0761905
        k(   43) = (   0.3367097   0.2805914   0.2405069), wk =   0.0761905
        k(   44) = (   0.3367097   0.2805914   0.3607604), wk =   0.0761905
        k(   45) = (   0.3367097  -0.4208872   0.0000000), wk =   0.0190476
        k(   46) = (   0.3367097  -0.4208872   0.1202535), wk =   0.0380952
        k(   47) = (   0.3367097  -0.4208872   0.2405069), wk =   0.0380952
        k(   48) = (   0.3367097  -0.4208872   0.3607604), wk =   0.0380952

     Largest allocated arrays     est. size (Mb)     dimensions
     Largest temporary arrays     est. size (Mb)     dimensions

     Initial potential from superposition of free atoms

     Starting from uniform charge
     Starting wfc are    0 randomized atomic wfcs

     Writing output data file Prototype-La-cP8-Cr3Si.save

     Self-consistent Calculation

[...]

     iteration #  9     ecut=    40.00 Ry     beta=0.70
     CG style diagonalization
     c_bands:  1 eigenvalues not converged
     c_bands:  1 eigenvalues not converged
     c_bands:  1 eigenvalues not converged
     c_bands:  1 eigenvalues not converged
     c_bands:  1 eigenvalues not converged
     c_bands:  1 eigenvalues not converged
     c_bands:  1 eigenvalues not converged
     c_bands:  1 eigenvalues not converged
     ethr =  1.87E-06,  avg # of iterations =  4.2

[...]

     total energy              =   -2579.22732960 Ry
     Harris-Foulkes estimate   =   -2579.22733977 Ry
     estimated scf accuracy    <       0.00001600 Ry

     iteration # 11     ecut=    40.00 Ry     beta=0.70
     CG style diagonalization
     ethr =  9.19E-09,  avg # of iterations =  4.1

     End of self-consistent calculation

[...]

          k = 0.3367-0.4209 0.3608 (  4464 PWs)   bands (ev):

   -94.6970 -94.6968 -62.6756 -62.6705 -62.6651 -62.6633 -62.6599 -62.6569
   -53.5033 -53.5032 -53.5004 -53.5003 -53.4991 -53.4989 -27.0830 -27.0589
   -26.9897 -26.9894 -26.9123 -26.8861 -26.8515 -26.8514 -26.8301 -26.8275
   -26.8192 -26.8133 -26.8051 -26.8041 -26.8030 -26.7952 -26.7912 -26.7896
     4.3498   4.3499   4.3508   4.3509   4.3918   4.3935   4.3970   4.3974
     4.4007   4.4007  14.6052  14.6053  15.6935  15.8354  15.9337  15.9626
    16.0213  16.0426  16.1517  16.1651  16.3353  16.3432  16.3859  16.4141
    16.5302  16.5502  16.6413  16.6453  16.7357  16.7666  16.8584  16.8993
    17.1174  17.2289  17.4572  17.5098  17.5673  17.5969  17.6010  17.6129
    19.0399  19.0409  20.1346  20.2099  20.7072  20.7677  21.5921  21.6475
    29.1613  29.1692  30.1653  30.2222  30.5071  30.6015  31.6214  31.6275
    31.8117  32.1656  32.8966  32.9185  33.3403  33.4414  33.5468  33.6883
    33.8275  34.1047  34.6994  34.8152  34.9378  34.9901  35.4205  35.4822

     the Fermi energy is    30.3490 ev

!    total energy              =   -2579.22733687 Ry
     Harris-Foulkes estimate   =   -2579.22733705 Ry
     estimated scf accuracy    <       0.00000021 Ry

     The total energy is the sum of the following terms:

     one-electron contribution =    -628.15187971 Ry
     hartree contribution      =     424.83352977 Ry
     xc contribution           =    -220.46312309 Ry
     ewald contribution        =   -2155.20292220 Ry
     smearing contrib. (-TS)   =      -0.24294164 Ry

     convergence has been achieved in  11 iterations

     Forces acting on atoms (Ry/au):

     atom    1 type  1   force =     0.00000000    0.00000000    0.00000000
     atom    2 type  1   force =     0.00000000    0.00000000    0.00000000
     atom    3 type  1   force =     0.00000000    0.00000000    0.00000000
     atom    4 type  1   force =     0.00000000    0.00000000    0.00000000
     atom    5 type  1   force =     0.00000000    0.00000000    0.00000000
     atom    6 type  1   force =     0.00000000    0.00000000    0.00000000
     atom    7 type  2   force =     0.00000000    0.00000000    0.00000000
     atom    8 type  2   force =     0.00000000    0.00000000    0.00000000

     Total force =     0.000000     Total SCF correction =     0.000000

     entering subroutine stress ...

          total   stress  (Ry/bohr**3)                   (kbar)     P=  370.82
   0.00252081   0.00000000   0.00000000        370.82      0.00      0.00
   0.00000000   0.00252081   0.00000000          0.00    370.82      0.00
   0.00000000   0.00000000   0.00252081          0.00      0.00    370.82

     Writing output data file Prototype-La-cP8-Cr3Si.save

     General routines

     Parallel routines

   This run was terminated on:   1:38:13  23Mar2018

   JOB DONE.