     Program PWSCF v.5.0.2 starts on 22Mar2018 at  0:38:17

     Current dimensions of program PWSCF are:
     Max number of different atomic species (ntypx) = 10
     Max number of k-points (npk) =  40000
     Max angular momentum in pseudopotentials (lmaxx) =  3
     Waiting for input...
     Reading input from standard input

     Subspace diagonalization in iterative solution of the eigenvalue problem:
     a serial algorithm will be used

     bravais-lattice index     =            0
     lattice parameter (alat)  =       7.0151  a.u.
     unit-cell volume          =     862.2778 (a.u.)^3
     number of atoms/cell      =           12
     number of atomic types    =            2
     number of electrons       =       156.00
     number of Kohn-Sham states=           94
     kinetic-energy cutoff     =      40.0000  Ry
     charge density cutoff     =     160.0000  Ry
     convergence threshold     =      1.0E-04
     mixing beta               =       0.7000
     number of iterations used =            8  plain     mixing
     Exchange-correlation      = SLA-PZ-NOGX-NOGC ( 1 1 0 0 0)
     EXX-fraction              =        0.00
     nstep                     =           50

     celldm(1)=   7.015105  celldm(2)=   0.000000  celldm(3)=   0.000000
     celldm(4)=   0.000000  celldm(5)=   0.000000  celldm(6)=   0.000000

     crystal axes: (cart. coord. in units of alat)
               a(1) = (   1.000000   0.000000   0.000000 )
               a(2) = (   0.000000   1.315963   0.000000 )
               a(3) = (   0.000000   0.000000   1.898020 )

     reciprocal axes: (cart. coord. in units 2 pi/alat)
               b(1) = (  1.000000  0.000000  0.000000 )
               b(2) = (  0.000000  0.759900  0.000000 )
               b(3) = (  0.000000  0.000000  0.526865 )

     PseudoPot. # 1 for Ce read from file:
     /home/jld5415/pp.La/Ce.UPF
     MD5 check sum: 44451aa79a44a00cf2bc029dc19922f6
     Pseudo is Norm-conserving, Zval = 12.0
     Generated in analytical, separable form
     Using radial grid of 1255 points,  6 beta functions with:
                l(1) =   0
                l(2) =   0
                l(3) =   1
                l(4) =   1
                l(5) =   2
                l(6) =   3

     PseudoPot. # 2 for Pm read from file:
     /home/jld5415/pp.La/Pm.UPF
     MD5 check sum: 0061344aafc48faba5d75831754de21b
     Pseudo is Norm-conserving, Zval = 15.0
     Generated in analytical, separable form
     Using radial grid of 1259 points,  6 beta functions with:
                l(1) =   0
                l(2) =   0
                l(3) =   1
                l(4) =   1
                l(5) =   2
                l(6) =   3

     atomic species   valence    mass     pseudopotential
        Co            12.00    58.93320     Ce( 1.00)
        Si            15.00    28.08550     Pm( 1.00)

      8 Sym. Ops., with inversion, found ( 6 have fractional translation)

   Cartesian axes

     site n.     atom                  positions (alat units)
         1           Co  tau(   1) = (   0.7500000   1.0875135   0.8270358  )
         2           Co  tau(   2) = (   0.2500000   0.2284499   1.0709846  )
         3           Co  tau(   3) = (   0.7500000   0.4295318   0.1219744  )
         4           Co  tau(   4) = (   0.2500000   0.8864316   1.7760460  )
         5           Co  tau(   5) = (   0.2500000   0.7067855   0.5358966  )
         6           Co  tau(   6) = (   0.7500000   0.6091779   1.3621238  )
         7           Co  tau(   7) = (   0.2500000   0.0488038   0.4131136  )
         8           Co  tau(   8) = (   0.7500000   1.2671596   1.4849068  )
         9           Si  tau(   9) = (   0.2500000   0.2669484   1.6960710  )
        10           Si  tau(  10) = (   0.7500000   1.0490149   0.2019494  )
        11           Si  tau(  11) = (   0.2500000   0.9249301   1.1509596  )
        12           Si  tau(  12) = (   0.7500000   0.3910333   0.7470608  )

     number of k points=    12  gaussian smearing, width (Ry)=  0.1000
                       cart. coord. in units 2pi/alat
        k(    1) = (   0.0000000   0.0000000   0.0000000), wk =   0.0833333
        k(    2) = (   0.0000000   0.0000000   0.1317162), wk =   0.1666667
        k(    3) = (   0.0000000   0.0000000  -0.2634324), wk =   0.0833333
        k(    4) = (   0.0000000   0.2532999   0.0000000), wk =   0.1666667
        k(    5) = (   0.0000000   0.2532999   0.1317162), wk =   0.3333333
        k(    6) = (   0.0000000   0.2532999  -0.2634324), wk =   0.1666667
        k(    7) = (  -0.5000000   0.0000000   0.0000000), wk =   0.0833333
        k(    8) = (  -0.5000000   0.0000000   0.1317162), wk =   0.1666667
        k(    9) = (  -0.5000000   0.0000000  -0.2634324), wk =   0.0833333
        k(   10) = (  -0.5000000   0.2532999   0.0000000), wk =   0.1666667
        k(   11) = (  -0.5000000   0.2532999   0.1317162), wk =   0.3333333
        k(   12) = (  -0.5000000   0.2532999  -0.2634324), wk =   0.1666667

     Largest allocated arrays     est. size (Mb)     dimensions
     Largest temporary arrays     est. size (Mb)     dimensions

     Initial potential from superposition of free atoms

     Starting from uniform charge
     Starting wfc are    0 randomized atomic wfcs

     Self-consistent Calculation

     iteration #  1     ecut=    40.00 Ry     beta=0.70
     CG style diagonalization
     c_bands:  1 eigenvalues not converged
     c_bands:  1 eigenvalues not converged
     c_bands:  2 eigenvalues not converged
     c_bands:  1 eigenvalues not converged
     c_bands:  2 eigenvalues not converged
     c_bands:  1 eigenvalues not converged
     ethr =  1.00E-02,  avg # of iterations = 11.9

     total energy              =   -1042.19546326 Ry
     Harris-Foulkes estimate   =   -1184.36273922 Ry
     estimated scf accuracy    <     186.12985800 Ry

     iteration #  2     ecut=    40.00 Ry     beta=0.70
     CG style diagonalization
     ethr =  1.00E-02,  avg # of iterations =  8.7

[...]

     End of self-consistent calculation

          k = 0.0000 0.0000 0.0000 (  3675 PWs)   bands (ev):

   -10.9695 -10.6101 -10.5005 -10.3650   2.7285   3.1146   3.1598   5.1281
     5.1419   5.4031   5.6193   5.8679   9.5366  10.4948  10.4973  10.7597
    11.1004  11.6645  11.7674  11.9473  12.0065  12.2651  13.0557  13.7375
    18.0096  18.1208  18.8753  19.2058  20.4377  21.0256  21.4007  21.6641
    22.0583  22.2969  22.4547  22.5414  23.2365  23.5061  23.5975  24.1853
    24.2943  25.1315  25.1783  25.5914  27.9217  27.9690  28.0684  28.5742
    32.6982  33.4046  34.4234  34.7559  34.8587  35.2789  35.4661  35.5099
    36.2662  37.3897  37.5460  38.1255  38.3909  38.6267  40.5767  40.8200
    40.9031  41.5605  41.5605  42.5447  42.7530  42.7801  42.9188  42.9776
    43.0832  44.1302  44.6301  45.1217  45.6112  45.9926  46.2844  46.3283
    46.6486  46.6653  47.2513  47.3824  48.1202  48.1632  48.5703  49.1672
    49.1850  49.3345  49.5805  49.7203  49.7943  50.6338

[...]

          k =-0.5000 0.0000 0.0000 (  3722 PWs)   bands (ev):

[...]

     the Fermi energy is    45.1551 ev

!    total energy              =   -1125.52899464 Ry
     Harris-Foulkes estimate   =   -1125.52899680 Ry
     estimated scf accuracy    <       0.00000319 Ry

     The total energy is the sum of the following terms:

     one-electron contribution =     407.50438659 Ry
     hartree contribution      =      37.76807665 Ry
     xc contribution           =    -157.89295903 Ry
     ewald contribution        =   -1412.54985622 Ry
     smearing contrib. (-TS)   =      -0.35864263 Ry

     convergence has been achieved in   9 iterations

     Forces acting on atoms (Ry/au):

     atom    1 type  1   force =     0.00000000   -0.01727530   -0.10144809
     atom    2 type  1   force =     0.00000000    0.01727530    0.10144809
     atom    3 type  1   force =     0.00000000   -0.01727530    0.10144809
     atom    4 type  1   force =     0.00000000    0.01727530   -0.10144809
     atom    5 type  1   force =     0.00000000    0.12746358   -0.24687932
     atom    6 type  1   force =     0.00000000   -0.12746358    0.24687932
     atom    7 type  1   force =     0.00000000    0.12746358    0.24687932
     atom    8 type  1   force =     0.00000000   -0.12746358   -0.24687932
     atom    9 type  2   force =     0.00000000   -0.17099398    0.00870066
     atom   10 type  2   force =     0.00000000    0.17099398   -0.00870066
     atom   11 type  2   force =     0.00000000   -0.17099398   -0.00870066
     atom   12 type  2   force =     0.00000000    0.17099398    0.00870066

     Total force =     0.684401     Total SCF correction =     0.000000

     entering subroutine stress ...

          total   stress  (Ry/bohr**3)                   (kbar)     P= 6266.18
   0.04270939   0.00000000   0.00000000       6282.77      0.00      0.00
   0.00000000   0.04138840   0.00000000          0.00   6088.44      0.00
   0.00000000   0.00000000   0.04369217          0.00      0.00   6427.34

     BFGS Geometry Optimization

     number of scf cycles    =   1
     number of bfgs steps    =   0

     enthalpy new            =   -1125.5289946409 Ry

     new trust radius        =       0.5000000000 bohr
     new conv_thr            =       0.0001000000 Ry

     new unit-cell volume =   1095.29994 a.u.^3 (   162.30670 Ang^3 )

CELL_PARAMETERS (alat=  7.01510508)
   1.083221629   0.000000000   0.000000000
   0.000000000   1.422092682   0.000000000
   0.000000000   0.000000000   2.059611444

ATOMIC_POSITIONS (crystal)
Co       0.750000000   0.826255145   0.435142143
Co       0.250000000   0.173744855   0.564857857
Co       0.750000000   0.326255145   0.064857857
Co       0.250000000   0.673744855   0.935142143
Co       0.250000000   0.538162170   0.280899818
Co       0.750000000   0.461837830   0.719100182
Co       0.250000000   0.038162170   0.219100182
Co       0.750000000   0.961837830   0.780899818
Si       0.250000000   0.201410304   0.893650932
Si       0.750000000   0.798589696   0.106349068
Si       0.250000000   0.701410304   0.606349068
Si       0.750000000   0.298589696   0.393650932

     Writing output data file Prototype-La-oP12-Co2Si.save
     NEW-OLD atomic charge density approx. for the potential
     NEW k-points:
        k(    1) = (   0.0000000   0.0000000   0.0000000), wk =   0.0833333
        k(    2) = (   0.0000000   0.0000000   0.1213821), wk =   0.1666667
        k(    3) = (   0.0000000   0.0000000  -0.2427642), wk =   0.0833333
        k(    4) = (   0.0000000   0.2343963   0.0000000), wk =   0.1666667
        k(    5) = (   0.0000000   0.2343963   0.1213821), wk =   0.3333333
        k(    6) = (   0.0000000   0.2343963  -0.2427642), wk =   0.1666667
        k(    7) = (  -0.4615861   0.0000000   0.0000000), wk =   0.0833333
        k(    8) = (  -0.4615861   0.0000000   0.1213821), wk =   0.1666667
        k(    9) = (  -0.4615861   0.0000000  -0.2427642), wk =   0.0833333
        k(   10) = (  -0.4615861   0.2343963   0.0000000), wk =   0.1666667
        k(   11) = (  -0.4615861   0.2343963   0.1213821), wk =   0.3333333
        k(   12) = (  -0.4615861   0.2343963  -0.2427642), wk =   0.1666667

[...]

     enthalpy old            =   -1125.5289946409 Ry
     enthalpy new            =   -1132.0152254533 Ry

     CASE: enthalpy_new < enthalpy_old

     small trust_radius: resetting bfgs history

     new trust radius        =       2.8360633458 bohr
     new conv_thr            =       0.0001000000 Ry

[...]

          total   stress  (Ry/bohr**3)                   (kbar)     P=-1032.27
  -0.00708005   0.00000000   0.00000000      -1041.51      0.00      0.00
   0.00000000  -0.00687122   0.00000000          0.00  -1010.79      0.00
   0.00000000   0.00000000  -0.00710033          0.00      0.00  -1044.49

     number of scf cycles    =   3
     number of bfgs steps    =   2

     enthalpy old            =   -1132.0152254533 Ry
     enthalpy new            =   -1125.8959324701 Ry

     CASE: enthalpy_new > enthalpy_old

     new trust radius        =       1.3239192611 bohr

     trust_radius < trust_radius_min

     resetting bfgs history

     Message from routine bfgs:
     history already reset at previous step: stopping
     new conv_thr            =       0.0001000000 Ry

     new unit-cell volume =   1309.61830 a.u.^3 (   194.06541 Ang^3 )

[...]

ATOMIC_POSITIONS (crystal)
Co       0.750000000   0.826219978   0.434865080
Co       0.250000000   0.173780022   0.565134920
Co       0.750000000   0.326219978   0.065134920
Co       0.250000000   0.673780022   0.934865080
Co       0.250000000   0.538838624   0.280003330
Co       0.750000000   0.461161376   0.719996670
Co       0.250000000   0.038838624   0.219996670
Co       0.750000000   0.961161376   0.780003330
Si       0.250000000   0.200255435   0.893973688
Si       0.750000000   0.799744565   0.106026312
Si       0.250000000   0.700255435   0.606026312
Si       0.750000000   0.299744565   0.393973688

     Writing output data file Prototype-La-oP12-Co2Si.save
     NEW-OLD atomic charge density approx. for the potential
     NEW k-points:
        k(    1) = (   0.0000000   0.0000000   0.0000000), wk =   0.0833333
        k(    2) = (   0.0000000   0.0000000   0.1140867), wk =   0.1666667
        k(    3) = (   0.0000000   0.0000000  -0.2281734), wk =   0.0833333
        k(    4) = (   0.0000000   0.2217402   0.0000000), wk =   0.1666667
        k(    5) = (   0.0000000   0.2217402   0.1140867), wk =   0.3333333
        k(    6) = (   0.0000000   0.2217402  -0.2281734), wk =   0.1666667
        k(    7) = (  -0.4341774   0.0000000   0.0000000), wk =   0.0833333
        k(    8) = (  -0.4341774   0.0000000   0.1140867), wk =   0.1666667
        k(    9) = (  -0.4341774   0.0000000  -0.2281734), wk =   0.0833333
        k(   10) = (  -0.4341774   0.2217402   0.0000000), wk =   0.1666667
        k(   11) = (  -0.4341774   0.2217402   0.1140867), wk =   0.3333333
        k(   12) = (  -0.4341774   0.2217402  -0.2281734), wk =   0.1666667

[...]

     The maximum number of steps has been reached.

     End of BFGS Geometry Optimization
Begin final coordinates
     new unit-cell volume =   1309.61830 a.u.^3 (   194.06541 Ang^3 )

CELL_PARAMETERS (alat=  7.01510508)
   1.151602924   0.000000000   0.000000000
   0.000000000   1.503261038   0.000000000
   0.000000000   0.000000000   2.191316118

ATOMIC_POSITIONS (crystal)
Co       0.750000000   0.826219978   0.434865080
Co       0.250000000   0.173780022   0.565134920
Co       0.750000000   0.326219978   0.065134920
Co       0.250000000   0.673780022   0.934865080
Co       0.250000000   0.538838624   0.280003330
Co       0.750000000   0.461161376   0.719996670
Co       0.250000000   0.038838624   0.219996670
Co       0.750000000   0.961161376   0.780003330
Si       0.250000000   0.200255435   0.893973688
Si       0.750000000   0.799744565   0.106026312
Si       0.250000000   0.700255435   0.606026312
Si       0.750000000   0.299744565   0.393973688
End final coordinates

     A final scf calculation at the relaxed structure.
     The G-vectors are recalculated for the final unit cell
     Results may differ from those at the preceding step.

     bravais-lattice index     =            0
     lattice parameter (alat)  =       7.0151  a.u.
     unit-cell volume          =    1309.6183 (a.u.)^3
     number of atoms/cell      =           12
     number of atomic types    =            2
     number of electrons       =       156.00
     number of Kohn-Sham states=           94
     kinetic-energy cutoff     =      40.0000  Ry
     charge density cutoff     =     160.0000  Ry
     convergence threshold     =      1.0E-04
     mixing beta               =       0.7000
     number of iterations used =            8  plain     mixing
     Exchange-correlation      = SLA-PZ-NOGX-NOGC ( 1 1 0 0 0)
     EXX-fraction              =        0.00

     celldm(1)=   7.015105  celldm(2)=   0.000000  celldm(3)=   0.000000
     celldm(4)=   0.000000  celldm(5)=   0.000000  celldm(6)=   0.000000

     crystal axes: (cart. coord. in units of alat)
               a(1) = (   1.151603   0.000000   0.000000 )
               a(2) = (   0.000000   1.503261   0.000000 )
               a(3) = (   0.000000   0.000000   2.191316 )

     reciprocal axes: (cart. coord. in units 2 pi/alat)
               b(1) = (  0.868355  0.000000  0.000000 )
               b(2) = (  0.000000  0.665220  0.000000 )
               b(3) = (  0.000000  0.000000  0.456347 )

     PseudoPot. # 1 for Ce read from file:
     /home/jld5415/pp.La/Ce.UPF
     MD5 check sum: 44451aa79a44a00cf2bc029dc19922f6
     Pseudo is Norm-conserving, Zval = 12.0
     Generated in analytical, separable form
     Using radial grid of 1255 points,  6 beta functions with:
                l(1) =   0
                l(2) =   0
                l(3) =   1
                l(4) =   1
                l(5) =   2
                l(6) =   3

     PseudoPot. # 2 for Pm read from file:
     /home/jld5415/pp.La/Pm.UPF
     MD5 check sum: 0061344aafc48faba5d75831754de21b
     Pseudo is Norm-conserving, Zval = 15.0
     Generated in analytical, separable form
     Using radial grid of 1259 points,  6 beta functions with:
                l(1) =   0
                l(2) =   0
                l(3) =   1
                l(4) =   1
                l(5) =   2
                l(6) =   3

     atomic species   valence    mass     pseudopotential
        Co            12.00    58.93320     Ce( 1.00)
        Si            15.00    28.08550     Pm( 1.00)

      8 Sym. Ops., with inversion, found ( 6 have fractional translation)

   Cartesian axes

     site n.     atom                  positions (alat units)
         1           Co  tau(   1) = (   0.8637022   1.2420243   0.9529269  )
         2           Co  tau(   2) = (   0.2879007   0.2612367   1.2383893  )
         3           Co  tau(   3) = (   0.8637022   0.4903938   0.1427312  )
         4           Co  tau(   4) = (   0.2879007   1.0128673   2.0485849  )
         5           Co  tau(   5) = (   0.2879007   0.8100151   0.6135758  )
         6           Co  tau(   6) = (   0.8637022   0.6932459   1.5777403  )
         7           Co  tau(   7) = (   0.2879007   0.0583846   0.4820822  )
         8           Co  tau(   8) = (   0.8637022   1.4448764   1.7092339  )
         9           Si  tau(   9) = (   0.2879007   0.3010362   1.9589790  )
        10           Si  tau(  10) = (   0.8637022   1.2022248   0.2323372  )
        11           Si  tau(  11) = (   0.2879007   1.0526667   1.3279952  )
        12           Si  tau(  12) = (   0.8637022   0.4505943   0.8633209  )

     number of k points=    12  gaussian smearing, width (Ry)=  0.1000
                       cart. coord. in units 2pi/alat
        k(    1) = (   0.0000000   0.0000000   0.0000000), wk =   0.0833333
        k(    2) = (   0.0000000   0.0000000   0.1140867), wk =   0.1666667
        k(    3) = (   0.0000000   0.0000000  -0.2281734), wk =   0.0833333
        k(    4) = (   0.0000000   0.2217402   0.0000000), wk =   0.1666667
        k(    5) = (   0.0000000   0.2217402   0.1140867), wk =   0.3333333
        k(    6) = (   0.0000000   0.2217402  -0.2281734), wk =   0.1666667
        k(    7) = (  -0.4341774   0.0000000   0.0000000), wk =   0.0833333
        k(    8) = (  -0.4341774   0.0000000   0.1140867), wk =   0.1666667
        k(    9) = (  -0.4341774   0.0000000  -0.2281734), wk =   0.0833333
        k(   10) = (  -0.4341774   0.2217402   0.0000000), wk =   0.1666667
        k(   11) = (  -0.4341774   0.2217402   0.1140867), wk =   0.3333333
        k(   12) = (  -0.4341774   0.2217402  -0.2281734), wk =   0.1666667

     Largest allocated arrays     est. size (Mb)     dimensions
     Largest temporary arrays     est. size (Mb)     dimensions

     Initial potential from superposition of free atoms

     Starting from uniform charge
     Starting wfc are    0 randomized atomic wfcs

     Writing output data file Prototype-La-oP12-Co2Si.save

     Self-consistent Calculation

[...]

     iteration #  5     ecut=    40.00 Ry     beta=0.70
     CG style diagonalization
     ethr =  3.17E-03,  avg # of iterations =  3.8

[...]

     total energy              =   -1135.37519322 Ry
     Harris-Foulkes estimate   =   -1135.37549056 Ry
     estimated scf accuracy    <       0.00067313 Ry

     iteration # 10     ecut=    40.00 Ry     beta=0.70
     CG style diagonalization
     c_bands:  1 eigenvalues not converged
     ethr =  4.31E-07,  avg # of iterations =  3.9

     End of self-consistent calculation

[...]

          k = 0.0000 0.2217-0.2282 (  5576 PWs)   bands (ev):

[...]

          k =-0.4342 0.2217-0.2282 (  5584 PWs)   bands (ev):

   -23.8300 -23.8300 -23.8179 -23.8179  -9.2459  -9.2459  -8.9629  -8.9629
    -8.6469  -8.6469  -8.4951  -8.4951  -1.2767  -1.2766  -1.1948  -1.1948
    -0.9854  -0.9854  -0.8220  -0.8220  -0.7131  -0.7131  -0.6081  -0.6081
     7.0662   7.0662   7.5538   7.5538   7.8958   7.8958   8.1396   8.1396
     8.3584   8.3584   9.0989   9.0989   9.5577   9.5577   9.8143   9.8143
    10.1327  10.1327  10.2141  10.2141  10.5362  10.5362  10.6259  10.6259
    23.1661  23.1661  23.7289  23.7289  24.2020  24.2020  24.7425  24.7425
    24.9624  24.9624  25.2790  25.2790  25.5333  25.5333  25.8143  25.8143
    26.5140  26.5140  26.6520  26.6520  27.3929  27.3929  27.4923  27.4923
    27.8670  27.8670  28.1169  28.1169  28.6650  28.6650  29.1062  29.1062
    29.2267  29.2267  30.0704  30.0704  30.3753  30.3753  31.0059  31.0059
    31.1533  31.1533  32.0283  32.0283  32.3547  32.3550

     the Fermi energy is    29.1837 ev

!    total energy              =   -1135.37536877 Ry
     Harris-Foulkes estimate   =   -1135.37538221 Ry
     estimated scf accuracy    <       0.00001532 Ry

     The total energy is the sum of the following terms:

     one-electron contribution =     170.24715127 Ry
     hartree contribution      =      71.04877414 Ry
     xc contribution           =    -146.80313450 Ry
     ewald contribution        =   -1229.28410876 Ry
     smearing contrib. (-TS)   =      -0.58405092 Ry

     convergence has been achieved in  10 iterations

     Forces acting on atoms (Ry/au):

     atom    1 type  1   force =     0.00000000   -0.00570326   -0.01964760
     atom    2 type  1   force =     0.00000000    0.00570326    0.01964760
     atom    3 type  1   force =     0.00000000   -0.00570326    0.01964760
     atom    4 type  1   force =     0.00000000    0.00570326   -0.01964760
     atom    5 type  1   force =     0.00000000    0.03164258   -0.06578051
     atom    6 type  1   force =     0.00000000   -0.03164258    0.06578051
     atom    7 type  1   force =     0.00000000    0.03164258    0.06578051
     atom    8 type  1   force =     0.00000000   -0.03164258   -0.06578051
     atom    9 type  2   force =     0.00000000   -0.08183707    0.04729571
     atom   10 type  2   force =     0.00000000    0.08183707   -0.04729571
     atom   11 type  2   force =     0.00000000   -0.08183707   -0.04729571
     atom   12 type  2   force =     0.00000000    0.08183707    0.04729571

     Total force =     0.242331     Total SCF correction =     0.000000

     entering subroutine stress ...

          total   stress  (Ry/bohr**3)                   (kbar)     P= 1256.01
   0.00884156   0.00000000   0.00000000       1300.64      0.00      0.00
   0.00000000   0.00812281   0.00000000          0.00   1194.91      0.00
   0.00000000   0.00000000   0.00865008          0.00      0.00   1272.47

     Writing output data file Prototype-La-oP12-Co2Si.save

     General routines

     Parallel routines

   This run was terminated on:   0:50:29  22Mar2018

   JOB DONE.