     Program PWSCF v.5.0.2 starts on 22Mar2018 at  0:38:17

     Current dimensions of program PWSCF are:
     Max number of different atomic species (ntypx) = 10
     Max number of k-points (npk) =  40000
     Max angular momentum in pseudopotentials (lmaxx) =  3
     Waiting for input...
     Reading input from standard input

     Subspace diagonalization in iterative solution of the eigenvalue problem:
     a serial algorithm will be used

     bravais-lattice index     =            0
     lattice parameter (alat)  =      12.8532  a.u.
     unit-cell volume          =    1390.2597 (a.u.)^3
     number of atoms/cell      =            6
     number of atomic types    =            2
     number of electrons       =        84.00
     number of Kohn-Sham states=           50
     kinetic-energy cutoff     =      40.0000  Ry
     charge density cutoff     =     160.0000  Ry
     convergence threshold     =      1.0E-04
     mixing beta               =       0.7000
     number of iterations used =            8  plain     mixing
     Exchange-correlation      = SLA-PZ-NOGX-NOGC ( 1 1 0 0 0)
     EXX-fraction              =        0.00
     nstep                     =           50

     celldm(1)=  12.853229  celldm(2)=   0.000000  celldm(3)=   0.000000
     celldm(4)=   0.000000  celldm(5)=   0.000000  celldm(6)=   0.000000

     crystal axes: (cart. coord. in units of alat)
               a(1) = (   1.000000   0.000000   0.000000 )
               a(2) = (  -0.036574   0.999331   0.000000 )
               a(3) = (  -0.266883  -0.706777   0.655164 )

     reciprocal axes: (cart. coord. in units 2 pi/alat)
               b(1) = (  1.000000  0.036598  0.446834 )
               b(2) = (  0.000000  1.000669  1.079502 )
               b(3) = (  0.000000  0.000000  1.526336 )

     PseudoPot. # 1 for Ce read from file:
     /home/jld5415/pp.La/Ce.UPF
     MD5 check sum: 44451aa79a44a00cf2bc029dc19922f6
     Pseudo is Norm-conserving, Zval = 12.0
     Generated in analytical, separable form
     Using radial grid of 1255 points,  6 beta functions with:
                l(1) =   0
                l(2) =   0
                l(3) =   1
                l(4) =   1
                l(5) =   2
                l(6) =   3

     PseudoPot. # 2 for Pm read from file:
     /home/jld5415/pp.La/Pm.UPF
     MD5 check sum: 0061344aafc48faba5d75831754de21b
     Pseudo is Norm-conserving, Zval = 15.0
     Generated in analytical, separable form
     Using radial grid of 1259 points,  6 beta functions with:
                l(1) =   0
                l(2) =   0
                l(3) =   1
                l(4) =   1
                l(5) =   2
                l(6) =   3

     atomic species   valence    mass     pseudopotential
        K             12.00    39.09830     Ce( 1.00)
        Hg            15.00   200.59000     Pm( 1.00)

      2 Sym. Ops., with inversion, found

   Cartesian axes

     site n.     atom                  positions (alat units)
         1           K   tau(   1) = (  -0.0340766   0.4201429   0.4913727  )
         2           K   tau(   2) = (   0.7306201  -0.1275892   0.1637909  )
         3           Hg  tau(   3) = (   0.2308977  -0.0548727   0.3630373  )
         4           Hg  tau(   4) = (   0.4656458   0.3474265   0.2921263  )
         5           Hg  tau(   5) = (   0.5181090  -0.3317640   0.6197082  )
         6           Hg  tau(   6) = (   0.1784345   0.6243178   0.0354555  )

     number of k points=   253  gaussian smearing, width (Ry)=  0.1000

     Number of k-points >= 100: set verbosity='high' to print them.

     Largest allocated arrays     est. size (Mb)     dimensions
     Largest temporary arrays     est. size (Mb)     dimensions

     Initial potential from superposition of free atoms

     Starting from uniform charge
     Starting wfc are    0 randomized atomic wfcs

     Self-consistent Calculation

     iteration #  1     ecut=    40.00 Ry     beta=0.70
     CG style diagonalization
     c_bands:  5 eigenvalues not converged
     c_bands:  4 eigenvalues not converged
     c_bands:  5 eigenvalues not converged
     c_bands:  4 eigenvalues not converged
     c_bands:  5 eigenvalues not converged
     c_bands:  5 eigenvalues not converged
     c_bands:  4 eigenvalues not converged
     c_bands:  5 eigenvalues not converged
     c_bands:  5 eigenvalues not converged
     c_bands:  5 eigenvalues not converged
     c_bands:  5 eigenvalues not converged
     c_bands:  4 eigenvalues not converged
     c_bands:  5 eigenvalues not converged
     c_bands:  5 eigenvalues not converged
     c_bands:  5 eigenvalues not converged
     c_bands:  4 eigenvalues not converged
     c_bands:  5 eigenvalues not converged
     c_bands:  5 eigenvalues not converged
     c_bands:  4 eigenvalues not converged
     c_bands:  5 eigenvalues not converged
     c_bands:  4 eigenvalues not converged
     c_bands:  3 eigenvalues not converged
     c_bands:  5 eigenvalues not converged
     c_bands:  2 eigenvalues not converged
     c_bands:  5 eigenvalues not converged
     c_bands:  5 eigenvalues not converged
     c_bands:  5 eigenvalues not converged
     c_bands:  5 eigenvalues not converged
     c_bands:  5 eigenvalues not converged
     c_bands:  5 eigenvalues not converged
     c_bands:  5 eigenvalues not converged
     c_bands:  5 eigenvalues not converged
     c_bands:  4 eigenvalues not converged
     c_bands:  5 eigenvalues not converged
     c_bands:  4 eigenvalues not converged
     c_bands:  5 eigenvalues not converged
     c_bands:  5 eigenvalues not converged
     c_bands:  5 eigenvalues not converged
     c_bands:  4 eigenvalues not converged
     c_bands:  4 eigenvalues not converged
     c_bands:  4 eigenvalues not converged
     c_bands:  5 eigenvalues not converged
     c_bands:  5 eigenvalues not converged
     c_bands:  3 eigenvalues not converged
     c_bands:  5 eigenvalues not converged
     c_bands:  5 eigenvalues not converged
     c_bands:  5 eigenvalues not converged
     c_bands:  5 eigenvalues not converged
     c_bands:  5 eigenvalues not converged
     c_bands:  5 eigenvalues not converged
     c_bands:  5 eigenvalues not converged
     c_bands:  4 eigenvalues not converged
     c_bands:  4 eigenvalues not converged
     c_bands:  4 eigenvalues not converged
     c_bands:  5 eigenvalues not converged
     c_bands:  5 eigenvalues not converged
     c_bands:  4 eigenvalues not converged
     c_bands:  4 eigenvalues not converged
     c_bands:  4 eigenvalues not converged
     c_bands:  5 eigenvalues not converged
[...]
     c_bands:  4 eigenvalues not converged
     c_bands:  5 eigenvalues not converged
     c_bands:  5 eigenvalues not converged
     c_bands:  5 eigenvalues not converged
     c_bands:  5 eigenvalues not converged
     c_bands:  3 eigenvalues not converged
     c_bands:  5 eigenvalues not converged
     c_bands:  5 eigenvalues not converged
     c_bands:  5 eigenvalues not converged
     c_bands:  5 eigenvalues not converged
     c_bands:  5 eigenvalues not converged
     c_bands:  4 eigenvalues not converged
     c_bands:  5 eigenvalues not converged
     c_bands:  5 eigenvalues not converged
     c_bands:  5 eigenvalues not converged
     ethr =  1.00E-02,  avg # of iterations = 13.1

     total energy              =    -488.23307027 Ry
     Harris-Foulkes estimate   =    -863.57304992 Ry
     estimated scf accuracy    <     470.12504435 Ry

[...]

     iteration #  4     ecut=    40.00 Ry     beta=0.70
     CG style diagonalization
     ethr =  1.00E-02,  avg # of iterations =  4.3

[...]

     End of self-consistent calculation

     Number of k-points >= 100: set verbosity='high' to print the bands.

     the Fermi energy is    12.0590 ev

!    total energy              =    -673.97576316 Ry
     Harris-Foulkes estimate   =    -673.97576698 Ry
     estimated scf accuracy    <       0.00000430 Ry

     The total energy is the sum of the following terms:

     one-electron contribution =    -163.87387609 Ry
     hartree contribution      =     111.31026796 Ry
     xc contribution           =     -76.42764640 Ry
     ewald contribution        =    -544.35552205 Ry
     smearing contrib. (-TS)   =      -0.62898659 Ry

     convergence has been achieved in  14 iterations

     Forces acting on atoms (Ry/au):

     atom    1 type  1   force =     0.00175690    0.00264473   -0.00035183
     atom    2 type  1   force =    -0.00175690   -0.00264473    0.00035183
     atom    3 type  2   force =     0.01012000   -0.01173576    0.00981816
     atom    4 type  2   force =    -0.01012000    0.01173576   -0.00981816
     atom    5 type  2   force =    -0.01041197    0.01067438   -0.00972163
     atom    6 type  2   force =     0.01041197   -0.01067438    0.00972163

     Total force =     0.036431     Total SCF correction =     0.000000

     entering subroutine stress ...

          total   stress  (Ry/bohr**3)                   (kbar)     P= -277.68
  -0.00189024  -0.00005564   0.00003338       -278.06     -8.18      4.91
  -0.00005564  -0.00189385  -0.00003252         -8.18   -278.60     -4.78
   0.00003338  -0.00003252  -0.00187876          4.91     -4.78   -276.38

     BFGS Geometry Optimization

     number of scf cycles    =   1
     number of bfgs steps    =   0

     enthalpy new            =    -673.9757631597 Ry

     new trust radius        =       0.3532772524 bohr
     new conv_thr            =       0.0001000000 Ry

     new unit-cell volume =   1202.57619 a.u.^3 (   178.20340 Ang^3 )

CELL_PARAMETERS (alat= 12.85322937)
   0.952744009  -0.001390929   0.000834466
  -0.036235188   0.952067171  -0.000842972
  -0.252741351  -0.673475352   0.624743129

ATOMIC_POSITIONS (crystal)
K        0.200993989   0.951038352   0.749958220
K        0.799006011   0.048961648   0.250041780
Hg       0.392202257   0.336900925   0.555282918
Hg       0.607797743   0.663099075   0.444717082
Hg       0.781756361   0.337004549   0.944728545
Hg       0.218243639   0.662995451   0.055271455

     Writing output data file Prototype-La-oI12-KHg2.save
     NEW-OLD atomic charge density approx. for the potential
     NEW k-points: (use verbosity='high' to print them)

[...]

     enthalpy old            =    -673.9757631597 Ry
     enthalpy new            =    -674.2850029639 Ry

     CASE: enthalpy_new < enthalpy_old

     small trust_radius: resetting bfgs history

[...]

     number of scf cycles    =   3
     number of bfgs steps    =   2

     enthalpy old            =    -674.2850029639 Ry
     enthalpy new            =    -674.4070380869 Ry

     CASE: enthalpy_new < enthalpy_old

     Message from routine bfgs:
     history already reset at previous step: stopping
     small trust_radius: resetting bfgs history

     new trust radius        =       0.1224710048 bohr
     new conv_thr            =       0.0000071891 Ry

     new unit-cell volume =   1029.43432 a.u.^3 (   152.54643 Ang^3 )

[...]

ATOMIC_POSITIONS (crystal)
K        0.200657246   0.950784657   0.749876842
K        0.799342754   0.049215343   0.250123158
Hg       0.394150819   0.337598414   0.556541686
Hg       0.605849181   0.662401586   0.443458314
Hg       0.781493480   0.337917062   0.943563112
Hg       0.218506520   0.662082938   0.056436888

     Writing output data file Prototype-La-oI12-KHg2.save
     NEW-OLD atomic charge density approx. for the potential
     NEW k-points: (use verbosity='high' to print them)

[...]

     The maximum number of steps has been reached.

     End of BFGS Geometry Optimization
Begin final coordinates
     new unit-cell volume =   1029.43432 a.u.^3 (   152.54643 Ang^3 )

CELL_PARAMETERS (alat= 12.85322937)
   0.903802098  -0.002684002  -0.000259486
  -0.035737576   0.903068981   0.000269814
  -0.239482230  -0.637739446   0.593929275

ATOMIC_POSITIONS (crystal)
K        0.200657246   0.950784657   0.749876842
K        0.799342754   0.049215343   0.250123158
Hg       0.394150819   0.337598414   0.556541686
Hg       0.605849181   0.662401586   0.443458314
Hg       0.781493480   0.337917062   0.943563112
Hg       0.218506520   0.662082938   0.056436888
End final coordinates

     A final scf calculation at the relaxed structure.
     The G-vectors are recalculated for the final unit cell
     Results may differ from those at the preceding step.

     bravais-lattice index     =            0
     lattice parameter (alat)  =      12.8532  a.u.
     unit-cell volume          =    1029.4343 (a.u.)^3
     number of atoms/cell      =            6
     number of atomic types    =            2
     number of electrons       =        84.00
     number of Kohn-Sham states=           50
     kinetic-energy cutoff     =      40.0000  Ry
     charge density cutoff     =     160.0000  Ry
     convergence threshold     =      7.2E-06
     mixing beta               =       0.7000
     number of iterations used =            8  plain     mixing
     Exchange-correlation      = SLA-PZ-NOGX-NOGC ( 1 1 0 0 0)
     EXX-fraction              =        0.00

     celldm(1)=  12.853229  celldm(2)=   0.000000  celldm(3)=   0.000000
     celldm(4)=   0.000000  celldm(5)=   0.000000  celldm(6)=   0.000000

     crystal axes: (cart. coord. in units of alat)
               a(1) = (   0.903802  -0.002684  -0.000259 )
               a(2) = (  -0.035738   0.903069   0.000270 )
               a(3) = (  -0.239482  -0.637739   0.593929 )

     reciprocal axes: (cart. coord. in units 2 pi/alat)
               b(1) = (  1.106708  0.043649  0.493112 )
               b(2) = (  0.003630  1.107123  1.190252 )
               b(3) = (  0.000482 -0.000484  1.683377 )

     PseudoPot. # 1 for Ce read from file:
     /home/jld5415/pp.La/Ce.UPF
     MD5 check sum: 44451aa79a44a00cf2bc029dc19922f6
     Pseudo is Norm-conserving, Zval = 12.0
     Generated in analytical, separable form
     Using radial grid of 1255 points,  6 beta functions with:
                l(1) =   0
                l(2) =   0
                l(3) =   1
                l(4) =   1
                l(5) =   2
                l(6) =   3

     PseudoPot. # 2 for Pm read from file:
     /home/jld5415/pp.La/Pm.UPF
     MD5 check sum: 0061344aafc48faba5d75831754de21b
     Pseudo is Norm-conserving, Zval = 15.0
     Generated in analytical, separable form
     Using radial grid of 1259 points,  6 beta functions with:
                l(1) =   0
                l(2) =   0
                l(3) =   1
                l(4) =   1
                l(5) =   2
                l(6) =   3

     atomic species   valence    mass     pseudopotential
        K             12.00    39.09830     Ce( 1.00)
        Hg            15.00   200.59000     Pm( 1.00)

      2 Sym. Ops., with inversion, found

   Cartesian axes

     site n.     atom                  positions (alat units)
         1           K   tau(   1) = (  -0.0322065   0.3798595   0.4455783  )
         2           K   tau(   2) = (   0.6607888  -0.1172140   0.1483613  )
         3           Hg  tau(   3) = (   0.2108875  -0.0511118   0.3305352  )
         4           Hg  tau(   4) = (   0.4176947   0.3137574   0.2634044  )
         5           Hg  tau(   5) = (   0.4682725  -0.2986825   0.5602981  )
         6           Hg  tau(   6) = (   0.1603098   0.5613281   0.0336415  )

     number of k points=   253  gaussian smearing, width (Ry)=  0.1000

     Number of k-points >= 100: set verbosity='high' to print them.

     Largest allocated arrays     est. size (Mb)     dimensions
     Largest temporary arrays     est. size (Mb)     dimensions

     Initial potential from superposition of free atoms

     Starting from uniform charge
     Starting wfc are    0 randomized atomic wfcs

     Writing output data file Prototype-La-oI12-KHg2.save

     Self-consistent Calculation

[...]

     iteration #  6     ecut=    40.00 Ry     beta=0.70
     CG style diagonalization
     ethr =  6.03E-03,  avg # of iterations =  3.4

[...]

     total energy              =    -674.32369490 Ry
     Harris-Foulkes estimate   =    -674.32369820 Ry
     estimated scf accuracy    <       0.00000984 Ry

     iteration # 14     ecut=    40.00 Ry     beta=0.70
     CG style diagonalization
     c_bands:  1 eigenvalues not converged
     c_bands:  1 eigenvalues not converged
     c_bands:  1 eigenvalues not converged
     c_bands:  1 eigenvalues not converged
     c_bands:  1 eigenvalues not converged
     ethr =  1.17E-08,  avg # of iterations =  4.7

     End of self-consistent calculation

     Number of k-points >= 100: set verbosity='high' to print the bands.

     the Fermi energy is    17.6632 ev

!    total energy              =    -674.32369760 Ry
     Harris-Foulkes estimate   =    -674.32369933 Ry
     estimated scf accuracy    <       0.00000190 Ry

     The total energy is the sum of the following terms:

     one-electron contribution =     -83.48047544 Ry
     hartree contribution      =      88.83538244 Ry
     xc contribution           =     -78.21137547 Ry
     ewald contribution        =    -601.01112468 Ry
     smearing contrib. (-TS)   =      -0.45610445 Ry

     convergence has been achieved in  14 iterations

     Forces acting on atoms (Ry/au):

     atom    1 type  1   force =    -0.00729789   -0.00651859   -0.00047123
     atom    2 type  1   force =     0.00729789    0.00651859    0.00047123
     atom    3 type  2   force =     0.00100899    0.01020101   -0.00406753
     atom    4 type  2   force =    -0.00100899   -0.01020101    0.00406753
     atom    5 type  2   force =     0.01156813    0.00242335    0.00429353
     atom    6 type  2   force =    -0.01156813   -0.00242335   -0.00429353

     Total force =     0.027413     Total SCF correction =     0.000000

     entering subroutine stress ...

          total   stress  (Ry/bohr**3)                   (kbar)     P=  -94.78
  -0.00067318  -0.00000115  -0.00006881        -99.03     -0.17    -10.12
  -0.00000115  -0.00067474   0.00006718         -0.17    -99.26      9.88
  -0.00006881   0.00006718  -0.00058502        -10.12      9.88    -86.06

     Writing output data file Prototype-La-oI12-KHg2.save

     General routines

     Parallel routines

   This run was terminated on:   3:25:21  22Mar2018

   JOB DONE.