     Program PWSCF v.5.0.2 starts on 21Mar2018 at 22:59:11

     Current dimensions of program PWSCF are:
     Max number of different atomic species (ntypx) = 10
     Max number of k-points (npk) =  40000
     Max angular momentum in pseudopotentials (lmaxx) =  3
     Waiting for input...
     Reading input from standard input

     bravais-lattice index     =            0
     lattice parameter (alat)  =      16.7508  a.u.
     unit-cell volume          =     649.6024 (a.u.)^3
     number of atoms/cell      =            3
     number of atomic types    =            1
     number of electrons       =        57.00
     number of Kohn-Sham states=           35
     kinetic-energy cutoff     =      40.0000  Ry
     charge density cutoff     =     160.0000  Ry
     convergence threshold     =      1.0E-04
     mixing beta               =       0.7000
     number of iterations used =            8  plain     mixing
     Exchange-correlation      = SLA-PZ-NOGX-NOGC ( 1 1 0 0 0)
     EXX-fraction              =        0.00
     nstep                     =           50

     celldm(1)=  16.750844  celldm(2)=   0.000000  celldm(3)=   0.000000
     celldm(4)=   0.000000  celldm(5)=   0.000000  celldm(6)=   0.000000

     crystal axes: (cart. coord. in units of alat)
               a(1) = (   1.000000   0.000000   0.000000 )
               a(2) = (   0.917928   0.396747   0.000000 )
               a(3) = (   0.917928   0.189885   0.348356 )

     reciprocal axes: (cart. coord. in units 2 pi/alat)
               b(1) = (  1.000000 -2.313634 -1.373892 )
               b(2) = (  0.000000  2.520497 -1.373892 )
               b(3) = (  0.000000  0.000000  2.870624 )

     PseudoPot. # 1 for Tb read from file:
     /home/cwx6513/pp.La/Tb.UPF
     MD5 check sum: 3d6088a3f0cf7fd2e110c43f7f8e95c2
     Pseudo is Norm-conserving, Zval = 19.0
     Generated in analytical, separable form
     Using radial grid of 1263 points,  6 beta functions with:
                l(1) =   0
                l(2) =   0
                l(3) =   1
                l(4) =   1
                l(5) =   2
                l(6) =   3

     atomic species   valence    mass     pseudopotential
        Tb            19.00   158.92500     Tb( 1.00)

      2 Sym. Ops., with inversion, found

   Cartesian axes

     site n.     atom                  positions (alat units)
         1           Tb  tau(   1) = (   0.0000000   0.0000000   0.0000000  )
         2           Tb  tau(   2) = (   0.6299400   0.1303109   0.0773818  )
         3           Tb  tau(   3) = (   2.2059158   0.4563211   0.2709745  )

     number of k points=   253  gaussian smearing, width (Ry)=  0.1000

     Number of k-points >= 100: set verbosity='high' to print them.

     Largest allocated arrays     est. size (Mb)     dimensions
     Largest temporary arrays     est. size (Mb)     dimensions

     Initial potential from superposition of free atoms

     Starting from uniform charge
     Starting wfc are    0 randomized atomic wfcs

     Self-consistent Calculation

     iteration #  1     ecut=    40.00 Ry     beta=0.70
     CG style diagonalization
     c_bands:  1 eigenvalues not converged
     c_bands:  1 eigenvalues not converged
     c_bands:  1 eigenvalues not converged
     c_bands:  1 eigenvalues not converged
     c_bands:  1 eigenvalues not converged
     c_bands:  1 eigenvalues not converged
     c_bands:  1 eigenvalues not converged
     c_bands:  1 eigenvalues not converged
     c_bands:  1 eigenvalues not converged
     c_bands:  1 eigenvalues not converged
     c_bands:  2 eigenvalues not converged
     c_bands:  1 eigenvalues not converged
     c_bands:  1 eigenvalues not converged
     c_bands:  1 eigenvalues not converged
     c_bands:  1 eigenvalues not converged
     ethr =  1.00E-02,  avg # of iterations = 12.1

     total energy              =    -627.35790690 Ry
     Harris-Foulkes estimate   =    -889.51224268 Ry
     estimated scf accuracy    <     337.57494562 Ry

     iteration #  2     ecut=    40.00 Ry     beta=0.70
     CG style diagonalization
     ethr =  1.00E-02,  avg # of iterations =  7.6

[...]

     End of self-consistent calculation

     Number of k-points >= 100: set verbosity='high' to print the bands.

     the Fermi energy is    12.5456 ev

!    total energy              =    -688.29528518 Ry
     Harris-Foulkes estimate   =    -688.29528583 Ry
     estimated scf accuracy    <       0.00000083 Ry

     The total energy is the sum of the following terms:

     one-electron contribution =    -246.00630094 Ry
     hartree contribution      =     143.71701302 Ry
     xc contribution           =     -65.07667946 Ry
     ewald contribution        =    -520.85831483 Ry
     smearing contrib. (-TS)   =      -0.07100297 Ry

     convergence has been achieved in  13 iterations

     Forces acting on atoms (Ry/au):

     atom    1 type  1   force =     0.00000000    0.00000000    0.00000000
     atom    2 type  1   force =    -0.00184568   -0.00038854   -0.00020212
     atom    3 type  1   force =     0.00184568    0.00038854    0.00020212

     Total force =     0.002683     Total SCF correction =     0.000000

     entering subroutine stress ...

          total   stress  (Ry/bohr**3)                   (kbar)     P= -580.26
  -0.00394260   0.00000054   0.00000053       -579.98      0.08      0.08
   0.00000054  -0.00394499   0.00000037          0.08   -580.33      0.05
   0.00000053   0.00000037  -0.00394596          0.08      0.05   -580.47

     BFGS Geometry Optimization

     number of scf cycles    =   1
     number of bfgs steps    =   0

     enthalpy new            =    -688.2952851812 Ry

     new trust radius        =       0.5000000000 bohr
     new conv_thr            =       0.0001000000 Ry

     new unit-cell volume =    476.64145 a.u.^3 (    70.63098 Ang^3 )

CELL_PARAMETERS (alat= 16.75084408)
   0.901995505   0.000013329   0.000013146
   0.827972138   0.357852774   0.000015714
   0.827973960   0.171279340   0.314200521

ATOMIC_POSITIONS (crystal)
Tb       0.000000000   0.000000000   0.000000000
Tb       0.222094287   0.222092352   0.222099558
Tb       0.777905713   0.777907648   0.777900442

     Writing output data file Element-Tb.q.save
     NEW-OLD atomic charge density approx. for the potential
     NEW k-points: (use verbosity='high' to print them)

[...]

     enthalpy old            =    -688.2952851812 Ry
     enthalpy new            =    -688.8026915362 Ry

     CASE: enthalpy_new < enthalpy_old

     small trust_radius: resetting bfgs history

[...]

     number of scf cycles    =   3
     number of bfgs steps    =   2

     enthalpy old            =    -688.8026915362 Ry
     enthalpy new            =    -688.8325740806 Ry

     CASE: enthalpy_new < enthalpy_old

     Message from routine bfgs:
     history already reset at previous step: stopping
     small trust_radius: resetting bfgs history

     new trust radius        =       0.0421732198 bohr
     new conv_thr            =       0.0000193649 Ry

     new unit-cell volume =    434.96106 a.u.^3 (    64.45458 Ang^3 )

[...]

ATOMIC_POSITIONS (crystal)
Tb       0.000000000   0.000000000   0.000000000
Tb       0.220796634   0.220765044   0.220745518
Tb       0.779203366   0.779234956   0.779254482

     Writing output data file Element-Tb.q.save
     NEW-OLD atomic charge density approx. for the potential
     NEW k-points: (use verbosity='high' to print them)

[...]

     The maximum number of steps has been reached.

     End of BFGS Geometry Optimization
Begin final coordinates
     new unit-cell volume =    434.96106 a.u.^3 (    64.45458 Ang^3 )

CELL_PARAMETERS (alat= 16.75084408)
   0.880188984   0.001728575   0.001028166
   0.808635853   0.347728850   0.001056380
   0.808636454   0.167350577   0.304744824

ATOMIC_POSITIONS (crystal)
Tb       0.000000000   0.000000000   0.000000000
Tb       0.220796634   0.220765044   0.220745518
Tb       0.779203366   0.779234956   0.779254482
End final coordinates

     A final scf calculation at the relaxed structure.
     The G-vectors are recalculated for the final unit cell
     Results may differ from those at the preceding step.

     bravais-lattice index     =            0
     lattice parameter (alat)  =      16.7508  a.u.
     unit-cell volume          =     434.9611 (a.u.)^3
     number of atoms/cell      =            3
     number of atomic types    =            1
     number of electrons       =        57.00
     number of Kohn-Sham states=           35
     kinetic-energy cutoff     =      40.0000  Ry
     charge density cutoff     =     160.0000  Ry
     convergence threshold     =      1.9E-05
     mixing beta               =       0.7000
     number of iterations used =            8  plain     mixing
     Exchange-correlation      = SLA-PZ-NOGX-NOGC ( 1 1 0 0 0)
     EXX-fraction              =        0.00

     celldm(1)=  16.750844  celldm(2)=   0.000000  celldm(3)=   0.000000
     celldm(4)=   0.000000  celldm(5)=   0.000000  celldm(6)=   0.000000

     crystal axes: (cart. coord. in units of alat)
               a(1) = (   0.880189   0.001729   0.001028 )
               a(2) = (   0.808636   0.347729   0.001056 )
               a(3) = (   0.808636   0.167351   0.304745 )

     reciprocal axes: (cart. coord. in units 2 pi/alat)
               b(1) = (  1.143172 -2.653634 -1.576150 )
               b(2) = ( -0.003833  2.889507 -1.576602 )
               b(3) = ( -0.003844 -0.001063  3.292217 )

     PseudoPot. # 1 for Tb read from file:
     /home/cwx6513/pp.La/Tb.UPF
     MD5 check sum: 3d6088a3f0cf7fd2e110c43f7f8e95c2
     Pseudo is Norm-conserving, Zval = 19.0
     Generated in analytical, separable form
     Using radial grid of 1263 points,  6 beta functions with:
                l(1) =   0
                l(2) =   0
                l(3) =   1
                l(4) =   1
                l(5) =   2
                l(6) =   3

     atomic species   valence    mass     pseudopotential
        Tb            19.00   158.92500     Tb( 1.00)

      2 Sym. Ops., with inversion, found

   Cartesian axes

     site n.     atom                  positions (alat units)
         1           Tb  tau(   1) = (   0.0000000   0.0000000   0.0000000  )
         2           Tb  tau(   2) = (   0.5513642   0.1140899   0.0677313  )
         3           Tb  tau(   3) = (   1.9460971   0.4027181   0.2390981  )

     number of k points=   253  gaussian smearing, width (Ry)=  0.1000

     Number of k-points >= 100: set verbosity='high' to print them.

     Largest allocated arrays     est. size (Mb)     dimensions
     Largest temporary arrays     est. size (Mb)     dimensions

     Initial potential from superposition of free atoms

     Starting from uniform charge
     Starting wfc are    0 randomized atomic wfcs

     Writing output data file Element-Tb.q.save

     Self-consistent Calculation

[...]

     iteration # 10     ecut=    40.00 Ry     beta=0.70
     CG style diagonalization
     c_bands:  1 eigenvalues not converged
     c_bands:  1 eigenvalues not converged
     c_bands:  1 eigenvalues not converged
     c_bands:  1 eigenvalues not converged
     ethr =  6.07E-07,  avg # of iterations =  4.5

     total energy              =    -688.35693608 Ry
     Harris-Foulkes estimate   =    -688.35716322 Ry
     estimated scf accuracy    <       0.00044808 Ry

     iteration # 11     ecut=    40.00 Ry     beta=0.70
     CG style diagonalization
     ethr =  6.07E-07,  avg # of iterations =  3.5

     End of self-consistent calculation

     Number of k-points >= 100: set verbosity='high' to print the bands.

     the Fermi energy is    21.9365 ev

!    total energy              =    -688.35700726 Ry
     Harris-Foulkes estimate   =    -688.35701106 Ry
     estimated scf accuracy    <       0.00000433 Ry

     The total energy is the sum of the following terms:

     one-electron contribution =    -131.06276945 Ry
     hartree contribution      =     103.79386333 Ry
     xc contribution           =     -65.86607432 Ry
     ewald contribution        =    -595.16753304 Ry
     smearing contrib. (-TS)   =      -0.05449378 Ry

     convergence has been achieved in  11 iterations

     Forces acting on atoms (Ry/au):

     atom    1 type  1   force =     0.00000000    0.00000000    0.00000000
     atom    2 type  1   force =     0.03115261    0.00636888    0.00375753
     atom    3 type  1   force =    -0.03115261   -0.00636888   -0.00375753

     Total force =     0.045281     Total SCF correction =     0.000000

     entering subroutine stress ...

          total   stress  (Ry/bohr**3)                   (kbar)     P= -505.16
  -0.00332220   0.00003676   0.00002182       -488.71      5.41      3.21
   0.00003676  -0.00348641   0.00000573          5.41   -512.87      0.84
   0.00002182   0.00000573  -0.00349334          3.21      0.84   -513.89

     Writing output data file Element-Tb.q.save

     General routines

     Parallel routines

   This run was terminated on:  23:46:13  21Mar2018

   JOB DONE.