     Program PWSCF v.5.0.2 starts on 23Mar2018 at  2:18:15

     Current dimensions of program PWSCF are:
     Max number of different atomic species (ntypx) = 10
     Max number of k-points (npk) =  40000
     Max angular momentum in pseudopotentials (lmaxx) =  3
     Waiting for input...
     Reading input from standard input

     Subspace diagonalization in iterative solution of the eigenvalue problem:
     a serial algorithm will be used

     bravais-lattice index     =            0
     lattice parameter (alat)  =       9.9235  a.u.
     unit-cell volume          =    1361.0366 (a.u.)^3
     number of atoms/cell      =           12
     number of atomic types    =            2
     number of electrons       =       248.00
     number of Kohn-Sham states=          149
     kinetic-energy cutoff     =      40.0000  Ry
     charge density cutoff     =     160.0000  Ry
     convergence threshold     =      1.0E-04
     mixing beta               =       0.7000
     number of iterations used =            8  plain     mixing
     Exchange-correlation      = SLA-PZ-NOGX-NOGC ( 1 1 0 0 0)
     EXX-fraction              =        0.00
     nstep                     =           50

     celldm(1)=   9.923489  celldm(2)=   0.000000  celldm(3)=   0.000000
     celldm(4)=   0.000000  celldm(5)=   0.000000  celldm(6)=   0.000000

     crystal axes: (cart. coord. in units of alat)
               a(1) = (   1.000000   0.000000   0.000000 )
               a(2) = (  -0.500000   0.866025   0.000000 )
               a(3) = (   0.000000   0.000000   1.608222 )

     reciprocal axes: (cart. coord. in units 2 pi/alat)
               b(1) = (  1.000000  0.577350  0.000000 )
               b(2) = (  0.000000  1.154701  0.000000 )
               b(3) = (  0.000000  0.000000  0.621805 )

     PseudoPot. # 1 for Dy read from file:
     /home/cwx6513/pp.La/Dy.UPF
     MD5 check sum: 9597327bec62616a94a14d07f3fd9936
     Pseudo is Norm-conserving, Zval = 20.0
     Generated in analytical, separable form
     Using radial grid of 1265 points,  6 beta functions with:
                l(1) =   0
                l(2) =   0
                l(3) =   1
                l(4) =   1
                l(5) =   2
                l(6) =   3

     PseudoPot. # 2 for Ho read from file:
     /home/cwx6513/pp.La/Ho.UPF
     MD5 check sum: f307ee11bce99f5b724fa279e3790763
     Pseudo is Norm-conserving, Zval = 21.0
     Generated in analytical, separable form
     Using radial grid of 1265 points,  6 beta functions with:
                l(1) =   0
                l(2) =   0
                l(3) =   1
                l(4) =   1
                l(5) =   2
                l(6) =   3

     atomic species   valence    mass     pseudopotential
        Mg            20.00    24.30500     Dy( 1.00)
        Zn            21.00    65.39000     Ho( 1.00)

     24 Sym. Ops., with inversion, found (12 have fractional translation)

   Cartesian axes

     site n.     atom                  positions (alat units)
         1           Mg  tau(   1) = (  -0.0000005   0.5773506   0.1003820  )
         2           Mg  tau(   2) = (   0.5000005   0.2886748   0.9044931  )
         3           Mg  tau(   3) = (   0.5000005   0.2886748   1.5078402  )
         4           Mg  tau(   4) = (  -0.0000005   0.5773506   0.7037291  )
         5           Zn  tau(   5) = (   0.0000000   0.0000000   0.0000000  )
         6           Zn  tau(   6) = (   0.0000000   0.0000000   0.8041111  )
         7           Zn  tau(   7) = (   0.0000000   0.2950739   1.2061667  )
         8           Zn  tau(   8) = (   0.7444585   0.1475370   0.4020556  )
         9           Zn  tau(   9) = (   0.2555415   0.1475370   0.4020556  )
        10           Zn  tau(  10) = (   0.2444585   0.7184884   1.2061667  )
        11           Zn  tau(  11) = (  -0.2444585   0.7184884   1.2061667  )
        12           Zn  tau(  12) = (   0.5000000   0.5709515   0.4020556  )

     number of k points=    12  gaussian smearing, width (Ry)=  0.1000
                       cart. coord. in units 2pi/alat
        k(    1) = (   0.0000000   0.0000000   0.0000000), wk =   0.0833333
        k(    2) = (   0.0000000   0.0000000   0.1554512), wk =   0.1666667
        k(    3) = (   0.0000000   0.0000000  -0.3109023), wk =   0.0833333
        k(    4) = (   0.0000000   0.3849002   0.0000000), wk =   0.1666667
        k(    5) = (   0.0000000   0.3849002   0.1554512), wk =   0.3333333
        k(    6) = (   0.0000000   0.3849002  -0.3109023), wk =   0.1666667
        k(    7) = (  -0.5000000  -0.2886751   0.0000000), wk =   0.0833333
        k(    8) = (  -0.5000000  -0.2886751   0.1554512), wk =   0.1666667
        k(    9) = (  -0.5000000  -0.2886751  -0.3109023), wk =   0.0833333
        k(   10) = (  -0.5000000   0.0962250   0.0000000), wk =   0.1666667
        k(   11) = (  -0.5000000   0.0962250   0.1554512), wk =   0.3333333
        k(   12) = (  -0.5000000   0.0962250  -0.3109023), wk =   0.1666667

     Largest allocated arrays     est. size (Mb)     dimensions
     Largest temporary arrays     est. size (Mb)     dimensions

     Initial potential from superposition of free atoms

     Starting from uniform charge
     Starting wfc are    0 randomized atomic wfcs

     Self-consistent Calculation

     iteration #  1     ecut=    40.00 Ry     beta=0.70
     CG style diagonalization
     c_bands:  2 eigenvalues not converged
     c_bands:  3 eigenvalues not converged
     c_bands:  2 eigenvalues not converged
     c_bands:  1 eigenvalues not converged
     c_bands:  1 eigenvalues not converged
     ethr =  1.00E-02,  avg # of iterations = 20.3

     total energy              =   -2602.05620206 Ry
     Harris-Foulkes estimate   =   -4156.17806735 Ry
     estimated scf accuracy    <    1905.56176652 Ry

     iteration #  2     ecut=    40.00 Ry     beta=0.70
     CG style diagonalization
     ethr =  1.00E-02,  avg # of iterations = 18.4

[...]

     End of self-consistent calculation

          k = 0.0000 0.0000 0.0000 (  5769 PWs)   bands (ev):

   -60.3964 -60.3489 -60.3441 -60.2557 -60.2437 -60.2436 -60.2351 -60.2351
   -50.0081 -50.0076 -49.9968 -49.9947 -25.6658 -25.4583 -25.1767 -24.8544
   -24.8544 -24.8084 -24.8084 -24.7358 -24.7357 -24.7032 -24.5605 -24.4626
   -24.4626 -24.4440 -24.4440 -24.2318 -24.2318 -24.2298 -24.1794 -24.1793
   -24.1779 -24.1778 -24.1604 -24.1447 -17.0428 -17.0344 -17.0259 -17.0259
   -17.0082 -17.0081 -16.9599 -16.9353 -16.9321 -16.9321 -16.9284 -16.9284
    14.0152  14.6615  15.0755  16.0265  16.0265  16.3054  16.3054  16.5343
    16.5698  16.5698  17.0191  17.0191  17.6285  17.6973  17.9749  17.9750
    18.2233  18.2954  18.2954  19.0784  19.2267  19.2267  19.4291  19.4292
    19.5297  20.2319  20.2319  20.2709  20.2709  20.3038  20.3216  20.3217
    20.3255  20.3256  20.3650  20.7023  21.3962  21.3962  21.7818  21.9720
    21.9720  22.7933  22.7946  22.9648  22.9756  22.9757  23.1540  23.1541
    23.4386  23.4386  23.5464  23.5464  23.7553  23.8321  24.1663  24.1664
    24.2269  24.2269  24.9330  24.9330  25.1011  25.1011  25.1539  27.7496
    27.7849  29.8115  29.8116  30.0845  30.5666  30.5667  32.2303  32.5020
    32.7009  32.7010  32.7858  32.9640  33.2215  33.2215  34.0146  34.0146
    34.2384  34.8168  34.8169  36.2487  37.5901  37.5902  37.9296  38.1659
    38.4944  38.5381  38.5381  38.7044  38.7045  38.7820  38.8943  38.8943
    38.9350  38.9350  39.2688  40.2232  40.3293

[...]

          k =-0.5000-0.2887 0.0000 (  5800 PWs)   bands (ev):

[...]

     the Fermi energy is    34.3431 ev

!    total energy              =   -3386.76876514 Ry
     Harris-Foulkes estimate   =   -3386.76881033 Ry
     estimated scf accuracy    <       0.00005413 Ry

     The total energy is the sum of the following terms:

     one-electron contribution =    -547.04128175 Ry
     hartree contribution      =     490.37788153 Ry
     xc contribution           =    -307.28026655 Ry
     ewald contribution        =   -3022.53948110 Ry
     smearing contrib. (-TS)   =      -0.28561727 Ry

     convergence has been achieved in  10 iterations

     Forces acting on atoms (Ry/au):

     atom    1 type  1   force =     0.00000000    0.00000000    0.01218756
     atom    2 type  1   force =     0.00000000    0.00000000    0.01218756
     atom    3 type  1   force =     0.00000000    0.00000000   -0.01218756
     atom    4 type  1   force =     0.00000000    0.00000000   -0.01218756
     atom    5 type  2   force =     0.00000000    0.00000000    0.00000000
     atom    6 type  2   force =     0.00000000    0.00000000    0.00000000
     atom    7 type  2   force =     0.00000000    0.09243613    0.00000000
     atom    8 type  2   force =    -0.08005204    0.04621806    0.00000000
     atom    9 type  2   force =     0.08005204    0.04621806    0.00000000
     atom   10 type  2   force =    -0.08005204   -0.04621806    0.00000000
     atom   11 type  2   force =     0.08005204   -0.04621806    0.00000000
     atom   12 type  2   force =     0.00000000   -0.09243613    0.00000000

     Total force =     0.227730     Total SCF correction =     0.000000

     entering subroutine stress ...

          total   stress  (Ry/bohr**3)                   (kbar)     P= 1093.55
   0.00748166   0.00000000   0.00000000       1100.59      0.00      0.00
   0.00000000   0.00748166   0.00000000          0.00   1100.59      0.00
   0.00000000   0.00000000   0.00733800          0.00      0.00   1079.46

     BFGS Geometry Optimization

     number of scf cycles    =   1
     number of bfgs steps    =   0

     enthalpy new            =   -3386.7687651411 Ry

     new trust radius        =       0.5000000000 bohr
     new conv_thr            =       0.0001000000 Ry

     new unit-cell volume =   1654.88268 a.u.^3 (   245.22831 Ang^3 )

CELL_PARAMETERS (alat=  9.92348860)
   1.067764947   0.000000000   0.000000000
  -0.533882474   0.924711570   0.000000000
   0.000000000   0.000000000   1.715110617

ATOMIC_POSITIONS (crystal)
Mg       0.333333000   0.666667000   0.062694677
Mg       0.666667000   0.333333000   0.562694677
Mg       0.666667000   0.333333000   0.937305323
Mg       0.333333000   0.666667000   0.437305323
Zn       0.000000000   0.000000000   0.000000000
Zn       0.000000000   0.000000000   0.500000000
Zn       0.172309425   0.344618849   0.750000000
Zn       0.827690575   0.172309425   0.250000000
Zn       0.344618849   0.172309425   0.250000000
Zn       0.655381151   0.827690575   0.750000000
Zn       0.172309425   0.827690575   0.750000000
Zn       0.827690575   0.655381151   0.250000000

     Writing output data file Prototype-La-hP12-MgZn2.save
     NEW-OLD atomic charge density approx. for the potential
     NEW k-points:
        k(    1) = (   0.0000000   0.0000000   0.0000000), wk =   0.0833333
        k(    2) = (   0.0000000   0.0000000   0.1457632), wk =   0.1666667
        k(    3) = (   0.0000000   0.0000000  -0.2915264), wk =   0.0833333
        k(    4) = (   0.0000000   0.3604728   0.0000000), wk =   0.1666667
        k(    5) = (   0.0000000   0.3604728   0.1457632), wk =   0.3333333
        k(    6) = (   0.0000000   0.3604728  -0.2915264), wk =   0.1666667
        k(    7) = (  -0.4682679  -0.2703546   0.0000000), wk =   0.0833333
        k(    8) = (  -0.4682679  -0.2703546   0.1457632), wk =   0.1666667
        k(    9) = (  -0.4682679  -0.2703546  -0.2915264), wk =   0.0833333
        k(   10) = (  -0.4682679   0.0901182   0.0000000), wk =   0.1666667
        k(   11) = (  -0.4682679   0.0901182   0.1457632), wk =   0.3333333
        k(   12) = (  -0.4682679   0.0901182  -0.2915264), wk =   0.1666667

[...]

     enthalpy old            =   -3386.7687651411 Ry
     enthalpy new            =   -3387.4562089160 Ry

     CASE: enthalpy_new < enthalpy_old

     small trust_radius: resetting bfgs history

     new trust radius        =       0.3564182996 bohr
     new conv_thr            =       0.0000195406 Ry

[...]

     number of scf cycles    =   3
     number of bfgs steps    =   2

     enthalpy old            =   -3387.4562089160 Ry
     enthalpy new            =   -3387.3110373122 Ry

     CASE: enthalpy_new > enthalpy_old

     new trust radius        =       0.1224379849 bohr

     trust_radius < trust_radius_min

     resetting bfgs history

     Message from routine bfgs:
     history already reset at previous step: stopping
     new conv_thr            =       0.0000195406 Ry

     new unit-cell volume =   1451.62485 a.u.^3 (   215.10861 Ang^3 )

[...]

ATOMIC_POSITIONS (crystal)
Mg       0.333333000   0.666667000   0.063778517
Mg       0.666667000   0.333333000   0.563778517
Mg       0.666667000   0.333333000   0.936221483
Mg       0.333333000   0.666667000   0.436221483
Zn       0.000000000   0.000000000   0.000000000
Zn       0.000000000   0.000000000   0.500000000
Zn       0.173463739   0.346927478   0.750000000
Zn       0.826536261   0.173463739   0.250000000
Zn       0.346927478   0.173463739   0.250000000
Zn       0.653072522   0.826536261   0.750000000
Zn       0.173463739   0.826536261   0.750000000
Zn       0.826536261   0.653072522   0.250000000

     Writing output data file Prototype-La-hP12-MgZn2.save
     NEW-OLD atomic charge density approx. for the potential
     NEW k-points:
        k(    1) = (   0.0000000   0.0000000   0.0000000), wk =   0.0833333
        k(    2) = (   0.0000000   0.0000000   0.1526976), wk =   0.1666667
        k(    3) = (   0.0000000   0.0000000  -0.3053952), wk =   0.0833333
        k(    4) = (   0.0000000   0.3760423   0.0000000), wk =   0.1666667
        k(    5) = (   0.0000000   0.3760423   0.1526976), wk =   0.3333333
        k(    6) = (   0.0000000   0.3760423  -0.3053952), wk =   0.1666667
        k(    7) = (  -0.4884932  -0.2820317   0.0000000), wk =   0.0833333
        k(    8) = (  -0.4884932  -0.2820317   0.1526976), wk =   0.1666667
        k(    9) = (  -0.4884932  -0.2820317  -0.3053952), wk =   0.0833333
        k(   10) = (  -0.4884932   0.0940106   0.0000000), wk =   0.1666667
        k(   11) = (  -0.4884932   0.0940106   0.1526976), wk =   0.3333333
        k(   12) = (  -0.4884932   0.0940106  -0.3053952), wk =   0.1666667

[...]

     The maximum number of steps has been reached.

     End of BFGS Geometry Optimization
Begin final coordinates
     new unit-cell volume =   1451.62485 a.u.^3 (   215.10861 Ang^3 )

CELL_PARAMETERS (alat=  9.92348860)
   1.023555623   0.000000000   0.000000000
  -0.511777811   0.886425172   0.000000000
   0.000000000   0.000000000   1.637222634

ATOMIC_POSITIONS (crystal)
Mg       0.333333000   0.666667000   0.063778517
Mg       0.666667000   0.333333000   0.563778517
Mg       0.666667000   0.333333000   0.936221483
Mg       0.333333000   0.666667000   0.436221483
Zn       0.000000000   0.000000000   0.000000000
Zn       0.000000000   0.000000000   0.500000000
Zn       0.173463739   0.346927478   0.750000000
Zn       0.826536261   0.173463739   0.250000000
Zn       0.346927478   0.173463739   0.250000000
Zn       0.653072522   0.826536261   0.750000000
Zn       0.173463739   0.826536261   0.750000000
Zn       0.826536261   0.653072522   0.250000000
End final coordinates

     A final scf calculation at the relaxed structure.
     The G-vectors are recalculated for the final unit cell
     Results may differ from those at the preceding step.

     bravais-lattice index     =            0
     lattice parameter (alat)  =       9.9235  a.u.
     unit-cell volume          =    1451.6248 (a.u.)^3
     number of atoms/cell      =           12
     number of atomic types    =            2
     number of electrons       =       248.00
     number of Kohn-Sham states=          149
     kinetic-energy cutoff     =      40.0000  Ry
     charge density cutoff     =     160.0000  Ry
     convergence threshold     =      2.0E-05
     mixing beta               =       0.7000
     number of iterations used =            8  plain     mixing
     Exchange-correlation      = SLA-PZ-NOGX-NOGC ( 1 1 0 0 0)
     EXX-fraction              =        0.00

     celldm(1)=   9.923489  celldm(2)=   0.000000  celldm(3)=   0.000000
     celldm(4)=   0.000000  celldm(5)=   0.000000  celldm(6)=   0.000000

     crystal axes: (cart. coord. in units of alat)
               a(1) = (   1.023556   0.000000   0.000000 )
               a(2) = (  -0.511778   0.886425   0.000000 )
               a(3) = (   0.000000   0.000000   1.637223 )

     reciprocal axes: (cart. coord. in units 2 pi/alat)
               b(1) = (  0.976986  0.564063  0.000000 )
               b(2) = (  0.000000  1.128127  0.000000 )
               b(3) = (  0.000000  0.000000  0.610790 )

     PseudoPot. # 1 for Dy read from file:
     /home/cwx6513/pp.La/Dy.UPF
     MD5 check sum: 9597327bec62616a94a14d07f3fd9936
     Pseudo is Norm-conserving, Zval = 20.0
     Generated in analytical, separable form
     Using radial grid of 1265 points,  6 beta functions with:
                l(1) =   0
                l(2) =   0
                l(3) =   1
                l(4) =   1
                l(5) =   2
                l(6) =   3

     PseudoPot. # 2 for Ho read from file:
     /home/cwx6513/pp.La/Ho.UPF
     MD5 check sum: f307ee11bce99f5b724fa279e3790763
     Pseudo is Norm-conserving, Zval = 21.0
     Generated in analytical, separable form
     Using radial grid of 1265 points,  6 beta functions with:
                l(1) =   0
                l(2) =   0
                l(3) =   1
                l(4) =   1
                l(5) =   2
                l(6) =   3

     atomic species   valence    mass     pseudopotential
        Mg            20.00    24.30500     Dy( 1.00)
        Zn            21.00    65.39000     Ho( 1.00)

     24 Sym. Ops., with inversion, found (12 have fractional translation)

   Cartesian axes

     site n.     atom                  positions (alat units)
         1           Mg  tau(   1) = (  -0.0000005   0.5909504   0.1044196  )
         2           Mg  tau(   2) = (   0.5117783   0.2954748   0.9230309  )
         3           Mg  tau(   3) = (   0.5117783   0.2954748   1.5328030  )
         4           Mg  tau(   4) = (  -0.0000005   0.5909504   0.7141917  )
         5           Zn  tau(   5) = (   0.0000000   0.0000000   0.0000000  )
         6           Zn  tau(   6) = (   0.0000000   0.0000000   0.8186113  )
         7           Zn  tau(   7) = (   0.0000000   0.3075252   1.2279170  )
         8           Zn  tau(   8) = (   0.7572309   0.1537626   0.4093057  )
         9           Zn  tau(   9) = (   0.2663247   0.1537626   0.4093057  )
        10           Zn  tau(  10) = (   0.2454531   0.7326625   1.2279170  )
        11           Zn  tau(  11) = (  -0.2454531   0.7326625   1.2279170  )
        12           Zn  tau(  12) = (   0.5117778   0.5788999   0.4093057  )

     number of k points=    12  gaussian smearing, width (Ry)=  0.1000
                       cart. coord. in units 2pi/alat
        k(    1) = (   0.0000000   0.0000000   0.0000000), wk =   0.0833333
        k(    2) = (   0.0000000   0.0000000   0.1526976), wk =   0.1666667
        k(    3) = (   0.0000000   0.0000000  -0.3053952), wk =   0.0833333
        k(    4) = (   0.0000000   0.3760423   0.0000000), wk =   0.1666667
        k(    5) = (   0.0000000   0.3760423   0.1526976), wk =   0.3333333
        k(    6) = (   0.0000000   0.3760423  -0.3053952), wk =   0.1666667
        k(    7) = (  -0.4884932  -0.2820317   0.0000000), wk =   0.0833333
        k(    8) = (  -0.4884932  -0.2820317   0.1526976), wk =   0.1666667
        k(    9) = (  -0.4884932  -0.2820317  -0.3053952), wk =   0.0833333
        k(   10) = (  -0.4884932   0.0940106   0.0000000), wk =   0.1666667
        k(   11) = (  -0.4884932   0.0940106   0.1526976), wk =   0.3333333
        k(   12) = (  -0.4884932   0.0940106  -0.3053952), wk =   0.1666667

     Largest allocated arrays     est. size (Mb)     dimensions
     Largest temporary arrays     est. size (Mb)     dimensions

     Initial potential from superposition of free atoms

     Starting from uniform charge
     Starting wfc are    0 randomized atomic wfcs

     Writing output data file Prototype-La-hP12-MgZn2.save

     Self-consistent Calculation

[...]

     iteration #  9     ecut=    40.00 Ry     beta=0.70
     CG style diagonalization
     c_bands:  1 eigenvalues not converged
     c_bands:  1 eigenvalues not converged
     c_bands:  1 eigenvalues not converged
     ethr =  1.76E-06,  avg # of iterations =  4.4

[...]

     total energy              =   -3387.90569063 Ry
     Harris-Foulkes estimate   =   -3387.90571104 Ry
     estimated scf accuracy    <       0.00003508 Ry

     iteration # 11     ecut=    40.00 Ry     beta=0.70
     CG style diagonalization
     ethr =  1.41E-08,  avg # of iterations =  3.8

     End of self-consistent calculation

[...]

          k = 0.0000 0.3760-0.3054 (  6196 PWs)   bands (ev):

[...]

          k =-0.4885 0.0940-0.3054 (  6192 PWs)   bands (ev):

   -62.3893 -62.3893 -62.3467 -62.3467 -62.3140 -62.3140 -62.2937 -62.2937
   -52.1575 -52.1575 -52.1527 -52.1527 -27.2059 -27.2059 -26.9888 -26.9888
   -26.7473 -26.7473 -26.7008 -26.7008 -26.6443 -26.6443 -26.6009 -26.6009
   -26.5033 -26.5033 -26.4331 -26.4331 -26.3436 -26.3436 -26.3178 -26.3177
   -26.3101 -26.3101 -26.2871 -26.2871 -19.1567 -19.1567 -19.1339 -19.1339
   -19.1202 -19.1202 -19.0965 -19.0965 -19.0751 -19.0750 -19.0676 -19.0676
    13.9369  13.9369  14.6658  14.6658  14.9748  14.9748  15.2460  15.2460
    15.3148  15.3148  15.8176  15.8176  15.9980  15.9980  16.2304  16.2304
    16.5253  16.5253  16.6413  16.6413  16.9255  16.9255  17.1059  17.1059
    17.3612  17.3612  17.7848  17.7848  17.8928  17.8928  18.1085  18.1085
    18.2355  18.2355  18.3254  18.3254  18.5516  18.5516  18.9233  18.9233
    19.4671  19.4671  20.2174  20.2174  21.2552  21.2552  21.4619  21.4620
    21.5676  21.5676  21.6877  21.6877  21.8700  21.8700  22.1913  22.1913
    22.4777  22.4777  22.6521  22.6521  22.7204  22.7204  23.2665  23.2665
    24.3246  24.3246  26.1514  26.1514  28.1915  28.1915  28.6843  28.6843
    30.1239  30.1239  31.1718  31.1718  33.1367  33.1367  33.9638  33.9638
    34.5764  34.5764  35.4173  35.4173  35.7198  35.7198  36.0827  36.0827
    36.3958  36.3958  36.6903  36.6903  37.1171  37.1171  37.4100  37.4100
    37.7738  37.7738  38.4451  38.4454  38.9173

     the Fermi energy is    31.7840 ev

!    total energy              =   -3387.90570146 Ry
     Harris-Foulkes estimate   =   -3387.90570435 Ry
     estimated scf accuracy    <       0.00000330 Ry

     The total energy is the sum of the following terms:

     one-electron contribution =    -637.93683107 Ry
     hartree contribution      =     516.59112731 Ry
     xc contribution           =    -306.04833795 Ry
     ewald contribution        =   -2960.22399376 Ry
     smearing contrib. (-TS)   =      -0.28766599 Ry

     convergence has been achieved in  11 iterations

     Forces acting on atoms (Ry/au):

     atom    1 type  1   force =     0.00000000    0.00000000    0.02596202
     atom    2 type  1   force =     0.00000000    0.00000000    0.02596202
     atom    3 type  1   force =     0.00000000    0.00000000   -0.02596202
     atom    4 type  1   force =     0.00000000    0.00000000   -0.02596202
     atom    5 type  2   force =     0.00000000    0.00000000    0.00000000
     atom    6 type  2   force =     0.00000000    0.00000000    0.00000000
     atom    7 type  2   force =     0.00000000   -0.04993005    0.00000000
     atom    8 type  2   force =     0.04324069   -0.02496502    0.00000000
     atom    9 type  2   force =    -0.04324069   -0.02496502    0.00000000
     atom   10 type  2   force =     0.04324069    0.02496502    0.00000000
     atom   11 type  2   force =    -0.04324069    0.02496502    0.00000000
     atom   12 type  2   force =     0.00000000    0.04993005    0.00000000

     Total force =     0.132869     Total SCF correction =     0.000000

     entering subroutine stress ...

          total   stress  (Ry/bohr**3)                   (kbar)     P=  691.58
   0.00485270   0.00000000   0.00000000        713.86      0.00      0.00
   0.00000000   0.00485270   0.00000000          0.00    713.86      0.00
   0.00000000   0.00000000   0.00439833          0.00      0.00    647.02

     Writing output data file Prototype-La-hP12-MgZn2.save

     General routines

     Parallel routines

   This run was terminated on:   2:50:38  23Mar2018

   JOB DONE.