     Program PWSCF v.5.0.2 starts on 23Mar2018 at  2:18:16

     Current dimensions of program PWSCF are:
     Max number of different atomic species (ntypx) = 10
     Max number of k-points (npk) =  40000
     Max angular momentum in pseudopotentials (lmaxx) =  3
     Waiting for input...
     Reading input from standard input

     Subspace diagonalization in iterative solution of the eigenvalue problem:
     a serial algorithm will be used

     bravais-lattice index     =            0
     lattice parameter (alat)  =       7.0151  a.u.
     unit-cell volume          =     862.2778 (a.u.)^3
     number of atoms/cell      =           12
     number of atomic types    =            2
     number of electrons       =       244.00
     number of Kohn-Sham states=          146
     kinetic-energy cutoff     =      40.0000  Ry
     charge density cutoff     =     160.0000  Ry
     convergence threshold     =      1.0E-04
     mixing beta               =       0.7000
     number of iterations used =            8  plain     mixing
     Exchange-correlation      = SLA-PZ-NOGX-NOGC ( 1 1 0 0 0)
     EXX-fraction              =        0.00
     nstep                     =           50

     celldm(1)=   7.015105  celldm(2)=   0.000000  celldm(3)=   0.000000
     celldm(4)=   0.000000  celldm(5)=   0.000000  celldm(6)=   0.000000

     crystal axes: (cart. coord. in units of alat)
               a(1) = (   1.000000   0.000000   0.000000 )
               a(2) = (   0.000000   1.315963   0.000000 )
               a(3) = (   0.000000   0.000000   1.898020 )

     reciprocal axes: (cart. coord. in units 2 pi/alat)
               b(1) = (  1.000000  0.000000  0.000000 )
               b(2) = (  0.000000  0.759900  0.000000 )
               b(3) = (  0.000000  0.000000  0.526865 )

     PseudoPot. # 1 for Dy read from file:
     /home/cwx6513/pp.La/Dy.UPF
     MD5 check sum: 9597327bec62616a94a14d07f3fd9936
     Pseudo is Norm-conserving, Zval = 20.0
     Generated in analytical, separable form
     Using radial grid of 1265 points,  6 beta functions with:
                l(1) =   0
                l(2) =   0
                l(3) =   1
                l(4) =   1
                l(5) =   2
                l(6) =   3

     PseudoPot. # 2 for Ho read from file:
     /home/cwx6513/pp.La/Ho.UPF
     MD5 check sum: f307ee11bce99f5b724fa279e3790763
     Pseudo is Norm-conserving, Zval = 21.0
     Generated in analytical, separable form
     Using radial grid of 1265 points,  6 beta functions with:
                l(1) =   0
                l(2) =   0
                l(3) =   1
                l(4) =   1
                l(5) =   2
                l(6) =   3

     atomic species   valence    mass     pseudopotential
        Co            20.00    58.93320     Dy( 1.00)
        Si            21.00    28.08550     Ho( 1.00)

      8 Sym. Ops., with inversion, found ( 6 have fractional translation)

   Cartesian axes

     site n.     atom                  positions (alat units)
         1           Co  tau(   1) = (   0.7500000   1.0875135   0.8270358  )
         2           Co  tau(   2) = (   0.2500000   0.2284499   1.0709846  )
         3           Co  tau(   3) = (   0.7500000   0.4295318   0.1219744  )
         4           Co  tau(   4) = (   0.2500000   0.8864316   1.7760460  )
         5           Co  tau(   5) = (   0.2500000   0.7067855   0.5358966  )
         6           Co  tau(   6) = (   0.7500000   0.6091779   1.3621238  )
         7           Co  tau(   7) = (   0.2500000   0.0488038   0.4131136  )
         8           Co  tau(   8) = (   0.7500000   1.2671596   1.4849068  )
         9           Si  tau(   9) = (   0.2500000   0.2669484   1.6960710  )
        10           Si  tau(  10) = (   0.7500000   1.0490149   0.2019494  )
        11           Si  tau(  11) = (   0.2500000   0.9249301   1.1509596  )
        12           Si  tau(  12) = (   0.7500000   0.3910333   0.7470608  )

     number of k points=    12  gaussian smearing, width (Ry)=  0.1000
                       cart. coord. in units 2pi/alat
        k(    1) = (   0.0000000   0.0000000   0.0000000), wk =   0.0833333
        k(    2) = (   0.0000000   0.0000000   0.1317162), wk =   0.1666667
        k(    3) = (   0.0000000   0.0000000  -0.2634324), wk =   0.0833333
        k(    4) = (   0.0000000   0.2532999   0.0000000), wk =   0.1666667
        k(    5) = (   0.0000000   0.2532999   0.1317162), wk =   0.3333333
        k(    6) = (   0.0000000   0.2532999  -0.2634324), wk =   0.1666667
        k(    7) = (  -0.5000000   0.0000000   0.0000000), wk =   0.0833333
        k(    8) = (  -0.5000000   0.0000000   0.1317162), wk =   0.1666667
        k(    9) = (  -0.5000000   0.0000000  -0.2634324), wk =   0.0833333
        k(   10) = (  -0.5000000   0.2532999   0.0000000), wk =   0.1666667
        k(   11) = (  -0.5000000   0.2532999   0.1317162), wk =   0.3333333
        k(   12) = (  -0.5000000   0.2532999  -0.2634324), wk =   0.1666667

     Largest allocated arrays     est. size (Mb)     dimensions
     Largest temporary arrays     est. size (Mb)     dimensions

     Initial potential from superposition of free atoms

     Starting from uniform charge
     Starting wfc are    0 randomized atomic wfcs

     Self-consistent Calculation

     iteration #  1     ecut=    40.00 Ry     beta=0.70
     CG style diagonalization
     c_bands:  4 eigenvalues not converged
     c_bands:  3 eigenvalues not converged
     ethr =  1.00E-02,  avg # of iterations = 14.9

     total energy              =   -2993.94183848 Ry
     Harris-Foulkes estimate   =   -3623.70787761 Ry
     estimated scf accuracy    <     817.99874390 Ry

     iteration #  2     ecut=    40.00 Ry     beta=0.70
     CG style diagonalization
     ethr =  1.00E-02,  avg # of iterations =  8.1

[...]

     End of self-consistent calculation

          k = 0.0000 0.0000 0.0000 (  3675 PWs)   bands (ev):

   -41.8802 -41.8561 -41.8506 -41.8471 -33.3230 -33.2086 -33.1860 -33.1306
   -33.0640 -32.9546 -32.8752 -32.8722  -7.1254  -6.9403  -6.9054  -6.8246
    -6.8242  -6.8105  -6.6722  -6.6469  -6.5403  -6.5385  -6.3655  -6.2968
    -1.6297  -1.3936  -1.2381  -1.0859  -0.8841  -0.8690  -0.8558  -0.7555
    -0.5292  -0.5278  -0.5124  -0.4697  -0.3399  -0.3291  -0.1743  -0.1395
    -0.1003  -0.0974  -0.0020   0.1031   0.3085   0.4170   0.5568   0.6288
    31.4878  31.6961  31.7561  32.1356  32.3893  32.3929  32.4080  32.6462
    32.8044  33.2627  33.3894  33.6128  33.8389  33.9683  33.9989  34.2032
    34.2755  35.5444  35.7083  35.8573  35.9067  36.2073  36.3683  37.0515
    37.2106  37.3019  37.3273  37.6033  38.0609  38.1682  38.2611  38.5352
    38.5735  38.7906  38.8517  39.0725  39.8114  40.2276  40.2718  40.2754
    40.3273  40.6160  40.9396  41.5689  42.0703  42.1570  42.3368  42.3929
    43.3673  43.4769  43.4996  43.8642  43.8708  43.9128  44.2233  44.4961
    44.5992  44.7797  44.9316  45.2990  45.4566  45.6931  45.8743  48.4831
    49.6930  49.6964  50.0426  50.9501  53.6607  53.8668  54.9182  55.3300
    56.1534  56.9806  57.0958  57.1241  57.1904  57.1910  57.2449  57.4721
    57.6315  58.1047  58.1137  58.2497  58.5168  58.5277  59.0831  59.7675
    59.9859  60.0698  60.2313  60.2345  60.5172  60.6015  60.6725  61.0922
    61.1131  61.3638

[...]

          k =-0.5000 0.0000 0.0000 (  3722 PWs)   bands (ev):

[...]

     the Fermi energy is    56.2641 ev

!    total energy              =   -3240.96499184 Ry
     Harris-Foulkes estimate   =   -3240.96504192 Ry
     estimated scf accuracy    <       0.00005726 Ry

     The total energy is the sum of the following terms:

     one-electron contribution =     244.94575178 Ry
     hartree contribution      =     263.82014442 Ry
     xc contribution           =    -311.13732023 Ry
     ewald contribution        =   -3438.19885655 Ry
     smearing contrib. (-TS)   =      -0.39471127 Ry

     convergence has been achieved in   9 iterations

     Forces acting on atoms (Ry/au):

     atom    1 type  1   force =     0.00000000   -0.08362086   -0.11417915
     atom    2 type  1   force =     0.00000000    0.08362086    0.11417915
     atom    3 type  1   force =     0.00000000   -0.08362086    0.11417915
     atom    4 type  1   force =     0.00000000    0.08362086   -0.11417915
     atom    5 type  1   force =     0.00000000    0.14430590   -0.25067428
     atom    6 type  1   force =     0.00000000   -0.14430590    0.25067428
     atom    7 type  1   force =     0.00000000    0.14430590    0.25067428
     atom    8 type  1   force =     0.00000000   -0.14430590   -0.25067428
     atom    9 type  2   force =     0.00000000   -0.19392018   -0.02188656
     atom   10 type  2   force =     0.00000000    0.19392018    0.02188656
     atom   11 type  2   force =     0.00000000   -0.19392018    0.02188656
     atom   12 type  2   force =     0.00000000    0.19392018   -0.02188656

     Total force =     0.753061     Total SCF correction =     0.000000

     entering subroutine stress ...

          total   stress  (Ry/bohr**3)                   (kbar)     P= 7497.53
   0.05287887   0.00000000   0.00000000       7778.75      0.00      0.00
   0.00000000   0.04866105   0.00000000          0.00   7158.29      0.00
   0.00000000   0.00000000   0.05136170          0.00      0.00   7555.57

     BFGS Geometry Optimization

     number of scf cycles    =   1
     number of bfgs steps    =   0

     enthalpy new            =   -3240.9649918393 Ry

     new trust radius        =       0.5000000000 bohr
     new conv_thr            =       0.0001000000 Ry

     new unit-cell volume =   1092.43445 a.u.^3 (   161.88208 Ang^3 )

CELL_PARAMETERS (alat=  7.01510508)
   1.085136619   0.000000000   0.000000000
   0.000000000   1.419063570   0.000000000
   0.000000000   0.000000000   2.054975147

ATOMIC_POSITIONS (crystal)
Co       0.750000000   0.825817648   0.435183737
Co       0.250000000   0.174182352   0.564816263
Co       0.750000000   0.325817648   0.064816263
Co       0.250000000   0.674182352   0.935183737
Co       0.250000000   0.538092701   0.281132536
Co       0.750000000   0.461907299   0.718867464
Co       0.250000000   0.038092701   0.218867464
Co       0.750000000   0.961907299   0.781132536
Si       0.250000000   0.201501182   0.893494139
Si       0.750000000   0.798498818   0.106505861
Si       0.250000000   0.701501182   0.606505861
Si       0.750000000   0.298498818   0.393494139

     Writing output data file Prototype-La-oP12-Co2Si.save
     NEW-OLD atomic charge density approx. for the potential
     NEW k-points:
        k(    1) = (   0.0000000   0.0000000   0.0000000), wk =   0.0833333
        k(    2) = (   0.0000000   0.0000000   0.1216560), wk =   0.1666667
        k(    3) = (   0.0000000   0.0000000  -0.2433119), wk =   0.0833333
        k(    4) = (   0.0000000   0.2348967   0.0000000), wk =   0.1666667
        k(    5) = (   0.0000000   0.2348967   0.1216560), wk =   0.3333333
        k(    6) = (   0.0000000   0.2348967  -0.2433119), wk =   0.1666667
        k(    7) = (  -0.4607715   0.0000000   0.0000000), wk =   0.0833333
        k(    8) = (  -0.4607715   0.0000000   0.1216560), wk =   0.1666667
        k(    9) = (  -0.4607715   0.0000000  -0.2433119), wk =   0.0833333
        k(   10) = (  -0.4607715   0.2348967   0.0000000), wk =   0.1666667
        k(   11) = (  -0.4607715   0.2348967   0.1216560), wk =   0.3333333
        k(   12) = (  -0.4607715   0.2348967  -0.2433119), wk =   0.1666667

[...]

     enthalpy old            =   -3240.9649918393 Ry
     enthalpy new            =   -3248.2887087895 Ry

     CASE: enthalpy_new < enthalpy_old

     small trust_radius: resetting bfgs history

     new trust radius        =       2.8562635528 bohr
     new conv_thr            =       0.0001000000 Ry

[...]

          total   stress  (Ry/bohr**3)                   (kbar)     P=-2774.17
  -0.01961093   0.00000000   0.00000000      -2884.87      0.00      0.00
   0.00000000  -0.01793157   0.00000000          0.00  -2637.82      0.00
   0.00000000   0.00000000  -0.01903276          0.00      0.00  -2799.82

     number of scf cycles    =   3
     number of bfgs steps    =   2

     enthalpy old            =   -3248.2887087895 Ry
     enthalpy new            =   -3227.0664895311 Ry

     CASE: enthalpy_new > enthalpy_old

     new trust radius        =       0.8788391250 bohr

     trust_radius < trust_radius_min

     resetting bfgs history

     Message from routine bfgs:
     history already reset at previous step: stopping
     new conv_thr            =       0.0001000000 Ry

     new unit-cell volume =   1304.64699 a.u.^3 (   193.32874 Ang^3 )

[...]

ATOMIC_POSITIONS (crystal)
Co       0.750000000   0.825742050   0.434960955
Co       0.250000000   0.174257950   0.565039045
Co       0.750000000   0.325742050   0.065039045
Co       0.250000000   0.674257950   0.934960955
Co       0.250000000   0.539083448   0.280009581
Co       0.750000000   0.460916552   0.719990419
Co       0.250000000   0.039083448   0.219990419
Co       0.750000000   0.960916552   0.780009581
Si       0.250000000   0.200584011   0.893599269
Si       0.750000000   0.799415989   0.106400731
Si       0.250000000   0.700584011   0.606400731
Si       0.750000000   0.299415989   0.393599269

     Writing output data file Prototype-La-oP12-Co2Si.save
     NEW-OLD atomic charge density approx. for the potential
     NEW k-points:
        k(    1) = (   0.0000000   0.0000000   0.0000000), wk =   0.0833333
        k(    2) = (   0.0000000   0.0000000   0.1145423), wk =   0.1666667
        k(    3) = (   0.0000000   0.0000000  -0.2290847), wk =   0.0833333
        k(    4) = (   0.0000000   0.2222999   0.0000000), wk =   0.1666667
        k(    5) = (   0.0000000   0.2222999   0.1145423), wk =   0.3333333
        k(    6) = (   0.0000000   0.2222999  -0.2290847), wk =   0.1666667
        k(    7) = (  -0.4330050   0.0000000   0.0000000), wk =   0.0833333
        k(    8) = (  -0.4330050   0.0000000   0.1145423), wk =   0.1666667
        k(    9) = (  -0.4330050   0.0000000  -0.2290847), wk =   0.0833333
        k(   10) = (  -0.4330050   0.2222999   0.0000000), wk =   0.1666667
        k(   11) = (  -0.4330050   0.2222999   0.1145423), wk =   0.3333333
        k(   12) = (  -0.4330050   0.2222999  -0.2290847), wk =   0.1666667

[...]

     The maximum number of steps has been reached.

     End of BFGS Geometry Optimization
Begin final coordinates
     new unit-cell volume =   1304.64699 a.u.^3 (   193.32874 Ang^3 )

CELL_PARAMETERS (alat=  7.01510508)
   1.154720992   0.000000000   0.000000000
   0.000000000   1.499475787   0.000000000
   0.000000000   0.000000000   2.182599030

ATOMIC_POSITIONS (crystal)
Co       0.750000000   0.825742050   0.434960955
Co       0.250000000   0.174257950   0.565039045
Co       0.750000000   0.325742050   0.065039045
Co       0.250000000   0.674257950   0.934960955
Co       0.250000000   0.539083448   0.280009581
Co       0.750000000   0.460916552   0.719990419
Co       0.250000000   0.039083448   0.219990419
Co       0.750000000   0.960916552   0.780009581
Si       0.250000000   0.200584011   0.893599269
Si       0.750000000   0.799415989   0.106400731
Si       0.250000000   0.700584011   0.606400731
Si       0.750000000   0.299415989   0.393599269
End final coordinates

     A final scf calculation at the relaxed structure.
     The G-vectors are recalculated for the final unit cell
     Results may differ from those at the preceding step.

     bravais-lattice index     =            0
     lattice parameter (alat)  =       7.0151  a.u.
     unit-cell volume          =    1304.6470 (a.u.)^3
     number of atoms/cell      =           12
     number of atomic types    =            2
     number of electrons       =       244.00
     number of Kohn-Sham states=          146
     kinetic-energy cutoff     =      40.0000  Ry
     charge density cutoff     =     160.0000  Ry
     convergence threshold     =      1.0E-04
     mixing beta               =       0.7000
     number of iterations used =            8  plain     mixing
     Exchange-correlation      = SLA-PZ-NOGX-NOGC ( 1 1 0 0 0)
     EXX-fraction              =        0.00

     celldm(1)=   7.015105  celldm(2)=   0.000000  celldm(3)=   0.000000
     celldm(4)=   0.000000  celldm(5)=   0.000000  celldm(6)=   0.000000

     crystal axes: (cart. coord. in units of alat)
               a(1) = (   1.154721   0.000000   0.000000 )
               a(2) = (   0.000000   1.499476   0.000000 )
               a(3) = (   0.000000   0.000000   2.182599 )

     reciprocal axes: (cart. coord. in units 2 pi/alat)
               b(1) = (  0.866010  0.000000  0.000000 )
               b(2) = (  0.000000  0.666900  0.000000 )
               b(3) = (  0.000000  0.000000  0.458169 )

     PseudoPot. # 1 for Dy read from file:
     /home/cwx6513/pp.La/Dy.UPF
     MD5 check sum: 9597327bec62616a94a14d07f3fd9936
     Pseudo is Norm-conserving, Zval = 20.0
     Generated in analytical, separable form
     Using radial grid of 1265 points,  6 beta functions with:
                l(1) =   0
                l(2) =   0
                l(3) =   1
                l(4) =   1
                l(5) =   2
                l(6) =   3

     PseudoPot. # 2 for Ho read from file:
     /home/cwx6513/pp.La/Ho.UPF
     MD5 check sum: f307ee11bce99f5b724fa279e3790763
     Pseudo is Norm-conserving, Zval = 21.0
     Generated in analytical, separable form
     Using radial grid of 1265 points,  6 beta functions with:
                l(1) =   0
                l(2) =   0
                l(3) =   1
                l(4) =   1
                l(5) =   2
                l(6) =   3

     atomic species   valence    mass     pseudopotential
        Co            20.00    58.93320     Dy( 1.00)
        Si            21.00    28.08550     Ho( 1.00)

      8 Sym. Ops., with inversion, found ( 6 have fractional translation)

   Cartesian axes

     site n.     atom                  positions (alat units)
         1           Co  tau(   1) = (   0.8660407   1.2381802   0.9493454  )
         2           Co  tau(   2) = (   0.2886802   0.2612956   1.2332537  )
         3           Co  tau(   3) = (   0.8660407   0.4884423   0.1419542  )
         4           Co  tau(   4) = (   0.2886802   1.0110335   2.0406449  )
         5           Co  tau(   5) = (   0.2886802   0.8083426   0.6111486  )
         6           Co  tau(   6) = (   0.8660407   0.6911332   1.5714504  )
         7           Co  tau(   7) = (   0.2886802   0.0586047   0.4801509  )
         8           Co  tau(   8) = (   0.8660407   1.4408711   1.7024482  )
         9           Si  tau(   9) = (   0.2886802   0.3007709   1.9503689  )
        10           Si  tau(  10) = (   0.8660407   1.1987049   0.2322301  )
        11           Si  tau(  11) = (   0.2886802   1.0505088   1.3235296  )
        12           Si  tau(  12) = (   0.8660407   0.4489670   0.8590694  )

     number of k points=    12  gaussian smearing, width (Ry)=  0.1000
                       cart. coord. in units 2pi/alat
        k(    1) = (   0.0000000   0.0000000   0.0000000), wk =   0.0833333
        k(    2) = (   0.0000000   0.0000000   0.1145423), wk =   0.1666667
        k(    3) = (   0.0000000   0.0000000  -0.2290847), wk =   0.0833333
        k(    4) = (   0.0000000   0.2222999   0.0000000), wk =   0.1666667
        k(    5) = (   0.0000000   0.2222999   0.1145423), wk =   0.3333333
        k(    6) = (   0.0000000   0.2222999  -0.2290847), wk =   0.1666667
        k(    7) = (  -0.4330050   0.0000000   0.0000000), wk =   0.0833333
        k(    8) = (  -0.4330050   0.0000000   0.1145423), wk =   0.1666667
        k(    9) = (  -0.4330050   0.0000000  -0.2290847), wk =   0.0833333
        k(   10) = (  -0.4330050   0.2222999   0.0000000), wk =   0.1666667
        k(   11) = (  -0.4330050   0.2222999   0.1145423), wk =   0.3333333
        k(   12) = (  -0.4330050   0.2222999  -0.2290847), wk =   0.1666667

     Largest allocated arrays     est. size (Mb)     dimensions
     Largest temporary arrays     est. size (Mb)     dimensions

     Initial potential from superposition of free atoms

     Starting from uniform charge
     Starting wfc are    0 randomized atomic wfcs

     Writing output data file Prototype-La-oP12-Co2Si.save

     Self-consistent Calculation

[...]

     iteration #  7     ecut=    40.00 Ry     beta=0.70
     CG style diagonalization
     ethr =  2.42E-04,  avg # of iterations =  3.5

[...]

     total energy              =   -3255.13313834 Ry
     Harris-Foulkes estimate   =   -3255.13337112 Ry
     estimated scf accuracy    <       0.00038053 Ry

     iteration # 10     ecut=    40.00 Ry     beta=0.70
     CG style diagonalization
     c_bands:  1 eigenvalues not converged
     ethr =  1.56E-07,  avg # of iterations =  3.8

     End of self-consistent calculation

[...]

          k = 0.0000 0.2223-0.2291 (  5560 PWs)   bands (ev):

[...]

          k =-0.4330 0.2223-0.2291 (  5568 PWs)   bands (ev):

   -58.8036 -58.8036 -58.7999 -58.7999 -49.9727 -49.9727 -49.9695 -49.9695
   -49.8323 -49.8323 -49.8155 -49.8155 -23.1442 -23.1442 -23.1407 -23.1407
   -23.1071 -23.1071 -23.0995 -23.0995 -23.0095 -23.0095 -23.0057 -23.0057
   -17.1468 -17.1468 -17.1040 -17.1040 -17.0743 -17.0743 -17.0591 -17.0591
   -17.0111 -17.0111 -16.9689 -16.9689 -16.9082 -16.9082 -16.8275 -16.8275
   -16.8270 -16.8270 -16.7971 -16.7971 -16.7373 -16.7373 -16.6965 -16.6965
    18.9834  18.9834  19.1614  19.1614  19.2913  19.2913  19.4552  19.4552
    19.5103  19.5103  19.5560  19.5560  19.6577  19.6577  19.7201  19.7201
    20.1973  20.1973  20.4506  20.4506  21.6253  21.6253  21.7324  21.7324
    22.1716  22.1716  22.5330  22.5330  22.5931  22.5931  22.6013  22.6013
    22.8953  22.8953  23.3050  23.3050  23.4231  23.4231  23.6798  23.6798
    23.9059  23.9059  24.1920  24.1920  24.2425  24.2425  24.5345  24.5345
    24.5996  24.5996  24.9044  24.9044  25.2440  25.2440  25.6201  25.6201
    26.0564  26.0564  26.2107  26.2107  26.9505  26.9505  27.1766  27.1766
    28.6884  28.6884  28.9999  28.9999  31.0849  31.0849  33.9363  33.9363
    35.1314  35.1314  35.3583  35.3583  37.0572  37.0572  37.6602  37.6602
    39.2896  39.2897  40.4455  40.4455  40.8726  40.8726  41.2004  41.2005
    41.4169  41.4170  41.6213  41.6213  41.9125  41.9125  41.9764  41.9765
    42.7766  42.7756

     the Fermi energy is    35.7299 ev

!    total energy              =   -3255.13325573 Ry
     Harris-Foulkes estimate   =   -3255.13328026 Ry
     estimated scf accuracy    <       0.00002964 Ry

     The total energy is the sum of the following terms:

     one-electron contribution =    -378.69029715 Ry
     hartree contribution      =     419.50316473 Ry
     xc contribution           =    -299.74123846 Ry
     ewald contribution        =   -2995.88563871 Ry
     smearing contrib. (-TS)   =      -0.31924613 Ry

     convergence has been achieved in  10 iterations

     Forces acting on atoms (Ry/au):

     atom    1 type  1   force =     0.00000000   -0.01230081   -0.00025809
     atom    2 type  1   force =     0.00000000    0.01230081    0.00025809
     atom    3 type  1   force =     0.00000000   -0.01230081    0.00025809
     atom    4 type  1   force =     0.00000000    0.01230081   -0.00025809
     atom    5 type  1   force =     0.00000000    0.05407155   -0.07711238
     atom    6 type  1   force =     0.00000000   -0.05407155    0.07711238
     atom    7 type  1   force =     0.00000000    0.05407155    0.07711238
     atom    8 type  1   force =     0.00000000   -0.05407155   -0.07711238
     atom    9 type  2   force =     0.00000000   -0.06095924    0.02241239
     atom   10 type  2   force =     0.00000000    0.06095924   -0.02241239
     atom   11 type  2   force =     0.00000000   -0.06095924   -0.02241239
     atom   12 type  2   force =     0.00000000    0.06095924    0.02241239

     Total force =     0.230128     Total SCF correction =     0.000000

     entering subroutine stress ...

          total   stress  (Ry/bohr**3)                   (kbar)     P= 1177.18
   0.00827237   0.00000000   0.00000000       1216.91      0.00      0.00
   0.00000000   0.00763959   0.00000000          0.00   1123.82      0.00
   0.00000000   0.00000000   0.00809500          0.00      0.00   1190.82

     Writing output data file Prototype-La-oP12-Co2Si.save

     General routines

     Parallel routines

   This run was terminated on:   3:46:36  23Mar2018

   JOB DONE.