     Program PWSCF v.5.0.2 starts on 22Mar2018 at  0:38:22

     Current dimensions of program PWSCF are:
     Max number of different atomic species (ntypx) = 10
     Max number of k-points (npk) =  40000
     Max angular momentum in pseudopotentials (lmaxx) =  3
     Waiting for input...
     Reading input from standard input

     Subspace diagonalization in iterative solution of the eigenvalue problem:
     a serial algorithm will be used

     bravais-lattice index     =            0
     lattice parameter (alat)  =      13.3930  a.u.
     unit-cell volume          =    1134.0956 (a.u.)^3
     number of atoms/cell      =            4
     number of atomic types    =            2
     number of electrons       =        50.00
     number of Kohn-Sham states=           30
     kinetic-energy cutoff     =      40.0000  Ry
     charge density cutoff     =     160.0000  Ry
     convergence threshold     =      1.0E-04
     mixing beta               =       0.7000
     number of iterations used =            8  plain     mixing
     Exchange-correlation      = SLA-PZ-NOGX-NOGC ( 1 1 0 0 0)
     EXX-fraction              =        0.00
     nstep                     =           50

     celldm(1)=  13.392972  celldm(2)=   0.000000  celldm(3)=   0.000000
     celldm(4)=   0.000000  celldm(5)=   0.000000  celldm(6)=   0.000000

     crystal axes: (cart. coord. in units of alat)
               a(1) = (   1.000000   0.000000   0.000000 )
               a(2) = (  -0.776311   0.630350   0.000000 )
               a(3) = (   0.000000   0.000000   0.748922 )

     reciprocal axes: (cart. coord. in units 2 pi/alat)
               b(1) = (  1.000000  1.231554  0.000000 )
               b(2) = (  0.000000  1.586419  0.000000 )
               b(3) = (  0.000000  0.000000  1.335252 )

     PseudoPot. # 1 for Ce read from file:
     /home/jld5415/pp.La/Ce.UPF
     MD5 check sum: 44451aa79a44a00cf2bc029dc19922f6
     Pseudo is Norm-conserving, Zval = 12.0
     Generated in analytical, separable form
     Using radial grid of 1255 points,  6 beta functions with:
                l(1) =   0
                l(2) =   0
                l(3) =   1
                l(4) =   1
                l(5) =   2
                l(6) =   3

     PseudoPot. # 2 for Pr read from file:
     /home/jld5415/pp.La/Pr.UPF
     MD5 check sum: 70e2b4b153859e92c8c91247dfc63203
     Pseudo is Norm-conserving, Zval = 13.0
     Generated in analytical, separable form
     Using radial grid of 1255 points,  6 beta functions with:
                l(1) =   0
                l(2) =   0
                l(3) =   1
                l(4) =   1
                l(5) =   2
                l(6) =   3

     atomic species   valence    mass     pseudopotential
        Tl            12.00   204.38300     Ce( 1.00)
        I             13.00   126.90400     Pr( 1.00)

      2 Sym. Ops., with inversion, found
          (note:  2 additional sym.ops. were found but ignored
           their fractional translations are incommensurate with FFT grid)

   Cartesian axes

     site n.     atom                  positions (alat units)
         1           Tl  tau(   1) = (  -0.0906317   0.3870269   0.5616917  )
         2           Tl  tau(   2) = (   0.3143210   0.2433234   0.1872306  )
         3           I   tau(   3) = (  -0.5408004   0.5467760   0.5616917  )
         4           I   tau(   4) = (   0.7644896   0.0835744   0.1872306  )

     number of k points=   106  gaussian smearing, width (Ry)=  0.1000

     Number of k-points >= 100: set verbosity='high' to print them.

     Largest allocated arrays     est. size (Mb)     dimensions
     Largest temporary arrays     est. size (Mb)     dimensions

     Initial potential from superposition of free atoms
     Check: negative starting charge=   -0.000926

     starting charge   25.98109, renormalised to   50.00000

     negative rho (up, down):  0.178E-02 0.000E+00
     Starting wfc are   40 randomized atomic wfcs

     Self-consistent Calculation

     iteration #  1     ecut=    40.00 Ry     beta=0.70
     CG style diagonalization
     c_bands:  2 eigenvalues not converged
     c_bands:  4 eigenvalues not converged
     c_bands:  5 eigenvalues not converged
     c_bands:  4 eigenvalues not converged
     c_bands:  4 eigenvalues not converged
     c_bands:  3 eigenvalues not converged
     c_bands:  5 eigenvalues not converged
     c_bands:  5 eigenvalues not converged
     c_bands:  5 eigenvalues not converged
     c_bands:  5 eigenvalues not converged
     c_bands:  5 eigenvalues not converged
     c_bands:  4 eigenvalues not converged
     c_bands:  5 eigenvalues not converged
     c_bands:  4 eigenvalues not converged
     c_bands:  5 eigenvalues not converged
     c_bands:  5 eigenvalues not converged
     c_bands:  5 eigenvalues not converged
     c_bands:  5 eigenvalues not converged
     ethr =  1.00E-02,  avg # of iterations = 17.1

     negative rho (up, down):  0.520E-03 0.000E+00

     total energy              =     -89.87954696 Ry
     Harris-Foulkes estimate   =    -670.07228969 Ry
     estimated scf accuracy    <     703.83346208 Ry

[...]

     iteration #  3     ecut=    40.00 Ry     beta=0.70
     CG style diagonalization
     ethr =  1.00E-02,  avg # of iterations = 10.2

[...]

     End of self-consistent calculation

     Number of k-points >= 100: set verbosity='high' to print the bands.

     the Fermi energy is     9.4206 ev

!    total energy              =    -340.07360758 Ry
     Harris-Foulkes estimate   =    -340.07361277 Ry
     estimated scf accuracy    <       0.00000606 Ry

     The total energy is the sum of the following terms:

     one-electron contribution =     -76.98396731 Ry
     hartree contribution      =      51.17435480 Ry
     xc contribution           =     -41.55493642 Ry
     ewald contribution        =    -272.22495456 Ry
     smearing contrib. (-TS)   =      -0.48410409 Ry

     convergence has been achieved in  25 iterations

     Forces acting on atoms (Ry/au):

     atom    1 type  1   force =     0.00883750   -0.00331856   -0.00031394
     atom    2 type  1   force =    -0.00883750    0.00331856    0.00031394
     atom    3 type  2   force =    -0.01604328    0.00567633    0.00008767
     atom    4 type  2   force =     0.01604328   -0.00567633   -0.00008767

     Total force =     0.027526     Total SCF correction =     0.001291

     entering subroutine stress ...

          total   stress  (Ry/bohr**3)                   (kbar)     P= -167.19
  -0.00112250  -0.00003342  -0.00000005       -165.12     -4.92     -0.01
  -0.00003342  -0.00120456   0.00000004         -4.92   -177.20      0.01
  -0.00000005   0.00000004  -0.00108256         -0.01      0.01   -159.25

     BFGS Geometry Optimization

     number of scf cycles    =   1
     number of bfgs steps    =   0

     enthalpy new            =    -340.0736075836 Ry

     new trust radius        =       0.2029031779 bohr
     new conv_thr            =       0.0001000000 Ry

     new unit-cell volume =   1040.14228 a.u.^3 (   154.13318 Ang^3 )

CELL_PARAMETERS (alat= 13.39297219)
   0.971937592  -0.000835377  -0.000001330
  -0.755052181   0.612016598   0.000001722
  -0.000000996   0.000000819   0.728653452

ATOMIC_POSITIONS (crystal)
Tl       0.386367701   0.613593911   0.749968701
Tl       0.613632299   0.386406089   0.250031299
I        0.131908080   0.868088370   0.750008740
I        0.868091920   0.131911630   0.249991260

     Writing output data file Prototype-La-oS8-TlI.save
     Check: negative starting charge=   -0.000926
     NEW-OLD atomic charge density approx. for the potential
     NEW k-points: (use verbosity='high' to print them)
     Check: negative starting charge=   -0.000222

     negative rho (up, down):  0.456E-01 0.000E+00
     extrapolated charge   47.65320, renormalised to   50.00000

[...]

     enthalpy old            =    -340.0736075836 Ry
     enthalpy new            =    -340.1760418155 Ry

     CASE: enthalpy_new < enthalpy_old

     WARNING: bfgs curvature condition failed, Theta= 0.951
     small trust_radius: resetting bfgs history

[...]

     Writing output data file Prototype-La-oS8-TlI.save
     Check: negative starting charge=   -0.000222
     NEW-OLD atomic charge density approx. for the potential
     NEW k-points: (use verbosity='high' to print them)

[...]

     number of scf cycles    =   3
     number of bfgs steps    =   2

     enthalpy old            =    -340.1760418155 Ry
     enthalpy new            =    -340.2505306655 Ry

     CASE: enthalpy_new < enthalpy_old

     WARNING: bfgs curvature condition failed, Theta= 0.966
     Message from routine bfgs:
     history already reset at previous step: stopping
     small trust_radius: resetting bfgs history

     new trust radius        =       0.1539165439 bohr
     new conv_thr            =       0.0000253220 Ry

     new unit-cell volume =    902.20615 a.u.^3 (   133.69316 Ang^3 )

[...]

ATOMIC_POSITIONS (crystal)
Tl       0.387710340   0.612214887   0.749889003
Tl       0.612289660   0.387785113   0.250110997
I        0.129860085   0.870117230   0.750023295
I        0.870139915   0.129882770   0.249976705

     Writing output data file Prototype-La-oS8-TlI.save
     NEW-OLD atomic charge density approx. for the potential
     NEW k-points: (use verbosity='high' to print them)

     negative rho (up, down):  0.250E-01 0.000E+00
     extrapolated charge   48.23284, renormalised to   50.00000

[...]

     The maximum number of steps has been reached.

     End of BFGS Geometry Optimization
Begin final coordinates
     new unit-cell volume =    902.20615 a.u.^3 (   133.69316 Ang^3 )

CELL_PARAMETERS (alat= 13.39297219)
   0.927503839  -0.003124998  -0.000004836
  -0.722001053   0.582241681   0.000003716
  -0.000003611  -0.000000001   0.698351641

ATOMIC_POSITIONS (crystal)
Tl       0.387710340   0.612214887   0.749889003
Tl       0.612289660   0.387785113   0.250110997
I        0.129860085   0.870117230   0.750023295
I        0.870139915   0.129882770   0.249976705
End final coordinates

     A final scf calculation at the relaxed structure.
     The G-vectors are recalculated for the final unit cell
     Results may differ from those at the preceding step.

     bravais-lattice index     =            0
     lattice parameter (alat)  =      13.3930  a.u.
     unit-cell volume          =     902.2062 (a.u.)^3
     number of atoms/cell      =            4
     number of atomic types    =            2
     number of electrons       =        50.00
     number of Kohn-Sham states=           30
     kinetic-energy cutoff     =      40.0000  Ry
     charge density cutoff     =     160.0000  Ry
     convergence threshold     =      2.5E-05
     mixing beta               =       0.7000
     number of iterations used =            8  plain     mixing
     Exchange-correlation      = SLA-PZ-NOGX-NOGC ( 1 1 0 0 0)
     EXX-fraction              =        0.00

     celldm(1)=  13.392972  celldm(2)=   0.000000  celldm(3)=   0.000000
     celldm(4)=   0.000000  celldm(5)=   0.000000  celldm(6)=   0.000000

     crystal axes: (cart. coord. in units of alat)
               a(1) = (   0.927504  -0.003125  -0.000005 )
               a(2) = (  -0.722001   0.582242   0.000004 )
               a(3) = (  -0.000004   0.000000   0.698352 )

     reciprocal axes: (cart. coord. in units 2 pi/alat)
               b(1) = (  1.082686  1.342571  0.000006 )
               b(2) = (  0.005811  1.724706  0.000000 )
               b(3) = (  0.000007  0.000000  1.431943 )

     PseudoPot. # 1 for Ce read from file:
     /home/jld5415/pp.La/Ce.UPF
     MD5 check sum: 44451aa79a44a00cf2bc029dc19922f6
     Pseudo is Norm-conserving, Zval = 12.0
     Generated in analytical, separable form
     Using radial grid of 1255 points,  6 beta functions with:
                l(1) =   0
                l(2) =   0
                l(3) =   1
                l(4) =   1
                l(5) =   2
                l(6) =   3

     PseudoPot. # 2 for Pr read from file:
     /home/jld5415/pp.La/Pr.UPF
     MD5 check sum: 70e2b4b153859e92c8c91247dfc63203
     Pseudo is Norm-conserving, Zval = 13.0
     Generated in analytical, separable form
     Using radial grid of 1255 points,  6 beta functions with:
                l(1) =   0
                l(2) =   0
                l(3) =   1
                l(4) =   1
                l(5) =   2
                l(6) =   3

     atomic species   valence    mass     pseudopotential
        Tl            12.00   204.38300     Ce( 1.00)
        I             13.00   126.90400     Pr( 1.00)

      2 Sym. Ops., with inversion, found
          (note:  2 additional sym.ops. were found but ignored
           their fractional translations are incommensurate with FFT grid)

   Cartesian axes

     site n.     atom                  positions (alat units)
         1           Tl  tau(   1) = (  -0.0824197   0.3552454   0.5236866  )
         2           Tl  tau(   2) = (   0.2879188   0.2238713   0.1746639  )
         3           I   tau(   3) = (  -0.5077825   0.5062127   0.5237826  )
         4           I   tau(   4) = (   0.7132817   0.0729040   0.1745679  )

     number of k points=   106  gaussian smearing, width (Ry)=  0.1000

     Number of k-points >= 100: set verbosity='high' to print them.

     Largest allocated arrays     est. size (Mb)     dimensions
     Largest temporary arrays     est. size (Mb)     dimensions

     Initial potential from superposition of free atoms
     Check: negative starting charge=   -0.000542

     starting charge   25.98109, renormalised to   50.00000

     negative rho (up, down):  0.104E-02 0.000E+00
     Starting wfc are   40 randomized atomic wfcs

     Writing output data file Prototype-La-oS8-TlI.save

     Self-consistent Calculation

[...]

     negative rho (up, down):  0.147E-04 0.000E+00

[...]

     iteration #  7     ecut=    40.00 Ry     beta=0.70
     CG style diagonalization
     ethr =  3.45E-03,  avg # of iterations =  4.0

[...]

     total energy              =    -340.26468643 Ry
     Harris-Foulkes estimate   =    -340.26470605 Ry
     estimated scf accuracy    <       0.00005638 Ry

     iteration # 14     ecut=    40.00 Ry     beta=0.70
     CG style diagonalization
     c_bands:  1 eigenvalues not converged
     c_bands:  1 eigenvalues not converged
     c_bands:  1 eigenvalues not converged
     c_bands:  1 eigenvalues not converged
     c_bands:  1 eigenvalues not converged
     c_bands:  1 eigenvalues not converged
     c_bands:  1 eigenvalues not converged
     c_bands:  1 eigenvalues not converged
     ethr =  1.13E-07,  avg # of iterations =  4.0

     End of self-consistent calculation

     Number of k-points >= 100: set verbosity='high' to print the bands.

     the Fermi energy is    12.6164 ev

!    total energy              =    -340.26469373 Ry
     Harris-Foulkes estimate   =    -340.26469734 Ry
     estimated scf accuracy    <       0.00000443 Ry

     The total energy is the sum of the following terms:

     one-electron contribution =     -46.00896720 Ry
     hartree contribution      =      42.20305632 Ry
     xc contribution           =     -42.23741675 Ry
     ewald contribution        =    -293.82629324 Ry
     smearing contrib. (-TS)   =      -0.39507285 Ry

     convergence has been achieved in  14 iterations

     Forces acting on atoms (Ry/au):

     atom    1 type  1   force =     0.01609637   -0.00574248   -0.00020627
     atom    2 type  1   force =    -0.01609637    0.00574248    0.00020627
     atom    3 type  2   force =    -0.02842246    0.01005666   -0.00007357
     atom    4 type  2   force =     0.02842246   -0.01005666    0.00007357

     Total force =     0.049012     Total SCF correction =     0.003225

     entering subroutine stress ...

          total   stress  (Ry/bohr**3)                   (kbar)     P= -133.38
  -0.00090548  -0.00006357  -0.00000013       -133.20     -9.35     -0.02
  -0.00006357  -0.00106291   0.00000013         -9.35   -156.36      0.02
  -0.00000013   0.00000013  -0.00075165         -0.02      0.02   -110.57

     Writing output data file Prototype-La-oS8-TlI.save

     General routines

     Parallel routines

   This run was terminated on:   1:19: 3  22Mar2018

   JOB DONE.