     Program PWSCF v.5.0.2 starts on 22Mar2018 at  0:38:20

     Current dimensions of program PWSCF are:
     Max number of different atomic species (ntypx) = 10
     Max number of k-points (npk) =  40000
     Max angular momentum in pseudopotentials (lmaxx) =  3
     Waiting for input...
     Reading input from standard input

     Subspace diagonalization in iterative solution of the eigenvalue problem:
     a serial algorithm will be used

     bravais-lattice index     =            0
     lattice parameter (alat)  =       9.9235  a.u.
     unit-cell volume          =    1361.0366 (a.u.)^3
     number of atoms/cell      =           12
     number of atomic types    =            2
     number of electrons       =       152.00
     number of Kohn-Sham states=           91
     kinetic-energy cutoff     =      40.0000  Ry
     charge density cutoff     =     160.0000  Ry
     convergence threshold     =      1.0E-04
     mixing beta               =       0.7000
     number of iterations used =            8  plain     mixing
     Exchange-correlation      = SLA-PZ-NOGX-NOGC ( 1 1 0 0 0)
     EXX-fraction              =        0.00
     nstep                     =           50

     celldm(1)=   9.923489  celldm(2)=   0.000000  celldm(3)=   0.000000
     celldm(4)=   0.000000  celldm(5)=   0.000000  celldm(6)=   0.000000

     crystal axes: (cart. coord. in units of alat)
               a(1) = (   1.000000   0.000000   0.000000 )
               a(2) = (  -0.500000   0.866025   0.000000 )
               a(3) = (   0.000000   0.000000   1.608222 )

     reciprocal axes: (cart. coord. in units 2 pi/alat)
               b(1) = (  1.000000  0.577350  0.000000 )
               b(2) = (  0.000000  1.154701  0.000000 )
               b(3) = (  0.000000  0.000000  0.621805 )

     PseudoPot. # 1 for Ce read from file:
     /home/jld5415/pp.La/Ce.UPF
     MD5 check sum: 44451aa79a44a00cf2bc029dc19922f6
     Pseudo is Norm-conserving, Zval = 12.0
     Generated in analytical, separable form
     Using radial grid of 1255 points,  6 beta functions with:
                l(1) =   0
                l(2) =   0
                l(3) =   1
                l(4) =   1
                l(5) =   2
                l(6) =   3

     PseudoPot. # 2 for Pr read from file:
     /home/jld5415/pp.La/Pr.UPF
     MD5 check sum: 70e2b4b153859e92c8c91247dfc63203
     Pseudo is Norm-conserving, Zval = 13.0
     Generated in analytical, separable form
     Using radial grid of 1255 points,  6 beta functions with:
                l(1) =   0
                l(2) =   0
                l(3) =   1
                l(4) =   1
                l(5) =   2
                l(6) =   3

     atomic species   valence    mass     pseudopotential
        Mg            12.00    24.30500     Ce( 1.00)
        Zn            13.00    65.39000     Pr( 1.00)

     24 Sym. Ops., with inversion, found (12 have fractional translation)

   Cartesian axes

     site n.     atom                  positions (alat units)
         1           Mg  tau(   1) = (  -0.0000005   0.5773506   0.1003820  )
         2           Mg  tau(   2) = (   0.5000005   0.2886748   0.9044931  )
         3           Mg  tau(   3) = (   0.5000005   0.2886748   1.5078402  )
         4           Mg  tau(   4) = (  -0.0000005   0.5773506   0.7037291  )
         5           Zn  tau(   5) = (   0.0000000   0.0000000   0.0000000  )
         6           Zn  tau(   6) = (   0.0000000   0.0000000   0.8041111  )
         7           Zn  tau(   7) = (   0.0000000   0.2950739   1.2061667  )
         8           Zn  tau(   8) = (   0.7444585   0.1475370   0.4020556  )
         9           Zn  tau(   9) = (   0.2555415   0.1475370   0.4020556  )
        10           Zn  tau(  10) = (   0.2444585   0.7184884   1.2061667  )
        11           Zn  tau(  11) = (  -0.2444585   0.7184884   1.2061667  )
        12           Zn  tau(  12) = (   0.5000000   0.5709515   0.4020556  )

     number of k points=    12  gaussian smearing, width (Ry)=  0.1000
                       cart. coord. in units 2pi/alat
        k(    1) = (   0.0000000   0.0000000   0.0000000), wk =   0.0833333
        k(    2) = (   0.0000000   0.0000000   0.1554512), wk =   0.1666667
        k(    3) = (   0.0000000   0.0000000  -0.3109023), wk =   0.0833333
        k(    4) = (   0.0000000   0.3849002   0.0000000), wk =   0.1666667
        k(    5) = (   0.0000000   0.3849002   0.1554512), wk =   0.3333333
        k(    6) = (   0.0000000   0.3849002  -0.3109023), wk =   0.1666667
        k(    7) = (  -0.5000000  -0.2886751   0.0000000), wk =   0.0833333
        k(    8) = (  -0.5000000  -0.2886751   0.1554512), wk =   0.1666667
        k(    9) = (  -0.5000000  -0.2886751  -0.3109023), wk =   0.0833333
        k(   10) = (  -0.5000000   0.0962250   0.0000000), wk =   0.1666667
        k(   11) = (  -0.5000000   0.0962250   0.1554512), wk =   0.3333333
        k(   12) = (  -0.5000000   0.0962250  -0.3109023), wk =   0.1666667

     Largest allocated arrays     est. size (Mb)     dimensions
     Largest temporary arrays     est. size (Mb)     dimensions

     Initial potential from superposition of free atoms
     Check: negative starting charge=   -0.000695

     starting charge  103.92434, renormalised to  152.00000

     negative rho (up, down):  0.102E-02 0.000E+00
     Starting wfc are  160 randomized atomic wfcs

     Self-consistent Calculation

     iteration #  1     ecut=    40.00 Ry     beta=0.70
     CG style diagonalization
     ethr =  1.00E-02,  avg # of iterations = 17.5

     negative rho (up, down):  0.272E-03 0.000E+00

     total energy              =     235.81118435 Ry
     Harris-Foulkes estimate   =   -1747.39840438 Ry
     estimated scf accuracy    <    2357.35709885 Ry

[...]

     iteration #  3     ecut=    40.00 Ry     beta=0.70
     CG style diagonalization
     c_bands:  1 eigenvalues not converged
     ethr =  1.00E-02,  avg # of iterations =  9.2

[...]

     End of self-consistent calculation

          k = 0.0000 0.0000 0.0000 (  5769 PWs)   bands (ev):

   -16.9844 -16.5243 -15.3886 -14.8366 -14.8365 -14.8241 -14.8240 -14.7995
    -9.7878  -9.7272  -9.5007  -9.3563  -0.8743   0.0512   0.9733   2.1651
     2.1651   2.3503   2.3503   2.7004   2.7005   3.8040   4.5805   4.5806
     4.7106   4.7106   5.2037   6.1201   6.7096   6.7096   6.7198   6.7278
     7.0828   7.0828   7.1387   7.1387   7.5129   7.6170   7.6170   7.6835
     8.1222   8.1222   8.6603   9.0123   9.0123   9.3620   9.3620   9.4228
    20.2705  21.4125  21.4650  22.5982  22.5982  23.4205  23.4205  23.5436
    23.6260  23.6260  23.8588  23.8588  24.0384  24.0384  24.1090  24.7558
    25.0448  25.0788  25.6041  25.6041  27.0649  27.0649  27.5853  27.5854
    27.6430  27.6430  27.7294  28.3374  28.3374  28.3830  28.8216  28.8216
    29.1494  29.1494  29.1925  29.1925  29.7431  29.9366  29.9367  30.4993
    30.9972  31.1711  31.1952

[...]

          k =-0.5000-0.2887 0.0000 (  5800 PWs)   bands (ev):

[...]

     the Fermi energy is    28.0077 ev

!    total energy              =   -1050.19837521 Ry
     Harris-Foulkes estimate   =   -1050.19840600 Ry
     estimated scf accuracy    <       0.00003492 Ry

     The total energy is the sum of the following terms:

     one-electron contribution =     157.65101418 Ry
     hartree contribution      =      66.97408472 Ry
     xc contribution           =    -139.70745726 Ry
     ewald contribution        =   -1134.51947778 Ry
     smearing contrib. (-TS)   =      -0.59653907 Ry

     convergence has been achieved in  13 iterations

     Forces acting on atoms (Ry/au):

     atom    1 type  1   force =     0.00000000    0.00000000    0.01981269
     atom    2 type  1   force =     0.00000000    0.00000000    0.01981269
     atom    3 type  1   force =     0.00000000    0.00000000   -0.01981269
     atom    4 type  1   force =     0.00000000    0.00000000   -0.01981269
     atom    5 type  2   force =     0.00000000    0.00000000    0.00000000
     atom    6 type  2   force =     0.00000000    0.00000000    0.00000000
     atom    7 type  2   force =     0.00000000    0.07276567    0.00000000
     atom    8 type  2   force =    -0.06301692    0.03638283    0.00000000
     atom    9 type  2   force =     0.06301692    0.03638283    0.00000000
     atom   10 type  2   force =    -0.06301692   -0.03638283    0.00000000
     atom   11 type  2   force =     0.06301692   -0.03638283    0.00000000
     atom   12 type  2   force =     0.00000000   -0.07276567    0.00000000

     Total force =     0.182590     Total SCF correction =     0.000878

     entering subroutine stress ...

          total   stress  (Ry/bohr**3)                   (kbar)     P= 1146.64
   0.00775965   0.00000000   0.00000000       1141.48      0.00      0.00
   0.00000000   0.00775965   0.00000000          0.00   1141.48      0.00
   0.00000000   0.00000000   0.00786471          0.00      0.00   1156.94

     BFGS Geometry Optimization

     number of scf cycles    =   1
     number of bfgs steps    =   0

     enthalpy new            =   -1050.1983752106 Ry

     new trust radius        =       0.5000000000 bohr
     new conv_thr            =       0.0001000000 Ry

     new unit-cell volume =   1654.09393 a.u.^3 (   245.11143 Ang^3 )

CELL_PARAMETERS (alat=  9.92348860)
   1.066859788   0.000000000   0.000000000
  -0.533429894   0.923927679   0.000000000
   0.000000000   0.000000000   1.717203317

ATOMIC_POSITIONS (crystal)
Mg       0.333333000   0.666667000   0.062845874
Mg       0.666667000   0.333333000   0.562845874
Mg       0.666667000   0.333333000   0.937154126
Mg       0.333333000   0.666667000   0.437154126
Zn       0.000000000   0.000000000   0.000000000
Zn       0.000000000   0.000000000   0.500000000
Zn       0.171820097   0.343640194   0.750000000
Zn       0.828179903   0.171820097   0.250000000
Zn       0.343640194   0.171820097   0.250000000
Zn       0.656359806   0.828179903   0.750000000
Zn       0.171820097   0.828179903   0.750000000
Zn       0.828179903   0.656359806   0.250000000

     Writing output data file Prototype-La-hP12-MgZn2.save
     Check: negative starting charge=   -0.000695
     NEW-OLD atomic charge density approx. for the potential
     NEW k-points:
        k(    1) = (   0.0000000   0.0000000   0.0000000), wk =   0.0833333
        k(    2) = (   0.0000000   0.0000000   0.1455856), wk =   0.1666667
        k(    3) = (   0.0000000   0.0000000  -0.2911711), wk =   0.0833333
        k(    4) = (   0.0000000   0.3607786   0.0000000), wk =   0.1666667
        k(    5) = (   0.0000000   0.3607786   0.1455856), wk =   0.3333333
        k(    6) = (   0.0000000   0.3607786  -0.2911711), wk =   0.1666667
        k(    7) = (  -0.4686651  -0.2705839   0.0000000), wk =   0.0833333
        k(    8) = (  -0.4686651  -0.2705839   0.1455856), wk =   0.1666667
        k(    9) = (  -0.4686651  -0.2705839  -0.2911711), wk =   0.0833333
        k(   10) = (  -0.4686651   0.0901946   0.0000000), wk =   0.1666667
        k(   11) = (  -0.4686651   0.0901946   0.1455856), wk =   0.3333333
        k(   12) = (  -0.4686651   0.0901946  -0.2911711), wk =   0.1666667
     Check: negative starting charge=   -0.006942

     negative rho (up, down):  0.606E-02 0.000E+00
     extrapolated charge  170.41237, renormalised to  152.00000

[...]

     Total force =     0.022905     Total SCF correction =     0.012888
     SCF correction compared to forces is large: reduce conv_thr to get better values

[...]

     enthalpy old            =   -1050.1983752106 Ry
     enthalpy new            =   -1051.5659952540 Ry

     CASE: enthalpy_new < enthalpy_old

     small trust_radius: resetting bfgs history

[...]

     number of scf cycles    =   3
     number of bfgs steps    =   2

     enthalpy old            =   -1051.5659952539 Ry
     enthalpy new            =   -1051.7220623841 Ry

     CASE: enthalpy_new < enthalpy_old

     Message from routine bfgs:
     history already reset at previous step: stopping
     small trust_radius: resetting bfgs history

     new trust radius        =       0.1871978729 bohr
     new conv_thr            =       0.0000068388 Ry

     new unit-cell volume =   1822.29340 a.u.^3 (   270.03602 Ang^3 )

[...]

ATOMIC_POSITIONS (crystal)
Mg       0.333333000   0.666667000   0.063021070
Mg       0.666667000   0.333333000   0.563021070
Mg       0.666667000   0.333333000   0.936978930
Mg       0.333333000   0.666667000   0.436978930
Zn       0.000000000   0.000000000   0.000000000
Zn       0.000000000   0.000000000   0.500000000
Zn       0.171965713   0.343931425   0.750000000
Zn       0.828034287   0.171965713   0.250000000
Zn       0.343931425   0.171965713   0.250000000
Zn       0.656068575   0.828034287   0.750000000
Zn       0.171965713   0.828034287   0.750000000
Zn       0.828034287   0.656068575   0.250000000

     Writing output data file Prototype-La-hP12-MgZn2.save
     Check: negative starting charge=   -0.014476
     NEW-OLD atomic charge density approx. for the potential
     NEW k-points:
        k(    1) = (   0.0000000   0.0000000   0.0000000), wk =   0.0833333
        k(    2) = (   0.0000000   0.0000000   0.1412929), wk =   0.1666667
        k(    3) = (   0.0000000   0.0000000  -0.2825859), wk =   0.0833333
        k(    4) = (   0.0000000   0.3489078   0.0000000), wk =   0.1666667
        k(    5) = (   0.0000000   0.3489078   0.1412929), wk =   0.3333333
        k(    6) = (   0.0000000   0.3489078  -0.2825859), wk =   0.1666667
        k(    7) = (  -0.4532445  -0.2616808   0.0000000), wk =   0.0833333
        k(    8) = (  -0.4532445  -0.2616808   0.1412929), wk =   0.1666667
        k(    9) = (  -0.4532445  -0.2616808  -0.2825859), wk =   0.0833333
        k(   10) = (  -0.4532445   0.0872269   0.0000000), wk =   0.1666667
        k(   11) = (  -0.4532445   0.0872269   0.1412929), wk =   0.3333333
        k(   12) = (  -0.4532445   0.0872269  -0.2825859), wk =   0.1666667
     Check: negative starting charge=   -0.011327

     negative rho (up, down):  0.379E-01 0.000E+00
     extrapolated charge  145.42783, renormalised to  152.00000

[...]

     Total force =     0.004746     Total SCF correction =     0.007717
     SCF correction compared to forces is large: reduce conv_thr to get better values

[...]

     The maximum number of steps has been reached.

     End of BFGS Geometry Optimization
Begin final coordinates
     new unit-cell volume =   1822.29340 a.u.^3 (   270.03602 Ang^3 )

CELL_PARAMETERS (alat=  9.92348860)
   1.103157424   0.000000000   0.000000000
  -0.551578712   0.955362354   0.000000000
   0.000000000   0.000000000   1.769373669

ATOMIC_POSITIONS (crystal)
Mg       0.333333000   0.666667000   0.063021070
Mg       0.666667000   0.333333000   0.563021070
Mg       0.666667000   0.333333000   0.936978930
Mg       0.333333000   0.666667000   0.436978930
Zn       0.000000000   0.000000000   0.000000000
Zn       0.000000000   0.000000000   0.500000000
Zn       0.171965713   0.343931425   0.750000000
Zn       0.828034287   0.171965713   0.250000000
Zn       0.343931425   0.171965713   0.250000000
Zn       0.656068575   0.828034287   0.750000000
Zn       0.171965713   0.828034287   0.750000000
Zn       0.828034287   0.656068575   0.250000000
End final coordinates

     A final scf calculation at the relaxed structure.
     The G-vectors are recalculated for the final unit cell
     Results may differ from those at the preceding step.

     bravais-lattice index     =            0
     lattice parameter (alat)  =       9.9235  a.u.
     unit-cell volume          =    1822.2934 (a.u.)^3
     number of atoms/cell      =           12
     number of atomic types    =            2
     number of electrons       =       152.00
     number of Kohn-Sham states=           91
     kinetic-energy cutoff     =      40.0000  Ry
     charge density cutoff     =     160.0000  Ry
     convergence threshold     =      6.8E-06
     mixing beta               =       0.7000
     number of iterations used =            8  plain     mixing
     Exchange-correlation      = SLA-PZ-NOGX-NOGC ( 1 1 0 0 0)
     EXX-fraction              =        0.00

     celldm(1)=   9.923489  celldm(2)=   0.000000  celldm(3)=   0.000000
     celldm(4)=   0.000000  celldm(5)=   0.000000  celldm(6)=   0.000000

     crystal axes: (cart. coord. in units of alat)
               a(1) = (   1.103157   0.000000   0.000000 )
               a(2) = (  -0.551579   0.955362   0.000000 )
               a(3) = (   0.000000   0.000000   1.769374 )

     reciprocal axes: (cart. coord. in units 2 pi/alat)
               b(1) = (  0.906489  0.523362  0.000000 )
               b(2) = (  0.000000  1.046723  0.000000 )
               b(3) = (  0.000000  0.000000  0.565172 )

     PseudoPot. # 1 for Ce read from file:
     /home/jld5415/pp.La/Ce.UPF
     MD5 check sum: 44451aa79a44a00cf2bc029dc19922f6
     Pseudo is Norm-conserving, Zval = 12.0
     Generated in analytical, separable form
     Using radial grid of 1255 points,  6 beta functions with:
                l(1) =   0
                l(2) =   0
                l(3) =   1
                l(4) =   1
                l(5) =   2
                l(6) =   3

     PseudoPot. # 2 for Pr read from file:
     /home/jld5415/pp.La/Pr.UPF
     MD5 check sum: 70e2b4b153859e92c8c91247dfc63203
     Pseudo is Norm-conserving, Zval = 13.0
     Generated in analytical, separable form
     Using radial grid of 1255 points,  6 beta functions with:
                l(1) =   0
                l(2) =   0
                l(3) =   1
                l(4) =   1
                l(5) =   2
                l(6) =   3

     atomic species   valence    mass     pseudopotential
        Mg            12.00    24.30500     Ce( 1.00)
        Zn            13.00    65.39000     Pr( 1.00)

     24 Sym. Ops., with inversion, found (12 have fractional translation)

   Cartesian axes

     site n.     atom                  positions (alat units)
         1           Mg  tau(   1) = (  -0.0000006   0.6369086   0.1115078  )
         2           Mg  tau(   2) = (   0.5515793   0.3184538   0.9961947  )
         3           Mg  tau(   3) = (   0.5515793   0.3184538   1.6578658  )
         4           Mg  tau(   4) = (  -0.0000006   0.6369086   0.7731790  )
         5           Zn  tau(   5) = (   0.0000000   0.0000000   0.0000000  )
         6           Zn  tau(   6) = (   0.0000000   0.0000000   0.8846868  )
         7           Zn  tau(   7) = (   0.0000000   0.3285791   1.3270303  )
         8           Zn  tau(   8) = (   0.8185995   0.1642896   0.4423434  )
         9           Zn  tau(   9) = (   0.2845579   0.1642896   0.4423434  )
        10           Zn  tau(  10) = (   0.2670208   0.7910728   1.3270303  )
        11           Zn  tau(  11) = (  -0.2670208   0.7910728   1.3270303  )
        12           Zn  tau(  12) = (   0.5515787   0.6267832   0.4423434  )

     number of k points=    12  gaussian smearing, width (Ry)=  0.1000
                       cart. coord. in units 2pi/alat
        k(    1) = (   0.0000000   0.0000000   0.0000000), wk =   0.0833333
        k(    2) = (   0.0000000   0.0000000   0.1412929), wk =   0.1666667
        k(    3) = (   0.0000000   0.0000000  -0.2825859), wk =   0.0833333
        k(    4) = (   0.0000000   0.3489078   0.0000000), wk =   0.1666667
        k(    5) = (   0.0000000   0.3489078   0.1412929), wk =   0.3333333
        k(    6) = (   0.0000000   0.3489078  -0.2825859), wk =   0.1666667
        k(    7) = (  -0.4532445  -0.2616808   0.0000000), wk =   0.0833333
        k(    8) = (  -0.4532445  -0.2616808   0.1412929), wk =   0.1666667
        k(    9) = (  -0.4532445  -0.2616808  -0.2825859), wk =   0.0833333
        k(   10) = (  -0.4532445   0.0872269   0.0000000), wk =   0.1666667
        k(   11) = (  -0.4532445   0.0872269   0.1412929), wk =   0.3333333
        k(   12) = (  -0.4532445   0.0872269  -0.2825859), wk =   0.1666667

     Largest allocated arrays     est. size (Mb)     dimensions
     Largest temporary arrays     est. size (Mb)     dimensions

     Initial potential from superposition of free atoms
     Check: negative starting charge=   -0.002251

     starting charge  103.92434, renormalised to  152.00000

     negative rho (up, down):  0.329E-02 0.000E+00
     Starting wfc are  160 randomized atomic wfcs

     Writing output data file Prototype-La-hP12-MgZn2.save

     Self-consistent Calculation

[...]

     negative rho (up, down):  0.301E-06 0.000E+00

[...]

     iteration # 16     ecut=    40.00 Ry     beta=0.70
     CG style diagonalization
     c_bands:  1 eigenvalues not converged
     c_bands:  2 eigenvalues not converged
     c_bands:  2 eigenvalues not converged
     ethr =  6.01E-09,  avg # of iterations =  6.0

     total energy              =   -1052.31279293 Ry
     Harris-Foulkes estimate   =   -1052.31280173 Ry
     estimated scf accuracy    <       0.00002473 Ry

     iteration # 17     ecut=    40.00 Ry     beta=0.70
     CG style diagonalization
     ethr =  6.01E-09,  avg # of iterations =  4.0

     End of self-consistent calculation

[...]

          k = 0.0000 0.3489-0.2826 (  7772 PWs)   bands (ev):

[...]

          k =-0.4532 0.0872-0.2826 (  7786 PWs)   bands (ev):

   -22.9092 -22.9092 -22.6844 -22.6844 -22.3302 -22.3302 -22.2859 -22.2859
   -17.3712 -17.3712 -17.3085 -17.3085  -4.5470  -4.5470  -3.8329  -3.8329
    -3.3571  -3.3571  -3.2743  -3.2743  -3.1142  -3.1142  -2.8890  -2.8890
    -2.4727  -2.4727  -2.1295  -2.1295  -1.8881  -1.8881  -1.6918  -1.6918
    -1.3524  -1.3524  -1.2654  -1.2654   0.5491   0.5491   0.5953   0.5953
     0.7044   0.7044   0.8827   0.8827   1.0484   1.0484   1.0640   1.0640
    16.2231  16.2231  16.6345  16.6345  17.0447  17.0447  17.3974  17.3974
    17.5188  17.5188  17.6807  17.6807  17.8270  17.8270  18.0706  18.0706
    18.2474  18.2474  18.6384  18.6384  18.9313  18.9313  19.3227  19.3227
    19.6768  19.6768  19.9560  19.9560  20.2644  20.2644  20.9042  20.9042
    21.2959  21.2959  21.4714  21.4714  21.7442  21.7442  22.0084  22.0084
    22.2068  22.2068  22.9143

     the Fermi energy is    20.2825 ev

!    total energy              =   -1052.31279648 Ry
     Harris-Foulkes estimate   =   -1052.31279669 Ry
     estimated scf accuracy    <       0.00000027 Ry

     The total energy is the sum of the following terms:

     one-electron contribution =      19.41582080 Ry
     hartree contribution      =      93.11418448 Ry
     xc contribution           =    -134.26856258 Ry
     ewald contribution        =   -1029.77978855 Ry
     smearing contrib. (-TS)   =      -0.79445063 Ry

     convergence has been achieved in  17 iterations

     Forces acting on atoms (Ry/au):

     atom    1 type  1   force =     0.00000000    0.00000000    0.00167071
     atom    2 type  1   force =     0.00000000    0.00000000    0.00167071
     atom    3 type  1   force =     0.00000000    0.00000000   -0.00167071
     atom    4 type  1   force =     0.00000000    0.00000000   -0.00167071
     atom    5 type  2   force =     0.00000000    0.00000000    0.00000000
     atom    6 type  2   force =     0.00000000    0.00000000    0.00000000
     atom    7 type  2   force =     0.00000000    0.00284410    0.00000000
     atom    8 type  2   force =    -0.00246306    0.00142205    0.00000000
     atom    9 type  2   force =     0.00246306    0.00142205    0.00000000
     atom   10 type  2   force =    -0.00246306   -0.00142205    0.00000000
     atom   11 type  2   force =     0.00246306   -0.00142205    0.00000000
     atom   12 type  2   force =     0.00000000   -0.00284410    0.00000000

     Total force =     0.007726     Total SCF correction =     0.000354

     entering subroutine stress ...

          total   stress  (Ry/bohr**3)                   (kbar)     P=  206.29
   0.00141986   0.00000000   0.00000000        208.87      0.00      0.00
   0.00000000   0.00141986   0.00000000          0.00    208.87      0.00
   0.00000000   0.00000000   0.00136724          0.00      0.00    201.13

     Writing output data file Prototype-La-hP12-MgZn2.save

     General routines

     Parallel routines

   This run was terminated on:   1: 6:11  22Mar2018

   JOB DONE.