     Program PWSCF v.5.0.2 starts on 22Mar2018 at 21:33:54

     Current dimensions of program PWSCF are:
     Max number of different atomic species (ntypx) = 10
     Max number of k-points (npk) =  40000
     Max angular momentum in pseudopotentials (lmaxx) =  3
     Waiting for input...
     Reading input from standard input

     Subspace diagonalization in iterative solution of the eigenvalue problem:
     a serial algorithm will be used

     bravais-lattice index     =            0
     lattice parameter (alat)  =       8.5346  a.u.
     unit-cell volume          =     621.6493 (a.u.)^3
     number of atoms/cell      =            8
     number of atomic types    =            2
     number of electrons       =       170.00
     number of Kohn-Sham states=          102
     kinetic-energy cutoff     =      40.0000  Ry
     charge density cutoff     =     160.0000  Ry
     convergence threshold     =      1.0E-04
     mixing beta               =       0.7000
     number of iterations used =            8  plain     mixing
     Exchange-correlation      = SLA-PZ-NOGX-NOGC ( 1 1 0 0 0)
     EXX-fraction              =        0.00
     nstep                     =           50

     celldm(1)=   8.534573  celldm(2)=   0.000000  celldm(3)=   0.000000
     celldm(4)=   0.000000  celldm(5)=   0.000000  celldm(6)=   0.000000

     crystal axes: (cart. coord. in units of alat)
               a(1) = (   1.000000   0.000000   0.000000 )
               a(2) = (   0.000000   1.000000   0.000000 )
               a(3) = (   0.000000   0.000000   1.000000 )

     reciprocal axes: (cart. coord. in units 2 pi/alat)
               b(1) = (  1.000000  0.000000  0.000000 )
               b(2) = (  0.000000  1.000000  0.000000 )
               b(3) = (  0.000000  0.000000  1.000000 )

     PseudoPot. # 1 for Tm read from file:
     /home/cwx6513/pp.La/Tm.UPF
     MD5 check sum: 245516e0878b5372ceeb9443ded2c4e1
     Pseudo is Norm-conserving, Zval = 23.0
     Generated in analytical, separable form
     Using radial grid of 1269 points,  6 beta functions with:
                l(1) =   0
                l(2) =   0
                l(3) =   1
                l(4) =   1
                l(5) =   2
                l(6) =   3

     PseudoPot. # 2 for Sm read from file:
     /home/cwx6513/pp.La/Sm.UPF
     MD5 check sum: 5079e8b144a06bfcdbc14fb02b96ab09
     Pseudo is Norm-conserving, Zval = 16.0
     Generated in analytical, separable form
     Using radial grid of 1259 points,  6 beta functions with:
                l(1) =   0
                l(2) =   0
                l(3) =   1
                l(4) =   1
                l(5) =   2
                l(6) =   3

     atomic species   valence    mass     pseudopotential
        Cr            23.00    51.99610     Tm( 1.00)
        Si            16.00    28.08550     Sm( 1.00)

     48 Sym. Ops., with inversion, found (24 have fractional translation)

   Cartesian axes

     site n.     atom                  positions (alat units)
         1           Cr  tau(   1) = (   0.0000000   0.5000000   0.2500000  )
         2           Cr  tau(   2) = (   0.0000000   0.5000000   0.7500000  )
         3           Cr  tau(   3) = (   0.5000000   0.7500000   0.0000000  )
         4           Cr  tau(   4) = (   0.5000000   0.2500000   0.0000000  )
         5           Cr  tau(   5) = (   0.7500000   0.0000000   0.5000000  )
         6           Cr  tau(   6) = (   0.2500000   0.0000000   0.5000000  )
         7           Si  tau(   7) = (   0.5000000   0.5000000   0.5000000  )
         8           Si  tau(   8) = (   0.0000000   0.0000000   0.0000000  )

     number of k points=    48  gaussian smearing, width (Ry)=  0.1000
                       cart. coord. in units 2pi/alat
        k(    1) = (   0.0000000   0.0000000   0.0000000), wk =   0.0095238
        k(    2) = (   0.0000000   0.0000000   0.1428571), wk =   0.0190476
        k(    3) = (   0.0000000   0.0000000   0.2857143), wk =   0.0190476
        k(    4) = (   0.0000000   0.0000000   0.4285714), wk =   0.0190476
        k(    5) = (   0.0000000   0.1666667   0.0000000), wk =   0.0190476
        k(    6) = (   0.0000000   0.1666667   0.1428571), wk =   0.0380952
        k(    7) = (   0.0000000   0.1666667   0.2857143), wk =   0.0380952
        k(    8) = (   0.0000000   0.1666667   0.4285714), wk =   0.0380952
        k(    9) = (   0.0000000   0.3333333   0.0000000), wk =   0.0190476
        k(   10) = (   0.0000000   0.3333333   0.1428571), wk =   0.0380952
        k(   11) = (   0.0000000   0.3333333   0.2857143), wk =   0.0380952
        k(   12) = (   0.0000000   0.3333333   0.4285714), wk =   0.0380952
        k(   13) = (   0.0000000  -0.5000000   0.0000000), wk =   0.0095238
        k(   14) = (   0.0000000  -0.5000000   0.1428571), wk =   0.0190476
        k(   15) = (   0.0000000  -0.5000000   0.2857143), wk =   0.0190476
        k(   16) = (   0.0000000  -0.5000000   0.4285714), wk =   0.0190476
        k(   17) = (   0.2000000   0.0000000   0.0000000), wk =   0.0190476
        k(   18) = (   0.2000000   0.0000000   0.1428571), wk =   0.0380952
        k(   19) = (   0.2000000   0.0000000   0.2857143), wk =   0.0380952
        k(   20) = (   0.2000000   0.0000000   0.4285714), wk =   0.0380952
        k(   21) = (   0.2000000   0.1666667   0.0000000), wk =   0.0380952
        k(   22) = (   0.2000000   0.1666667   0.1428571), wk =   0.0761905
        k(   23) = (   0.2000000   0.1666667   0.2857143), wk =   0.0761905
        k(   24) = (   0.2000000   0.1666667   0.4285714), wk =   0.0761905
        k(   25) = (   0.2000000   0.3333333   0.0000000), wk =   0.0380952
        k(   26) = (   0.2000000   0.3333333   0.1428571), wk =   0.0761905
        k(   27) = (   0.2000000   0.3333333   0.2857143), wk =   0.0761905
        k(   28) = (   0.2000000   0.3333333   0.4285714), wk =   0.0761905
        k(   29) = (   0.2000000  -0.5000000   0.0000000), wk =   0.0190476
        k(   30) = (   0.2000000  -0.5000000   0.1428571), wk =   0.0380952
        k(   31) = (   0.2000000  -0.5000000   0.2857143), wk =   0.0380952
        k(   32) = (   0.2000000  -0.5000000   0.4285714), wk =   0.0380952
        k(   33) = (   0.4000000   0.0000000   0.0000000), wk =   0.0190476
        k(   34) = (   0.4000000   0.0000000   0.1428571), wk =   0.0380952
        k(   35) = (   0.4000000   0.0000000   0.2857143), wk =   0.0380952
        k(   36) = (   0.4000000   0.0000000   0.4285714), wk =   0.0380952
        k(   37) = (   0.4000000   0.1666667   0.0000000), wk =   0.0380952
        k(   38) = (   0.4000000   0.1666667   0.1428571), wk =   0.0761905
        k(   39) = (   0.4000000   0.1666667   0.2857143), wk =   0.0761905
        k(   40) = (   0.4000000   0.1666667   0.4285714), wk =   0.0761905
        k(   41) = (   0.4000000   0.3333333   0.0000000), wk =   0.0380952
        k(   42) = (   0.4000000   0.3333333   0.1428571), wk =   0.0761905
        k(   43) = (   0.4000000   0.3333333   0.2857143), wk =   0.0761905
        k(   44) = (   0.4000000   0.3333333   0.4285714), wk =   0.0761905
        k(   45) = (   0.4000000  -0.5000000   0.0000000), wk =   0.0190476
        k(   46) = (   0.4000000  -0.5000000   0.1428571), wk =   0.0380952
        k(   47) = (   0.4000000  -0.5000000   0.2857143), wk =   0.0380952
        k(   48) = (   0.4000000  -0.5000000   0.4285714), wk =   0.0380952

     Largest allocated arrays     est. size (Mb)     dimensions
     Largest temporary arrays     est. size (Mb)     dimensions

     Initial potential from superposition of free atoms

     Starting from uniform charge
     Starting wfc are    0 randomized atomic wfcs

     Self-consistent Calculation

     iteration #  1     ecut=    40.00 Ry     beta=0.70
     CG style diagonalization
     c_bands:  3 eigenvalues not converged
     c_bands:  5 eigenvalues not converged
     c_bands:  4 eigenvalues not converged
     c_bands:  1 eigenvalues not converged
     c_bands:  4 eigenvalues not converged
     c_bands:  3 eigenvalues not converged
     ethr =  1.00E-02,  avg # of iterations = 15.9

     total energy              =   -1964.03046122 Ry
     Harris-Foulkes estimate   =   -2987.77216954 Ry
     estimated scf accuracy    <    1257.87302836 Ry

[...]

     iteration #  4     ecut=    40.00 Ry     beta=0.70
     CG style diagonalization
     ethr =  1.00E-02,  avg # of iterations =  4.3

[...]

     End of self-consistent calculation

          k = 0.0000 0.0000 0.0000 (  2601 PWs)   bands (ev):

   -61.8401 -61.8401 -61.7137 -61.4425 -61.4425 -61.4425 -22.1253 -22.1253
   -22.0250 -20.7383 -20.7383 -20.7383 -20.4050 -20.4050 -20.4050 -20.3204
   -20.3204 -20.3204 -20.2421 -20.2421 -20.2421 -19.9876 -19.9876 -19.9876
    -8.4380  -8.4063  15.0794  15.0794  15.0794  15.1474  15.1474  15.1474
    22.5879  22.5879  22.5917  24.4218  24.4218  24.4218  26.0648  26.7982
    26.7982  26.7982  26.9507  26.9507  27.0198  27.0198  27.0198  27.5458
    28.5695  28.5695  28.5695  29.3038  29.4720  29.4720  29.6165  29.6165
    29.6165  29.6574  29.6574  29.6574  30.6738  30.6738  30.6738  35.8201
    35.8201  41.7805  41.7805  41.7805  41.8210  41.8210  42.3186  42.3186
    42.3186  42.7235  42.7235  42.7235  46.6131  47.9771  47.9771  47.9771
    50.5314  50.5314  51.2541  51.2541  51.2541  52.5571  52.5571  52.9131
    54.8974  54.8974  54.8974  55.8972  56.0285  56.0285  56.0285  56.4090
    56.4091  56.4091  57.5722  57.5722  57.5722  57.8800

[...]

     the Fermi energy is    52.7542 ev

!    total energy              =   -2497.09468077 Ry
     Harris-Foulkes estimate   =   -2497.09476200 Ry
     estimated scf accuracy    <       0.00009028 Ry

     The total energy is the sum of the following terms:

     one-electron contribution =     -82.56256295 Ry
     hartree contribution      =     273.48997558 Ry
     xc contribution           =    -222.87335559 Ry
     ewald contribution        =   -2464.84919034 Ry
     smearing contrib. (-TS)   =      -0.29954747 Ry

     convergence has been achieved in   9 iterations

     Forces acting on atoms (Ry/au):

     atom    1 type  1   force =     0.00000000    0.00000000    0.00000000
     atom    2 type  1   force =     0.00000000    0.00000000    0.00000000
     atom    3 type  1   force =     0.00000000    0.00000000    0.00000000
     atom    4 type  1   force =     0.00000000    0.00000000    0.00000000
     atom    5 type  1   force =     0.00000000    0.00000000    0.00000000
     atom    6 type  1   force =     0.00000000    0.00000000    0.00000000
     atom    7 type  2   force =     0.00000000    0.00000000    0.00000000
     atom    8 type  2   force =     0.00000000    0.00000000    0.00000000

     Total force =     0.000000     Total SCF correction =     0.000000

     entering subroutine stress ...

          total   stress  (Ry/bohr**3)                   (kbar)     P= 5597.62
   0.03805188   0.00000000   0.00000000       5597.62      0.00      0.00
   0.00000000   0.03805188   0.00000000          0.00   5597.62      0.00
   0.00000000   0.00000000   0.03805188          0.00      0.00   5597.62

     BFGS Geometry Optimization

     number of scf cycles    =   1
[...]

     new trust radius        =       0.1285834670 bohr

     trust_radius < trust_radius_min

     resetting bfgs history

     Message from routine bfgs:
     history already reset at previous step: stopping
     new conv_thr            =       0.0000010000 Ry

     new unit-cell volume =   1050.03850 a.u.^3 (   155.59965 Ang^3 )

[...]

ATOMIC_POSITIONS (crystal)
Cr       0.000000000   0.500000000   0.250000000
Cr       0.000000000   0.500000000   0.750000000
Cr       0.500000000   0.750000000   0.000000000
Cr       0.500000000   0.250000000   0.000000000
Cr       0.750000000   0.000000000   0.500000000
Cr       0.250000000   0.000000000   0.500000000
Si       0.500000000   0.500000000   0.500000000
Si       0.000000000   0.000000000   0.000000000

     Writing output data file Prototype-La-cP8-Cr3Si.save
     NEW-OLD atomic charge density approx. for the potential
     NEW k-points:
        k(    1) = (   0.0000000   0.0000000   0.0000000), wk =   0.0095238
        k(    2) = (   0.0000000   0.0000000   0.1199542), wk =   0.0190476
        k(    3) = (   0.0000000   0.0000000   0.2399083), wk =   0.0190476
        k(    4) = (   0.0000000   0.0000000   0.3598625), wk =   0.0190476
        k(    5) = (   0.0000000   0.1399465   0.0000000), wk =   0.0190476
        k(    6) = (   0.0000000   0.1399465   0.1199542), wk =   0.0380952
        k(    7) = (   0.0000000   0.1399465   0.2399083), wk =   0.0380952
        k(    8) = (   0.0000000   0.1399465   0.3598625), wk =   0.0380952
        k(    9) = (   0.0000000   0.2798931   0.0000000), wk =   0.0190476
        k(   10) = (   0.0000000   0.2798931   0.1199542), wk =   0.0380952
        k(   11) = (   0.0000000   0.2798931   0.2399083), wk =   0.0380952
        k(   12) = (   0.0000000   0.2798931   0.3598625), wk =   0.0380952
        k(   13) = (   0.0000000  -0.4198396   0.0000000), wk =   0.0095238
        k(   14) = (   0.0000000  -0.4198396   0.1199542), wk =   0.0190476
        k(   15) = (   0.0000000  -0.4198396   0.2399083), wk =   0.0190476
        k(   16) = (   0.0000000  -0.4198396   0.3598625), wk =   0.0190476
        k(   17) = (   0.1679358   0.0000000   0.0000000), wk =   0.0190476
        k(   18) = (   0.1679358   0.0000000   0.1199542), wk =   0.0380952
        k(   19) = (   0.1679358   0.0000000   0.2399083), wk =   0.0380952
        k(   20) = (   0.1679358   0.0000000   0.3598625), wk =   0.0380952
        k(   21) = (   0.1679358   0.1399465   0.0000000), wk =   0.0380952
        k(   22) = (   0.1679358   0.1399465   0.1199542), wk =   0.0761905
        k(   23) = (   0.1679358   0.1399465   0.2399083), wk =   0.0761905
        k(   24) = (   0.1679358   0.1399465   0.3598625), wk =   0.0761905
        k(   25) = (   0.1679358   0.2798931   0.0000000), wk =   0.0380952
        k(   26) = (   0.1679358   0.2798931   0.1199542), wk =   0.0761905
        k(   27) = (   0.1679358   0.2798931   0.2399083), wk =   0.0761905
        k(   28) = (   0.1679358   0.2798931   0.3598625), wk =   0.0761905
        k(   29) = (   0.1679358  -0.4198396   0.0000000), wk =   0.0190476
        k(   30) = (   0.1679358  -0.4198396   0.1199542), wk =   0.0380952
        k(   31) = (   0.1679358  -0.4198396   0.2399083), wk =   0.0380952
        k(   32) = (   0.1679358  -0.4198396   0.3598625), wk =   0.0380952
        k(   33) = (   0.3358717   0.0000000   0.0000000), wk =   0.0190476
        k(   34) = (   0.3358717   0.0000000   0.1199542), wk =   0.0380952
        k(   35) = (   0.3358717   0.0000000   0.2399083), wk =   0.0380952
        k(   36) = (   0.3358717   0.0000000   0.3598625), wk =   0.0380952
        k(   37) = (   0.3358717   0.1399465   0.0000000), wk =   0.0380952
        k(   38) = (   0.3358717   0.1399465   0.1199542), wk =   0.0761905
        k(   39) = (   0.3358717   0.1399465   0.2399083), wk =   0.0761905
        k(   40) = (   0.3358717   0.1399465   0.3598625), wk =   0.0761905
        k(   41) = (   0.3358717   0.2798931   0.0000000), wk =   0.0380952
        k(   42) = (   0.3358717   0.2798931   0.1199542), wk =   0.0761905
        k(   43) = (   0.3358717   0.2798931   0.2399083), wk =   0.0761905
        k(   44) = (   0.3358717   0.2798931   0.3598625), wk =   0.0761905
        k(   45) = (   0.3358717  -0.4198396   0.0000000), wk =   0.0190476
        k(   46) = (   0.3358717  -0.4198396   0.1199542), wk =   0.0380952
        k(   47) = (   0.3358717  -0.4198396   0.2399083), wk =   0.0380952
        k(   48) = (   0.3358717  -0.4198396   0.3598625), wk =   0.0380952

[...]

          total   stress  (Ry/bohr**3)                   (kbar)     P=-1581.34
  -0.01074973   0.00000000   0.00000000      -1581.34      0.00      0.00
   0.00000000  -0.01074973   0.00000000          0.00  -1581.34      0.00
   0.00000000   0.00000000  -0.01074973          0.00      0.00  -1581.34

     The maximum number of steps has been reached.

     End of BFGS Geometry Optimization
Begin final coordinates
     new unit-cell volume =   1050.03850 a.u.^3 (   155.59965 Ang^3 )

CELL_PARAMETERS (alat=  8.53457320)
   1.190931000   0.000000000   0.000000000
   0.000000000   1.190931000   0.000000000
   0.000000000   0.000000000   1.190931000

ATOMIC_POSITIONS (crystal)
Cr       0.000000000   0.500000000   0.250000000
Cr       0.000000000   0.500000000   0.750000000
Cr       0.500000000   0.750000000   0.000000000
Cr       0.500000000   0.250000000   0.000000000
Cr       0.750000000   0.000000000   0.500000000
Cr       0.250000000   0.000000000   0.500000000
Si       0.500000000   0.500000000   0.500000000
Si       0.000000000   0.000000000   0.000000000
End final coordinates

     A final scf calculation at the relaxed structure.
     The G-vectors are recalculated for the final unit cell
     Results may differ from those at the preceding step.

     bravais-lattice index     =            0
     lattice parameter (alat)  =       8.5346  a.u.
     unit-cell volume          =    1050.0385 (a.u.)^3
     number of atoms/cell      =            8
     number of atomic types    =            2
     number of electrons       =       170.00
     number of Kohn-Sham states=          102
     kinetic-energy cutoff     =      40.0000  Ry
     charge density cutoff     =     160.0000  Ry
     convergence threshold     =      1.0E-06
     mixing beta               =       0.7000
     number of iterations used =            8  plain     mixing
     Exchange-correlation      = SLA-PZ-NOGX-NOGC ( 1 1 0 0 0)
     EXX-fraction              =        0.00

     celldm(1)=   8.534573  celldm(2)=   0.000000  celldm(3)=   0.000000
     celldm(4)=   0.000000  celldm(5)=   0.000000  celldm(6)=   0.000000

     crystal axes: (cart. coord. in units of alat)
               a(1) = (   1.190931   0.000000   0.000000 )
               a(2) = (   0.000000   1.190931   0.000000 )
               a(3) = (   0.000000   0.000000   1.190931 )

     reciprocal axes: (cart. coord. in units 2 pi/alat)
               b(1) = (  0.839679  0.000000  0.000000 )
               b(2) = (  0.000000  0.839679  0.000000 )
               b(3) = (  0.000000  0.000000  0.839679 )

     PseudoPot. # 1 for Tm read from file:
     /home/cwx6513/pp.La/Tm.UPF
     MD5 check sum: 245516e0878b5372ceeb9443ded2c4e1
     Pseudo is Norm-conserving, Zval = 23.0
     Generated in analytical, separable form
     Using radial grid of 1269 points,  6 beta functions with:
                l(1) =   0
                l(2) =   0
                l(3) =   1
                l(4) =   1
                l(5) =   2
                l(6) =   3

     PseudoPot. # 2 for Sm read from file:
     /home/cwx6513/pp.La/Sm.UPF
     MD5 check sum: 5079e8b144a06bfcdbc14fb02b96ab09
     Pseudo is Norm-conserving, Zval = 16.0
     Generated in analytical, separable form
     Using radial grid of 1259 points,  6 beta functions with:
                l(1) =   0
                l(2) =   0
                l(3) =   1
                l(4) =   1
                l(5) =   2
                l(6) =   3

     atomic species   valence    mass     pseudopotential
        Cr            23.00    51.99610     Tm( 1.00)
        Si            16.00    28.08550     Sm( 1.00)

     48 Sym. Ops., with inversion, found (24 have fractional translation)

   Cartesian axes

     site n.     atom                  positions (alat units)
         1           Cr  tau(   1) = (   0.0000000   0.5954655   0.2977327  )
         2           Cr  tau(   2) = (   0.0000000   0.5954655   0.8931982  )
         3           Cr  tau(   3) = (   0.5954655   0.8931982   0.0000000  )
         4           Cr  tau(   4) = (   0.5954655   0.2977327   0.0000000  )
         5           Cr  tau(   5) = (   0.8931982   0.0000000   0.5954655  )
         6           Cr  tau(   6) = (   0.2977327   0.0000000   0.5954655  )
         7           Si  tau(   7) = (   0.5954655   0.5954655   0.5954655  )
         8           Si  tau(   8) = (   0.0000000   0.0000000   0.0000000  )

     number of k points=    48  gaussian smearing, width (Ry)=  0.1000
                       cart. coord. in units 2pi/alat
        k(    1) = (   0.0000000   0.0000000   0.0000000), wk =   0.0095238
        k(    2) = (   0.0000000   0.0000000   0.1199542), wk =   0.0190476
        k(    3) = (   0.0000000   0.0000000   0.2399083), wk =   0.0190476
        k(    4) = (   0.0000000   0.0000000   0.3598625), wk =   0.0190476
        k(    5) = (   0.0000000   0.1399465   0.0000000), wk =   0.0190476
        k(    6) = (   0.0000000   0.1399465   0.1199542), wk =   0.0380952
        k(    7) = (   0.0000000   0.1399465   0.2399083), wk =   0.0380952
        k(    8) = (   0.0000000   0.1399465   0.3598625), wk =   0.0380952
        k(    9) = (   0.0000000   0.2798931   0.0000000), wk =   0.0190476
        k(   10) = (   0.0000000   0.2798931   0.1199542), wk =   0.0380952
        k(   11) = (   0.0000000   0.2798931   0.2399083), wk =   0.0380952
        k(   12) = (   0.0000000   0.2798931   0.3598625), wk =   0.0380952
        k(   13) = (   0.0000000  -0.4198396   0.0000000), wk =   0.0095238
        k(   14) = (   0.0000000  -0.4198396   0.1199542), wk =   0.0190476
        k(   15) = (   0.0000000  -0.4198396   0.2399083), wk =   0.0190476
        k(   16) = (   0.0000000  -0.4198396   0.3598625), wk =   0.0190476
        k(   17) = (   0.1679358   0.0000000   0.0000000), wk =   0.0190476
        k(   18) = (   0.1679358   0.0000000   0.1199542), wk =   0.0380952
        k(   19) = (   0.1679358   0.0000000   0.2399083), wk =   0.0380952
        k(   20) = (   0.1679358   0.0000000   0.3598625), wk =   0.0380952
        k(   21) = (   0.1679358   0.1399465   0.0000000), wk =   0.0380952
        k(   22) = (   0.1679358   0.1399465   0.1199542), wk =   0.0761905
        k(   23) = (   0.1679358   0.1399465   0.2399083), wk =   0.0761905
        k(   24) = (   0.1679358   0.1399465   0.3598625), wk =   0.0761905
        k(   25) = (   0.1679358   0.2798931   0.0000000), wk =   0.0380952
        k(   26) = (   0.1679358   0.2798931   0.1199542), wk =   0.0761905
        k(   27) = (   0.1679358   0.2798931   0.2399083), wk =   0.0761905
        k(   28) = (   0.1679358   0.2798931   0.3598625), wk =   0.0761905
        k(   29) = (   0.1679358  -0.4198396   0.0000000), wk =   0.0190476
        k(   30) = (   0.1679358  -0.4198396   0.1199542), wk =   0.0380952
        k(   31) = (   0.1679358  -0.4198396   0.2399083), wk =   0.0380952
        k(   32) = (   0.1679358  -0.4198396   0.3598625), wk =   0.0380952
        k(   33) = (   0.3358717   0.0000000   0.0000000), wk =   0.0190476
        k(   34) = (   0.3358717   0.0000000   0.1199542), wk =   0.0380952
        k(   35) = (   0.3358717   0.0000000   0.2399083), wk =   0.0380952
        k(   36) = (   0.3358717   0.0000000   0.3598625), wk =   0.0380952
        k(   37) = (   0.3358717   0.1399465   0.0000000), wk =   0.0380952
        k(   38) = (   0.3358717   0.1399465   0.1199542), wk =   0.0761905
        k(   39) = (   0.3358717   0.1399465   0.2399083), wk =   0.0761905
        k(   40) = (   0.3358717   0.1399465   0.3598625), wk =   0.0761905
        k(   41) = (   0.3358717   0.2798931   0.0000000), wk =   0.0380952
        k(   42) = (   0.3358717   0.2798931   0.1199542), wk =   0.0761905
        k(   43) = (   0.3358717   0.2798931   0.2399083), wk =   0.0761905
        k(   44) = (   0.3358717   0.2798931   0.3598625), wk =   0.0761905
        k(   45) = (   0.3358717  -0.4198396   0.0000000), wk =   0.0190476
        k(   46) = (   0.3358717  -0.4198396   0.1199542), wk =   0.0380952
        k(   47) = (   0.3358717  -0.4198396   0.2399083), wk =   0.0380952
        k(   48) = (   0.3358717  -0.4198396   0.3598625), wk =   0.0380952

     Largest allocated arrays     est. size (Mb)     dimensions
     Largest temporary arrays     est. size (Mb)     dimensions

     Initial potential from superposition of free atoms

     Starting from uniform charge
     Starting wfc are    0 randomized atomic wfcs

     Writing output data file Prototype-La-cP8-Cr3Si.save

     Self-consistent Calculation

[...]

     iteration #  8     ecut=    40.00 Ry     beta=0.70
     CG style diagonalization
     c_bands:  2 eigenvalues not converged
     c_bands:  2 eigenvalues not converged
     c_bands:  1 eigenvalues not converged
     c_bands:  1 eigenvalues not converged
     c_bands:  1 eigenvalues not converged
     c_bands:  1 eigenvalues not converged
     c_bands:  1 eigenvalues not converged
     c_bands:  1 eigenvalues not converged
     ethr =  1.02E-06,  avg # of iterations =  4.5

[...]

     total energy              =   -2506.58443445 Ry
     Harris-Foulkes estimate   =   -2506.58443500 Ry
     estimated scf accuracy    <       0.00000123 Ry

     iteration # 11     ecut=    40.00 Ry     beta=0.70
     CG style diagonalization
     ethr =  7.25E-10,  avg # of iterations =  5.2

     End of self-consistent calculation

[...]

          k = 0.3359-0.4198 0.3599 (  4510 PWs)   bands (ev):

   -82.1660 -82.1641 -82.1638 -82.1601 -82.1569 -82.1511 -41.0195 -41.0051
   -40.9718 -40.9718 -40.9343 -40.9166 -40.7760 -40.7746 -40.7731 -40.7725
   -40.7714 -40.7684 -40.7680 -40.7669 -40.7651 -40.7636 -40.7572 -40.7563
   -27.7844 -27.7844  -3.1765  -3.1762  -3.1737  -3.1736  -3.1716  -3.1715
     7.2617   7.3792   7.6718   7.6736   7.7366   7.7444   7.7697   7.7868
     7.8812   7.8870   7.9252   7.9620   7.9720   7.9832   8.0442   8.0471
     8.2353   8.2355   8.3050   8.3079   8.3234   8.3343   8.3534   8.3868
     8.4785   8.4853   8.5052   8.5067   8.5258   8.5391  16.9562  16.9652
    17.6549  17.6563  18.2351  18.2439  22.2019  22.2020  25.0516  25.0516
    25.1151  25.1169  26.2082  26.2196  26.3616  26.4699  26.5570  26.5571
    28.4096  28.5235  29.2804  29.3333  30.2249  30.6422  31.7776  31.8667
    32.2588  32.3217  32.7540  32.7670  33.7901  33.7927  34.2603  34.2720
    34.4691  34.5128  35.1769  35.1993  35.6062  35.8175

     the Fermi energy is    30.1619 ev

!    total energy              =   -2506.58443704 Ry
     Harris-Foulkes estimate   =   -2506.58443728 Ry
     estimated scf accuracy    <       0.00000030 Ry

     The total energy is the sum of the following terms:

     one-electron contribution =    -651.76911405 Ry
     hartree contribution      =     428.91523348 Ry
     xc contribution           =    -213.77091735 Ry
     ewald contribution        =   -2069.68261898 Ry
     smearing contrib. (-TS)   =      -0.27702014 Ry

     convergence has been achieved in  11 iterations

     Forces acting on atoms (Ry/au):

     atom    1 type  1   force =     0.00000000    0.00000000    0.00000000
     atom    2 type  1   force =     0.00000000    0.00000000    0.00000000
     atom    3 type  1   force =     0.00000000    0.00000000    0.00000000
     atom    4 type  1   force =     0.00000000    0.00000000    0.00000000
     atom    5 type  1   force =     0.00000000    0.00000000    0.00000000
     atom    6 type  1   force =     0.00000000    0.00000000    0.00000000
     atom    7 type  2   force =     0.00000000    0.00000000    0.00000000
     atom    8 type  2   force =     0.00000000    0.00000000    0.00000000

     Total force =     0.000000     Total SCF correction =     0.000000

     entering subroutine stress ...

          total   stress  (Ry/bohr**3)                   (kbar)     P=  134.73
   0.00091590   0.00000000   0.00000000        134.73      0.00      0.00
   0.00000000   0.00091590   0.00000000          0.00    134.73      0.00
   0.00000000   0.00000000   0.00091590          0.00      0.00    134.73

     Writing output data file Prototype-La-cP8-Cr3Si.save

     General routines

     Parallel routines

   This run was terminated on:  22: 3:38  22Mar2018

   JOB DONE.