     Program PWSCF v.5.0.2 starts on 22Mar2018 at 21:35:40

     Current dimensions of program PWSCF are:
     Max number of different atomic species (ntypx) = 10
     Max number of k-points (npk) =  40000
     Max angular momentum in pseudopotentials (lmaxx) =  3
     Waiting for input...
     Reading input from standard input

     Subspace diagonalization in iterative solution of the eigenvalue problem:
     a serial algorithm will be used

     bravais-lattice index     =            0
     lattice parameter (alat)  =       7.0151  a.u.
     unit-cell volume          =     862.2778 (a.u.)^3
     number of atoms/cell      =           12
     number of atomic types    =            2
     number of electrons       =       248.00
     number of Kohn-Sham states=          149
     kinetic-energy cutoff     =      40.0000  Ry
     charge density cutoff     =     160.0000  Ry
     convergence threshold     =      1.0E-04
     mixing beta               =       0.7000
     number of iterations used =            8  plain     mixing
     Exchange-correlation      = SLA-PZ-NOGX-NOGC ( 1 1 0 0 0)
     EXX-fraction              =        0.00
     nstep                     =           50

     celldm(1)=   7.015105  celldm(2)=   0.000000  celldm(3)=   0.000000
     celldm(4)=   0.000000  celldm(5)=   0.000000  celldm(6)=   0.000000

     crystal axes: (cart. coord. in units of alat)
               a(1) = (   1.000000   0.000000   0.000000 )
               a(2) = (   0.000000   1.315963   0.000000 )
               a(3) = (   0.000000   0.000000   1.898020 )

     reciprocal axes: (cart. coord. in units 2 pi/alat)
               b(1) = (  1.000000  0.000000  0.000000 )
               b(2) = (  0.000000  0.759900  0.000000 )
               b(3) = (  0.000000  0.000000  0.526865 )

     PseudoPot. # 1 for Tm read from file:
     /home/cwx6513/pp.La/Tm.UPF
     MD5 check sum: 245516e0878b5372ceeb9443ded2c4e1
     Pseudo is Norm-conserving, Zval = 23.0
     Generated in analytical, separable form
     Using radial grid of 1269 points,  6 beta functions with:
                l(1) =   0
                l(2) =   0
                l(3) =   1
                l(4) =   1
                l(5) =   2
                l(6) =   3

     PseudoPot. # 2 for Sm read from file:
     /home/cwx6513/pp.La/Sm.UPF
     MD5 check sum: 5079e8b144a06bfcdbc14fb02b96ab09
     Pseudo is Norm-conserving, Zval = 16.0
     Generated in analytical, separable form
     Using radial grid of 1259 points,  6 beta functions with:
                l(1) =   0
                l(2) =   0
                l(3) =   1
                l(4) =   1
                l(5) =   2
                l(6) =   3

     atomic species   valence    mass     pseudopotential
        Co            23.00    58.93320     Tm( 1.00)
        Si            16.00    28.08550     Sm( 1.00)

      8 Sym. Ops., with inversion, found ( 6 have fractional translation)

   Cartesian axes

     site n.     atom                  positions (alat units)
         1           Co  tau(   1) = (   0.7500000   1.0875135   0.8270358  )
         2           Co  tau(   2) = (   0.2500000   0.2284499   1.0709846  )
         3           Co  tau(   3) = (   0.7500000   0.4295318   0.1219744  )
         4           Co  tau(   4) = (   0.2500000   0.8864316   1.7760460  )
         5           Co  tau(   5) = (   0.2500000   0.7067855   0.5358966  )
         6           Co  tau(   6) = (   0.7500000   0.6091779   1.3621238  )
         7           Co  tau(   7) = (   0.2500000   0.0488038   0.4131136  )
         8           Co  tau(   8) = (   0.7500000   1.2671596   1.4849068  )
         9           Si  tau(   9) = (   0.2500000   0.2669484   1.6960710  )
        10           Si  tau(  10) = (   0.7500000   1.0490149   0.2019494  )
        11           Si  tau(  11) = (   0.2500000   0.9249301   1.1509596  )
        12           Si  tau(  12) = (   0.7500000   0.3910333   0.7470608  )

     number of k points=    12  gaussian smearing, width (Ry)=  0.1000
                       cart. coord. in units 2pi/alat
        k(    1) = (   0.0000000   0.0000000   0.0000000), wk =   0.0833333
        k(    2) = (   0.0000000   0.0000000   0.1317162), wk =   0.1666667
        k(    3) = (   0.0000000   0.0000000  -0.2634324), wk =   0.0833333
        k(    4) = (   0.0000000   0.2532999   0.0000000), wk =   0.1666667
        k(    5) = (   0.0000000   0.2532999   0.1317162), wk =   0.3333333
        k(    6) = (   0.0000000   0.2532999  -0.2634324), wk =   0.1666667
        k(    7) = (  -0.5000000   0.0000000   0.0000000), wk =   0.0833333
        k(    8) = (  -0.5000000   0.0000000   0.1317162), wk =   0.1666667
        k(    9) = (  -0.5000000   0.0000000  -0.2634324), wk =   0.0833333
        k(   10) = (  -0.5000000   0.2532999   0.0000000), wk =   0.1666667
        k(   11) = (  -0.5000000   0.2532999   0.1317162), wk =   0.3333333
        k(   12) = (  -0.5000000   0.2532999  -0.2634324), wk =   0.1666667

     Largest allocated arrays     est. size (Mb)     dimensions
     Largest temporary arrays     est. size (Mb)     dimensions

     Initial potential from superposition of free atoms

     Starting from uniform charge
     Starting wfc are    0 randomized atomic wfcs

     Self-consistent Calculation

     iteration #  1     ecut=    40.00 Ry     beta=0.70
     CG style diagonalization
     ethr =  1.00E-02,  avg # of iterations = 17.8

     total energy              =   -2621.00116265 Ry
     Harris-Foulkes estimate   =   -4151.63095975 Ry
     estimated scf accuracy    <    1878.98158814 Ry

     iteration #  2     ecut=    40.00 Ry     beta=0.70
     CG style diagonalization
     c_bands:  2 eigenvalues not converged
     c_bands:  2 eigenvalues not converged
     c_bands:  2 eigenvalues not converged
     ethr =  1.00E-02,  avg # of iterations = 16.2

[...]

     End of self-consistent calculation

          k = 0.0000 0.0000 0.0000 (  3675 PWs)   bands (ev):

   -58.5168 -58.5126 -58.4732 -58.4475 -58.4342 -58.4233 -58.3952 -58.3777
   -18.1138 -17.9739 -17.9076 -17.8314 -17.7333 -17.7232 -17.7227 -17.6278
   -17.5748 -17.5279 -17.4985 -17.4933 -17.4658 -17.4014 -17.3926 -17.3679
   -17.3465 -17.3030 -17.2740 -17.2541 -17.2506 -17.1248 -17.1001 -17.0536
    -5.9301  -5.7435  -5.7399  -5.7270  16.5978  16.9754  16.9761  17.0041
    17.1954  17.2549  17.2602  17.3315  17.6287  17.9471  18.0829  18.5049
    27.3032  27.5158  27.5645  27.5647  27.7891  27.9864  28.0077  28.2286
    28.8085  28.9888  29.0109  29.2060  29.3669  29.6069  29.8326  30.2155
    30.3334  30.4115  30.4798  30.5166  30.6127  30.7939  30.8490  30.8796
    31.0311  31.1906  31.3807  31.4150  31.6387  31.9443  32.1021  32.1170
    32.4141  32.4230  32.7610  32.7866  32.8852  33.0824  33.1101  33.2280
    33.2692  37.9066  38.2543  38.4949  42.0835  42.6671  42.8222  43.4825
    43.6669  44.6517  44.8399  44.8898  45.7873  46.1448  46.2499  46.5711
    46.6705  47.4489  47.7814  47.8474  48.9557  49.2646  49.3026  49.4634
    49.7305  49.9279  50.3116  51.8397  52.8961  53.6175  53.9697  54.3961
    55.3706  55.8440  55.8565  56.1480  56.6145  56.6951  57.2380  57.4919
    57.5237  57.6728  58.0019  58.3825  58.5065  59.1073  59.1226  59.1525
    59.4023  59.5372  59.8881  59.8979  60.0825  60.3410  60.5165  60.5798
    60.6579  60.8585  61.1038  62.2409  62.4412

[...]

          k =-0.5000 0.0000 0.0000 (  3722 PWs)   bands (ev):

[...]

     the Fermi energy is    55.9875 ev

!    total energy              =   -3527.68239284 Ry
     Harris-Foulkes estimate   =   -3527.68241978 Ry
     estimated scf accuracy    <       0.00002993 Ry

     The total energy is the sum of the following terms:

     one-electron contribution =      55.68430108 Ry
     hartree contribution      =     347.26998739 Ry
     xc contribution           =    -323.49148943 Ry
     ewald contribution        =   -3606.76219260 Ry
     smearing contrib. (-TS)   =      -0.38299928 Ry

     convergence has been achieved in  10 iterations

     Forces acting on atoms (Ry/au):

     atom    1 type  1   force =     0.00000000   -0.13508882   -0.12116732
     atom    2 type  1   force =     0.00000000    0.13508882    0.12116732
     atom    3 type  1   force =     0.00000000   -0.13508882    0.12116732
     atom    4 type  1   force =     0.00000000    0.13508882   -0.12116732
     atom    5 type  1   force =     0.00000000    0.13390373   -0.07813039
     atom    6 type  1   force =     0.00000000   -0.13390373    0.07813039
     atom    7 type  1   force =     0.00000000    0.13390373    0.07813039
     atom    8 type  1   force =     0.00000000   -0.13390373   -0.07813039
     atom    9 type  2   force =     0.00000000   -0.22821840    0.01042960
     atom   10 type  2   force =     0.00000000    0.22821840   -0.01042960
     atom   11 type  2   force =     0.00000000   -0.22821840   -0.01042960
     atom   12 type  2   force =     0.00000000    0.22821840    0.01042960

     Total force =     0.660780     Total SCF correction =     0.000000

     entering subroutine stress ...

          total   stress  (Ry/bohr**3)                   (kbar)     P= 7292.78
   0.05153651   0.00000000   0.00000000       7581.28      0.00      0.00
   0.00000000   0.04754363   0.00000000          0.00   6993.91      0.00
   0.00000000   0.00000000   0.04964577          0.00      0.00   7303.14

     BFGS Geometry Optimization

     number of scf cycles    =   1
     number of bfgs steps    =   0

     enthalpy new            =   -3527.6823928391 Ry

     new trust radius        =       0.5000000000 bohr
     new conv_thr            =       0.0001000000 Ry

     new unit-cell volume =   1091.94475 a.u.^3 (   161.80951 Ang^3 )

CELL_PARAMETERS (alat=  7.01510508)
   1.085136619   0.000000000   0.000000000
   0.000000000   1.419319827   0.000000000
   0.000000000   0.000000000   2.053683110

ATOMIC_POSITIONS (crystal)
Co       0.750000000   0.825434053   0.435134671
Co       0.250000000   0.174565947   0.564865329
Co       0.750000000   0.325434053   0.064865329
Co       0.250000000   0.674565947   0.935134671
Co       0.250000000   0.538044465   0.281957255
Co       0.750000000   0.461955535   0.718042745
Co       0.250000000   0.038044465   0.218042745
Co       0.750000000   0.961955535   0.781957255
Si       0.250000000   0.201220444   0.893651760
Si       0.750000000   0.798779556   0.106348240
Si       0.250000000   0.701220444   0.606348240
Si       0.750000000   0.298779556   0.393651760

     Writing output data file Prototype-La-oP12-Co2Si.save
     NEW-OLD atomic charge density approx. for the potential
     NEW k-points:
        k(    1) = (   0.0000000   0.0000000   0.0000000), wk =   0.0833333
        k(    2) = (   0.0000000   0.0000000   0.1217325), wk =   0.1666667
        k(    3) = (   0.0000000   0.0000000  -0.2434650), wk =   0.0833333
        k(    4) = (   0.0000000   0.2348543   0.0000000), wk =   0.1666667
        k(    5) = (   0.0000000   0.2348543   0.1217325), wk =   0.3333333
        k(    6) = (   0.0000000   0.2348543  -0.2434650), wk =   0.1666667
        k(    7) = (  -0.4607715   0.0000000   0.0000000), wk =   0.0833333
        k(    8) = (  -0.4607715   0.0000000   0.1217325), wk =   0.1666667
        k(    9) = (  -0.4607715   0.0000000  -0.2434650), wk =   0.0833333
        k(   10) = (  -0.4607715   0.2348543   0.0000000), wk =   0.1666667
        k(   11) = (  -0.4607715   0.2348543   0.1217325), wk =   0.3333333
        k(   12) = (  -0.4607715   0.2348543  -0.2434650), wk =   0.1666667

[...]

     enthalpy old            =   -3527.6823928391 Ry
     enthalpy new            =   -3534.5708162935 Ry

     CASE: enthalpy_new < enthalpy_old

     small trust_radius: resetting bfgs history

     new trust radius        =       2.4673690519 bohr
     new conv_thr            =       0.0001000000 Ry

[...]

          total   stress  (Ry/bohr**3)                   (kbar)     P=-4167.43
  -0.02936161   0.00000000   0.00000000      -4319.24      0.00      0.00
   0.00000000  -0.02745407   0.00000000          0.00  -4038.63      0.00
   0.00000000   0.00000000  -0.02817324          0.00      0.00  -4144.43

     number of scf cycles    =   3
     number of bfgs steps    =   2

     enthalpy old            =   -3534.5708162935 Ry
     enthalpy new            =   -3506.8071402567 Ry

     CASE: enthalpy_new > enthalpy_old

     new trust radius        =       0.5497131322 bohr

     trust_radius < trust_radius_min

     resetting bfgs history

     Message from routine bfgs:
     history already reset at previous step: stopping
     new conv_thr            =       0.0001000000 Ry

     new unit-cell volume =   1309.80876 a.u.^3 (   194.09363 Ang^3 )

[...]

ATOMIC_POSITIONS (crystal)
Co       0.750000000   0.824843655   0.434839484
Co       0.250000000   0.175156345   0.565160516
Co       0.750000000   0.324843655   0.065160516
Co       0.250000000   0.675156345   0.934839484
Co       0.250000000   0.538860482   0.281794898
Co       0.750000000   0.461139518   0.718205102
Co       0.250000000   0.038860482   0.218205102
Co       0.750000000   0.961139518   0.781794898
Si       0.250000000   0.199757801   0.894190038
Si       0.750000000   0.800242199   0.105809962
Si       0.250000000   0.699757801   0.605809962
Si       0.750000000   0.300242199   0.394190038

     Writing output data file Prototype-La-oP12-Co2Si.save
     NEW-OLD atomic charge density approx. for the potential
     NEW k-points:
        k(    1) = (   0.0000000   0.0000000   0.0000000), wk =   0.0833333
        k(    2) = (   0.0000000   0.0000000   0.1146104), wk =   0.1666667
        k(    3) = (   0.0000000   0.0000000  -0.2292209), wk =   0.0833333
        k(    4) = (   0.0000000   0.2215385   0.0000000), wk =   0.1666667
        k(    5) = (   0.0000000   0.2215385   0.1146104), wk =   0.3333333
        k(    6) = (   0.0000000   0.2215385  -0.2292209), wk =   0.1666667
        k(    7) = (  -0.4325239   0.0000000   0.0000000), wk =   0.0833333
        k(    8) = (  -0.4325239   0.0000000   0.1146104), wk =   0.1666667
        k(    9) = (  -0.4325239   0.0000000  -0.2292209), wk =   0.0833333
        k(   10) = (  -0.4325239   0.2215385   0.0000000), wk =   0.1666667
        k(   11) = (  -0.4325239   0.2215385   0.1146104), wk =   0.3333333
        k(   12) = (  -0.4325239   0.2215385  -0.2292209), wk =   0.1666667

[...]

     The maximum number of steps has been reached.

     End of BFGS Geometry Optimization
Begin final coordinates
     new unit-cell volume =   1309.80876 a.u.^3 (   194.09363 Ang^3 )

CELL_PARAMETERS (alat=  7.01510508)
   1.156005502   0.000000000   0.000000000
   0.000000000   1.504629472   0.000000000
   0.000000000   0.000000000   2.181302439

ATOMIC_POSITIONS (crystal)
Co       0.750000000   0.824843655   0.434839484
Co       0.250000000   0.175156345   0.565160516
Co       0.750000000   0.324843655   0.065160516
Co       0.250000000   0.675156345   0.934839484
Co       0.250000000   0.538860482   0.281794898
Co       0.750000000   0.461139518   0.718205102
Co       0.250000000   0.038860482   0.218205102
Co       0.750000000   0.961139518   0.781794898
Si       0.250000000   0.199757801   0.894190038
Si       0.750000000   0.800242199   0.105809962
Si       0.250000000   0.699757801   0.605809962
Si       0.750000000   0.300242199   0.394190038
End final coordinates

     A final scf calculation at the relaxed structure.
     The G-vectors are recalculated for the final unit cell
     Results may differ from those at the preceding step.

     bravais-lattice index     =            0
     lattice parameter (alat)  =       7.0151  a.u.
     unit-cell volume          =    1309.8088 (a.u.)^3
     number of atoms/cell      =           12
     number of atomic types    =            2
     number of electrons       =       248.00
     number of Kohn-Sham states=          149
     kinetic-energy cutoff     =      40.0000  Ry
     charge density cutoff     =     160.0000  Ry
     convergence threshold     =      1.0E-04
     mixing beta               =       0.7000
     number of iterations used =            8  plain     mixing
     Exchange-correlation      = SLA-PZ-NOGX-NOGC ( 1 1 0 0 0)
     EXX-fraction              =        0.00

     celldm(1)=   7.015105  celldm(2)=   0.000000  celldm(3)=   0.000000
     celldm(4)=   0.000000  celldm(5)=   0.000000  celldm(6)=   0.000000

     crystal axes: (cart. coord. in units of alat)
               a(1) = (   1.156006   0.000000   0.000000 )
               a(2) = (   0.000000   1.504629   0.000000 )
               a(3) = (   0.000000   0.000000   2.181302 )

     reciprocal axes: (cart. coord. in units 2 pi/alat)
               b(1) = (  0.865048  0.000000  0.000000 )
               b(2) = (  0.000000  0.664615  0.000000 )
               b(3) = (  0.000000  0.000000  0.458442 )

     PseudoPot. # 1 for Tm read from file:
     /home/cwx6513/pp.La/Tm.UPF
     MD5 check sum: 245516e0878b5372ceeb9443ded2c4e1
     Pseudo is Norm-conserving, Zval = 23.0
     Generated in analytical, separable form
     Using radial grid of 1269 points,  6 beta functions with:
                l(1) =   0
                l(2) =   0
                l(3) =   1
                l(4) =   1
                l(5) =   2
                l(6) =   3

     PseudoPot. # 2 for Sm read from file:
     /home/cwx6513/pp.La/Sm.UPF
     MD5 check sum: 5079e8b144a06bfcdbc14fb02b96ab09
     Pseudo is Norm-conserving, Zval = 16.0
     Generated in analytical, separable form
     Using radial grid of 1259 points,  6 beta functions with:
                l(1) =   0
                l(2) =   0
                l(3) =   1
                l(4) =   1
                l(5) =   2
                l(6) =   3

     atomic species   valence    mass     pseudopotential
        Co            23.00    58.93320     Tm( 1.00)
        Si            16.00    28.08550     Sm( 1.00)

      8 Sym. Ops., with inversion, found ( 6 have fractional translation)

   Cartesian axes

     site n.     atom                  positions (alat units)
         1           Co  tau(   1) = (   0.8670041   1.2410841   0.9485164  )
         2           Co  tau(   2) = (   0.2890014   0.2635454   1.2327860  )
         3           Co  tau(   3) = (   0.8670041   0.4887693   0.1421348  )
         4           Co  tau(   4) = (   0.2890014   1.0158601   2.0391676  )
         5           Co  tau(   5) = (   0.2890014   0.8107854   0.6146799  )
         6           Co  tau(   6) = (   0.8670041   0.6938441   1.5666225  )
         7           Co  tau(   7) = (   0.2890014   0.0584706   0.4759713  )
         8           Co  tau(   8) = (   0.8670041   1.4461588   1.7053311  )
         9           Si  tau(   9) = (   0.2890014   0.3005615   1.9504989  )
        10           Si  tau(  10) = (   0.8670041   1.2040680   0.2308035  )
        11           Si  tau(  11) = (   0.2890014   1.0528762   1.3214547  )
        12           Si  tau(  12) = (   0.8670041   0.4517533   0.8598477  )

     number of k points=    12  gaussian smearing, width (Ry)=  0.1000
                       cart. coord. in units 2pi/alat
        k(    1) = (   0.0000000   0.0000000   0.0000000), wk =   0.0833333
        k(    2) = (   0.0000000   0.0000000   0.1146104), wk =   0.1666667
        k(    3) = (   0.0000000   0.0000000  -0.2292209), wk =   0.0833333
        k(    4) = (   0.0000000   0.2215385   0.0000000), wk =   0.1666667
        k(    5) = (   0.0000000   0.2215385   0.1146104), wk =   0.3333333
        k(    6) = (   0.0000000   0.2215385  -0.2292209), wk =   0.1666667
        k(    7) = (  -0.4325239   0.0000000   0.0000000), wk =   0.0833333
        k(    8) = (  -0.4325239   0.0000000   0.1146104), wk =   0.1666667
        k(    9) = (  -0.4325239   0.0000000  -0.2292209), wk =   0.0833333
        k(   10) = (  -0.4325239   0.2215385   0.0000000), wk =   0.1666667
        k(   11) = (  -0.4325239   0.2215385   0.1146104), wk =   0.3333333
        k(   12) = (  -0.4325239   0.2215385  -0.2292209), wk =   0.1666667

     Largest allocated arrays     est. size (Mb)     dimensions
     Largest temporary arrays     est. size (Mb)     dimensions

     Initial potential from superposition of free atoms

     Starting from uniform charge
     Starting wfc are    0 randomized atomic wfcs

     Writing output data file Prototype-La-oP12-Co2Si.save

     Self-consistent Calculation

[...]

     iteration #  9     ecut=    40.00 Ry     beta=0.70
     CG style diagonalization
     c_bands:  1 eigenvalues not converged
     ethr =  2.57E-06,  avg # of iterations =  4.1

[...]

     total energy              =   -3542.13088148 Ry
     Harris-Foulkes estimate   =   -3542.13093837 Ry
     estimated scf accuracy    <       0.00010001 Ry

     iteration # 11     ecut=    40.00 Ry     beta=0.70
     CG style diagonalization
     ethr =  4.03E-08,  avg # of iterations =  3.8

     End of self-consistent calculation

[...]

          k = 0.0000 0.2215-0.2292 (  5574 PWs)   bands (ev):

[...]

          k =-0.4325 0.2215-0.2292 (  5584 PWs)   bands (ev):

   -76.4329 -76.4329 -76.4290 -76.4290 -76.3701 -76.3701 -76.3647 -76.3647
   -35.2401 -35.2401 -35.1861 -35.1861 -35.1829 -35.1829 -35.1730 -35.1730
   -35.1532 -35.1532 -35.1395 -35.1395 -35.1214 -35.1214 -35.1093 -35.1093
   -35.0954 -35.0954 -35.0871 -35.0871 -35.0676 -35.0676 -35.0664 -35.0664
   -22.4402 -22.4402 -22.4376 -22.4376   1.6643   1.6643   1.7025   1.7025
     1.7877   1.7877   1.7989   1.7989   2.0722   2.0722   2.0953   2.0953
    12.6652  12.6652  12.9513  12.9513  12.9800  12.9800  13.1015  13.1015
    13.1196  13.1196  13.2051  13.2051  13.3260  13.3260  13.4659  13.4659
    13.4964  13.4964  13.6147  13.6147  13.6834  13.6834  13.7502  13.7502
    13.8222  13.8222  13.8563  13.8563  13.8612  13.8612  13.9899  13.9899
    14.0585  14.0585  14.2697  14.2697  14.3349  14.3349  14.4650  14.4650
    21.7763  21.7763  22.5266  22.5266  23.5939  23.5939  24.1705  24.1705
    27.7041  27.7041  28.0192  28.0192  28.4598  28.4598  28.7169  28.7169
    29.6952  29.6952  30.2291  30.2291  30.6222  30.6222  31.0883  31.0883
    31.1533  31.1533  32.0787  32.0787  33.4826  33.4826  34.1899  34.1899
    35.0402  35.0402  36.0558  36.0558  36.4633  36.4633  37.1031  37.1031
    38.8407  38.8407  38.9062  38.9063  39.9052  39.9053  40.2302  40.2302
    40.5267  40.5267  40.8627  40.8628  41.3510  41.3512  41.7579  41.7579
    42.3121  42.3123  42.3897  42.3900  42.9826

     the Fermi energy is    36.1527 ev

!    total energy              =   -3542.13090518 Ry
     Harris-Foulkes estimate   =   -3542.13090937 Ry
     estimated scf accuracy    <       0.00000419 Ry

     The total energy is the sum of the following terms:

     one-electron contribution =    -605.32262810 Ry
     hartree contribution      =     512.81272512 Ry
     xc contribution           =    -310.94625344 Ry
     ewald contribution        =   -3138.30944438 Ry
     smearing contrib. (-TS)   =      -0.36530438 Ry

     convergence has been achieved in  11 iterations

     Forces acting on atoms (Ry/au):

     atom    1 type  1   force =     0.00000000   -0.03301199   -0.02921429
     atom    2 type  1   force =     0.00000000    0.03301199    0.02921429
     atom    3 type  1   force =     0.00000000   -0.03301199    0.02921429
     atom    4 type  1   force =     0.00000000    0.03301199   -0.02921429
     atom    5 type  1   force =     0.00000000    0.03404783    0.01444852
     atom    6 type  1   force =     0.00000000   -0.03404783   -0.01444852
     atom    7 type  1   force =     0.00000000    0.03404783   -0.01444852
     atom    8 type  1   force =     0.00000000   -0.03404783    0.01444852
     atom    9 type  2   force =     0.00000000   -0.06126786    0.04113141
     atom   10 type  2   force =     0.00000000    0.06126786   -0.04113141
     atom   11 type  2   force =     0.00000000   -0.06126786   -0.04113141
     atom   12 type  2   force =     0.00000000    0.06126786    0.04113141

     Total force =     0.187156     Total SCF correction =     0.000000

     entering subroutine stress ...

          total   stress  (Ry/bohr**3)                   (kbar)     P= 1052.30
   0.00740581   0.00000000   0.00000000       1089.43      0.00      0.00
   0.00000000   0.00702757   0.00000000          0.00   1033.79      0.00
   0.00000000   0.00000000   0.00702682          0.00      0.00   1033.68

     Writing output data file Prototype-La-oP12-Co2Si.save

     General routines

     Parallel routines

   This run was terminated on:  21:54:45  22Mar2018

   JOB DONE.