     Program PWSCF v.5.0.2 starts on 22Mar2018 at 21:35:39

     Current dimensions of program PWSCF are:
     Max number of different atomic species (ntypx) = 10
     Max number of k-points (npk) =  40000
     Max angular momentum in pseudopotentials (lmaxx) =  3
     Waiting for input...
     Reading input from standard input

     Subspace diagonalization in iterative solution of the eigenvalue problem:
     a serial algorithm will be used

     bravais-lattice index     =            0
     lattice parameter (alat)  =       9.9235  a.u.
     unit-cell volume          =    1361.0366 (a.u.)^3
     number of atoms/cell      =           12
     number of atomic types    =            2
     number of electrons       =       220.00
     number of Kohn-Sham states=          132
     kinetic-energy cutoff     =      40.0000  Ry
     charge density cutoff     =     160.0000  Ry
     convergence threshold     =      1.0E-04
     mixing beta               =       0.7000
     number of iterations used =            8  plain     mixing
     Exchange-correlation      = SLA-PZ-NOGX-NOGC ( 1 1 0 0 0)
     EXX-fraction              =        0.00
     nstep                     =           50

     celldm(1)=   9.923489  celldm(2)=   0.000000  celldm(3)=   0.000000
     celldm(4)=   0.000000  celldm(5)=   0.000000  celldm(6)=   0.000000

     crystal axes: (cart. coord. in units of alat)
               a(1) = (   1.000000   0.000000   0.000000 )
               a(2) = (  -0.500000   0.866025   0.000000 )
               a(3) = (   0.000000   0.000000   1.608222 )

     reciprocal axes: (cart. coord. in units 2 pi/alat)
               b(1) = (  1.000000  0.577350  0.000000 )
               b(2) = (  0.000000  1.154701  0.000000 )
               b(3) = (  0.000000  0.000000  0.621805 )

     PseudoPot. # 1 for Tm read from file:
     /home/cwx6513/pp.La/Tm.UPF
     MD5 check sum: 245516e0878b5372ceeb9443ded2c4e1
     Pseudo is Norm-conserving, Zval = 23.0
     Generated in analytical, separable form
     Using radial grid of 1269 points,  6 beta functions with:
                l(1) =   0
                l(2) =   0
                l(3) =   1
                l(4) =   1
                l(5) =   2
                l(6) =   3

     PseudoPot. # 2 for Sm read from file:
     /home/cwx6513/pp.La/Sm.UPF
     MD5 check sum: 5079e8b144a06bfcdbc14fb02b96ab09
     Pseudo is Norm-conserving, Zval = 16.0
     Generated in analytical, separable form
     Using radial grid of 1259 points,  6 beta functions with:
                l(1) =   0
                l(2) =   0
                l(3) =   1
                l(4) =   1
                l(5) =   2
                l(6) =   3

     atomic species   valence    mass     pseudopotential
        Mg            23.00    24.30500     Tm( 1.00)
        Zn            16.00    65.39000     Sm( 1.00)

     24 Sym. Ops., with inversion, found (12 have fractional translation)

   Cartesian axes

     site n.     atom                  positions (alat units)
         1           Mg  tau(   1) = (  -0.0000005   0.5773506   0.1003820  )
         2           Mg  tau(   2) = (   0.5000005   0.2886748   0.9044931  )
         3           Mg  tau(   3) = (   0.5000005   0.2886748   1.5078402  )
         4           Mg  tau(   4) = (  -0.0000005   0.5773506   0.7037291  )
         5           Zn  tau(   5) = (   0.0000000   0.0000000   0.0000000  )
         6           Zn  tau(   6) = (   0.0000000   0.0000000   0.8041111  )
         7           Zn  tau(   7) = (   0.0000000   0.2950739   1.2061667  )
         8           Zn  tau(   8) = (   0.7444585   0.1475370   0.4020556  )
         9           Zn  tau(   9) = (   0.2555415   0.1475370   0.4020556  )
        10           Zn  tau(  10) = (   0.2444585   0.7184884   1.2061667  )
        11           Zn  tau(  11) = (  -0.2444585   0.7184884   1.2061667  )
        12           Zn  tau(  12) = (   0.5000000   0.5709515   0.4020556  )

     number of k points=    12  gaussian smearing, width (Ry)=  0.1000
                       cart. coord. in units 2pi/alat
        k(    1) = (   0.0000000   0.0000000   0.0000000), wk =   0.0833333
        k(    2) = (   0.0000000   0.0000000   0.1554512), wk =   0.1666667
        k(    3) = (   0.0000000   0.0000000  -0.3109023), wk =   0.0833333
        k(    4) = (   0.0000000   0.3849002   0.0000000), wk =   0.1666667
        k(    5) = (   0.0000000   0.3849002   0.1554512), wk =   0.3333333
        k(    6) = (   0.0000000   0.3849002  -0.3109023), wk =   0.1666667
        k(    7) = (  -0.5000000  -0.2886751   0.0000000), wk =   0.0833333
        k(    8) = (  -0.5000000  -0.2886751   0.1554512), wk =   0.1666667
        k(    9) = (  -0.5000000  -0.2886751  -0.3109023), wk =   0.0833333
        k(   10) = (  -0.5000000   0.0962250   0.0000000), wk =   0.1666667
        k(   11) = (  -0.5000000   0.0962250   0.1554512), wk =   0.3333333
        k(   12) = (  -0.5000000   0.0962250  -0.3109023), wk =   0.1666667

     Largest allocated arrays     est. size (Mb)     dimensions
     Largest temporary arrays     est. size (Mb)     dimensions

     Initial potential from superposition of free atoms

     Starting from uniform charge
     Starting wfc are    0 randomized atomic wfcs

     Self-consistent Calculation

     iteration #  1     ecut=    40.00 Ry     beta=0.70
     CG style diagonalization
     ethr =  1.00E-02,  avg # of iterations = 18.5

     total energy              =   -1562.74766575 Ry
     Harris-Foulkes estimate   =   -3412.63055095 Ry
     estimated scf accuracy    <    2220.89971930 Ry

[...]

     iteration #  3     ecut=    40.00 Ry     beta=0.70
     CG style diagonalization
     c_bands:  1 eigenvalues not converged
     ethr =  1.00E-02,  avg # of iterations = 11.4

[...]

     End of self-consistent calculation

          k = 0.0000 0.0000 0.0000 (  5769 PWs)   bands (ev):

   -80.0735 -80.0590 -80.0533 -80.0111 -38.7621 -38.7454 -38.7403 -38.7403
   -38.7207 -38.7202 -38.7202 -38.6971 -38.6971 -38.6957 -38.6880 -38.6880
   -26.9877 -26.7634 -26.3933 -26.1474 -26.0932 -26.0931 -26.0913 -26.0913
    -4.7623  -4.1985  -3.6007  -2.8045  -2.8045  -2.6427  -2.6427  -2.5830
    -2.5829  -2.1091  -1.5996  -1.5995  -1.5582  -1.5582  -1.4638  -0.5798
    -0.5797  -0.5496  -0.5465  -0.5451  -0.2840  -0.2839  -0.1895  -0.1895
    10.0067  10.0067  10.0214  10.0303  10.1093  10.1093  10.1442  10.1442
    10.2428  10.2428  10.3979  10.3979  10.4076  10.4826  10.4826  10.4955
    10.4997  10.4997  10.5428  10.5428  17.3434  18.9893  19.9655  21.9076
    22.5930  22.5931  22.9212  23.0708  23.3242  23.5106  23.9494  23.9494
    24.4890  24.4891  24.5410  24.5410  25.6708  25.6708  25.9915  26.0937
    26.4783  26.4783  26.6169  26.6169  28.0905  28.0907  29.2509  29.3596
    29.6457  30.1958  30.7444  30.7444  30.7547  30.7548  30.8882  31.0232
    31.0233  31.1155  31.1156  31.5555  31.5556  31.8744  31.9879  31.9879
    32.5856  32.7441  32.7441  33.4888  33.5858  33.5859  34.2285  34.9404
    34.9404  35.2201  35.2201  35.8170  36.8101  36.9842  37.1072  37.2103
    37.2105  37.3353  37.5464  37.7134

[...]

          k =-0.5000-0.2887 0.0000 (  5800 PWs)   bands (ev):

[...]

     the Fermi energy is    31.7090 ev

!    total energy              =   -2680.76911581 Ry
     Harris-Foulkes estimate   =   -2680.76917661 Ry
     estimated scf accuracy    <       0.00006890 Ry

     The total energy is the sum of the following terms:

     one-electron contribution =    -327.42793613 Ry
     hartree contribution      =     351.84462406 Ry
     xc contribution           =    -255.36796412 Ry
     ewald contribution        =   -2449.28216429 Ry
     smearing contrib. (-TS)   =      -0.53567533 Ry

     convergence has been achieved in  11 iterations

     Forces acting on atoms (Ry/au):

     atom    1 type  1   force =     0.00000000    0.00000000    0.04006050
     atom    2 type  1   force =     0.00000000    0.00000000    0.04006050
     atom    3 type  1   force =     0.00000000    0.00000000   -0.04006050
     atom    4 type  1   force =     0.00000000    0.00000000   -0.04006050
     atom    5 type  2   force =     0.00000000    0.00000000    0.00000000
     atom    6 type  2   force =     0.00000000    0.00000000    0.00000000
     atom    7 type  2   force =     0.00000000    0.01528198    0.00000000
     atom    8 type  2   force =    -0.01323458    0.00764099    0.00000000
     atom    9 type  2   force =     0.01323458    0.00764099    0.00000000
     atom   10 type  2   force =    -0.01323458   -0.00764099    0.00000000
     atom   11 type  2   force =     0.01323458   -0.00764099    0.00000000
     atom   12 type  2   force =     0.00000000   -0.01528198    0.00000000

     Total force =     0.088434     Total SCF correction =     0.000000

     entering subroutine stress ...

          total   stress  (Ry/bohr**3)                   (kbar)     P=  738.48
   0.00505182   0.00000000   0.00000000        743.15      0.00      0.00
   0.00000000   0.00505182   0.00000000          0.00    743.15      0.00
   0.00000000   0.00000000   0.00495654          0.00      0.00    729.13

     BFGS Geometry Optimization

     number of scf cycles    =   1
     number of bfgs steps    =   0

     enthalpy new            =   -2680.7691158135 Ry

     new trust radius        =       0.5000000000 bohr
     new conv_thr            =       0.0001000000 Ry

     new unit-cell volume =   1654.91854 a.u.^3 (   245.23362 Ang^3 )

CELL_PARAMETERS (alat=  9.92348860)
   1.067764947   0.000000000   0.000000000
  -0.533882474   0.924711570   0.000000000
   0.000000000   0.000000000   1.715147781

ATOMIC_POSITIONS (crystal)
Mg       0.333333000   0.666667000   0.063764861
Mg       0.666667000   0.333333000   0.563764861
Mg       0.666667000   0.333333000   0.936235139
Mg       0.333333000   0.666667000   0.436235139
Zn       0.000000000   0.000000000   0.000000000
Zn       0.000000000   0.000000000   0.500000000
Zn       0.170838058   0.341676116   0.750000000
Zn       0.829161942   0.170838058   0.250000000
Zn       0.341676116   0.170838058   0.250000000
Zn       0.658323884   0.829161942   0.750000000
Zn       0.170838058   0.829161942   0.750000000
Zn       0.829161942   0.658323884   0.250000000

     Writing output data file Prototype-La-hP12-MgZn2.save
     NEW-OLD atomic charge density approx. for the potential
     NEW k-points:
        k(    1) = (   0.0000000   0.0000000   0.0000000), wk =   0.0833333
        k(    2) = (   0.0000000   0.0000000   0.1457600), wk =   0.1666667
        k(    3) = (   0.0000000   0.0000000  -0.2915201), wk =   0.0833333
        k(    4) = (   0.0000000   0.3604728   0.0000000), wk =   0.1666667
        k(    5) = (   0.0000000   0.3604728   0.1457600), wk =   0.3333333
        k(    6) = (   0.0000000   0.3604728  -0.2915201), wk =   0.1666667
        k(    7) = (  -0.4682679  -0.2703546   0.0000000), wk =   0.0833333
        k(    8) = (  -0.4682679  -0.2703546   0.1457600), wk =   0.1666667
        k(    9) = (  -0.4682679  -0.2703546  -0.2915201), wk =   0.0833333
        k(   10) = (  -0.4682679   0.0901182   0.0000000), wk =   0.1666667
        k(   11) = (  -0.4682679   0.0901182   0.1457600), wk =   0.3333333
        k(   12) = (  -0.4682679   0.0901182  -0.2915201), wk =   0.1666667

[...]

     enthalpy old            =   -2680.7691158135 Ry
     enthalpy new            =   -2680.9989327020 Ry

     CASE: enthalpy_new < enthalpy_old

     small trust_radius: resetting bfgs history

     new trust radius        =       0.5309435358 bohr
     new conv_thr            =       0.0000018984 Ry

[...]

     number of scf cycles    =   3
     number of bfgs steps    =   2

     enthalpy old            =   -2680.9989327020 Ry
     enthalpy new            =   -2680.7273226848 Ry

     CASE: enthalpy_new > enthalpy_old

     new trust radius        =       0.1940211181 bohr

     trust_radius < trust_radius_min

     resetting bfgs history

     Message from routine bfgs:
     history already reset at previous step: stopping
     new conv_thr            =       0.0000018984 Ry

     new unit-cell volume =   1359.88399 a.u.^3 (   201.51401 Ang^3 )

[...]

ATOMIC_POSITIONS (crystal)
Mg       0.333333000   0.666667000   0.063653950
Mg       0.666667000   0.333333000   0.563653950
Mg       0.666667000   0.333333000   0.936346050
Mg       0.333333000   0.666667000   0.436346050
Zn       0.000000000   0.000000000   0.000000000
Zn       0.000000000   0.000000000   0.500000000
Zn       0.170730233   0.341460467   0.750000000
Zn       0.829269767   0.170730233   0.250000000
Zn       0.341460467   0.170730233   0.250000000
Zn       0.658539533   0.829269767   0.750000000
Zn       0.170730233   0.829269767   0.750000000
Zn       0.829269767   0.658539533   0.250000000

     Writing output data file Prototype-La-hP12-MgZn2.save
     NEW-OLD atomic charge density approx. for the potential
     NEW k-points:
        k(    1) = (   0.0000000   0.0000000   0.0000000), wk =   0.0833333
        k(    2) = (   0.0000000   0.0000000   0.1555576), wk =   0.1666667
        k(    3) = (   0.0000000   0.0000000  -0.3111151), wk =   0.0833333
        k(    4) = (   0.0000000   0.3849316   0.0000000), wk =   0.1666667
        k(    5) = (   0.0000000   0.3849316   0.1555576), wk =   0.3333333
        k(    6) = (   0.0000000   0.3849316  -0.3111151), wk =   0.1666667
        k(    7) = (  -0.5000408  -0.2886987   0.0000000), wk =   0.0833333
        k(    8) = (  -0.5000408  -0.2886987   0.1555576), wk =   0.1666667
        k(    9) = (  -0.5000408  -0.2886987  -0.3111151), wk =   0.0833333
        k(   10) = (  -0.5000408   0.0962329   0.0000000), wk =   0.1666667
        k(   11) = (  -0.5000408   0.0962329   0.1555576), wk =   0.3333333
        k(   12) = (  -0.5000408   0.0962329  -0.3111151), wk =   0.1666667

[...]

     The maximum number of steps has been reached.

     End of BFGS Geometry Optimization
Begin final coordinates
     new unit-cell volume =   1359.88399 a.u.^3 (   201.51401 Ang^3 )

CELL_PARAMETERS (alat=  9.92348860)
   0.999918502   0.000000000   0.000000000
  -0.499959251   0.865954825   0.000000000
   0.000000000   0.000000000   1.607122177

ATOMIC_POSITIONS (crystal)
Mg       0.333333000   0.666667000   0.063653950
Mg       0.666667000   0.333333000   0.563653950
Mg       0.666667000   0.333333000   0.936346050
Mg       0.333333000   0.666667000   0.436346050
Zn       0.000000000   0.000000000   0.000000000
Zn       0.000000000   0.000000000   0.500000000
Zn       0.170730233   0.341460467   0.750000000
Zn       0.829269767   0.170730233   0.250000000
Zn       0.341460467   0.170730233   0.250000000
Zn       0.658539533   0.829269767   0.750000000
Zn       0.170730233   0.829269767   0.750000000
Zn       0.829269767   0.658539533   0.250000000
End final coordinates

     A final scf calculation at the relaxed structure.
     The G-vectors are recalculated for the final unit cell
     Results may differ from those at the preceding step.

     bravais-lattice index     =            0
     lattice parameter (alat)  =       9.9235  a.u.
     unit-cell volume          =    1359.8840 (a.u.)^3
     number of atoms/cell      =           12
     number of atomic types    =            2
     number of electrons       =       220.00
     number of Kohn-Sham states=          132
     kinetic-energy cutoff     =      40.0000  Ry
     charge density cutoff     =     160.0000  Ry
     convergence threshold     =      1.9E-06
     mixing beta               =       0.7000
     number of iterations used =            8  plain     mixing
     Exchange-correlation      = SLA-PZ-NOGX-NOGC ( 1 1 0 0 0)
     EXX-fraction              =        0.00

     celldm(1)=   9.923489  celldm(2)=   0.000000  celldm(3)=   0.000000
     celldm(4)=   0.000000  celldm(5)=   0.000000  celldm(6)=   0.000000

     crystal axes: (cart. coord. in units of alat)
               a(1) = (   0.999919   0.000000   0.000000 )
               a(2) = (  -0.499959   0.865955   0.000000 )
               a(3) = (   0.000000   0.000000   1.607122 )

     reciprocal axes: (cart. coord. in units 2 pi/alat)
               b(1) = (  1.000082  0.577397  0.000000 )
               b(2) = (  0.000000  1.154795  0.000000 )
               b(3) = (  0.000000  0.000000  0.622230 )

     PseudoPot. # 1 for Tm read from file:
     /home/cwx6513/pp.La/Tm.UPF
     MD5 check sum: 245516e0878b5372ceeb9443ded2c4e1
     Pseudo is Norm-conserving, Zval = 23.0
     Generated in analytical, separable form
     Using radial grid of 1269 points,  6 beta functions with:
                l(1) =   0
                l(2) =   0
                l(3) =   1
                l(4) =   1
                l(5) =   2
                l(6) =   3

     PseudoPot. # 2 for Sm read from file:
     /home/cwx6513/pp.La/Sm.UPF
     MD5 check sum: 5079e8b144a06bfcdbc14fb02b96ab09
     Pseudo is Norm-conserving, Zval = 16.0
     Generated in analytical, separable form
     Using radial grid of 1259 points,  6 beta functions with:
                l(1) =   0
                l(2) =   0
                l(3) =   1
                l(4) =   1
                l(5) =   2
                l(6) =   3

     atomic species   valence    mass     pseudopotential
        Mg            23.00    24.30500     Tm( 1.00)
        Zn            16.00    65.39000     Sm( 1.00)

     24 Sym. Ops., with inversion, found (12 have fractional translation)

   Cartesian axes

     site n.     atom                  positions (alat units)
         1           Mg  tau(   1) = (  -0.0000005   0.5773035   0.1022997  )
         2           Mg  tau(   2) = (   0.4999598   0.2886513   0.9058608  )
         3           Mg  tau(   3) = (   0.4999598   0.2886513   1.5048225  )
         4           Mg  tau(   4) = (  -0.0000005   0.5773035   0.7012614  )
         5           Zn  tau(   5) = (   0.0000000   0.0000000   0.0000000  )
         6           Zn  tau(   6) = (   0.0000000   0.0000000   0.8035611  )
         7           Zn  tau(   7) = (   0.0000000   0.2956893   1.2053416  )
         8           Zn  tau(   8) = (   0.7438440   0.1478447   0.4017805  )
         9           Zn  tau(   9) = (   0.2560745   0.1478447   0.4017805  )
        10           Zn  tau(  10) = (   0.2438848   0.7181102   1.2053416  )
        11           Zn  tau(  11) = (  -0.2438848   0.7181102   1.2053416  )
        12           Zn  tau(  12) = (   0.4999593   0.5702655   0.4017805  )

     number of k points=    12  gaussian smearing, width (Ry)=  0.1000
                       cart. coord. in units 2pi/alat
        k(    1) = (   0.0000000   0.0000000   0.0000000), wk =   0.0833333
        k(    2) = (   0.0000000   0.0000000   0.1555576), wk =   0.1666667
        k(    3) = (   0.0000000   0.0000000  -0.3111151), wk =   0.0833333
        k(    4) = (   0.0000000   0.3849316   0.0000000), wk =   0.1666667
        k(    5) = (   0.0000000   0.3849316   0.1555576), wk =   0.3333333
        k(    6) = (   0.0000000   0.3849316  -0.3111151), wk =   0.1666667
        k(    7) = (  -0.5000408  -0.2886987   0.0000000), wk =   0.0833333
        k(    8) = (  -0.5000408  -0.2886987   0.1555576), wk =   0.1666667
        k(    9) = (  -0.5000408  -0.2886987  -0.3111151), wk =   0.0833333
        k(   10) = (  -0.5000408   0.0962329   0.0000000), wk =   0.1666667
        k(   11) = (  -0.5000408   0.0962329   0.1555576), wk =   0.3333333
        k(   12) = (  -0.5000408   0.0962329  -0.3111151), wk =   0.1666667

     Largest allocated arrays     est. size (Mb)     dimensions
     Largest temporary arrays     est. size (Mb)     dimensions

     Initial potential from superposition of free atoms

     Starting from uniform charge
     Starting wfc are    0 randomized atomic wfcs

     Writing output data file Prototype-La-hP12-MgZn2.save

     Self-consistent Calculation

[...]

     iteration # 10     ecut=    40.00 Ry     beta=0.70
     CG style diagonalization
     c_bands:  1 eigenvalues not converged
     ethr =  5.39E-06,  avg # of iterations =  3.5

[...]

     total energy              =   -2680.76181983 Ry
     Harris-Foulkes estimate   =   -2680.76182257 Ry
     estimated scf accuracy    <       0.00000687 Ry

     iteration # 13     ecut=    40.00 Ry     beta=0.70
     CG style diagonalization
     ethr =  3.12E-09,  avg # of iterations =  3.9

     End of self-consistent calculation

[...]

          k = 0.0000 0.3849-0.3111 (  5816 PWs)   bands (ev):

[...]

          k =-0.5000 0.0962-0.3111 (  5818 PWs)   bands (ev):

   -80.0722 -80.0722 -80.0561 -80.0561 -38.7488 -38.7488 -38.7322 -38.7322
   -38.7256 -38.7256 -38.7140 -38.7140 -38.7002 -38.7002 -38.6916 -38.6916
   -26.6727 -26.6727 -26.4242 -26.4242 -26.0641 -26.0641 -26.0633 -26.0633
    -3.7635  -3.7635  -2.9936  -2.9936  -2.4635  -2.4635  -2.3728  -2.3728
    -2.2140  -2.2140  -1.9319  -1.9319  -1.5842  -1.5842  -1.2142  -1.2141
    -0.9785  -0.9785  -0.8200  -0.8200  -0.4810  -0.4810  -0.3930  -0.3930
     9.9784   9.9784  10.0116  10.0116  10.1190  10.1190  10.2256  10.2256
    10.2574  10.2574  10.3561  10.3561  10.3849  10.3849  10.4248  10.4248
    10.5617  10.5617  10.5909  10.5909  19.3760  19.3760  20.3519  20.3520
    23.6400  23.6400  23.9414  23.9414  24.4322  24.4322  24.6689  24.6689
    24.9383  24.9383  25.4121  25.4121  25.7592  25.7592  26.0877  26.0877
    26.3030  26.3030  27.2703  27.2703  27.8634  27.8634  28.0206  28.0206
    28.5941  28.5941  28.8958  28.8958  29.3862  29.3862  29.6387  29.6387
    30.2006  30.2006  30.9223  30.9223  31.1242  31.1242  31.7700  31.7700
    32.7699  32.7699  33.1182  33.1182  33.9137  33.9137  34.2917  34.2917
    34.7827  34.7827  35.7334  35.7334  36.6605  36.6606  37.1431  37.1431
    38.0992  38.0992  38.3602  38.3608

     the Fermi energy is    31.7419 ev

!    total energy              =   -2680.76182144 Ry
     Harris-Foulkes estimate   =   -2680.76182198 Ry
     estimated scf accuracy    <       0.00000063 Ry

     The total energy is the sum of the following terms:

     one-electron contribution =    -326.38300101 Ry
     hartree contribution      =     351.58898474 Ry
     xc contribution           =    -255.38972536 Ry
     ewald contribution        =   -2450.04338018 Ry
     smearing contrib. (-TS)   =      -0.53469963 Ry

     convergence has been achieved in  13 iterations

     Forces acting on atoms (Ry/au):

     atom    1 type  1   force =     0.00000000    0.00000000    0.01446559
     atom    2 type  1   force =     0.00000000    0.00000000    0.01446559
     atom    3 type  1   force =     0.00000000    0.00000000   -0.01446559
     atom    4 type  1   force =     0.00000000    0.00000000   -0.01446559
     atom    5 type  2   force =     0.00000000    0.00000000    0.00000000
     atom    6 type  2   force =     0.00000000    0.00000000    0.00000000
     atom    7 type  2   force =     0.00000000    0.01677419    0.00000000
     atom    8 type  2   force =    -0.01452687    0.00838709    0.00000000
     atom    9 type  2   force =     0.01452687    0.00838709    0.00000000
     atom   10 type  2   force =    -0.01452687   -0.00838709    0.00000000
     atom   11 type  2   force =     0.01452687   -0.00838709    0.00000000
     atom   12 type  2   force =     0.00000000   -0.01677419    0.00000000

     Total force =     0.050252     Total SCF correction =     0.000000

     entering subroutine stress ...

          total   stress  (Ry/bohr**3)                   (kbar)     P=  750.20
   0.00514209   0.00000000   0.00000000        756.43      0.00      0.00
   0.00000000   0.00514209   0.00000000          0.00    756.43      0.00
   0.00000000   0.00000000   0.00501502          0.00      0.00    737.74

     Writing output data file Prototype-La-hP12-MgZn2.save

     General routines

     Parallel routines

   This run was terminated on:  22: 7:16  22Mar2018

   JOB DONE.